 vasp.6.4.0 14Feb23 (build Jul 14 2023 13:46:40) complex

 executed on             LinuxIFC date 2023.07.30  06:01:47

 INCAR:
   SYSTEM = MgO-rocksalt
   ISMEAR = 0
   SIGMA = 0.05
   EDIFF = 1E-6
   ALGO = ALL
   ISTART = 0
   IBRION = -1
   NSW = 0
   ISYM = 2
   DIPOL = 0.5 0.5 0.5
   IDIPOL = 3
   LDIPOL = .TRUE.
   METAGGA = TPSS
   ENCUT = 520
   PREC = Accurate
   LASPH = .TRUE.
   LREAL = Auto
   ISPIN = 1
   NELM = 200
   NELMIN = 8
   NCORE = 16
   KPAR = 1
   LWAVE = .FALSE.
   LCHARG = .FALSE.

 POTCAR:    PAW_PBE Au 04Oct2007
 POTCAR:    PAW_PBE Mg_pv 13Apr2007
 POTCAR:    PAW_PBE O 08Apr2002
 POTCAR:    PAW_PBE Au 04Oct2007
   VRHFIN =Au: s1d10

   TITEL  = PAW_PBE Au 04Oct2007
   POMASS =  196.966; ZVAL   =   11.000    mass and valenz
   ENMAX  =  229.943; ENMIN  =  172.457 eV

   TITEL  = PAW_PBE Mg_pv 13Apr2007
   POMASS =   24.305; ZVAL   =    8.000    mass and valenz
   ENMAX  =  403.929; ENMIN  =  302.947 eV

   TITEL  = PAW_PBE O 08Apr2002
   POMASS =   16.000; ZVAL   =    6.000    mass and valenz
   ENMAX  =  400.000; ENMIN  =  300.000 eV

 Optimization of the real space projectors (new method)

 maximal supplied QI-value         = 15.12
 optimisation between [QCUT,QGAM] = [ 11.64, 23.28] = [ 37.95,151.78] Ry
 Optimized for a Real-space Cutoff    1.49 Angstroem

   l    n(q)    QCUT    max X(q) W(low)/X(q) W(high)/X(q)  e(spline)
   2      9    11.641    60.898    0.24E-03    0.10E-03    0.19E-06
   2      9    11.641    58.894    0.25E-03    0.10E-03    0.19E-06
   0     10    11.641   109.617    0.73E-04    0.33E-04    0.11E-06
   0     10    11.641    75.026    0.71E-04    0.32E-04    0.11E-06
   1     10    11.641    16.344    0.27E-04    0.97E-04    0.16E-06
   1     10    11.641    10.160    0.23E-04    0.77E-04    0.13E-06
 Optimization of the real space projectors (new method)

[...]

   l    n(q)    QCUT    max X(q) W(low)/X(q) W(high)/X(q)  e(spline)
   1      8    11.527     2.974    0.44E-04    0.56E-04    0.12E-06
   1      8    11.527     4.279    0.12E-03    0.12E-03    0.26E-06
   0      9    11.527    16.381    0.46E-04    0.64E-04    0.78E-07
   0      9    11.527     5.611    0.26E-04    0.43E-04    0.55E-07
   2      8    11.527     4.652    0.22E-03    0.72E-04    0.47E-07
 Optimization of the real space projectors (new method)

 maximal supplied QI-value         = 24.76
 optimisation between [QCUT,QGAM] = [ 11.64, 23.27] = [ 37.91,151.63] Ry
 Optimized for a Real-space Cutoff    1.14 Angstroem

   l    n(q)    QCUT    max X(q) W(low)/X(q) W(high)/X(q)  e(spline)
   0      8    11.635    20.381    0.10E-03    0.33E-03    0.24E-06
   0      8    11.635    15.268    0.11E-03    0.35E-03    0.26E-06
   1      7    11.635     5.964    0.24E-03    0.31E-03    0.30E-06
   1      7    11.635     5.382    0.22E-03    0.25E-03    0.26E-06
  PAW_PBE Au 04Oct2007                  :
  PAW_PBE Mg_pv 13Apr2007               :
  PAW_PBE O 08Apr2002                   :

 POSCAR: Au Mg  O
  positions in direct lattice

 METAGGA = TPSS                                        LMAXTAU =  6    LMIXTAU =  F

 ion  position               nearest neighbor table
   1  0.543  0.557  0.621-   2 2.56  58 2.91
   2  0.457  0.643  0.621-   1 2.56  58 2.91
   3  0.000  0.000  0.407- 105 2.11 106 2.11 121 2.11 186 2.11 103 2.11
   4  0.100  0.100  0.407- 105 2.11 106 2.11 110 2.11 125 2.11 104 2.11
   5  0.000  0.100  0.503- 103 2.11 104 2.11 107 2.11 184 2.11 105 2.11
   6  0.100  0.000  0.503- 103 2.11 104 2.11 120 2.11 123 2.11 106 2.11
   7  0.000  0.200  0.407- 109 2.11 105 2.11 110 2.11 190 2.11 107 2.11
   8  0.100  0.300  0.407- 110 2.11 109 2.11 114 2.11 129 2.11 108 2.11
   9  0.000  0.300  0.503- 107 2.11 108 2.11 111 2.11 188 2.11 109 2.11
  10  0.100  0.200  0.503- 108 2.11 107 2.11 104 2.11 127 2.11 110 2.11
  11  0.000  0.400  0.407- 109 2.11 113 2.11 114 2.11 194 2.11 111 2.11
  12  0.100  0.500  0.407- 113 2.11 114 2.11 118 2.11 133 2.11 112 2.11
  13  0.000  0.500  0.503- 111 2.11 112 2.11 115 2.11 192 2.11 113 2.11
  14  0.100  0.400  0.503- 108 2.11 111 2.11 112 2.11 131 2.11 114 2.11
  15  0.000  0.600  0.407- 113 2.11 117 2.11 118 2.11 198 2.11 115 2.11
  16  0.100  0.700  0.407- 122 2.11 118 2.11 117 2.11 137 2.11 116 2.11
  17  0.000  0.700  0.503- 119 2.11 116 2.11 115 2.11 196 2.11 117 2.11
  18  0.100  0.600  0.503- 112 2.11 115 2.11 116 2.11 135 2.11 118 2.11
  19  0.000  0.800  0.407- 117 2.11 121 2.11 122 2.11 202 2.11 119 2.11
  20  0.100  0.900  0.407- 106 2.11 121 2.11 122 2.11 141 2.11 120 2.11
  21  0.000  0.900  0.503- 103 2.11 119 2.11 120 2.11 200 2.11 121 2.11
  22  0.100  0.800  0.503- 116 2.11 119 2.11 120 2.11 139 2.11 122 2.11
  23  0.200  0.000  0.407- 126 2.11 125 2.11 106 2.11 141 2.11 123 2.11
  24  0.300  0.100  0.407- 125 2.11 126 2.11 130 2.11 145 2.11 124 2.11
  25  0.200  0.100  0.503- 124 2.11 123 2.11 104 2.11 127 2.11 125 2.11
  26  0.300  0.000  0.503- 123 2.11 124 2.11 140 2.11 143 2.11 126 2.11
  27  0.200  0.200  0.407- 129 2.11 130 2.11 110 2.11 125 2.11 127 2.11
  28  0.300  0.300  0.407- 129 2.11 130 2.11 134 2.11 149 2.11 128 2.11
  29  0.200  0.300  0.503- 127 2.11 128 2.11 108 2.11 131 2.11 129 2.11
  30  0.300  0.200  0.503- 127 2.11 128 2.11 124 2.11 147 2.11 130 2.11
  31  0.200  0.400  0.407- 134 2.11 129 2.11 133 2.11 114 2.11 131 2.11
  32  0.300  0.500  0.407- 133 2.11 134 2.11 138 2.11 153 2.11 132 2.11
  33  0.200  0.500  0.503- 132 2.11 131 2.11 112 2.11 135 2.11 133 2.11
  34  0.300  0.400  0.503- 131 2.11 128 2.11 132 2.11 151 2.11 134 2.11
  35  0.200  0.600  0.407- 138 2.11 133 2.11 137 2.11 118 2.11 135 2.11
  36  0.300  0.700  0.407- 137 2.11 142 2.11 138 2.11 157 2.11 136 2.11
  37  0.200  0.700  0.503- 136 2.11 139 2.11 116 2.11 135 2.11 137 2.11
  38  0.300  0.600  0.503- 135 2.11 132 2.11 136 2.11 155 2.11 138 2.11
  39  0.200  0.800  0.407- 137 2.11 142 2.11 141 2.11 122 2.11 139 2.11
  40  0.300  0.900  0.407- 141 2.11 126 2.11 142 2.11 161 2.11 140 2.11
  41  0.200  0.900  0.503- 140 2.11 123 2.11 139 2.11 120 2.11 141 2.11
  42  0.300  0.800  0.503- 136 2.11 139 2.11 140 2.11 159 2.11 142 2.11
  43  0.400  0.000  0.407- 126 2.11 145 2.11 146 2.11 161 2.11 143 2.11
  44  0.500  0.100  0.407- 145 2.11 146 2.11 150 2.11 165 2.11 144 2.11
  45  0.400  0.100  0.503- 124 2.11 143 2.11 144 2.11 147 2.11 145 2.11
  46  0.500  0.000  0.503- 143 2.11 144 2.11 160 2.11 163 2.11 146 2.11
  47  0.400  0.200  0.407- 149 2.11 145 2.11 130 2.11 150 2.11 147 2.11
  48  0.500  0.300  0.407- 150 2.11 149 2.11 154 2.11 169 2.11 148 2.11
  49  0.400  0.300  0.503- 147 2.11 128 2.11 148 2.11 151 2.11 149 2.11
  50  0.500  0.200  0.503- 148 2.11 147 2.11 144 2.11 167 2.11 150 2.11
  51  0.400  0.400  0.407- 134 2.11 149 2.11 153 2.11 154 2.11 151 2.11
  52  0.500  0.500  0.407- 153 2.11 154 2.11 158 2.11 173 2.11 152 2.11
  53  0.400  0.500  0.503- 132 2.11 151 2.11 152 2.11 155 2.11 153 2.11
  54  0.500  0.400  0.503- 148 2.11 151 2.11 152 2.11 171 2.11 154 2.11
  55  0.400  0.600  0.407- 138 2.11 153 2.11 157 2.11 158 2.11 155 2.11
  56  0.500  0.700  0.407- 162 2.11 158 2.11 157 2.11 177 2.11 156 2.11
  57  0.400  0.700  0.503- 159 2.11 155 2.11 156 2.11 136 2.11 157 2.11
  58  0.500  0.600  0.503- 152 2.11 155 2.11 156 2.11 175 2.11 158 2.11   2 2.91   1 2.91
  59  0.400  0.800  0.407- 157 2.11 142 2.11 161 2.11 162 2.11 159 2.11
  60  0.500  0.900  0.407- 146 2.11 161 2.11 162 2.11 181 2.11 160 2.11
[...]
 188  0.900  0.300  0.503-  90 2.11  89 2.11   9 2.11  94 2.11  88 2.11
 189  0.800  0.300  0.407-  68 2.11  87 2.11  88 2.11  91 2.11  89 2.11
 190  0.900  0.200  0.407-  88 2.11  84 2.11  87 2.11   7 2.11  90 2.11
 191  0.800  0.400  0.503-  74 2.11  89 2.11  93 2.11  94 2.11  91 2.11
 192  0.900  0.500  0.503-  13 2.11  93 2.11  94 2.11  98 2.11  92 2.11
 193  0.800  0.500  0.407-  72 2.11  91 2.11  92 2.11  95 2.11  93 2.11
 194  0.900  0.400  0.407-  11 2.11  88 2.11  91 2.11  92 2.11  94 2.11
 195  0.800  0.600  0.503-  78 2.11  93 2.11  97 2.11  98 2.11  95 2.11
 196  0.900  0.700  0.503- 102 2.11  97 2.11  98 2.11  17 2.11  96 2.11
 197  0.800  0.700  0.407-  76 2.11  99 2.11  96 2.11  95 2.11  97 2.11
 198  0.900  0.600  0.407-  15 2.11  92 2.11  95 2.11  96 2.11  98 2.11
 199  0.800  0.800  0.503-  82 2.11  97 2.11 101 2.11 102 2.11  99 2.11
 200  0.900  0.900  0.503-  21 2.11  86 2.11 101 2.11 102 2.11 100 2.11
 201  0.800  0.900  0.407-  80 2.11  83 2.11  99 2.11 100 2.11 101 2.11
 202  0.900  0.800  0.407-  96 2.11  19 2.11  99 2.11 100 2.11 102 2.11

  LATTYP: Found a simple tetragonal cell.
 ALAT       =    21.1388521970
 C/A-ratio  =     1.0461251639

  Lattice vectors:

 A1 = (  21.1388521970,   0.0000000000,   0.0000000000)
 A2 = (   0.0000000000,  21.1388521970,   0.0000000000)
 A3 = (   0.0000000000,   0.0000000000,  22.1138852197)

Analysis of symmetry for initial positions (statically):
 Subroutine PRICEL returns:
 Original cell was already a primitive cell.

 Routine SETGRP: Setting up the symmetry group for a
 simple tetragonal supercell.

 Subroutine GETGRP returns: Found  4 space group operations
 (whereof  1 operations were pure point group operations)
 out of a pool of 16 trial point group operations.

The static configuration has the point symmetry C_1 .
 The point group associated with its full space group is C_2v.

Analysis of symmetry for dynamics (positions and initial velocities):
 Subroutine PRICEL returns:
 Original cell was already a primitive cell.

 Routine SETGRP: Setting up the symmetry group for a
 simple tetragonal supercell.

 Subroutine GETGRP returns: Found  4 space group operations
 (whereof  1 operations were pure point group operations)
 out of a pool of 16 trial point group operations.

The dynamic configuration has the point symmetry C_1 .
 The point group associated with its full space group is C_2v.

 Subroutine INISYM returns: Found  4 space group operations
 (whereof  1 operations are pure point group operations),
 and found     1 'primitive' translations

                                     Primitive cell

  volume of cell :    9881.6133

  direct lattice vectors                    reciprocal lattice vectors
    21.138852197  0.000000000  0.000000000     0.047306258  0.000000000  0.000000000
     0.000000000 21.138852197  0.000000000     0.000000000  0.047306258  0.000000000
     0.000000000  0.000000000 22.113885220     0.000000000  0.000000000  0.045220457

  length of vectors
    21.138852197 21.138852197 22.113885220     0.047306258  0.047306258  0.045220457

  position of ions in fractional coordinates (direct lattice)
     0.542815811  0.557184154  0.620909636
     0.457184189  0.642815775  0.620909636
     0.000000000  0.000000000  0.406984115
     0.100000000  0.100000000  0.406984115
     0.000000000  0.100000000  0.502574971
     0.100000000  0.000000000  0.502574971
     0.000000000  0.200000000  0.406984115
     0.100000000  0.300000000  0.406984115
     0.000000000  0.300000000  0.502574971
     0.100000000  0.200000000  0.502574971
     0.000000000  0.400000000  0.406984115
     0.100000000  0.500000000  0.406984115
     0.000000000  0.500000000  0.502574971
     0.100000000  0.400000000  0.502574971
[...]
     52     -87.7611      2.00000
     53     -87.5473      2.00000
     54     -86.9516      2.00000
     55     -86.7414      2.00000
     56     -86.2460      2.00000
     57     -86.1859      2.00000
     58     -85.7750      2.00000
     59     -85.3990      2.00000
     60     -85.0097      2.00000
[...]
    850       9.9475      0.00000
    851      10.2471      0.00000
    852      10.3604      0.00000
    853      11.3866      0.00000
    854      11.6578      0.00000
    855      11.8219      0.00000
    856      12.0672      0.00000
    857      12.1590      0.00000
    858      12.5486      0.00000
    859      12.7185      0.00000
    860      12.7951      0.00000
    861      13.0658      0.00000
    862      13.4165      0.00000
    863      13.5157      0.00000
    864      13.9772      0.00000

 soft charge-density along one line, spin component           1
         0         1         2         3         4         5         6         7         8         9
 total charge-density along one line

------------------------ aborting loop EDIFF was not reached (unconverged)  ----------------------------

  FORCE on cell =-STRESS in cart. coord.  units (eV):
  Direction    XX          YY          ZZ          XY          YZ          ZX
  Alpha Z  1365.75682  1365.75682  1365.75682
  Ewald  479770.72537479770.72537************  -347.00501     0.00001    -0.00001
  Hartree482753.64883482753.64883************  -247.27927     0.00018    -0.00001
  E(xc)   -7864.35162 -7864.30867 -7830.23008    -0.24582    -0.07909    -0.10677
  Local  ************************990712.01084   589.08437    -0.00047     0.00004
  n-local -5504.98682 -5506.42405 -5888.01026     7.81285     6.54632     4.66332
  augment  3592.48462  3592.48462  3803.89755     0.88535    -0.00000     0.00000
  Kinetic 20564.62087 20548.79992 23859.21826    15.85741    -8.10117    -8.88205
  Fock        0.00000     0.00000     0.00000     0.00000     0.00000     0.00000
  Total    2786.69583  2786.69583   667.40252    19.06891     0.00000     0.00000
  in kB     451.82712   451.82712   108.21079     3.09178     0.00000     0.00000

 VOLUME and BASIS-vectors are now :
  energy-cutoff  :      520.00
  volume of cell :     9881.61
      direct lattice vectors                 reciprocal lattice vectors
    21.138852197  0.000000000  0.000000000     0.047306258  0.000000000  0.000000000
     0.000000000 21.138852197  0.000000000     0.000000000  0.047306258  0.000000000
     0.000000000  0.000000000 22.113885220     0.000000000  0.000000000  0.045220457

  length of vectors
    21.138852197 21.138852197 22.113885220     0.047306258  0.047306258  0.045220457

 FORCES acting on ions:
    Electron-Ion                     Ewald-Force                    Non-Local-Force
   -.216E+03 0.216E+03 -.217E+04   0.188E+03 -.188E+03 0.208E+04   0.441E+00 -.441E+00 -.535E+02
   0.216E+03 -.216E+03 -.217E+04   -.188E+03 0.188E+03 0.208E+04   -.441E+00 0.441E+00 -.535E+02
   0.841E+01 -.679E+02 0.671E+03   -.205E+00 0.348E+01 -.923E+03   0.207E+01 -.287E+01 -.528E+02
   0.679E+02 -.841E+01 0.671E+03   -.348E+01 0.205E+00 -.923E+03   0.287E+01 -.207E+01 -.528E+02
   -.581E-05 -.243E-03 -.872E+03   0.101E-06 -.159E-05 0.915E+03   0.179E-16 0.145E-16 -.147E+02
   0.925E+02 -.925E+02 -.885E+03   -.533E+01 0.533E+01 0.914E+03   0.834E+01 -.834E+01 -.152E+02
   -.841E+01 0.679E+02 0.671E+03   0.205E+00 -.348E+01 -.923E+03   -.207E+01 0.287E+01 -.528E+02
   0.846E+02 0.120E+03 0.730E+03   -.528E+01 -.676E+01 -.925E+03   0.978E+01 0.942E+01 -.527E+02
   -.120E+02 0.127E+03 -.887E+03   0.571E+00 -.720E+01 0.914E+03   -.462E+01 0.466E+01 -.149E+02
   0.816E+02 0.816E+02 -.879E+03   -.473E+01 -.473E+01 0.915E+03   0.441E+01 0.441E+01 -.141E+02
   -.799E+01 0.119E+03 0.763E+03   0.476E+00 -.618E+01 -.926E+03   -.294E+01 0.522E+01 -.560E+02
   0.906E+02 0.671E+02 0.889E+03   -.103E+02 -.523E+01 -.930E+03   0.280E+02 0.982E+01 -.547E+02
   -.166E+02 0.828E+02 -.912E+03   0.548E+00 -.503E+01 0.912E+03   -.209E+01 0.428E+01 -.150E+02
   0.186E+03 0.194E+03 -.907E+03   -.105E+02 -.973E+01 0.912E+03   0.159E+02 0.895E+01 -.169E+02
   0.121E-05 -.167E-03 0.824E+03   -.146E-06 0.155E-05 -.928E+03   0.272E-18 -.502E-16 -.553E+02
   0.909E+02 -.612E+02 0.902E+03   -.112E+02 0.469E+01 -.930E+03   0.330E+02 -.540E+01 -.533E+02
   0.166E+02 -.828E+02 -.912E+03   -.548E+00 0.503E+01 0.912E+03   0.209E+01 -.428E+01 -.150E+02
   0.181E+03 0.149E+02 -.917E+03   -.175E+02 -.747E+00 0.909E+03   0.291E+02 0.983E+00 -.191E+02
   0.799E+01 -.119E+03 0.763E+03   -.476E+00 0.618E+01 -.926E+03   0.294E+01 -.522E+01 -.560E+02
   0.923E+02 -.120E+03 0.744E+03   -.612E+01 0.710E+01 -.926E+03   0.175E+02 -.117E+02 -.513E+02
   0.120E+02 -.127E+03 -.887E+03   -.571E+00 0.720E+01 0.914E+03   0.462E+01 -.466E+01 -.149E+02
   0.194E+03 -.195E+03 -.909E+03   -.124E+02 0.986E+01 0.911E+03   0.224E+02 -.603E+01 -.168E+02
   0.120E+03 -.923E+02 0.744E+03   -.710E+01 0.612E+01 -.926E+03   0.117E+02 -.175E+02 -.513E+02
   0.119E+03 -.799E+01 0.763E+03   -.618E+01 0.476E+00 -.926E+03   0.522E+01 -.294E+01 -.560E+02
   0.127E+03 -.120E+02 -.887E+03   -.720E+01 0.571E+00 0.914E+03   0.466E+01 -.462E+01 -.149E+02
   0.195E+03 -.194E+03 -.909E+03   -.986E+01 0.124E+02 0.911E+03   0.603E+01 -.224E+02 -.168E+02
   0.120E+03 0.846E+02 0.730E+03   -.676E+01 -.528E+01 -.925E+03   0.942E+01 0.978E+01 -.527E+02
   0.111E+03 0.118E+03 0.915E+03   -.117E+02 -.150E+02 -.932E+03   0.239E+02 0.358E+02 -.478E+02
   0.223E+03 0.223E+03 -.904E+03   -.133E+02 -.133E+02 0.911E+03   0.161E+02 0.161E+02 -.173E+02
   0.194E+03 0.186E+03 -.907E+03   -.973E+01 -.105E+02 0.912E+03   0.895E+01 0.159E+02 -.169E+02
   0.118E+03 0.111E+03 0.915E+03   -.150E+02 -.117E+02 -.932E+03   0.358E+02 0.239E+02 -.478E+02
   0.933E+02 0.575E+02 0.988E+03   -.292E+02 -.163E+02 -.953E+03   0.501E+02 0.249E+02 -.238E+02
   0.148E+03 0.770E+02 -.915E+03   -.334E+02 -.142E+02 0.902E+03   0.460E+02 0.157E+02 -.275E+02
   0.124E+03 0.124E+03 -.909E+03   -.321E+02 -.321E+02 0.898E+03   0.346E+02 0.346E+02 -.341E+02
   0.102E+03 0.265E+01 0.964E+03   -.244E+02 -.115E+01 -.940E+03   0.518E+02 0.391E+01 -.373E+02
   0.948E+02 -.546E+02 0.996E+03   -.310E+02 0.145E+02 -.957E+03   0.490E+02 -.185E+02 -.223E+02
   0.141E+03 -.673E+02 -.910E+03   -.375E+02 0.120E+02 0.900E+03   0.461E+02 -.974E+01 -.283E+02
   0.152E+03 0.986E+01 -.872E+03   -.797E+02 -.832E+01 0.863E+03   0.414E+02 0.291E+01 -.484E+02
   0.114E+03 -.106E+03 0.924E+03   -.165E+02 0.120E+02 -.934E+03   0.372E+02 -.204E+02 -.417E+02
   0.106E+03 -.114E+03 0.924E+03   -.120E+02 0.165E+02 -.934E+03   0.204E+02 -.372E+02 -.417E+02
   0.217E+03 -.217E+03 -.902E+03   -.149E+02 0.149E+02 0.910E+03   0.193E+02 -.193E+02 -.195E+02
   0.125E+03 -.125E+03 -.900E+03   -.370E+02 0.370E+02 0.892E+03   0.301E+02 -.301E+02 -.366E+02
   0.612E+02 -.909E+02 0.902E+03   -.469E+01 0.112E+02 -.930E+03   0.540E+01 -.330E+02 -.533E+02
   0.121E-05 -.112E-03 0.824E+03   -.139E-06 -.416E-05 -.928E+03   0.419E-16 0.610E-17 -.553E+02
   0.828E+02 -.166E+02 -.912E+03   -.503E+01 0.548E+00 0.912E+03   0.428E+01 -.209E+01 -.150E+02
   -.149E+02 -.181E+03 -.917E+03   0.747E+00 0.175E+02 0.909E+03   -.983E+00 -.291E+02 -.191E+02
   0.671E+02 0.906E+02 0.889E+03   -.523E+01 -.103E+02 -.930E+03   0.982E+01 0.280E+02 -.547E+02
   0.265E+01 0.102E+03 0.964E+03   -.115E+01 -.244E+02 -.940E+03   0.391E+01 0.518E+02 -.373E+02
   0.770E+02 0.148E+03 -.915E+03   -.142E+02 -.334E+02 0.902E+03   0.157E+02 0.460E+02 -.275E+02
   0.149E+02 0.181E+03 -.917E+03   -.747E+00 -.175E+02 0.909E+03   0.983E+00 0.291E+02 -.191E+02
   0.575E+02 0.933E+02 0.988E+03   -.163E+02 -.292E+02 -.953E+03   0.249E+02 0.501E+02 -.238E+02
   0.388E+01 0.688E+02 0.105E+04   -.309E+01 -.313E+02 -.995E+03   0.164E+01 0.409E+02 -.973E+01
   0.115E+03 0.115E+03 -.836E+03   -.714E+02 -.714E+02 0.830E+03   0.249E+02 0.249E+02 -.612E+02
   0.986E+01 0.152E+03 -.872E+03   -.832E+01 -.797E+02 0.863E+03   0.291E+01 0.414E+02 -.484E+02
   0.688E+02 0.388E+01 0.105E+04   -.313E+02 -.309E+01 -.995E+03   0.409E+02 0.164E+01 -.973E+01
   -.388E+01 -.688E+02 0.105E+04   0.309E+01 0.313E+02 -.995E+03   -.164E+01 -.409E+02 -.973E+01
   0.122E+03 -.122E+03 -.792E+03   -.784E+02 0.784E+02 0.786E+03   0.201E+02 -.201E+02 -.636E+02
   -.241E-04 -.235E-03 -.649E+03   0.225E-04 0.543E-04 0.653E+03   -.523E-16 0.498E-16 -.946E+02
   0.546E+02 -.948E+02 0.996E+03   -.145E+02 0.310E+02 -.957E+03   0.185E+02 -.490E+02 -.223E+02
   -.265E+01 -.102E+03 0.964E+03   0.115E+01 0.244E+02 -.940E+03   -.391E+01 -.518E+02 -.373E+02
[...]
   -.989E+02 0.989E+02 0.655E+03   0.801E+01 -.801E+01 -.708E+03   -.376E+01 0.376E+01 -.315E+01
   -.548E+02 0.548E+02 0.557E+03   0.318E+01 -.318E+01 -.705E+03   -.930E+00 0.930E+00 -.637E+01
   -.120E+03 0.106E+03 -.700E+03   0.191E+02 -.135E+02 0.691E+03   -.666E+01 0.363E+01 -.130E+02
   -.109E+03 0.573E+02 -.706E+03   0.123E+02 -.466E+01 0.694E+03   -.727E+01 0.177E+01 -.927E+01
   -.764E+02 0.417E+02 0.736E+03   0.168E+02 -.581E+01 -.716E+03   -.811E+01 0.475E+00 -.175E+01
   -.785E+02 0.916E+02 0.650E+03   0.658E+01 -.564E+01 -.708E+03   -.372E+01 0.138E+01 -.445E+01
   -.106E+03 -.570E+01 -.699E+03   0.310E+02 0.185E+01 0.685E+03   -.842E+01 -.466E+00 -.146E+02
   -.109E+03 -.652E+02 -.707E+03   0.111E+02 0.531E+01 0.694E+03   -.657E+01 -.605E+00 -.743E+01
   -.788E+02 -.457E+02 0.730E+03   0.157E+02 0.673E+01 -.714E+03   -.675E+01 -.234E+01 -.172E+01
   -.704E+02 -.264E+01 0.694E+03   0.885E+01 0.327E+00 -.710E+03   -.470E+01 -.556E-01 -.416E+01
   -.122E+03 -.110E+03 -.703E+03   0.165E+02 0.127E+02 0.692E+03   -.644E+01 -.409E+01 -.111E+02
   -.102E+03 -.131E+03 -.707E+03   0.514E+01 0.639E+01 0.697E+03   0.472E+01 0.474E+01 0.161E+02
   -.100E+03 -.100E+03 0.646E+03   0.738E+01 0.738E+01 -.707E+03   -.329E+01 -.329E+01 -.508E+01
   -.740E+02 -.935E+02 0.645E+03   0.574E+01 0.562E+01 -.707E+03   -.308E+01 -.179E+01 -.526E+01
   -.361E-04 -.995E-01 -.543E+04   0.348E-11 -.155E-11 -.739E-11   0.163E-12 -.471E-13 -.395E+04

 POSITION                                       TOTAL-FORCE (eV/Angst)
     11.47450     11.77823     13.73072       -28.409075     28.409075    -95.417353
      9.66435     13.58839     13.73072        28.409075    -28.409075    -95.417353
      0.00000      0.00000      9.00000        10.294020    -67.317243   -258.737787
      2.11389      2.11389      9.00000        67.317243    -10.294020   -258.737787
      0.00000      2.11389     11.11389         0.000000     -0.000000     75.065841
      2.11389      0.00000     11.11389        95.563242    -95.563242     60.739996
      0.00000      4.22777      9.00000       -10.294020     67.317243   -258.737787
      2.11389      6.34166      9.00000        89.072240    123.128649   -201.223429
      0.00000      6.34166     11.11389       -16.085147    124.367226     58.737457
      2.11389      4.22777     11.11389        81.298236     81.298236     68.167879
      0.00000      8.45554      9.00000       -10.452914    118.499768   -172.232067
      2.11389     10.56943      9.00000       108.343721     71.681218    -48.716158
      0.00000     10.56943     11.11389       -18.130804     82.033184     30.671380
      2.11389      8.45554     11.11389       191.189676    193.799507     34.059728
      0.00000     12.68331      9.00000         0.000000     -0.000000   -112.518144
      2.11389     14.79720      9.00000       112.736186    -61.884785    -34.759882
      0.00000     14.79720     11.11389        18.130804    -82.033184     30.671380
      2.11389     12.68331     11.11389       192.485400     15.164820     18.561019
      0.00000     16.91108      9.00000        10.452914   -118.499768   -172.232067
      2.11389     19.02497      9.00000       103.666673   -124.563040   -186.400560
      0.00000     19.02497     11.11389        16.085147   -124.367226     58.737457
      2.11389     16.91108     11.11389       204.002993   -191.580799     31.928584
      4.22777      0.00000      9.00000       124.563040   -103.666673   -186.400560
      6.34166      2.11389      9.00000       118.499768    -10.452914   -172.232067
      4.22777      2.11389     11.11389       124.367226    -16.085147     58.737457
      6.34166      0.00000     11.11389       191.580799   -204.002993     31.928584
      4.22777      4.22777      9.00000       123.128649     89.072240   -201.223429
      6.34166      6.34166      9.00000       123.544250    139.242045    -17.943935
      4.22777      6.34166     11.11389       225.540282    225.540282     36.159018
      6.34166      4.22777     11.11389       193.799507    191.189676     34.059728
      4.22777      8.45554      9.00000       139.242045    123.544250    -17.943935
      6.34166     10.56943      9.00000       114.236963     66.059598     57.246864
      4.22777     10.56943     11.11389       160.202990     78.540673      5.706549
      6.34166      8.45554     11.11389       126.667076    126.667076      1.010630
      4.22777     12.68331      9.00000       129.155478      5.406452     33.122852
      6.34166     14.79720      9.00000       112.786638    -58.578743     62.974379
      4.22777     14.79720     11.11389       149.497733    -65.037057      7.395685
      6.34166     12.68331     11.11389       113.582292      4.447475    -11.525147
      4.22777     16.91108      9.00000       134.996229   -114.325574     -4.658618
      6.34166     19.02497      9.00000       114.325574   -134.996229     -4.658618
      4.22777     19.02497     11.11389       221.420762   -221.420762     34.964369
      6.34166     16.91108     11.11389       118.095334   -118.095334      1.452380
      8.45554      0.00000      9.00000        61.884785   -112.736186    -34.759882
     10.56943      2.11389      9.00000         0.000000     -0.000000   -112.518144
      8.45554      2.11389     11.11389        82.033184    -18.130804     30.671380
     10.56943      0.00000     11.11389       -15.164820   -192.485400     18.561019
      8.45554      4.22777      9.00000        71.681218    108.343721    -48.716158
     10.56943      6.34166      9.00000         5.406452    129.155478     33.122852
      8.45554      6.34166     11.11389        78.540673    160.202990      5.706549
     10.56943      4.22777     11.11389        15.164820    192.485400     18.561019
      8.45554      8.45554      9.00000        66.059598    114.236963     57.246864
     10.56943     10.56943      9.00000         2.436431     78.389530     92.338836
      8.45554     10.56943     11.11389        68.948568     68.948568    -21.752147
     10.56943      8.45554     11.11389         4.447475    113.582292    -11.525147
      8.45554     12.68331      9.00000        78.389530      2.436431     92.338836
     10.56943     14.79720      9.00000        -2.436431    -78.389530     92.338836
      8.45554     14.79720     11.11389        64.114800    -64.114800    -23.829550
     10.56943     12.68331     11.11389         0.000000     -0.000000    -44.504746
      8.45554     16.91108      9.00000        58.578743   -112.786638     62.974379
     10.56943     19.02497      9.00000        -5.406452   -129.155478     33.122852
[...]
     19.02497      6.34166     11.11389      -105.298379    120.341661     49.601433
     16.91108      6.34166      9.00000       -94.621856     94.621856     -9.936892
     19.02497      4.22777      9.00000       -52.535489     52.535489   -107.091531
     16.91108      8.45554     11.11389      -107.498005     95.904855     23.707185
     19.02497     10.56943     11.11389      -103.777018     54.425322     24.941218
     16.91108     10.56943      9.00000       -67.725626     36.351279     64.682240
     19.02497      8.45554      9.00000       -75.653838     87.320597    -15.895810
     16.91108     12.68331     11.11389       -83.176357     -4.316666     17.878888
     19.02497     14.79720     11.11389      -104.856945    -60.535629     26.066704
     16.91108     14.79720      9.00000       -69.902373    -41.263686     60.330920
     19.02497     12.68331      9.00000       -66.265794     -2.365869     27.065723
     16.91108     16.91108     11.11389      -112.007569   -101.515565     24.647031
     19.02497     19.02497     11.11389       -92.052723   -119.415449     51.720855
     16.91108     19.02497      9.00000       -96.372612    -96.372612    -20.427119
     19.02497     16.91108      9.00000       -71.305696    -89.714071    -21.243256
    total drift:                               -0.000036     -0.099520  -9380.926875

  FREE ENERGIE OF THE ION-ELECTRON SYSTEM (eV)
  free  energy   TOTEN  =      4908.62576997 eV

  energy  without entropy=     4908.64993351  energy(sigma->0) =     4908.63785174