 vasp.6.3.0 20Jan22 (build Apr  1 2022 16:44:48) complex
 executed on        HPECrayEX_GCC date 2022.12.11  05:59:22

 INCAR:
   SYSTEM = MgO-rocksalt
   ISMEAR = 0
   SIGMA = 0.05
   EDIFF = 1E-6
   ALGO = ALL
   ISTART = 0
   IBRION = -1
   NSW = 0
   ISYM = 2
   DIPOL = 0.5 0.5 0.5
   IDIPOL = 3
   LDIPOL = .TRUE.
   GGA = PS
   IVDW = 12
   VDW_A1 = 0.4466
   VDW_S8 = 2.9491
   VDW_A2 = 6.1742
   ENCUT = 520
   PREC = Accurate
   LASPH = .TRUE.
   LREAL = Auto
   ISPIN = 1
   NELM = 200
   NELMIN = 8
   NCORE = 4
   KPAR = 2
   LWAVE = .FALSE.
   LCHARG = .FALSE.

 POTCAR:    PAW_PBE Ag 02Apr2005
 POTCAR:    PAW_PBE Mg_pv 13Apr2007
 POTCAR:    PAW_PBE O 08Apr2002
 POTCAR:    PAW_PBE Ag 02Apr2005
   VRHFIN =Ag : s1 d10

   TITEL  = PAW_PBE Ag 02Apr2005
   POMASS =  107.868; ZVAL   =   11.000    mass and valenz
   ENMAX  =  249.844; ENMIN  =  187.383 eV

   TITEL  = PAW_PBE Mg_pv 13Apr2007
   POMASS =   24.305; ZVAL   =    8.000    mass and valenz
   ENMAX  =  403.929; ENMIN  =  302.947 eV

   TITEL  = PAW_PBE O 08Apr2002
   POMASS =   16.000; ZVAL   =    6.000    mass and valenz
   ENMAX  =  400.000; ENMIN  =  300.000 eV

 Optimization of the real space projectors (new method)

 maximal supplied QI-value         = 15.12
 optimisation between [QCUT,QGAM] = [ 11.64, 23.28] = [ 37.95,151.78] Ry
 Optimized for a Real-space Cutoff    1.45 Angstroem

   l    n(q)    QCUT    max X(q) W(low)/X(q) W(high)/X(q)  e(spline)
   2      9    11.641    53.897    0.22E-03    0.42E-04    0.28E-06
   2      9    11.641    52.416    0.23E-03    0.44E-04    0.29E-06
   0     10    11.641   122.045    0.51E-04    0.25E-04    0.16E-06
   0     10    11.641    73.629    0.49E-04    0.24E-04    0.16E-06
   1     10    11.641    15.255    0.99E-04    0.55E-04    0.11E-06
   1     10    11.641     9.562    0.81E-04    0.47E-04    0.95E-07
 Optimization of the real space projectors (new method)

[...]

   l    n(q)    QCUT    max X(q) W(low)/X(q) W(high)/X(q)  e(spline)
   1      8    11.527     2.974    0.44E-04    0.56E-04    0.12E-06
   1      8    11.527     4.279    0.12E-03    0.12E-03    0.26E-06
   0      9    11.527    16.381    0.46E-04    0.64E-04    0.78E-07
   0      9    11.527     5.611    0.26E-04    0.43E-04    0.55E-07
   2      8    11.527     4.652    0.22E-03    0.72E-04    0.47E-07
 Optimization of the real space projectors (new method)

 maximal supplied QI-value         = 24.76
 optimisation between [QCUT,QGAM] = [ 11.64, 23.27] = [ 37.91,151.63] Ry
 Optimized for a Real-space Cutoff    1.14 Angstroem

   l    n(q)    QCUT    max X(q) W(low)/X(q) W(high)/X(q)  e(spline)
   0      8    11.635    20.381    0.10E-03    0.33E-03    0.24E-06
   0      8    11.635    15.268    0.11E-03    0.35E-03    0.26E-06
   1      7    11.635     5.964    0.24E-03    0.31E-03    0.30E-06
   1      7    11.635     5.382    0.22E-03    0.25E-03    0.26E-06
|               ----> ADVICE to this user running VASP <----                  |
|     You enforced a specific xc type in the INCAR file but a different       |
|     type was found in the POTCAR file.                                      |
|     I HOPE YOU KNOW WHAT YOU ARE DOING!                                     |

  PAW_PBE Ag 02Apr2005                  :
  PAW_PBE Mg_pv 13Apr2007               :
  PAW_PBE O 08Apr2002                   :

 POSCAR: Ag Mg  O
  positions in direct lattice
 exchange correlation table for  LEXCH =       14
   RHO(1)=    0.500       N(1)  =     2000
   RHO(2)=  100.500       N(2)  =     4000

 ion  position               nearest neighbor table
   1  0.561  0.500  0.635-   2 2.57  73 3.05
   2  0.439  0.500  0.635-   1 2.57  53 3.05
   3  0.000  0.000  0.407- 105 2.11 106 2.11 121 2.11 186 2.11 103 2.11
   4  0.100  0.100  0.407- 105 2.11 106 2.11 110 2.11 125 2.11 104 2.11
   5  0.000  0.100  0.503- 103 2.11 104 2.11 107 2.11 184 2.11 105 2.11
   6  0.100  0.000  0.503- 103 2.11 104 2.11 120 2.11 123 2.11 106 2.11
   7  0.000  0.200  0.407- 109 2.11 105 2.11 110 2.11 190 2.11 107 2.11
   8  0.100  0.300  0.407- 110 2.11 109 2.11 114 2.11 129 2.11 108 2.11
   9  0.000  0.300  0.503- 107 2.11 108 2.11 111 2.11 188 2.11 109 2.11
  10  0.100  0.200  0.503- 108 2.11 107 2.11 104 2.11 127 2.11 110 2.11
  11  0.000  0.400  0.407- 109 2.11 113 2.11 114 2.11 194 2.11 111 2.11
  12  0.100  0.500  0.407- 113 2.11 114 2.11 118 2.11 133 2.11 112 2.11
  13  0.000  0.500  0.503- 111 2.11 112 2.11 115 2.11 192 2.11 113 2.11
  14  0.100  0.400  0.503- 108 2.11 111 2.11 112 2.11 131 2.11 114 2.11
  15  0.000  0.600  0.407- 113 2.11 117 2.11 118 2.11 198 2.11 115 2.11
  16  0.100  0.700  0.407- 122 2.11 118 2.11 117 2.11 137 2.11 116 2.11
  17  0.000  0.700  0.503- 119 2.11 116 2.11 115 2.11 196 2.11 117 2.11
  18  0.100  0.600  0.503- 112 2.11 115 2.11 116 2.11 135 2.11 118 2.11
  19  0.000  0.800  0.407- 117 2.11 121 2.11 122 2.11 202 2.11 119 2.11
  20  0.100  0.900  0.407- 106 2.11 121 2.11 122 2.11 141 2.11 120 2.11
  21  0.000  0.900  0.503- 103 2.11 119 2.11 120 2.11 200 2.11 121 2.11
  22  0.100  0.800  0.503- 116 2.11 119 2.11 120 2.11 139 2.11 122 2.11
  23  0.200  0.000  0.407- 126 2.11 125 2.11 106 2.11 141 2.11 123 2.11
  24  0.300  0.100  0.407- 125 2.11 126 2.11 130 2.11 145 2.11 124 2.11
  25  0.200  0.100  0.503- 124 2.11 123 2.11 104 2.11 127 2.11 125 2.11
  26  0.300  0.000  0.503- 123 2.11 124 2.11 140 2.11 143 2.11 126 2.11
  27  0.200  0.200  0.407- 129 2.11 130 2.11 110 2.11 125 2.11 127 2.11
  28  0.300  0.300  0.407- 129 2.11 130 2.11 134 2.11 149 2.11 128 2.11
  29  0.200  0.300  0.503- 127 2.11 128 2.11 108 2.11 131 2.11 129 2.11
  30  0.300  0.200  0.503- 127 2.11 128 2.11 124 2.11 147 2.11 130 2.11
  31  0.200  0.400  0.407- 134 2.11 129 2.11 133 2.11 114 2.11 131 2.11
  32  0.300  0.500  0.407- 133 2.11 134 2.11 138 2.11 153 2.11 132 2.11
  33  0.200  0.500  0.503- 132 2.11 131 2.11 112 2.11 135 2.11 133 2.11
  34  0.300  0.400  0.503- 131 2.11 128 2.11 132 2.11 151 2.11 134 2.11
  35  0.200  0.600  0.407- 138 2.11 133 2.11 137 2.11 118 2.11 135 2.11
  36  0.300  0.700  0.407- 137 2.11 142 2.11 138 2.11 157 2.11 136 2.11
  37  0.200  0.700  0.503- 136 2.11 139 2.11 116 2.11 135 2.11 137 2.11
  38  0.300  0.600  0.503- 135 2.11 132 2.11 136 2.11 155 2.11 138 2.11
  39  0.200  0.800  0.407- 137 2.11 142 2.11 141 2.11 122 2.11 139 2.11
  40  0.300  0.900  0.407- 141 2.11 126 2.11 142 2.11 161 2.11 140 2.11
  41  0.200  0.900  0.503- 140 2.11 123 2.11 139 2.11 120 2.11 141 2.11
  42  0.300  0.800  0.503- 136 2.11 139 2.11 140 2.11 159 2.11 142 2.11
  43  0.400  0.000  0.407- 126 2.11 145 2.11 146 2.11 161 2.11 143 2.11
  44  0.500  0.100  0.407- 145 2.11 146 2.11 150 2.11 165 2.11 144 2.11
  45  0.400  0.100  0.503- 124 2.11 143 2.11 144 2.11 147 2.11 145 2.11
  46  0.500  0.000  0.503- 143 2.11 144 2.11 160 2.11 163 2.11 146 2.11
  47  0.400  0.200  0.407- 149 2.11 145 2.11 130 2.11 150 2.11 147 2.11
  48  0.500  0.300  0.407- 150 2.11 149 2.11 154 2.11 169 2.11 148 2.11
  49  0.400  0.300  0.503- 147 2.11 128 2.11 148 2.11 151 2.11 149 2.11
  50  0.500  0.200  0.503- 148 2.11 147 2.11 144 2.11 167 2.11 150 2.11
  51  0.400  0.400  0.407- 134 2.11 149 2.11 153 2.11 154 2.11 151 2.11
  52  0.500  0.500  0.407- 153 2.11 154 2.11 158 2.11 173 2.11 152 2.11
  53  0.400  0.500  0.503- 132 2.11 151 2.11 152 2.11 155 2.11 153 2.11   2 3.05
  54  0.500  0.400  0.503- 148 2.11 151 2.11 152 2.11 171 2.11 154 2.11
  55  0.400  0.600  0.407- 138 2.11 153 2.11 157 2.11 158 2.11 155 2.11
  56  0.500  0.700  0.407- 162 2.11 158 2.11 157 2.11 177 2.11 156 2.11
  57  0.400  0.700  0.503- 159 2.11 155 2.11 156 2.11 136 2.11 157 2.11
  58  0.500  0.600  0.503- 152 2.11 155 2.11 156 2.11 175 2.11 158 2.11
  59  0.400  0.800  0.407- 157 2.11 142 2.11 161 2.11 162 2.11 159 2.11
  60  0.500  0.900  0.407- 146 2.11 161 2.11 162 2.11 181 2.11 160 2.11
[...]
 188  0.900  0.300  0.503-  90 2.11  89 2.11   9 2.11  94 2.11  88 2.11
 189  0.800  0.300  0.407-  68 2.11  87 2.11  88 2.11  91 2.11  89 2.11
 190  0.900  0.200  0.407-  88 2.11  84 2.11  87 2.11   7 2.11  90 2.11
 191  0.800  0.400  0.503-  74 2.11  89 2.11  93 2.11  94 2.11  91 2.11
 192  0.900  0.500  0.503-  13 2.11  93 2.11  94 2.11  98 2.11  92 2.11
 193  0.800  0.500  0.407-  72 2.11  91 2.11  92 2.11  95 2.11  93 2.11
 194  0.900  0.400  0.407-  11 2.11  88 2.11  91 2.11  92 2.11  94 2.11
 195  0.800  0.600  0.503-  78 2.11  93 2.11  97 2.11  98 2.11  95 2.11
 196  0.900  0.700  0.503- 102 2.11  97 2.11  98 2.11  17 2.11  96 2.11
 197  0.800  0.700  0.407-  76 2.11  99 2.11  96 2.11  95 2.11  97 2.11
 198  0.900  0.600  0.407-  15 2.11  92 2.11  95 2.11  96 2.11  98 2.11
 199  0.800  0.800  0.503-  82 2.11  97 2.11 101 2.11 102 2.11  99 2.11
 200  0.900  0.900  0.503-  21 2.11  86 2.11 101 2.11 102 2.11 100 2.11
 201  0.800  0.900  0.407-  80 2.11  83 2.11  99 2.11 100 2.11 101 2.11
 202  0.900  0.800  0.407-  96 2.11  19 2.11  99 2.11 100 2.11 102 2.11

  LATTYP: Found a simple tetragonal cell.
 ALAT       =    21.1388521970
 C/A-ratio  =     1.0461251639

  Lattice vectors:

 A1 = (  21.1388521970,   0.0000000000,   0.0000000000)
 A2 = (   0.0000000000,  21.1388521970,   0.0000000000)
 A3 = (   0.0000000000,   0.0000000000,  22.1138852197)

Analysis of symmetry for initial positions (statically):
 Subroutine PRICEL returns:
 Original cell was already a primitive cell.

 Routine SETGRP: Setting up the symmetry group for a
 simple tetragonal supercell.

 Subroutine GETGRP returns: Found  4 space group operations
 (whereof  4 operations were pure point group operations)
 out of a pool of 16 trial point group operations.

The static configuration has the point symmetry C_2v.

Analysis of symmetry for dynamics (positions and initial velocities):
 Subroutine PRICEL returns:
 Original cell was already a primitive cell.

 Routine SETGRP: Setting up the symmetry group for a
 simple tetragonal supercell.

 Subroutine GETGRP returns: Found  4 space group operations
 (whereof  4 operations were pure point group operations)
 out of a pool of 16 trial point group operations.

The dynamic configuration has the point symmetry C_2v.

 Subroutine INISYM returns: Found  4 space group operations
 (whereof  4 operations are pure point group operations),
 and found     1 'primitive' translations

                                     Primitive cell

  volume of cell :    9881.6133

  direct lattice vectors                    reciprocal lattice vectors
    21.138852197  0.000000000  0.000000000     0.047306258  0.000000000  0.000000000
     0.000000000 21.138852197  0.000000000     0.000000000  0.047306258  0.000000000
     0.000000000  0.000000000 22.113885220     0.000000000  0.000000000  0.045220457

  length of vectors
    21.138852197 21.138852197 22.113885220     0.047306258  0.047306258  0.045220457

  position of ions in fractional coordinates (direct lattice)
     0.560811057  0.500000000  0.635369261
     0.439188943  0.500000000  0.635369261
     0.000000000  0.000000000  0.406984115
     0.100000000  0.100000000  0.406984115
     0.000000000  0.100000000  0.502574971
     0.100000000  0.000000000  0.502574971
     0.000000000  0.200000000  0.406984115
[...]
|           WW  WW  A    A  R   R   N   NN  II  N   NN  G    G                |
|           W    W  A    A  R    R  N    N  II  N    N   GGGG   !!!           |
|     Specifying the vdW parameters                                           |
|     VDW_A1 = 0.447                                                          |
|     VDW_A2 = 6.174                                                          |
|     VDW_S8 = 2.949                                                          |
|     in the INCAR file will overwrite the defaults for pbesol. Please        |
|     make sure that is what you intended.                                    |

         DFTD3 V3.0 Rev 1
 IVDW         = 12
 DF pbesol
 parameters
 VDW_S6       =    1.0000
 VDW_S8       =    2.9491
 VDW_A1       =    0.4466
 VDW_A2       =    6.1742
 k1-k3        =   16.0000    1.3333   -4.0000
 VDW_RADIUS   =   50.2022 A
 VDW_CNRADIUS =   21.1671 A
 Edisp (eV)  -23.25966

 E6    (eV) :    -8.3569
 E8    (eV) :   -14.9027
 % E8        : 64.07

  FORCE on cell =-STRESS in cart. coord.  units (eV):
  Direction    XX          YY          ZZ          XY          YZ          ZX
  Alpha Z  1357.53553  1357.53553  1357.53553
  Ewald  478804.93038478115.23721************    -0.00000     0.00000    -0.00000
  Hartree507340.02013506833.07866************    -0.00000     0.00000    -0.00000
  E(xc)   -7610.73470 -7611.12302 -7629.04172     0.00000    -0.00000    -0.00000
  Local  ************************************    -0.00000    -0.00000     0.00000
  n-local -8823.06572 -8820.43406 -8940.06918     0.00001     0.00001     0.00000
  augment  3399.47574  3401.60499  3340.41440     0.00000     0.00000    -0.00000
  Kinetic 22900.01497 22906.22820 23173.85986     0.00004    -0.00001    -0.00002
  Fock        0.00000     0.00000     0.00000     0.00000     0.00000     0.00000
  vdW       -24.43178   -24.43342    -4.64881     0.00000    -0.00000    -0.00000
  Total    -222.83016  -222.50270   -13.20000     0.00000     0.00000     0.00000
  in kB     -36.12906   -36.07597    -2.14021     0.00000     0.00000     0.00000

 VOLUME and BASIS-vectors are now :
  energy-cutoff  :      520.00
  volume of cell :     9881.61
      direct lattice vectors                 reciprocal lattice vectors
    21.138852197  0.000000000  0.000000000     0.047306258  0.000000000  0.000000000
     0.000000000 21.138852197  0.000000000     0.000000000  0.047306258  0.000000000
     0.000000000  0.000000000 22.113885220     0.000000000  0.000000000  0.045220457

  length of vectors
    21.138852197 21.138852197 22.113885220     0.047306258  0.047306258  0.045220457

 FORCES acting on ions:
    Electron-Ion                     Ewald-Force                    Non-Local-Force
   -.267E+03 -.214E-05 -.199E+04   0.260E+03 0.836E-08 0.199E+04   0.702E+01 0.000E+00 0.106E+00
   0.267E+03 -.214E-05 -.199E+04   -.260E+03 0.836E-08 0.199E+04   -.702E+01 0.212E-21 0.106E+00
   0.111E-12 -.338E-08 0.931E+03   0.764E-13 0.701E-08 -.923E+03   0.000E+00 0.000E+00 -.768E+01
   0.368E+01 0.407E+01 0.932E+03   -.368E+01 -.407E+01 -.924E+03   -.176E-02 0.648E-02 -.768E+01
   0.132E-12 0.437E+01 -.923E+03   0.103E-12 -.438E+01 0.915E+03   0.662E-23 0.607E-02 0.767E+01
   0.388E+01 -.484E-08 -.923E+03   -.387E+01 0.100E-07 0.915E+03   -.301E-02 0.000E+00 0.767E+01
   0.123E-12 0.601E+01 0.933E+03   0.153E-10 -.602E+01 -.925E+03   -.662E-23 0.105E-01 -.768E+01
   0.766E+01 0.768E+01 0.936E+03   -.766E+01 -.770E+01 -.928E+03   0.408E-02 0.152E-01 -.768E+01
   0.137E-12 0.814E+01 -.920E+03   0.181E-11 -.816E+01 0.912E+03   -.529E-22 0.120E-01 0.767E+01
   0.703E+01 0.911E+01 -.921E+03   -.703E+01 -.912E+01 0.913E+03   -.162E-02 0.130E-01 0.767E+01
   0.122E-12 0.416E+01 0.936E+03   -.174E-10 -.417E+01 -.928E+03   0.000E+00 0.775E-02 -.768E+01
   0.112E+02 0.517E-08 0.940E+03   -.113E+02 -.107E-07 -.931E+03   0.254E-01 -.199E-22 -.768E+01
   0.123E-12 0.539E-08 -.918E+03   0.120E-12 -.112E-07 0.910E+03   0.000E+00 0.000E+00 0.767E+01
   0.154E+02 0.716E+01 -.916E+03   -.155E+02 -.717E+01 0.908E+03   0.162E-01 0.112E-01 0.767E+01
   0.128E-12 -.416E+01 0.936E+03   0.116E-11 0.417E+01 -.928E+03   -.132E-22 -.775E-02 -.768E+01
   0.766E+01 -.768E+01 0.936E+03   -.766E+01 0.770E+01 -.928E+03   0.408E-02 -.152E-01 -.768E+01
   0.141E-12 -.814E+01 -.920E+03   -.785E-12 0.816E+01 0.912E+03   0.265E-22 -.120E-01 0.767E+01
   0.154E+02 -.716E+01 -.916E+03   -.155E+02 0.717E+01 0.908E+03   0.162E-01 -.112E-01 0.767E+01
   0.124E-12 -.601E+01 0.933E+03   0.853E-12 0.602E+01 -.925E+03   0.000E+00 -.105E-01 -.768E+01
   0.368E+01 -.407E+01 0.932E+03   -.368E+01 0.407E+01 -.924E+03   -.176E-02 -.648E-02 -.768E+01
   0.132E-12 -.437E+01 -.923E+03   -.867E-12 0.438E+01 0.915E+03   0.000E+00 -.607E-02 0.767E+01
   0.703E+01 -.911E+01 -.921E+03   -.703E+01 0.912E+01 0.913E+03   -.162E-02 -.130E-01 0.767E+01
   0.528E+01 -.521E-08 0.933E+03   -.528E+01 0.108E-07 -.925E+03   -.397E-02 -.331E-23 -.768E+01
   0.663E+01 0.778E+01 0.936E+03   -.662E+01 -.779E+01 -.927E+03   -.486E-02 0.992E-02 -.769E+01
   0.800E+01 0.745E+01 -.921E+03   -.799E+01 -.746E+01 0.913E+03   -.609E-02 0.782E-02 0.766E+01
   0.688E+01 -.979E-08 -.921E+03   -.687E+01 0.203E-07 0.913E+03   -.625E-02 0.000E+00 0.766E+01
   0.924E+01 0.101E+02 0.936E+03   -.924E+01 -.101E+02 -.928E+03   -.102E-02 0.168E-01 -.768E+01
   0.172E+02 0.191E+02 0.950E+03   -.172E+02 -.192E+02 -.942E+03   0.815E-02 0.399E-01 -.769E+01
   0.221E+02 0.180E+02 -.913E+03   -.221E+02 -.181E+02 0.905E+03   0.136E-02 0.300E-01 0.767E+01
   0.152E+02 0.227E+02 -.914E+03   -.151E+02 -.227E+02 0.906E+03   -.137E-01 0.217E-01 0.766E+01
   0.200E+02 0.853E+01 0.947E+03   -.200E+02 -.857E+01 -.939E+03   0.231E-01 0.249E-01 -.768E+01
   0.310E+02 0.166E-07 0.969E+03   -.310E+02 -.344E-07 -.961E+03   0.317E-02 0.000E+00 -.757E+01
   0.409E+02 0.155E-07 -.903E+03   -.410E+02 -.321E-07 0.895E+03   0.825E-01 0.000E+00 0.767E+01
   0.561E+02 0.338E+02 -.879E+03   -.562E+02 -.339E+02 0.871E+03   0.423E-01 0.898E-01 0.767E+01
   0.200E+02 -.853E+01 0.947E+03   -.200E+02 0.857E+01 -.939E+03   0.231E-01 -.249E-01 -.768E+01
   0.172E+02 -.191E+02 0.950E+03   -.172E+02 0.192E+02 -.942E+03   0.815E-02 -.399E-01 -.769E+01
   0.221E+02 -.180E+02 -.913E+03   -.221E+02 0.181E+02 0.905E+03   0.136E-02 -.300E-01 0.767E+01
   0.561E+02 -.338E+02 -.879E+03   -.562E+02 0.339E+02 0.871E+03   0.423E-01 -.898E-01 0.767E+01
   0.924E+01 -.101E+02 0.936E+03   -.924E+01 0.101E+02 -.928E+03   -.102E-02 -.168E-01 -.768E+01
   0.663E+01 -.778E+01 0.936E+03   -.662E+01 0.779E+01 -.927E+03   -.486E-02 -.992E-02 -.769E+01
   0.800E+01 -.745E+01 -.921E+03   -.799E+01 0.746E+01 0.913E+03   -.609E-02 -.782E-02 0.766E+01
   0.152E+02 -.227E+02 -.914E+03   -.151E+02 0.227E+02 0.906E+03   -.137E-01 -.217E-01 0.766E+01
   0.351E+01 -.890E-08 0.935E+03   -.351E+01 0.184E-07 -.927E+03   -.318E-02 0.000E+00 -.769E+01
   -.214E-12 0.107E+02 0.938E+03   0.387E-11 -.107E+02 -.930E+03   0.000E+00 0.707E-02 -.769E+01
   0.574E+01 0.144E+02 -.918E+03   -.573E+01 -.144E+02 0.910E+03   -.578E-02 0.808E-03 0.766E+01
   -.261E-12 -.138E-07 -.919E+03   0.622E-14 0.285E-07 0.911E+03   0.000E+00 0.000E+00 0.766E+01
   0.702E+01 0.197E+02 0.945E+03   -.702E+01 -.198E+02 -.937E+03   -.428E-02 0.348E-01 -.770E+01
   -.220E-12 0.312E+02 0.964E+03   -.579E-11 -.313E+02 -.956E+03   0.000E+00 0.394E-01 -.773E+01
   0.238E+02 0.558E+02 -.887E+03   -.238E+02 -.559E+02 0.879E+03   -.395E-01 0.919E-01 0.763E+01
   -.267E-12 0.364E+02 -.907E+03   -.193E-10 -.364E+02 0.899E+03   0.000E+00 -.173E-01 0.765E+01
   0.203E+02 0.239E+02 0.983E+03   -.203E+02 -.240E+02 -.975E+03   0.483E-02 0.192E-01 -.757E+01
   -.213E-12 0.327E-07 0.101E+04   -.104E-12 -.677E-07 -.100E+04   0.000E+00 0.000E+00 -.771E+01
   0.822E+02 0.110E-06 -.756E+03   -.821E+02 -.229E-06 0.749E+03   -.118E+00 0.000E+00 0.652E+01
   -.272E-12 0.923E+02 -.797E+03   0.215E-10 -.924E+02 0.790E+03   -.529E-22 0.352E-01 0.723E+01
   0.203E+02 -.239E+02 0.983E+03   -.203E+02 0.240E+02 -.975E+03   0.483E-02 -.192E-01 -.757E+01
   -.207E-12 -.312E+02 0.964E+03   -.183E-10 0.313E+02 -.956E+03   -.132E-22 -.394E-01 -.773E+01
   0.238E+02 -.558E+02 -.887E+03   -.238E+02 0.559E+02 0.879E+03   -.395E-01 -.919E-01 0.763E+01
   -.254E-12 -.923E+02 -.797E+03   0.183E-10 0.924E+02 0.790E+03   0.265E-22 -.352E-01 0.723E+01
   0.702E+01 -.197E+02 0.945E+03   -.702E+01 0.198E+02 -.937E+03   -.428E-02 -.348E-01 -.770E+01
   -.199E-12 -.107E+02 0.938E+03   0.203E-10 0.107E+02 -.930E+03   -.232E-22 -.707E-02 -.769E+01
[...]
   -.107E+02 0.891E+01 0.707E+03   0.107E+02 -.893E+01 -.711E+03   -.690E-02 0.266E-01 0.357E+01
   -.393E+01 0.527E+01 0.702E+03   0.393E+01 -.528E+01 -.706E+03   -.383E-03 0.132E-01 0.357E+01
   -.257E+02 0.107E+02 -.681E+03   0.258E+02 -.107E+02 0.685E+03   -.295E-01 0.389E-01 -.359E+01
   -.131E+02 0.547E-08 -.688E+03   0.132E+02 -.113E-07 0.692E+03   -.182E-01 0.000E+00 -.359E+01
   -.170E+02 0.665E-08 0.713E+03   0.170E+02 -.138E-07 -.717E+03   -.459E-01 0.000E+00 0.360E+01
   -.761E+01 0.386E+01 0.705E+03   0.762E+01 -.387E+01 -.709E+03   -.135E-01 0.155E-01 0.357E+01
   -.257E+02 -.107E+02 -.681E+03   0.258E+02 0.107E+02 0.685E+03   -.295E-01 -.389E-01 -.359E+01
   -.826E+01 -.774E+01 -.690E+03   0.826E+01 0.775E+01 0.694E+03   -.607E-02 -.193E-01 -.359E+01
   -.107E+02 -.891E+01 0.707E+03   0.107E+02 0.893E+01 -.711E+03   -.690E-02 -.266E-01 0.357E+01
   -.761E+01 -.386E+01 0.705E+03   0.762E+01 0.387E+01 -.709E+03   -.135E-01 -.155E-01 0.357E+01
   -.965E+01 -.106E+02 -.690E+03   0.965E+01 0.106E+02 0.694E+03   0.266E-02 -.166E-01 -.360E+01
   -.348E+01 -.386E+01 -.693E+03   0.348E+01 0.386E+01 0.697E+03   0.224E-02 -.669E-02 -.359E+01
   -.468E+01 -.419E+01 0.702E+03   0.468E+01 0.419E+01 -.706E+03   0.345E-02 -.783E-02 0.357E+01
   -.393E+01 -.527E+01 0.702E+03   0.393E+01 0.528E+01 -.706E+03   -.383E-03 -.132E-01 0.357E+01
   -.120E-10 -.434E-05 0.751E+01   0.161E-11 0.120E-11 -.819E-11   0.704E-15 -.156E-16 -.795E+01

 POSITION                                       TOTAL-FORCE (eV/Angst)
     11.85490     10.56943     14.05048        -0.232042     -0.000000     -0.146721
      9.28395     10.56943     14.05048         0.232042     -0.000000     -0.146721
      0.00000      0.00000      9.00000        -0.000000     -0.000000      0.468498
      2.11389      2.11389      9.00000         0.000494     -0.001743      0.468558
      0.00000      2.11389     11.11389        -0.000000     -0.001635     -0.464464
      2.11389      0.00000     11.11389         0.000854     -0.000000     -0.464382
      0.00000      4.22777      9.00000        -0.000000     -0.002903      0.468323
      2.11389      6.34166      9.00000        -0.001097     -0.004222      0.468063
      0.00000      6.34166     11.11389        -0.000000     -0.003369     -0.464343
      2.11389      4.22777     11.11389         0.000548     -0.003471     -0.464184
      0.00000      8.45554      9.00000        -0.000000     -0.002250      0.468064
      2.11389     10.56943      9.00000        -0.006174     -0.000000      0.468480
      0.00000     10.56943     11.11389        -0.000000     -0.000000     -0.464482
      2.11389      8.45554     11.11389        -0.003748     -0.003122     -0.464218
      0.00000     12.68331      9.00000        -0.000000      0.002250      0.468064
      2.11389     14.79720      9.00000        -0.001097      0.004222      0.468063
      0.00000     14.79720     11.11389        -0.000000      0.003369     -0.464343
      2.11389     12.68331     11.11389        -0.003748      0.003122     -0.464218
      0.00000     16.91108      9.00000        -0.000000      0.002903      0.468323
      2.11389     19.02497      9.00000         0.000494      0.001743      0.468558
      0.00000     19.02497     11.11389        -0.000000      0.001635     -0.464464
      2.11389     16.91108     11.11389         0.000548      0.003471     -0.464184
      4.22777      0.00000      9.00000         0.001134     -0.000000      0.468845
      6.34166      2.11389      9.00000         0.001449     -0.002486      0.469487
      4.22777      2.11389     11.11389         0.001772     -0.001974     -0.463814
      6.34166      0.00000     11.11389         0.001844     -0.000000     -0.463411
      4.22777      4.22777      9.00000         0.000357     -0.004430      0.468831
      6.34166      6.34166      9.00000        -0.002262     -0.010306      0.470433
      4.22777      6.34166     11.11389         0.000975     -0.007291     -0.462823
      6.34166      4.22777     11.11389         0.004602     -0.004414     -0.460700
      4.22777      8.45554      9.00000        -0.005956     -0.007310      0.467204
      6.34166     10.56943      9.00000         0.002516     -0.000000      0.444316
      4.22777     10.56943     11.11389        -0.023676     -0.000000     -0.461650
      6.34166      8.45554     11.11389        -0.004862     -0.019966     -0.450991
      4.22777     12.68331      9.00000        -0.005956      0.007310      0.467204
      6.34166     14.79720      9.00000        -0.002262      0.010306      0.470433
      4.22777     14.79720     11.11389         0.000975      0.007291     -0.462823
      6.34166     12.68331     11.11389        -0.004862      0.019966     -0.450991
      4.22777     16.91108      9.00000         0.000357      0.004430      0.468831
      6.34166     19.02497      9.00000         0.001449      0.002486      0.469487
      4.22777     19.02497     11.11389         0.001772      0.001974     -0.463814
      6.34166     16.91108     11.11389         0.004602      0.004414     -0.460700
      8.45554      0.00000      9.00000         0.000954     -0.000000      0.469438
     10.56943      2.11389      9.00000        -0.000000     -0.001873      0.470192
      8.45554      2.11389     11.11389         0.001867      0.000517     -0.461704
     10.56943      0.00000     11.11389        -0.000000     -0.000000     -0.462545
      8.45554      4.22777      9.00000         0.001684     -0.008150      0.473364
     10.56943      6.34166      9.00000        -0.000000     -0.010253      0.482231
      8.45554      6.34166     11.11389         0.019054     -0.021286     -0.431918
     10.56943      4.22777     11.11389        -0.000000      0.008747     -0.453438
      8.45554      8.45554      9.00000         0.002139     -0.000498      0.444553
     10.56943     10.56943      9.00000        -0.000000     -0.000000      0.435771
      8.45554     10.56943     11.11389        -0.000684     -0.000000     -0.445202
     10.56943      8.45554     11.11389        -0.000000      0.014894     -0.245226
      8.45554     12.68331      9.00000         0.002139      0.000498      0.444553
     10.56943     14.79720      9.00000        -0.000000      0.010253      0.482231
      8.45554     14.79720     11.11389         0.019054      0.021286     -0.431918
     10.56943     12.68331     11.11389        -0.000000     -0.014894     -0.245226
      8.45554     16.91108      9.00000         0.001684      0.008150      0.473364
     10.56943     19.02497      9.00000        -0.000000      0.001873      0.470192
[...]
     19.02497      6.34166     11.11389        -0.001774      0.005394      0.395578
     16.91108      6.34166      9.00000        -0.002161      0.007511     -0.399632
     19.02497      4.22777      9.00000        -0.000147      0.003682     -0.399858
     16.91108      8.45554     11.11389        -0.009814      0.011431      0.397372
     19.02497     10.56943     11.11389        -0.005341     -0.000000      0.396033
     16.91108     10.56943      9.00000        -0.014364     -0.000000     -0.391055
     19.02497      8.45554      9.00000        -0.003832      0.004329     -0.399092
     16.91108     12.68331     11.11389        -0.009814     -0.011431      0.397372
     19.02497     14.79720     11.11389        -0.001774     -0.005394      0.395578
     16.91108     14.79720      9.00000        -0.002161     -0.007511     -0.399632
     19.02497     12.68331      9.00000        -0.003832     -0.004329     -0.399092
     16.91108     16.91108     11.11389         0.000580     -0.004717      0.394647
     19.02497     19.02497     11.11389         0.000590     -0.001862      0.395554
     16.91108     19.02497      9.00000         0.000890     -0.002196     -0.400263
     19.02497     16.91108      9.00000        -0.000147     -0.003682     -0.399858
    total drift:                               -0.000000     -0.000004     -0.445712

  FREE ENERGIE OF THE ION-ELECTRON SYSTEM (eV)
  free  energy   TOTEN  =     -1213.84753613 eV

  energy  without entropy=    -1213.84753613  energy(sigma->0) =    -1213.84753613