 vasp.6.4.0 14Feb23 (build Jul 14 2023 13:46:40) complex

 executed on             LinuxIFC date 2023.07.30  05:13:39

 INCAR:
   SYSTEM = MgO-rocksalt
   ISMEAR = 0
   SIGMA = 0.05
   EDIFF = 1E-6
   ALGO = ALL
   ISTART = 0
   IBRION = -1
   NSW = 0
   ISYM = 2
   DIPOL = 0.5 0.5 0.5
   IDIPOL = 3
   LDIPOL = .TRUE.
   METAGGA = TPSS
   ENCUT = 520
   PREC = Accurate
   LASPH = .TRUE.
   LREAL = Auto
   ISPIN = 1
   NELM = 200
   NELMIN = 8
   NCORE = 16
   KPAR = 1
   LWAVE = .FALSE.
   LCHARG = .FALSE.

 POTCAR:    PAW_PBE Ag 02Apr2005
 POTCAR:    PAW_PBE Mg_pv 13Apr2007
 POTCAR:    PAW_PBE O 08Apr2002
 POTCAR:    PAW_PBE Ag 02Apr2005
   VRHFIN =Ag : s1 d10

   TITEL  = PAW_PBE Ag 02Apr2005
   POMASS =  107.868; ZVAL   =   11.000    mass and valenz
   ENMAX  =  249.844; ENMIN  =  187.383 eV

   TITEL  = PAW_PBE Mg_pv 13Apr2007
   POMASS =   24.305; ZVAL   =    8.000    mass and valenz
   ENMAX  =  403.929; ENMIN  =  302.947 eV

   TITEL  = PAW_PBE O 08Apr2002
   POMASS =   16.000; ZVAL   =    6.000    mass and valenz
   ENMAX  =  400.000; ENMIN  =  300.000 eV

 Optimization of the real space projectors (new method)

 maximal supplied QI-value         = 15.12
 optimisation between [QCUT,QGAM] = [ 11.64, 23.28] = [ 37.95,151.78] Ry
 Optimized for a Real-space Cutoff    1.45 Angstroem

   l    n(q)    QCUT    max X(q) W(low)/X(q) W(high)/X(q)  e(spline)
   2      9    11.641    53.897    0.22E-03    0.42E-04    0.28E-06
   2      9    11.641    52.416    0.23E-03    0.44E-04    0.29E-06
   0     10    11.641   122.045    0.51E-04    0.25E-04    0.16E-06
   0     10    11.641    73.629    0.49E-04    0.24E-04    0.16E-06
   1     10    11.641    15.255    0.99E-04    0.55E-04    0.11E-06
   1     10    11.641     9.562    0.81E-04    0.47E-04    0.95E-07
 Optimization of the real space projectors (new method)

[...]

   l    n(q)    QCUT    max X(q) W(low)/X(q) W(high)/X(q)  e(spline)
   1      8    11.527     2.974    0.44E-04    0.56E-04    0.12E-06
   1      8    11.527     4.279    0.12E-03    0.12E-03    0.26E-06
   0      9    11.527    16.381    0.46E-04    0.64E-04    0.78E-07
   0      9    11.527     5.611    0.26E-04    0.43E-04    0.55E-07
   2      8    11.527     4.652    0.22E-03    0.72E-04    0.47E-07
 Optimization of the real space projectors (new method)

 maximal supplied QI-value         = 24.76
 optimisation between [QCUT,QGAM] = [ 11.64, 23.27] = [ 37.91,151.63] Ry
 Optimized for a Real-space Cutoff    1.14 Angstroem

   l    n(q)    QCUT    max X(q) W(low)/X(q) W(high)/X(q)  e(spline)
   0      8    11.635    20.381    0.10E-03    0.33E-03    0.24E-06
   0      8    11.635    15.268    0.11E-03    0.35E-03    0.26E-06
   1      7    11.635     5.964    0.24E-03    0.31E-03    0.30E-06
   1      7    11.635     5.382    0.22E-03    0.25E-03    0.26E-06
  PAW_PBE Ag 02Apr2005                  :
  PAW_PBE Mg_pv 13Apr2007               :
  PAW_PBE O 08Apr2002                   :

 POSCAR: Ag Mg  O
  positions in direct lattice
  velocities in cartesian coordinates

 METAGGA = TPSS                                        LMAXTAU =  6    LMIXTAU =  F

 ion  position               nearest neighbor table
   1  0.400  0.563  0.612- 157 2.54   4 2.67   3 2.71  55 2.75
   2  0.400  0.500  0.835-   3 2.58
   3  0.400  0.499  0.718-   2 2.58   1 2.71   4 2.71
   4  0.400  0.436  0.612- 153 2.53   1 2.67   3 2.71  55 2.76
   5  0.000  0.000  0.407- 107 2.11 108 2.11 123 2.11 188 2.11 105 2.11
   6  0.100  0.100  0.407- 107 2.11 108 2.11 112 2.11 127 2.11 106 2.11
   7  0.000  0.100  0.503- 105 2.11 106 2.11 109 2.11 186 2.11 107 2.11
   8  0.100  0.000  0.503- 105 2.11 106 2.11 122 2.11 125 2.11 108 2.11
   9  0.000  0.200  0.407- 111 2.11 107 2.11 112 2.11 192 2.11 109 2.11
  10  0.100  0.300  0.407- 112 2.11 111 2.11 116 2.11 131 2.11 110 2.11
  11  0.000  0.300  0.503- 109 2.11 110 2.11 113 2.11 190 2.11 111 2.11
  12  0.100  0.200  0.503- 110 2.11 109 2.11 106 2.11 129 2.11 112 2.11
  13  0.000  0.400  0.407- 111 2.11 115 2.11 116 2.11 196 2.11 113 2.11
  14  0.100  0.500  0.407- 115 2.11 116 2.11 120 2.11 135 2.11 114 2.11
  15  0.000  0.500  0.503- 113 2.11 114 2.11 117 2.11 194 2.11 115 2.11
  16  0.100  0.400  0.503- 110 2.11 113 2.11 114 2.11 133 2.11 116 2.11
  17  0.000  0.600  0.407- 115 2.11 119 2.11 120 2.11 200 2.11 117 2.11
  18  0.100  0.700  0.407- 124 2.11 120 2.11 119 2.11 139 2.11 118 2.11
  19  0.000  0.700  0.503- 121 2.11 118 2.11 117 2.11 198 2.11 119 2.11
  20  0.100  0.600  0.503- 114 2.11 117 2.11 118 2.11 137 2.11 120 2.11
  21  0.000  0.800  0.407- 119 2.11 123 2.11 124 2.11 204 2.11 121 2.11
  22  0.100  0.900  0.407- 108 2.11 123 2.11 124 2.11 143 2.11 122 2.11
  23  0.000  0.900  0.503- 105 2.11 121 2.11 122 2.11 202 2.11 123 2.11
  24  0.100  0.800  0.503- 118 2.11 121 2.11 122 2.11 141 2.11 124 2.11
  25  0.200  0.000  0.407- 128 2.11 127 2.11 108 2.11 143 2.11 125 2.11
  26  0.300  0.100  0.407- 127 2.11 128 2.11 132 2.11 147 2.11 126 2.11
  27  0.200  0.100  0.503- 126 2.11 125 2.11 106 2.11 129 2.11 127 2.11
  28  0.300  0.000  0.503- 125 2.11 126 2.11 142 2.11 145 2.11 128 2.11
  29  0.200  0.200  0.407- 131 2.11 132 2.11 112 2.11 127 2.11 129 2.11
  30  0.300  0.300  0.407- 131 2.11 132 2.11 136 2.11 151 2.11 130 2.11
  31  0.200  0.300  0.503- 129 2.11 130 2.11 110 2.11 133 2.11 131 2.11
  32  0.300  0.200  0.503- 129 2.11 130 2.11 126 2.11 149 2.11 132 2.11
  33  0.200  0.400  0.407- 136 2.11 131 2.11 135 2.11 116 2.11 133 2.11
  34  0.300  0.500  0.407- 135 2.11 136 2.11 140 2.11 155 2.11 134 2.11
  35  0.200  0.500  0.503- 134 2.11 133 2.11 114 2.11 137 2.11 135 2.11
  36  0.300  0.400  0.503- 133 2.11 130 2.11 134 2.11 153 2.11 136 2.11
  37  0.200  0.600  0.407- 140 2.11 135 2.11 139 2.11 120 2.11 137 2.11
  38  0.300  0.700  0.407- 139 2.11 144 2.11 140 2.11 159 2.11 138 2.11
  39  0.200  0.700  0.503- 138 2.11 141 2.11 118 2.11 137 2.11 139 2.11
  40  0.300  0.600  0.503- 137 2.11 134 2.11 138 2.11 157 2.11 140 2.11
  41  0.200  0.800  0.407- 139 2.11 144 2.11 143 2.11 124 2.11 141 2.11
  42  0.300  0.900  0.407- 143 2.11 128 2.11 144 2.11 163 2.11 142 2.11
  43  0.200  0.900  0.503- 142 2.11 125 2.11 141 2.11 122 2.11 143 2.11
  44  0.300  0.800  0.503- 138 2.11 141 2.11 142 2.11 161 2.11 144 2.11
  45  0.400  0.000  0.407- 128 2.11 147 2.11 148 2.11 163 2.11 145 2.11
  46  0.500  0.100  0.407- 147 2.11 148 2.11 152 2.11 167 2.11 146 2.11
  47  0.400  0.100  0.503- 126 2.11 145 2.11 146 2.11 149 2.11 147 2.11
  48  0.500  0.000  0.503- 145 2.11 146 2.11 162 2.11 165 2.11 148 2.11
  49  0.400  0.200  0.407- 151 2.11 147 2.11 132 2.11 152 2.11 149 2.11
  50  0.500  0.300  0.407- 152 2.11 151 2.11 156 2.11 171 2.11 150 2.11
  51  0.400  0.300  0.503- 149 2.11 130 2.11 150 2.11 153 2.11 151 2.11
  52  0.500  0.200  0.503- 150 2.11 149 2.11 146 2.11 169 2.11 152 2.11
  53  0.400  0.400  0.407- 136 2.11 151 2.11 155 2.11 156 2.11 153 2.11
  54  0.500  0.500  0.407- 155 2.11 156 2.11 160 2.11 175 2.11 154 2.11
  55  0.400  0.500  0.503- 134 2.11 153 2.11 154 2.11 157 2.11 155 2.11   1 2.75   4 2.76
  56  0.500  0.400  0.503- 150 2.11 153 2.11 154 2.11 173 2.11 156 2.11
  57  0.400  0.600  0.407- 140 2.11 155 2.11 159 2.11 160 2.11 157 2.11
  58  0.500  0.700  0.407- 164 2.11 160 2.11 159 2.11 179 2.11 158 2.11
  59  0.400  0.700  0.503- 161 2.11 157 2.11 158 2.11 138 2.11 159 2.11
  60  0.500  0.600  0.503- 154 2.11 157 2.11 158 2.11 177 2.11 160 2.11
[...]
 190  0.900  0.300  0.503-  92 2.11  91 2.11  11 2.11  96 2.11  90 2.11
 191  0.800  0.300  0.407-  70 2.11  89 2.11  90 2.11  93 2.11  91 2.11
 192  0.900  0.200  0.407-  90 2.11  86 2.11  89 2.11   9 2.11  92 2.11
 193  0.800  0.400  0.503-  76 2.11  91 2.11  95 2.11  96 2.11  93 2.11
 194  0.900  0.500  0.503-  15 2.11  95 2.11  96 2.11 100 2.11  94 2.11
 195  0.800  0.500  0.407-  74 2.11  93 2.11  94 2.11  97 2.11  95 2.11
 196  0.900  0.400  0.407-  13 2.11  90 2.11  93 2.11  94 2.11  96 2.11
 197  0.800  0.600  0.503-  80 2.11  95 2.11  99 2.11 100 2.11  97 2.11
 198  0.900  0.700  0.503- 104 2.11  99 2.11 100 2.11  19 2.11  98 2.11
 199  0.800  0.700  0.407-  78 2.11 101 2.11  98 2.11  97 2.11  99 2.11
 200  0.900  0.600  0.407-  17 2.11  94 2.11  97 2.11  98 2.11 100 2.11
 201  0.800  0.800  0.503-  84 2.11  99 2.11 103 2.11 104 2.11 101 2.11
 202  0.900  0.900  0.503-  23 2.11  88 2.11 103 2.11 104 2.11 102 2.11
 203  0.800  0.900  0.407-  82 2.11  85 2.11 101 2.11 102 2.11 103 2.11
 204  0.900  0.800  0.407-  98 2.11  21 2.11 101 2.11 102 2.11 104 2.11

  LATTYP: Found a simple tetragonal cell.
 ALAT       =    21.1388521970
 C/A-ratio  =     1.0461251639

  Lattice vectors:

 A1 = (  21.1388521970,   0.0000000000,   0.0000000000)
 A2 = (   0.0000000000,  21.1388521970,   0.0000000000)
 A3 = (   0.0000000000,   0.0000000000,  22.1138852197)

Analysis of symmetry for initial positions (statically):
 Subroutine PRICEL returns:
 Original cell was already a primitive cell.

 Routine SETGRP: Setting up the symmetry group for a
 simple tetragonal supercell.

 Subroutine GETGRP returns: Found  1 space group operations
 (whereof  1 operations were pure point group operations)
 out of a pool of 16 trial point group operations.

The static configuration has the point symmetry C_1 .

Analysis of symmetry for dynamics (positions and initial velocities):
 Subroutine PRICEL returns:
 Original cell was already a primitive cell.

[...]

The dynamic configuration has the point symmetry C_1 .

Analysis of constrained symmetry for selective dynamics:
 Subroutine PRICEL returns:
 Original cell was already a primitive cell.

 Routine SETGRP: Setting up the symmetry group for a
 simple tetragonal supercell.

 Subroutine GETGRP returns: Found  1 space group operations
 (whereof  1 operations were pure point group operations)
 out of a pool of 16 trial point group operations.

The constrained configuration has the point symmetry C_1 .

 Subroutine INISYM returns: Found  1 space group operations
 (whereof  1 operations are pure point group operations),
 and found     1 'primitive' translations

                                     Primitive cell

  volume of cell :    9881.6133

  direct lattice vectors                    reciprocal lattice vectors
    21.138852197  0.000000000  0.000000000     0.047306258  0.000000000  0.000000000
     0.000000000 21.138852197  0.000000000     0.000000000  0.047306258  0.000000000
     0.000000000  0.000000000 22.113885220     0.000000000  0.000000000  0.045220457

  length of vectors
    21.138852197 21.138852197 22.113885220     0.047306258  0.047306258  0.045220457

  position of ions in fractional coordinates (direct lattice)
     0.400262498  0.562644202  0.611757253
     0.400180406  0.499857897  0.835303009
     0.400101799  0.499467099  0.718499130
     0.400198249  0.436299472  0.611663944
     0.000000000  0.000000000  0.406984115
     0.100000000  0.100000000  0.406984115
     0.000000000  0.100000000  0.502574971
     0.100000000  0.000000000  0.502574971
     0.000000000  0.200000000  0.406984115
     0.100000000  0.300000000  0.406984115
     0.000000000  0.300000000  0.502574971
     0.100000000  0.200000000  0.502574971
[...]
     52     -43.4077      2.00000
     53     -43.4052      2.00000
     54     -43.4050      2.00000
     55     -43.4045      2.00000
     56     -43.4044      2.00000
     57     -43.4039      2.00000
     58     -43.4031      2.00000
     59     -43.4025      2.00000
     60     -43.4019      2.00000
[...]
    882       6.5160      0.00000
    883       6.5725      0.00000
    884       6.6237      0.00000
    885       6.6504      0.00000
    886       6.6717      0.00000
    887       6.6917      0.00000
    888       6.7285      0.00000
    889       6.7771      0.00000
    890       6.8297      0.00000
    891       6.8970      0.00000
    892       6.9243      0.00000
    893       7.0009      0.00000
    894       7.0201      0.00000
    895       7.0958      0.00000
    896       7.1586      0.00000

 soft charge-density along one line, spin component           1
         0         1         2         3         4         5         6         7         8         9
 total charge-density along one line

------------------------ aborting loop because EDIFF is reached ----------------------------------------

  FORCE on cell =-STRESS in cart. coord.  units (eV):
  Direction    XX          YY          ZZ          XY          YZ          ZX
  Alpha Z  1401.13727  1401.13727  1401.13727
  Ewald  473476.01013474520.77188************     0.52185     3.38727    -0.69588
  Hartree503172.81663503960.85792************     0.38707     2.59142    -0.59552
  E(xc)   -8316.74210 -8316.05746 -8340.59560     0.00035     0.00267    -0.00060
  Local  ************************************    -0.90138    -5.94800     1.29677
  n-local -8971.10034 -8973.64560 -9099.21958    -0.00039     0.00705    -0.00576
  augment  4150.30445  4147.57210  4090.56200    -0.00233    -0.01482     0.00364
  Kinetic 23267.47124 23260.13128 23502.02858    -0.00432     0.00192    -0.00967
  Fock        0.00000     0.00000     0.00000     0.00000     0.00000     0.00000
  Total    -165.76796  -166.17163     8.42593     0.00086     0.02751    -0.00702
  in kB     -26.87716   -26.94261     1.36616     0.00014     0.00446    -0.00114

 VOLUME and BASIS-vectors are now :
  energy-cutoff  :      520.00
  volume of cell :     9881.61
      direct lattice vectors                 reciprocal lattice vectors
    21.138852197  0.000000000  0.000000000     0.047306258  0.000000000  0.000000000
     0.000000000 21.138852197  0.000000000     0.000000000  0.047306258  0.000000000
     0.000000000  0.000000000 22.113885220     0.000000000  0.000000000  0.045220457

  length of vectors
    21.138852197 21.138852197 22.113885220     0.047306258  0.047306258  0.045220457

 FORCES acting on ions:
    Electron-Ion                     Ewald-Force                    Non-Local-Force
   -.475E+00 -.383E+03 -.187E+04   0.464E+00 0.376E+03 0.187E+04   0.715E-02 0.693E+01 -.177E+01
   -.148E+00 -.992E+00 -.113E+04   0.141E+00 0.967E+00 0.113E+04   0.611E-02 0.245E-01 0.727E+01
   0.647E+00 0.109E+01 -.162E+04   -.637E+00 -.107E+01 0.162E+04   -.901E-02 -.228E-01 -.134E+01
   -.792E-01 0.383E+03 -.187E+04   0.760E-01 -.376E+03 0.187E+04   0.815E-03 -.691E+01 -.177E+01
   0.615E+01 0.323E-01 0.935E+03   -.618E+01 -.325E-01 -.927E+03   0.247E-01 0.154E-03 -.796E+01
   0.120E+02 0.911E+01 0.938E+03   -.121E+02 -.914E+01 -.930E+03   0.537E-01 0.208E-01 -.796E+01
   0.880E+01 0.829E+01 -.918E+03   -.884E+01 -.829E+01 0.910E+03   0.294E-01 0.372E-02 0.785E+01
   0.129E+02 0.589E-01 -.917E+03   -.129E+02 -.592E-01 0.909E+03   0.406E-01 0.277E-03 0.785E+01
   0.945E+01 0.111E+02 0.938E+03   -.950E+01 -.111E+02 -.930E+03   0.429E-01 0.102E-01 -.796E+01
   0.245E+02 0.176E+02 0.949E+03   -.247E+02 -.177E+02 -.941E+03   0.135E+00 0.263E-01 -.798E+01
   0.182E+02 0.153E+02 -.912E+03   -.182E+02 -.153E+02 0.904E+03   0.506E-01 0.163E-02 0.784E+01
   0.234E+02 0.220E+02 -.911E+03   -.235E+02 -.220E+02 0.903E+03   0.934E-01 0.189E-01 0.785E+01
   0.163E+02 0.757E+01 0.944E+03   -.164E+02 -.757E+01 -.936E+03   0.672E-01 0.425E-02 -.797E+01
   0.355E+02 -.656E-01 0.958E+03   -.357E+02 0.660E-01 -.950E+03   0.167E+00 -.303E-03 -.799E+01
   0.261E+02 -.528E-01 -.908E+03   -.262E+02 0.530E-01 0.900E+03   0.527E-01 -.136E-03 0.784E+01
   0.515E+02 0.180E+02 -.896E+03   -.517E+02 -.180E+02 0.887E+03   0.141E+00 0.150E-02 0.783E+01
   0.163E+02 -.763E+01 0.944E+03   -.164E+02 0.763E+01 -.936E+03   0.669E-01 -.450E-02 -.797E+01
   0.244E+02 -.177E+02 0.949E+03   -.246E+02 0.177E+02 -.940E+03   0.134E+00 -.264E-01 -.798E+01
   0.181E+02 -.153E+02 -.912E+03   -.182E+02 0.153E+02 0.904E+03   0.503E-01 -.170E-02 0.784E+01
   0.514E+02 -.181E+02 -.896E+03   -.516E+02 0.181E+02 0.887E+03   0.141E+00 -.192E-02 0.783E+01
   0.942E+01 -.111E+02 0.938E+03   -.947E+01 0.111E+02 -.930E+03   0.426E-01 -.101E-01 -.796E+01
   0.120E+02 -.903E+01 0.938E+03   -.121E+02 0.905E+01 -.930E+03   0.534E-01 -.203E-01 -.796E+01
   0.878E+01 -.822E+01 -.918E+03   -.882E+01 0.822E+01 0.910E+03   0.292E-01 -.349E-02 0.785E+01
   0.233E+02 -.219E+02 -.911E+03   -.234E+02 0.219E+02 0.903E+03   0.926E-01 -.187E-01 0.785E+01
   0.109E+02 0.637E-01 0.940E+03   -.110E+02 -.642E-01 -.931E+03   0.456E-01 0.404E-03 -.796E+01
   0.865E+01 0.168E+02 0.946E+03   -.870E+01 -.170E+02 -.937E+03   0.415E-01 0.955E-01 -.796E+01
   0.172E+02 0.184E+02 -.912E+03   -.173E+02 -.185E+02 0.903E+03   0.591E-01 0.553E-01 0.785E+01
   0.908E+01 0.118E+00 -.912E+03   -.912E+01 -.119E+00 0.904E+03   0.287E-01 0.624E-03 0.785E+01
   0.196E+02 0.239E+02 0.950E+03   -.197E+02 -.240E+02 -.941E+03   0.116E+00 0.863E-01 -.795E+01
   0.246E+02 0.427E+02 0.982E+03   -.248E+02 -.430E+02 -.974E+03   0.217E+00 0.219E+00 -.784E+01
   0.534E+02 0.482E+02 -.885E+03   -.538E+02 -.483E+02 0.876E+03   0.321E+00 0.379E-01 0.784E+01
   0.226E+02 0.547E+02 -.892E+03   -.227E+02 -.551E+02 0.884E+03   0.918E-01 0.280E+00 0.786E+01
   0.439E+02 0.205E+02 0.978E+03   -.444E+02 -.205E+02 -.970E+03   0.339E+00 0.403E-01 -.802E+01
   0.455E+02 -.206E+00 0.103E+04   -.460E+02 0.208E+00 -.102E+04   0.347E+00 -.209E-02 -.796E+01
   0.103E+03 -.235E+00 -.849E+03   -.104E+03 0.236E+00 0.841E+03   0.302E+00 -.522E-03 0.779E+01
   0.115E+03 0.853E+02 -.769E+03   -.117E+03 -.852E+02 0.760E+03   0.129E+01 -.198E-01 0.764E+01
   0.438E+02 -.206E+02 0.978E+03   -.442E+02 0.207E+02 -.970E+03   0.338E+00 -.414E-01 -.802E+01
   0.244E+02 -.426E+02 0.982E+03   -.247E+02 0.429E+02 -.974E+03   0.216E+00 -.219E+00 -.784E+01
   0.531E+02 -.482E+02 -.885E+03   -.535E+02 0.482E+02 0.877E+03   0.317E+00 -.385E-01 0.784E+01
   0.114E+03 -.858E+02 -.769E+03   -.116E+03 0.858E+02 0.761E+03   0.127E+01 0.159E-01 0.765E+01
   0.195E+02 -.238E+02 0.950E+03   -.197E+02 0.239E+02 -.941E+03   0.116E+00 -.855E-01 -.795E+01
   0.862E+01 -.167E+02 0.946E+03   -.867E+01 0.168E+02 -.937E+03   0.413E-01 -.941E-01 -.796E+01
   0.172E+02 -.182E+02 -.912E+03   -.172E+02 0.183E+02 0.904E+03   0.587E-01 -.543E-01 0.785E+01
   0.224E+02 -.544E+02 -.892E+03   -.225E+02 0.547E+02 0.884E+03   0.911E-01 -.277E+00 0.786E+01
   0.151E-01 0.898E-01 0.943E+03   -.152E-01 -.907E-01 -.935E+03   0.399E-04 0.677E-03 -.796E+01
   -.862E+01 0.169E+02 0.946E+03   0.868E+01 -.170E+02 -.937E+03   -.415E-01 0.956E-01 -.796E+01
   0.251E-01 0.284E+02 -.906E+03   -.251E-01 -.285E+02 0.898E+03   0.205E-04 0.131E+00 0.785E+01
   -.905E+01 0.117E+00 -.912E+03   0.909E+01 -.118E+00 0.904E+03   -.287E-01 0.666E-03 0.785E+01
   0.307E-01 0.370E+02 0.962E+03   -.309E-01 -.373E+02 -.953E+03   0.101E-03 0.293E+00 -.796E+01
   -.245E+02 0.427E+02 0.982E+03   0.248E+02 -.430E+02 -.974E+03   -.217E+00 0.219E+00 -.784E+01
   0.144E+00 0.119E+03 -.825E+03   -.144E+00 -.121E+03 0.816E+03   0.382E-03 0.127E+01 0.803E+01
   -.225E+02 0.548E+02 -.892E+03   0.227E+02 -.551E+02 0.884E+03   -.917E-01 0.280E+00 0.786E+01
   0.101E+00 0.406E+02 0.104E+04   -.101E+00 -.408E+02 -.103E+04   -.159E-03 0.182E+00 -.645E+01
   -.454E+02 -.198E+00 0.103E+04   0.459E+02 0.201E+00 -.102E+04   -.347E+00 -.218E-02 -.796E+01
   0.616E+00 -.671E+00 -.563E+03   -.618E+00 0.681E+00 0.558E+03   0.107E-04 -.135E-01 0.431E+01
   -.115E+03 0.855E+02 -.768E+03   0.117E+03 -.855E+02 0.760E+03   -.128E+01 -.187E-01 0.764E+01
   0.109E+00 -.409E+02 0.104E+04   -.109E+00 0.411E+02 -.103E+04   -.370E-03 -.183E+00 -.647E+01
   -.243E+02 -.427E+02 0.982E+03   0.246E+02 0.430E+02 -.974E+03   -.216E+00 -.219E+00 -.784E+01
   0.166E+00 -.119E+03 -.826E+03   -.167E+00 0.120E+03 0.818E+03   0.584E-03 -.126E+01 0.802E+01
   -.115E+03 -.861E+02 -.769E+03   0.116E+03 0.861E+02 0.761E+03   -.127E+01 0.152E-01 0.764E+01
[...]
   -.979E+01 0.881E+01 0.707E+03   0.983E+01 -.882E+01 -.711E+03   -.525E-01 0.116E-01 0.347E+01
   -.140E-01 0.717E+01 0.704E+03   0.140E-01 -.718E+01 -.708E+03   -.194E-04 0.785E-02 0.347E+01
   -.179E+02 0.755E+01 -.683E+03   0.179E+02 -.755E+01 0.687E+03   -.519E-01 0.423E-03 -.367E+01
   -.369E-01 -.301E-01 -.685E+03   0.369E-01 0.302E-01 0.689E+03   -.107E-04 -.122E-03 -.366E+01
   -.134E+02 -.289E-01 0.710E+03   0.134E+02 0.291E-01 -.714E+03   -.605E-01 -.171E-03 0.346E+01
   -.239E-01 0.472E+01 0.707E+03   0.240E-01 -.472E+01 -.711E+03   -.227E-04 0.272E-02 0.346E+01
   -.178E+02 -.761E+01 -.683E+03   0.179E+02 0.761E+01 0.687E+03   -.518E-01 -.675E-03 -.367E+01
   -.269E-01 -.930E+01 -.687E+03   0.269E-01 0.930E+01 0.692E+03   -.184E-04 -.180E-02 -.365E+01
   -.977E+01 -.882E+01 0.707E+03   0.980E+01 0.883E+01 -.711E+03   -.523E-01 -.117E-01 0.347E+01
   -.245E-01 -.476E+01 0.707E+03   0.245E-01 0.476E+01 -.711E+03   -.236E-04 -.294E-02 0.346E+01
   -.941E+01 -.106E+02 -.688E+03   0.944E+01 0.106E+02 0.692E+03   -.390E-01 -.954E-02 -.365E+01
   -.135E-01 -.523E+01 -.691E+03   0.135E-01 0.524E+01 0.695E+03   -.217E-04 -.335E-02 -.364E+01
   -.526E+01 -.491E+01 0.703E+03   0.529E+01 0.492E+01 -.707E+03   -.319E-01 -.975E-02 0.347E+01
   -.146E-01 -.716E+01 0.704E+03   0.147E-01 0.716E+01 -.708E+03   -.252E-04 -.777E-02 0.347E+01
   -.228E-01 -.586E-02 0.600E+01   0.262E-11 -.102E-11 -.898E-11   0.203E-01 0.717E-02 -.671E+01

 POSITION                                       TOTAL-FORCE (eV/Angst)
      8.46109     11.89365     13.52833        -0.003556     -0.021193      0.042965
      8.45935     10.56642     18.47179        -0.001173      0.000067      0.041383
      8.45769     10.55816     15.88881         0.001200     -0.000958     -0.002123
      8.45973      9.22287     13.52627        -0.002091      0.038024      0.037692
      0.00000      0.00000      9.00000        -0.006818     -0.000044      0.416462
      2.11389      2.11389      9.00000        -0.014941     -0.005881      0.415877
      0.00000      2.11389     11.11389        -0.007910     -0.001045     -0.376693
      2.11389      0.00000     11.11389        -0.011254     -0.000060     -0.376172
      0.00000      4.22777      9.00000        -0.011537     -0.002862      0.417186
      2.11389      6.34166      9.00000        -0.035917     -0.007426      0.418597
      0.00000      6.34166     11.11389        -0.013056     -0.000221     -0.372089
      2.11389      4.22777     11.11389        -0.024801     -0.005275     -0.372103
      0.00000      8.45554      9.00000        -0.017813     -0.001080      0.418830
      2.11389     10.56943      9.00000        -0.045495      0.000100      0.421305
      0.00000     10.56943     11.11389        -0.013152      0.000036     -0.368103
      2.11389      8.45554     11.11389        -0.035656      0.000479     -0.359313
      0.00000     12.68331      9.00000        -0.017779      0.001133      0.418858
      2.11389     14.79720      9.00000        -0.035633      0.007418      0.418584
      0.00000     14.79720     11.11389        -0.012983      0.000264     -0.372103
      2.11389     12.68331     11.11389        -0.035569     -0.000366     -0.359400
      0.00000     16.91108      9.00000        -0.011461      0.002856      0.417123
      2.11389     19.02497      9.00000        -0.014841      0.005751      0.415886
      0.00000     19.02497     11.11389        -0.007899      0.000972     -0.376710
      2.11389     16.91108     11.11389        -0.024593      0.005223     -0.372152
      4.22777      0.00000      9.00000        -0.012875     -0.000162      0.415848
      6.34166      2.11389      9.00000        -0.012102     -0.025464      0.414992
      4.22777      2.11389     11.11389        -0.016579     -0.014646     -0.373461
      6.34166      0.00000     11.11389        -0.008172     -0.000212     -0.373832
      4.22777      4.22777      9.00000        -0.033387     -0.025082      0.411499
      6.34166      6.34166      9.00000        -0.069927     -0.069225      0.370303
      4.22777      6.34166     11.11389        -0.085940     -0.009556     -0.359286
      6.34166      4.22777     11.11389        -0.027422     -0.076318     -0.370030
      4.22777      8.45554      9.00000        -0.088556     -0.010395      0.422051
      6.34166     10.56943      9.00000        -0.112356      0.000668      0.371626
      4.22777     10.56943     11.11389        -0.083419      0.000103     -0.317374
      6.34166      8.45554     11.11389        -0.442852      0.020718     -0.371878
      4.22777     12.68331      9.00000        -0.088124      0.010737      0.421959
      6.34166     14.79720      9.00000        -0.069599      0.069056      0.371120
      4.22777     14.79720     11.11389        -0.084972      0.009689     -0.359414
      6.34166     12.68331     11.11389        -0.437788     -0.019303     -0.371630
      4.22777     16.91108      9.00000        -0.033133      0.024876      0.411589
      6.34166     19.02497      9.00000        -0.012046      0.025068      0.415039
      4.22777     19.02497     11.11389        -0.016508      0.014348     -0.373501
      6.34166     16.91108     11.11389        -0.027161      0.075362     -0.370039
      8.45554      0.00000      9.00000         0.000027     -0.000194      0.415822
     10.56943      2.11389      9.00000         0.012088     -0.025500      0.415025
      8.45554      2.11389     11.11389        -0.000011     -0.034123     -0.372215
     10.56943      0.00000     11.11389         0.008189     -0.000102     -0.373812
      8.45554      4.22777      9.00000        -0.000016     -0.076251      0.409525
     10.56943      6.34166      9.00000         0.069866     -0.069195      0.370195
      8.45554      6.34166     11.11389        -0.000102     -0.411943     -0.448381
     10.56943      4.22777     11.11389         0.027360     -0.076416     -0.370012
      8.45554      8.45554      9.00000         0.000130     -0.037383      0.058943
     10.56943     10.56943      9.00000         0.112323      0.000731      0.370973
      8.45554     10.56943     11.11389        -0.002081     -0.003113     -0.627325
     10.56943      8.45554     11.11389         0.443856      0.019926     -0.372994
      8.45554     12.68331      9.00000         0.000154      0.037384      0.061927
     10.56943     14.79720      9.00000         0.069548      0.068935      0.370901
      8.45554     14.79720     11.11389        -0.000198      0.407837     -0.445740
     10.56943     12.68331     11.11389         0.439150     -0.018446     -0.373472
[...]
     19.02497      6.34166     11.11389         0.000010      0.000503      0.486408
     16.91108      6.34166      9.00000        -0.014551      0.003243     -0.531277
     19.02497      4.22777      9.00000         0.000010      0.002180     -0.530685
     16.91108      8.45554     11.11389        -0.014456      0.000128      0.481474
     19.02497     10.56943     11.11389         0.000001     -0.000031      0.483647
     16.91108     10.56943      9.00000        -0.016800     -0.000047     -0.532633
     19.02497      8.45554      9.00000         0.000007      0.000755     -0.531720
     16.91108     12.68331     11.11389        -0.014418     -0.000217      0.481483
     19.02497     14.79720     11.11389         0.000003     -0.000533      0.486439
     16.91108     14.79720      9.00000        -0.014464     -0.003294     -0.531270
     19.02497     12.68331      9.00000         0.000013     -0.000828     -0.531717
     16.91108     16.91108     11.11389        -0.010806     -0.002679      0.487584
     19.02497     19.02497     11.11389         0.000009     -0.000941      0.490182
     16.91108     19.02497      9.00000        -0.008794     -0.002704     -0.530258
     19.02497     16.91108      9.00000         0.000011     -0.002169     -0.530695
    total drift:                               -0.002476      0.001317     -0.714179

  FREE ENERGIE OF THE ION-ELECTRON SYSTEM (eV)
  free  energy   TOTEN  =     -1796.89203702 eV

  energy  without entropy=    -1796.89203702  energy(sigma->0) =    -1796.89203702