 vasp.6.3.0 20Jan22 (build Apr  1 2022 16:44:48) complex
 executed on        HPECrayEX_GCC date 2022.10.20  18:26:23

 INCAR:
   SYSTEM = MgO-rocksalt
   ISMEAR = 0
   SIGMA = 0.05
   EDIFF = 1E-6
   ALGO = ALL
   ISTART = 0
   IBRION = -1
   NSW = 0
   ISYM = 2
   DIPOL = 0.5 0.5 0.5
   IDIPOL = 3
   LDIPOL = .TRUE.
   LHFCALC = .TRUE.
   GGA = PE
   IVDW = 13
   VDW_S8 = 1.2007
   VDW_A1 = 0.4009
   VDW_A2 = 5.0293
   ENCUT = 520
   PREC = Accurate
   LASPH = .TRUE.
   LREAL = Auto
   ISPIN = 1
   NELM = 200
   NELMIN = 8
   NCORE = 4
   KPAR = 2
   LWAVE = .FALSE.
   LCHARG = .FALSE.

 POTCAR:    PAW_PBE Mg_pv 13Apr2007
 POTCAR:    PAW_PBE O 08Apr2002
|           W    W    AA    RRRRR   N    N  II  N    N   GGGG   !!!           |
|           W    W   A  A   R    R  NN   N  II  NN   N  G    G  !!!           |
|           W    W  A    A  R    R  N N  N  II  N N  N  G       !!!           |
|           W WW W  AAAAAA  RRRRR   N  N N  II  N  N N  G  GGG   !            |
|           WW  WW  A    A  R   R   N   NN  II  N   NN  G    G                |
|           W    W  A    A  R    R  N    N  II  N    N   GGGG   !!!           |
|     You have selected ISYM=2 for a HF type calculation. This will           |
|     symmetrize the charge density but not the exchange potential. I         |
|     suggest to use ISYM=3 instead. This uses symmetry to obtain the         |
|     orbitals at all k-points in the Brillouin zone, but does not apply      |
|     symmetry to the Hartree potential directly. The resultant charge        |
|     might have lower symmetry than the crystal but, at least, Hartree       |
|     and exchange are fully compatible.                                      |

   TITEL  = PAW_PBE Mg_pv 13Apr2007
   POMASS =   24.305; ZVAL   =    8.000    mass and valenz
   ENMAX  =  403.929; ENMIN  =  302.947 eV

   TITEL  = PAW_PBE O 08Apr2002
   POMASS =   16.000; ZVAL   =    6.000    mass and valenz
   ENMAX  =  400.000; ENMIN  =  300.000 eV

 Optimization of the real space projectors (new method)

 maximal supplied QI-value         = 18.90
 optimisation between [QCUT,QGAM] = [ 11.53, 23.24] = [ 37.21,151.29] Ry
 Optimized for a Real-space Cutoff    1.28 Angstroem

   l    n(q)    QCUT    max X(q) W(low)/X(q) W(high)/X(q)  e(spline)
   1      8    11.527     2.974    0.44E-04    0.56E-04    0.12E-06
   1      8    11.527     4.279    0.12E-03    0.12E-03    0.26E-06
   0      9    11.527    16.381    0.46E-04    0.64E-04    0.78E-07
   0      9    11.527     5.611    0.26E-04    0.43E-04    0.55E-07
   2      8    11.527     4.652    0.22E-03    0.72E-04    0.47E-07
 Optimization of the real space projectors (new method)

 maximal supplied QI-value         = 24.76
 optimisation between [QCUT,QGAM] = [ 11.64, 23.27] = [ 37.91,151.63] Ry
 Optimized for a Real-space Cutoff    1.14 Angstroem

   l    n(q)    QCUT    max X(q) W(low)/X(q) W(high)/X(q)  e(spline)
   0      8    11.635    20.381    0.10E-03    0.33E-03    0.24E-06
   0      8    11.635    15.268    0.11E-03    0.35E-03    0.26E-06
   1      7    11.635     5.964    0.24E-03    0.31E-03    0.30E-06
   1      7    11.635     5.382    0.22E-03    0.25E-03    0.26E-06
  PAW_PBE Mg_pv 13Apr2007               :
  PAW_PBE O 08Apr2002                   :

 POSCAR: Mg  O
  positions in direct lattice
|           W    W    AA    RRRRR   N    N  II  N    N   GGGG   !!!           |
|           W    W   A  A   R    R  NN   N  II  NN   N  G    G  !!!           |
|           W    W  A    A  R    R  N N  N  II  N N  N  G       !!!           |
|           W WW W  AAAAAA  RRRRR   N  N N  II  N  N N  G  GGG   !            |
|           WW  WW  A    A  R   R   N   NN  II  N   NN  G    G                |
|           W    W  A    A  R    R  N    N  II  N    N   GGGG   !!!           |
|     Specifying the vdW parameters                                           |
|     VDW_S8 = 1.201                                                          |
|     VDW_A1 = 0.401                                                          |
|     VDW_A2 = 5.029                                                          |
|     in the INCAR file will overwrite the defaults for pbe0. Please make     |
|     sure that is what you intended.                                         |

 ion  position               nearest neighbor table
   1  0.000  0.000  0.407- 103 2.11 104 2.11 119 2.11 184 2.11 101 2.11
   2  0.100  0.100  0.407- 103 2.11 104 2.11 108 2.11 123 2.11 102 2.11
   3  0.000  0.100  0.503- 101 2.11 102 2.11 105 2.11 182 2.11 103 2.11
   4  0.100  0.000  0.503- 101 2.11 102 2.11 118 2.11 121 2.11 104 2.11
   5  0.000  0.200  0.407- 107 2.11 103 2.11 108 2.11 188 2.11 105 2.11
   6  0.100  0.300  0.407- 108 2.11 107 2.11 112 2.11 127 2.11 106 2.11
   7  0.000  0.300  0.503- 105 2.11 106 2.11 109 2.11 186 2.11 107 2.11
   8  0.100  0.200  0.503- 106 2.11 105 2.11 102 2.11 125 2.11 108 2.11
   9  0.000  0.400  0.407- 107 2.11 111 2.11 112 2.11 192 2.11 109 2.11
  10  0.100  0.500  0.407- 111 2.11 112 2.11 116 2.11 131 2.11 110 2.11
  11  0.000  0.500  0.503- 109 2.11 110 2.11 113 2.11 190 2.11 111 2.11
  12  0.100  0.400  0.503- 106 2.11 109 2.11 110 2.11 129 2.11 112 2.11
  13  0.000  0.600  0.407- 111 2.11 115 2.11 116 2.11 196 2.11 113 2.11
  14  0.100  0.700  0.407- 120 2.11 116 2.11 115 2.11 135 2.11 114 2.11
  15  0.000  0.700  0.503- 117 2.11 114 2.11 113 2.11 194 2.11 115 2.11
  16  0.100  0.600  0.503- 110 2.11 113 2.11 114 2.11 133 2.11 116 2.11
  17  0.000  0.800  0.407- 115 2.11 119 2.11 120 2.11 200 2.11 117 2.11
  18  0.100  0.900  0.407- 104 2.11 119 2.11 120 2.11 139 2.11 118 2.11
  19  0.000  0.900  0.503- 101 2.11 117 2.11 118 2.11 198 2.11 119 2.11
  20  0.100  0.800  0.503- 114 2.11 117 2.11 118 2.11 137 2.11 120 2.11
  21  0.200  0.000  0.407- 124 2.11 123 2.11 104 2.11 139 2.11 121 2.11
  22  0.300  0.100  0.407- 123 2.11 124 2.11 128 2.11 143 2.11 122 2.11
  23  0.200  0.100  0.503- 122 2.11 121 2.11 102 2.11 125 2.11 123 2.11
  24  0.300  0.000  0.503- 121 2.11 122 2.11 138 2.11 141 2.11 124 2.11
  25  0.200  0.200  0.407- 127 2.11 128 2.11 108 2.11 123 2.11 125 2.11
  26  0.300  0.300  0.407- 127 2.11 128 2.11 132 2.11 147 2.11 126 2.11
  27  0.200  0.300  0.503- 125 2.11 126 2.11 106 2.11 129 2.11 127 2.11
  28  0.300  0.200  0.503- 125 2.11 126 2.11 122 2.11 145 2.11 128 2.11
  29  0.200  0.400  0.407- 132 2.11 127 2.11 131 2.11 112 2.11 129 2.11
  30  0.300  0.500  0.407- 131 2.11 132 2.11 136 2.11 151 2.11 130 2.11
  31  0.200  0.500  0.503- 130 2.11 129 2.11 110 2.11 133 2.11 131 2.11
  32  0.300  0.400  0.503- 129 2.11 126 2.11 130 2.11 149 2.11 132 2.11
  33  0.200  0.600  0.407- 136 2.11 131 2.11 135 2.11 116 2.11 133 2.11
  34  0.300  0.700  0.407- 135 2.11 140 2.11 136 2.11 155 2.11 134 2.11
  35  0.200  0.700  0.503- 134 2.11 137 2.11 114 2.11 133 2.11 135 2.11
  36  0.300  0.600  0.503- 133 2.11 130 2.11 134 2.11 153 2.11 136 2.11
  37  0.200  0.800  0.407- 135 2.11 140 2.11 139 2.11 120 2.11 137 2.11
  38  0.300  0.900  0.407- 139 2.11 124 2.11 140 2.11 159 2.11 138 2.11
  39  0.200  0.900  0.503- 138 2.11 121 2.11 137 2.11 118 2.11 139 2.11
  40  0.300  0.800  0.503- 134 2.11 137 2.11 138 2.11 157 2.11 140 2.11
  41  0.400  0.000  0.407- 124 2.11 143 2.11 144 2.11 159 2.11 141 2.11
  42  0.500  0.100  0.407- 143 2.11 144 2.11 148 2.11 163 2.11 142 2.11
  43  0.400  0.100  0.503- 122 2.11 141 2.11 142 2.11 145 2.11 143 2.11
  44  0.500  0.000  0.503- 141 2.11 142 2.11 158 2.11 161 2.11 144 2.11
  45  0.400  0.200  0.407- 147 2.11 143 2.11 128 2.11 148 2.11 145 2.11
  46  0.500  0.300  0.407- 148 2.11 147 2.11 152 2.11 167 2.11 146 2.11
  47  0.400  0.300  0.503- 145 2.11 126 2.11 146 2.11 149 2.11 147 2.11
  48  0.500  0.200  0.503- 146 2.11 145 2.11 142 2.11 165 2.11 148 2.11
  49  0.400  0.400  0.407- 132 2.11 147 2.11 151 2.11 152 2.11 149 2.11
  50  0.500  0.500  0.407- 151 2.11 152 2.11 156 2.11 171 2.11 150 2.11
  51  0.400  0.500  0.503- 130 2.11 149 2.11 150 2.11 153 2.11 151 2.11
  52  0.500  0.400  0.503- 146 2.11 149 2.11 150 2.11 169 2.11 152 2.11
  53  0.400  0.600  0.407- 136 2.11 151 2.11 155 2.11 156 2.11 153 2.11
  54  0.500  0.700  0.407- 160 2.11 156 2.11 155 2.11 175 2.11 154 2.11
  55  0.400  0.700  0.503- 157 2.11 153 2.11 154 2.11 134 2.11 155 2.11
  56  0.500  0.600  0.503- 150 2.11 153 2.11 154 2.11 173 2.11 156 2.11
  57  0.400  0.800  0.407- 155 2.11 140 2.11 159 2.11 160 2.11 157 2.11
  58  0.500  0.900  0.407- 144 2.11 159 2.11 160 2.11 179 2.11 158 2.11
  59  0.400  0.900  0.503- 138 2.11 141 2.11 157 2.11 158 2.11 159 2.11
  60  0.500  0.800  0.503- 154 2.11 157 2.11 158 2.11 177 2.11 160 2.11
[...]
 186  0.900  0.300  0.503-  88 2.11  87 2.11   7 2.11  92 2.11  86 2.11
 187  0.800  0.300  0.407-  66 2.11  85 2.11  86 2.11  89 2.11  87 2.11
 188  0.900  0.200  0.407-  86 2.11  82 2.11  85 2.11   5 2.11  88 2.11
 189  0.800  0.400  0.503-  72 2.11  87 2.11  91 2.11  92 2.11  89 2.11
 190  0.900  0.500  0.503-  11 2.11  91 2.11  92 2.11  96 2.11  90 2.11
 191  0.800  0.500  0.407-  70 2.11  89 2.11  90 2.11  93 2.11  91 2.11
 192  0.900  0.400  0.407-   9 2.11  86 2.11  89 2.11  90 2.11  92 2.11
 193  0.800  0.600  0.503-  76 2.11  91 2.11  95 2.11  96 2.11  93 2.11
 194  0.900  0.700  0.503- 100 2.11  95 2.11  96 2.11  15 2.11  94 2.11
 195  0.800  0.700  0.407-  74 2.11  97 2.11  94 2.11  93 2.11  95 2.11
 196  0.900  0.600  0.407-  13 2.11  90 2.11  93 2.11  94 2.11  96 2.11
 197  0.800  0.800  0.503-  80 2.11  95 2.11  99 2.11 100 2.11  97 2.11
 198  0.900  0.900  0.503-  19 2.11  84 2.11  99 2.11 100 2.11  98 2.11
 199  0.800  0.900  0.407-  78 2.11  81 2.11  97 2.11  98 2.11  99 2.11
 200  0.900  0.800  0.407-  94 2.11  17 2.11  97 2.11  98 2.11 100 2.11

  LATTYP: Found a simple tetragonal cell.
 ALAT       =    21.1388521970
 C/A-ratio  =     1.0461251639

  Lattice vectors:

 A1 = (  21.1388521970,   0.0000000000,   0.0000000000)
 A2 = (   0.0000000000,  21.1388521970,   0.0000000000)
 A3 = (   0.0000000000,   0.0000000000,  22.1138852197)

Analysis of symmetry for initial positions (statically):
 Subroutine PRICEL returns following result:

[...]

  50 primitive cells build up your supercell.

 Routine SETGRP: Setting up the symmetry group for a
 simple tetragonal supercell.

 Subroutine GETGRP returns: Found 16 space group operations
 (whereof  8 operations were pure point group operations)
 out of a pool of 16 trial point group operations.

The static configuration has the point symmetry C_4v.
 The point group associated with its full space group is D_4h.

Analysis of symmetry for dynamics (positions and initial velocities):
 Subroutine PRICEL returns following result:

  LATTYP: Found a simple tetragonal cell.
 ALAT       =     2.9894851470
 C/A-ratio  =     7.3972219738

  Lattice vectors:

 A1 = (   2.1138852197,  -2.1138852197,   0.0000000000)
 A2 = (   2.1138852197,   2.1138852197,   0.0000000000)
 A3 = (   0.0000000000,   0.0000000000,  22.1138852197)

  50 primitive cells build up your supercell.

 Routine SETGRP: Setting up the symmetry group for a
 simple tetragonal supercell.

 Subroutine GETGRP returns: Found 16 space group operations
[...]
     22     -46.9932      2.00000
     23     -46.9932      2.00000
     24     -46.9932      2.00000
     25     -46.9932      2.00000
     26     -46.9910      2.00000
     27     -46.9910      2.00000
     28     -46.9910      2.00000
     29     -46.9910      2.00000
     30     -46.9902      2.00000
     31     -46.9902      2.00000
     32     -46.9902      2.00000
     33     -46.9902      2.00000
     34     -46.9902      2.00000
     35     -46.9902      2.00000
     36     -46.9902      2.00000
     37     -46.9902      2.00000
     38     -46.9878      2.00000
     39     -46.9878      2.00000
     40     -46.9878      2.00000
     41     -46.9878      2.00000
     42     -46.9878      2.00000
     43     -46.9878      2.00000
     44     -46.9878      2.00000
     45     -46.9878      2.00000
     46     -46.9844      2.00000
     47     -46.9844      2.00000
     48     -46.9844      2.00000
     49     -46.9844      2.00000
     50     -46.9839      2.00000
     51     -46.9839      2.00000
     52     -46.9839      2.00000
     53     -46.9839      2.00000
     54     -46.9838      2.00000
     55     -46.9838      2.00000
     56     -46.9838      2.00000
     57     -46.9838      2.00000
     58     -46.9834      2.00000
     59     -46.9834      2.00000
     60     -46.9834      2.00000
[...]
    946       6.8097      0.00000
    947       6.8549      0.00000
    948       7.0224      0.00000
    949       7.0658      0.00000
    950       7.2023      0.00000
    951       7.2624      0.00000
    952       7.2657      0.00000
    953       7.3448      0.00000
    954       7.4327      0.00000
    955       7.4868      0.00000
    956       7.5930      0.00000
    957       7.6922      0.00000
    958       7.7497      0.00000
    959       7.8343      0.00000
    960       7.9917      0.00000

 soft charge-density along one line, spin component           1
         0         1         2         3         4         5         6         7         8         9
 total charge-density along one line

------------------------ aborting loop because EDIFF is reached ----------------------------------------

 VOLUME and BASIS-vectors are now :
  energy-cutoff  :      520.00
  volume of cell :     9881.61
      direct lattice vectors                 reciprocal lattice vectors
    21.138852197  0.000000000  0.000000000     0.047306258  0.000000000  0.000000000
     0.000000000 21.138852197  0.000000000     0.000000000  0.047306258  0.000000000
     0.000000000  0.000000000 22.113885220     0.000000000  0.000000000  0.045220457

  length of vectors
    21.138852197 21.138852197 22.113885220     0.047306258  0.047306258  0.045220457

 FORCES acting on ions:
    Electron-Ion                     Ewald-Force                    Non-Local-Force
   0.139E-12 0.153E-12 0.927E+03   0.764E-13 0.213E-12 -.919E+03   0.186E-23 0.827E-24 -.708E+01
   -.287E-12 -.815E-12 0.927E+03   0.101E-09 0.101E-09 -.919E+03   0.398E-23 0.569E-24 -.708E+01
   0.154E-12 -.102E-11 -.927E+03   0.103E-12 0.101E-09 0.919E+03   -.662E-23 -.620E-24 0.708E+01
   -.252E-12 0.167E-12 -.927E+03   0.101E-09 0.107E-12 0.919E+03   -.103E-23 -.132E-23 0.708E+01
   0.145E-12 -.124E-11 0.927E+03   0.153E-10 -.470E-10 -.919E+03   0.517E-23 -.372E-23 -.708E+01
   -.292E-12 0.914E-12 0.927E+03   0.988E-10 0.269E-10 -.919E+03   0.154E-22 0.931E-23 -.708E+01
   0.135E-12 0.110E-11 -.927E+03   0.181E-11 0.268E-10 0.919E+03   0.393E-23 0.848E-23 0.708E+01
   -.265E-12 -.130E-11 -.927E+03   0.852E-10 -.470E-10 0.919E+03   0.571E-23 -.620E-23 0.708E+01
   0.102E-12 0.839E-12 0.927E+03   -.174E-10 -.803E-10 -.919E+03   0.280E-23 0.161E-22 -.708E+01
   -.310E-12 -.769E-12 0.927E+03   0.101E-09 0.228E-12 -.919E+03   0.150E-22 0.988E-23 -.708E+01
   0.120E-12 -.277E-12 -.927E+03   0.120E-12 0.126E-12 0.919E+03   -.102E-22 -.168E-23 0.708E+01
   -.273E-12 0.130E-11 -.927E+03   0.118E-09 -.804E-10 0.919E+03   -.120E-22 0.620E-23 0.708E+01
   0.988E-13 -.144E-11 0.927E+03   0.116E-11 0.950E-10 -.919E+03   0.718E-23 0.470E-23 -.708E+01
   -.295E-12 -.190E-11 0.927E+03   0.861E-10 -.402E-10 -.919E+03   -.310E-24 0.414E-24 -.708E+01
   0.121E-12 -.161E-11 -.927E+03   -.785E-12 -.402E-10 0.919E+03   0.103E-24 -.786E-23 0.708E+01
   -.287E-12 -.185E-11 -.927E+03   0.115E-09 0.844E-10 0.919E+03   0.393E-23 -.755E-23 0.708E+01
   0.141E-12 0.495E-12 0.927E+03   0.853E-12 0.253E-10 -.919E+03   0.872E-23 0.982E-24 -.708E+01
   -.283E-12 0.554E-12 0.927E+03   0.117E-09 -.800E-10 -.919E+03   0.724E-23 0.165E-23 -.708E+01
   0.136E-12 0.971E-12 -.927E+03   -.867E-12 -.799E-10 0.919E+03   0.414E-23 -.103E-24 0.708E+01
   -.276E-12 0.718E-12 -.927E+03   0.841E-10 0.360E-10 0.919E+03   0.269E-23 0.558E-23 0.708E+01
   -.566E-12 0.134E-12 0.927E+03   -.487E-10 0.101E-12 -.919E+03   -.579E-23 0.538E-23 -.708E+01
   0.286E-12 -.195E-11 0.927E+03   0.268E-10 0.993E-10 -.919E+03   -.186E-23 -.248E-23 -.708E+01
   -.660E-12 -.108E-11 -.927E+03   -.294E-10 0.893E-10 0.919E+03   0.807E-23 -.517E-23 0.708E+01
   0.266E-12 0.151E-12 -.927E+03   0.231E-10 0.941E-13 0.919E+03   0.713E-23 0.145E-23 0.708E+01
   -.587E-12 -.180E-12 0.927E+03   -.526E-10 -.478E-10 -.919E+03   -.333E-23 0.129E-23 -.708E+01
   0.303E-12 0.680E-12 0.927E+03   0.176E-10 0.247E-10 -.919E+03   -.103E-24 -.114E-22 -.708E+01
   -.663E-12 0.339E-12 -.927E+03   -.663E-10 0.274E-10 0.919E+03   0.641E-23 0.693E-23 0.708E+01
   0.261E-12 -.242E-13 -.927E+03   0.388E-11 -.448E-10 0.919E+03   0.181E-24 -.207E-24 0.708E+01
   -.588E-12 0.272E-11 0.927E+03   -.469E-10 -.688E-10 -.919E+03   0.100E-22 -.207E-23 -.708E+01
   0.331E-12 -.127E-11 0.927E+03   0.229E-10 0.218E-12 -.919E+03   0.517E-23 0.724E-24 -.708E+01
   -.702E-12 -.184E-11 -.927E+03   -.490E-10 0.107E-13 0.919E+03   -.160E-22 0.233E-23 0.708E+01
   0.255E-12 0.280E-11 -.927E+03   0.442E-10 -.787E-10 0.919E+03   -.517E-23 -.124E-23 0.708E+01
   -.585E-12 -.608E-12 0.927E+03   -.287E-10 0.834E-10 -.919E+03   0.646E-24 0.476E-23 -.708E+01
   0.332E-12 -.241E-11 0.927E+03   0.460E-11 -.379E-10 -.919E+03   -.165E-23 0.153E-22 -.708E+01
   -.660E-12 -.142E-11 -.927E+03   -.694E-10 -.410E-10 0.919E+03   -.858E-23 -.227E-23 0.708E+01
   0.270E-12 0.497E-12 -.927E+03   0.411E-10 0.828E-10 0.919E+03   -.641E-23 -.230E-23 0.708E+01
   -.561E-12 0.559E-12 0.927E+03   -.674E-10 0.259E-10 -.919E+03   0.287E-23 -.113E-23 -.708E+01
   0.336E-12 0.151E-12 0.927E+03   0.432E-10 -.784E-10 -.919E+03   0.101E-23 -.558E-23 -.708E+01
   -.643E-12 0.161E-12 -.927E+03   -.304E-10 -.686E-10 0.919E+03   -.589E-23 -.724E-24 0.708E+01
   0.300E-12 0.308E-11 -.927E+03   0.270E-11 0.337E-10 0.919E+03   -.172E-22 -.693E-23 0.708E+01
   0.313E-12 0.116E-12 0.927E+03   -.749E-10 0.449E-13 -.919E+03   0.579E-23 0.532E-23 -.708E+01
   -.232E-12 -.205E-11 0.927E+03   0.387E-11 0.992E-10 -.919E+03   0.207E-24 0.227E-23 -.708E+01
   0.354E-12 -.682E-11 -.927E+03   -.544E-10 0.890E-10 0.919E+03   0.141E-22 -.538E-23 0.708E+01
   -.272E-12 0.995E-13 -.927E+03   0.622E-14 0.933E-13 0.919E+03   -.372E-23 0.227E-23 0.708E+01
   0.312E-12 -.136E-11 0.927E+03   -.799E-10 -.471E-10 -.919E+03   -.331E-23 0.659E-23 -.708E+01
   -.210E-12 -.207E-11 0.927E+03   -.579E-11 0.245E-10 -.919E+03   0.734E-23 -.414E-23 -.708E+01
   0.382E-12 0.103E-10 -.927E+03   -.934E-10 0.267E-10 0.919E+03   0.416E-23 0.300E-23 0.708E+01
   -.284E-12 -.241E-11 -.927E+03   -.193E-10 -.446E-10 0.919E+03   0.124E-23 0.641E-23 0.708E+01
   0.357E-12 -.133E-11 0.927E+03   -.720E-10 -.686E-10 -.919E+03   0.620E-23 -.693E-23 -.708E+01
   -.180E-12 0.143E-11 0.927E+03   -.104E-12 0.214E-12 -.919E+03   -.995E-23 0.620E-24 -.708E+01
   0.417E-12 0.116E-10 -.927E+03   -.749E-10 0.933E-14 0.919E+03   -.748E-23 -.103E-23 0.708E+01
   -.240E-12 -.301E-11 -.927E+03   0.215E-10 -.787E-10 0.919E+03   -.331E-23 -.321E-23 0.708E+01
   0.368E-12 -.459E-11 0.927E+03   -.535E-10 0.832E-10 -.919E+03   -.398E-23 0.331E-23 -.708E+01
   -.187E-12 -.157E-11 0.927E+03   -.183E-10 -.377E-10 -.919E+03   -.367E-23 0.310E-23 -.708E+01
   0.415E-12 0.935E-11 -.927E+03   -.962E-10 -.403E-10 0.919E+03   -.703E-23 -.496E-23 0.708E+01
   -.230E-12 -.317E-11 -.927E+03   0.183E-10 0.827E-10 0.919E+03   -.144E-22 0.434E-23 0.708E+01
   0.361E-12 0.115E-11 0.927E+03   -.942E-10 0.252E-10 -.919E+03   -.103E-22 0.106E-22 -.708E+01
   -.213E-12 -.346E-11 0.927E+03   0.203E-10 -.783E-10 -.919E+03   -.620E-23 -.352E-23 -.708E+01
   0.396E-12 -.162E-10 -.927E+03   -.555E-10 -.683E-10 0.919E+03   -.183E-22 -.103E-23 0.708E+01
   -.255E-12 -.527E-12 -.927E+03   -.204E-10 0.335E-10 0.919E+03   -.115E-22 0.703E-23 0.708E+01
[...]
   0.543E-10 0.508E-10 0.696E+03   0.434E-10 0.494E-10 -.700E+03   0.149E-22 -.455E-23 0.310E+01
   0.313E-10 -.512E-10 0.696E+03   0.206E-11 -.614E-10 -.700E+03   -.480E-22 0.111E-22 0.310E+01
   0.544E-10 0.258E-10 -.696E+03   0.507E-10 -.136E-10 0.700E+03   -.736E-22 -.236E-22 -.310E+01
   0.313E-10 -.472E-11 -.696E+03   -.507E-11 0.103E-10 0.700E+03   -.117E-22 -.827E-23 -.310E+01
   0.543E-10 0.373E-11 0.696E+03   0.512E-10 -.169E-11 -.700E+03   -.136E-22 0.174E-22 0.310E+01
   0.313E-10 0.359E-10 0.696E+03   0.178E-11 -.155E-11 -.700E+03   0.372E-23 -.620E-23 0.310E+01
   0.544E-10 -.401E-10 -.696E+03   0.609E-10 0.119E-11 0.700E+03   -.166E-22 0.000E+00 -.310E+01
   0.313E-10 -.551E-10 -.696E+03   -.438E-11 -.488E-10 0.700E+03   -.192E-22 0.426E-22 -.310E+01
   0.543E-10 -.595E-10 0.696E+03   0.410E-10 -.598E-10 -.700E+03   -.577E-22 0.910E-23 0.310E+01
   0.313E-10 -.403E-10 0.696E+03   -.719E-13 0.697E-11 -.700E+03   0.807E-23 -.359E-23 0.310E+01
   0.544E-10 0.247E-10 -.696E+03   0.416E-10 0.415E-10 0.700E+03   -.128E-22 0.132E-22 -.310E+01
   0.313E-10 0.883E-10 -.696E+03   -.259E-11 -.308E-11 0.700E+03   0.149E-22 -.397E-22 -.310E+01
   0.543E-10 0.359E-10 0.696E+03   0.619E-10 0.573E-11 -.700E+03   -.207E-22 -.132E-22 0.310E+01
   0.313E-10 0.552E-10 0.696E+03   0.249E-12 0.561E-10 -.700E+03   -.190E-22 -.207E-23 0.310E+01
   0.122E-10 -.234E-10 -.326E-02   0.113E-11 0.441E-13 -.909E-12   0.990E-22 0.207E-21 0.284E-13

 POSITION                                       TOTAL-FORCE (eV/Angst)
      0.00000      0.00000      9.00000         0.000000     -0.000000      0.574687
      2.11389      2.11389      9.00000         0.000000     -0.000000      0.574687
      0.00000      2.11389     11.11389         0.000000      0.000000     -0.574687
      2.11389      0.00000     11.11389        -0.000000      0.000000     -0.574687
      0.00000      4.22777      9.00000        -0.000000      0.000000      0.574687
      2.11389      6.34166      9.00000        -0.000000      0.000000      0.574687
      0.00000      6.34166     11.11389        -0.000000      0.000000     -0.574687
      2.11389      4.22777     11.11389         0.000000      0.000000     -0.574687
      0.00000      8.45554      9.00000        -0.000000     -0.000000      0.574687
      2.11389     10.56943      9.00000         0.000000      0.000000      0.574687
      0.00000     10.56943     11.11389        -0.000000      0.000000     -0.574687
      2.11389      8.45554     11.11389        -0.000000     -0.000000     -0.574687
      0.00000     12.68331      9.00000        -0.000000     -0.000000      0.574687
      2.11389     14.79720      9.00000        -0.000000      0.000000      0.574687
      0.00000     14.79720     11.11389        -0.000000      0.000000     -0.574687
      2.11389     12.68331     11.11389         0.000000     -0.000000     -0.574687
      0.00000     16.91108      9.00000        -0.000000     -0.000000      0.574687
      2.11389     19.02497      9.00000        -0.000000      0.000000      0.574687
      0.00000     19.02497     11.11389        -0.000000     -0.000000     -0.574687
      2.11389     16.91108     11.11389        -0.000000      0.000000     -0.574687
      4.22777      0.00000      9.00000        -0.000000      0.000000      0.574687
      6.34166      2.11389      9.00000         0.000000      0.000000      0.574687
      4.22777      2.11389     11.11389         0.000000     -0.000000     -0.574687
      6.34166      0.00000     11.11389         0.000000     -0.000000     -0.574687
      4.22777      4.22777      9.00000         0.000000     -0.000000      0.574687
      6.34166      6.34166      9.00000         0.000000     -0.000000      0.574687
      4.22777      6.34166     11.11389         0.000000     -0.000000     -0.574687
      6.34166      4.22777     11.11389         0.000000      0.000000     -0.574687
      4.22777      8.45554      9.00000        -0.000000      0.000000      0.574687
      6.34166     10.56943      9.00000        -0.000000      0.000000      0.574687
      4.22777     10.56943     11.11389         0.000000      0.000000     -0.574687
      6.34166      8.45554     11.11389         0.000000     -0.000000     -0.574687
      4.22777     12.68331      9.00000        -0.000000     -0.000000      0.574687
      6.34166     14.79720      9.00000        -0.000000      0.000000      0.574687
      4.22777     14.79720     11.11389         0.000000      0.000000     -0.574687
      6.34166     12.68331     11.11389         0.000000     -0.000000     -0.574687
      4.22777     16.91108      9.00000         0.000000     -0.000000      0.574687
      6.34166     19.02497      9.00000         0.000000      0.000000      0.574687
      4.22777     19.02497     11.11389        -0.000000     -0.000000     -0.574687
      6.34166     16.91108     11.11389        -0.000000     -0.000000     -0.574687
      8.45554      0.00000      9.00000         0.000000     -0.000000      0.574687
     10.56943      2.11389      9.00000         0.000000      0.000000      0.574687
      8.45554      2.11389     11.11389         0.000000      0.000000     -0.574687
     10.56943      0.00000     11.11389        -0.000000     -0.000000     -0.574687
      8.45554      4.22777      9.00000        -0.000000     -0.000000      0.574687
     10.56943      6.34166      9.00000        -0.000000      0.000000      0.574687
      8.45554      6.34166     11.11389        -0.000000      0.000000     -0.574687
     10.56943      4.22777     11.11389        -0.000000     -0.000000     -0.574687
      8.45554      8.45554      9.00000         0.000000     -0.000000      0.574687
     10.56943     10.56943      9.00000         0.000000     -0.000000      0.574687
      8.45554     10.56943     11.11389        -0.000000      0.000000     -0.574687
     10.56943      8.45554     11.11389         0.000000      0.000000     -0.574687
      8.45554     12.68331      9.00000        -0.000000      0.000000      0.574687
     10.56943     14.79720      9.00000         0.000000      0.000000      0.574687
      8.45554     14.79720     11.11389        -0.000000     -0.000000     -0.574687
     10.56943     12.68331     11.11389        -0.000000      0.000000     -0.574687
      8.45554     16.91108      9.00000        -0.000000      0.000000      0.574687
     10.56943     19.02497      9.00000        -0.000000     -0.000000      0.574687
      8.45554     19.02497     11.11389        -0.000000     -0.000000     -0.574687
     10.56943     16.91108     11.11389        -0.000000     -0.000000     -0.574687
[...]
     19.02497      6.34166     11.11389         0.000000      0.000000      0.401758
     16.91108      6.34166      9.00000        -0.000000     -0.000000     -0.401758
     19.02497      4.22777      9.00000         0.000000     -0.000000     -0.401758
     16.91108      8.45554     11.11389        -0.000000     -0.000000      0.401758
     19.02497     10.56943     11.11389        -0.000000     -0.000000      0.401758
     16.91108     10.56943      9.00000        -0.000000      0.000000     -0.401758
     19.02497      8.45554      9.00000         0.000000     -0.000000     -0.401758
     16.91108     12.68331     11.11389         0.000000      0.000000      0.401758
     19.02497     14.79720     11.11389        -0.000000      0.000000      0.401758
     16.91108     14.79720      9.00000        -0.000000     -0.000000     -0.401758
     19.02497     12.68331      9.00000        -0.000000      0.000000     -0.401758
     16.91108     16.91108     11.11389        -0.000000     -0.000000      0.401758
     19.02497     19.02497     11.11389        -0.000000     -0.000000      0.401758
     16.91108     19.02497      9.00000         0.000000     -0.000000     -0.401758
     19.02497     16.91108      9.00000        -0.000000      0.000000     -0.401758
    total drift:                                0.000000     -0.000000     -0.003263

  FREE ENERGIE OF THE ION-ELECTRON SYSTEM (eV)
  free  energy   TOTEN  =     -1436.87951530 eV

  energy  without entropy=    -1436.87951530  energy(sigma->0) =    -1436.87951530