 vasp.6.3.0 20Jan22 (build Apr  1 2022 16:44:48) complex
 executed on        HPECrayEX_GCC date 2023.01.09  21:15:57

 INCAR:
   SYSTEM = MgO-rocksalt
   ISMEAR = 0
   SIGMA = 0.05
   EDIFF = 1E-6
   ALGO = ALL
   ISTART = 0
   IBRION = -1
   NSW = 0
   ISYM = 2
   DIPOL = 0.5 0.5 0.5
   IDIPOL = 3
   LDIPOL = .TRUE.
   GGA = ML
   LUSE_VDW = .TRUE.
   ZAB_VDW = -1.8867
   AGGAC = 0.0000
   ENCUT = 520
   PREC = Accurate
   LASPH = .TRUE.
   LREAL = Auto
   ISPIN = 1
   NELM = 200
   NELMIN = 8
   NCORE = 4
   KPAR = 2
   LWAVE = .FALSE.
   LCHARG = .FALSE.

 POTCAR:    PAW_PBE Ag 02Apr2005
 POTCAR:    PAW_PBE Mg_pv 13Apr2007
 POTCAR:    PAW_PBE O 08Apr2002
|               ----> ADVICE to this user running VASP <----                  |
|     You have switched on vdW-DFT.                                           |
|     This routine was written and supplied by Jiri Klimes. We recommend      |
|     that you carefully read and cite the following publications:            |
|       J. Klimes, D.R. Bowler, A. Michelides                                 |
|          J. Phys.: Cond Matt. 22 022201 (2010)                              |
|       J. Klimes, D.R. Bowler, A. Michelides                                 |
|          Phys. Rev. B. 83, 195131 (2011)                                    |
|     and references therein.                                                 |

   TITEL  = PAW_PBE Ag 02Apr2005
   POMASS =  107.868; ZVAL   =   11.000    mass and valenz
   ENMAX  =  249.844; ENMIN  =  187.383 eV

   TITEL  = PAW_PBE Mg_pv 13Apr2007
   POMASS =   24.305; ZVAL   =    8.000    mass and valenz
   ENMAX  =  403.929; ENMIN  =  302.947 eV

   TITEL  = PAW_PBE O 08Apr2002
   POMASS =   16.000; ZVAL   =    6.000    mass and valenz
   ENMAX  =  400.000; ENMIN  =  300.000 eV

 Optimization of the real space projectors (new method)

 maximal supplied QI-value         = 15.12
 optimisation between [QCUT,QGAM] = [ 11.64, 23.28] = [ 37.95,151.78] Ry
 Optimized for a Real-space Cutoff    1.45 Angstroem

   l    n(q)    QCUT    max X(q) W(low)/X(q) W(high)/X(q)  e(spline)
   2      9    11.641    53.897    0.22E-03    0.42E-04    0.28E-06
   2      9    11.641    52.416    0.23E-03    0.44E-04    0.29E-06
   0     10    11.641   122.045    0.51E-04    0.25E-04    0.16E-06
   0     10    11.641    73.629    0.49E-04    0.24E-04    0.16E-06
   1     10    11.641    15.255    0.99E-04    0.55E-04    0.11E-06
   1     10    11.641     9.562    0.81E-04    0.47E-04    0.95E-07
 Optimization of the real space projectors (new method)

[...]

   l    n(q)    QCUT    max X(q) W(low)/X(q) W(high)/X(q)  e(spline)
   1      8    11.527     2.974    0.44E-04    0.56E-04    0.12E-06
   1      8    11.527     4.279    0.12E-03    0.12E-03    0.26E-06
   0      9    11.527    16.381    0.46E-04    0.64E-04    0.78E-07
   0      9    11.527     5.611    0.26E-04    0.43E-04    0.55E-07
   2      8    11.527     4.652    0.22E-03    0.72E-04    0.47E-07
 Optimization of the real space projectors (new method)

 maximal supplied QI-value         = 24.76
 optimisation between [QCUT,QGAM] = [ 11.64, 23.27] = [ 37.91,151.63] Ry
 Optimized for a Real-space Cutoff    1.14 Angstroem

   l    n(q)    QCUT    max X(q) W(low)/X(q) W(high)/X(q)  e(spline)
   0      8    11.635    20.381    0.10E-03    0.33E-03    0.24E-06
   0      8    11.635    15.268    0.11E-03    0.35E-03    0.26E-06
   1      7    11.635     5.964    0.24E-03    0.31E-03    0.30E-06
   1      7    11.635     5.382    0.22E-03    0.25E-03    0.26E-06
|               ----> ADVICE to this user running VASP <----                  |
|     You enforced a specific xc type in the INCAR file but a different       |
|     type was found in the POTCAR file.                                      |
|     I HOPE YOU KNOW WHAT YOU ARE DOING!                                     |

  PAW_PBE Ag 02Apr2005                  :
  PAW_PBE Mg_pv 13Apr2007               :
  PAW_PBE O 08Apr2002                   :

 POSCAR: Ag Mg  O
  positions in direct lattice
  velocities in cartesian coordinates
 exchange correlation table for  LEXCH =       44
   RHO(1)=    0.500       N(1)  =     2000
   RHO(2)=  100.500       N(2)  =     4000

 ion  position               nearest neighbor table
   1  0.400  0.563  0.612- 157 2.54   4 2.67   3 2.71  55 2.75
   2  0.400  0.500  0.835-   3 2.58
   3  0.400  0.499  0.718-   2 2.58   1 2.71   4 2.71
   4  0.400  0.436  0.612- 153 2.53   1 2.67   3 2.71  55 2.76
   5  0.000  0.000  0.407- 107 2.11 108 2.11 123 2.11 188 2.11 105 2.11
   6  0.100  0.100  0.407- 107 2.11 108 2.11 112 2.11 127 2.11 106 2.11
   7  0.000  0.100  0.503- 105 2.11 106 2.11 109 2.11 186 2.11 107 2.11
   8  0.100  0.000  0.503- 105 2.11 106 2.11 122 2.11 125 2.11 108 2.11
   9  0.000  0.200  0.407- 111 2.11 107 2.11 112 2.11 192 2.11 109 2.11
  10  0.100  0.300  0.407- 112 2.11 111 2.11 116 2.11 131 2.11 110 2.11
  11  0.000  0.300  0.503- 109 2.11 110 2.11 113 2.11 190 2.11 111 2.11
  12  0.100  0.200  0.503- 110 2.11 109 2.11 106 2.11 129 2.11 112 2.11
  13  0.000  0.400  0.407- 111 2.11 115 2.11 116 2.11 196 2.11 113 2.11
  14  0.100  0.500  0.407- 115 2.11 116 2.11 120 2.11 135 2.11 114 2.11
  15  0.000  0.500  0.503- 113 2.11 114 2.11 117 2.11 194 2.11 115 2.11
  16  0.100  0.400  0.503- 110 2.11 113 2.11 114 2.11 133 2.11 116 2.11
  17  0.000  0.600  0.407- 115 2.11 119 2.11 120 2.11 200 2.11 117 2.11
  18  0.100  0.700  0.407- 124 2.11 120 2.11 119 2.11 139 2.11 118 2.11
  19  0.000  0.700  0.503- 121 2.11 118 2.11 117 2.11 198 2.11 119 2.11
  20  0.100  0.600  0.503- 114 2.11 117 2.11 118 2.11 137 2.11 120 2.11
  21  0.000  0.800  0.407- 119 2.11 123 2.11 124 2.11 204 2.11 121 2.11
  22  0.100  0.900  0.407- 108 2.11 123 2.11 124 2.11 143 2.11 122 2.11
  23  0.000  0.900  0.503- 105 2.11 121 2.11 122 2.11 202 2.11 123 2.11
  24  0.100  0.800  0.503- 118 2.11 121 2.11 122 2.11 141 2.11 124 2.11
  25  0.200  0.000  0.407- 128 2.11 127 2.11 108 2.11 143 2.11 125 2.11
  26  0.300  0.100  0.407- 127 2.11 128 2.11 132 2.11 147 2.11 126 2.11
  27  0.200  0.100  0.503- 126 2.11 125 2.11 106 2.11 129 2.11 127 2.11
  28  0.300  0.000  0.503- 125 2.11 126 2.11 142 2.11 145 2.11 128 2.11
  29  0.200  0.200  0.407- 131 2.11 132 2.11 112 2.11 127 2.11 129 2.11
  30  0.300  0.300  0.407- 131 2.11 132 2.11 136 2.11 151 2.11 130 2.11
  31  0.200  0.300  0.503- 129 2.11 130 2.11 110 2.11 133 2.11 131 2.11
  32  0.300  0.200  0.503- 129 2.11 130 2.11 126 2.11 149 2.11 132 2.11
  33  0.200  0.400  0.407- 136 2.11 131 2.11 135 2.11 116 2.11 133 2.11
  34  0.300  0.500  0.407- 135 2.11 136 2.11 140 2.11 155 2.11 134 2.11
  35  0.200  0.500  0.503- 134 2.11 133 2.11 114 2.11 137 2.11 135 2.11
  36  0.300  0.400  0.503- 133 2.11 130 2.11 134 2.11 153 2.11 136 2.11
  37  0.200  0.600  0.407- 140 2.11 135 2.11 139 2.11 120 2.11 137 2.11
  38  0.300  0.700  0.407- 139 2.11 144 2.11 140 2.11 159 2.11 138 2.11
  39  0.200  0.700  0.503- 138 2.11 141 2.11 118 2.11 137 2.11 139 2.11
  40  0.300  0.600  0.503- 137 2.11 134 2.11 138 2.11 157 2.11 140 2.11
  41  0.200  0.800  0.407- 139 2.11 144 2.11 143 2.11 124 2.11 141 2.11
  42  0.300  0.900  0.407- 143 2.11 128 2.11 144 2.11 163 2.11 142 2.11
  43  0.200  0.900  0.503- 142 2.11 125 2.11 141 2.11 122 2.11 143 2.11
  44  0.300  0.800  0.503- 138 2.11 141 2.11 142 2.11 161 2.11 144 2.11
  45  0.400  0.000  0.407- 128 2.11 147 2.11 148 2.11 163 2.11 145 2.11
  46  0.500  0.100  0.407- 147 2.11 148 2.11 152 2.11 167 2.11 146 2.11
  47  0.400  0.100  0.503- 126 2.11 145 2.11 146 2.11 149 2.11 147 2.11
  48  0.500  0.000  0.503- 145 2.11 146 2.11 162 2.11 165 2.11 148 2.11
  49  0.400  0.200  0.407- 151 2.11 147 2.11 132 2.11 152 2.11 149 2.11
  50  0.500  0.300  0.407- 152 2.11 151 2.11 156 2.11 171 2.11 150 2.11
  51  0.400  0.300  0.503- 149 2.11 130 2.11 150 2.11 153 2.11 151 2.11
  52  0.500  0.200  0.503- 150 2.11 149 2.11 146 2.11 169 2.11 152 2.11
  53  0.400  0.400  0.407- 136 2.11 151 2.11 155 2.11 156 2.11 153 2.11
  54  0.500  0.500  0.407- 155 2.11 156 2.11 160 2.11 175 2.11 154 2.11
  55  0.400  0.500  0.503- 134 2.11 153 2.11 154 2.11 157 2.11 155 2.11   1 2.75   4 2.76
  56  0.500  0.400  0.503- 150 2.11 153 2.11 154 2.11 173 2.11 156 2.11
  57  0.400  0.600  0.407- 140 2.11 155 2.11 159 2.11 160 2.11 157 2.11
  58  0.500  0.700  0.407- 164 2.11 160 2.11 159 2.11 179 2.11 158 2.11
  59  0.400  0.700  0.503- 161 2.11 157 2.11 158 2.11 138 2.11 159 2.11
  60  0.500  0.600  0.503- 154 2.11 157 2.11 158 2.11 177 2.11 160 2.11
[...]
 190  0.900  0.300  0.503-  92 2.11  91 2.11  11 2.11  96 2.11  90 2.11
 191  0.800  0.300  0.407-  70 2.11  89 2.11  90 2.11  93 2.11  91 2.11
 192  0.900  0.200  0.407-  90 2.11  86 2.11  89 2.11   9 2.11  92 2.11
 193  0.800  0.400  0.503-  76 2.11  91 2.11  95 2.11  96 2.11  93 2.11
 194  0.900  0.500  0.503-  15 2.11  95 2.11  96 2.11 100 2.11  94 2.11
 195  0.800  0.500  0.407-  74 2.11  93 2.11  94 2.11  97 2.11  95 2.11
 196  0.900  0.400  0.407-  13 2.11  90 2.11  93 2.11  94 2.11  96 2.11
 197  0.800  0.600  0.503-  80 2.11  95 2.11  99 2.11 100 2.11  97 2.11
 198  0.900  0.700  0.503- 104 2.11  99 2.11 100 2.11  19 2.11  98 2.11
 199  0.800  0.700  0.407-  78 2.11 101 2.11  98 2.11  97 2.11  99 2.11
 200  0.900  0.600  0.407-  17 2.11  94 2.11  97 2.11  98 2.11 100 2.11
 201  0.800  0.800  0.503-  84 2.11  99 2.11 103 2.11 104 2.11 101 2.11
 202  0.900  0.900  0.503-  23 2.11  88 2.11 103 2.11 104 2.11 102 2.11
 203  0.800  0.900  0.407-  82 2.11  85 2.11 101 2.11 102 2.11 103 2.11
 204  0.900  0.800  0.407-  98 2.11  21 2.11 101 2.11 102 2.11 104 2.11

  LATTYP: Found a simple tetragonal cell.
 ALAT       =    21.1388521970
 C/A-ratio  =     1.0461251639

  Lattice vectors:

 A1 = (  21.1388521970,   0.0000000000,   0.0000000000)
 A2 = (   0.0000000000,  21.1388521970,   0.0000000000)
 A3 = (   0.0000000000,   0.0000000000,  22.1138852197)

Analysis of symmetry for initial positions (statically):
 Subroutine PRICEL returns:
 Original cell was already a primitive cell.

 Routine SETGRP: Setting up the symmetry group for a
 simple tetragonal supercell.

 Subroutine GETGRP returns: Found  1 space group operations
 (whereof  1 operations were pure point group operations)
 out of a pool of 16 trial point group operations.

The static configuration has the point symmetry C_1 .

Analysis of symmetry for dynamics (positions and initial velocities):
 Subroutine PRICEL returns:
 Original cell was already a primitive cell.

[...]

The dynamic configuration has the point symmetry C_1 .

Analysis of constrained symmetry for selective dynamics:
 Subroutine PRICEL returns:
 Original cell was already a primitive cell.

 Routine SETGRP: Setting up the symmetry group for a
 simple tetragonal supercell.

 Subroutine GETGRP returns: Found  1 space group operations
 (whereof  1 operations were pure point group operations)
 out of a pool of 16 trial point group operations.

The constrained configuration has the point symmetry C_1 .

 Subroutine INISYM returns: Found  1 space group operations
 (whereof  1 operations are pure point group operations),
 and found     1 'primitive' translations

[...]
     52     -44.0912      2.00000
     53     -44.0911      2.00000
     54     -44.0755      2.00000
     55     -44.0740      2.00000
     56     -44.0738      2.00000
     57     -44.0738      2.00000
     58     -44.0733      2.00000
     59     -44.0731      2.00000
     60     -44.0727      2.00000
[...]
    946       5.1369      0.00000
    947       5.1482      0.00000
    948       5.1638      0.00000
    949       5.1808      0.00000
    950       5.1959      0.00000
    951       5.2161      0.00000
    952       5.2504      0.00000
    953       5.2566      0.00000
    954       5.2833      0.00000
    955       5.2949      0.00000
    956       5.3137      0.00000
    957       5.4061      0.00000
    958       5.5128      0.00000
    959       5.5636      0.00000
    960       5.7235      0.00000

 soft charge-density along one line, spin component           1
         0         1         2         3         4         5         6         7         8         9
 total charge-density along one line

------------------------ aborting loop because EDIFF is reached ----------------------------------------

  FORCE on cell =-STRESS in cart. coord.  units (eV):
  Direction    XX          YY          ZZ          XY          YZ          ZX
  Alpha Z  1401.13727  1401.13727  1401.13727
  Ewald  473476.01013474520.77188************     0.52185     3.38727    -0.69588
  Hartree502717.26652503502.84151************     0.38537     2.57818    -0.59171
  E(xc)   -8183.76826 -8183.07869 -8191.16379     0.00023     0.00170     0.00067
  Local  ************************************    -0.89924    -5.93100     1.29236
  n-local -8872.33338 -8874.31006 -8979.73391    -0.00006     0.00700    -0.00536
  augment  3810.60957  3807.62563  3750.55508    -0.00246    -0.01558     0.00352
  Kinetic 23353.56901 23346.70510 23551.79955    -0.00423    -0.00119    -0.01047
  Fock        0.00000     0.00000     0.00000     0.00000     0.00000     0.00000
  Total    -123.09554  -121.79613    44.10160     0.00148     0.02637    -0.00687
  in kB     -19.95837   -19.74769     7.15051     0.00024     0.00428    -0.00111

 VOLUME and BASIS-vectors are now :
  energy-cutoff  :      520.00
  volume of cell :     9881.61
      direct lattice vectors                 reciprocal lattice vectors
    21.138852197  0.000000000  0.000000000     0.047306258  0.000000000  0.000000000
     0.000000000 21.138852197  0.000000000     0.000000000  0.047306258  0.000000000
     0.000000000  0.000000000 22.113885220     0.000000000  0.000000000  0.045220457

  length of vectors
    21.138852197 21.138852197 22.113885220     0.047306258  0.047306258  0.045220457

 FORCES acting on ions:
    Electron-Ion                     Ewald-Force                    Non-Local-Force
   -.472E+00 -.381E+03 -.187E+04   0.464E+00 0.376E+03 0.187E+04   0.542E-02 0.562E+01 -.181E+01
   -.146E+00 -.985E+00 -.113E+04   0.141E+00 0.967E+00 0.113E+04   0.456E-02 0.202E-01 0.583E+01
   0.644E+00 0.108E+01 -.162E+04   -.637E+00 -.107E+01 0.162E+04   -.713E-02 -.161E-01 -.139E+01
   -.783E-01 0.380E+03 -.187E+04   0.760E-01 -.376E+03 0.187E+04   0.437E-03 -.560E+01 -.180E+01
   0.615E+01 0.323E-01 0.933E+03   -.618E+01 -.325E-01 -.927E+03   0.236E-01 0.164E-03 -.620E+01
   0.120E+02 0.911E+01 0.936E+03   -.121E+02 -.914E+01 -.930E+03   0.514E-01 0.215E-01 -.620E+01
   0.881E+01 0.828E+01 -.916E+03   -.884E+01 -.829E+01 0.910E+03   0.281E-01 0.506E-02 0.609E+01
   0.129E+02 0.589E-01 -.915E+03   -.129E+02 -.592E-01 0.909E+03   0.389E-01 0.284E-03 0.609E+01
   0.945E+01 0.111E+02 0.936E+03   -.950E+01 -.111E+02 -.930E+03   0.414E-01 0.120E-01 -.620E+01
   0.245E+02 0.176E+02 0.947E+03   -.247E+02 -.177E+02 -.941E+03   0.130E+00 0.290E-01 -.621E+01
   0.182E+02 0.153E+02 -.910E+03   -.182E+02 -.153E+02 0.904E+03   0.508E-01 0.443E-02 0.608E+01
   0.234E+02 0.220E+02 -.909E+03   -.235E+02 -.220E+02 0.903E+03   0.899E-01 0.231E-01 0.608E+01
   0.163E+02 0.757E+01 0.942E+03   -.164E+02 -.757E+01 -.936E+03   0.661E-01 0.584E-02 -.621E+01
   0.355E+02 -.655E-01 0.956E+03   -.357E+02 0.660E-01 -.950E+03   0.158E+00 -.346E-03 -.622E+01
   0.261E+02 -.528E-01 -.906E+03   -.262E+02 0.530E-01 0.900E+03   0.566E-01 -.159E-03 0.608E+01
   0.515E+02 0.180E+02 -.893E+03   -.517E+02 -.180E+02 0.887E+03   0.150E+00 0.590E-02 0.606E+01
   0.163E+02 -.763E+01 0.942E+03   -.164E+02 0.763E+01 -.936E+03   0.658E-01 -.612E-02 -.621E+01
   0.244E+02 -.177E+02 0.947E+03   -.246E+02 0.177E+02 -.940E+03   0.129E+00 -.292E-01 -.621E+01
   0.181E+02 -.153E+02 -.910E+03   -.182E+02 0.153E+02 0.904E+03   0.505E-01 -.453E-02 0.608E+01
   0.514E+02 -.181E+02 -.894E+03   -.516E+02 0.181E+02 0.887E+03   0.150E+00 -.639E-02 0.606E+01
   0.942E+01 -.111E+02 0.936E+03   -.947E+01 0.111E+02 -.930E+03   0.411E-01 -.119E-01 -.620E+01
   0.120E+02 -.903E+01 0.936E+03   -.121E+02 0.905E+01 -.930E+03   0.512E-01 -.211E-01 -.620E+01
   0.878E+01 -.821E+01 -.916E+03   -.882E+01 0.822E+01 0.910E+03   0.279E-01 -.480E-02 0.609E+01
   0.233E+02 -.219E+02 -.909E+03   -.234E+02 0.219E+02 0.903E+03   0.891E-01 -.229E-01 0.608E+01
   0.110E+02 0.637E-01 0.937E+03   -.110E+02 -.642E-01 -.931E+03   0.438E-01 0.447E-03 -.620E+01
   0.865E+01 0.169E+02 0.944E+03   -.870E+01 -.170E+02 -.937E+03   0.400E-01 0.917E-01 -.620E+01
   0.172E+02 0.184E+02 -.910E+03   -.173E+02 -.185E+02 0.903E+03   0.570E-01 0.554E-01 0.609E+01
   0.909E+01 0.118E+00 -.910E+03   -.912E+01 -.119E+00 0.904E+03   0.275E-01 0.685E-03 0.609E+01
   0.196E+02 0.239E+02 0.948E+03   -.197E+02 -.240E+02 -.941E+03   0.111E+00 0.865E-01 -.619E+01
   0.246E+02 0.427E+02 0.980E+03   -.248E+02 -.430E+02 -.974E+03   0.205E+00 0.214E+00 -.607E+01
   0.534E+02 0.482E+02 -.882E+03   -.538E+02 -.483E+02 0.876E+03   0.311E+00 0.551E-01 0.607E+01
   0.226E+02 0.547E+02 -.890E+03   -.227E+02 -.551E+02 0.884E+03   0.920E-01 0.278E+00 0.609E+01
   0.440E+02 0.205E+02 0.976E+03   -.444E+02 -.205E+02 -.970E+03   0.317E+00 0.393E-01 -.623E+01
   0.455E+02 -.205E+00 0.103E+04   -.460E+02 0.208E+00 -.102E+04   0.347E+00 -.214E-02 -.620E+01
   0.103E+03 -.235E+00 -.847E+03   -.104E+03 0.236E+00 0.841E+03   0.302E+00 -.711E-03 0.603E+01
   0.115E+03 0.851E+02 -.767E+03   -.117E+03 -.852E+02 0.760E+03   0.137E+01 0.677E-01 0.619E+01
   0.438E+02 -.206E+02 0.976E+03   -.442E+02 0.207E+02 -.970E+03   0.316E+00 -.404E-01 -.623E+01
   0.244E+02 -.426E+02 0.980E+03   -.247E+02 0.429E+02 -.974E+03   0.204E+00 -.213E+00 -.607E+01
   0.531E+02 -.481E+02 -.883E+03   -.535E+02 0.482E+02 0.877E+03   0.308E+00 -.554E-01 0.607E+01
   0.114E+03 -.857E+02 -.768E+03   -.116E+03 0.858E+02 0.761E+03   0.136E+01 -.722E-01 0.619E+01
   0.195E+02 -.238E+02 0.948E+03   -.197E+02 0.239E+02 -.941E+03   0.110E+00 -.858E-01 -.619E+01
   0.862E+01 -.167E+02 0.943E+03   -.867E+01 0.168E+02 -.937E+03   0.398E-01 -.903E-01 -.620E+01
   0.172E+02 -.182E+02 -.910E+03   -.172E+02 0.183E+02 0.904E+03   0.566E-01 -.543E-01 0.609E+01
   0.224E+02 -.544E+02 -.890E+03   -.225E+02 0.547E+02 0.884E+03   0.911E-01 -.274E+00 0.609E+01
   0.152E-01 0.898E-01 0.941E+03   -.152E-01 -.907E-01 -.935E+03   0.124E-04 0.709E-03 -.621E+01
   -.862E+01 0.169E+02 0.944E+03   0.868E+01 -.170E+02 -.937E+03   -.400E-01 0.918E-01 -.620E+01
   0.251E-01 0.284E+02 -.904E+03   -.251E-01 -.285E+02 0.898E+03   0.159E-04 0.130E+00 0.609E+01
   -.906E+01 0.117E+00 -.910E+03   0.909E+01 -.118E+00 0.904E+03   -.275E-01 0.667E-03 0.609E+01
   0.308E-01 0.370E+02 0.960E+03   -.309E-01 -.373E+02 -.953E+03   0.556E-04 0.274E+00 -.620E+01
   -.245E+02 0.427E+02 0.980E+03   0.248E+02 -.430E+02 -.974E+03   -.205E+00 0.214E+00 -.607E+01
   0.144E+00 0.119E+03 -.823E+03   -.144E+00 -.121E+03 0.816E+03   0.416E-03 0.127E+01 0.633E+01
   -.225E+02 0.548E+02 -.890E+03   0.227E+02 -.551E+02 0.884E+03   -.919E-01 0.278E+00 0.609E+01
   0.101E+00 0.406E+02 0.103E+04   -.101E+00 -.408E+02 -.103E+04   -.205E-03 0.180E+00 -.480E+01
   -.454E+02 -.198E+00 0.103E+04   0.459E+02 0.201E+00 -.102E+04   -.347E+00 -.221E-02 -.620E+01
   0.614E+00 -.667E+00 -.563E+03   -.618E+00 0.681E+00 0.558E+03   0.205E-02 -.157E-01 0.444E+01
   -.115E+03 0.854E+02 -.766E+03   0.117E+03 -.855E+02 0.760E+03   -.138E+01 0.692E-01 0.619E+01
   0.109E+00 -.409E+02 0.103E+04   -.109E+00 0.411E+02 -.103E+04   -.358E-03 -.181E+00 -.482E+01
   -.244E+02 -.427E+02 0.980E+03   0.246E+02 0.430E+02 -.974E+03   -.204E+00 -.213E+00 -.607E+01
   0.166E+00 -.119E+03 -.824E+03   -.167E+00 0.120E+03 0.818E+03   0.636E-03 -.125E+01 0.633E+01
   -.114E+03 -.860E+02 -.767E+03   0.116E+03 0.861E+02 0.761E+03   -.136E+01 -.737E-01 0.619E+01
[...]
   -.979E+01 0.881E+01 0.707E+03   0.983E+01 -.882E+01 -.711E+03   -.514E-01 0.137E-01 0.356E+01
   -.140E-01 0.717E+01 0.704E+03   0.140E-01 -.718E+01 -.708E+03   -.319E-05 0.951E-02 0.357E+01
   -.179E+02 0.755E+01 -.683E+03   0.179E+02 -.755E+01 0.687E+03   -.531E-01 0.317E-02 -.376E+01
   -.369E-01 -.301E-01 -.685E+03   0.369E-01 0.302E-01 0.689E+03   0.573E-05 -.149E-03 -.375E+01
   -.134E+02 -.289E-01 0.710E+03   0.134E+02 0.291E-01 -.714E+03   -.606E-01 -.200E-03 0.356E+01
   -.240E-01 0.472E+01 0.707E+03   0.240E-01 -.472E+01 -.711E+03   -.352E-05 0.416E-02 0.356E+01
   -.178E+02 -.760E+01 -.683E+03   0.179E+02 0.761E+01 0.687E+03   -.530E-01 -.348E-02 -.376E+01
   -.269E-01 -.929E+01 -.687E+03   0.269E-01 0.930E+01 0.692E+03   -.575E-05 -.444E-02 -.374E+01
   -.977E+01 -.882E+01 0.707E+03   0.980E+01 0.883E+01 -.711E+03   -.511E-01 -.138E-01 0.356E+01
   -.245E-01 -.476E+01 0.707E+03   0.245E-01 0.476E+01 -.711E+03   -.482E-05 -.441E-02 0.356E+01
   -.942E+01 -.106E+02 -.688E+03   0.944E+01 0.106E+02 0.692E+03   -.381E-01 -.120E-01 -.374E+01
   -.135E-01 -.523E+01 -.690E+03   0.135E-01 0.524E+01 0.695E+03   -.737E-05 -.448E-02 -.373E+01
   -.526E+01 -.491E+01 0.703E+03   0.529E+01 0.492E+01 -.707E+03   -.304E-01 -.105E-01 0.357E+01
   -.147E-01 -.716E+01 0.704E+03   0.147E-01 0.716E+01 -.708E+03   -.941E-05 -.940E-02 0.357E+01
   -.200E-01 -.540E-02 0.427E+01   0.232E-11 0.119E-11 0.182E-11   0.172E-01 0.824E-02 -.476E+01

 POSITION                                       TOTAL-FORCE (eV/Angst)
      8.46109     11.89365     13.52833        -0.002602      0.552435      0.123101
      8.45935     10.56642     18.47179        -0.001187      0.001468      0.447915
      8.45769     10.55816     15.88881        -0.000062     -0.001495      0.172585
      8.45973      9.22287     13.52627        -0.001780     -0.536695      0.123121
      0.00000      0.00000      9.00000        -0.006601     -0.000055      0.100251
      2.11389      2.11389      9.00000        -0.014476     -0.006161      0.099702
      0.00000      2.11389     11.11389        -0.007653     -0.001416     -0.057895
      2.11389      0.00000     11.11389        -0.010886     -0.000094     -0.057422
      0.00000      4.22777      9.00000        -0.011262     -0.003447      0.100855
      2.11389      6.34166      9.00000        -0.035163     -0.008368      0.101408
      0.00000      6.34166     11.11389        -0.013316     -0.001046     -0.053438
      2.11389      4.22777     11.11389        -0.024217     -0.006435     -0.053387
      0.00000      8.45554      9.00000        -0.017801     -0.001591      0.102188
      2.11389     10.56943      9.00000        -0.044016      0.000085      0.102677
      0.00000     10.56943     11.11389        -0.014502      0.000030     -0.049601
      2.11389      8.45554     11.11389        -0.038646     -0.000875     -0.041164
      0.00000     12.68331      9.00000        -0.017749      0.001643      0.102180
      2.11389     14.79720      9.00000        -0.034916      0.008386      0.101395
      0.00000     14.79720     11.11389        -0.013241      0.001050     -0.053453
      2.11389     12.68331     11.11389        -0.038499      0.000983     -0.041203
      0.00000     16.91108      9.00000        -0.011183      0.003388      0.100849
      2.11389     19.02497      9.00000        -0.014400      0.005994      0.099719
      0.00000     19.02497     11.11389        -0.007605      0.001315     -0.057902
      2.11389     16.91108     11.11389        -0.024003      0.006341     -0.053408
      4.22777      0.00000      9.00000        -0.012512     -0.000135      0.099681
      6.34166      2.11389      9.00000        -0.011759     -0.024859      0.098587
      4.22777      2.11389     11.11389        -0.016148     -0.014845     -0.054629
      6.34166      0.00000     11.11389        -0.007919     -0.000202     -0.054948
      4.22777      4.22777      9.00000        -0.032191     -0.025275      0.094997
      6.34166      6.34166      9.00000        -0.066243     -0.067882      0.053710
      4.22777      6.34166     11.11389        -0.084873     -0.015264     -0.040905
      6.34166      4.22777     11.11389        -0.027656     -0.076091     -0.050746
      4.22777      8.45554      9.00000        -0.084648     -0.010324      0.101331
      6.34166     10.56943      9.00000        -0.114033      0.000684      0.057518
      4.22777     10.56943     11.11389        -0.085799      0.000178     -0.010555
      6.34166      8.45554     11.11389        -0.469271     -0.016233     -0.129313
      4.22777     12.68331      9.00000        -0.084187      0.010627      0.101320
      6.34166     14.79720      9.00000        -0.065911      0.067635      0.054477
      4.22777     14.79720     11.11389        -0.083940      0.015359     -0.040999
      6.34166     12.68331     11.11389        -0.463603      0.017604     -0.127739
      4.22777     16.91108      9.00000        -0.031931      0.025038      0.095086
      6.34166     19.02497      9.00000        -0.011690      0.024451      0.098622
      4.22777     19.02497     11.11389        -0.016038      0.014523     -0.054644
      6.34166     16.91108     11.11389        -0.027384      0.075161     -0.050707
      8.45554      0.00000      9.00000         0.000012     -0.000210      0.099583
     10.56943      2.11389      9.00000         0.011782     -0.024870      0.098593
      8.45554      2.11389     11.11389         0.000016     -0.034267     -0.053041
     10.56943      0.00000     11.11389         0.007942     -0.000191     -0.054953
      8.45554      4.22777      9.00000         0.000001     -0.072740      0.091033
     10.56943      6.34166      9.00000         0.066250     -0.067875      0.053618
      8.45554      6.34166     11.11389        -0.000141     -0.414184     -0.148404
     10.56943      4.22777     11.11389         0.027674     -0.076188     -0.050747
      8.45554      8.45554      9.00000         0.000094     -0.041285     -0.241369
     10.56943     10.56943      9.00000         0.114015      0.000719      0.057028
      8.45554     10.56943     11.11389        -0.002477     -0.001505     -0.613050
     10.56943      8.45554     11.11389         0.470486     -0.017063     -0.130731
      8.45554     12.68331      9.00000         0.000157      0.041351     -0.238442
     10.56943     14.79720      9.00000         0.065904      0.067590      0.054334
      8.45554     14.79720     11.11389        -0.000228      0.409272     -0.144828
     10.56943     12.68331     11.11389         0.465212      0.018515     -0.129883
[...]
     19.02497      6.34166     11.11389         0.000021      0.001234      0.448051
     16.91108      6.34166      9.00000        -0.014526      0.003926     -0.495202
     19.02497      4.22777      9.00000         0.000014      0.002702     -0.494916
     16.91108      8.45554     11.11389        -0.015066      0.000893      0.443490
     19.02497     10.56943     11.11389         0.000005     -0.000055      0.445410
     16.91108     10.56943      9.00000        -0.017219     -0.000072     -0.496096
     19.02497      8.45554      9.00000         0.000010      0.001192     -0.495682
     16.91108     12.68331     11.11389        -0.015021     -0.001008      0.443514
     19.02497     14.79720     11.11389         0.000014     -0.001275      0.448064
     16.91108     14.79720      9.00000        -0.014454     -0.003978     -0.495206
     19.02497     12.68331      9.00000         0.000008     -0.001285     -0.495676
     16.91108     16.91108     11.11389        -0.010749     -0.003432      0.449173
     19.02497     19.02497     11.11389         0.000009     -0.001294      0.451660
     16.91108     19.02497      9.00000        -0.008552     -0.002987     -0.494570
     19.02497     16.91108      9.00000         0.000014     -0.002702     -0.494918
    total drift:                               -0.002843      0.002835     -0.494673

  FREE ENERGIE OF THE ION-ELECTRON SYSTEM (eV)
  free  energy   TOTEN  =      -745.79503732 eV

  energy  without entropy=     -745.79503732  energy(sigma->0) =     -745.79503732