 vasp.6.3.0 20Jan22 (build Apr  1 2022 16:44:48) complex
 executed on        HPECrayEX_GCC date 2022.08.15  20:09:18

 INCAR:
   SYSTEM = MgO-rocksalt
   ISMEAR = 0
   SIGMA = 0.05
   EDIFF = 1E-6
   ALGO = ALL
   ISTART = 0
   IBRION = -1
   NSW = 0
   ISYM = 2
   DIPOL = 0.5 0.5 0.5
   IDIPOL = 3
   LDIPOL = .TRUE.
   GGA = RE
   LUSE_VDW = .TRUE.
   AGGAC = 0.0
   ENCUT = 520
   PREC = Accurate
   LASPH = .TRUE.
   LREAL = Auto
   ISPIN = 1
   NELM = 200
   NELMIN = 8
   NCORE = 4
   KPAR = 2
   LWAVE = .FALSE.
   LCHARG = .FALSE.

 POTCAR:    PAW_PBE Au 04Oct2007
 POTCAR:    PAW_PBE Mg_pv 13Apr2007
 POTCAR:    PAW_PBE O 08Apr2002
|               ----> ADVICE to this user running VASP <----                  |
|     You have switched on vdW-DFT.                                           |
|     This routine was written and supplied by Jiri Klimes. We recommend      |
|     that you carefully read and cite the following publications:            |
|       J. Klimes, D.R. Bowler, A. Michelides                                 |
|          J. Phys.: Cond Matt. 22 022201 (2010)                              |
|       J. Klimes, D.R. Bowler, A. Michelides                                 |
|          Phys. Rev. B. 83, 195131 (2011)                                    |
|     and references therein.                                                 |

   TITEL  = PAW_PBE Au 04Oct2007
   POMASS =  196.966; ZVAL   =   11.000    mass and valenz
   ENMAX  =  229.943; ENMIN  =  172.457 eV

   TITEL  = PAW_PBE Mg_pv 13Apr2007
   POMASS =   24.305; ZVAL   =    8.000    mass and valenz
   ENMAX  =  403.929; ENMIN  =  302.947 eV

   TITEL  = PAW_PBE O 08Apr2002
   POMASS =   16.000; ZVAL   =    6.000    mass and valenz
   ENMAX  =  400.000; ENMIN  =  300.000 eV

 Optimization of the real space projectors (new method)

 maximal supplied QI-value         = 15.12
 optimisation between [QCUT,QGAM] = [ 11.64, 23.28] = [ 37.95,151.78] Ry
 Optimized for a Real-space Cutoff    1.49 Angstroem

   l    n(q)    QCUT    max X(q) W(low)/X(q) W(high)/X(q)  e(spline)
   2      9    11.641    60.898    0.24E-03    0.10E-03    0.19E-06
   2      9    11.641    58.894    0.25E-03    0.10E-03    0.19E-06
   0     10    11.641   109.617    0.73E-04    0.33E-04    0.11E-06
   0     10    11.641    75.026    0.71E-04    0.32E-04    0.11E-06
   1     10    11.641    16.344    0.27E-04    0.97E-04    0.16E-06
   1     10    11.641    10.160    0.23E-04    0.77E-04    0.13E-06
 Optimization of the real space projectors (new method)

[...]

   l    n(q)    QCUT    max X(q) W(low)/X(q) W(high)/X(q)  e(spline)
   1      8    11.527     2.974    0.44E-04    0.56E-04    0.12E-06
   1      8    11.527     4.279    0.12E-03    0.12E-03    0.26E-06
   0      9    11.527    16.381    0.46E-04    0.64E-04    0.78E-07
   0      9    11.527     5.611    0.26E-04    0.43E-04    0.55E-07
   2      8    11.527     4.652    0.22E-03    0.72E-04    0.47E-07
 Optimization of the real space projectors (new method)

 maximal supplied QI-value         = 24.76
 optimisation between [QCUT,QGAM] = [ 11.64, 23.27] = [ 37.91,151.63] Ry
 Optimized for a Real-space Cutoff    1.14 Angstroem

   l    n(q)    QCUT    max X(q) W(low)/X(q) W(high)/X(q)  e(spline)
   0      8    11.635    20.381    0.10E-03    0.33E-03    0.24E-06
   0      8    11.635    15.268    0.11E-03    0.35E-03    0.26E-06
   1      7    11.635     5.964    0.24E-03    0.31E-03    0.30E-06
   1      7    11.635     5.382    0.22E-03    0.25E-03    0.26E-06
|               ----> ADVICE to this user running VASP <----                  |
|     You enforced a specific xc type in the INCAR file but a different       |
|     type was found in the POTCAR file.                                      |
|     I HOPE YOU KNOW WHAT YOU ARE DOING!                                     |

  PAW_PBE Au 04Oct2007                  :
  PAW_PBE Mg_pv 13Apr2007               :
  PAW_PBE O 08Apr2002                   :

 POSCAR: Au Mg  O
  positions in direct lattice
 exchange correlation table for  LEXCH =       40
   RHO(1)=    0.500       N(1)  =     2000
   RHO(2)=  100.500       N(2)  =     4000

 ion  position               nearest neighbor table
   1  0.543  0.557  0.621-   2 2.56  58 2.91
   2  0.457  0.643  0.621-   1 2.56  58 2.91
   3  0.000  0.000  0.407- 105 2.11 106 2.11 121 2.11 186 2.11 103 2.11
   4  0.100  0.100  0.407- 105 2.11 106 2.11 110 2.11 125 2.11 104 2.11
   5  0.000  0.100  0.503- 103 2.11 104 2.11 107 2.11 184 2.11 105 2.11
   6  0.100  0.000  0.503- 103 2.11 104 2.11 120 2.11 123 2.11 106 2.11
   7  0.000  0.200  0.407- 109 2.11 105 2.11 110 2.11 190 2.11 107 2.11
   8  0.100  0.300  0.407- 110 2.11 109 2.11 114 2.11 129 2.11 108 2.11
   9  0.000  0.300  0.503- 107 2.11 108 2.11 111 2.11 188 2.11 109 2.11
  10  0.100  0.200  0.503- 108 2.11 107 2.11 104 2.11 127 2.11 110 2.11
  11  0.000  0.400  0.407- 109 2.11 113 2.11 114 2.11 194 2.11 111 2.11
  12  0.100  0.500  0.407- 113 2.11 114 2.11 118 2.11 133 2.11 112 2.11
  13  0.000  0.500  0.503- 111 2.11 112 2.11 115 2.11 192 2.11 113 2.11
  14  0.100  0.400  0.503- 108 2.11 111 2.11 112 2.11 131 2.11 114 2.11
  15  0.000  0.600  0.407- 113 2.11 117 2.11 118 2.11 198 2.11 115 2.11
  16  0.100  0.700  0.407- 122 2.11 118 2.11 117 2.11 137 2.11 116 2.11
  17  0.000  0.700  0.503- 119 2.11 116 2.11 115 2.11 196 2.11 117 2.11
  18  0.100  0.600  0.503- 112 2.11 115 2.11 116 2.11 135 2.11 118 2.11
  19  0.000  0.800  0.407- 117 2.11 121 2.11 122 2.11 202 2.11 119 2.11
  20  0.100  0.900  0.407- 106 2.11 121 2.11 122 2.11 141 2.11 120 2.11
  21  0.000  0.900  0.503- 103 2.11 119 2.11 120 2.11 200 2.11 121 2.11
  22  0.100  0.800  0.503- 116 2.11 119 2.11 120 2.11 139 2.11 122 2.11
  23  0.200  0.000  0.407- 126 2.11 125 2.11 106 2.11 141 2.11 123 2.11
  24  0.300  0.100  0.407- 125 2.11 126 2.11 130 2.11 145 2.11 124 2.11
  25  0.200  0.100  0.503- 124 2.11 123 2.11 104 2.11 127 2.11 125 2.11
  26  0.300  0.000  0.503- 123 2.11 124 2.11 140 2.11 143 2.11 126 2.11
  27  0.200  0.200  0.407- 129 2.11 130 2.11 110 2.11 125 2.11 127 2.11
  28  0.300  0.300  0.407- 129 2.11 130 2.11 134 2.11 149 2.11 128 2.11
  29  0.200  0.300  0.503- 127 2.11 128 2.11 108 2.11 131 2.11 129 2.11
  30  0.300  0.200  0.503- 127 2.11 128 2.11 124 2.11 147 2.11 130 2.11
  31  0.200  0.400  0.407- 134 2.11 129 2.11 133 2.11 114 2.11 131 2.11
  32  0.300  0.500  0.407- 133 2.11 134 2.11 138 2.11 153 2.11 132 2.11
  33  0.200  0.500  0.503- 132 2.11 131 2.11 112 2.11 135 2.11 133 2.11
  34  0.300  0.400  0.503- 131 2.11 128 2.11 132 2.11 151 2.11 134 2.11
  35  0.200  0.600  0.407- 138 2.11 133 2.11 137 2.11 118 2.11 135 2.11
  36  0.300  0.700  0.407- 137 2.11 142 2.11 138 2.11 157 2.11 136 2.11
  37  0.200  0.700  0.503- 136 2.11 139 2.11 116 2.11 135 2.11 137 2.11
  38  0.300  0.600  0.503- 135 2.11 132 2.11 136 2.11 155 2.11 138 2.11
  39  0.200  0.800  0.407- 137 2.11 142 2.11 141 2.11 122 2.11 139 2.11
  40  0.300  0.900  0.407- 141 2.11 126 2.11 142 2.11 161 2.11 140 2.11
  41  0.200  0.900  0.503- 140 2.11 123 2.11 139 2.11 120 2.11 141 2.11
  42  0.300  0.800  0.503- 136 2.11 139 2.11 140 2.11 159 2.11 142 2.11
  43  0.400  0.000  0.407- 126 2.11 145 2.11 146 2.11 161 2.11 143 2.11
  44  0.500  0.100  0.407- 145 2.11 146 2.11 150 2.11 165 2.11 144 2.11
  45  0.400  0.100  0.503- 124 2.11 143 2.11 144 2.11 147 2.11 145 2.11
  46  0.500  0.000  0.503- 143 2.11 144 2.11 160 2.11 163 2.11 146 2.11
  47  0.400  0.200  0.407- 149 2.11 145 2.11 130 2.11 150 2.11 147 2.11
  48  0.500  0.300  0.407- 150 2.11 149 2.11 154 2.11 169 2.11 148 2.11
  49  0.400  0.300  0.503- 147 2.11 128 2.11 148 2.11 151 2.11 149 2.11
  50  0.500  0.200  0.503- 148 2.11 147 2.11 144 2.11 167 2.11 150 2.11
  51  0.400  0.400  0.407- 134 2.11 149 2.11 153 2.11 154 2.11 151 2.11
  52  0.500  0.500  0.407- 153 2.11 154 2.11 158 2.11 173 2.11 152 2.11
  53  0.400  0.500  0.503- 132 2.11 151 2.11 152 2.11 155 2.11 153 2.11
  54  0.500  0.400  0.503- 148 2.11 151 2.11 152 2.11 171 2.11 154 2.11
  55  0.400  0.600  0.407- 138 2.11 153 2.11 157 2.11 158 2.11 155 2.11
  56  0.500  0.700  0.407- 162 2.11 158 2.11 157 2.11 177 2.11 156 2.11
  57  0.400  0.700  0.503- 159 2.11 155 2.11 156 2.11 136 2.11 157 2.11
  58  0.500  0.600  0.503- 152 2.11 155 2.11 156 2.11 175 2.11 158 2.11   2 2.91   1 2.91
  59  0.400  0.800  0.407- 157 2.11 142 2.11 161 2.11 162 2.11 159 2.11
  60  0.500  0.900  0.407- 146 2.11 161 2.11 162 2.11 181 2.11 160 2.11
[...]
 188  0.900  0.300  0.503-  90 2.11  89 2.11   9 2.11  94 2.11  88 2.11
 189  0.800  0.300  0.407-  68 2.11  87 2.11  88 2.11  91 2.11  89 2.11
 190  0.900  0.200  0.407-  88 2.11  84 2.11  87 2.11   7 2.11  90 2.11
 191  0.800  0.400  0.503-  74 2.11  89 2.11  93 2.11  94 2.11  91 2.11
 192  0.900  0.500  0.503-  13 2.11  93 2.11  94 2.11  98 2.11  92 2.11
 193  0.800  0.500  0.407-  72 2.11  91 2.11  92 2.11  95 2.11  93 2.11
 194  0.900  0.400  0.407-  11 2.11  88 2.11  91 2.11  92 2.11  94 2.11
 195  0.800  0.600  0.503-  78 2.11  93 2.11  97 2.11  98 2.11  95 2.11
 196  0.900  0.700  0.503- 102 2.11  97 2.11  98 2.11  17 2.11  96 2.11
 197  0.800  0.700  0.407-  76 2.11  99 2.11  96 2.11  95 2.11  97 2.11
 198  0.900  0.600  0.407-  15 2.11  92 2.11  95 2.11  96 2.11  98 2.11
 199  0.800  0.800  0.503-  82 2.11  97 2.11 101 2.11 102 2.11  99 2.11
 200  0.900  0.900  0.503-  21 2.11  86 2.11 101 2.11 102 2.11 100 2.11
 201  0.800  0.900  0.407-  80 2.11  83 2.11  99 2.11 100 2.11 101 2.11
 202  0.900  0.800  0.407-  96 2.11  19 2.11  99 2.11 100 2.11 102 2.11

  LATTYP: Found a simple tetragonal cell.
 ALAT       =    21.1388521970
 C/A-ratio  =     1.0461251639

  Lattice vectors:

 A1 = (  21.1388521970,   0.0000000000,   0.0000000000)
 A2 = (   0.0000000000,  21.1388521970,   0.0000000000)
 A3 = (   0.0000000000,   0.0000000000,  22.1138852197)

Analysis of symmetry for initial positions (statically):
 Subroutine PRICEL returns:
 Original cell was already a primitive cell.

 Routine SETGRP: Setting up the symmetry group for a
 simple tetragonal supercell.

 Subroutine GETGRP returns: Found  4 space group operations
 (whereof  1 operations were pure point group operations)
 out of a pool of 16 trial point group operations.

The static configuration has the point symmetry C_1 .
 The point group associated with its full space group is C_2v.

Analysis of symmetry for dynamics (positions and initial velocities):
 Subroutine PRICEL returns:
 Original cell was already a primitive cell.

 Routine SETGRP: Setting up the symmetry group for a
 simple tetragonal supercell.

 Subroutine GETGRP returns: Found  4 space group operations
 (whereof  1 operations were pure point group operations)
 out of a pool of 16 trial point group operations.

The dynamic configuration has the point symmetry C_1 .
 The point group associated with its full space group is C_2v.

 Subroutine INISYM returns: Found  4 space group operations
 (whereof  1 operations are pure point group operations),
 and found     1 'primitive' translations

                                     Primitive cell

  volume of cell :    9881.6133

[...]
     52     -43.5558      2.00000
     53     -43.5555      2.00000
     54     -43.5546      2.00000
     55     -43.5545      2.00000
     56     -43.5544      2.00000
     57     -43.5533      2.00000
     58     -43.5528      2.00000
     59     -43.5527      2.00000
     60     -43.5526      2.00000
[...]
    882       4.5463      0.00000
    883       4.5753      0.00000
    884       4.5967      0.00000
    885       4.6033      0.00000
    886       4.6611      0.00000
    887       4.7038      0.00000
    888       4.7484      0.00000
    889       5.0111      0.00000
    890       5.1875      0.00000
    891       5.2709      0.00000
    892       5.3195      0.00000
    893       5.3743      0.00000
    894       5.4307      0.00000
    895       5.5079      0.00000
    896       5.5253      0.00000

 soft charge-density along one line, spin component           1
         0         1         2         3         4         5         6         7         8         9
 total charge-density along one line

------------------------ aborting loop because EDIFF is reached ----------------------------------------

  FORCE on cell =-STRESS in cart. coord.  units (eV):
  Direction    XX          YY          ZZ          XY          YZ          ZX
  Alpha Z  1365.75682  1365.75682  1365.75682
  Ewald  479770.72537479770.72537************  -347.00501     0.00001    -0.00001
  Hartree508191.34364508191.34364************  -232.98434     0.00000    -0.00002
  E(xc)   -7957.79150 -7957.79150 -7975.07450    -0.42856    -0.00000     0.00000
  Local  ************************************   567.89773    -0.00001     0.00003
  n-local -8773.07894 -8773.07891 -8881.31258     5.43091     0.00000    -0.00001
  augment  3513.18319  3513.18319  3458.65398     1.67157    -0.00000     0.00000
  Kinetic 23067.83386 23067.83384 23280.35772     4.69226     0.00000     0.00001
  Fock        0.00000     0.00000     0.00000     0.00000     0.00000     0.00000
  Total    -118.97919  -118.97919    38.67417    -0.72544     0.00000     0.00000
  in kB     -19.29096   -19.29096     6.27052    -0.11762     0.00000     0.00000

 VOLUME and BASIS-vectors are now :
  energy-cutoff  :      520.00
  volume of cell :     9881.61
      direct lattice vectors                 reciprocal lattice vectors
    21.138852197  0.000000000  0.000000000     0.047306258  0.000000000  0.000000000
     0.000000000 21.138852197  0.000000000     0.000000000  0.047306258  0.000000000
     0.000000000  0.000000000 22.113885220     0.000000000  0.000000000  0.045220457

  length of vectors
    21.138852197 21.138852197 22.113885220     0.047306258  0.047306258  0.045220457

 FORCES acting on ions:
    Electron-Ion                     Ewald-Force                    Non-Local-Force
   -.191E+03 0.191E+03 -.208E+04   0.188E+03 -.188E+03 0.208E+04   0.387E+01 -.387E+01 0.995E-01
   0.191E+03 -.191E+03 -.208E+04   -.188E+03 0.188E+03 0.208E+04   -.387E+01 0.387E+01 0.995E-01
   0.203E+00 -.347E+01 0.930E+03   -.205E+00 0.348E+01 -.923E+03   0.190E-02 -.461E-02 -.681E+01
   0.347E+01 -.203E+00 0.930E+03   -.348E+01 0.205E+00 -.923E+03   0.461E-02 -.190E-02 -.681E+01
   -.111E-07 -.186E-03 -.922E+03   0.101E-06 -.159E-05 0.915E+03   0.000E+00 0.000E+00 0.676E+01
   0.533E+01 -.533E+01 -.921E+03   -.533E+01 0.533E+01 0.914E+03   0.666E-02 -.666E-02 0.676E+01
   -.203E+00 0.347E+01 0.930E+03   0.205E+00 -.348E+01 -.923E+03   -.190E-02 0.461E-02 -.681E+01
   0.527E+01 0.675E+01 0.932E+03   -.528E+01 -.676E+01 -.925E+03   0.724E-02 0.951E-02 -.681E+01
   -.565E+00 0.719E+01 -.921E+03   0.571E+00 -.720E+01 0.914E+03   -.453E-02 0.544E-02 0.676E+01
   0.472E+01 0.472E+01 -.922E+03   -.473E+01 -.473E+01 0.915E+03   0.221E-02 0.221E-02 0.676E+01
   -.470E+00 0.617E+01 0.933E+03   0.476E+00 -.618E+01 -.926E+03   -.476E-02 0.798E-02 -.681E+01
   0.102E+02 0.522E+01 0.937E+03   -.103E+02 -.523E+01 -.930E+03   0.262E-01 0.100E-01 -.682E+01
   -.543E+00 0.503E+01 -.919E+03   0.548E+00 -.503E+01 0.912E+03   -.422E-02 0.347E-02 0.676E+01
   0.105E+02 0.972E+01 -.919E+03   -.105E+02 -.973E+01 0.912E+03   0.727E-02 0.792E-02 0.676E+01
   0.239E-06 -.189E-03 0.935E+03   -.146E-06 0.155E-05 -.928E+03   0.000E+00 0.000E+00 -.682E+01
   0.111E+02 -.468E+01 0.937E+03   -.112E+02 0.469E+01 -.930E+03   0.373E-01 -.541E-02 -.682E+01
   0.543E+00 -.503E+01 -.919E+03   -.548E+00 0.503E+01 0.912E+03   0.422E-02 -.347E-02 0.676E+01
   0.175E+02 0.742E+00 -.916E+03   -.175E+02 -.747E+00 0.909E+03   0.241E-01 0.386E-02 0.675E+01
   0.470E+00 -.617E+01 0.933E+03   -.476E+00 0.618E+01 -.926E+03   0.476E-02 -.798E-02 -.681E+01
   0.610E+01 -.709E+01 0.933E+03   -.612E+01 0.710E+01 -.926E+03   0.145E-01 -.122E-01 -.681E+01
   0.565E+00 -.719E+01 -.921E+03   -.571E+00 0.720E+01 0.914E+03   0.453E-02 -.544E-02 0.676E+01
   0.124E+02 -.985E+01 -.918E+03   -.124E+02 0.986E+01 0.911E+03   0.216E-01 -.735E-02 0.676E+01
   0.709E+01 -.610E+01 0.933E+03   -.710E+01 0.612E+01 -.926E+03   0.122E-01 -.145E-01 -.681E+01
   0.617E+01 -.470E+00 0.933E+03   -.618E+01 0.476E+00 -.926E+03   0.798E-02 -.476E-02 -.681E+01
   0.719E+01 -.565E+00 -.921E+03   -.720E+01 0.571E+00 0.914E+03   0.544E-02 -.453E-02 0.676E+01
   0.985E+01 -.124E+02 -.918E+03   -.986E+01 0.124E+02 0.911E+03   0.735E-02 -.216E-01 0.676E+01
   0.675E+01 0.527E+01 0.932E+03   -.676E+01 -.528E+01 -.925E+03   0.951E-02 0.724E-02 -.681E+01
   0.117E+02 0.149E+02 0.939E+03   -.117E+02 -.150E+02 -.932E+03   0.267E-01 0.365E-01 -.682E+01
   0.133E+02 0.133E+02 -.918E+03   -.133E+02 -.133E+02 0.911E+03   0.105E-01 0.105E-01 0.676E+01
   0.972E+01 0.105E+02 -.919E+03   -.973E+01 -.105E+02 0.912E+03   0.792E-02 0.727E-02 0.676E+01
   0.149E+02 0.117E+02 0.939E+03   -.150E+02 -.117E+02 -.932E+03   0.365E-01 0.267E-01 -.682E+01
   0.290E+02 0.163E+02 0.960E+03   -.292E+02 -.163E+02 -.953E+03   0.145E+00 0.721E-01 -.685E+01
   0.333E+02 0.141E+02 -.909E+03   -.334E+02 -.142E+02 0.902E+03   0.450E-01 0.172E-01 0.674E+01
   0.320E+02 0.320E+02 -.904E+03   -.321E+02 -.321E+02 0.898E+03   0.398E-01 0.398E-01 0.673E+01
   0.243E+02 0.113E+01 0.947E+03   -.244E+02 -.115E+01 -.940E+03   0.102E+00 0.816E-02 -.683E+01
   0.309E+02 -.144E+02 0.964E+03   -.310E+02 0.145E+02 -.957E+03   0.102E+00 -.554E-01 -.680E+01
   0.374E+02 -.120E+02 -.907E+03   -.375E+02 0.120E+02 0.900E+03   0.762E-01 -.363E-02 0.674E+01
   0.793E+02 0.827E+01 -.870E+03   -.797E+02 -.832E+01 0.863E+03   0.282E+00 0.387E-01 0.673E+01
   0.164E+02 -.120E+02 0.941E+03   -.165E+02 0.120E+02 -.934E+03   0.453E-01 -.280E-01 -.682E+01
   0.120E+02 -.164E+02 0.941E+03   -.120E+02 0.165E+02 -.934E+03   0.280E-01 -.453E-01 -.682E+01
   0.149E+02 -.149E+02 -.917E+03   -.149E+02 0.149E+02 0.910E+03   0.198E-01 -.198E-01 0.676E+01
   0.369E+02 -.369E+02 -.899E+03   -.370E+02 0.370E+02 0.892E+03   0.635E-01 -.635E-01 0.675E+01
   0.468E+01 -.111E+02 0.937E+03   -.469E+01 0.112E+02 -.930E+03   0.541E-02 -.373E-01 -.682E+01
   0.236E-06 -.183E-03 0.935E+03   -.139E-06 -.416E-05 -.928E+03   0.000E+00 0.000E+00 -.682E+01
   0.503E+01 -.543E+00 -.919E+03   -.503E+01 0.548E+00 0.912E+03   0.347E-02 -.422E-02 0.676E+01
   -.742E+00 -.175E+02 -.916E+03   0.747E+00 0.175E+02 0.909E+03   -.386E-02 -.241E-01 0.675E+01
   0.522E+01 0.102E+02 0.937E+03   -.523E+01 -.103E+02 -.930E+03   0.100E-01 0.262E-01 -.682E+01
   0.113E+01 0.243E+02 0.947E+03   -.115E+01 -.244E+02 -.940E+03   0.816E-02 0.102E+00 -.683E+01
   0.141E+02 0.333E+02 -.909E+03   -.142E+02 -.334E+02 0.902E+03   0.172E-01 0.450E-01 0.674E+01
   0.742E+00 0.175E+02 -.916E+03   -.747E+00 -.175E+02 0.909E+03   0.386E-02 0.241E-01 0.675E+01
   0.163E+02 0.290E+02 0.960E+03   -.163E+02 -.292E+02 -.953E+03   0.721E-01 0.145E+00 -.685E+01
   0.316E+01 0.312E+02 0.100E+04   -.309E+01 -.313E+02 -.995E+03   -.486E-01 0.119E+00 -.650E+01
   0.710E+02 0.710E+02 -.836E+03   -.714E+02 -.714E+02 0.830E+03   0.293E+00 0.293E+00 0.661E+01
   0.827E+01 0.793E+02 -.870E+03   -.832E+01 -.797E+02 0.863E+03   0.387E-01 0.282E+00 0.673E+01
   0.312E+02 0.316E+01 0.100E+04   -.313E+02 -.309E+01 -.995E+03   0.119E+00 -.486E-01 -.650E+01
   -.316E+01 -.312E+02 0.100E+04   0.309E+01 0.313E+02 -.995E+03   0.486E-01 -.119E+00 -.650E+01
   0.781E+02 -.781E+02 -.792E+03   -.784E+02 0.784E+02 0.786E+03   0.197E+00 -.197E+00 0.630E+01
   -.223E-04 -.244E-03 -.657E+03   0.225E-04 0.543E-04 0.653E+03   0.000E+00 0.000E+00 0.438E+01
   0.144E+02 -.309E+02 0.964E+03   -.145E+02 0.310E+02 -.957E+03   0.554E-01 -.102E+00 -.680E+01
   -.113E+01 -.243E+02 0.947E+03   0.115E+01 0.244E+02 -.940E+03   -.816E-02 -.102E+00 -.683E+01
[...]
   -.800E+01 0.799E+01 0.704E+03   0.801E+01 -.801E+01 -.708E+03   -.258E-01 0.258E-01 0.357E+01
   -.318E+01 0.317E+01 0.700E+03   0.318E+01 -.318E+01 -.705E+03   -.864E-02 0.864E-02 0.357E+01
   -.190E+02 0.134E+02 -.686E+03   0.191E+02 -.135E+02 0.691E+03   -.431E-01 0.297E-01 -.365E+01
   -.123E+02 0.466E+01 -.689E+03   0.123E+02 -.466E+01 0.694E+03   -.239E-01 0.420E-02 -.365E+01
   -.167E+02 0.580E+01 0.711E+03   0.168E+02 -.581E+01 -.716E+03   -.720E-01 0.225E-01 0.357E+01
   -.657E+01 0.562E+01 0.703E+03   0.658E+01 -.564E+01 -.708E+03   -.235E-01 0.154E-01 0.357E+01
   -.309E+02 -.184E+01 -.681E+03   0.310E+02 0.185E+01 0.685E+03   -.626E-01 -.158E-01 -.368E+01
   -.111E+02 -.530E+01 -.690E+03   0.111E+02 0.531E+01 0.694E+03   -.158E-01 -.105E-01 -.365E+01
   -.156E+02 -.671E+01 0.710E+03   0.157E+02 0.673E+01 -.714E+03   -.573E-01 -.335E-01 0.356E+01
   -.883E+01 -.324E+00 0.705E+03   0.885E+01 0.327E+00 -.710E+03   -.288E-01 -.464E-02 0.357E+01
   -.165E+02 -.126E+02 -.688E+03   0.165E+02 0.127E+02 0.692E+03   -.260E-01 -.236E-01 -.366E+01
   -.513E+01 -.639E+01 -.692E+03   0.514E+01 0.639E+01 0.697E+03   -.487E-02 -.793E-02 -.364E+01
   -.736E+01 -.736E+01 0.703E+03   0.738E+01 0.738E+01 -.707E+03   -.190E-01 -.190E-01 0.357E+01
   -.573E+01 -.561E+01 0.703E+03   0.574E+01 0.562E+01 -.707E+03   -.138E-01 -.146E-01 0.357E+01
   -.146E-04 -.111E+00 0.108E+02   0.189E-11 0.696E-12 -.557E-11   -.108E-15 -.101E-14 -.118E+02

 POSITION                                       TOTAL-FORCE (eV/Angst)
     11.47450     11.77823     13.73072         0.341901     -0.341901      0.310458
      9.66435     13.58839     13.73072        -0.341901      0.341901      0.310458
      0.00000      0.00000      9.00000        -0.000526      0.001276      0.164178
      2.11389      2.11389      9.00000        -0.001276      0.000526      0.164178
      0.00000      2.11389     11.11389        -0.000000      0.000000     -0.155850
      2.11389      0.00000     11.11389        -0.001815      0.001815     -0.155379
      0.00000      4.22777      9.00000         0.000526     -0.001276      0.164178
      2.11389      6.34166      9.00000        -0.001956     -0.002634      0.164771
      0.00000      6.34166     11.11389         0.001245     -0.001494     -0.154940
      2.11389      4.22777     11.11389        -0.000570     -0.000570     -0.155232
      0.00000      8.45554      9.00000         0.001278     -0.002250      0.164794
      2.11389     10.56943      9.00000        -0.007029     -0.002867      0.165799
      0.00000     10.56943     11.11389         0.001136     -0.000965     -0.153126
      2.11389      8.45554     11.11389        -0.001699     -0.002139     -0.152546
      0.00000     12.68331      9.00000        -0.000000      0.000000      0.165275
      2.11389     14.79720      9.00000        -0.009802      0.001568      0.165746
      0.00000     14.79720     11.11389        -0.001136      0.000965     -0.153126
      2.11389     12.68331     11.11389        -0.005793     -0.001159     -0.150627
      0.00000     16.91108      9.00000        -0.001278      0.002250      0.164794
      2.11389     19.02497      9.00000        -0.003963      0.003398      0.164368
      0.00000     19.02497     11.11389        -0.001245      0.001494     -0.154940
      2.11389     16.91108     11.11389        -0.005661      0.002051     -0.153066
      4.22777      0.00000      9.00000        -0.003398      0.003963      0.164368
      6.34166      2.11389      9.00000        -0.002250      0.001278      0.164794
      4.22777      2.11389     11.11389        -0.001494      0.001245     -0.154940
      6.34166      0.00000     11.11389        -0.002051      0.005661     -0.153066
      4.22777      4.22777      9.00000        -0.002634     -0.001956      0.164771
      6.34166      6.34166      9.00000        -0.007462     -0.009918      0.166592
      4.22777      6.34166     11.11389        -0.002591     -0.002591     -0.151825
      6.34166      4.22777     11.11389        -0.002139     -0.001699     -0.152546
      4.22777      8.45554      9.00000        -0.009918     -0.007462      0.166592
      6.34166     10.56943      9.00000        -0.040383     -0.022904      0.170262
      4.22777     10.56943     11.11389        -0.010042     -0.004722     -0.142783
      6.34166      8.45554     11.11389        -0.008994     -0.008994     -0.135857
      4.22777     12.68331      9.00000        -0.027564     -0.002421      0.169039
      6.34166     14.79720      9.00000        -0.028810      0.017554      0.155635
      4.22777     14.79720     11.11389        -0.021318      0.000924     -0.144922
      6.34166     12.68331     11.11389        -0.089890     -0.009541     -0.114063
      4.22777     16.91108      9.00000        -0.012537      0.008093      0.164844
      6.34166     19.02497      9.00000        -0.008093      0.012537      0.164844
      4.22777     19.02497     11.11389        -0.005308      0.005308     -0.152909
      6.34166     16.91108     11.11389        -0.016595      0.016595     -0.143721
      8.45554      0.00000      9.00000        -0.001568      0.009802      0.165746
     10.56943      2.11389      9.00000        -0.000000      0.000000      0.165275
      8.45554      2.11389     11.11389        -0.000965      0.001136     -0.153126
     10.56943      0.00000     11.11389         0.001159      0.005793     -0.150627
      8.45554      4.22777      9.00000        -0.002867     -0.007029      0.165799
     10.56943      6.34166      9.00000        -0.002421     -0.027564      0.169039
      8.45554      6.34166     11.11389        -0.004722     -0.010042     -0.142783
     10.56943      4.22777     11.11389        -0.001159     -0.005793     -0.150627
      8.45554      8.45554      9.00000        -0.022904     -0.040383      0.170262
     10.56943     10.56943      9.00000         0.019065     -0.032239      0.070139
      8.45554     10.56943     11.11389        -0.072379     -0.072379     -0.024657
     10.56943      8.45554     11.11389        -0.009541     -0.089890     -0.114063
      8.45554     12.68331      9.00000        -0.032239      0.019065      0.070139
     10.56943     14.79720      9.00000        -0.019065      0.032239      0.070139
      8.45554     14.79720     11.11389        -0.093536      0.093536     -0.167546
     10.56943     12.68331     11.11389        -0.000000      0.000000      0.053840
      8.45554     16.91108      9.00000        -0.017554      0.028810      0.155635
     10.56943     19.02497      9.00000         0.002421      0.027564      0.169039
[...]
     19.02497      6.34166     11.11389        -0.003792      0.003381      0.542784
     16.91108      6.34166      9.00000        -0.007250      0.007250     -0.553562
     19.02497      4.22777      9.00000        -0.002428      0.002428     -0.553130
     16.91108      8.45554     11.11389        -0.012513      0.008680      0.539392
     19.02497     10.56943     11.11389        -0.006806      0.001194      0.539680
     16.91108     10.56943      9.00000        -0.020192      0.006229     -0.553105
     19.02497      8.45554      9.00000        -0.006600      0.004385     -0.553736
     16.91108     12.68331     11.11389        -0.018644     -0.004605      0.531583
     19.02497     14.79720     11.11389        -0.004483     -0.002943      0.539086
     16.91108     14.79720      9.00000        -0.016551     -0.009552     -0.557054
     19.02497     12.68331      9.00000        -0.008122     -0.001289     -0.554739
     16.91108     16.91108     11.11389        -0.007527     -0.006711      0.536136
     19.02497     19.02497     11.11389        -0.001371     -0.002239      0.542362
     16.91108     19.02497      9.00000        -0.005356     -0.005356     -0.554479
     19.02497     16.91108      9.00000        -0.003892     -0.004130     -0.554249
    total drift:                               -0.000015     -0.110685     -0.971819

  FREE ENERGIE OF THE ION-ELECTRON SYSTEM (eV)
  free  energy   TOTEN  =      -681.50122029 eV

  energy  without entropy=     -681.50122029  energy(sigma->0) =     -681.50122029