 vasp.6.4.1 05Apr23 (build May 06 2023 19:47:20) complex

 executed on             LinuxIFC date 2023.07.03  17:12:06

 INCAR:
   SYSTEM = MgO-rocksalt
   ISMEAR = 0
   SIGMA = 0.05
   EDIFF = 1E-6
   ALGO = ALL
   ISTART = 0
   IBRION = -1
   NSW = 0
   ISYM = 2
   DIPOL = 0.5 0.5 0.5
   IDIPOL = 3
   LDIPOL = .TRUE.
   LHFCALC = .TRUE.
   GGA = B5
   AEXX = 0.2
   AGGAX = 0.72
   AGGAC = 0.81
   ALDAC = 0.19
   IVDW = 11
   VDW_S6 = 1.0
   VDW_SR = 1.261
   VDW_S8 = 1.703
   ENCUT = 520
   PREC = Accurate
   LASPH = .TRUE.
   LREAL = Auto
   ISPIN = 1
   NELM = 200
   NELMIN = 8
   NCORE = 16
   KPAR = 1
   LWAVE = .FALSE.
   LCHARG = .FALSE.

 POTCAR:    PAW_PBE Au 04Oct2007
 POTCAR:    PAW_PBE Mg_pv 13Apr2007
 POTCAR:    PAW_PBE O 08Apr2002
|           W    W    AA    RRRRR   N    N  II  N    N   GGGG   !!!           |
|           W    W   A  A   R    R  NN   N  II  NN   N  G    G  !!!           |
|           W    W  A    A  R    R  N N  N  II  N N  N  G       !!!           |
|           W WW W  AAAAAA  RRRRR   N  N N  II  N  N N  G  GGG   !            |
|           WW  WW  A    A  R   R   N   NN  II  N   NN  G    G                |
|           W    W  A    A  R    R  N    N  II  N    N   GGGG   !!!           |
|     You have selected ISYM=2 for a HF type calculation. This will           |
|     symmetrize the charge density but not the exchange potential. I         |
|     suggest to use ISYM=3 instead. This uses symmetry to obtain the         |
|     orbitals at all k-points in the Brillouin zone, but does not apply      |
|     symmetry to the Hartree potential directly. The resultant charge        |
|     might have lower symmetry than the crystal but, at least, Hartree       |
|     and exchange are fully compatible.                                      |

   TITEL  = PAW_PBE Au 04Oct2007
   POMASS =  196.966; ZVAL   =   11.000    mass and valenz
   ENMAX  =  229.943; ENMIN  =  172.457 eV

   TITEL  = PAW_PBE Mg_pv 13Apr2007
   POMASS =   24.305; ZVAL   =    8.000    mass and valenz
   ENMAX  =  403.929; ENMIN  =  302.947 eV

   TITEL  = PAW_PBE O 08Apr2002
   POMASS =   16.000; ZVAL   =    6.000    mass and valenz
   ENMAX  =  400.000; ENMIN  =  300.000 eV

 Optimization of the real space projectors (new method)

 maximal supplied QI-value         = 15.12
 optimisation between [QCUT,QGAM] = [ 11.64, 23.28] = [ 37.95,151.78] Ry
 Optimized for a Real-space Cutoff    1.49 Angstroem

   l    n(q)    QCUT    max X(q) W(low)/X(q) W(high)/X(q)  e(spline)
   2      9    11.641    60.898    0.24E-03    0.10E-03    0.19E-06
   2      9    11.641    58.894    0.25E-03    0.10E-03    0.19E-06
   0     10    11.641   109.617    0.73E-04    0.33E-04    0.11E-06
   0     10    11.641    75.026    0.71E-04    0.32E-04    0.11E-06
   1     10    11.641    16.344    0.27E-04    0.97E-04    0.16E-06
   1     10    11.641    10.160    0.23E-04    0.77E-04    0.13E-06
 Optimization of the real space projectors (new method)

[...]

   l    n(q)    QCUT    max X(q) W(low)/X(q) W(high)/X(q)  e(spline)
   1      8    11.527     2.974    0.44E-04    0.56E-04    0.12E-06
   1      8    11.527     4.279    0.12E-03    0.12E-03    0.26E-06
   0      9    11.527    16.381    0.46E-04    0.64E-04    0.78E-07
   0      9    11.527     5.611    0.26E-04    0.43E-04    0.55E-07
   2      8    11.527     4.652    0.22E-03    0.72E-04    0.47E-07
 Optimization of the real space projectors (new method)

 maximal supplied QI-value         = 24.76
 optimisation between [QCUT,QGAM] = [ 11.64, 23.27] = [ 37.91,151.63] Ry
 Optimized for a Real-space Cutoff    1.14 Angstroem

   l    n(q)    QCUT    max X(q) W(low)/X(q) W(high)/X(q)  e(spline)
   0      8    11.635    20.381    0.10E-03    0.33E-03    0.24E-06
   0      8    11.635    15.268    0.11E-03    0.35E-03    0.26E-06
   1      7    11.635     5.964    0.24E-03    0.31E-03    0.30E-06
   1      7    11.635     5.382    0.22E-03    0.25E-03    0.26E-06
|               ----> ADVICE to this user running VASP <----                  |
|     You enforced a specific xc type in the INCAR file but a different       |
|     type was found in the POTCAR file.                                      |
|     I HOPE YOU KNOW WHAT YOU ARE DOING!                                     |

  PAW_PBE Au 04Oct2007                  :
  PAW_PBE Mg_pv 13Apr2007               :
  PAW_PBE O 08Apr2002                   :

 POSCAR: Au Mg  O
  positions in direct lattice
 exchange correlation table for  LEXCH =       12
   RHO(1)=    0.500       N(1)  =     2000
   RHO(2)=  100.500       N(2)  =     4000

 ion  position               nearest neighbor table
   1  0.500  0.500  0.713-   2 2.50
   2  0.500  0.500  0.600- 152 2.15   1 2.50  54 3.02  58 3.02  73 3.02  53 3.02
   3  0.000  0.000  0.407- 105 2.11 106 2.11 121 2.11 186 2.11 103 2.11
   4  0.100  0.100  0.407- 105 2.11 106 2.11 110 2.11 125 2.11 104 2.11
   5  0.000  0.100  0.503- 103 2.11 104 2.11 107 2.11 184 2.11 105 2.11
   6  0.100  0.000  0.503- 103 2.11 104 2.11 120 2.11 123 2.11 106 2.11
   7  0.000  0.200  0.407- 109 2.11 105 2.11 110 2.11 190 2.11 107 2.11
   8  0.100  0.300  0.407- 110 2.11 109 2.11 114 2.11 129 2.11 108 2.11
   9  0.000  0.300  0.503- 107 2.11 108 2.11 111 2.11 188 2.11 109 2.11
  10  0.100  0.200  0.503- 108 2.11 107 2.11 104 2.11 127 2.11 110 2.11
  11  0.000  0.400  0.407- 109 2.11 113 2.11 114 2.11 194 2.11 111 2.11
  12  0.100  0.500  0.407- 113 2.11 114 2.11 118 2.11 133 2.11 112 2.11
  13  0.000  0.500  0.503- 111 2.11 112 2.11 115 2.11 192 2.11 113 2.11
  14  0.100  0.400  0.503- 108 2.11 111 2.11 112 2.11 131 2.11 114 2.11
  15  0.000  0.600  0.407- 113 2.11 117 2.11 118 2.11 198 2.11 115 2.11
  16  0.100  0.700  0.407- 122 2.11 118 2.11 117 2.11 137 2.11 116 2.11
  17  0.000  0.700  0.503- 119 2.11 116 2.11 115 2.11 196 2.11 117 2.11
  18  0.100  0.600  0.503- 112 2.11 115 2.11 116 2.11 135 2.11 118 2.11
  19  0.000  0.800  0.407- 117 2.11 121 2.11 122 2.11 202 2.11 119 2.11
  20  0.100  0.900  0.407- 106 2.11 121 2.11 122 2.11 141 2.11 120 2.11
  21  0.000  0.900  0.503- 103 2.11 119 2.11 120 2.11 200 2.11 121 2.11
  22  0.100  0.800  0.503- 116 2.11 119 2.11 120 2.11 139 2.11 122 2.11
  23  0.200  0.000  0.407- 126 2.11 125 2.11 106 2.11 141 2.11 123 2.11
  24  0.300  0.100  0.407- 125 2.11 126 2.11 130 2.11 145 2.11 124 2.11
  25  0.200  0.100  0.503- 124 2.11 123 2.11 104 2.11 127 2.11 125 2.11
  26  0.300  0.000  0.503- 123 2.11 124 2.11 140 2.11 143 2.11 126 2.11
  27  0.200  0.200  0.407- 129 2.11 130 2.11 110 2.11 125 2.11 127 2.11
  28  0.300  0.300  0.407- 129 2.11 130 2.11 134 2.11 149 2.11 128 2.11
  29  0.200  0.300  0.503- 127 2.11 128 2.11 108 2.11 131 2.11 129 2.11
  30  0.300  0.200  0.503- 127 2.11 128 2.11 124 2.11 147 2.11 130 2.11
  31  0.200  0.400  0.407- 134 2.11 129 2.11 133 2.11 114 2.11 131 2.11
  32  0.300  0.500  0.407- 133 2.11 134 2.11 138 2.11 153 2.11 132 2.11
  33  0.200  0.500  0.503- 132 2.11 131 2.11 112 2.11 135 2.11 133 2.11
  34  0.300  0.400  0.503- 131 2.11 128 2.11 132 2.11 151 2.11 134 2.11
  35  0.200  0.600  0.407- 138 2.11 133 2.11 137 2.11 118 2.11 135 2.11
  36  0.300  0.700  0.407- 137 2.11 142 2.11 138 2.11 157 2.11 136 2.11
  37  0.200  0.700  0.503- 136 2.11 139 2.11 116 2.11 135 2.11 137 2.11
  38  0.300  0.600  0.503- 135 2.11 132 2.11 136 2.11 155 2.11 138 2.11
  39  0.200  0.800  0.407- 137 2.11 142 2.11 141 2.11 122 2.11 139 2.11
  40  0.300  0.900  0.407- 141 2.11 126 2.11 142 2.11 161 2.11 140 2.11
  41  0.200  0.900  0.503- 140 2.11 123 2.11 139 2.11 120 2.11 141 2.11
  42  0.300  0.800  0.503- 136 2.11 139 2.11 140 2.11 159 2.11 142 2.11
  43  0.400  0.000  0.407- 126 2.11 145 2.11 146 2.11 161 2.11 143 2.11
  44  0.500  0.100  0.407- 145 2.11 146 2.11 150 2.11 165 2.11 144 2.11
  45  0.400  0.100  0.503- 124 2.11 143 2.11 144 2.11 147 2.11 145 2.11
  46  0.500  0.000  0.503- 143 2.11 144 2.11 160 2.11 163 2.11 146 2.11
  47  0.400  0.200  0.407- 149 2.11 145 2.11 130 2.11 150 2.11 147 2.11
  48  0.500  0.300  0.407- 150 2.11 149 2.11 154 2.11 169 2.11 148 2.11
  49  0.400  0.300  0.503- 147 2.11 128 2.11 148 2.11 151 2.11 149 2.11
  50  0.500  0.200  0.503- 148 2.11 147 2.11 144 2.11 167 2.11 150 2.11
  51  0.400  0.400  0.407- 134 2.11 149 2.11 153 2.11 154 2.11 151 2.11
  52  0.500  0.500  0.407- 153 2.11 154 2.11 158 2.11 173 2.11 152 2.11
  53  0.400  0.500  0.503- 132 2.11 151 2.11 152 2.11 155 2.11 153 2.11   2 3.02
  54  0.500  0.400  0.503- 148 2.11 151 2.11 152 2.11 171 2.11 154 2.11   2 3.02
  55  0.400  0.600  0.407- 138 2.11 153 2.11 157 2.11 158 2.11 155 2.11
  56  0.500  0.700  0.407- 162 2.11 158 2.11 157 2.11 177 2.11 156 2.11
  57  0.400  0.700  0.503- 159 2.11 155 2.11 156 2.11 136 2.11 157 2.11
  58  0.500  0.600  0.503- 152 2.11 155 2.11 156 2.11 175 2.11 158 2.11   2 3.02
  59  0.400  0.800  0.407- 157 2.11 142 2.11 161 2.11 162 2.11 159 2.11
  60  0.500  0.900  0.407- 146 2.11 161 2.11 162 2.11 181 2.11 160 2.11
[...]
 188  0.900  0.300  0.503-  90 2.11  89 2.11   9 2.11  94 2.11  88 2.11
 189  0.800  0.300  0.407-  68 2.11  87 2.11  88 2.11  91 2.11  89 2.11
 190  0.900  0.200  0.407-  88 2.11  84 2.11  87 2.11   7 2.11  90 2.11
 191  0.800  0.400  0.503-  74 2.11  89 2.11  93 2.11  94 2.11  91 2.11
 192  0.900  0.500  0.503-  13 2.11  93 2.11  94 2.11  98 2.11  92 2.11
 193  0.800  0.500  0.407-  72 2.11  91 2.11  92 2.11  95 2.11  93 2.11
 194  0.900  0.400  0.407-  11 2.11  88 2.11  91 2.11  92 2.11  94 2.11
 195  0.800  0.600  0.503-  78 2.11  93 2.11  97 2.11  98 2.11  95 2.11
 196  0.900  0.700  0.503- 102 2.11  97 2.11  98 2.11  17 2.11  96 2.11
 197  0.800  0.700  0.407-  76 2.11  99 2.11  96 2.11  95 2.11  97 2.11
 198  0.900  0.600  0.407-  15 2.11  92 2.11  95 2.11  96 2.11  98 2.11
 199  0.800  0.800  0.503-  82 2.11  97 2.11 101 2.11 102 2.11  99 2.11
 200  0.900  0.900  0.503-  21 2.11  86 2.11 101 2.11 102 2.11 100 2.11
 201  0.800  0.900  0.407-  80 2.11  83 2.11  99 2.11 100 2.11 101 2.11
 202  0.900  0.800  0.407-  96 2.11  19 2.11  99 2.11 100 2.11 102 2.11

  LATTYP: Found a simple tetragonal cell.
 ALAT       =    21.1388521970
 C/A-ratio  =     1.0461251639

  Lattice vectors:

 A1 = (  21.1388521970,   0.0000000000,   0.0000000000)
 A2 = (   0.0000000000,  21.1388521970,   0.0000000000)
 A3 = (   0.0000000000,   0.0000000000,  22.1138852197)

Analysis of symmetry for initial positions (statically):
 Subroutine PRICEL returns:
 Original cell was already a primitive cell.

 Routine SETGRP: Setting up the symmetry group for a
 simple tetragonal supercell.

 Subroutine GETGRP returns: Found  8 space group operations
 (whereof  8 operations were pure point group operations)
 out of a pool of 16 trial point group operations.

The static configuration has the point symmetry C_4v.

Analysis of symmetry for dynamics (positions and initial velocities):
 Subroutine PRICEL returns:
 Original cell was already a primitive cell.

 Routine SETGRP: Setting up the symmetry group for a
 simple tetragonal supercell.

 Subroutine GETGRP returns: Found  8 space group operations
 (whereof  8 operations were pure point group operations)
 out of a pool of 16 trial point group operations.

[...]
     41     -46.4227      2.00000
     42     -46.4227      2.00000
     43     -46.4223      2.00000
     44     -46.4123      2.00000
     45     -46.4121      2.00000
     46     -46.4121      2.00000
     47     -46.4120      2.00000
     48     -46.4111      2.00000
     49     -46.4111      2.00000
     50     -46.4111      2.00000
     51     -46.4110      2.00000
     52     -46.4008      2.00000
     53     -46.3999      2.00000
     54     -46.3999      2.00000
     55     -46.3988      2.00000
     56     -46.3950      2.00000
     57     -46.3947      2.00000
     58     -46.3928      2.00000
     59     -46.3927      2.00000
     60     -46.3927      2.00000
[...]
    850       4.8017      0.00000
    851       4.8263      0.00000
    852       4.8807      0.00000
    853       4.9086      0.00000
    854       4.9334      0.00000
    855       4.9808      0.00000
    856       4.9890      0.00000
    857       5.0313      0.00000
    858       5.0697      0.00000
    859       5.0868      0.00000
    860       5.1084      0.00000
    861       5.1600      0.00000
    862       5.2239      0.00000
    863       5.2465      0.00000
    864       5.2770      0.00000

 soft charge-density along one line, spin component           1
         0         1         2         3         4         5         6         7         8         9
 total charge-density along one line

------------------------ aborting loop because EDIFF is reached ----------------------------------------

 WARNING: Using user supplied parameters
     VDW_S8 = 1.703
     VDW_SR = 1.261
     because the xc functional is not supported. Required parameters not
     defined in the INCAR file will be replaced with PBE defaults ones.

         DFTD3 V3.0 Rev 1
 IVDW         = 11
 DF unknown
 parameters
 VDW_S6       =    1.0000
 VDW_S8       =    1.7030
 VDW_SR       =    1.2610
 rs18     =    1.0000
 alpha6   =   14.0000
 alpha8   =   16.0000
 k1-k3    =   16.0000    1.3333   -4.0000
 VDW_RADIUS   =   50.2022 A
 VDW_CNRADIUS =   21.1671 A
 Edisp (eV)  -33.19308

 E6    (eV) :    -6.9918
 E8    (eV) :   -26.2012
 % E8        : 78.94

 VOLUME and BASIS-vectors are now :
  energy-cutoff  :      520.00
  volume of cell :     9881.61
      direct lattice vectors                 reciprocal lattice vectors
    21.138852197  0.000000000  0.000000000     0.047306258  0.000000000  0.000000000
     0.000000000 21.138852197  0.000000000     0.000000000  0.047306258  0.000000000
     0.000000000  0.000000000 22.113885220     0.000000000  0.000000000  0.045220457

  length of vectors
    21.138852197 21.138852197 22.113885220     0.047306258  0.047306258  0.045220457

 FORCES acting on ions:
    Electron-Ion                     Ewald-Force                    Non-Local-Force
   -.184E-13 0.140E-11 -.180E+04   -.666E-14 0.977E-14 0.179E+04   -.120E-21 -.320E-22 0.844E+01
   0.103E-12 -.155E-11 -.193E+04   0.338E-13 0.155E-13 0.194E+04   -.218E-21 -.166E-21 -.373E+01
   0.142E-12 -.530E-12 0.930E+03   0.941E-13 0.746E-13 -.923E+03   0.300E-23 -.155E-24 -.671E+01
   0.367E+01 0.367E+01 0.931E+03   -.368E+01 -.368E+01 -.924E+03   0.881E-02 0.881E-02 -.671E+01
   0.167E-12 0.390E+01 -.922E+03   0.131E-12 -.391E+01 0.915E+03   0.413E-24 0.405E-02 0.666E+01
   0.390E+01 -.115E-11 -.922E+03   -.391E+01 0.515E-13 0.915E+03   0.405E-02 -.119E-23 0.666E+01
   0.146E-12 0.536E+01 0.932E+03   0.155E-10 -.538E+01 -.924E+03   -.102E-22 0.103E-01 -.671E+01
   0.722E+01 0.676E+01 0.935E+03   -.727E+01 -.678E+01 -.927E+03   0.310E-01 0.155E-01 -.672E+01
   0.157E-12 0.706E+01 -.920E+03   0.207E-11 -.707E+01 0.913E+03   0.181E-23 0.636E-02 0.665E+01
   0.674E+01 0.802E+01 -.921E+03   -.676E+01 -.803E+01 0.913E+03   0.118E-01 0.897E-02 0.665E+01
   0.134E-12 0.363E+01 0.935E+03   -.175E-10 -.364E+01 -.927E+03   0.692E-23 0.661E-02 -.672E+01
   0.103E+02 -.126E-11 0.937E+03   -.103E+02 0.123E-12 -.929E+03   0.513E-01 0.225E-23 -.673E+01
   0.157E-12 -.347E-12 -.919E+03   0.229E-12 0.266E-13 0.911E+03   0.242E-23 -.410E-23 0.665E+01
   0.136E+02 0.598E+01 -.917E+03   -.137E+02 -.598E+01 0.909E+03   0.263E-01 0.533E-02 0.664E+01
   0.138E-12 -.363E+01 0.935E+03   0.114E-11 0.364E+01 -.927E+03   0.191E-23 -.661E-02 -.672E+01
   0.722E+01 -.676E+01 0.935E+03   -.727E+01 0.678E+01 -.927E+03   0.310E-01 -.155E-01 -.672E+01
   0.165E-12 -.706E+01 -.920E+03   -.927E-12 0.707E+01 0.913E+03   0.428E-23 -.636E-02 0.665E+01
   0.136E+02 -.598E+01 -.917E+03   -.137E+02 0.598E+01 0.909E+03   0.263E-01 -.533E-02 0.664E+01
   0.158E-12 -.536E+01 0.932E+03   0.909E-12 0.538E+01 -.924E+03   0.631E-23 -.103E-01 -.671E+01
   0.367E+01 -.367E+01 0.931E+03   -.368E+01 0.368E+01 -.924E+03   0.881E-02 -.881E-02 -.671E+01
   0.173E-12 -.390E+01 -.922E+03   -.899E-12 0.391E+01 0.915E+03   0.187E-23 -.405E-02 0.666E+01
   0.674E+01 -.802E+01 -.921E+03   -.676E+01 0.803E+01 0.913E+03   0.118E-01 -.897E-02 0.665E+01
   0.536E+01 0.390E-12 0.932E+03   -.538E+01 0.293E-13 -.924E+03   0.103E-01 0.155E-23 -.671E+01
   0.676E+01 0.722E+01 0.935E+03   -.678E+01 -.727E+01 -.927E+03   0.155E-01 0.310E-01 -.672E+01
   0.802E+01 0.674E+01 -.921E+03   -.803E+01 -.676E+01 0.913E+03   0.897E-02 0.118E-01 0.665E+01
   0.706E+01 0.694E-12 -.920E+03   -.707E+01 0.528E-13 0.913E+03   0.636E-02 0.622E-23 0.665E+01
   0.910E+01 0.910E+01 0.935E+03   -.914E+01 -.914E+01 -.927E+03   0.320E-01 0.320E-01 -.672E+01
   0.173E+02 0.173E+02 0.947E+03   -.174E+02 -.174E+02 -.939E+03   0.102E+00 0.102E+00 -.674E+01
   0.205E+02 0.152E+02 -.914E+03   -.205E+02 -.153E+02 0.906E+03   0.510E-01 0.183E-01 0.664E+01
   0.152E+02 0.205E+02 -.914E+03   -.153E+02 -.205E+02 0.906E+03   0.183E-01 0.510E-01 0.664E+01
   0.187E+02 0.735E+01 0.943E+03   -.189E+02 -.738E+01 -.935E+03   0.122E+00 0.246E-01 -.674E+01
   0.307E+02 -.902E-12 0.963E+03   -.313E+02 0.426E-13 -.955E+03   0.426E+00 0.188E-23 -.684E+01
   0.350E+02 -.914E-12 -.907E+03   -.351E+02 -.853E-13 0.899E+03   0.858E-01 -.794E-23 0.662E+01
   0.517E+02 0.265E+02 -.889E+03   -.520E+02 -.265E+02 0.882E+03   0.260E+00 0.229E-01 0.658E+01
   0.187E+02 -.735E+01 0.943E+03   -.189E+02 0.738E+01 -.935E+03   0.122E+00 -.246E-01 -.674E+01
   0.173E+02 -.173E+02 0.947E+03   -.174E+02 0.174E+02 -.939E+03   0.102E+00 -.102E+00 -.674E+01
   0.205E+02 -.152E+02 -.914E+03   -.205E+02 0.153E+02 0.906E+03   0.510E-01 -.183E-01 0.664E+01
   0.517E+02 -.265E+02 -.889E+03   -.520E+02 0.265E+02 0.882E+03   0.260E+00 -.229E-01 0.658E+01
   0.910E+01 -.910E+01 0.935E+03   -.914E+01 0.914E+01 -.927E+03   0.320E-01 -.320E-01 -.672E+01
   0.676E+01 -.722E+01 0.935E+03   -.678E+01 0.727E+01 -.927E+03   0.155E-01 -.310E-01 -.672E+01
   0.802E+01 -.674E+01 -.921E+03   -.803E+01 0.676E+01 0.913E+03   0.897E-02 -.118E-01 0.665E+01
   0.152E+02 -.205E+02 -.914E+03   -.153E+02 0.205E+02 0.906E+03   0.183E-01 -.510E-01 0.664E+01
   0.363E+01 -.328E-12 0.935E+03   -.364E+01 0.857E-13 -.927E+03   0.661E-02 -.604E-23 -.672E+01
   -.214E-12 0.103E+02 0.937E+03   0.435E-11 -.103E+02 -.929E+03   -.216E-24 0.513E-01 -.673E+01
   0.598E+01 0.136E+02 -.917E+03   -.598E+01 -.137E+02 0.909E+03   0.533E-02 0.263E-01 0.664E+01
   -.221E-12 -.526E-12 -.919E+03   0.875E-13 0.546E-13 0.911E+03   -.335E-23 -.383E-23 0.665E+01
   0.735E+01 0.187E+02 0.943E+03   -.738E+01 -.189E+02 -.935E+03   0.246E-01 0.122E+00 -.674E+01
   -.226E-12 0.307E+02 0.963E+03   -.558E-11 -.313E+02 -.955E+03   0.502E-23 0.426E+00 -.684E+01
   0.265E+02 0.517E+02 -.889E+03   -.265E+02 -.520E+02 0.882E+03   0.229E-01 0.260E+00 0.658E+01
   -.234E-12 0.350E+02 -.907E+03   -.191E-10 -.351E+02 0.899E+03   0.364E-23 0.858E-01 0.662E+01
   0.234E+02 0.234E+02 0.980E+03   -.239E+02 -.239E+02 -.972E+03   0.310E+00 0.310E+00 -.673E+01
   -.253E-12 0.260E-11 0.101E+04   -.457E-13 0.941E-13 -.101E+04   0.943E-23 -.284E-23 -.395E+01
   0.112E+03 0.174E-10 -.785E+03   -.116E+03 -.200E-13 0.778E+03   0.240E+01 -.531E-24 0.630E+01
   -.229E-12 0.112E+03 -.785E+03   0.216E-10 -.116E+03 0.778E+03   -.173E-23 0.240E+01 0.630E+01
   0.234E+02 -.234E+02 0.980E+03   -.239E+02 0.239E+02 -.972E+03   0.310E+00 -.310E+00 -.673E+01
   -.232E-12 -.307E+02 0.963E+03   -.183E-10 0.313E+02 -.955E+03   -.599E-24 -.426E+00 -.684E+01
   0.265E+02 -.517E+02 -.889E+03   -.265E+02 0.520E+02 0.882E+03   0.229E-01 -.260E+00 0.658E+01
   -.233E-12 -.112E+03 -.785E+03   0.182E-10 0.116E+03 0.778E+03   -.577E-23 -.240E+01 0.630E+01
   0.735E+01 -.187E+02 0.943E+03   -.738E+01 0.189E+02 -.935E+03   0.246E-01 -.122E+00 -.674E+01
   -.211E-12 -.103E+02 0.937E+03   0.205E-10 0.103E+02 -.929E+03   0.222E-23 -.513E-01 -.673E+01
[...]
   -.103E+02 0.784E+01 0.706E+03   0.103E+02 -.788E+01 -.710E+03   -.658E-01 0.462E-01 0.315E+01
   -.382E+01 0.471E+01 0.701E+03   0.383E+01 -.472E+01 -.705E+03   -.170E-01 0.174E-01 0.316E+01
   -.226E+02 0.851E+01 -.684E+03   0.227E+02 -.853E+01 0.688E+03   -.705E-01 0.186E-01 -.331E+01
   -.114E+02 -.489E-11 -.689E+03   0.115E+02 0.104E-10 0.693E+03   -.281E-01 -.171E-22 -.327E+01
   -.158E+02 0.281E-10 0.711E+03   0.159E+02 -.166E-11 -.715E+03   -.110E+00 -.311E-22 0.313E+01
   -.702E+01 0.334E+01 0.704E+03   0.705E+01 -.335E+01 -.708E+03   -.360E-01 0.128E-01 0.315E+01
   -.226E+02 -.851E+01 -.684E+03   0.227E+02 0.853E+01 0.688E+03   -.705E-01 -.186E-01 -.331E+01
   -.759E+01 -.664E+01 -.691E+03   0.761E+01 0.665E+01 0.695E+03   -.194E-01 -.123E-01 -.326E+01
   -.103E+02 -.784E+01 0.706E+03   0.103E+02 0.788E+01 -.710E+03   -.658E-01 -.462E-01 0.315E+01
   -.702E+01 -.334E+01 0.704E+03   0.705E+01 0.335E+01 -.708E+03   -.360E-01 -.128E-01 0.315E+01
   -.938E+01 -.938E+01 -.690E+03   0.940E+01 0.940E+01 0.694E+03   -.276E-01 -.276E-01 -.326E+01
   -.345E+01 -.345E+01 -.693E+03   0.346E+01 0.346E+01 0.697E+03   -.740E-02 -.740E-02 -.324E+01
   -.471E+01 -.382E+01 0.701E+03   0.472E+01 0.383E+01 -.705E+03   -.174E-01 -.170E-01 0.316E+01
   -.382E+01 -.471E+01 0.701E+03   0.383E+01 0.472E+01 -.705E+03   -.170E-01 -.174E-01 0.316E+01
   0.135E-10 -.422E-10 -.425E+01   0.432E-11 -.654E-12 0.568E-12   0.874E-15 0.236E-15 0.389E+01

 POSITION                                       TOTAL-FORCE (eV/Angst)
     10.56943     10.56943     15.76120         0.000000      0.000000      0.343899
     10.56943     10.56943     13.26453         0.000000      0.000000      0.212498
      0.00000      0.00000      9.00000         0.000000      0.000000      0.426652
      2.11389      2.11389      9.00000        -0.002746     -0.002746      0.427017
      0.00000      2.11389     11.11389         0.000000     -0.001243     -0.403019
      2.11389      0.00000     11.11389        -0.001243      0.000000     -0.403019
      0.00000      4.22777      9.00000         0.000000     -0.003259      0.427303
      2.11389      6.34166      9.00000        -0.009265     -0.004885      0.428898
      0.00000      6.34166     11.11389         0.000000     -0.001920     -0.400015
      2.11389      4.22777     11.11389        -0.003378     -0.002697     -0.400516
      0.00000      8.45554      9.00000         0.000000     -0.002091      0.428831
      2.11389     10.56943      9.00000        -0.015110      0.000000      0.430364
      0.00000     10.56943     11.11389         0.000000      0.000000     -0.397684
      2.11389      8.45554     11.11389        -0.006791     -0.001521     -0.395059
      0.00000     12.68331      9.00000         0.000000      0.002091      0.428831
      2.11389     14.79720      9.00000        -0.009265      0.004885      0.428898
      0.00000     14.79720     11.11389         0.000000      0.001920     -0.400015
      2.11389     12.68331     11.11389        -0.006791      0.001521     -0.395059
      0.00000     16.91108      9.00000         0.000000      0.003259      0.427303
      2.11389     19.02497      9.00000        -0.002746      0.002746      0.427017
      0.00000     19.02497     11.11389         0.000000      0.001243     -0.403019
      2.11389     16.91108     11.11389        -0.003378      0.002697     -0.400516
      4.22777      0.00000      9.00000        -0.003259      0.000000      0.427303
      6.34166      2.11389      9.00000        -0.004885     -0.009265      0.428898
      4.22777      2.11389     11.11389        -0.002697     -0.003378     -0.400516
      6.34166      0.00000     11.11389        -0.001920      0.000000     -0.400015
      4.22777      4.22777      9.00000        -0.009916     -0.009916      0.428650
      6.34166      6.34166      9.00000        -0.031889     -0.031889      0.432866
      4.22777      6.34166     11.11389        -0.013506     -0.005030     -0.389697
      6.34166      4.22777     11.11389        -0.005030     -0.013506     -0.389697
      4.22777      8.45554      9.00000        -0.035889     -0.007801      0.435033
      6.34166     10.56943      9.00000        -0.116487      0.000000      0.460475
      4.22777     10.56943     11.11389        -0.017904      0.000000     -0.377101
      6.34166      8.45554     11.11389        -0.048309      0.004759     -0.334090
      4.22777     12.68331      9.00000        -0.035889      0.007801      0.435033
      6.34166     14.79720      9.00000        -0.031889      0.031889      0.432866
      4.22777     14.79720     11.11389        -0.013506      0.005030     -0.389697
      6.34166     12.68331     11.11389        -0.048309     -0.004759     -0.334090
      4.22777     16.91108      9.00000        -0.009916      0.009916      0.428650
      6.34166     19.02497      9.00000        -0.004885      0.009265      0.428898
      4.22777     19.02497     11.11389        -0.002697      0.003378     -0.400516
      6.34166     16.91108     11.11389        -0.005030      0.013506     -0.389697
      8.45554      0.00000      9.00000        -0.002091      0.000000      0.428831
     10.56943      2.11389      9.00000         0.000000     -0.015110      0.430364
      8.45554      2.11389     11.11389        -0.001521     -0.006791     -0.395059
     10.56943      0.00000     11.11389         0.000000      0.000000     -0.397684
      8.45554      4.22777      9.00000        -0.007801     -0.035889      0.435033
     10.56943      6.34166      9.00000         0.000000     -0.116487      0.460475
      8.45554      6.34166     11.11389         0.004759     -0.048309     -0.334090
     10.56943      4.22777     11.11389         0.000000     -0.017904     -0.377101
      8.45554      8.45554      9.00000        -0.105542     -0.105542      0.423774
     10.56943     10.56943      9.00000         0.000000      0.000000     -0.165452
      8.45554     10.56943     11.11389        -1.068999      0.000000     -0.472567
     10.56943      8.45554     11.11389         0.000000     -1.068999     -0.472567
      8.45554     12.68331      9.00000        -0.105542      0.105542      0.423774
     10.56943     14.79720      9.00000         0.000000      0.116487      0.460475
      8.45554     14.79720     11.11389         0.004759      0.048309     -0.334090
     10.56943     12.68331     11.11389         0.000000      1.068999     -0.472567
      8.45554     16.91108      9.00000        -0.007801      0.035889      0.435033
     10.56943     19.02497      9.00000         0.000000      0.015110      0.430364
[...]
     19.02497      6.34166     11.11389        -0.006338      0.004019      0.385456
     16.91108      6.34166      9.00000        -0.021322      0.014944     -0.419584
     19.02497      4.22777      9.00000        -0.005483      0.005617     -0.416179
     16.91108      8.45554     11.11389        -0.023481      0.006269      0.369276
     19.02497     10.56943     11.11389        -0.009236      0.000000      0.381141
     16.91108     10.56943      9.00000        -0.035758      0.000000     -0.424863
     19.02497      8.45554      9.00000        -0.011640      0.004164     -0.418525
     16.91108     12.68331     11.11389        -0.023481     -0.006269      0.369276
     19.02497     14.79720     11.11389        -0.006338     -0.004019      0.385456
     16.91108     14.79720      9.00000        -0.021322     -0.014944     -0.419584
     19.02497     12.68331      9.00000        -0.011640     -0.004164     -0.418525
     16.91108     16.91108     11.11389        -0.008966     -0.008966      0.384785
     19.02497     19.02497     11.11389        -0.002385     -0.002385      0.390269
     16.91108     19.02497      9.00000        -0.005617     -0.005483     -0.416179
     19.02497     16.91108      9.00000        -0.005483     -0.005617     -0.416179
    total drift:                                0.000000     -0.000000     -0.280479

  FREE ENERGIE OF THE ION-ELECTRON SYSTEM (eV)
  free  energy   TOTEN  =     -1366.63822465 eV

  energy  without entropy=    -1366.63822465  energy(sigma->0) =    -1366.63822465