 vasp.6.3.0 20Jan22 (build Apr  1 2022 16:44:48) complex
 executed on        HPECrayEX_GCC date 2022.11.20  01:15:26

 INCAR:
   SYSTEM = MgO-rocksalt
   ISMEAR = 0
   SIGMA = 0.05
   EDIFF = 1E-6
   ALGO = ALL
   ISTART = 0
   IBRION = -1
   NSW = 0
   ISYM = 2
   DIPOL = 0.5 0.5 0.5
   IDIPOL = 3
   LDIPOL = .TRUE.
   IVDW = 13
   VDW_S8 = 2.0293
   VDW_A1 = 0.4087
   VDW_A2 = 4.5381
   ENCUT = 520
   PREC = Accurate
   LASPH = .TRUE.
   LREAL = Auto
   ISPIN = 1
   NELM = 200
   NELMIN = 8
   NCORE = 4
   KPAR = 2
   LWAVE = .FALSE.
   LCHARG = .FALSE.

 POTCAR:    PAW_PBE Cu 22Jun2005
 POTCAR:    PAW_PBE Mg_pv 13Apr2007
 POTCAR:    PAW_PBE O 08Apr2002
 POTCAR:    PAW_PBE Cu 22Jun2005
   VRHFIN =Cu: d10 p1

   TITEL  = PAW_PBE Cu 22Jun2005
   POMASS =   63.546; ZVAL   =   11.000    mass and valenz
   ENMAX  =  295.446; ENMIN  =  221.585 eV

   TITEL  = PAW_PBE Mg_pv 13Apr2007
   POMASS =   24.305; ZVAL   =    8.000    mass and valenz
   ENMAX  =  403.929; ENMIN  =  302.947 eV

   TITEL  = PAW_PBE O 08Apr2002
   POMASS =   16.000; ZVAL   =    6.000    mass and valenz
   ENMAX  =  400.000; ENMIN  =  300.000 eV

 Optimization of the real space projectors (new method)

 maximal supplied QI-value         = 16.25
 optimisation between [QCUT,QGAM] = [ 11.54, 23.24] = [ 37.28,151.24] Ry
 Optimized for a Real-space Cutoff    1.53 Angstroem

   l    n(q)    QCUT    max X(q) W(low)/X(q) W(high)/X(q)  e(spline)
   2     10    11.539     4.610    0.96E-04    0.13E-03    0.19E-06
   2     10    11.539     8.522    0.16E-03    0.21E-03    0.28E-06
   0     11    11.539    51.609    0.45E-04    0.31E-04    0.11E-06
   0     11    11.539    27.747    0.39E-04    0.29E-04    0.10E-06
   1     10    11.539    20.408    0.70E-05    0.38E-04    0.18E-06
   1     10    11.539    13.425    0.66E-05    0.34E-04    0.17E-06
 Optimization of the real space projectors (new method)

[...]

   l    n(q)    QCUT    max X(q) W(low)/X(q) W(high)/X(q)  e(spline)
   1      8    11.527     2.974    0.44E-04    0.56E-04    0.12E-06
   1      8    11.527     4.279    0.12E-03    0.12E-03    0.26E-06
   0      9    11.527    16.381    0.46E-04    0.64E-04    0.78E-07
   0      9    11.527     5.611    0.26E-04    0.43E-04    0.55E-07
   2      8    11.527     4.652    0.22E-03    0.72E-04    0.47E-07
 Optimization of the real space projectors (new method)

 maximal supplied QI-value         = 24.76
 optimisation between [QCUT,QGAM] = [ 11.64, 23.27] = [ 37.91,151.63] Ry
 Optimized for a Real-space Cutoff    1.14 Angstroem

   l    n(q)    QCUT    max X(q) W(low)/X(q) W(high)/X(q)  e(spline)
   0      8    11.635    20.381    0.10E-03    0.33E-03    0.24E-06
   0      8    11.635    15.268    0.11E-03    0.35E-03    0.26E-06
   1      7    11.635     5.964    0.24E-03    0.31E-03    0.30E-06
   1      7    11.635     5.382    0.22E-03    0.25E-03    0.26E-06
  PAW_PBE Cu 22Jun2005                  :
  PAW_PBE Mg_pv 13Apr2007               :
  PAW_PBE O 08Apr2002                   :

 POSCAR: Cu Mg  O
  positions in direct lattice
|           W    W    AA    RRRRR   N    N  II  N    N   GGGG   !!!           |
|           W    W   A  A   R    R  NN   N  II  NN   N  G    G  !!!           |
|           W    W  A    A  R    R  N N  N  II  N N  N  G       !!!           |
|           W WW W  AAAAAA  RRRRR   N  N N  II  N  N N  G  GGG   !            |
|           WW  WW  A    A  R   R   N   NN  II  N   NN  G    G                |
|           W    W  A    A  R    R  N    N  II  N    N   GGGG   !!!           |
|     Specifying the vdW parameters                                           |
|     VDW_S8 = 2.029                                                          |
|     VDW_A1 = 0.409                                                          |
|     VDW_A2 = 4.538                                                          |
|     in the INCAR file will overwrite the defaults for pbe. Please make      |
|     sure that is what you intended.                                         |

 ion  position               nearest neighbor table
   1  0.654  0.500  0.605-   2 2.30  73 2.54
   2  0.546  0.500  0.605-   1 2.30  73 2.54
   3  0.000  0.000  0.407- 105 2.11 106 2.11 121 2.11 186 2.11 103 2.11
   4  0.100  0.100  0.407- 105 2.11 106 2.11 110 2.11 125 2.11 104 2.11
   5  0.000  0.100  0.503- 103 2.11 104 2.11 107 2.11 184 2.11 105 2.11
   6  0.100  0.000  0.503- 103 2.11 104 2.11 120 2.11 123 2.11 106 2.11
   7  0.000  0.200  0.407- 109 2.11 105 2.11 110 2.11 190 2.11 107 2.11
   8  0.100  0.300  0.407- 110 2.11 109 2.11 114 2.11 129 2.11 108 2.11
   9  0.000  0.300  0.503- 107 2.11 108 2.11 111 2.11 188 2.11 109 2.11
  10  0.100  0.200  0.503- 108 2.11 107 2.11 104 2.11 127 2.11 110 2.11
  11  0.000  0.400  0.407- 109 2.11 113 2.11 114 2.11 194 2.11 111 2.11
  12  0.100  0.500  0.407- 113 2.11 114 2.11 118 2.11 133 2.11 112 2.11
  13  0.000  0.500  0.503- 111 2.11 112 2.11 115 2.11 192 2.11 113 2.11
  14  0.100  0.400  0.503- 108 2.11 111 2.11 112 2.11 131 2.11 114 2.11
  15  0.000  0.600  0.407- 113 2.11 117 2.11 118 2.11 198 2.11 115 2.11
  16  0.100  0.700  0.407- 122 2.11 118 2.11 117 2.11 137 2.11 116 2.11
  17  0.000  0.700  0.503- 119 2.11 116 2.11 115 2.11 196 2.11 117 2.11
  18  0.100  0.600  0.503- 112 2.11 115 2.11 116 2.11 135 2.11 118 2.11
  19  0.000  0.800  0.407- 117 2.11 121 2.11 122 2.11 202 2.11 119 2.11
  20  0.100  0.900  0.407- 106 2.11 121 2.11 122 2.11 141 2.11 120 2.11
  21  0.000  0.900  0.503- 103 2.11 119 2.11 120 2.11 200 2.11 121 2.11
  22  0.100  0.800  0.503- 116 2.11 119 2.11 120 2.11 139 2.11 122 2.11
  23  0.200  0.000  0.407- 126 2.11 125 2.11 106 2.11 141 2.11 123 2.11
  24  0.300  0.100  0.407- 125 2.11 126 2.11 130 2.11 145 2.11 124 2.11
  25  0.200  0.100  0.503- 124 2.11 123 2.11 104 2.11 127 2.11 125 2.11
  26  0.300  0.000  0.503- 123 2.11 124 2.11 140 2.11 143 2.11 126 2.11
  27  0.200  0.200  0.407- 129 2.11 130 2.11 110 2.11 125 2.11 127 2.11
  28  0.300  0.300  0.407- 129 2.11 130 2.11 134 2.11 149 2.11 128 2.11
  29  0.200  0.300  0.503- 127 2.11 128 2.11 108 2.11 131 2.11 129 2.11
  30  0.300  0.200  0.503- 127 2.11 128 2.11 124 2.11 147 2.11 130 2.11
  31  0.200  0.400  0.407- 134 2.11 129 2.11 133 2.11 114 2.11 131 2.11
  32  0.300  0.500  0.407- 133 2.11 134 2.11 138 2.11 153 2.11 132 2.11
  33  0.200  0.500  0.503- 132 2.11 131 2.11 112 2.11 135 2.11 133 2.11
  34  0.300  0.400  0.503- 131 2.11 128 2.11 132 2.11 151 2.11 134 2.11
  35  0.200  0.600  0.407- 138 2.11 133 2.11 137 2.11 118 2.11 135 2.11
  36  0.300  0.700  0.407- 137 2.11 142 2.11 138 2.11 157 2.11 136 2.11
  37  0.200  0.700  0.503- 136 2.11 139 2.11 116 2.11 135 2.11 137 2.11
  38  0.300  0.600  0.503- 135 2.11 132 2.11 136 2.11 155 2.11 138 2.11
  39  0.200  0.800  0.407- 137 2.11 142 2.11 141 2.11 122 2.11 139 2.11
  40  0.300  0.900  0.407- 141 2.11 126 2.11 142 2.11 161 2.11 140 2.11
  41  0.200  0.900  0.503- 140 2.11 123 2.11 139 2.11 120 2.11 141 2.11
  42  0.300  0.800  0.503- 136 2.11 139 2.11 140 2.11 159 2.11 142 2.11
  43  0.400  0.000  0.407- 126 2.11 145 2.11 146 2.11 161 2.11 143 2.11
  44  0.500  0.100  0.407- 145 2.11 146 2.11 150 2.11 165 2.11 144 2.11
  45  0.400  0.100  0.503- 124 2.11 143 2.11 144 2.11 147 2.11 145 2.11
  46  0.500  0.000  0.503- 143 2.11 144 2.11 160 2.11 163 2.11 146 2.11
  47  0.400  0.200  0.407- 149 2.11 145 2.11 130 2.11 150 2.11 147 2.11
  48  0.500  0.300  0.407- 150 2.11 149 2.11 154 2.11 169 2.11 148 2.11
  49  0.400  0.300  0.503- 147 2.11 128 2.11 148 2.11 151 2.11 149 2.11
  50  0.500  0.200  0.503- 148 2.11 147 2.11 144 2.11 167 2.11 150 2.11
  51  0.400  0.400  0.407- 134 2.11 149 2.11 153 2.11 154 2.11 151 2.11
  52  0.500  0.500  0.407- 153 2.11 154 2.11 158 2.11 173 2.11 152 2.11
  53  0.400  0.500  0.503- 132 2.11 151 2.11 152 2.11 155 2.11 153 2.11
  54  0.500  0.400  0.503- 148 2.11 151 2.11 152 2.11 171 2.11 154 2.11
  55  0.400  0.600  0.407- 138 2.11 153 2.11 157 2.11 158 2.11 155 2.11
  56  0.500  0.700  0.407- 162 2.11 158 2.11 157 2.11 177 2.11 156 2.11
  57  0.400  0.700  0.503- 159 2.11 155 2.11 156 2.11 136 2.11 157 2.11
  58  0.500  0.600  0.503- 152 2.11 155 2.11 156 2.11 175 2.11 158 2.11
  59  0.400  0.800  0.407- 157 2.11 142 2.11 161 2.11 162 2.11 159 2.11
  60  0.500  0.900  0.407- 146 2.11 161 2.11 162 2.11 181 2.11 160 2.11
[...]
 188  0.900  0.300  0.503-  90 2.11  89 2.11   9 2.11  94 2.11  88 2.11
 189  0.800  0.300  0.407-  68 2.11  87 2.11  88 2.11  91 2.11  89 2.11
 190  0.900  0.200  0.407-  88 2.11  84 2.11  87 2.11   7 2.11  90 2.11
 191  0.800  0.400  0.503-  74 2.11  89 2.11  93 2.11  94 2.11  91 2.11
 192  0.900  0.500  0.503-  13 2.11  93 2.11  94 2.11  98 2.11  92 2.11
 193  0.800  0.500  0.407-  72 2.11  91 2.11  92 2.11  95 2.11  93 2.11
 194  0.900  0.400  0.407-  11 2.11  88 2.11  91 2.11  92 2.11  94 2.11
 195  0.800  0.600  0.503-  78 2.11  93 2.11  97 2.11  98 2.11  95 2.11
 196  0.900  0.700  0.503- 102 2.11  97 2.11  98 2.11  17 2.11  96 2.11
 197  0.800  0.700  0.407-  76 2.11  99 2.11  96 2.11  95 2.11  97 2.11
 198  0.900  0.600  0.407-  15 2.11  92 2.11  95 2.11  96 2.11  98 2.11
 199  0.800  0.800  0.503-  82 2.11  97 2.11 101 2.11 102 2.11  99 2.11
 200  0.900  0.900  0.503-  21 2.11  86 2.11 101 2.11 102 2.11 100 2.11
 201  0.800  0.900  0.407-  80 2.11  83 2.11  99 2.11 100 2.11 101 2.11
 202  0.900  0.800  0.407-  96 2.11  19 2.11  99 2.11 100 2.11 102 2.11

  LATTYP: Found a simple tetragonal cell.
 ALAT       =    21.1388521970
 C/A-ratio  =     1.0461251639

  Lattice vectors:

 A1 = (  21.1388521970,   0.0000000000,   0.0000000000)
 A2 = (   0.0000000000,  21.1388521970,   0.0000000000)
 A3 = (   0.0000000000,   0.0000000000,  22.1138852197)

Analysis of symmetry for initial positions (statically):
 Subroutine PRICEL returns:
 Original cell was already a primitive cell.

 Routine SETGRP: Setting up the symmetry group for a
 simple tetragonal supercell.

 Subroutine GETGRP returns: Found  4 space group operations
 (whereof  2 operations were pure point group operations)
 out of a pool of 16 trial point group operations.

The static configuration has the point symmetry C_1h.
 The point group associated with its full space group is C_2v.

Analysis of symmetry for dynamics (positions and initial velocities):
 Subroutine PRICEL returns:
 Original cell was already a primitive cell.

 Routine SETGRP: Setting up the symmetry group for a
 simple tetragonal supercell.

 Subroutine GETGRP returns: Found  4 space group operations
 (whereof  2 operations were pure point group operations)
 out of a pool of 16 trial point group operations.

The dynamic configuration has the point symmetry C_1h.
 The point group associated with its full space group is C_2v.

 Subroutine INISYM returns: Found  4 space group operations
 (whereof  2 operations are pure point group operations),
 and found     1 'primitive' translations

                                     Primitive cell

  volume of cell :    9881.6133

  direct lattice vectors                    reciprocal lattice vectors
    21.138852197  0.000000000  0.000000000     0.047306258  0.000000000  0.000000000
[...]
     54     -43.0170      2.00000
     55     -43.0164      2.00000
     56     -43.0159      2.00000
     57     -43.0157      2.00000
     58     -43.0153      2.00000
     59     -43.0149      2.00000
     60     -43.0129      2.00000
[...]
   1010       7.1126      0.00000
   1011       7.1827      0.00000
   1012       7.1979      0.00000
   1013       7.2173      0.00000
   1014       7.2347      0.00000
   1015       7.2425      0.00000
   1016       7.2486      0.00000
   1017       7.6997      0.00000
   1018       7.8019      0.00000
   1019       7.8377      0.00000
   1020       7.8506      0.00000
   1021       7.9092      0.00000
   1022       7.9445      0.00000
   1023       7.9696      0.00000
   1024       8.0054      0.00000

 soft charge-density along one line, spin component           1
         0         1         2         3         4         5         6         7         8         9
 total charge-density along one line

------------------------ aborting loop because EDIFF is reached ----------------------------------------

  FORCE on cell =-STRESS in cart. coord.  units (eV):
  Direction    XX          YY          ZZ          XY          YZ          ZX
  Alpha Z  1354.41543  1354.41543  1354.41543
  Ewald  481679.40439480877.94746************    -0.00000     0.00000     0.00004
  Hartree510334.89565509728.60058************    -0.00000     0.00000     0.00001
  E(xc)   -7777.45294 -7777.98035 -7809.20658     0.00000     0.00000    -0.00000
  Local  ************************************     0.00000    -0.00000    -0.00005
  n-local -8810.47162 -8808.16032 -8929.66167    -0.00001    -0.00000     0.00000
  augment  3467.11654  3471.08217  3413.12697    -0.00000    -0.00000    -0.00000
  Kinetic 22857.55308 22862.57489 23113.89605     0.00000     0.00000    -0.00000
  Fock        0.00000     0.00000     0.00000     0.00000     0.00000     0.00000
  vdW       -36.26824   -36.24334   -13.36626     0.00000    -0.00000     0.00000
  Total    -185.54500  -184.86679     4.96834     0.00000     0.00000     0.00000
  in kB     -30.08375   -29.97379     0.80555     0.00000     0.00000     0.00000

 VOLUME and BASIS-vectors are now :
  energy-cutoff  :      520.00
  volume of cell :     9881.61
      direct lattice vectors                 reciprocal lattice vectors
    21.138852197  0.000000000  0.000000000     0.047306258  0.000000000  0.000000000
     0.000000000 21.138852197  0.000000000     0.000000000  0.047306258  0.000000000
     0.000000000  0.000000000 22.113885220     0.000000000  0.000000000  0.045220457

  length of vectors
    21.138852197 21.138852197 22.113885220     0.047306258  0.047306258  0.045220457

 FORCES acting on ions:
    Electron-Ion                     Ewald-Force                    Non-Local-Force
   -.344E+03 -.101E-05 -.218E+04   0.333E+03 0.354E-07 0.218E+04   0.114E+02 0.000E+00 -.138E+01
   0.344E+03 -.560E-06 -.218E+04   -.333E+03 0.354E-07 0.218E+04   -.114E+02 0.000E+00 -.138E+01
   -.344E+01 0.486E-06 0.931E+03   0.344E+01 0.858E-08 -.923E+03   0.420E-02 0.000E+00 -.742E+01
   -.185E-03 0.376E+01 0.931E+03   -.150E-05 -.378E+01 -.923E+03   0.000E+00 0.131E-01 -.742E+01
   -.494E+01 0.535E+01 -.923E+03   0.493E+01 -.537E+01 0.915E+03   0.600E-02 0.148E-01 0.738E+01
   -.185E-03 0.485E-06 -.923E+03   -.153E-05 0.889E-08 0.916E+03   0.000E+00 0.000E+00 0.738E+01
   -.585E+01 0.758E+01 0.933E+03   0.585E+01 -.762E+01 -.925E+03   -.157E-02 0.282E-01 -.742E+01
   -.184E-03 0.683E+01 0.934E+03   -.312E-05 -.686E+01 -.926E+03   0.000E+00 0.248E-01 -.742E+01
   -.119E+02 0.108E+02 -.920E+03   0.119E+02 -.109E+02 0.912E+03   -.160E-01 0.312E-01 0.738E+01
   -.184E-03 0.776E+01 -.922E+03   -.273E-05 -.779E+01 0.915E+03   0.000E+00 0.216E-01 0.738E+01
   -.117E+02 0.564E+01 0.938E+03   0.117E+02 -.567E+01 -.930E+03   -.423E-01 0.229E-01 -.742E+01
   -.182E-03 0.500E-06 0.936E+03   -.454E-05 -.921E-08 -.928E+03   0.000E+00 0.000E+00 -.742E+01
   -.191E+02 0.482E-06 -.917E+03   0.192E+02 -.160E-07 0.909E+03   -.590E-01 0.000E+00 0.738E+01
   -.181E-03 0.559E+01 -.920E+03   -.571E-05 -.561E+01 0.912E+03   -.339E-20 0.157E-01 0.738E+01
   -.117E+02 -.564E+01 0.938E+03   0.117E+02 0.567E+01 -.930E+03   -.423E-01 -.229E-01 -.742E+01
   -.184E-03 -.683E+01 0.934E+03   -.312E-05 0.686E+01 -.926E+03   0.000E+00 -.248E-01 -.742E+01
   -.119E+02 -.108E+02 -.920E+03   0.119E+02 0.109E+02 0.912E+03   -.160E-01 -.312E-01 0.738E+01
   -.181E-03 -.559E+01 -.920E+03   -.571E-05 0.561E+01 0.912E+03   -.339E-20 -.157E-01 0.738E+01
   -.585E+01 -.758E+01 0.933E+03   0.585E+01 0.762E+01 -.925E+03   -.157E-02 -.282E-01 -.742E+01
   -.185E-03 -.376E+01 0.931E+03   -.150E-05 0.378E+01 -.923E+03   0.000E+00 -.131E-01 -.742E+01
   -.494E+01 -.535E+01 -.923E+03   0.493E+01 0.537E+01 0.915E+03   0.600E-02 -.148E-01 0.738E+01
   -.184E-03 -.776E+01 -.922E+03   -.273E-05 0.779E+01 0.915E+03   0.000E+00 -.216E-01 0.738E+01
   0.344E+01 0.485E-06 0.931E+03   -.344E+01 0.858E-08 -.923E+03   -.420E-02 0.000E+00 -.742E+01
   0.691E+01 0.613E+01 0.933E+03   -.690E+01 -.615E+01 -.925E+03   -.739E-02 0.198E-01 -.742E+01
   0.494E+01 0.535E+01 -.923E+03   -.493E+01 -.537E+01 0.915E+03   -.600E-02 0.148E-01 0.738E+01
   0.695E+01 0.479E-06 -.922E+03   -.694E+01 0.150E-07 0.915E+03   -.104E-01 0.000E+00 0.738E+01
   0.585E+01 0.758E+01 0.933E+03   -.585E+01 -.762E+01 -.925E+03   0.157E-02 0.282E-01 -.742E+01
   0.167E+02 0.135E+02 0.941E+03   -.167E+02 -.135E+02 -.933E+03   0.219E-01 0.638E-01 -.742E+01
   0.119E+02 0.108E+02 -.920E+03   -.119E+02 -.109E+02 0.912E+03   0.160E-01 0.312E-01 0.738E+01
   0.140E+02 0.151E+02 -.919E+03   -.140E+02 -.152E+02 0.912E+03   -.152E-01 0.451E-01 0.737E+01
   0.117E+02 0.564E+01 0.938E+03   -.117E+02 -.567E+01 -.930E+03   0.423E-01 0.229E-01 -.742E+01
   0.274E+02 0.538E-06 0.950E+03   -.276E+02 -.216E-07 -.942E+03   0.168E+00 0.000E+00 -.743E+01
   0.191E+02 0.529E-06 -.917E+03   -.192E+02 -.160E-07 0.909E+03   0.590E-01 0.000E+00 0.738E+01
   0.388E+02 0.157E+02 -.909E+03   -.389E+02 -.158E+02 0.901E+03   0.120E+00 0.489E-01 0.738E+01
   0.117E+02 -.564E+01 0.938E+03   -.117E+02 0.567E+01 -.930E+03   0.423E-01 -.229E-01 -.742E+01
   0.167E+02 -.135E+02 0.941E+03   -.167E+02 0.135E+02 -.933E+03   0.219E-01 -.638E-01 -.742E+01
   0.119E+02 -.108E+02 -.920E+03   -.119E+02 0.109E+02 0.912E+03   0.160E-01 -.312E-01 0.738E+01
   0.388E+02 -.157E+02 -.909E+03   -.389E+02 0.158E+02 0.901E+03   0.120E+00 -.489E-01 0.738E+01
   0.585E+01 -.758E+01 0.933E+03   -.585E+01 0.762E+01 -.925E+03   0.157E-02 -.282E-01 -.742E+01
   0.691E+01 -.613E+01 0.933E+03   -.690E+01 0.615E+01 -.925E+03   -.739E-02 -.198E-01 -.742E+01
   0.494E+01 -.535E+01 -.923E+03   -.493E+01 0.537E+01 0.915E+03   -.600E-02 -.148E-01 0.738E+01
   0.140E+02 -.151E+02 -.919E+03   -.140E+02 0.152E+02 0.912E+03   -.152E-01 -.451E-01 0.737E+01
   0.605E+01 0.478E-06 0.934E+03   -.604E+01 0.165E-07 -.926E+03   -.887E-02 0.000E+00 -.742E+01
   0.486E+01 0.113E+02 0.937E+03   -.485E+01 -.113E+02 -.929E+03   -.736E-02 0.178E-01 -.743E+01
   0.940E+01 0.118E+02 -.920E+03   -.938E+01 -.118E+02 0.912E+03   -.147E-01 0.121E-01 0.737E+01
   0.477E+01 0.469E-06 -.920E+03   -.476E+01 0.283E-07 0.913E+03   -.805E-02 0.000E+00 0.737E+01
   0.120E+02 0.171E+02 0.940E+03   -.120E+02 -.172E+02 -.933E+03   -.113E-01 0.621E-01 -.743E+01
   0.160E+02 0.345E+02 0.963E+03   -.160E+02 -.348E+02 -.955E+03   -.157E-01 0.192E+00 -.751E+01
   0.349E+02 0.387E+02 -.904E+03   -.348E+02 -.389E+02 0.897E+03   -.612E-01 0.171E+00 0.736E+01
   0.123E+02 0.363E+02 -.911E+03   -.123E+02 -.364E+02 0.904E+03   -.224E-01 0.595E-02 0.736E+01
   0.337E+02 0.191E+02 0.966E+03   -.338E+02 -.193E+02 -.959E+03   0.883E-01 0.143E+00 -.737E+01
   0.366E+02 0.648E-06 0.102E+04   -.367E+02 -.829E-07 -.101E+04   0.565E-01 0.000E+00 -.623E+01
   0.975E+02 0.693E-06 -.862E+03   -.986E+02 -.112E-06 0.854E+03   0.866E+00 0.000E+00 0.748E+01
   0.790E+02 0.104E+03 -.812E+03   -.786E+02 -.105E+03 0.805E+03   -.257E+00 0.932E+00 0.703E+01
   0.337E+02 -.191E+02 0.966E+03   -.338E+02 0.193E+02 -.959E+03   0.883E-01 -.143E+00 -.737E+01
   0.160E+02 -.345E+02 0.963E+03   -.160E+02 0.348E+02 -.955E+03   -.157E-01 -.192E+00 -.751E+01
   0.349E+02 -.387E+02 -.904E+03   -.348E+02 0.389E+02 0.897E+03   -.612E-01 -.171E+00 0.736E+01
   0.790E+02 -.104E+03 -.812E+03   -.786E+02 0.105E+03 0.805E+03   -.257E+00 -.932E+00 0.703E+01
   0.120E+02 -.171E+02 0.940E+03   -.120E+02 0.172E+02 -.933E+03   -.113E-01 -.621E-01 -.743E+01
   0.486E+01 -.113E+02 0.937E+03   -.485E+01 0.113E+02 -.929E+03   -.736E-02 -.178E-01 -.743E+01
[...]
   -.158E+02 0.172E+02 0.715E+03   0.158E+02 -.173E+02 -.719E+03   -.979E-02 0.121E+00 0.352E+01
   -.786E+01 0.844E+01 0.704E+03   0.786E+01 -.847E+01 -.708E+03   -.173E-02 0.427E-01 0.352E+01
   -.525E+02 0.308E+02 -.663E+03   0.526E+02 -.310E+02 0.667E+03   -.185E+00 0.337E+00 -.362E+01
   -.351E+02 0.235E-05 -.681E+03   0.352E+02 -.268E-07 0.685E+03   -.134E+00 0.000E+00 -.360E+01
   -.306E+02 0.236E-05 0.733E+03   0.308E+02 -.335E-07 -.737E+03   -.304E+00 0.000E+00 0.378E+01
   -.179E+02 0.742E+01 0.712E+03   0.180E+02 -.747E+01 -.716E+03   -.861E-01 0.739E-01 0.354E+01
   -.525E+02 -.308E+02 -.663E+03   0.526E+02 0.310E+02 0.667E+03   -.185E+00 -.337E+00 -.362E+01
   -.184E+02 -.146E+02 -.688E+03   0.184E+02 0.147E+02 0.692E+03   -.389E-01 -.861E-01 -.360E+01
   -.158E+02 -.172E+02 0.715E+03   0.158E+02 0.173E+02 -.719E+03   -.979E-02 -.121E+00 0.352E+01
   -.179E+02 -.742E+01 0.712E+03   0.180E+02 0.747E+01 -.716E+03   -.861E-01 -.739E-01 0.354E+01
   -.127E+02 -.187E+02 -.688E+03   0.127E+02 0.188E+02 0.692E+03   0.306E-01 -.315E-01 -.361E+01
   -.643E+01 -.592E+01 -.693E+03   0.642E+01 0.593E+01 0.697E+03   0.114E-01 -.142E-01 -.359E+01
   -.556E+01 -.657E+01 0.703E+03   0.555E+01 0.659E+01 -.707E+03   0.114E-01 -.167E-01 0.352E+01
   -.786E+01 -.844E+01 0.704E+03   0.786E+01 0.847E+01 -.708E+03   -.173E-02 -.427E-01 0.352E+01
   -.109E+00 0.288E-03 0.112E+02   0.185E-11 0.318E-12 0.106E-10   -.134E-14 0.236E-15 -.118E+02

 POSITION                                       TOTAL-FORCE (eV/Angst)
     13.83084     10.56943     13.38544         0.035597      0.000000     -0.069688
     11.53578     10.56943     13.38544        -0.035597      0.000000     -0.069688
      0.00000      0.00000      9.00000        -0.001131      0.000000      0.374741
      2.11389      2.11389      9.00000        -0.000000     -0.003596      0.374435
      0.00000      2.11389     11.11389        -0.001600     -0.003941     -0.363527
      2.11389      0.00000     11.11389        -0.000000      0.000000     -0.364072
      0.00000      4.22777      9.00000         0.000581     -0.007801      0.374375
      2.11389      6.34166      9.00000        -0.000000     -0.007041      0.374216
      0.00000      6.34166     11.11389         0.004081     -0.008765     -0.361705
      2.11389      4.22777     11.11389        -0.000000     -0.006006     -0.363237
      0.00000      8.45554      9.00000         0.011167     -0.006729      0.374260
      2.11389     10.56943      9.00000        -0.000000      0.000000      0.374346
      0.00000     10.56943     11.11389         0.014510      0.000000     -0.360831
      2.11389      8.45554     11.11389        -0.000000     -0.004510     -0.362087
      0.00000     12.68331      9.00000         0.011167      0.006729      0.374260
      2.11389     14.79720      9.00000        -0.000000      0.007041      0.374216
      0.00000     14.79720     11.11389         0.004081      0.008765     -0.361705
      2.11389     12.68331     11.11389        -0.000000      0.004510     -0.362087
      0.00000     16.91108      9.00000         0.000581      0.007801      0.374375
      2.11389     19.02497      9.00000        -0.000000      0.003596      0.374435
      0.00000     19.02497     11.11389        -0.001600      0.003941     -0.363527
      2.11389     16.91108     11.11389        -0.000000      0.006006     -0.363237
      4.22777      0.00000      9.00000         0.001131      0.000000      0.374741
      6.34166      2.11389      9.00000         0.002025     -0.005189      0.375418
      4.22777      2.11389     11.11389         0.001600     -0.003941     -0.363527
      6.34166      0.00000     11.11389         0.002900      0.000000     -0.363111
      4.22777      4.22777      9.00000        -0.000581     -0.007801      0.374375
      6.34166      6.34166      9.00000        -0.006872     -0.018085      0.373209
      4.22777      6.34166     11.11389        -0.004081     -0.008765     -0.361705
      6.34166      4.22777     11.11389         0.004042     -0.011660     -0.360837
      4.22777      8.45554      9.00000        -0.011167     -0.006729      0.374260
      6.34166     10.56943      9.00000        -0.041704      0.000000      0.375111
      4.22777     10.56943     11.11389        -0.014510      0.000000     -0.360831
      6.34166      8.45554     11.11389        -0.029866     -0.014183     -0.356734
      4.22777     12.68331      9.00000        -0.011167      0.006729      0.374260
      6.34166     14.79720      9.00000        -0.006872      0.018085      0.373209
      4.22777     14.79720     11.11389        -0.004081      0.008765     -0.361705
      6.34166     12.68331     11.11389        -0.029866      0.014183     -0.356734
      4.22777     16.91108      9.00000        -0.000581      0.007801      0.374375
      6.34166     19.02497      9.00000         0.002025      0.005189      0.375418
      4.22777     19.02497     11.11389         0.001600      0.003941     -0.363527
      6.34166     16.91108     11.11389         0.004042      0.011660     -0.360837
      8.45554      0.00000      9.00000         0.002536      0.000000      0.375772
     10.56943      2.11389      9.00000         0.002232     -0.004643      0.377225
      8.45554      2.11389     11.11389         0.004256     -0.002857     -0.361058
     10.56943      0.00000     11.11389         0.002360      0.000000     -0.361309
      8.45554      4.22777      9.00000         0.003329     -0.015783      0.378849
     10.56943      6.34166      9.00000         0.007214     -0.045062      0.396843
      8.45554      6.34166     11.11389         0.020149     -0.040343     -0.345787
     10.56943      4.22777     11.11389         0.007401      0.001409     -0.350733
      8.45554      8.45554      9.00000        -0.030254     -0.046408      0.355836
     10.56943     10.56943      9.00000         0.003559      0.000000      0.121394
      8.45554     10.56943     11.11389        -0.273899      0.000000     -0.378887
     10.56943      8.45554     11.11389         0.107002     -0.304827     -0.260720
      8.45554     12.68331      9.00000        -0.030254      0.046408      0.355836
     10.56943     14.79720      9.00000         0.007214      0.045062      0.396843
      8.45554     14.79720     11.11389         0.020149      0.040343     -0.345787
     10.56943     12.68331     11.11389         0.107002      0.304827     -0.260720
      8.45554     16.91108      9.00000         0.003329      0.015783      0.378849
     10.56943     19.02497      9.00000         0.002232      0.004643      0.377225
[...]
     19.02497      6.34166     11.11389        -0.011475      0.024296      0.451751
     16.91108      6.34166      9.00000        -0.003672      0.034925     -0.468812
     19.02497      4.22777      9.00000        -0.000608      0.011929     -0.468128
     16.91108      8.45554     11.11389        -0.067149      0.103282      0.458198
     19.02497     10.56943     11.11389        -0.040286      0.000000      0.452418
     16.91108     10.56943      9.00000        -0.100671      0.000000     -0.398109
     19.02497      8.45554      9.00000        -0.025005      0.020703     -0.463688
     16.91108     12.68331     11.11389        -0.067149     -0.103282      0.458198
     19.02497     14.79720     11.11389        -0.011475     -0.024296      0.451751
     16.91108     14.79720      9.00000        -0.003672     -0.034925     -0.468812
     19.02497     12.68331      9.00000        -0.025005     -0.020703     -0.463688
     16.91108     16.91108     11.11389         0.008050     -0.009362      0.448468
     19.02497     19.02497     11.11389         0.003067     -0.003988      0.454759
     16.91108     19.02497      9.00000         0.003028     -0.004724     -0.468986
     19.02497     16.91108      9.00000        -0.000608     -0.011929     -0.468128
    total drift:                               -0.109361      0.000288     -0.626425

  FREE ENERGIE OF THE ION-ELECTRON SYSTEM (eV)
  free  energy   TOTEN  =     -1171.97345820 eV

  energy  without entropy=    -1171.97345820  energy(sigma->0) =    -1171.97345820