 vasp.6.3.0 20Jan22 (build Apr  1 2022 16:44:48) complex
 executed on        HPECrayEX_GCC date 2022.08.15  21:02:20

 INCAR:
   SYSTEM = MgO-rocksalt
   ISMEAR = 0
   SIGMA = 0.05
   EDIFF = 1E-6
   ALGO = ALL
   ISTART = 0
   IBRION = -1
   NSW = 0
   ISYM = 2
   DIPOL = 0.5 0.5 0.5
   IDIPOL = 3
   LDIPOL = .TRUE.
   GGA = RE
   IVDW = 12
   VDW_A1 = 0.5238
   VDW_S8 = 2.3550
   VDW_A2 = 3.5016
   ENCUT = 520
   PREC = Accurate
   LASPH = .TRUE.
   LREAL = Auto
   ISPIN = 1
   NELM = 200
   NELMIN = 8
   NCORE = 4
   KPAR = 2
   LWAVE = .FALSE.
   LCHARG = .FALSE.

 POTCAR:    PAW_PBE Ag 02Apr2005
 POTCAR:    PAW_PBE Mg_pv 13Apr2007
 POTCAR:    PAW_PBE O 08Apr2002
 POTCAR:    PAW_PBE Ag 02Apr2005
   VRHFIN =Ag : s1 d10

   TITEL  = PAW_PBE Ag 02Apr2005
   POMASS =  107.868; ZVAL   =   11.000    mass and valenz
   ENMAX  =  249.844; ENMIN  =  187.383 eV

   TITEL  = PAW_PBE Mg_pv 13Apr2007
   POMASS =   24.305; ZVAL   =    8.000    mass and valenz
   ENMAX  =  403.929; ENMIN  =  302.947 eV

   TITEL  = PAW_PBE O 08Apr2002
   POMASS =   16.000; ZVAL   =    6.000    mass and valenz
   ENMAX  =  400.000; ENMIN  =  300.000 eV

 Optimization of the real space projectors (new method)

 maximal supplied QI-value         = 15.12
 optimisation between [QCUT,QGAM] = [ 11.64, 23.28] = [ 37.95,151.78] Ry
 Optimized for a Real-space Cutoff    1.45 Angstroem

   l    n(q)    QCUT    max X(q) W(low)/X(q) W(high)/X(q)  e(spline)
   2      9    11.641    53.897    0.22E-03    0.42E-04    0.28E-06
   2      9    11.641    52.416    0.23E-03    0.44E-04    0.29E-06
   0     10    11.641   122.045    0.51E-04    0.25E-04    0.16E-06
   0     10    11.641    73.629    0.49E-04    0.24E-04    0.16E-06
   1     10    11.641    15.255    0.99E-04    0.55E-04    0.11E-06
   1     10    11.641     9.562    0.81E-04    0.47E-04    0.95E-07
 Optimization of the real space projectors (new method)

[...]

   l    n(q)    QCUT    max X(q) W(low)/X(q) W(high)/X(q)  e(spline)
   1      8    11.527     2.974    0.44E-04    0.56E-04    0.12E-06
   1      8    11.527     4.279    0.12E-03    0.12E-03    0.26E-06
   0      9    11.527    16.381    0.46E-04    0.64E-04    0.78E-07
   0      9    11.527     5.611    0.26E-04    0.43E-04    0.55E-07
   2      8    11.527     4.652    0.22E-03    0.72E-04    0.47E-07
 Optimization of the real space projectors (new method)

 maximal supplied QI-value         = 24.76
 optimisation between [QCUT,QGAM] = [ 11.64, 23.27] = [ 37.91,151.63] Ry
 Optimized for a Real-space Cutoff    1.14 Angstroem

   l    n(q)    QCUT    max X(q) W(low)/X(q) W(high)/X(q)  e(spline)
   0      8    11.635    20.381    0.10E-03    0.33E-03    0.24E-06
   0      8    11.635    15.268    0.11E-03    0.35E-03    0.26E-06
   1      7    11.635     5.964    0.24E-03    0.31E-03    0.30E-06
   1      7    11.635     5.382    0.22E-03    0.25E-03    0.26E-06
|               ----> ADVICE to this user running VASP <----                  |
|     You enforced a specific xc type in the INCAR file but a different       |
|     type was found in the POTCAR file.                                      |
|     I HOPE YOU KNOW WHAT YOU ARE DOING!                                     |

  PAW_PBE Ag 02Apr2005                  :
  PAW_PBE Mg_pv 13Apr2007               :
  PAW_PBE O 08Apr2002                   :

 POSCAR: Ag Mg  O
  positions in direct lattice
 exchange correlation table for  LEXCH =       40
   RHO(1)=    0.500       N(1)  =     2000
   RHO(2)=  100.500       N(2)  =     4000

 ion  position               nearest neighbor table
   1  0.543  0.457  0.625-   2 2.59
   2  0.457  0.543  0.625-   1 2.59
   3  0.000  0.000  0.407- 105 2.11 106 2.11 121 2.11 186 2.11 103 2.11
   4  0.100  0.100  0.407- 105 2.11 106 2.11 110 2.11 125 2.11 104 2.11
   5  0.000  0.100  0.503- 103 2.11 104 2.11 107 2.11 184 2.11 105 2.11
   6  0.100  0.000  0.503- 103 2.11 104 2.11 120 2.11 123 2.11 106 2.11
   7  0.000  0.200  0.407- 109 2.11 105 2.11 110 2.11 190 2.11 107 2.11
   8  0.100  0.300  0.407- 110 2.11 109 2.11 114 2.11 129 2.11 108 2.11
   9  0.000  0.300  0.503- 107 2.11 108 2.11 111 2.11 188 2.11 109 2.11
  10  0.100  0.200  0.503- 108 2.11 107 2.11 104 2.11 127 2.11 110 2.11
  11  0.000  0.400  0.407- 109 2.11 113 2.11 114 2.11 194 2.11 111 2.11
  12  0.100  0.500  0.407- 113 2.11 114 2.11 118 2.11 133 2.11 112 2.11
  13  0.000  0.500  0.503- 111 2.11 112 2.11 115 2.11 192 2.11 113 2.11
  14  0.100  0.400  0.503- 108 2.11 111 2.11 112 2.11 131 2.11 114 2.11
  15  0.000  0.600  0.407- 113 2.11 117 2.11 118 2.11 198 2.11 115 2.11
  16  0.100  0.700  0.407- 122 2.11 118 2.11 117 2.11 137 2.11 116 2.11
  17  0.000  0.700  0.503- 119 2.11 116 2.11 115 2.11 196 2.11 117 2.11
  18  0.100  0.600  0.503- 112 2.11 115 2.11 116 2.11 135 2.11 118 2.11
  19  0.000  0.800  0.407- 117 2.11 121 2.11 122 2.11 202 2.11 119 2.11
  20  0.100  0.900  0.407- 106 2.11 121 2.11 122 2.11 141 2.11 120 2.11
  21  0.000  0.900  0.503- 103 2.11 119 2.11 120 2.11 200 2.11 121 2.11
  22  0.100  0.800  0.503- 116 2.11 119 2.11 120 2.11 139 2.11 122 2.11
  23  0.200  0.000  0.407- 126 2.11 125 2.11 106 2.11 141 2.11 123 2.11
  24  0.300  0.100  0.407- 125 2.11 126 2.11 130 2.11 145 2.11 124 2.11
  25  0.200  0.100  0.503- 124 2.11 123 2.11 104 2.11 127 2.11 125 2.11
  26  0.300  0.000  0.503- 123 2.11 124 2.11 140 2.11 143 2.11 126 2.11
  27  0.200  0.200  0.407- 129 2.11 130 2.11 110 2.11 125 2.11 127 2.11
  28  0.300  0.300  0.407- 129 2.11 130 2.11 134 2.11 149 2.11 128 2.11
  29  0.200  0.300  0.503- 127 2.11 128 2.11 108 2.11 131 2.11 129 2.11
  30  0.300  0.200  0.503- 127 2.11 128 2.11 124 2.11 147 2.11 130 2.11
  31  0.200  0.400  0.407- 134 2.11 129 2.11 133 2.11 114 2.11 131 2.11
  32  0.300  0.500  0.407- 133 2.11 134 2.11 138 2.11 153 2.11 132 2.11
  33  0.200  0.500  0.503- 132 2.11 131 2.11 112 2.11 135 2.11 133 2.11
  34  0.300  0.400  0.503- 131 2.11 128 2.11 132 2.11 151 2.11 134 2.11
  35  0.200  0.600  0.407- 138 2.11 133 2.11 137 2.11 118 2.11 135 2.11
  36  0.300  0.700  0.407- 137 2.11 142 2.11 138 2.11 157 2.11 136 2.11
  37  0.200  0.700  0.503- 136 2.11 139 2.11 116 2.11 135 2.11 137 2.11
  38  0.300  0.600  0.503- 135 2.11 132 2.11 136 2.11 155 2.11 138 2.11
  39  0.200  0.800  0.407- 137 2.11 142 2.11 141 2.11 122 2.11 139 2.11
  40  0.300  0.900  0.407- 141 2.11 126 2.11 142 2.11 161 2.11 140 2.11
  41  0.200  0.900  0.503- 140 2.11 123 2.11 139 2.11 120 2.11 141 2.11
  42  0.300  0.800  0.503- 136 2.11 139 2.11 140 2.11 159 2.11 142 2.11
  43  0.400  0.000  0.407- 126 2.11 145 2.11 146 2.11 161 2.11 143 2.11
  44  0.500  0.100  0.407- 145 2.11 146 2.11 150 2.11 165 2.11 144 2.11
  45  0.400  0.100  0.503- 124 2.11 143 2.11 144 2.11 147 2.11 145 2.11
  46  0.500  0.000  0.503- 143 2.11 144 2.11 160 2.11 163 2.11 146 2.11
  47  0.400  0.200  0.407- 149 2.11 145 2.11 130 2.11 150 2.11 147 2.11
  48  0.500  0.300  0.407- 150 2.11 149 2.11 154 2.11 169 2.11 148 2.11
  49  0.400  0.300  0.503- 147 2.11 128 2.11 148 2.11 151 2.11 149 2.11
  50  0.500  0.200  0.503- 148 2.11 147 2.11 144 2.11 167 2.11 150 2.11
  51  0.400  0.400  0.407- 134 2.11 149 2.11 153 2.11 154 2.11 151 2.11
  52  0.500  0.500  0.407- 153 2.11 154 2.11 158 2.11 173 2.11 152 2.11
  53  0.400  0.500  0.503- 132 2.11 151 2.11 152 2.11 155 2.11 153 2.11
  54  0.500  0.400  0.503- 148 2.11 151 2.11 152 2.11 171 2.11 154 2.11
  55  0.400  0.600  0.407- 138 2.11 153 2.11 157 2.11 158 2.11 155 2.11
  56  0.500  0.700  0.407- 162 2.11 158 2.11 157 2.11 177 2.11 156 2.11
  57  0.400  0.700  0.503- 159 2.11 155 2.11 156 2.11 136 2.11 157 2.11
  58  0.500  0.600  0.503- 152 2.11 155 2.11 156 2.11 175 2.11 158 2.11
  59  0.400  0.800  0.407- 157 2.11 142 2.11 161 2.11 162 2.11 159 2.11
  60  0.500  0.900  0.407- 146 2.11 161 2.11 162 2.11 181 2.11 160 2.11
[...]
 188  0.900  0.300  0.503-  90 2.11  89 2.11   9 2.11  94 2.11  88 2.11
 189  0.800  0.300  0.407-  68 2.11  87 2.11  88 2.11  91 2.11  89 2.11
 190  0.900  0.200  0.407-  88 2.11  84 2.11  87 2.11   7 2.11  90 2.11
 191  0.800  0.400  0.503-  74 2.11  89 2.11  93 2.11  94 2.11  91 2.11
 192  0.900  0.500  0.503-  13 2.11  93 2.11  94 2.11  98 2.11  92 2.11
 193  0.800  0.500  0.407-  72 2.11  91 2.11  92 2.11  95 2.11  93 2.11
 194  0.900  0.400  0.407-  11 2.11  88 2.11  91 2.11  92 2.11  94 2.11
 195  0.800  0.600  0.503-  78 2.11  93 2.11  97 2.11  98 2.11  95 2.11
 196  0.900  0.700  0.503- 102 2.11  97 2.11  98 2.11  17 2.11  96 2.11
 197  0.800  0.700  0.407-  76 2.11  99 2.11  96 2.11  95 2.11  97 2.11
 198  0.900  0.600  0.407-  15 2.11  92 2.11  95 2.11  96 2.11  98 2.11
 199  0.800  0.800  0.503-  82 2.11  97 2.11 101 2.11 102 2.11  99 2.11
 200  0.900  0.900  0.503-  21 2.11  86 2.11 101 2.11 102 2.11 100 2.11
 201  0.800  0.900  0.407-  80 2.11  83 2.11  99 2.11 100 2.11 101 2.11
 202  0.900  0.800  0.407-  96 2.11  19 2.11  99 2.11 100 2.11 102 2.11

  LATTYP: Found a simple tetragonal cell.
 ALAT       =    21.1388521970
 C/A-ratio  =     1.0461251639

  Lattice vectors:

 A1 = (  21.1388521970,   0.0000000000,   0.0000000000)
 A2 = (   0.0000000000,  21.1388521970,   0.0000000000)
 A3 = (   0.0000000000,   0.0000000000,  22.1138852197)

Analysis of symmetry for initial positions (statically):
 Subroutine PRICEL returns:
 Original cell was already a primitive cell.

 Routine SETGRP: Setting up the symmetry group for a
 simple tetragonal supercell.

 Subroutine GETGRP returns: Found  4 space group operations
 (whereof  4 operations were pure point group operations)
 out of a pool of 16 trial point group operations.

The static configuration has the point symmetry C_2v.

Analysis of symmetry for dynamics (positions and initial velocities):
 Subroutine PRICEL returns:
 Original cell was already a primitive cell.

 Routine SETGRP: Setting up the symmetry group for a
 simple tetragonal supercell.

 Subroutine GETGRP returns: Found  4 space group operations
 (whereof  4 operations were pure point group operations)
 out of a pool of 16 trial point group operations.

The dynamic configuration has the point symmetry C_2v.

 Subroutine INISYM returns: Found  4 space group operations
 (whereof  4 operations are pure point group operations),
 and found     1 'primitive' translations

                                     Primitive cell

  volume of cell :    9881.6133

  direct lattice vectors                    reciprocal lattice vectors
    21.138852197  0.000000000  0.000000000     0.047306258  0.000000000  0.000000000
     0.000000000 21.138852197  0.000000000     0.000000000  0.047306258  0.000000000
     0.000000000  0.000000000 22.113885220     0.000000000  0.000000000  0.045220457

  length of vectors
    21.138852197 21.138852197 22.113885220     0.047306258  0.047306258  0.045220457

  position of ions in fractional coordinates (direct lattice)
     0.543282734  0.456717266  0.625334806
     0.456717266  0.543282734  0.625334806
     0.000000000  0.000000000  0.406984115
     0.100000000  0.100000000  0.406984115
     0.000000000  0.100000000  0.502574971
     0.100000000  0.000000000  0.502574971
     0.000000000  0.200000000  0.406984115
     0.100000000  0.300000000  0.406984115
[...]
|           WW  WW  A    A  R   R   N   NN  II  N   NN  G    G                |
|           W    W  A    A  R    R  N    N  II  N    N   GGGG   !!!           |
|     Specifying the vdW parameters                                           |
|     VDW_A1 = 0.524                                                          |
|     VDW_A2 = 3.502                                                          |
|     VDW_S8 = 2.355                                                          |
|     in the INCAR file will overwrite the defaults for revpbe. Please        |
|     make sure that is what you intended.                                    |

         DFTD3 V3.0 Rev 1
 IVDW         = 12
 DF revpbe
 parameters
 VDW_S6       =    1.0000
 VDW_S8       =    2.3550
 VDW_A1       =    0.5238
 VDW_A2       =    3.5016
 k1-k3        =   16.0000    1.3333   -4.0000
 VDW_RADIUS   =   50.2022 A
 VDW_CNRADIUS =   21.1671 A
 Edisp (eV)  -64.80313

 E6    (eV) :   -20.4803
 E8    (eV) :   -44.3229
 % E8        : 68.40

  FORCE on cell =-STRESS in cart. coord.  units (eV):
  Direction    XX          YY          ZZ          XY          YZ          ZX
  Alpha Z  1357.53553  1357.53553  1357.53553
  Ewald  479361.88727479361.88727************  -323.89554     0.00000     0.00000
  Hartree508044.87159508044.87159************  -243.27927    -0.00000    -0.00000
  E(xc)   -7791.58582 -7791.58582 -7841.45804    -0.49615    -0.00000    -0.00000
  Local  ************************************   563.56342    -0.00000    -0.00000
  n-local -8729.28497 -8729.28497 -8849.68274     1.68612    -0.00001    -0.00000
  augment  3462.78286  3462.78286  3405.03711     0.40281     0.00000     0.00000
  Kinetic 22973.60916 22973.60918 23221.69239     2.21640    -0.00002     0.00000
  Fock        0.00000     0.00000     0.00000     0.00000     0.00000     0.00000
  vdW       -66.55296   -66.55296   -21.55786     0.01351    -0.00000    -0.00000
  Total    -170.08389  -170.08389    19.22929     0.21130     0.00000     0.00000
  in kB     -27.57693   -27.57693     3.11778     0.03426     0.00000     0.00000

 VOLUME and BASIS-vectors are now :
  energy-cutoff  :      520.00
  volume of cell :     9881.61
      direct lattice vectors                 reciprocal lattice vectors
    21.138852197  0.000000000  0.000000000     0.047306258  0.000000000  0.000000000
     0.000000000 21.138852197  0.000000000     0.000000000  0.047306258  0.000000000
     0.000000000  0.000000000 22.113885220     0.000000000  0.000000000  0.045220457

  length of vectors
    21.138852197 21.138852197 22.113885220     0.047306258  0.047306258  0.045220457

 FORCES acting on ions:
    Electron-Ion                     Ewald-Force                    Non-Local-Force
   -.187E+03 0.187E+03 -.205E+04   0.183E+03 -.183E+03 0.205E+04   0.467E+01 -.467E+01 -.408E+00
   0.187E+03 -.187E+03 -.205E+04   -.183E+03 0.183E+03 0.205E+04   -.467E+01 0.467E+01 -.408E+00
   -.471E-10 0.824E-09 0.931E+03   0.974E-10 -.170E-08 -.923E+03   0.000E+00 0.000E+00 -.752E+01
   0.379E+01 0.379E+01 0.932E+03   -.378E+01 -.378E+01 -.924E+03   -.395E-02 -.395E-02 -.753E+01
   -.281E+00 0.419E+01 -.923E+03   0.293E+00 -.419E+01 0.915E+03   -.977E-02 0.221E-02 0.750E+01
   0.419E+01 -.281E+00 -.923E+03   -.419E+01 0.293E+00 0.915E+03   0.221E-02 -.977E-02 0.750E+01
   -.369E+00 0.579E+01 0.932E+03   0.390E+00 -.579E+01 -.925E+03   -.165E-01 0.468E-02 -.753E+01
   0.753E+01 0.737E+01 0.935E+03   -.751E+01 -.738E+01 -.928E+03   -.110E-01 0.815E-02 -.753E+01
   -.703E+00 0.763E+01 -.920E+03   0.732E+00 -.764E+01 0.913E+03   -.228E-01 0.331E-02 0.749E+01
   0.679E+01 0.845E+01 -.921E+03   -.677E+01 -.845E+01 0.913E+03   -.143E-01 -.795E-03 0.749E+01
   -.326E+00 0.393E+01 0.935E+03   0.345E+00 -.394E+01 -.928E+03   -.150E-01 0.279E-02 -.753E+01
   0.115E+02 0.415E+00 0.939E+03   -.116E+02 -.432E+00 -.931E+03   0.219E-01 0.132E-01 -.753E+01
   0.145E-09 -.124E-08 -.919E+03   -.299E-09 0.256E-08 0.911E+03   0.000E+00 0.000E+00 0.749E+01
   0.146E+02 0.699E+01 -.917E+03   -.146E+02 -.701E+01 0.910E+03   -.103E-01 0.132E-01 0.749E+01
   0.326E+00 -.393E+01 0.935E+03   -.345E+00 0.394E+01 -.928E+03   0.150E-01 -.279E-02 -.753E+01
   0.857E+01 -.740E+01 0.936E+03   -.862E+01 0.740E+01 -.928E+03   0.393E-01 -.537E-02 -.753E+01
   0.703E+00 -.763E+01 -.920E+03   -.732E+00 0.764E+01 0.913E+03   0.228E-01 -.331E-02 0.749E+01
   0.162E+02 -.615E+01 -.917E+03   -.162E+02 0.614E+01 0.909E+03   0.402E-01 0.801E-02 0.749E+01
   0.369E+00 -.579E+01 0.932E+03   -.390E+00 0.579E+01 -.925E+03   0.165E-01 -.468E-02 -.753E+01
   0.418E+01 -.418E+01 0.932E+03   -.419E+01 0.419E+01 -.924E+03   0.121E-01 -.121E-01 -.752E+01
   0.281E+00 -.419E+01 -.923E+03   -.293E+00 0.419E+01 0.915E+03   0.977E-02 -.221E-02 0.750E+01
   0.806E+01 -.901E+01 -.921E+03   -.810E+01 0.902E+01 0.913E+03   0.289E-01 -.106E-01 0.750E+01
   0.579E+01 -.369E+00 0.932E+03   -.579E+01 0.390E+00 -.925E+03   0.468E-02 -.165E-01 -.753E+01
   0.737E+01 0.753E+01 0.935E+03   -.738E+01 -.751E+01 -.928E+03   0.815E-02 -.110E-01 -.753E+01
   0.845E+01 0.679E+01 -.921E+03   -.845E+01 -.677E+01 0.913E+03   -.795E-03 -.143E-01 0.749E+01
   0.763E+01 -.703E+00 -.920E+03   -.764E+01 0.732E+00 0.913E+03   0.331E-02 -.228E-01 0.749E+01
   0.967E+01 0.967E+01 0.936E+03   -.967E+01 -.967E+01 -.928E+03   -.134E-02 -.134E-02 -.753E+01
   0.188E+02 0.188E+02 0.949E+03   -.189E+02 -.189E+02 -.941E+03   0.182E-01 0.182E-01 -.756E+01
   0.217E+02 0.166E+02 -.915E+03   -.216E+02 -.166E+02 0.907E+03   -.270E-01 0.939E-02 0.749E+01
   0.166E+02 0.217E+02 -.915E+03   -.166E+02 -.216E+02 0.907E+03   0.939E-02 -.270E-01 0.749E+01
   0.204E+02 0.873E+01 0.945E+03   -.204E+02 -.878E+01 -.937E+03   0.442E-02 0.344E-01 -.754E+01
   0.338E+02 0.216E+01 0.968E+03   -.339E+02 -.228E+01 -.961E+03   0.699E-01 0.956E-01 -.753E+01
   0.404E+02 0.239E+01 -.906E+03   -.405E+02 -.244E+01 0.898E+03   0.350E-01 0.434E-01 0.749E+01
   0.554E+02 0.317E+02 -.888E+03   -.553E+02 -.318E+02 0.880E+03   -.876E-01 0.812E-01 0.745E+01
   0.217E+02 -.758E+01 0.946E+03   -.218E+02 0.756E+01 -.939E+03   0.104E+00 0.135E-01 -.754E+01
   0.199E+02 -.199E+02 0.952E+03   -.199E+02 0.199E+02 -.944E+03   0.640E-01 -.640E-01 -.749E+01
   0.249E+02 -.177E+02 -.913E+03   -.250E+02 0.177E+02 0.905E+03   0.925E-01 -.947E-02 0.750E+01
   0.654E+02 -.291E+02 -.877E+03   -.660E+02 0.290E+02 0.869E+03   0.445E+00 0.631E-01 0.753E+01
   0.105E+02 -.105E+02 0.937E+03   -.105E+02 0.105E+02 -.929E+03   0.300E-01 -.300E-01 -.752E+01
   0.740E+01 -.857E+01 0.936E+03   -.740E+01 0.862E+01 -.928E+03   0.537E-02 -.393E-01 -.753E+01
   0.901E+01 -.806E+01 -.921E+03   -.902E+01 0.810E+01 0.913E+03   0.106E-01 -.289E-01 0.750E+01
   0.177E+02 -.249E+02 -.913E+03   -.177E+02 0.250E+02 0.905E+03   0.947E-02 -.925E-01 0.750E+01
   0.393E+01 -.326E+00 0.935E+03   -.394E+01 0.345E+00 -.928E+03   0.279E-02 -.150E-01 -.753E+01
   0.415E+00 0.115E+02 0.939E+03   -.432E+00 -.116E+02 -.931E+03   0.132E-01 0.219E-01 -.753E+01
   0.699E+01 0.146E+02 -.917E+03   -.701E+01 -.146E+02 0.910E+03   0.132E-01 -.103E-01 0.749E+01
   0.145E-09 0.372E-08 -.919E+03   -.299E-09 -.769E-08 0.911E+03   0.000E+00 0.000E+00 0.749E+01
   0.873E+01 0.204E+02 0.945E+03   -.878E+01 -.204E+02 -.937E+03   0.344E-01 0.442E-02 -.754E+01
   0.216E+01 0.338E+02 0.968E+03   -.228E+01 -.339E+02 -.961E+03   0.956E-01 0.699E-01 -.753E+01
   0.317E+02 0.554E+02 -.888E+03   -.318E+02 -.553E+02 0.880E+03   0.812E-01 -.876E-01 0.745E+01
   0.239E+01 0.404E+02 -.906E+03   -.244E+01 -.405E+02 0.898E+03   0.434E-01 0.350E-01 0.749E+01
   0.250E+02 0.250E+02 0.984E+03   -.252E+02 -.252E+02 -.976E+03   0.101E+00 0.101E+00 -.769E+01
   -.974E-09 -.833E-08 0.102E+04   0.201E-08 0.172E-07 -.101E+04   0.000E+00 0.000E+00 -.746E+01
   0.101E+03 0.219E+02 -.766E+03   -.101E+03 -.227E+02 0.759E+03   0.144E+00 0.516E+00 0.670E+01
   0.219E+02 0.101E+03 -.766E+03   -.227E+02 -.101E+03 0.759E+03   0.516E+00 0.144E+00 0.670E+01
   0.237E+02 -.237E+02 0.989E+03   -.237E+02 0.237E+02 -.982E+03   -.239E-01 0.239E-01 -.694E+01
   -.216E+01 -.338E+02 0.968E+03   0.228E+01 0.339E+02 -.961E+03   -.956E-01 -.699E-01 -.753E+01
   0.291E+02 -.654E+02 -.877E+03   -.290E+02 0.660E+02 0.869E+03   -.631E-01 -.445E+00 0.753E+01
   -.219E+02 -.101E+03 -.766E+03   0.227E+02 0.101E+03 0.759E+03   -.516E+00 -.144E+00 0.670E+01
   0.758E+01 -.217E+02 0.946E+03   -.756E+01 0.218E+02 -.939E+03   -.135E-01 -.104E+00 -.754E+01
   -.415E+00 -.115E+02 0.939E+03   0.432E+00 0.116E+02 -.931E+03   -.132E-01 -.219E-01 -.753E+01
[...]
   -.120E+02 0.881E+01 0.708E+03   0.121E+02 -.883E+01 -.712E+03   -.651E-01 0.285E-01 0.346E+01
   -.450E+01 0.525E+01 0.702E+03   0.452E+01 -.526E+01 -.706E+03   -.253E-01 0.154E-01 0.346E+01
   -.275E+02 0.888E+01 -.682E+03   0.276E+02 -.886E+01 0.686E+03   -.753E-01 -.309E-01 -.350E+01
   -.129E+02 -.547E+00 -.689E+03   0.129E+02 0.562E+00 0.693E+03   -.145E-01 -.204E-01 -.350E+01
   -.178E+02 -.804E+00 0.712E+03   0.178E+02 0.843E+00 -.717E+03   -.405E-01 -.537E-01 0.345E+01
   -.818E+01 0.346E+01 0.705E+03   0.820E+01 -.346E+01 -.709E+03   -.325E-01 -.633E-02 0.345E+01
   -.246E+02 -.104E+02 -.684E+03   0.246E+02 0.105E+02 0.688E+03   0.222E-02 -.400E-01 -.353E+01
   -.779E+01 -.722E+01 -.691E+03   0.778E+01 0.723E+01 0.695E+03   0.123E-01 -.604E-02 -.350E+01
   -.110E+02 -.861E+01 0.707E+03   0.110E+02 0.862E+01 -.711E+03   0.604E-02 -.979E-02 0.344E+01
   -.755E+01 -.385E+01 0.705E+03   0.755E+01 0.386E+01 -.709E+03   -.298E-03 -.167E-01 0.345E+01
   -.984E+01 -.984E+01 -.691E+03   0.984E+01 0.984E+01 0.695E+03   0.112E-01 0.112E-01 -.350E+01
   -.352E+01 -.352E+01 -.693E+03   0.351E+01 0.351E+01 0.697E+03   0.553E-02 0.553E-02 -.349E+01
   -.501E+01 -.390E+01 0.701E+03   0.501E+01 0.390E+01 -.706E+03   -.850E-03 0.886E-02 0.345E+01
   -.390E+01 -.501E+01 0.701E+03   0.390E+01 0.501E+01 -.706E+03   0.886E-02 -.850E-03 0.345E+01
   0.946E-09 0.801E-06 0.898E+01   0.149E-11 0.146E-11 0.152E-10   0.567E-15 0.567E-15 -.964E+01

 POSITION                                       TOTAL-FORCE (eV/Angst)
     11.48437      9.65448     13.82858         0.147060     -0.147060     -0.045230
      9.65448     11.48437     13.82858        -0.147060      0.147060     -0.045230
      0.00000      0.00000      9.00000         0.000000      0.000000      0.354845
      2.11389      2.11389      9.00000         0.001108      0.001108      0.355252
      0.00000      2.11389     11.11389         0.002619     -0.000583     -0.348610
      2.11389      0.00000     11.11389        -0.000583      0.002619     -0.348610
      0.00000      4.22777      9.00000         0.004388     -0.001284      0.355053
      2.11389      6.34166      9.00000         0.002939     -0.002083      0.355946
      0.00000      6.34166     11.11389         0.006028     -0.000840     -0.347718
      2.11389      4.22777     11.11389         0.003970      0.000428     -0.347579
      0.00000      8.45554      9.00000         0.003838     -0.000753      0.355441
      2.11389     10.56943      9.00000        -0.005615     -0.003887      0.356035
      0.00000     10.56943     11.11389         0.000000      0.000000     -0.347015
      2.11389      8.45554     11.11389         0.003419     -0.003497     -0.345659
      0.00000     12.68331      9.00000        -0.003838      0.000753      0.355441
      2.11389     14.79720      9.00000        -0.010208      0.001558      0.354922
      0.00000     14.79720     11.11389        -0.006028      0.000840     -0.347718
      2.11389     12.68331     11.11389        -0.009578     -0.002491     -0.346748
      0.00000     16.91108      9.00000        -0.004388      0.001284      0.355053
      2.11389     19.02497      9.00000        -0.003337      0.003337      0.354588
      0.00000     19.02497     11.11389        -0.002619      0.000583     -0.348610
      2.11389     16.91108     11.11389        -0.007586      0.002946     -0.348289
      4.22777      0.00000      9.00000        -0.001284      0.004388      0.355053
      6.34166      2.11389      9.00000        -0.002083      0.002939      0.355946
      4.22777      2.11389     11.11389         0.000428      0.003970     -0.347579
      6.34166      0.00000     11.11389        -0.000840      0.006028     -0.347718
      4.22777      4.22777      9.00000         0.000705      0.000705      0.356956
      6.34166      6.34166      9.00000        -0.002844     -0.002844      0.365214
      4.22777      6.34166     11.11389         0.008707     -0.001138     -0.342614
      6.34166      4.22777     11.11389        -0.001138      0.008707     -0.342614
      4.22777      8.45554      9.00000        -0.001203     -0.009335      0.358330
      6.34166     10.56943      9.00000        -0.016162     -0.030128      0.359675
      4.22777     10.56943     11.11389        -0.004424     -0.012487     -0.338265
      6.34166      8.45554     11.11389         0.046586     -0.006839     -0.303475
      4.22777     12.68331      9.00000        -0.025108     -0.004250      0.357560
      6.34166     14.79720      9.00000        -0.020247      0.020247      0.343907
      4.22777     14.79720     11.11389        -0.022781      0.002212     -0.347209
      6.34166     12.68331     11.11389        -0.115604     -0.031636     -0.332920
      4.22777     16.91108      9.00000        -0.008460      0.008460      0.353065
      6.34166     19.02497      9.00000        -0.001558      0.010208      0.354922
      4.22777     19.02497     11.11389        -0.002946      0.007586     -0.348289
      6.34166     16.91108     11.11389        -0.002212      0.022781     -0.347209
      8.45554      0.00000      9.00000        -0.000753      0.003838      0.355441
     10.56943      2.11389      9.00000        -0.003887     -0.005615      0.356035
      8.45554      2.11389     11.11389        -0.003497      0.003419     -0.345659
     10.56943      0.00000     11.11389         0.000000      0.000000     -0.347015
      8.45554      4.22777      9.00000        -0.009335     -0.001203      0.358330
     10.56943      6.34166      9.00000        -0.030128     -0.016162      0.359675
      8.45554      6.34166     11.11389        -0.006839      0.046586     -0.303475
     10.56943      4.22777     11.11389        -0.012487     -0.004424     -0.338265
      8.45554      8.45554      9.00000        -0.020797     -0.020797      0.401466
     10.56943     10.56943      9.00000         0.000000      0.000000      0.310257
      8.45554     10.56943     11.11389        -0.076301     -0.240414     -0.266700
     10.56943      8.45554     11.11389        -0.240414     -0.076301     -0.266700
      8.45554     12.68331      9.00000         0.014427     -0.014427      0.230839
     10.56943     14.79720      9.00000         0.030128      0.016162      0.359675
      8.45554     14.79720     11.11389         0.031636      0.115604     -0.332920
     10.56943     12.68331     11.11389         0.240414      0.076301     -0.266700
      8.45554     16.91108      9.00000         0.004250      0.025108      0.357560
     10.56943     19.02497      9.00000         0.003887      0.005615      0.356035
[...]
     19.02497      6.34166     11.11389        -0.009608      0.001943      0.583486
     16.91108      6.34166      9.00000        -0.018419      0.008129     -0.588314
     19.02497      4.22777      9.00000        -0.007018      0.004308     -0.590562
     16.91108      8.45554     11.11389        -0.022683     -0.008087      0.582125
     19.02497     10.56943     11.11389        -0.004250     -0.005693      0.581496
     16.91108     10.56943      9.00000        -0.012698     -0.014662     -0.592612
     19.02497      8.45554      9.00000        -0.009185     -0.001659     -0.590894
     16.91108     12.68331     11.11389        -0.000508     -0.011612      0.575872
     19.02497     14.79720     11.11389         0.003319     -0.001728      0.582230
     16.91108     14.79720      9.00000         0.001389     -0.002961     -0.594301
     19.02497     12.68331      9.00000        -0.000202     -0.004696     -0.592374
     16.91108     16.91108     11.11389         0.002976      0.002976      0.581366
     19.02497     19.02497     11.11389         0.001494      0.001494      0.584027
     16.91108     19.02497      9.00000        -0.000287      0.002427     -0.591734
     19.02497     16.91108      9.00000         0.002427     -0.000287     -0.591734
    total drift:                                0.000000      0.000001     -0.663509

  FREE ENERGIE OF THE ION-ELECTRON SYSTEM (eV)
  free  energy   TOTEN  =     -1153.13649093 eV

  energy  without entropy=    -1153.13649093  energy(sigma->0) =    -1153.13649093