 vasp.6.3.0 20Jan22 (build Apr  1 2022 16:44:48) complex
 executed on        HPECrayEX_GCC date 2022.11.18  13:12:33

 INCAR:
   SYSTEM = MgO-rocksalt
   ISMEAR = 0
   SIGMA = 0.05
   EDIFF = 1E-6
   ALGO = ALL
   ISTART = 0
   IBRION = -1
   NSW = 0
   ISYM = 2
   DIPOL = 0.5 0.5 0.5
   IDIPOL = 3
   LDIPOL = .TRUE.
   GGA = RE
   LUSE_VDW = .TRUE.
   AGGAC = 0.0
   ENCUT = 520
   PREC = Accurate
   LASPH = .TRUE.
   LREAL = Auto
   ISPIN = 1
   NELM = 200
   NELMIN = 8
   NCORE = 4
   KPAR = 2
   LWAVE = .FALSE.
   LCHARG = .FALSE.

 POTCAR:    PAW_PBE Cu 22Jun2005
 POTCAR:    PAW_PBE Mg_pv 13Apr2007
 POTCAR:    PAW_PBE O 08Apr2002
|               ----> ADVICE to this user running VASP <----                  |
|     You have switched on vdW-DFT.                                           |
|     This routine was written and supplied by Jiri Klimes. We recommend      |
|     that you carefully read and cite the following publications:            |
|       J. Klimes, D.R. Bowler, A. Michelides                                 |
|          J. Phys.: Cond Matt. 22 022201 (2010)                              |
|       J. Klimes, D.R. Bowler, A. Michelides                                 |
|          Phys. Rev. B. 83, 195131 (2011)                                    |
|     and references therein.                                                 |

   TITEL  = PAW_PBE Cu 22Jun2005
   POMASS =   63.546; ZVAL   =   11.000    mass and valenz
   ENMAX  =  295.446; ENMIN  =  221.585 eV

   TITEL  = PAW_PBE Mg_pv 13Apr2007
   POMASS =   24.305; ZVAL   =    8.000    mass and valenz
   ENMAX  =  403.929; ENMIN  =  302.947 eV

   TITEL  = PAW_PBE O 08Apr2002
   POMASS =   16.000; ZVAL   =    6.000    mass and valenz
   ENMAX  =  400.000; ENMIN  =  300.000 eV

 Optimization of the real space projectors (new method)

 maximal supplied QI-value         = 16.25
 optimisation between [QCUT,QGAM] = [ 11.54, 23.24] = [ 37.28,151.24] Ry
 Optimized for a Real-space Cutoff    1.53 Angstroem

   l    n(q)    QCUT    max X(q) W(low)/X(q) W(high)/X(q)  e(spline)
   2     10    11.539     4.610    0.96E-04    0.13E-03    0.19E-06
   2     10    11.539     8.522    0.16E-03    0.21E-03    0.28E-06
   0     11    11.539    51.609    0.45E-04    0.31E-04    0.11E-06
   0     11    11.539    27.747    0.39E-04    0.29E-04    0.10E-06
   1     10    11.539    20.408    0.70E-05    0.38E-04    0.18E-06
   1     10    11.539    13.425    0.66E-05    0.34E-04    0.17E-06
 Optimization of the real space projectors (new method)

[...]

   l    n(q)    QCUT    max X(q) W(low)/X(q) W(high)/X(q)  e(spline)
   1      8    11.527     2.974    0.44E-04    0.56E-04    0.12E-06
   1      8    11.527     4.279    0.12E-03    0.12E-03    0.26E-06
   0      9    11.527    16.381    0.46E-04    0.64E-04    0.78E-07
   0      9    11.527     5.611    0.26E-04    0.43E-04    0.55E-07
   2      8    11.527     4.652    0.22E-03    0.72E-04    0.47E-07
 Optimization of the real space projectors (new method)

 maximal supplied QI-value         = 24.76
 optimisation between [QCUT,QGAM] = [ 11.64, 23.27] = [ 37.91,151.63] Ry
 Optimized for a Real-space Cutoff    1.14 Angstroem

   l    n(q)    QCUT    max X(q) W(low)/X(q) W(high)/X(q)  e(spline)
   0      8    11.635    20.381    0.10E-03    0.33E-03    0.24E-06
   0      8    11.635    15.268    0.11E-03    0.35E-03    0.26E-06
   1      7    11.635     5.964    0.24E-03    0.31E-03    0.30E-06
   1      7    11.635     5.382    0.22E-03    0.25E-03    0.26E-06
|               ----> ADVICE to this user running VASP <----                  |
|     You enforced a specific xc type in the INCAR file but a different       |
|     type was found in the POTCAR file.                                      |
|     I HOPE YOU KNOW WHAT YOU ARE DOING!                                     |

  PAW_PBE Cu 22Jun2005                  :
  PAW_PBE Mg_pv 13Apr2007               :
  PAW_PBE O 08Apr2002                   :

 POSCAR: Cu Mg  O
  positions in direct lattice
 exchange correlation table for  LEXCH =       40
   RHO(1)=    0.500       N(1)  =     2000
   RHO(2)=  100.500       N(2)  =     4000

 ion  position               nearest neighbor table
   1  0.487  0.413  0.634-   2 2.23
   2  0.413  0.487  0.634-   1 2.23
   3  0.000  0.000  0.407- 105 2.11 106 2.11 121 2.11 186 2.11 103 2.11
   4  0.100  0.100  0.407- 105 2.11 106 2.11 110 2.11 125 2.11 104 2.11
   5  0.000  0.100  0.503- 103 2.11 104 2.11 107 2.11 184 2.11 105 2.11
   6  0.100  0.000  0.503- 103 2.11 104 2.11 120 2.11 123 2.11 106 2.11
   7  0.000  0.200  0.407- 109 2.11 105 2.11 110 2.11 190 2.11 107 2.11
   8  0.100  0.300  0.407- 110 2.11 109 2.11 114 2.11 129 2.11 108 2.11
   9  0.000  0.300  0.503- 107 2.11 108 2.11 111 2.11 188 2.11 109 2.11
  10  0.100  0.200  0.503- 108 2.11 107 2.11 104 2.11 127 2.11 110 2.11
  11  0.000  0.400  0.407- 109 2.11 113 2.11 114 2.11 194 2.11 111 2.11
  12  0.100  0.500  0.407- 113 2.11 114 2.11 118 2.11 133 2.11 112 2.11
  13  0.000  0.500  0.503- 111 2.11 112 2.11 115 2.11 192 2.11 113 2.11
  14  0.100  0.400  0.503- 108 2.11 111 2.11 112 2.11 131 2.11 114 2.11
  15  0.000  0.600  0.407- 113 2.11 117 2.11 118 2.11 198 2.11 115 2.11
  16  0.100  0.700  0.407- 122 2.11 118 2.11 117 2.11 137 2.11 116 2.11
  17  0.000  0.700  0.503- 119 2.11 116 2.11 115 2.11 196 2.11 117 2.11
  18  0.100  0.600  0.503- 112 2.11 115 2.11 116 2.11 135 2.11 118 2.11
  19  0.000  0.800  0.407- 117 2.11 121 2.11 122 2.11 202 2.11 119 2.11
  20  0.100  0.900  0.407- 106 2.11 121 2.11 122 2.11 141 2.11 120 2.11
  21  0.000  0.900  0.503- 103 2.11 119 2.11 120 2.11 200 2.11 121 2.11
  22  0.100  0.800  0.503- 116 2.11 119 2.11 120 2.11 139 2.11 122 2.11
  23  0.200  0.000  0.407- 126 2.11 125 2.11 106 2.11 141 2.11 123 2.11
  24  0.300  0.100  0.407- 125 2.11 126 2.11 130 2.11 145 2.11 124 2.11
  25  0.200  0.100  0.503- 124 2.11 123 2.11 104 2.11 127 2.11 125 2.11
  26  0.300  0.000  0.503- 123 2.11 124 2.11 140 2.11 143 2.11 126 2.11
  27  0.200  0.200  0.407- 129 2.11 130 2.11 110 2.11 125 2.11 127 2.11
  28  0.300  0.300  0.407- 129 2.11 130 2.11 134 2.11 149 2.11 128 2.11
  29  0.200  0.300  0.503- 127 2.11 128 2.11 108 2.11 131 2.11 129 2.11
  30  0.300  0.200  0.503- 127 2.11 128 2.11 124 2.11 147 2.11 130 2.11
  31  0.200  0.400  0.407- 134 2.11 129 2.11 133 2.11 114 2.11 131 2.11
  32  0.300  0.500  0.407- 133 2.11 134 2.11 138 2.11 153 2.11 132 2.11
  33  0.200  0.500  0.503- 132 2.11 131 2.11 112 2.11 135 2.11 133 2.11
  34  0.300  0.400  0.503- 131 2.11 128 2.11 132 2.11 151 2.11 134 2.11
  35  0.200  0.600  0.407- 138 2.11 133 2.11 137 2.11 118 2.11 135 2.11
  36  0.300  0.700  0.407- 137 2.11 142 2.11 138 2.11 157 2.11 136 2.11
  37  0.200  0.700  0.503- 136 2.11 139 2.11 116 2.11 135 2.11 137 2.11
  38  0.300  0.600  0.503- 135 2.11 132 2.11 136 2.11 155 2.11 138 2.11
  39  0.200  0.800  0.407- 137 2.11 142 2.11 141 2.11 122 2.11 139 2.11
  40  0.300  0.900  0.407- 141 2.11 126 2.11 142 2.11 161 2.11 140 2.11
  41  0.200  0.900  0.503- 140 2.11 123 2.11 139 2.11 120 2.11 141 2.11
  42  0.300  0.800  0.503- 136 2.11 139 2.11 140 2.11 159 2.11 142 2.11
  43  0.400  0.000  0.407- 126 2.11 145 2.11 146 2.11 161 2.11 143 2.11
  44  0.500  0.100  0.407- 145 2.11 146 2.11 150 2.11 165 2.11 144 2.11
  45  0.400  0.100  0.503- 124 2.11 143 2.11 144 2.11 147 2.11 145 2.11
  46  0.500  0.000  0.503- 143 2.11 144 2.11 160 2.11 163 2.11 146 2.11
  47  0.400  0.200  0.407- 149 2.11 145 2.11 130 2.11 150 2.11 147 2.11
  48  0.500  0.300  0.407- 150 2.11 149 2.11 154 2.11 169 2.11 148 2.11
  49  0.400  0.300  0.503- 147 2.11 128 2.11 148 2.11 151 2.11 149 2.11
  50  0.500  0.200  0.503- 148 2.11 147 2.11 144 2.11 167 2.11 150 2.11
  51  0.400  0.400  0.407- 134 2.11 149 2.11 153 2.11 154 2.11 151 2.11
  52  0.500  0.500  0.407- 153 2.11 154 2.11 158 2.11 173 2.11 152 2.11
  53  0.400  0.500  0.503- 132 2.11 151 2.11 152 2.11 155 2.11 153 2.11
  54  0.500  0.400  0.503- 148 2.11 151 2.11 152 2.11 171 2.11 154 2.11
  55  0.400  0.600  0.407- 138 2.11 153 2.11 157 2.11 158 2.11 155 2.11
  56  0.500  0.700  0.407- 162 2.11 158 2.11 157 2.11 177 2.11 156 2.11
  57  0.400  0.700  0.503- 159 2.11 155 2.11 156 2.11 136 2.11 157 2.11
  58  0.500  0.600  0.503- 152 2.11 155 2.11 156 2.11 175 2.11 158 2.11
  59  0.400  0.800  0.407- 157 2.11 142 2.11 161 2.11 162 2.11 159 2.11
  60  0.500  0.900  0.407- 146 2.11 161 2.11 162 2.11 181 2.11 160 2.11
[...]
 188  0.900  0.300  0.503-  90 2.11  89 2.11   9 2.11  94 2.11  88 2.11
 189  0.800  0.300  0.407-  68 2.11  87 2.11  88 2.11  91 2.11  89 2.11
 190  0.900  0.200  0.407-  88 2.11  84 2.11  87 2.11   7 2.11  90 2.11
 191  0.800  0.400  0.503-  74 2.11  89 2.11  93 2.11  94 2.11  91 2.11
 192  0.900  0.500  0.503-  13 2.11  93 2.11  94 2.11  98 2.11  92 2.11
 193  0.800  0.500  0.407-  72 2.11  91 2.11  92 2.11  95 2.11  93 2.11
 194  0.900  0.400  0.407-  11 2.11  88 2.11  91 2.11  92 2.11  94 2.11
 195  0.800  0.600  0.503-  78 2.11  93 2.11  97 2.11  98 2.11  95 2.11
 196  0.900  0.700  0.503- 102 2.11  97 2.11  98 2.11  17 2.11  96 2.11
 197  0.800  0.700  0.407-  76 2.11  99 2.11  96 2.11  95 2.11  97 2.11
 198  0.900  0.600  0.407-  15 2.11  92 2.11  95 2.11  96 2.11  98 2.11
 199  0.800  0.800  0.503-  82 2.11  97 2.11 101 2.11 102 2.11  99 2.11
 200  0.900  0.900  0.503-  21 2.11  86 2.11 101 2.11 102 2.11 100 2.11
 201  0.800  0.900  0.407-  80 2.11  83 2.11  99 2.11 100 2.11 101 2.11
 202  0.900  0.800  0.407-  96 2.11  19 2.11  99 2.11 100 2.11 102 2.11

  LATTYP: Found a simple tetragonal cell.
 ALAT       =    21.1388521970
 C/A-ratio  =     1.0461251639

  Lattice vectors:

 A1 = (  21.1388521970,   0.0000000000,   0.0000000000)
 A2 = (   0.0000000000,  21.1388521970,   0.0000000000)
 A3 = (   0.0000000000,   0.0000000000,  22.1138852197)

Analysis of symmetry for initial positions (statically):
 Subroutine PRICEL returns:
 Original cell was already a primitive cell.

 Routine SETGRP: Setting up the symmetry group for a
 simple tetragonal supercell.

 Subroutine GETGRP returns: Found  4 space group operations
 (whereof  2 operations were pure point group operations)
 out of a pool of 16 trial point group operations.

The static configuration has the point symmetry C_1h.
 The point group associated with its full space group is C_2v.

Analysis of symmetry for dynamics (positions and initial velocities):
 Subroutine PRICEL returns:
 Original cell was already a primitive cell.

 Routine SETGRP: Setting up the symmetry group for a
 simple tetragonal supercell.

 Subroutine GETGRP returns: Found  4 space group operations
 (whereof  2 operations were pure point group operations)
 out of a pool of 16 trial point group operations.

The dynamic configuration has the point symmetry C_1h.
 The point group associated with its full space group is C_2v.

 Subroutine INISYM returns: Found  4 space group operations
 (whereof  2 operations are pure point group operations),
 and found     1 'primitive' translations

                                     Primitive cell

  volume of cell :    9881.6133

  direct lattice vectors                    reciprocal lattice vectors
[...]
     52     -43.5303      2.00000
     53     -43.5300      2.00000
     54     -43.5298      2.00000
     55     -43.5292      2.00000
     56     -43.5291      2.00000
     57     -43.5288      2.00000
     58     -43.5283      2.00000
     59     -43.5282      2.00000
     60     -43.5282      2.00000
[...]
   1010       7.0793      0.00000
   1011       7.0996      0.00000
   1012       7.1534      0.00000
   1013       7.1616      0.00000
   1014       7.3192      0.00000
   1015       7.4017      0.00000
   1016       7.5358      0.00000
   1017       7.5386      0.00000
   1018       7.5488      0.00000
   1019       7.5708      0.00000
   1020       7.6255      0.00000
   1021       7.8372      0.00000
   1022       7.9096      0.00000
   1023       7.9508      0.00000
   1024       8.0228      0.00000

 soft charge-density along one line, spin component           1
         0         1         2         3         4         5         6         7         8         9
 total charge-density along one line

------------------------ aborting loop because EDIFF is reached ----------------------------------------

  FORCE on cell =-STRESS in cart. coord.  units (eV):
  Direction    XX          YY          ZZ          XY          YZ          ZX
  Alpha Z  1354.41543  1354.41543  1354.41543
  Ewald  478638.37410478638.37410************  -389.48255     0.00001    -0.00000
  Hartree507350.26006507350.26010************  -288.58802     0.00000    -0.00000
  E(xc)   -7988.36458 -7988.36458 -8005.73302    -0.35223     0.00000    -0.00000
  Local  ************************************   670.42658    -0.00001     0.00000
  n-local -8816.22170 -8816.22169 -8927.33029     1.66810    -0.00000    -0.00000
  augment  3564.66040  3564.66039  3511.26182     3.04001    -0.00000     0.00000
  Kinetic 22937.98593 22937.98592 23151.26371     3.06125    -0.00001     0.00000
  Fock        0.00000     0.00000     0.00000     0.00000     0.00000     0.00000
  Total    -120.13668  -120.13668    37.67156    -0.22686     0.00000     0.00000
  in kB     -19.47863   -19.47863     6.10796    -0.03678     0.00000     0.00000

 VOLUME and BASIS-vectors are now :
  energy-cutoff  :      520.00
  volume of cell :     9881.61
      direct lattice vectors                 reciprocal lattice vectors
    21.138852197  0.000000000  0.000000000     0.047306258  0.000000000  0.000000000
     0.000000000 21.138852197  0.000000000     0.000000000  0.047306258  0.000000000
     0.000000000  0.000000000 22.113885220     0.000000000  0.000000000  0.045220457

  length of vectors
    21.138852197 21.138852197 22.113885220     0.047306258  0.047306258  0.045220457

 FORCES acting on ions:
    Electron-Ion                     Ewald-Force                    Non-Local-Force
   -.254E+03 0.254E+03 -.200E+04   0.246E+03 -.246E+03 0.200E+04   0.812E+01 -.812E+01 0.199E+00
   0.254E+03 -.254E+03 -.200E+04   -.246E+03 0.246E+03 0.200E+04   -.812E+01 0.812E+01 0.199E+00
   0.175E+01 0.175E+01 0.930E+03   -.174E+01 -.174E+01 -.923E+03   -.160E-02 -.160E-02 -.680E+01
   0.626E+01 0.626E+01 0.932E+03   -.626E+01 -.626E+01 -.925E+03   -.356E-02 -.356E-02 -.680E+01
   0.269E+01 0.599E+01 -.921E+03   -.268E+01 -.599E+01 0.914E+03   -.768E-02 -.372E-03 0.678E+01
   0.599E+01 0.269E+01 -.921E+03   -.599E+01 -.268E+01 0.914E+03   -.372E-03 -.768E-02 0.678E+01
   0.301E+01 0.636E+01 0.933E+03   -.300E+01 -.637E+01 -.926E+03   -.948E-02 0.223E-02 -.680E+01
   0.130E+02 0.800E+01 0.938E+03   -.130E+02 -.801E+01 -.931E+03   -.971E-02 0.951E-02 -.680E+01
   0.589E+01 0.710E+01 -.918E+03   -.588E+01 -.710E+01 0.911E+03   -.112E-01 0.396E-02 0.677E+01
   0.127E+02 0.117E+02 -.918E+03   -.127E+02 -.117E+02 0.911E+03   -.135E-01 0.685E-03 0.677E+01
   0.524E+01 0.229E+01 0.935E+03   -.524E+01 -.229E+01 -.929E+03   -.141E-02 0.428E-02 -.680E+01
   0.166E+02 -.279E+01 0.941E+03   -.166E+02 0.278E+01 -.934E+03   0.256E-01 0.968E-02 -.680E+01
   0.808E+01 -.261E+01 -.917E+03   -.810E+01 0.261E+01 0.910E+03   0.107E-01 0.310E-02 0.678E+01
   0.254E+02 0.555E+01 -.912E+03   -.254E+02 -.558E+01 0.905E+03   0.611E-03 0.168E-01 0.677E+01
   0.483E+01 -.543E+01 0.934E+03   -.485E+01 0.543E+01 -.927E+03   0.142E-01 -.988E-03 -.680E+01
   0.991E+01 -.892E+01 0.935E+03   -.993E+01 0.893E+01 -.928E+03   0.158E-01 -.784E-02 -.680E+01
   0.501E+01 -.814E+01 -.920E+03   -.503E+01 0.814E+01 0.913E+03   0.154E-01 -.324E-02 0.678E+01
   0.212E+02 -.111E+02 -.914E+03   -.213E+02 0.111E+02 0.907E+03   0.365E-01 0.132E-02 0.678E+01
   0.255E+01 -.497E+01 0.931E+03   -.256E+01 0.498E+01 -.924E+03   0.787E-02 -.395E-02 -.680E+01
   0.497E+01 -.255E+01 0.931E+03   -.498E+01 0.256E+01 -.924E+03   0.395E-02 -.787E-02 -.680E+01
   0.234E+01 -.234E+01 -.922E+03   -.234E+01 0.234E+01 0.915E+03   0.343E-02 -.343E-02 0.678E+01
   0.883E+01 -.883E+01 -.920E+03   -.884E+01 0.884E+01 0.913E+03   0.112E-01 -.112E-01 0.678E+01
   0.636E+01 0.301E+01 0.933E+03   -.637E+01 -.300E+01 -.926E+03   0.223E-02 -.948E-02 -.680E+01
   0.800E+01 0.130E+02 0.938E+03   -.801E+01 -.130E+02 -.931E+03   0.951E-02 -.971E-02 -.680E+01
   0.117E+02 0.127E+02 -.918E+03   -.117E+02 -.127E+02 0.911E+03   0.685E-03 -.135E-01 0.677E+01
   0.710E+01 0.589E+01 -.918E+03   -.710E+01 -.588E+01 0.911E+03   0.396E-02 -.112E-01 0.677E+01
   0.135E+02 0.135E+02 0.940E+03   -.135E+02 -.135E+02 -.933E+03   -.260E-02 -.260E-02 -.681E+01
   0.225E+02 0.225E+02 0.961E+03   -.225E+02 -.225E+02 -.954E+03   0.816E-02 0.816E-02 -.684E+01
   0.344E+02 0.225E+02 -.905E+03   -.343E+02 -.226E+02 0.898E+03   -.390E-01 0.202E-01 0.676E+01
   0.225E+02 0.344E+02 -.905E+03   -.226E+02 -.343E+02 0.898E+03   0.202E-01 -.390E-01 0.676E+01
   0.268E+02 0.674E+01 0.953E+03   -.268E+02 -.679E+01 -.946E+03   -.120E-01 0.352E-01 -.679E+01
   0.316E+02 -.914E+01 0.979E+03   -.316E+02 0.909E+01 -.972E+03   -.398E-01 0.376E-01 -.665E+01
   0.529E+02 -.840E+01 -.893E+03   -.531E+02 0.835E+01 0.886E+03   0.912E-01 0.361E-01 0.678E+01
   0.800E+02 0.335E+02 -.847E+03   -.798E+02 -.337E+02 0.840E+03   -.135E+00 0.156E+00 0.673E+01
   0.216E+02 -.134E+02 0.948E+03   -.217E+02 0.134E+02 -.942E+03   0.241E-01 -.694E-02 -.678E+01
   0.134E+02 -.216E+02 0.948E+03   -.134E+02 0.217E+02 -.942E+03   0.694E-02 -.241E-01 -.678E+01
   0.220E+02 -.220E+02 -.911E+03   -.220E+02 0.220E+02 0.904E+03   0.275E-01 -.275E-01 0.678E+01
   0.510E+02 -.510E+02 -.871E+03   -.511E+02 0.511E+02 0.864E+03   0.711E-01 -.711E-01 0.683E+01
   0.892E+01 -.991E+01 0.935E+03   -.893E+01 0.993E+01 -.928E+03   0.784E-02 -.158E-01 -.680E+01
   0.543E+01 -.483E+01 0.934E+03   -.543E+01 0.485E+01 -.927E+03   0.988E-03 -.142E-01 -.680E+01
   0.814E+01 -.501E+01 -.920E+03   -.814E+01 0.503E+01 0.913E+03   0.324E-02 -.154E-01 0.678E+01
   0.111E+02 -.212E+02 -.914E+03   -.111E+02 0.213E+02 0.907E+03   -.132E-02 -.365E-01 0.678E+01
   0.229E+01 0.524E+01 0.935E+03   -.229E+01 -.524E+01 -.929E+03   0.428E-02 -.141E-02 -.680E+01
   -.279E+01 0.166E+02 0.941E+03   0.278E+01 -.166E+02 -.934E+03   0.968E-02 0.256E-01 -.680E+01
   0.555E+01 0.254E+02 -.912E+03   -.558E+01 -.254E+02 0.905E+03   0.168E-01 0.611E-03 0.677E+01
   -.261E+01 0.808E+01 -.917E+03   0.261E+01 -.810E+01 0.910E+03   0.310E-02 0.107E-01 0.678E+01
   0.674E+01 0.268E+02 0.953E+03   -.679E+01 -.268E+02 -.946E+03   0.352E-01 -.120E-01 -.679E+01
   -.914E+01 0.316E+02 0.979E+03   0.909E+01 -.316E+02 -.972E+03   0.376E-01 -.398E-01 -.665E+01
   0.335E+02 0.800E+02 -.847E+03   -.337E+02 -.798E+02 0.840E+03   0.156E+00 -.135E+00 0.673E+01
   -.840E+01 0.529E+02 -.893E+03   0.835E+01 -.531E+02 0.886E+03   0.361E-01 0.912E-01 0.678E+01
   0.165E+02 0.165E+02 0.100E+04   -.165E+02 -.165E+02 -.996E+03   0.104E-01 0.104E-01 -.698E+01
   -.165E+02 -.165E+02 0.100E+04   0.165E+02 0.165E+02 -.996E+03   -.104E-01 -.104E-01 -.698E+01
   0.522E+02 -.522E+02 -.719E+03   -.518E+02 0.518E+02 0.713E+03   -.284E+00 0.284E+00 0.574E+01
   -.522E+02 0.522E+02 -.719E+03   0.518E+02 -.518E+02 0.713E+03   0.284E+00 -.284E+00 0.574E+01
   0.914E+01 -.316E+02 0.979E+03   -.909E+01 0.316E+02 -.972E+03   -.376E-01 0.398E-01 -.665E+01
   -.675E+01 -.268E+02 0.953E+03   0.679E+01 0.268E+02 -.946E+03   -.352E-01 0.120E-01 -.679E+01
   0.840E+01 -.529E+02 -.893E+03   -.835E+01 0.531E+02 0.886E+03   -.361E-01 -.912E-01 0.678E+01
   -.335E+02 -.800E+02 -.847E+03   0.337E+02 0.798E+02 0.840E+03   -.156E+00 0.135E+00 0.673E+01
   0.279E+01 -.166E+02 0.941E+03   -.278E+01 0.166E+02 -.934E+03   -.968E-02 -.256E-01 -.680E+01
   -.229E+01 -.524E+01 0.935E+03   0.229E+01 0.524E+01 -.929E+03   -.428E-02 0.141E-02 -.680E+01
[...]
   -.104E+02 0.582E+01 0.706E+03   0.104E+02 -.582E+01 -.710E+03   -.228E-01 0.267E-02 0.360E+01
   -.274E+01 0.482E+01 0.702E+03   0.275E+01 -.482E+01 -.706E+03   -.117E-01 0.443E-02 0.359E+01
   -.198E+02 0.294E+01 -.686E+03   0.198E+02 -.292E+01 0.690E+03   -.201E-01 -.173E-01 -.361E+01
   -.571E+01 -.227E+01 -.690E+03   0.571E+01 0.227E+01 0.694E+03   0.118E-02 -.627E-02 -.361E+01
   -.122E+02 -.274E+01 0.708E+03   0.122E+02 0.275E+01 -.712E+03   -.342E-02 -.190E-01 0.359E+01
   -.414E+01 0.153E+01 0.704E+03   0.414E+01 -.153E+01 -.708E+03   -.761E-02 -.291E-02 0.359E+01
   -.145E+02 -.851E+01 -.688E+03   0.145E+02 0.852E+01 0.692E+03   0.873E-02 -.105E-01 -.362E+01
   -.301E+01 -.601E+01 -.692E+03   0.300E+01 0.601E+01 0.696E+03   0.943E-02 -.182E-02 -.361E+01
   -.688E+01 -.649E+01 0.703E+03   0.687E+01 0.649E+01 -.707E+03   0.808E-02 0.368E-03 0.359E+01
   -.315E+01 -.414E+01 0.703E+03   0.315E+01 0.414E+01 -.707E+03   0.684E-02 -.467E-02 0.359E+01
   -.609E+01 -.609E+01 -.692E+03   0.609E+01 0.609E+01 0.696E+03   0.620E-02 0.620E-02 -.361E+01
   -.160E+01 -.160E+01 -.694E+03   0.160E+01 0.160E+01 0.698E+03   0.198E-02 0.198E-02 -.361E+01
   -.363E+01 -.160E+01 0.700E+03   0.363E+01 0.159E+01 -.705E+03   0.174E-05 0.589E-02 0.359E+01
   -.160E+01 -.363E+01 0.700E+03   0.159E+01 0.363E+01 -.705E+03   0.589E-02 0.174E-05 0.359E+01
   -.309E-01 0.153E-01 0.498E+01   0.144E-11 0.125E-11 0.114E-12   0.474E-14 0.119E-14 -.596E+01

 POSITION                                       TOTAL-FORCE (eV/Angst)
     10.29957      8.72540     14.01778         0.248763     -0.248763      0.135205
      8.72540     10.29957     14.01778        -0.248763      0.248763      0.135205
      0.00000      0.00000      9.00000         0.000453      0.000453      0.159133
      2.11389      2.11389      9.00000         0.001033      0.001033      0.159592
      0.00000      2.11389     11.11389         0.002117      0.000132     -0.160692
      2.11389      0.00000     11.11389         0.000132      0.002117     -0.160692
      0.00000      4.22777      9.00000         0.002538     -0.000606      0.159228
      2.11389      6.34166      9.00000         0.002412     -0.002617      0.159511
      0.00000      6.34166     11.11389         0.003030     -0.001108     -0.160140
      2.11389      4.22777     11.11389         0.003777      0.000028     -0.159425
      0.00000      8.45554      9.00000         0.000290     -0.001292      0.159049
      2.11389     10.56943      9.00000        -0.006703     -0.002835      0.158806
      0.00000     10.56943     11.11389        -0.002830     -0.000915     -0.160446
      2.11389      8.45554     11.11389        -0.000113     -0.005020     -0.158802
      0.00000     12.68331      9.00000        -0.003755      0.000320      0.158816
      2.11389     14.79720      9.00000        -0.004407      0.002334      0.157806
      0.00000     14.79720     11.11389        -0.004175      0.000955     -0.160880
      2.11389     12.68331     11.11389        -0.010104     -0.000205     -0.161395
      0.00000     16.91108      9.00000        -0.002154      0.001105      0.158874
      2.11389     19.02497      9.00000        -0.001105      0.002154      0.158874
      0.00000     19.02497     11.11389        -0.000934      0.000934     -0.160942
      2.11389     16.91108     11.11389        -0.003104      0.003104     -0.161180
      4.22777      0.00000      9.00000        -0.000606      0.002538      0.159228
      6.34166      2.11389      9.00000        -0.002617      0.002412      0.159511
      4.22777      2.11389     11.11389         0.000028      0.003777     -0.159425
      6.34166      0.00000     11.11389        -0.001108      0.003030     -0.160140
      4.22777      4.22777      9.00000         0.001026      0.001026      0.161295
      6.34166      6.34166      9.00000        -0.000473     -0.000473      0.168646
      4.22777      6.34166     11.11389         0.011378     -0.004630     -0.153539
      6.34166      4.22777     11.11389        -0.004630      0.011378     -0.153539
      4.22777      8.45554      9.00000         0.001203     -0.011081      0.157245
      6.34166     10.56943      9.00000         0.012330     -0.012169      0.121608
      4.22777     10.56943     11.11389        -0.033622     -0.011555     -0.161775
      6.34166      8.45554     11.11389         0.044835     -0.042954     -0.122570
      4.22777     12.68331      9.00000        -0.007329      0.002813      0.152731
      6.34166     14.79720      9.00000        -0.002813      0.007329      0.152731
      4.22777     14.79720     11.11389        -0.008101      0.008101     -0.163274
      6.34166     12.68331     11.11389        -0.023221      0.023221     -0.188844
      4.22777     16.91108      9.00000        -0.002334      0.004407      0.157806
      6.34166     19.02497      9.00000        -0.000320      0.003755      0.158816
      4.22777     19.02497     11.11389        -0.000955      0.004175     -0.160880
      6.34166     16.91108     11.11389         0.000205      0.010104     -0.161395
      8.45554      0.00000      9.00000        -0.001292      0.000290      0.159049
     10.56943      2.11389      9.00000        -0.002835     -0.006703      0.158806
      8.45554      2.11389     11.11389        -0.005020     -0.000113     -0.158802
     10.56943      0.00000     11.11389        -0.000915     -0.002830     -0.160446
      8.45554      4.22777      9.00000        -0.011081      0.001203      0.157245
     10.56943      6.34166      9.00000        -0.012169      0.012330      0.121608
      8.45554      6.34166     11.11389        -0.042954      0.044835     -0.122570
     10.56943      4.22777     11.11389        -0.011555     -0.033622     -0.161775
      8.45554      8.45554      9.00000        -0.000384     -0.000384      0.184338
     10.56943     10.56943      9.00000         0.000384      0.000384      0.184338
      8.45554     10.56943     11.11389         0.101234     -0.101234     -0.138688
     10.56943      8.45554     11.11389        -0.101234      0.101234     -0.138688
      8.45554     12.68331      9.00000         0.012169     -0.012330      0.121608
     10.56943     14.79720      9.00000         0.011081     -0.001203      0.157245
      8.45554     14.79720     11.11389         0.011555      0.033622     -0.161775
     10.56943     12.68331     11.11389         0.042954     -0.044835     -0.122570
      8.45554     16.91108      9.00000         0.002835      0.006703      0.158806
     10.56943     19.02497      9.00000         0.001292     -0.000290      0.159049
[...]
     19.02497      6.34166     11.11389        -0.003721      0.000362      0.550316
     16.91108      6.34166      9.00000        -0.006530      0.000816     -0.547210
     19.02497      4.22777      9.00000        -0.003282      0.001281     -0.548800
     16.91108      8.45554     11.11389        -0.005920     -0.004832      0.550719
     19.02497     10.56943     11.11389         0.000284     -0.001761      0.549744
     16.91108     10.56943      9.00000        -0.001195     -0.005355     -0.549320
     19.02497      8.45554      9.00000        -0.002175     -0.000792     -0.548822
     16.91108     12.68331     11.11389         0.002294     -0.002974      0.548499
     19.02497     14.79720     11.11389         0.002617     -0.000532      0.549980
     16.91108     14.79720      9.00000         0.002188      0.000045     -0.549853
     19.02497     12.68331      9.00000         0.001888     -0.001338     -0.549270
     16.91108     16.91108     11.11389         0.001695      0.001695      0.549701
     19.02497     19.02497     11.11389         0.000540      0.000540      0.550421
     16.91108     19.02497      9.00000        -0.000026      0.001627     -0.549258
     19.02497     16.91108      9.00000         0.001627     -0.000026     -0.549258
    total drift:                               -0.030944      0.015289     -0.980599

  FREE ENERGIE OF THE ION-ELECTRON SYSTEM (eV)
  free  energy   TOTEN  =      -681.13580154 eV

  energy  without entropy=     -681.13580154  energy(sigma->0) =     -681.13580154