 vasp.6.3.0 20Jan22 (build Apr  1 2022 16:44:48) complex
 executed on        HPECrayEX_GCC date 2022.11.18  15:06:28

 INCAR:
   SYSTEM = MgO-rocksalt
   ISMEAR = 0
   SIGMA = 0.05
   EDIFF = 1E-6
   ALGO = ALL
   ISTART = 0
   IBRION = -1
   NSW = 0
   ISYM = 2
   DIPOL = 0.5 0.5 0.5
   IDIPOL = 3
   LDIPOL = .TRUE.
   GGA = MK
   LUSE_VDW = .TRUE.
   PARAM1 = 0.1234
   PARAM2 = 0.711357
   ZAB_VDW = -1.8867
   AGGAC = 0.0
   ENCUT = 520
   PREC = Accurate
   LASPH = .TRUE.
   LREAL = Auto
   ISPIN = 1
   NELM = 200
   NELMIN = 8
   NCORE = 4
   KPAR = 2
   LWAVE = .FALSE.
   LCHARG = .FALSE.

 POTCAR:    PAW_PBE Cu 22Jun2005
 POTCAR:    PAW_PBE Mg_pv 13Apr2007
 POTCAR:    PAW_PBE O 08Apr2002
|               ----> ADVICE to this user running VASP <----                  |
|     You have switched on vdW-DFT.                                           |
|     This routine was written and supplied by Jiri Klimes. We recommend      |
|     that you carefully read and cite the following publications:            |
|       J. Klimes, D.R. Bowler, A. Michelides                                 |
|          J. Phys.: Cond Matt. 22 022201 (2010)                              |
|       J. Klimes, D.R. Bowler, A. Michelides                                 |
|          Phys. Rev. B. 83, 195131 (2011)                                    |
|     and references therein.                                                 |

   TITEL  = PAW_PBE Cu 22Jun2005
   POMASS =   63.546; ZVAL   =   11.000    mass and valenz
   ENMAX  =  295.446; ENMIN  =  221.585 eV

   TITEL  = PAW_PBE Mg_pv 13Apr2007
   POMASS =   24.305; ZVAL   =    8.000    mass and valenz
   ENMAX  =  403.929; ENMIN  =  302.947 eV

   TITEL  = PAW_PBE O 08Apr2002
   POMASS =   16.000; ZVAL   =    6.000    mass and valenz
   ENMAX  =  400.000; ENMIN  =  300.000 eV

 Optimization of the real space projectors (new method)

 maximal supplied QI-value         = 16.25
 optimisation between [QCUT,QGAM] = [ 11.54, 23.24] = [ 37.28,151.24] Ry
 Optimized for a Real-space Cutoff    1.53 Angstroem

   l    n(q)    QCUT    max X(q) W(low)/X(q) W(high)/X(q)  e(spline)
   2     10    11.539     4.610    0.96E-04    0.13E-03    0.19E-06
   2     10    11.539     8.522    0.16E-03    0.21E-03    0.28E-06
   0     11    11.539    51.609    0.45E-04    0.31E-04    0.11E-06
   0     11    11.539    27.747    0.39E-04    0.29E-04    0.10E-06
   1     10    11.539    20.408    0.70E-05    0.38E-04    0.18E-06
   1     10    11.539    13.425    0.66E-05    0.34E-04    0.17E-06
 Optimization of the real space projectors (new method)

[...]

   l    n(q)    QCUT    max X(q) W(low)/X(q) W(high)/X(q)  e(spline)
   1      8    11.527     2.974    0.44E-04    0.56E-04    0.12E-06
   1      8    11.527     4.279    0.12E-03    0.12E-03    0.26E-06
   0      9    11.527    16.381    0.46E-04    0.64E-04    0.78E-07
   0      9    11.527     5.611    0.26E-04    0.43E-04    0.55E-07
   2      8    11.527     4.652    0.22E-03    0.72E-04    0.47E-07
 Optimization of the real space projectors (new method)

 maximal supplied QI-value         = 24.76
 optimisation between [QCUT,QGAM] = [ 11.64, 23.27] = [ 37.91,151.63] Ry
 Optimized for a Real-space Cutoff    1.14 Angstroem

   l    n(q)    QCUT    max X(q) W(low)/X(q) W(high)/X(q)  e(spline)
   0      8    11.635    20.381    0.10E-03    0.33E-03    0.24E-06
   0      8    11.635    15.268    0.11E-03    0.35E-03    0.26E-06
   1      7    11.635     5.964    0.24E-03    0.31E-03    0.30E-06
   1      7    11.635     5.382    0.22E-03    0.25E-03    0.26E-06
|               ----> ADVICE to this user running VASP <----                  |
|     You enforced a specific xc type in the INCAR file but a different       |
|     type was found in the POTCAR file.                                      |
|     I HOPE YOU KNOW WHAT YOU ARE DOING!                                     |

  PAW_PBE Cu 22Jun2005                  :
  PAW_PBE Mg_pv 13Apr2007               :
  PAW_PBE O 08Apr2002                   :

 POSCAR: Cu Mg  O
  positions in direct lattice
 exchange correlation table for  LEXCH =       43
   RHO(1)=    0.500       N(1)  =     2000
   RHO(2)=  100.500       N(2)  =     4000

 ion  position               nearest neighbor table
   1  0.538  0.562  0.615-   2 2.24
   2  0.462  0.638  0.615-   1 2.24
   3  0.000  0.000  0.407- 105 2.11 106 2.11 121 2.11 186 2.11 103 2.11
   4  0.100  0.100  0.407- 105 2.11 106 2.11 110 2.11 125 2.11 104 2.11
   5  0.000  0.100  0.503- 103 2.11 104 2.11 107 2.11 184 2.11 105 2.11
   6  0.100  0.000  0.503- 103 2.11 104 2.11 120 2.11 123 2.11 106 2.11
   7  0.000  0.200  0.407- 109 2.11 105 2.11 110 2.11 190 2.11 107 2.11
   8  0.100  0.300  0.407- 110 2.11 109 2.11 114 2.11 129 2.11 108 2.11
   9  0.000  0.300  0.503- 107 2.11 108 2.11 111 2.11 188 2.11 109 2.11
  10  0.100  0.200  0.503- 108 2.11 107 2.11 104 2.11 127 2.11 110 2.11
  11  0.000  0.400  0.407- 109 2.11 113 2.11 114 2.11 194 2.11 111 2.11
  12  0.100  0.500  0.407- 113 2.11 114 2.11 118 2.11 133 2.11 112 2.11
  13  0.000  0.500  0.503- 111 2.11 112 2.11 115 2.11 192 2.11 113 2.11
  14  0.100  0.400  0.503- 108 2.11 111 2.11 112 2.11 131 2.11 114 2.11
  15  0.000  0.600  0.407- 113 2.11 117 2.11 118 2.11 198 2.11 115 2.11
  16  0.100  0.700  0.407- 122 2.11 118 2.11 117 2.11 137 2.11 116 2.11
  17  0.000  0.700  0.503- 119 2.11 116 2.11 115 2.11 196 2.11 117 2.11
  18  0.100  0.600  0.503- 112 2.11 115 2.11 116 2.11 135 2.11 118 2.11
  19  0.000  0.800  0.407- 117 2.11 121 2.11 122 2.11 202 2.11 119 2.11
  20  0.100  0.900  0.407- 106 2.11 121 2.11 122 2.11 141 2.11 120 2.11
  21  0.000  0.900  0.503- 103 2.11 119 2.11 120 2.11 200 2.11 121 2.11
  22  0.100  0.800  0.503- 116 2.11 119 2.11 120 2.11 139 2.11 122 2.11
  23  0.200  0.000  0.407- 126 2.11 125 2.11 106 2.11 141 2.11 123 2.11
  24  0.300  0.100  0.407- 125 2.11 126 2.11 130 2.11 145 2.11 124 2.11
  25  0.200  0.100  0.503- 124 2.11 123 2.11 104 2.11 127 2.11 125 2.11
  26  0.300  0.000  0.503- 123 2.11 124 2.11 140 2.11 143 2.11 126 2.11
  27  0.200  0.200  0.407- 129 2.11 130 2.11 110 2.11 125 2.11 127 2.11
  28  0.300  0.300  0.407- 129 2.11 130 2.11 134 2.11 149 2.11 128 2.11
  29  0.200  0.300  0.503- 127 2.11 128 2.11 108 2.11 131 2.11 129 2.11
  30  0.300  0.200  0.503- 127 2.11 128 2.11 124 2.11 147 2.11 130 2.11
  31  0.200  0.400  0.407- 134 2.11 129 2.11 133 2.11 114 2.11 131 2.11
  32  0.300  0.500  0.407- 133 2.11 134 2.11 138 2.11 153 2.11 132 2.11
  33  0.200  0.500  0.503- 132 2.11 131 2.11 112 2.11 135 2.11 133 2.11
  34  0.300  0.400  0.503- 131 2.11 128 2.11 132 2.11 151 2.11 134 2.11
  35  0.200  0.600  0.407- 138 2.11 133 2.11 137 2.11 118 2.11 135 2.11
  36  0.300  0.700  0.407- 137 2.11 142 2.11 138 2.11 157 2.11 136 2.11
  37  0.200  0.700  0.503- 136 2.11 139 2.11 116 2.11 135 2.11 137 2.11
  38  0.300  0.600  0.503- 135 2.11 132 2.11 136 2.11 155 2.11 138 2.11
  39  0.200  0.800  0.407- 137 2.11 142 2.11 141 2.11 122 2.11 139 2.11
  40  0.300  0.900  0.407- 141 2.11 126 2.11 142 2.11 161 2.11 140 2.11
  41  0.200  0.900  0.503- 140 2.11 123 2.11 139 2.11 120 2.11 141 2.11
  42  0.300  0.800  0.503- 136 2.11 139 2.11 140 2.11 159 2.11 142 2.11
  43  0.400  0.000  0.407- 126 2.11 145 2.11 146 2.11 161 2.11 143 2.11
  44  0.500  0.100  0.407- 145 2.11 146 2.11 150 2.11 165 2.11 144 2.11
  45  0.400  0.100  0.503- 124 2.11 143 2.11 144 2.11 147 2.11 145 2.11
  46  0.500  0.000  0.503- 143 2.11 144 2.11 160 2.11 163 2.11 146 2.11
  47  0.400  0.200  0.407- 149 2.11 145 2.11 130 2.11 150 2.11 147 2.11
  48  0.500  0.300  0.407- 150 2.11 149 2.11 154 2.11 169 2.11 148 2.11
  49  0.400  0.300  0.503- 147 2.11 128 2.11 148 2.11 151 2.11 149 2.11
  50  0.500  0.200  0.503- 148 2.11 147 2.11 144 2.11 167 2.11 150 2.11
  51  0.400  0.400  0.407- 134 2.11 149 2.11 153 2.11 154 2.11 151 2.11
  52  0.500  0.500  0.407- 153 2.11 154 2.11 158 2.11 173 2.11 152 2.11
  53  0.400  0.500  0.503- 132 2.11 151 2.11 152 2.11 155 2.11 153 2.11
  54  0.500  0.400  0.503- 148 2.11 151 2.11 152 2.11 171 2.11 154 2.11
  55  0.400  0.600  0.407- 138 2.11 153 2.11 157 2.11 158 2.11 155 2.11
  56  0.500  0.700  0.407- 162 2.11 158 2.11 157 2.11 177 2.11 156 2.11
  57  0.400  0.700  0.503- 159 2.11 155 2.11 156 2.11 136 2.11 157 2.11
  58  0.500  0.600  0.503- 152 2.11 155 2.11 156 2.11 175 2.11 158 2.11
  59  0.400  0.800  0.407- 157 2.11 142 2.11 161 2.11 162 2.11 159 2.11
  60  0.500  0.900  0.407- 146 2.11 161 2.11 162 2.11 181 2.11 160 2.11
[...]
 188  0.900  0.300  0.503-  90 2.11  89 2.11   9 2.11  94 2.11  88 2.11
 189  0.800  0.300  0.407-  68 2.11  87 2.11  88 2.11  91 2.11  89 2.11
 190  0.900  0.200  0.407-  88 2.11  84 2.11  87 2.11   7 2.11  90 2.11
 191  0.800  0.400  0.503-  74 2.11  89 2.11  93 2.11  94 2.11  91 2.11
 192  0.900  0.500  0.503-  13 2.11  93 2.11  94 2.11  98 2.11  92 2.11
 193  0.800  0.500  0.407-  72 2.11  91 2.11  92 2.11  95 2.11  93 2.11
 194  0.900  0.400  0.407-  11 2.11  88 2.11  91 2.11  92 2.11  94 2.11
 195  0.800  0.600  0.503-  78 2.11  93 2.11  97 2.11  98 2.11  95 2.11
 196  0.900  0.700  0.503- 102 2.11  97 2.11  98 2.11  17 2.11  96 2.11
 197  0.800  0.700  0.407-  76 2.11  99 2.11  96 2.11  95 2.11  97 2.11
 198  0.900  0.600  0.407-  15 2.11  92 2.11  95 2.11  96 2.11  98 2.11
 199  0.800  0.800  0.503-  82 2.11  97 2.11 101 2.11 102 2.11  99 2.11
 200  0.900  0.900  0.503-  21 2.11  86 2.11 101 2.11 102 2.11 100 2.11
 201  0.800  0.900  0.407-  80 2.11  83 2.11  99 2.11 100 2.11 101 2.11
 202  0.900  0.800  0.407-  96 2.11  19 2.11  99 2.11 100 2.11 102 2.11

  LATTYP: Found a simple tetragonal cell.
 ALAT       =    21.1388521970
 C/A-ratio  =     1.0461251639

  Lattice vectors:

 A1 = (  21.1388521970,   0.0000000000,   0.0000000000)
 A2 = (   0.0000000000,  21.1388521970,   0.0000000000)
 A3 = (   0.0000000000,   0.0000000000,  22.1138852197)

Analysis of symmetry for initial positions (statically):
 Subroutine PRICEL returns:
 Original cell was already a primitive cell.

 Routine SETGRP: Setting up the symmetry group for a
 simple tetragonal supercell.

 Subroutine GETGRP returns: Found  4 space group operations
 (whereof  1 operations were pure point group operations)
 out of a pool of 16 trial point group operations.

The static configuration has the point symmetry C_1 .
 The point group associated with its full space group is C_2v.

Analysis of symmetry for dynamics (positions and initial velocities):
 Subroutine PRICEL returns:
 Original cell was already a primitive cell.

 Routine SETGRP: Setting up the symmetry group for a
 simple tetragonal supercell.

 Subroutine GETGRP returns: Found  4 space group operations
 (whereof  1 operations were pure point group operations)
 out of a pool of 16 trial point group operations.

The dynamic configuration has the point symmetry C_1 .
 The point group associated with its full space group is C_2v.

 Subroutine INISYM returns: Found  4 space group operations
 (whereof  1 operations are pure point group operations),
 and found     1 'primitive' translations

                                     Primitive cell

  volume of cell :    9881.6133

[...]
     52     -43.2792      2.00000
     53     -43.2791      2.00000
     54     -43.2786      2.00000
     55     -43.2785      2.00000
     56     -43.2776      2.00000
     57     -43.2771      2.00000
     58     -43.2766      2.00000
     59     -43.2765      2.00000
     60     -43.2764      2.00000
[...]
   1010       6.8672      0.00000
   1011       6.8753      0.00000
   1012       6.8895      0.00000
   1013       7.0987      0.00000
   1014       7.1321      0.00000
   1015       7.1523      0.00000
   1016       7.1560      0.00000
   1017       7.2755      0.00000
   1018       7.3263      0.00000
   1019       7.4966      0.00000
   1020       7.5980      0.00000
   1021       7.6578      0.00000
   1022       7.7018      0.00000
   1023       7.7398      0.00000
   1024       7.7677      0.00000

 soft charge-density along one line, spin component           1
         0         1         2         3         4         5         6         7         8         9
 total charge-density along one line

------------------------ aborting loop because EDIFF is reached ----------------------------------------

  FORCE on cell =-STRESS in cart. coord.  units (eV):
  Direction    XX          YY          ZZ          XY          YZ          ZX
  Alpha Z  1354.41543  1354.41543  1354.41543
  Ewald  480381.00929480381.00929************  -397.46722     0.00001    -0.00002
  Hartree509017.77949509017.77949************  -292.83247    -0.00000    -0.00002
  E(xc)   -7778.26808 -7778.26808 -7780.20502    -0.15548    -0.00000     0.00000
  Local  ************************************   684.19858    -0.00001     0.00004
  n-local -8874.55408 -8874.55409 -8987.29973     0.49170     0.00000     0.00000
  augment  3480.80037  3480.80038  3424.23222     2.58570    -0.00000     0.00000
  Kinetic 22866.97504 22866.97504 23105.41115     2.54392     0.00001     0.00001
  Fock        0.00000     0.00000     0.00000     0.00000     0.00000     0.00000
  Total    -183.57194  -183.57194     1.94258    -0.63528     0.00000     0.00000
  in kB     -29.76384   -29.76384     0.31496    -0.10300     0.00000     0.00000

 VOLUME and BASIS-vectors are now :
  energy-cutoff  :      520.00
  volume of cell :     9881.61
      direct lattice vectors                 reciprocal lattice vectors
    21.138852197  0.000000000  0.000000000     0.047306258  0.000000000  0.000000000
     0.000000000 21.138852197  0.000000000     0.000000000  0.047306258  0.000000000
     0.000000000  0.000000000 22.113885220     0.000000000  0.000000000  0.045220457

  length of vectors
    21.138852197 21.138852197 22.113885220     0.047306258  0.047306258  0.045220457

 FORCES acting on ions:
    Electron-Ion                     Ewald-Force                    Non-Local-Force
   -.254E+03 0.254E+03 -.212E+04   0.246E+03 -.246E+03 0.212E+04   0.813E+01 -.813E+01 -.154E+00
   0.254E+03 -.254E+03 -.212E+04   -.246E+03 0.246E+03 0.212E+04   -.813E+01 0.813E+01 -.154E+00
   0.159E+00 -.352E+01 0.931E+03   -.162E+00 0.353E+01 -.923E+03   0.234E-02 -.310E-02 -.714E+01
   0.352E+01 -.159E+00 0.931E+03   -.353E+01 0.162E+00 -.923E+03   0.310E-02 -.234E-02 -.714E+01
   0.114E-07 -.187E-03 -.923E+03   0.784E-07 -.160E-05 0.915E+03   0.000E+00 0.000E+00 0.711E+01
   0.530E+01 -.530E+01 -.922E+03   -.531E+01 0.531E+01 0.915E+03   0.608E-02 -.608E-02 0.711E+01
   -.159E+00 0.352E+01 0.931E+03   0.162E+00 -.353E+01 -.923E+03   -.234E-02 0.310E-02 -.714E+01
   0.548E+01 0.692E+01 0.933E+03   -.549E+01 -.692E+01 -.925E+03   0.294E-02 0.560E-02 -.714E+01
   -.438E+00 0.725E+01 -.922E+03   0.446E+00 -.725E+01 0.914E+03   -.592E-02 0.391E-02 0.711E+01
   0.483E+01 0.483E+01 -.922E+03   -.483E+01 -.483E+01 0.915E+03   0.265E-03 0.265E-03 0.711E+01
   -.370E+00 0.627E+01 0.934E+03   0.378E+00 -.628E+01 -.926E+03   -.589E-02 0.548E-02 -.714E+01
   0.107E+02 0.528E+01 0.937E+03   -.107E+02 -.529E+01 -.930E+03   0.143E-01 0.811E-02 -.714E+01
   -.423E+00 0.508E+01 -.919E+03   0.430E+00 -.508E+01 0.912E+03   -.563E-02 0.254E-02 0.711E+01
   0.109E+02 0.984E+01 -.919E+03   -.109E+02 -.985E+01 0.912E+03   0.961E-03 0.600E-02 0.711E+01
   0.210E-06 -.190E-03 0.936E+03   -.118E-06 0.158E-05 -.928E+03   0.000E+00 0.000E+00 -.714E+01
   0.114E+02 -.486E+01 0.937E+03   -.114E+02 0.486E+01 -.930E+03   0.270E-01 -.244E-02 -.714E+01
   0.423E+00 -.508E+01 -.919E+03   -.430E+00 0.508E+01 0.912E+03   0.563E-02 -.254E-02 0.711E+01
   0.178E+02 0.582E+00 -.917E+03   -.178E+02 -.589E+00 0.909E+03   0.185E-01 0.510E-02 0.711E+01
   0.370E+00 -.628E+01 0.934E+03   -.378E+00 0.628E+01 -.926E+03   0.589E-02 -.548E-02 -.714E+01
   0.614E+01 -.719E+01 0.933E+03   -.615E+01 0.720E+01 -.926E+03   0.117E-01 -.891E-02 -.714E+01
   0.438E+00 -.725E+01 -.922E+03   -.446E+00 0.725E+01 0.914E+03   0.592E-02 -.391E-02 0.711E+01
   0.123E+02 -.995E+01 -.919E+03   -.124E+02 0.996E+01 0.912E+03   0.203E-01 -.530E-02 0.711E+01
   0.719E+01 -.614E+01 0.933E+03   -.720E+01 0.615E+01 -.926E+03   0.891E-02 -.117E-01 -.714E+01
   0.627E+01 -.371E+00 0.934E+03   -.628E+01 0.378E+00 -.926E+03   0.548E-02 -.589E-02 -.714E+01
   0.725E+01 -.439E+00 -.922E+03   -.725E+01 0.446E+00 0.914E+03   0.391E-02 -.592E-02 0.711E+01
   0.995E+01 -.123E+02 -.919E+03   -.996E+01 0.124E+02 0.912E+03   0.530E-02 -.203E-01 0.711E+01
   0.692E+01 0.548E+01 0.933E+03   -.692E+01 -.549E+01 -.925E+03   0.560E-02 0.294E-02 -.714E+01
   0.121E+02 0.156E+02 0.940E+03   -.121E+02 -.156E+02 -.932E+03   0.169E-01 0.226E-01 -.715E+01
   0.136E+02 0.136E+02 -.919E+03   -.136E+02 -.136E+02 0.912E+03   0.466E-02 0.466E-02 0.711E+01
   0.984E+01 0.109E+02 -.919E+03   -.985E+01 -.109E+02 0.912E+03   0.600E-02 0.961E-03 0.711E+01
   0.156E+02 0.121E+02 0.940E+03   -.156E+02 -.121E+02 -.932E+03   0.226E-01 0.169E-01 -.715E+01
   0.310E+02 0.170E+02 0.962E+03   -.311E+02 -.171E+02 -.954E+03   0.102E+00 0.484E-01 -.717E+01
   0.346E+02 0.142E+02 -.910E+03   -.346E+02 -.142E+02 0.902E+03   0.241E-01 0.178E-01 0.710E+01
   0.334E+02 0.334E+02 -.905E+03   -.334E+02 -.334E+02 0.898E+03   0.239E-01 0.239E-01 0.708E+01
   0.254E+02 0.919E+00 0.948E+03   -.254E+02 -.933E+00 -.940E+03   0.646E-01 0.107E-01 -.715E+01
   0.327E+02 -.156E+02 0.965E+03   -.327E+02 0.156E+02 -.958E+03   0.632E-01 -.307E-01 -.711E+01
   0.378E+02 -.126E+02 -.908E+03   -.379E+02 0.126E+02 0.901E+03   0.704E-01 0.771E-03 0.710E+01
   0.840E+02 0.687E+01 -.871E+03   -.843E+02 -.693E+01 0.864E+03   0.205E+00 0.495E-01 0.710E+01
   0.168E+02 -.123E+02 0.941E+03   -.168E+02 0.124E+02 -.934E+03   0.325E-01 -.189E-01 -.714E+01
   0.123E+02 -.168E+02 0.941E+03   -.124E+02 0.168E+02 -.934E+03   0.189E-01 -.325E-01 -.714E+01
   0.149E+02 -.149E+02 -.918E+03   -.149E+02 0.149E+02 0.911E+03   0.176E-01 -.176E-01 0.711E+01
   0.374E+02 -.374E+02 -.901E+03   -.375E+02 0.375E+02 0.893E+03   0.555E-01 -.555E-01 0.711E+01
   0.486E+01 -.114E+02 0.937E+03   -.486E+01 0.114E+02 -.930E+03   0.244E-02 -.270E-01 -.714E+01
   0.205E-06 -.184E-03 0.936E+03   -.110E-06 -.428E-05 -.928E+03   0.000E+00 0.000E+00 -.714E+01
   0.508E+01 -.423E+00 -.919E+03   -.508E+01 0.430E+00 0.912E+03   0.254E-02 -.563E-02 0.711E+01
   -.582E+00 -.178E+02 -.917E+03   0.589E+00 0.178E+02 0.909E+03   -.510E-02 -.185E-01 0.711E+01
   0.528E+01 0.107E+02 0.937E+03   -.529E+01 -.107E+02 -.930E+03   0.811E-02 0.143E-01 -.714E+01
   0.919E+00 0.254E+02 0.948E+03   -.933E+00 -.254E+02 -.940E+03   0.107E-01 0.646E-01 -.715E+01
   0.142E+02 0.346E+02 -.910E+03   -.142E+02 -.346E+02 0.902E+03   0.178E-01 0.241E-01 0.710E+01
   0.582E+00 0.178E+02 -.917E+03   -.589E+00 -.178E+02 0.909E+03   0.510E-02 0.185E-01 0.711E+01
   0.170E+02 0.310E+02 0.962E+03   -.171E+02 -.311E+02 -.954E+03   0.484E-01 0.102E+00 -.717E+01
   0.281E+01 0.347E+02 0.101E+04   -.275E+01 -.348E+02 -.100E+04   -.448E-01 0.727E-01 -.688E+01
   0.784E+02 0.784E+02 -.833E+03   -.787E+02 -.787E+02 0.826E+03   0.218E+00 0.218E+00 0.691E+01
   0.687E+01 0.840E+02 -.871E+03   -.693E+01 -.843E+02 0.864E+03   0.495E-01 0.205E+00 0.710E+01
   0.347E+02 0.281E+01 0.101E+04   -.348E+02 -.275E+01 -.100E+04   0.727E-01 -.448E-01 -.688E+01
   -.281E+01 -.347E+02 0.101E+04   0.275E+01 0.348E+02 -.100E+04   0.448E-01 -.727E-01 -.688E+01
   0.866E+02 -.866E+02 -.795E+03   -.868E+02 0.868E+02 0.787E+03   0.138E+00 -.138E+00 0.687E+01
   -.239E-04 -.261E-03 -.614E+03   0.242E-04 0.699E-04 0.610E+03   0.000E+00 0.000E+00 0.356E+01
   0.156E+02 -.327E+02 0.965E+03   -.156E+02 0.327E+02 -.958E+03   0.307E-01 -.632E-01 -.711E+01
   -.919E+00 -.254E+02 0.948E+03   0.933E+00 0.254E+02 -.940E+03   -.107E-01 -.646E-01 -.715E+01
[...]
   -.813E+01 0.813E+01 0.704E+03   0.814E+01 -.814E+01 -.708E+03   -.192E-01 0.192E-01 0.365E+01
   -.319E+01 0.319E+01 0.700E+03   0.320E+01 -.320E+01 -.705E+03   -.696E-02 0.696E-02 0.365E+01
   -.191E+02 0.136E+02 -.687E+03   0.191E+02 -.136E+02 0.691E+03   -.371E-01 0.245E-01 -.369E+01
   -.124E+02 0.480E+01 -.690E+03   0.124E+02 -.480E+01 0.694E+03   -.199E-01 0.136E-02 -.369E+01
   -.173E+02 0.613E+01 0.711E+03   0.173E+02 -.614E+01 -.715E+03   -.515E-01 0.104E-01 0.365E+01
   -.665E+01 0.574E+01 0.703E+03   0.666E+01 -.575E+01 -.707E+03   -.186E-01 0.104E-01 0.365E+01
   -.318E+02 -.146E+01 -.682E+03   0.318E+02 0.148E+01 0.686E+03   -.454E-01 -.223E-01 -.371E+01
   -.114E+02 -.530E+01 -.690E+03   0.114E+02 0.530E+01 0.694E+03   -.899E-02 -.983E-02 -.369E+01
   -.164E+02 -.686E+01 0.711E+03   0.164E+02 0.688E+01 -.715E+03   -.324E-01 -.231E-01 0.364E+01
   -.912E+01 -.259E+00 0.706E+03   0.914E+01 0.262E+00 -.710E+03   -.192E-01 -.554E-02 0.364E+01
   -.170E+02 -.129E+02 -.688E+03   0.170E+02 0.130E+02 0.692E+03   -.134E-01 -.147E-01 -.370E+01
   -.530E+01 -.650E+01 -.693E+03   0.530E+01 0.650E+01 0.697E+03   -.837E-03 -.437E-02 -.369E+01
   -.762E+01 -.762E+01 0.703E+03   0.763E+01 0.763E+01 -.707E+03   -.111E-01 -.111E-01 0.364E+01
   -.598E+01 -.573E+01 0.703E+03   0.599E+01 0.573E+01 -.707E+03   -.628E-02 -.951E-02 0.364E+01
   -.141E-04 -.110E+00 0.862E+01   0.166E-11 0.583E-12 -.105E-10   0.429E-14 0.322E-14 -.898E+01

 POSITION                                       TOTAL-FORCE (eV/Angst)
     11.36279     11.88995     13.59669         0.000392     -0.000392      0.000260
      9.77606     13.47667     13.59669        -0.000392      0.000392      0.000260
      0.00000      0.00000      9.00000        -0.000642      0.000858      0.335062
      2.11389      2.11389      9.00000        -0.000858      0.000642      0.335062
      0.00000      2.11389     11.11389        -0.000000      0.000000     -0.327300
      2.11389      0.00000     11.11389        -0.001663      0.001663     -0.327073
      0.00000      4.22777      9.00000         0.000642     -0.000858      0.335062
      2.11389      6.34166      9.00000        -0.000796     -0.001548      0.335562
      0.00000      6.34166     11.11389         0.001629     -0.001076     -0.326721
      2.11389      4.22777     11.11389        -0.000036     -0.000036     -0.326783
      0.00000      8.45554      9.00000         0.001569     -0.001560      0.335428
      2.11389     10.56943      9.00000        -0.003915     -0.002349      0.336032
      0.00000     10.56943     11.11389         0.001523     -0.000721     -0.325626
      2.11389      8.45554     11.11389        -0.000050     -0.001595     -0.324993
      0.00000     12.68331      9.00000        -0.000000      0.000000      0.335699
      2.11389     14.79720      9.00000        -0.007101      0.000720      0.335756
      0.00000     14.79720     11.11389        -0.001523      0.000721     -0.325626
      2.11389     12.68331     11.11389        -0.004556     -0.001540     -0.324143
      0.00000     16.91108      9.00000        -0.001569      0.001560      0.335428
      2.11389     19.02497      9.00000        -0.003221      0.002521      0.334983
      0.00000     19.02497     11.11389        -0.001629      0.001076     -0.326721
      2.11389     16.91108     11.11389        -0.005412      0.001513     -0.325900
      4.22777      0.00000      9.00000        -0.002521      0.003221      0.334983
      6.34166      2.11389      9.00000        -0.001560      0.001569      0.335428
      4.22777      2.11389     11.11389        -0.001076      0.001629     -0.326721
      6.34166      0.00000     11.11389        -0.001513      0.005412     -0.325900
      4.22777      4.22777      9.00000        -0.001548     -0.000796      0.335562
      6.34166      6.34166      9.00000        -0.004718     -0.006167      0.337040
      4.22777      6.34166     11.11389        -0.001059     -0.001059     -0.324235
      6.34166      4.22777     11.11389        -0.001595     -0.000050     -0.324993
      4.22777      8.45554      9.00000        -0.006167     -0.004718      0.337040
      6.34166     10.56943      9.00000        -0.028836     -0.015494      0.339569
      4.22777     10.56943     11.11389        -0.005003     -0.004940     -0.318310
      6.34166      8.45554     11.11389        -0.004724     -0.004724     -0.310938
      4.22777     12.68331      9.00000        -0.017725     -0.003289      0.336857
      6.34166     14.79720      9.00000        -0.018221      0.009920      0.323784
      4.22777     14.79720     11.11389        -0.019883     -0.000286     -0.321662
      6.34166     12.68331     11.11389        -0.073298     -0.015086     -0.302574
      4.22777     16.91108      9.00000        -0.009127      0.005633      0.334273
      6.34166     19.02497      9.00000        -0.005633      0.009127      0.334273
      4.22777     19.02497     11.11389        -0.004798      0.004798     -0.326043
      6.34166     16.91108     11.11389        -0.015449      0.015449     -0.322957
      8.45554      0.00000      9.00000        -0.000720      0.007101      0.335756
     10.56943      2.11389      9.00000        -0.000000      0.000000      0.335699
      8.45554      2.11389     11.11389        -0.000721      0.001523     -0.325626
     10.56943      0.00000     11.11389         0.001540      0.004556     -0.324143
      8.45554      4.22777      9.00000        -0.002349     -0.003915      0.336032
     10.56943      6.34166      9.00000        -0.003289     -0.017725      0.336857
      8.45554      6.34166     11.11389        -0.004940     -0.005003     -0.318310
     10.56943      4.22777     11.11389        -0.001540     -0.004556     -0.324143
      8.45554      8.45554      9.00000        -0.015494     -0.028836      0.339569
     10.56943     10.56943      9.00000         0.016976     -0.018652      0.257737
      8.45554     10.56943     11.11389        -0.038963     -0.038963     -0.176545
     10.56943      8.45554     11.11389        -0.015086     -0.073298     -0.302574
      8.45554     12.68331      9.00000        -0.018652      0.016976      0.257737
     10.56943     14.79720      9.00000        -0.016976      0.018652      0.257737
      8.45554     14.79720     11.11389        -0.087787      0.087787     -0.427431
     10.56943     12.68331     11.11389        -0.000000      0.000000     -0.171626
      8.45554     16.91108      9.00000        -0.009920      0.018221      0.323784
     10.56943     19.02497      9.00000         0.003289      0.017725      0.336857
[...]
     19.02497      6.34166     11.11389        -0.003493      0.002838      0.383508
     16.91108      6.34166      9.00000        -0.005436      0.005436     -0.392117
     19.02497      4.22777      9.00000        -0.001967      0.001967     -0.392434
     16.91108      8.45554     11.11389        -0.010822      0.007188      0.382500
     19.02497     10.56943     11.11389        -0.005720      0.000422      0.381693
     16.91108     10.56943      9.00000        -0.015230      0.003154     -0.390093
     19.02497      8.45554      9.00000        -0.005263      0.002969     -0.392463
     16.91108     12.68331     11.11389        -0.013731     -0.006312      0.376882
     19.02497     14.79720     11.11389        -0.002637     -0.002761      0.380795
     16.91108     14.79720      9.00000        -0.009905     -0.006733     -0.395016
     19.02497     12.68331      9.00000        -0.005521     -0.001522     -0.393109
     16.91108     16.91108     11.11389        -0.004090     -0.004283      0.378065
     19.02497     19.02497     11.11389        -0.000289     -0.001283      0.382809
     16.91108     19.02497      9.00000        -0.003202     -0.003202     -0.393578
     19.02497     16.91108      9.00000        -0.001848     -0.002729     -0.393282
    total drift:                               -0.000014     -0.110149     -0.363490

  FREE ENERGIE OF THE ION-ELECTRON SYSTEM (eV)
  free  energy   TOTEN  =      -794.18590382 eV

  energy  without entropy=     -794.18590382  energy(sigma->0) =     -794.18590382