 vasp.6.3.0 20Jan22 (build Apr  1 2022 16:44:48) complex
 executed on        HPECrayEX_GCC date 2023.01.09  19:41:03

 INCAR:
   SYSTEM = MgO-rocksalt
   ISMEAR = 0
   SIGMA = 0.05
   EDIFF = 1E-6
   ALGO = ALL
   ISTART = 0
   IBRION = -1
   NSW = 0
   ISYM = 2
   DIPOL = 0.5 0.5 0.5
   IDIPOL = 3
   LDIPOL = .TRUE.
   GGA = PS
   IVDW = 13
   VDW_S8 = 1.71885698
   VDW_A1 = 0.47901421
   VDW_A2 = 5.96771589
   ENCUT = 520
   PREC = Accurate
   LASPH = .TRUE.
   LREAL = Auto
   ISPIN = 1
   NELM = 200
   NELMIN = 8
   NCORE = 4
   KPAR = 2
   LWAVE = .FALSE.
   LCHARG = .FALSE.

 POTCAR:    PAW_PBE Au 04Oct2007
 POTCAR:    PAW_PBE Mg_pv 13Apr2007
 POTCAR:    PAW_PBE O 08Apr2002
 POTCAR:    PAW_PBE Au 04Oct2007
   VRHFIN =Au: s1d10

   TITEL  = PAW_PBE Au 04Oct2007
   POMASS =  196.966; ZVAL   =   11.000    mass and valenz
   ENMAX  =  229.943; ENMIN  =  172.457 eV

   TITEL  = PAW_PBE Mg_pv 13Apr2007
   POMASS =   24.305; ZVAL   =    8.000    mass and valenz
   ENMAX  =  403.929; ENMIN  =  302.947 eV

   TITEL  = PAW_PBE O 08Apr2002
   POMASS =   16.000; ZVAL   =    6.000    mass and valenz
   ENMAX  =  400.000; ENMIN  =  300.000 eV

 Optimization of the real space projectors (new method)

 maximal supplied QI-value         = 15.12
 optimisation between [QCUT,QGAM] = [ 11.64, 23.28] = [ 37.95,151.78] Ry
 Optimized for a Real-space Cutoff    1.49 Angstroem

   l    n(q)    QCUT    max X(q) W(low)/X(q) W(high)/X(q)  e(spline)
   2      9    11.641    60.898    0.24E-03    0.10E-03    0.19E-06
   2      9    11.641    58.894    0.25E-03    0.10E-03    0.19E-06
   0     10    11.641   109.617    0.73E-04    0.33E-04    0.11E-06
   0     10    11.641    75.026    0.71E-04    0.32E-04    0.11E-06
   1     10    11.641    16.344    0.27E-04    0.97E-04    0.16E-06
   1     10    11.641    10.160    0.23E-04    0.77E-04    0.13E-06
 Optimization of the real space projectors (new method)

[...]

   l    n(q)    QCUT    max X(q) W(low)/X(q) W(high)/X(q)  e(spline)
   1      8    11.527     2.974    0.44E-04    0.56E-04    0.12E-06
   1      8    11.527     4.279    0.12E-03    0.12E-03    0.26E-06
   0      9    11.527    16.381    0.46E-04    0.64E-04    0.78E-07
   0      9    11.527     5.611    0.26E-04    0.43E-04    0.55E-07
   2      8    11.527     4.652    0.22E-03    0.72E-04    0.47E-07
 Optimization of the real space projectors (new method)

 maximal supplied QI-value         = 24.76
 optimisation between [QCUT,QGAM] = [ 11.64, 23.27] = [ 37.91,151.63] Ry
 Optimized for a Real-space Cutoff    1.14 Angstroem

   l    n(q)    QCUT    max X(q) W(low)/X(q) W(high)/X(q)  e(spline)
   0      8    11.635    20.381    0.10E-03    0.33E-03    0.24E-06
   0      8    11.635    15.268    0.11E-03    0.35E-03    0.26E-06
   1      7    11.635     5.964    0.24E-03    0.31E-03    0.30E-06
   1      7    11.635     5.382    0.22E-03    0.25E-03    0.26E-06
|               ----> ADVICE to this user running VASP <----                  |
|     You enforced a specific xc type in the INCAR file but a different       |
|     type was found in the POTCAR file.                                      |
|     I HOPE YOU KNOW WHAT YOU ARE DOING!                                     |

  PAW_PBE Au 04Oct2007                  :
  PAW_PBE Mg_pv 13Apr2007               :
  PAW_PBE O 08Apr2002                   :

 POSCAR: Au Mg  O
  positions in direct lattice
  velocities in cartesian coordinates
|           W    W    AA    RRRRR   N    N  II  N    N   GGGG   !!!           |
|           W    W   A  A   R    R  NN   N  II  NN   N  G    G  !!!           |
|           W    W  A    A  R    R  N N  N  II  N N  N  G       !!!           |
|           W WW W  AAAAAA  RRRRR   N  N N  II  N  N N  G  GGG   !            |
|           WW  WW  A    A  R   R   N   NN  II  N   NN  G    G                |
|           W    W  A    A  R    R  N    N  II  N    N   GGGG   !!!           |
|     Specifying the vdW parameters                                           |
|     VDW_S8 = 1.719                                                          |
|     VDW_A1 = 0.479                                                          |
|     VDW_A2 = 5.968                                                          |
|     in the INCAR file will overwrite the defaults for pbesol. Please        |
|     make sure that is what you intended.                                    |

 ion  position               nearest neighbor table
   1  0.290  0.507  0.638-   2 2.69   3 2.71
   2  0.397  0.442  0.618-   1 2.69   4 2.69 153 2.70   3 2.70  55 2.83
   3  0.397  0.569  0.609- 157 2.45   2 2.70   1 2.71   4 2.71  55 2.78
   4  0.505  0.506  0.637-   2 2.69   3 2.71
   5  0.000  0.000  0.407- 107 2.11 108 2.11 123 2.11 188 2.11 105 2.11
   6  0.100  0.100  0.407- 107 2.11 108 2.11 112 2.11 127 2.11 106 2.11
   7  0.000  0.100  0.503- 105 2.11 106 2.11 109 2.11 186 2.11 107 2.11
   8  0.100  0.000  0.503- 105 2.11 106 2.11 122 2.11 125 2.11 108 2.11
   9  0.000  0.200  0.407- 111 2.11 107 2.11 112 2.11 192 2.11 109 2.11
  10  0.100  0.300  0.407- 112 2.11 111 2.11 116 2.11 131 2.11 110 2.11
  11  0.000  0.300  0.503- 109 2.11 110 2.11 113 2.11 190 2.11 111 2.11
  12  0.100  0.200  0.503- 110 2.11 109 2.11 106 2.11 129 2.11 112 2.11
  13  0.000  0.400  0.407- 111 2.11 115 2.11 116 2.11 196 2.11 113 2.11
  14  0.100  0.500  0.407- 115 2.11 116 2.11 120 2.11 135 2.11 114 2.11
  15  0.000  0.500  0.503- 113 2.11 114 2.11 117 2.11 194 2.11 115 2.11
  16  0.100  0.400  0.503- 110 2.11 113 2.11 114 2.11 133 2.11 116 2.11
  17  0.000  0.600  0.407- 115 2.11 119 2.11 120 2.11 200 2.11 117 2.11
  18  0.100  0.700  0.407- 124 2.11 120 2.11 119 2.11 139 2.11 118 2.11
  19  0.000  0.700  0.503- 121 2.11 118 2.11 117 2.11 198 2.11 119 2.11
  20  0.100  0.600  0.503- 114 2.11 117 2.11 118 2.11 137 2.11 120 2.11
  21  0.000  0.800  0.407- 119 2.11 123 2.11 124 2.11 204 2.11 121 2.11
  22  0.100  0.900  0.407- 108 2.11 123 2.11 124 2.11 143 2.11 122 2.11
  23  0.000  0.900  0.503- 105 2.11 121 2.11 122 2.11 202 2.11 123 2.11
  24  0.100  0.800  0.503- 118 2.11 121 2.11 122 2.11 141 2.11 124 2.11
  25  0.200  0.000  0.407- 128 2.11 127 2.11 108 2.11 143 2.11 125 2.11
  26  0.300  0.100  0.407- 127 2.11 128 2.11 132 2.11 147 2.11 126 2.11
  27  0.200  0.100  0.503- 126 2.11 125 2.11 106 2.11 129 2.11 127 2.11
  28  0.300  0.000  0.503- 125 2.11 126 2.11 142 2.11 145 2.11 128 2.11
  29  0.200  0.200  0.407- 131 2.11 132 2.11 112 2.11 127 2.11 129 2.11
  30  0.300  0.300  0.407- 131 2.11 132 2.11 136 2.11 151 2.11 130 2.11
  31  0.200  0.300  0.503- 129 2.11 130 2.11 110 2.11 133 2.11 131 2.11
  32  0.300  0.200  0.503- 129 2.11 130 2.11 126 2.11 149 2.11 132 2.11
  33  0.200  0.400  0.407- 136 2.11 131 2.11 135 2.11 116 2.11 133 2.11
  34  0.300  0.500  0.407- 135 2.11 136 2.11 140 2.11 155 2.11 134 2.11
  35  0.200  0.500  0.503- 134 2.11 133 2.11 114 2.11 137 2.11 135 2.11
  36  0.300  0.400  0.503- 133 2.11 130 2.11 134 2.11 153 2.11 136 2.11
  37  0.200  0.600  0.407- 140 2.11 135 2.11 139 2.11 120 2.11 137 2.11
  38  0.300  0.700  0.407- 139 2.11 144 2.11 140 2.11 159 2.11 138 2.11
  39  0.200  0.700  0.503- 138 2.11 141 2.11 118 2.11 137 2.11 139 2.11
  40  0.300  0.600  0.503- 137 2.11 134 2.11 138 2.11 157 2.11 140 2.11
  41  0.200  0.800  0.407- 139 2.11 144 2.11 143 2.11 124 2.11 141 2.11
  42  0.300  0.900  0.407- 143 2.11 128 2.11 144 2.11 163 2.11 142 2.11
  43  0.200  0.900  0.503- 142 2.11 125 2.11 141 2.11 122 2.11 143 2.11
  44  0.300  0.800  0.503- 138 2.11 141 2.11 142 2.11 161 2.11 144 2.11
  45  0.400  0.000  0.407- 128 2.11 147 2.11 148 2.11 163 2.11 145 2.11
  46  0.500  0.100  0.407- 147 2.11 148 2.11 152 2.11 167 2.11 146 2.11
  47  0.400  0.100  0.503- 126 2.11 145 2.11 146 2.11 149 2.11 147 2.11
  48  0.500  0.000  0.503- 145 2.11 146 2.11 162 2.11 165 2.11 148 2.11
  49  0.400  0.200  0.407- 151 2.11 147 2.11 132 2.11 152 2.11 149 2.11
  50  0.500  0.300  0.407- 152 2.11 151 2.11 156 2.11 171 2.11 150 2.11
  51  0.400  0.300  0.503- 149 2.11 130 2.11 150 2.11 153 2.11 151 2.11
  52  0.500  0.200  0.503- 150 2.11 149 2.11 146 2.11 169 2.11 152 2.11
  53  0.400  0.400  0.407- 136 2.11 151 2.11 155 2.11 156 2.11 153 2.11
  54  0.500  0.500  0.407- 155 2.11 156 2.11 160 2.11 175 2.11 154 2.11
  55  0.400  0.500  0.503- 134 2.11 153 2.11 154 2.11 157 2.11 155 2.11   3 2.78   2 2.83
  56  0.500  0.400  0.503- 150 2.11 153 2.11 154 2.11 173 2.11 156 2.11
  57  0.400  0.600  0.407- 140 2.11 155 2.11 159 2.11 160 2.11 157 2.11
  58  0.500  0.700  0.407- 164 2.11 160 2.11 159 2.11 179 2.11 158 2.11
  59  0.400  0.700  0.503- 161 2.11 157 2.11 158 2.11 138 2.11 159 2.11
  60  0.500  0.600  0.503- 154 2.11 157 2.11 158 2.11 177 2.11 160 2.11
[...]
 190  0.900  0.300  0.503-  92 2.11  91 2.11  11 2.11  96 2.11  90 2.11
 191  0.800  0.300  0.407-  70 2.11  89 2.11  90 2.11  93 2.11  91 2.11
 192  0.900  0.200  0.407-  90 2.11  86 2.11  89 2.11   9 2.11  92 2.11
 193  0.800  0.400  0.503-  76 2.11  91 2.11  95 2.11  96 2.11  93 2.11
 194  0.900  0.500  0.503-  15 2.11  95 2.11  96 2.11 100 2.11  94 2.11
 195  0.800  0.500  0.407-  74 2.11  93 2.11  94 2.11  97 2.11  95 2.11
 196  0.900  0.400  0.407-  13 2.11  90 2.11  93 2.11  94 2.11  96 2.11
 197  0.800  0.600  0.503-  80 2.11  95 2.11  99 2.11 100 2.11  97 2.11
 198  0.900  0.700  0.503- 104 2.11  99 2.11 100 2.11  19 2.11  98 2.11
 199  0.800  0.700  0.407-  78 2.11 101 2.11  98 2.11  97 2.11  99 2.11
 200  0.900  0.600  0.407-  17 2.11  94 2.11  97 2.11  98 2.11 100 2.11
 201  0.800  0.800  0.503-  84 2.11  99 2.11 103 2.11 104 2.11 101 2.11
 202  0.900  0.900  0.503-  23 2.11  88 2.11 103 2.11 104 2.11 102 2.11
 203  0.800  0.900  0.407-  82 2.11  85 2.11 101 2.11 102 2.11 103 2.11
 204  0.900  0.800  0.407-  98 2.11  21 2.11 101 2.11 102 2.11 104 2.11

  LATTYP: Found a simple tetragonal cell.
 ALAT       =    21.1388521970
 C/A-ratio  =     1.0461251639

  Lattice vectors:

 A1 = (  21.1388521970,   0.0000000000,   0.0000000000)
 A2 = (   0.0000000000,  21.1388521970,   0.0000000000)
 A3 = (   0.0000000000,   0.0000000000,  22.1138852197)

Analysis of symmetry for initial positions (statically):
 Subroutine PRICEL returns:
 Original cell was already a primitive cell.

 Routine SETGRP: Setting up the symmetry group for a
 simple tetragonal supercell.

 Subroutine GETGRP returns: Found  1 space group operations
 (whereof  1 operations were pure point group operations)
 out of a pool of 16 trial point group operations.

The static configuration has the point symmetry C_1 .

Analysis of symmetry for dynamics (positions and initial velocities):
 Subroutine PRICEL returns:
 Original cell was already a primitive cell.

[...]

The dynamic configuration has the point symmetry C_1 .

Analysis of constrained symmetry for selective dynamics:
 Subroutine PRICEL returns:
 Original cell was already a primitive cell.

 Routine SETGRP: Setting up the symmetry group for a
 simple tetragonal supercell.

 Subroutine GETGRP returns: Found  1 space group operations
 (whereof  1 operations were pure point group operations)
 out of a pool of 16 trial point group operations.

[...]
     54     -42.8463      2.00000
     55     -42.8438      2.00000
     56     -42.8434      2.00000
     57     -42.8424      2.00000
     58     -42.8413      2.00000
     59     -42.8395      2.00000
     60     -42.8371      2.00000
[...]
    946       6.2075      0.00000
    947       6.2287      0.00000
    948       6.2642      0.00000
    949       6.3085      0.00000
    950       6.3685      0.00000
    951       6.4079      0.00000
    952       6.4438      0.00000
    953       6.5133      0.00000
    954       6.5242      0.00000
    955       6.6165      0.00000
    956       6.6321      0.00000
    957       6.7095      0.00000
    958       6.7720      0.00000
    959       6.8114      0.00000
    960       6.8403      0.00000

 soft charge-density along one line, spin component           1
         0         1         2         3         4         5         6         7         8         9
 total charge-density along one line

------------------------ aborting loop because EDIFF is reached ----------------------------------------

  FORCE on cell =-STRESS in cart. coord.  units (eV):
  Direction    XX          YY          ZZ          XY          YZ          ZX
  Alpha Z  1417.83424  1417.83424  1417.83424
  Ewald  484651.50164483712.19756************    -3.57601   -87.59049   -13.50229
  Hartree513648.52092512864.38454************    -3.39135   -60.84566    -9.41466
  E(xc)   -7691.64708 -7691.96582 -7709.97120     0.00005    -0.05994    -0.01461
  Local  ************************************     7.09708   146.42588    22.50614
  n-local -8813.32477 -8813.40616 -8925.58364    -0.08568     0.89924     0.30674
  augment  3484.80651  3485.42452  3430.33505    -0.00958     0.33414     0.01088
  Kinetic 23244.39680 23245.38650 23521.77678    -0.04236     0.94332     0.15341
  Fock        0.00000     0.00000     0.00000     0.00000     0.00000     0.00000
  vdW       -11.64371   -11.62533    -3.16521    -0.00004    -0.00178     0.00015
  Total    -209.69017  -209.19648   -12.32296    -0.00789     0.10472     0.04576
  in kB     -33.99858   -33.91854    -1.99801    -0.00128     0.01698     0.00742

 VOLUME and BASIS-vectors are now :
  energy-cutoff  :      520.00
  volume of cell :     9881.61
      direct lattice vectors                 reciprocal lattice vectors
    21.138852197  0.000000000  0.000000000     0.047306258  0.000000000  0.000000000
     0.000000000 21.138852197  0.000000000     0.000000000  0.047306258  0.000000000
     0.000000000  0.000000000 22.113885220     0.000000000  0.000000000  0.045220457

  length of vectors
    21.138852197 21.138852197 22.113885220     0.047306258  0.047306258  0.045220457

 FORCES acting on ions:
    Electron-Ion                     Ewald-Force                    Non-Local-Force
   0.485E+03 -.686E+01 -.207E+04   -.480E+03 0.671E+01 0.207E+04   -.433E+01 0.149E+00 0.765E+00
   0.184E+01 0.484E+03 -.204E+04   -.183E+01 -.480E+03 0.204E+04   -.413E-02 -.405E+01 -.651E+00
   -.140E+01 -.471E+03 -.203E+04   0.131E+01 0.468E+03 0.203E+04   0.974E-01 0.329E+01 -.879E+00
   -.485E+03 -.423E+01 -.207E+04   0.480E+03 0.406E+01 0.207E+04   0.435E+01 0.172E+00 0.662E+00
   0.664E+01 -.546E+00 0.937E+03   -.667E+01 0.554E+00 -.929E+03   0.218E-01 -.593E-02 -.771E+01
   0.127E+02 0.109E+02 0.941E+03   -.127E+02 -.109E+02 -.933E+03   0.439E-01 -.370E-02 -.771E+01
   0.954E+01 0.100E+02 -.918E+03   -.956E+01 -.100E+02 0.910E+03   0.213E-01 -.154E-01 0.764E+01
   0.135E+02 -.967E+00 -.917E+03   -.136E+02 0.979E+00 0.909E+03   0.354E-01 -.939E-02 0.764E+01
   0.107E+02 0.143E+02 0.941E+03   -.108E+02 -.143E+02 -.933E+03   0.300E-01 -.134E-01 -.771E+01
   0.288E+02 0.247E+02 0.957E+03   -.289E+02 -.247E+02 -.948E+03   0.102E+00 -.811E-02 -.774E+01
   0.227E+02 0.217E+02 -.911E+03   -.227E+02 -.216E+02 0.903E+03   0.138E-01 -.281E-01 0.763E+01
   0.259E+02 0.288E+02 -.910E+03   -.260E+02 -.288E+02 0.902E+03   0.617E-01 -.311E-01 0.763E+01
   0.211E+02 0.113E+02 0.951E+03   -.212E+02 -.112E+02 -.943E+03   0.369E-01 -.725E-02 -.773E+01
   0.468E+02 0.135E+01 0.974E+03   -.470E+02 -.137E+01 -.966E+03   0.132E+00 0.128E-01 -.779E+01
   0.376E+02 0.108E+01 -.903E+03   -.376E+02 -.108E+01 0.895E+03   -.293E-01 0.569E-02 0.762E+01
   0.704E+02 0.318E+02 -.884E+03   -.704E+02 -.317E+02 0.877E+03   0.106E-01 -.511E-01 0.758E+01
   0.217E+02 -.102E+02 0.952E+03   -.218E+02 0.101E+02 -.944E+03   0.457E-01 0.173E-01 -.773E+01
   0.305E+02 -.247E+02 0.958E+03   -.306E+02 0.246E+02 -.950E+03   0.137E+00 0.126E-01 -.775E+01
   0.240E+02 -.215E+02 -.910E+03   -.240E+02 0.215E+02 0.902E+03   0.224E-01 0.314E-01 0.763E+01
   0.738E+02 -.293E+02 -.883E+03   -.738E+02 0.292E+02 0.875E+03   0.261E-01 0.662E-01 0.758E+01
   0.113E+02 -.148E+02 0.942E+03   -.114E+02 0.148E+02 -.934E+03   0.396E-01 0.927E-02 -.771E+01
   0.132E+02 -.123E+02 0.941E+03   -.133E+02 0.123E+02 -.933E+03   0.534E-01 -.135E-01 -.771E+01
   0.995E+01 -.113E+02 -.918E+03   -.999E+01 0.112E+02 0.910E+03   0.261E-01 0.640E-02 0.764E+01
   0.278E+02 -.304E+02 -.909E+03   -.279E+02 0.304E+02 0.901E+03   0.845E-01 0.255E-01 0.763E+01
   0.113E+02 -.104E+01 0.942E+03   -.114E+02 0.106E+01 -.934E+03   0.421E-01 -.157E-01 -.771E+01
   0.857E+01 0.192E+02 0.949E+03   -.862E+01 -.193E+02 -.940E+03   0.351E-01 0.552E-01 -.772E+01
   0.175E+02 0.214E+02 -.912E+03   -.175E+02 -.214E+02 0.904E+03   0.456E-01 0.861E-02 0.764E+01
   0.901E+01 -.181E+01 -.913E+03   -.904E+01 0.184E+01 0.905E+03   0.265E-01 -.204E-01 0.764E+01
   0.207E+02 0.301E+02 0.955E+03   -.209E+02 -.302E+02 -.947E+03   0.977E-01 0.391E-01 -.772E+01
   0.250E+02 0.556E+02 0.995E+03   -.253E+02 -.558E+02 -.986E+03   0.219E+00 0.185E+00 -.770E+01
   0.598E+02 0.698E+02 -.877E+03   -.600E+02 -.697E+02 0.870E+03   0.219E+00 -.903E-01 0.758E+01
   0.219E+02 0.653E+02 -.893E+03   -.219E+02 -.655E+02 0.885E+03   0.643E-01 0.140E+00 0.762E+01
   0.519E+02 0.322E+02 0.100E+04   -.524E+02 -.323E+02 -.992E+03   0.326E+00 0.304E-01 -.787E+01
   0.490E+02 0.440E+01 0.107E+04   -.496E+02 -.452E+01 -.106E+04   0.430E+00 0.930E-01 -.798E+01
   0.150E+03 0.678E+01 -.785E+03   -.150E+03 -.679E+01 0.778E+03   0.131E+00 0.663E-02 0.693E+01
   0.109E+03 0.136E+03 -.727E+03   -.111E+03 -.136E+03 0.720E+03   0.117E+01 -.949E-01 0.692E+01
   0.544E+02 -.294E+02 0.100E+04   -.549E+02 0.294E+02 -.995E+03   0.417E+00 0.121E-01 -.788E+01
   0.273E+02 -.571E+02 0.100E+04   -.277E+02 0.574E+02 -.993E+03   0.290E+00 -.222E+00 -.767E+01
   0.656E+02 -.726E+02 -.873E+03   -.660E+02 0.725E+02 0.865E+03   0.312E+00 0.105E+00 0.757E+01
   0.123E+03 -.131E+03 -.703E+03   -.126E+03 0.131E+03 0.697E+03   0.175E+01 0.221E+00 0.662E+01
   0.223E+02 -.319E+02 0.957E+03   -.224E+02 0.320E+02 -.949E+03   0.130E+00 -.662E-01 -.772E+01
   0.904E+01 -.220E+02 0.950E+03   -.910E+01 0.221E+02 -.942E+03   0.433E-01 -.106E+00 -.772E+01
   0.185E+02 -.244E+02 -.912E+03   -.186E+02 0.244E+02 0.904E+03   0.556E-01 -.403E-01 0.764E+01
   0.243E+02 -.714E+02 -.890E+03   -.244E+02 0.716E+02 0.882E+03   0.834E-01 -.225E+00 0.762E+01
   -.227E+00 -.142E+01 0.946E+03   0.225E+00 0.145E+01 -.938E+03   0.106E-02 -.251E-01 -.771E+01
   -.897E+01 0.191E+02 0.948E+03   0.902E+01 -.191E+02 -.940E+03   -.334E-01 0.551E-01 -.772E+01
   -.362E+00 0.311E+02 -.908E+03   0.360E+00 -.312E+02 0.900E+03   0.115E-02 0.597E-01 0.764E+01
   -.945E+01 -.177E+01 -.913E+03   0.948E+01 0.180E+01 0.905E+03   -.247E-01 -.210E-01 0.764E+01
   -.437E+00 0.439E+02 0.967E+03   0.435E+00 -.443E+02 -.959E+03   0.128E-02 0.266E+00 -.776E+01
   -.260E+02 0.548E+02 0.994E+03   0.262E+02 -.551E+02 -.986E+03   -.214E+00 0.196E+00 -.770E+01
   -.181E+01 0.139E+03 -.825E+03   0.180E+01 -.141E+03 0.817E+03   0.183E-02 0.109E+01 0.764E+01
   -.227E+02 0.644E+02 -.893E+03   0.228E+02 -.645E+02 0.885E+03   -.614E-01 0.140E+00 0.762E+01
   -.131E+01 0.563E+02 0.106E+04   0.129E+01 -.566E+02 -.105E+04   0.163E-01 0.260E+00 -.627E+01
   -.507E+02 0.424E+01 0.107E+04   0.513E+02 -.436E+01 -.106E+04   -.421E+00 0.932E-01 -.794E+01
   -.602E+01 0.231E+02 -.504E+03   0.598E+01 -.240E+02 0.499E+03   0.547E-01 0.637E+00 0.456E+01
   -.111E+03 0.133E+03 -.733E+03   0.112E+03 -.133E+03 0.726E+03   -.117E+01 -.614E-01 0.698E+01
   -.148E+01 -.517E+02 0.107E+04   0.146E+01 0.518E+02 -.106E+04   0.190E-01 -.131E+00 -.553E+01
   -.284E+02 -.563E+02 0.999E+03   0.288E+02 0.566E+02 -.991E+03   -.284E+00 -.234E+00 -.767E+01
   -.232E+01 -.154E+03 -.809E+03   0.231E+01 0.156E+03 0.801E+03   0.709E-02 -.162E+01 0.765E+01
   -.125E+03 -.128E+03 -.712E+03   0.127E+03 0.128E+03 0.705E+03   -.174E+01 0.192E+00 0.673E+01
[...]
   -.112E+02 0.118E+02 0.711E+03   0.113E+02 -.118E+02 -.715E+03   -.334E-01 -.120E-01 0.352E+01
   0.225E+00 0.909E+01 0.706E+03   -.223E+00 -.908E+01 -.710E+03   -.203E-02 -.140E-01 0.353E+01
   -.229E+02 0.115E+02 -.681E+03   0.229E+02 -.115E+02 0.685E+03   -.111E-01 -.214E-01 -.368E+01
   0.721E+00 0.567E+00 -.684E+03   -.717E+00 -.571E+00 0.688E+03   -.562E-02 0.579E-02 -.367E+01
   -.169E+02 0.543E+00 0.716E+03   0.169E+02 -.550E+00 -.720E+03   -.310E-01 0.885E-02 0.350E+01
   0.422E+00 0.675E+01 0.711E+03   -.419E+00 -.674E+01 -.715E+03   -.428E-02 -.739E-02 0.352E+01
   -.237E+02 -.105E+02 -.681E+03   0.237E+02 0.105E+02 0.685E+03   -.173E-01 0.336E-01 -.368E+01
   0.498E+00 -.125E+02 -.687E+03   -.495E+00 0.125E+02 0.691E+03   -.415E-02 0.269E-01 -.365E+01
   -.118E+02 -.117E+02 0.711E+03   0.118E+02 0.117E+02 -.715E+03   -.434E-01 0.155E-01 0.352E+01
   0.443E+00 -.609E+01 0.712E+03   -.440E+00 0.608E+01 -.715E+03   -.469E-02 0.173E-01 0.352E+01
   -.108E+02 -.142E+02 -.688E+03   0.109E+02 0.142E+02 0.692E+03   -.320E-01 0.150E-01 -.365E+01
   0.221E+00 -.709E+01 -.691E+03   -.220E+00 0.708E+01 0.695E+03   -.180E-02 0.469E-02 -.364E+01
   -.562E+01 -.656E+01 0.705E+03   0.564E+01 0.656E+01 -.709E+03   -.319E-01 -.424E-02 0.354E+01
   0.247E+00 -.939E+01 0.706E+03   -.245E+00 0.939E+01 -.710E+03   -.251E-02 0.994E-02 0.353E+01
   0.521E-01 0.781E+00 0.158E+02   0.273E-11 0.210E-11 0.218E-10   -.505E-01 -.779E+00 -.162E+02

 POSITION                                       TOTAL-FORCE (eV/Angst)
      6.12143     10.70919     14.10279         0.361932     -0.005690     -0.197893
      8.38943      9.33976     13.66282         0.004186      0.391914     -0.108676
      8.39418     12.03706     13.47256         0.002754     -0.363266     -0.130280
     10.67333     10.69253     14.07734        -0.358727     -0.006029     -0.199385
      0.00000      0.00000      9.00000        -0.005991      0.001641      0.458514
      2.11389      2.11389      9.00000        -0.012129      0.000884      0.458998
      0.00000      2.11389     11.11389        -0.005678      0.004226     -0.434508
      2.11389      0.00000     11.11389        -0.009814      0.002538     -0.433845
      0.00000      4.22777      9.00000        -0.007848      0.003777      0.460611
      2.11389      6.34166      9.00000        -0.026060      0.002900      0.468835
      0.00000      6.34166     11.11389        -0.002630      0.008357     -0.428583
      2.11389      4.22777     11.11389        -0.015729      0.008926     -0.428419
      0.00000      8.45554      9.00000        -0.009297      0.002501      0.465972
      2.11389     10.56943      9.00000        -0.033928     -0.003673      0.483281
      0.00000     10.56943     11.11389         0.009889     -0.001591     -0.420972
      2.11389      8.45554     11.11389         0.006497      0.019769     -0.395711
      0.00000     12.68331      9.00000        -0.011588     -0.005336      0.466244
      2.11389     14.79720      9.00000        -0.034997     -0.004107      0.469996
      0.00000     14.79720     11.11389        -0.004738     -0.009315     -0.427889
      2.11389     12.68331     11.11389         0.002433     -0.024185     -0.392784
      0.00000     16.91108      9.00000        -0.010361     -0.002634      0.460765
      2.11389     19.02497      9.00000        -0.014735      0.003857      0.458850
      0.00000     19.02497     11.11389        -0.006948     -0.001742     -0.434208
      2.11389     16.91108     11.11389        -0.021538     -0.007355     -0.427071
      4.22777      0.00000      9.00000        -0.011921      0.004220      0.458908
      6.34166      2.11389      9.00000        -0.010223     -0.014338      0.460299
      4.22777      2.11389     11.11389        -0.012790     -0.001754     -0.430693
      6.34166      0.00000     11.11389        -0.007577      0.005371     -0.431416
      4.22777      4.22777      9.00000        -0.027470     -0.011357      0.460678
      6.34166      6.34166      9.00000        -0.070326     -0.056853      0.447424
      4.22777      6.34166     11.11389        -0.051241      0.031930     -0.390960
      6.34166      4.22777     11.11389        -0.018879     -0.034119     -0.417640
      4.22777      8.45554      9.00000        -0.081094     -0.005208      0.497645
      6.34166     10.56943      9.00000        -0.138418     -0.029381      0.461344
      4.22777     10.56943     11.11389        -0.004355      0.000257     -0.152319
      6.34166      8.45554     11.11389        -0.381310      0.072262     -0.145409
      4.22777     12.68331      9.00000        -0.102707     -0.006891      0.500223
      6.34166     14.79720      9.00000        -0.093527      0.071272      0.433287
      4.22777     14.79720     11.11389        -0.073081     -0.037105     -0.380172
      6.34166     12.68331     11.11389        -0.593261     -0.094718     -0.105533
      4.22777     16.91108      9.00000        -0.036504      0.019195      0.459800
      6.34166     19.02497      9.00000        -0.012597      0.027879      0.460506
      4.22777     19.02497     11.11389        -0.015546      0.010059     -0.429673
      6.34166     16.91108     11.11389        -0.024132      0.056378     -0.412173
      8.45554      0.00000      9.00000        -0.000307      0.006635      0.459544
     10.56943      2.11389      9.00000         0.009711     -0.014352      0.460213
      8.45554      2.11389     11.11389        -0.000324     -0.014050     -0.428712
     10.56943      0.00000     11.11389         0.007043      0.005524     -0.431450
      8.45554      4.22777      9.00000        -0.000354     -0.066127      0.468015
     10.56943      6.34166      9.00000         0.068909     -0.060084      0.448825
      8.45554      6.34166     11.11389        -0.000803     -0.328753     -0.396140
     10.56943      4.22777     11.11389         0.018021     -0.033836     -0.417849
      8.45554      8.45554      9.00000        -0.005690     -0.049090      0.124843
     10.56943     10.56943      9.00000         0.136457     -0.029462      0.453741
      8.45554     10.56943     11.11389         0.009108     -0.273619     -0.371401
     10.56943      8.45554     11.11389         0.367188      0.065571     -0.138731
      8.45554     12.68331      9.00000        -0.006661      0.017896     -0.038969
     10.56943     14.79720      9.00000         0.091627      0.074752      0.433882
      8.45554     14.79720     11.11389        -0.002642      0.496994     -0.400474
     10.56943     12.68331     11.11389         0.567813     -0.091234     -0.104276
[...]
     19.02497      6.34166     11.11389        -0.000967     -0.006515      0.376295
     16.91108      6.34166      9.00000        -0.009295     -0.003279     -0.408847
     19.02497      4.22777      9.00000        -0.000561     -0.003843     -0.405919
     16.91108      8.45554     11.11389        -0.003515     -0.005798      0.368612
     19.02497     10.56943     11.11389        -0.001544      0.001572      0.372526
     16.91108     10.56943      9.00000        -0.008860      0.002407     -0.413983
     19.02497      8.45554      9.00000        -0.001179     -0.002122     -0.409231
     16.91108     12.68331     11.11389        -0.005272      0.009109      0.368021
     19.02497     14.79720     11.11389        -0.001143      0.007379      0.375822
     16.91108     14.79720      9.00000        -0.012059      0.004192     -0.408973
     19.02497     12.68331      9.00000        -0.001289      0.004790     -0.409290
     16.91108     16.91108     11.11389        -0.008856      0.004086      0.376935
     19.02497     19.02497     11.11389        -0.000504      0.001275      0.380238
     16.91108     19.02497      9.00000        -0.008759     -0.001168     -0.405007
     19.02497     16.91108      9.00000        -0.000691      0.002708     -0.405946
    total drift:                                0.001538      0.002355     -0.451154

  FREE ENERGIE OF THE ION-ELECTRON SYSTEM (eV)
  free  energy   TOTEN  =     -1207.08405764 eV

  energy  without entropy=    -1207.08405764  energy(sigma->0) =    -1207.08405764