 vasp.6.3.0 20Jan22 (build Apr  1 2022 16:44:48) complex
 executed on        HPECrayEX_GCC date 2023.02.10  07:43:58

 INCAR:
   SYSTEM = MgO-rocksalt
   ISMEAR = 0
   SIGMA = 0.05
   EDIFF = 1E-5
   ALGO = ALL
   ISTART = 0
   IBRION = -1
   NSW = 0
   ISYM = 2
   DIPOL = 0.5 0.5 0.5
   IDIPOL = 3
   LDIPOL = .TRUE.
   LHFCALC = .TRUE.
   GGA = B5
   AEXX = 0.2
   AGGAX = 0.72
   AGGAC = 0.81
   ALDAC = 0.19
   ENCUT = 520
   PREC = Accurate
   LASPH = .TRUE.
   LREAL = Auto
   ISPIN = 1
   NELM = 200
   NELMIN = 8
   NCORE = 4
   KPAR = 2
   LWAVE = .FALSE.
   LCHARG = .FALSE.

 POTCAR:    PAW_PBE Ag 02Apr2005
 POTCAR:    PAW_PBE Mg_pv 13Apr2007
 POTCAR:    PAW_PBE O 08Apr2002
|           W    W    AA    RRRRR   N    N  II  N    N   GGGG   !!!           |
|           W    W   A  A   R    R  NN   N  II  NN   N  G    G  !!!           |
|           W    W  A    A  R    R  N N  N  II  N N  N  G       !!!           |
|           W WW W  AAAAAA  RRRRR   N  N N  II  N  N N  G  GGG   !            |
|           WW  WW  A    A  R   R   N   NN  II  N   NN  G    G                |
|           W    W  A    A  R    R  N    N  II  N    N   GGGG   !!!           |
|     You have selected ISYM=2 for a HF type calculation. This will           |
|     symmetrize the charge density but not the exchange potential. I         |
|     suggest to use ISYM=3 instead. This uses symmetry to obtain the         |
|     orbitals at all k-points in the Brillouin zone, but does not apply      |
|     symmetry to the Hartree potential directly. The resultant charge        |
|     might have lower symmetry than the crystal but, at least, Hartree       |
|     and exchange are fully compatible.                                      |

   TITEL  = PAW_PBE Ag 02Apr2005
   POMASS =  107.868; ZVAL   =   11.000    mass and valenz
   ENMAX  =  249.844; ENMIN  =  187.383 eV

   TITEL  = PAW_PBE Mg_pv 13Apr2007
   POMASS =   24.305; ZVAL   =    8.000    mass and valenz
   ENMAX  =  403.929; ENMIN  =  302.947 eV

   TITEL  = PAW_PBE O 08Apr2002
   POMASS =   16.000; ZVAL   =    6.000    mass and valenz
   ENMAX  =  400.000; ENMIN  =  300.000 eV

 Optimization of the real space projectors (new method)

 maximal supplied QI-value         = 15.12
 optimisation between [QCUT,QGAM] = [ 11.64, 23.28] = [ 37.95,151.78] Ry
 Optimized for a Real-space Cutoff    1.45 Angstroem

   l    n(q)    QCUT    max X(q) W(low)/X(q) W(high)/X(q)  e(spline)
   2      9    11.641    53.897    0.22E-03    0.42E-04    0.28E-06
   2      9    11.641    52.416    0.23E-03    0.44E-04    0.29E-06
   0     10    11.641   122.045    0.51E-04    0.25E-04    0.16E-06
   0     10    11.641    73.629    0.49E-04    0.24E-04    0.16E-06
   1     10    11.641    15.255    0.99E-04    0.55E-04    0.11E-06
   1     10    11.641     9.562    0.81E-04    0.47E-04    0.95E-07
 Optimization of the real space projectors (new method)

[...]

   l    n(q)    QCUT    max X(q) W(low)/X(q) W(high)/X(q)  e(spline)
   1      8    11.527     2.974    0.44E-04    0.56E-04    0.12E-06
   1      8    11.527     4.279    0.12E-03    0.12E-03    0.26E-06
   0      9    11.527    16.381    0.46E-04    0.64E-04    0.78E-07
   0      9    11.527     5.611    0.26E-04    0.43E-04    0.55E-07
   2      8    11.527     4.652    0.22E-03    0.72E-04    0.47E-07
 Optimization of the real space projectors (new method)

 maximal supplied QI-value         = 24.76
 optimisation between [QCUT,QGAM] = [ 11.64, 23.27] = [ 37.91,151.63] Ry
 Optimized for a Real-space Cutoff    1.14 Angstroem

   l    n(q)    QCUT    max X(q) W(low)/X(q) W(high)/X(q)  e(spline)
   0      8    11.635    20.381    0.10E-03    0.33E-03    0.24E-06
   0      8    11.635    15.268    0.11E-03    0.35E-03    0.26E-06
   1      7    11.635     5.964    0.24E-03    0.31E-03    0.30E-06
   1      7    11.635     5.382    0.22E-03    0.25E-03    0.26E-06
|               ----> ADVICE to this user running VASP <----                  |
|     You enforced a specific xc type in the INCAR file but a different       |
|     type was found in the POTCAR file.                                      |
|     I HOPE YOU KNOW WHAT YOU ARE DOING!                                     |

  PAW_PBE Ag 02Apr2005                  :
  PAW_PBE Mg_pv 13Apr2007               :
  PAW_PBE O 08Apr2002                   :

 POSCAR: Ag Mg  O
  positions in direct lattice
 exchange correlation table for  LEXCH =       12
   RHO(1)=    0.500       N(1)  =     2000
   RHO(2)=  100.500       N(2)  =     4000

 ion  position               nearest neighbor table
   1  0.561  0.500  0.635-   2 2.57  73 3.05
   2  0.439  0.500  0.635-   1 2.57  53 3.05
   3  0.000  0.000  0.407- 105 2.11 106 2.11 121 2.11 186 2.11 103 2.11
   4  0.100  0.100  0.407- 105 2.11 106 2.11 110 2.11 125 2.11 104 2.11
   5  0.000  0.100  0.503- 103 2.11 104 2.11 107 2.11 184 2.11 105 2.11
   6  0.100  0.000  0.503- 103 2.11 104 2.11 120 2.11 123 2.11 106 2.11
   7  0.000  0.200  0.407- 109 2.11 105 2.11 110 2.11 190 2.11 107 2.11
   8  0.100  0.300  0.407- 110 2.11 109 2.11 114 2.11 129 2.11 108 2.11
   9  0.000  0.300  0.503- 107 2.11 108 2.11 111 2.11 188 2.11 109 2.11
  10  0.100  0.200  0.503- 108 2.11 107 2.11 104 2.11 127 2.11 110 2.11
  11  0.000  0.400  0.407- 109 2.11 113 2.11 114 2.11 194 2.11 111 2.11
  12  0.100  0.500  0.407- 113 2.11 114 2.11 118 2.11 133 2.11 112 2.11
  13  0.000  0.500  0.503- 111 2.11 112 2.11 115 2.11 192 2.11 113 2.11
  14  0.100  0.400  0.503- 108 2.11 111 2.11 112 2.11 131 2.11 114 2.11
  15  0.000  0.600  0.407- 113 2.11 117 2.11 118 2.11 198 2.11 115 2.11
  16  0.100  0.700  0.407- 122 2.11 118 2.11 117 2.11 137 2.11 116 2.11
  17  0.000  0.700  0.503- 119 2.11 116 2.11 115 2.11 196 2.11 117 2.11
  18  0.100  0.600  0.503- 112 2.11 115 2.11 116 2.11 135 2.11 118 2.11
  19  0.000  0.800  0.407- 117 2.11 121 2.11 122 2.11 202 2.11 119 2.11
  20  0.100  0.900  0.407- 106 2.11 121 2.11 122 2.11 141 2.11 120 2.11
  21  0.000  0.900  0.503- 103 2.11 119 2.11 120 2.11 200 2.11 121 2.11
  22  0.100  0.800  0.503- 116 2.11 119 2.11 120 2.11 139 2.11 122 2.11
  23  0.200  0.000  0.407- 126 2.11 125 2.11 106 2.11 141 2.11 123 2.11
  24  0.300  0.100  0.407- 125 2.11 126 2.11 130 2.11 145 2.11 124 2.11
  25  0.200  0.100  0.503- 124 2.11 123 2.11 104 2.11 127 2.11 125 2.11
  26  0.300  0.000  0.503- 123 2.11 124 2.11 140 2.11 143 2.11 126 2.11
  27  0.200  0.200  0.407- 129 2.11 130 2.11 110 2.11 125 2.11 127 2.11
  28  0.300  0.300  0.407- 129 2.11 130 2.11 134 2.11 149 2.11 128 2.11
  29  0.200  0.300  0.503- 127 2.11 128 2.11 108 2.11 131 2.11 129 2.11
  30  0.300  0.200  0.503- 127 2.11 128 2.11 124 2.11 147 2.11 130 2.11
  31  0.200  0.400  0.407- 134 2.11 129 2.11 133 2.11 114 2.11 131 2.11
  32  0.300  0.500  0.407- 133 2.11 134 2.11 138 2.11 153 2.11 132 2.11
  33  0.200  0.500  0.503- 132 2.11 131 2.11 112 2.11 135 2.11 133 2.11
  34  0.300  0.400  0.503- 131 2.11 128 2.11 132 2.11 151 2.11 134 2.11
  35  0.200  0.600  0.407- 138 2.11 133 2.11 137 2.11 118 2.11 135 2.11
  36  0.300  0.700  0.407- 137 2.11 142 2.11 138 2.11 157 2.11 136 2.11
  37  0.200  0.700  0.503- 136 2.11 139 2.11 116 2.11 135 2.11 137 2.11
  38  0.300  0.600  0.503- 135 2.11 132 2.11 136 2.11 155 2.11 138 2.11
  39  0.200  0.800  0.407- 137 2.11 142 2.11 141 2.11 122 2.11 139 2.11
  40  0.300  0.900  0.407- 141 2.11 126 2.11 142 2.11 161 2.11 140 2.11
  41  0.200  0.900  0.503- 140 2.11 123 2.11 139 2.11 120 2.11 141 2.11
  42  0.300  0.800  0.503- 136 2.11 139 2.11 140 2.11 159 2.11 142 2.11
  43  0.400  0.000  0.407- 126 2.11 145 2.11 146 2.11 161 2.11 143 2.11
  44  0.500  0.100  0.407- 145 2.11 146 2.11 150 2.11 165 2.11 144 2.11
  45  0.400  0.100  0.503- 124 2.11 143 2.11 144 2.11 147 2.11 145 2.11
  46  0.500  0.000  0.503- 143 2.11 144 2.11 160 2.11 163 2.11 146 2.11
  47  0.400  0.200  0.407- 149 2.11 145 2.11 130 2.11 150 2.11 147 2.11
  48  0.500  0.300  0.407- 150 2.11 149 2.11 154 2.11 169 2.11 148 2.11
  49  0.400  0.300  0.503- 147 2.11 128 2.11 148 2.11 151 2.11 149 2.11
  50  0.500  0.200  0.503- 148 2.11 147 2.11 144 2.11 167 2.11 150 2.11
  51  0.400  0.400  0.407- 134 2.11 149 2.11 153 2.11 154 2.11 151 2.11
  52  0.500  0.500  0.407- 153 2.11 154 2.11 158 2.11 173 2.11 152 2.11
  53  0.400  0.500  0.503- 132 2.11 151 2.11 152 2.11 155 2.11 153 2.11   2 3.05
  54  0.500  0.400  0.503- 148 2.11 151 2.11 152 2.11 171 2.11 154 2.11
  55  0.400  0.600  0.407- 138 2.11 153 2.11 157 2.11 158 2.11 155 2.11
  56  0.500  0.700  0.407- 162 2.11 158 2.11 157 2.11 177 2.11 156 2.11
  57  0.400  0.700  0.503- 159 2.11 155 2.11 156 2.11 136 2.11 157 2.11
  58  0.500  0.600  0.503- 152 2.11 155 2.11 156 2.11 175 2.11 158 2.11
  59  0.400  0.800  0.407- 157 2.11 142 2.11 161 2.11 162 2.11 159 2.11
  60  0.500  0.900  0.407- 146 2.11 161 2.11 162 2.11 181 2.11 160 2.11
[...]
 188  0.900  0.300  0.503-  90 2.11  89 2.11   9 2.11  94 2.11  88 2.11
 189  0.800  0.300  0.407-  68 2.11  87 2.11  88 2.11  91 2.11  89 2.11
 190  0.900  0.200  0.407-  88 2.11  84 2.11  87 2.11   7 2.11  90 2.11
 191  0.800  0.400  0.503-  74 2.11  89 2.11  93 2.11  94 2.11  91 2.11
 192  0.900  0.500  0.503-  13 2.11  93 2.11  94 2.11  98 2.11  92 2.11
 193  0.800  0.500  0.407-  72 2.11  91 2.11  92 2.11  95 2.11  93 2.11
 194  0.900  0.400  0.407-  11 2.11  88 2.11  91 2.11  92 2.11  94 2.11
 195  0.800  0.600  0.503-  78 2.11  93 2.11  97 2.11  98 2.11  95 2.11
 196  0.900  0.700  0.503- 102 2.11  97 2.11  98 2.11  17 2.11  96 2.11
 197  0.800  0.700  0.407-  76 2.11  99 2.11  96 2.11  95 2.11  97 2.11
 198  0.900  0.600  0.407-  15 2.11  92 2.11  95 2.11  96 2.11  98 2.11
 199  0.800  0.800  0.503-  82 2.11  97 2.11 101 2.11 102 2.11  99 2.11
 200  0.900  0.900  0.503-  21 2.11  86 2.11 101 2.11 102 2.11 100 2.11
 201  0.800  0.900  0.407-  80 2.11  83 2.11  99 2.11 100 2.11 101 2.11
 202  0.900  0.800  0.407-  96 2.11  19 2.11  99 2.11 100 2.11 102 2.11

  LATTYP: Found a simple tetragonal cell.
 ALAT       =    21.1388521970
 C/A-ratio  =     1.0461251639

  Lattice vectors:

 A1 = (  21.1388521970,   0.0000000000,   0.0000000000)
 A2 = (   0.0000000000,  21.1388521970,   0.0000000000)
 A3 = (   0.0000000000,   0.0000000000,  22.1138852197)

Analysis of symmetry for initial positions (statically):
 Subroutine PRICEL returns:
 Original cell was already a primitive cell.

 Routine SETGRP: Setting up the symmetry group for a
 simple tetragonal supercell.

 Subroutine GETGRP returns: Found  4 space group operations
 (whereof  4 operations were pure point group operations)
 out of a pool of 16 trial point group operations.

The static configuration has the point symmetry C_2v.

Analysis of symmetry for dynamics (positions and initial velocities):
 Subroutine PRICEL returns:
 Original cell was already a primitive cell.

 Routine SETGRP: Setting up the symmetry group for a
 simple tetragonal supercell.

 Subroutine GETGRP returns: Found  4 space group operations
 (whereof  4 operations were pure point group operations)
 out of a pool of 16 trial point group operations.

The dynamic configuration has the point symmetry C_2v.

 Subroutine INISYM returns: Found  4 space group operations
[...]
     22     -46.3486      2.00000
     23     -46.3484      2.00000
     24     -46.3478      2.00000
     25     -46.3469      2.00000
     26     -46.3466      2.00000
     27     -46.3457      2.00000
     28     -46.3452      2.00000
     29     -46.3450      2.00000
     30     -46.3442      2.00000
     31     -46.3440      2.00000
     32     -46.3432      2.00000
     33     -46.3431      2.00000
     34     -46.3428      2.00000
     35     -46.3418      2.00000
     36     -46.3414      2.00000
     37     -46.3412      2.00000
     38     -46.3408      2.00000
     39     -46.3406      2.00000
     40     -46.3404      2.00000
     41     -46.3398      2.00000
     42     -46.3398      2.00000
     43     -46.3389      2.00000
     44     -46.3388      2.00000
     45     -46.3384      2.00000
     46     -46.3384      2.00000
     47     -46.3379      2.00000
     48     -46.3375      2.00000
     49     -46.3374      2.00000
     50     -46.3370      2.00000
     51     -46.3366      2.00000
     52     -46.3362      2.00000
     53     -46.3361      2.00000
     54     -46.3352      2.00000
     55     -46.3350      2.00000
     56     -46.3348      2.00000
     57     -46.3344      2.00000
     58     -46.3344      2.00000
     59     -46.3335      2.00000
     60     -46.3333      2.00000
[...]
   1010       7.7350      0.00000
   1011       7.7666      0.00000
   1012       7.7922      0.00000
   1013       7.8543      0.00000
   1014       7.8969      0.00000
   1015       7.9178      0.00000
   1016       7.9641      0.00000
   1017       8.1375      0.00000
   1018       8.2537      0.00000
   1019       8.3621      0.00000
   1020       8.4976      0.00000
   1021       8.5696      0.00000
   1022       8.5943      0.00000
   1023       8.5960      0.00000
   1024       8.7144      0.00000

 soft charge-density along one line, spin component           1
         0         1         2         3         4         5         6         7         8         9
 total charge-density along one line

------------------------ aborting loop because EDIFF is reached ----------------------------------------

 VOLUME and BASIS-vectors are now :
  energy-cutoff  :      520.00
  volume of cell :     9881.61
      direct lattice vectors                 reciprocal lattice vectors
    21.138852197  0.000000000  0.000000000     0.047306258  0.000000000  0.000000000
     0.000000000 21.138852197  0.000000000     0.000000000  0.047306258  0.000000000
     0.000000000  0.000000000 22.113885220     0.000000000  0.000000000  0.045220457

  length of vectors
    21.138852197 21.138852197 22.113885220     0.047306258  0.047306258  0.045220457

 FORCES acting on ions:
    Electron-Ion                     Ewald-Force                    Non-Local-Force
   -.267E+03 -.213E-05 -.199E+04   0.260E+03 0.836E-08 0.199E+04   0.687E+01 0.000E+00 -.318E+00
   0.267E+03 -.213E-05 -.199E+04   -.260E+03 0.836E-08 0.199E+04   -.687E+01 0.000E+00 -.318E+00
   0.139E-12 -.341E-08 0.931E+03   0.764E-13 0.701E-08 -.923E+03   0.000E+00 0.000E+00 -.669E+01
   0.368E+01 0.407E+01 0.932E+03   -.368E+01 -.407E+01 -.924E+03   -.167E-02 0.598E-02 -.669E+01
   0.131E-12 0.437E+01 -.922E+03   0.103E-12 -.438E+01 0.915E+03   0.000E+00 0.589E-02 0.668E+01
   0.388E+01 -.487E-08 -.922E+03   -.387E+01 0.100E-07 0.915E+03   -.273E-02 0.000E+00 0.668E+01
   0.140E-12 0.601E+01 0.933E+03   0.153E-10 -.602E+01 -.925E+03   0.000E+00 0.966E-02 -.669E+01
   0.766E+01 0.768E+01 0.936E+03   -.766E+01 -.770E+01 -.928E+03   0.340E-02 0.136E-01 -.669E+01
   0.134E-12 0.814E+01 -.920E+03   0.181E-11 -.816E+01 0.912E+03   0.265E-22 0.120E-01 0.668E+01
   0.703E+01 0.910E+01 -.920E+03   -.703E+01 -.912E+01 0.913E+03   -.105E-02 0.128E-01 0.668E+01
   0.141E-12 0.415E+01 0.936E+03   -.174E-10 -.417E+01 -.928E+03   0.000E+00 0.739E-02 -.669E+01
   0.112E+02 0.520E-08 0.939E+03   -.113E+02 -.107E-07 -.931E+03   0.169E-01 0.000E+00 -.669E+01
   0.143E-12 0.542E-08 -.918E+03   0.120E-12 -.112E-07 0.910E+03   0.000E+00 0.000E+00 0.668E+01
   0.154E+02 0.715E+01 -.916E+03   -.155E+02 -.717E+01 0.908E+03   0.179E-01 0.115E-01 0.668E+01
   0.141E-12 -.415E+01 0.936E+03   0.116E-11 0.417E+01 -.928E+03   0.000E+00 -.739E-02 -.669E+01
   0.766E+01 -.768E+01 0.936E+03   -.766E+01 0.770E+01 -.928E+03   0.340E-02 -.136E-01 -.669E+01
   0.134E-12 -.814E+01 -.920E+03   -.785E-12 0.816E+01 0.912E+03   0.000E+00 -.120E-01 0.668E+01
   0.154E+02 -.715E+01 -.916E+03   -.155E+02 0.717E+01 0.908E+03   0.179E-01 -.115E-01 0.668E+01
   0.145E-12 -.601E+01 0.933E+03   0.853E-12 0.602E+01 -.925E+03   0.000E+00 -.966E-02 -.669E+01
   0.368E+01 -.407E+01 0.932E+03   -.368E+01 0.407E+01 -.924E+03   -.167E-02 -.598E-02 -.669E+01
   0.146E-12 -.437E+01 -.922E+03   -.867E-12 0.438E+01 0.915E+03   0.000E+00 -.589E-02 0.668E+01
   0.703E+01 -.910E+01 -.920E+03   -.703E+01 0.912E+01 0.913E+03   -.105E-02 -.128E-01 0.668E+01
   0.528E+01 -.524E-08 0.932E+03   -.528E+01 0.108E-07 -.925E+03   -.368E-02 -.529E-22 -.669E+01
   0.663E+01 0.778E+01 0.935E+03   -.662E+01 -.779E+01 -.927E+03   -.469E-02 0.842E-02 -.670E+01
   0.800E+01 0.745E+01 -.921E+03   -.799E+01 -.746E+01 0.913E+03   -.547E-02 0.784E-02 0.668E+01
   0.688E+01 -.985E-08 -.920E+03   -.687E+01 0.203E-07 0.913E+03   -.596E-02 0.000E+00 0.667E+01
   0.924E+01 0.101E+02 0.936E+03   -.924E+01 -.101E+02 -.928E+03   -.158E-02 0.150E-01 -.669E+01
   0.172E+02 0.191E+02 0.950E+03   -.172E+02 -.192E+02 -.942E+03   0.173E-02 0.311E-01 -.669E+01
   0.221E+02 0.180E+02 -.913E+03   -.221E+02 -.181E+02 0.905E+03   0.402E-02 0.308E-01 0.668E+01
   0.152E+02 0.227E+02 -.914E+03   -.151E+02 -.227E+02 0.906E+03   -.120E-01 0.232E-01 0.667E+01
   0.200E+02 0.854E+01 0.946E+03   -.200E+02 -.857E+01 -.939E+03   0.153E-01 0.193E-01 -.668E+01
   0.310E+02 0.167E-07 0.969E+03   -.310E+02 -.344E-07 -.961E+03   0.195E-02 0.827E-24 -.660E+01
   0.409E+02 0.156E-07 -.902E+03   -.410E+02 -.321E-07 0.895E+03   0.774E-01 0.000E+00 0.669E+01
   0.561E+02 0.338E+02 -.879E+03   -.562E+02 -.339E+02 0.871E+03   0.383E-01 0.881E-01 0.671E+01
   0.200E+02 -.854E+01 0.946E+03   -.200E+02 0.857E+01 -.939E+03   0.153E-01 -.193E-01 -.668E+01
   0.172E+02 -.191E+02 0.950E+03   -.172E+02 0.192E+02 -.942E+03   0.173E-02 -.311E-01 -.669E+01
   0.221E+02 -.180E+02 -.913E+03   -.221E+02 0.181E+02 0.905E+03   0.402E-02 -.308E-01 0.668E+01
   0.561E+02 -.338E+02 -.879E+03   -.562E+02 0.339E+02 0.871E+03   0.383E-01 -.881E-01 0.671E+01
   0.924E+01 -.101E+02 0.936E+03   -.924E+01 0.101E+02 -.928E+03   -.158E-02 -.150E-01 -.669E+01
   0.663E+01 -.778E+01 0.935E+03   -.662E+01 0.779E+01 -.927E+03   -.469E-02 -.842E-02 -.670E+01
   0.800E+01 -.745E+01 -.921E+03   -.799E+01 0.746E+01 0.913E+03   -.547E-02 -.784E-02 0.668E+01
   0.152E+02 -.227E+02 -.914E+03   -.151E+02 0.227E+02 0.906E+03   -.120E-01 -.232E-01 0.667E+01
   0.351E+01 -.896E-08 0.935E+03   -.351E+01 0.184E-07 -.927E+03   -.302E-02 0.000E+00 -.670E+01
   -.205E-12 0.107E+02 0.938E+03   0.387E-11 -.107E+02 -.930E+03   0.000E+00 0.519E-02 -.670E+01
   0.574E+01 0.144E+02 -.917E+03   -.573E+01 -.144E+02 0.910E+03   -.556E-02 0.222E-02 0.667E+01
   -.237E-12 -.139E-07 -.919E+03   0.622E-14 0.285E-07 0.911E+03   0.000E+00 0.000E+00 0.667E+01
   0.702E+01 0.197E+02 0.944E+03   -.702E+01 -.198E+02 -.937E+03   -.537E-02 0.233E-01 -.670E+01
   -.217E-12 0.312E+02 0.964E+03   -.579E-11 -.313E+02 -.956E+03   0.529E-22 0.297E-01 -.673E+01
   0.238E+02 0.558E+02 -.886E+03   -.238E+02 -.559E+02 0.879E+03   -.348E-01 0.793E-01 0.666E+01
   -.235E-12 0.364E+02 -.907E+03   -.193E-10 -.364E+02 0.899E+03   0.000E+00 -.876E-02 0.666E+01
   0.203E+02 0.239E+02 0.983E+03   -.203E+02 -.240E+02 -.975E+03   -.975E-03 0.207E-01 -.662E+01
   -.218E-12 0.329E-07 0.101E+04   -.104E-12 -.677E-07 -.100E+04   0.000E+00 0.000E+00 -.674E+01
   0.821E+02 0.111E-06 -.757E+03   -.821E+02 -.229E-06 0.749E+03   -.424E-01 0.000E+00 0.625E+01
   -.230E-12 0.922E+02 -.797E+03   0.215E-10 -.924E+02 0.790E+03   -.397E-22 0.937E-01 0.650E+01
   0.203E+02 -.239E+02 0.983E+03   -.203E+02 0.240E+02 -.975E+03   -.975E-03 -.207E-01 -.662E+01
   -.210E-12 -.312E+02 0.964E+03   -.183E-10 0.313E+02 -.956E+03   -.397E-22 -.297E-01 -.673E+01
   0.238E+02 -.558E+02 -.886E+03   -.238E+02 0.559E+02 0.879E+03   -.348E-01 -.793E-01 0.666E+01
   -.245E-12 -.922E+02 -.797E+03   0.183E-10 0.924E+02 0.790E+03   0.000E+00 -.937E-01 0.650E+01
   0.702E+01 -.197E+02 0.944E+03   -.702E+01 0.198E+02 -.937E+03   -.537E-02 -.233E-01 -.670E+01
   -.213E-12 -.107E+02 0.938E+03   0.203E-10 0.107E+02 -.930E+03   0.000E+00 -.519E-02 -.670E+01
[...]
   -.107E+02 0.891E+01 0.707E+03   0.107E+02 -.893E+01 -.711E+03   -.493E-02 0.225E-01 0.319E+01
   -.393E+01 0.527E+01 0.702E+03   0.393E+01 -.528E+01 -.706E+03   -.293E-03 0.117E-01 0.319E+01
   -.257E+02 0.107E+02 -.681E+03   0.258E+02 -.107E+02 0.685E+03   -.322E-01 0.369E-01 -.319E+01
   -.131E+02 0.550E-08 -.688E+03   0.132E+02 -.113E-07 0.692E+03   -.184E-01 0.000E+00 -.320E+01
   -.170E+02 0.669E-08 0.713E+03   0.170E+02 -.138E-07 -.717E+03   -.320E-01 0.000E+00 0.322E+01
   -.761E+01 0.386E+01 0.705E+03   0.762E+01 -.387E+01 -.709E+03   -.109E-01 0.122E-01 0.319E+01
   -.257E+02 -.107E+02 -.681E+03   0.258E+02 0.107E+02 0.685E+03   -.322E-01 -.369E-01 -.319E+01
   -.826E+01 -.774E+01 -.690E+03   0.826E+01 0.775E+01 0.694E+03   -.642E-02 -.184E-01 -.321E+01
   -.107E+02 -.891E+01 0.707E+03   0.107E+02 0.893E+01 -.711E+03   -.493E-02 -.225E-01 0.319E+01
   -.761E+01 -.386E+01 0.705E+03   0.762E+01 0.387E+01 -.709E+03   -.109E-01 -.122E-01 0.319E+01
   -.965E+01 -.106E+02 -.690E+03   0.965E+01 0.106E+02 0.694E+03   0.167E-02 -.164E-01 -.321E+01
   -.348E+01 -.386E+01 -.693E+03   0.348E+01 0.386E+01 0.697E+03   0.185E-02 -.632E-02 -.321E+01
   -.468E+01 -.419E+01 0.702E+03   0.468E+01 0.419E+01 -.706E+03   0.325E-02 -.694E-02 0.319E+01
   -.393E+01 -.527E+01 0.702E+03   0.393E+01 0.528E+01 -.706E+03   -.293E-03 -.117E-01 0.319E+01
   -.104E-10 -.430E-05 0.549E+01   0.161E-11 0.120E-11 -.819E-11   0.926E-15 -.243E-16 -.513E+01

 POSITION                                       TOTAL-FORCE (eV/Angst)
     11.85490     10.56943     14.05048         0.198170      0.000000      0.235790
      9.28395     10.56943     14.05048        -0.198170      0.000000      0.235790
      0.00000      0.00000      9.00000         0.000000      0.000000      0.421502
      2.11389      2.11389      9.00000         0.000506     -0.001873      0.421490
      0.00000      2.11389     11.11389         0.000000     -0.001808     -0.415991
      2.11389      0.00000     11.11389         0.000873      0.000000     -0.416136
      0.00000      4.22777      9.00000         0.000000     -0.003090      0.421032
      2.11389      6.34166      9.00000        -0.001181     -0.004463      0.420501
      0.00000      6.34166     11.11389         0.000000     -0.003895     -0.416411
      2.11389      4.22777     11.11389         0.000284     -0.004029     -0.416220
      0.00000      8.45554      9.00000         0.000000     -0.002438      0.420339
      2.11389     10.56943      9.00000        -0.005085      0.000000      0.419968
      0.00000     10.56943     11.11389         0.000000      0.000000     -0.417201
      2.11389      8.45554     11.11389        -0.005632     -0.003890     -0.417642
      0.00000     12.68331      9.00000         0.000000      0.002438      0.420339
      2.11389     14.79720      9.00000        -0.001181      0.004463      0.420501
      0.00000     14.79720     11.11389         0.000000      0.003895     -0.416411
      2.11389     12.68331     11.11389        -0.005632      0.003890     -0.417642
      0.00000     16.91108      9.00000         0.000000      0.003090      0.421032
      2.11389     19.02497      9.00000         0.000506      0.001873      0.421490
      0.00000     19.02497     11.11389         0.000000      0.001808     -0.415991
      2.11389     16.91108     11.11389         0.000284      0.004029     -0.416220
      4.22777      0.00000      9.00000         0.001193      0.000000      0.421699
      6.34166      2.11389      9.00000         0.001543     -0.002546      0.422162
      4.22777      2.11389     11.11389         0.001725     -0.002397     -0.415515
      6.34166      0.00000     11.11389         0.001925      0.000000     -0.414954
      4.22777      4.22777      9.00000         0.000413     -0.004699      0.421305
      6.34166      6.34166      9.00000        -0.001165     -0.010191      0.420081
      4.22777      6.34166     11.11389        -0.001476     -0.009961     -0.416830
      6.34166      4.22777     11.11389         0.003878     -0.006964     -0.413471
      4.22777      8.45554      9.00000        -0.005478     -0.006721      0.417041
      6.34166     10.56943      9.00000        -0.001449      0.000000      0.395446
      4.22777     10.56943     11.11389        -0.028127      0.000000     -0.423567
      6.34166      8.45554     11.11389        -0.014375     -0.030250     -0.429915
      4.22777     12.68331      9.00000        -0.005478      0.006721      0.417041
      6.34166     14.79720      9.00000        -0.001165      0.010191      0.420081
      4.22777     14.79720     11.11389        -0.001476      0.009961     -0.416830
      6.34166     12.68331     11.11389        -0.014375      0.030250     -0.429915
      4.22777     16.91108      9.00000         0.000413      0.004699      0.421305
      6.34166     19.02497      9.00000         0.001543      0.002546      0.422162
      4.22777     19.02497     11.11389         0.001725      0.002397     -0.415515
      6.34166     16.91108     11.11389         0.003878      0.006964     -0.413471
      8.45554      0.00000      9.00000         0.001010      0.000000      0.422223
     10.56943      2.11389      9.00000         0.000000     -0.001770      0.422739
      8.45554      2.11389     11.11389         0.001906     -0.000426     -0.413127
     10.56943      0.00000     11.11389         0.000000      0.000000     -0.413495
      8.45554      4.22777      9.00000         0.001903     -0.007040      0.424266
     10.56943      6.34166      9.00000         0.000000     -0.011698      0.429257
      8.45554      6.34166     11.11389         0.014473     -0.026943     -0.399311
     10.56943      4.22777     11.11389         0.000000      0.003520     -0.407362
      8.45554      8.45554      9.00000         0.000666     -0.006115      0.397661
     10.56943     10.56943      9.00000         0.000000      0.000000      0.389434
      8.45554     10.56943     11.11389        -0.031252      0.000000     -0.560897
     10.56943      8.45554     11.11389         0.000000     -0.027458     -0.303523
      8.45554     12.68331      9.00000         0.000666      0.006115      0.397661
     10.56943     14.79720      9.00000         0.000000      0.011698      0.429257
      8.45554     14.79720     11.11389         0.014473      0.026943     -0.399311
     10.56943     12.68331     11.11389         0.000000      0.027458     -0.303523
      8.45554     16.91108      9.00000         0.001903      0.007040      0.424266
     10.56943     19.02497      9.00000         0.000000      0.001770      0.422739
[...]
     19.02497      6.34166     11.11389        -0.002113      0.005912      0.453921
     16.91108      6.34166      9.00000        -0.001616      0.007268     -0.457616
     19.02497      4.22777      9.00000        -0.000114      0.003813     -0.458908
     16.91108      8.45554     11.11389        -0.010787      0.012016      0.458902
     19.02497     10.56943     11.11389        -0.005950      0.000000      0.455255
     16.91108     10.56943      9.00000        -0.011197      0.000000     -0.449842
     19.02497      8.45554      9.00000        -0.003518      0.004002     -0.457270
     16.91108     12.68331     11.11389        -0.010787     -0.012016      0.458902
     19.02497     14.79720     11.11389        -0.002113     -0.005912      0.453921
     16.91108     14.79720      9.00000        -0.001616     -0.007268     -0.457616
     19.02497     12.68331      9.00000        -0.003518     -0.004002     -0.457270
     16.91108     16.91108     11.11389         0.000545     -0.005365      0.452776
     19.02497     19.02497     11.11389         0.000619     -0.002084      0.453287
     16.91108     19.02497      9.00000         0.001056     -0.002252     -0.459402
     19.02497     16.91108      9.00000        -0.000114     -0.003813     -0.458908
    total drift:                               -0.000000     -0.000004     -0.242860

  FREE ENERGIE OF THE ION-ELECTRON SYSTEM (eV)
  free  energy   TOTEN  =     -1331.72909441 eV

  energy  without entropy=    -1331.72909441  energy(sigma->0) =    -1331.72909441