 vasp.6.4.0 14Feb23 (build Jul 14 2023 13:46:40) complex

 executed on             LinuxIFC date 2023.07.30  07:58:35

 INCAR:
   SYSTEM = MgO-rocksalt
   ISMEAR = 0
   SIGMA = 0.05
   EDIFF = 1E-6
   ALGO = ALL
   ISTART = 0
   IBRION = -1
   NSW = 0
   ISYM = 2
   DIPOL = 0.5 0.5 0.5
   IDIPOL = 3
   LDIPOL = .TRUE.
   METAGGA = R2SCAN
   LUSE_VDW = .TRUE.
   BPARAM = 11.95
   CPARAM = 0.0093
   ENCUT = 520
   PREC = Accurate
   LASPH = .TRUE.
   LREAL = Auto
   ISPIN = 1
   NELM = 200
   NELMIN = 8
   NCORE = 16
   KPAR = 1
   LWAVE = .FALSE.
   LCHARG = .FALSE.

 POTCAR:    PAW_PBE Cu 22Jun2005
 POTCAR:    PAW_PBE Mg_pv 13Apr2007
 POTCAR:    PAW_PBE O 08Apr2002
|               ----> ADVICE to this user running VASP <----                  |
|     You have switched on vdW-DFT.                                           |
|     This routine was written and supplied by Jiri Klimes. We recommend      |
|     that you carefully read and cite the following publications:            |
|       J. Klimes, D.R. Bowler, A. Michelides                                 |
|          J. Phys.: Cond Matt. 22 022201 (2010)                              |
|       J. Klimes, D.R. Bowler, A. Michelides                                 |
|          Phys. Rev. B. 83, 195131 (2011)                                    |
|     and references therein.                                                 |

   TITEL  = PAW_PBE Cu 22Jun2005
   POMASS =   63.546; ZVAL   =   11.000    mass and valenz
   ENMAX  =  295.446; ENMIN  =  221.585 eV

   TITEL  = PAW_PBE Mg_pv 13Apr2007
   POMASS =   24.305; ZVAL   =    8.000    mass and valenz
   ENMAX  =  403.929; ENMIN  =  302.947 eV

   TITEL  = PAW_PBE O 08Apr2002
   POMASS =   16.000; ZVAL   =    6.000    mass and valenz
   ENMAX  =  400.000; ENMIN  =  300.000 eV

 Optimization of the real space projectors (new method)

 maximal supplied QI-value         = 16.25
 optimisation between [QCUT,QGAM] = [ 11.54, 23.24] = [ 37.28,151.24] Ry
 Optimized for a Real-space Cutoff    1.53 Angstroem

   l    n(q)    QCUT    max X(q) W(low)/X(q) W(high)/X(q)  e(spline)
   2     10    11.539     4.610    0.96E-04    0.13E-03    0.19E-06
   2     10    11.539     8.522    0.16E-03    0.21E-03    0.28E-06
   0     11    11.539    51.609    0.45E-04    0.31E-04    0.11E-06
   0     11    11.539    27.747    0.39E-04    0.29E-04    0.10E-06
   1     10    11.539    20.408    0.70E-05    0.38E-04    0.18E-06
   1     10    11.539    13.425    0.66E-05    0.34E-04    0.17E-06
 Optimization of the real space projectors (new method)

[...]

   l    n(q)    QCUT    max X(q) W(low)/X(q) W(high)/X(q)  e(spline)
   1      8    11.527     2.974    0.44E-04    0.56E-04    0.12E-06
   1      8    11.527     4.279    0.12E-03    0.12E-03    0.26E-06
   0      9    11.527    16.381    0.46E-04    0.64E-04    0.78E-07
   0      9    11.527     5.611    0.26E-04    0.43E-04    0.55E-07
   2      8    11.527     4.652    0.22E-03    0.72E-04    0.47E-07
 Optimization of the real space projectors (new method)

 maximal supplied QI-value         = 24.76
 optimisation between [QCUT,QGAM] = [ 11.64, 23.27] = [ 37.91,151.63] Ry
 Optimized for a Real-space Cutoff    1.14 Angstroem

   l    n(q)    QCUT    max X(q) W(low)/X(q) W(high)/X(q)  e(spline)
   0      8    11.635    20.381    0.10E-03    0.33E-03    0.24E-06
   0      8    11.635    15.268    0.11E-03    0.35E-03    0.26E-06
   1      7    11.635     5.964    0.24E-03    0.31E-03    0.30E-06
   1      7    11.635     5.382    0.22E-03    0.25E-03    0.26E-06
  PAW_PBE Cu 22Jun2005                  :
  PAW_PBE Mg_pv 13Apr2007               :
  PAW_PBE O 08Apr2002                   :

 POSCAR: Cu Mg  O
  positions in direct lattice

 METAGGA = R2SCAN                                      LMAXTAU =  6    LMIXTAU =  F

 ion  position               nearest neighbor table
   1  0.553  0.500  0.630-   2 2.23
   2  0.447  0.500  0.630-   1 2.23
   3  0.000  0.000  0.407- 105 2.11 106 2.11 121 2.11 186 2.11 103 2.11
   4  0.100  0.100  0.407- 105 2.11 106 2.11 110 2.11 125 2.11 104 2.11
   5  0.000  0.100  0.503- 103 2.11 104 2.11 107 2.11 184 2.11 105 2.11
   6  0.100  0.000  0.503- 103 2.11 104 2.11 120 2.11 123 2.11 106 2.11
   7  0.000  0.200  0.407- 109 2.11 105 2.11 110 2.11 190 2.11 107 2.11
   8  0.100  0.300  0.407- 110 2.11 109 2.11 114 2.11 129 2.11 108 2.11
   9  0.000  0.300  0.503- 107 2.11 108 2.11 111 2.11 188 2.11 109 2.11
  10  0.100  0.200  0.503- 108 2.11 107 2.11 104 2.11 127 2.11 110 2.11
  11  0.000  0.400  0.407- 109 2.11 113 2.11 114 2.11 194 2.11 111 2.11
  12  0.100  0.500  0.407- 113 2.11 114 2.11 118 2.11 133 2.11 112 2.11
  13  0.000  0.500  0.503- 111 2.11 112 2.11 115 2.11 192 2.11 113 2.11
  14  0.100  0.400  0.503- 108 2.11 111 2.11 112 2.11 131 2.11 114 2.11
  15  0.000  0.600  0.407- 113 2.11 117 2.11 118 2.11 198 2.11 115 2.11
  16  0.100  0.700  0.407- 122 2.11 118 2.11 117 2.11 137 2.11 116 2.11
  17  0.000  0.700  0.503- 119 2.11 116 2.11 115 2.11 196 2.11 117 2.11
  18  0.100  0.600  0.503- 112 2.11 115 2.11 116 2.11 135 2.11 118 2.11
  19  0.000  0.800  0.407- 117 2.11 121 2.11 122 2.11 202 2.11 119 2.11
  20  0.100  0.900  0.407- 106 2.11 121 2.11 122 2.11 141 2.11 120 2.11
  21  0.000  0.900  0.503- 103 2.11 119 2.11 120 2.11 200 2.11 121 2.11
  22  0.100  0.800  0.503- 116 2.11 119 2.11 120 2.11 139 2.11 122 2.11
  23  0.200  0.000  0.407- 126 2.11 125 2.11 106 2.11 141 2.11 123 2.11
  24  0.300  0.100  0.407- 125 2.11 126 2.11 130 2.11 145 2.11 124 2.11
  25  0.200  0.100  0.503- 124 2.11 123 2.11 104 2.11 127 2.11 125 2.11
  26  0.300  0.000  0.503- 123 2.11 124 2.11 140 2.11 143 2.11 126 2.11
  27  0.200  0.200  0.407- 129 2.11 130 2.11 110 2.11 125 2.11 127 2.11
  28  0.300  0.300  0.407- 129 2.11 130 2.11 134 2.11 149 2.11 128 2.11
  29  0.200  0.300  0.503- 127 2.11 128 2.11 108 2.11 131 2.11 129 2.11
  30  0.300  0.200  0.503- 127 2.11 128 2.11 124 2.11 147 2.11 130 2.11
  31  0.200  0.400  0.407- 134 2.11 129 2.11 133 2.11 114 2.11 131 2.11
  32  0.300  0.500  0.407- 133 2.11 134 2.11 138 2.11 153 2.11 132 2.11
  33  0.200  0.500  0.503- 132 2.11 131 2.11 112 2.11 135 2.11 133 2.11
  34  0.300  0.400  0.503- 131 2.11 128 2.11 132 2.11 151 2.11 134 2.11
  35  0.200  0.600  0.407- 138 2.11 133 2.11 137 2.11 118 2.11 135 2.11
  36  0.300  0.700  0.407- 137 2.11 142 2.11 138 2.11 157 2.11 136 2.11
  37  0.200  0.700  0.503- 136 2.11 139 2.11 116 2.11 135 2.11 137 2.11
  38  0.300  0.600  0.503- 135 2.11 132 2.11 136 2.11 155 2.11 138 2.11
  39  0.200  0.800  0.407- 137 2.11 142 2.11 141 2.11 122 2.11 139 2.11
  40  0.300  0.900  0.407- 141 2.11 126 2.11 142 2.11 161 2.11 140 2.11
  41  0.200  0.900  0.503- 140 2.11 123 2.11 139 2.11 120 2.11 141 2.11
  42  0.300  0.800  0.503- 136 2.11 139 2.11 140 2.11 159 2.11 142 2.11
  43  0.400  0.000  0.407- 126 2.11 145 2.11 146 2.11 161 2.11 143 2.11
  44  0.500  0.100  0.407- 145 2.11 146 2.11 150 2.11 165 2.11 144 2.11
  45  0.400  0.100  0.503- 124 2.11 143 2.11 144 2.11 147 2.11 145 2.11
  46  0.500  0.000  0.503- 143 2.11 144 2.11 160 2.11 163 2.11 146 2.11
  47  0.400  0.200  0.407- 149 2.11 145 2.11 130 2.11 150 2.11 147 2.11
  48  0.500  0.300  0.407- 150 2.11 149 2.11 154 2.11 169 2.11 148 2.11
  49  0.400  0.300  0.503- 147 2.11 128 2.11 148 2.11 151 2.11 149 2.11
  50  0.500  0.200  0.503- 148 2.11 147 2.11 144 2.11 167 2.11 150 2.11
  51  0.400  0.400  0.407- 134 2.11 149 2.11 153 2.11 154 2.11 151 2.11
  52  0.500  0.500  0.407- 153 2.11 154 2.11 158 2.11 173 2.11 152 2.11
  53  0.400  0.500  0.503- 132 2.11 151 2.11 152 2.11 155 2.11 153 2.11
  54  0.500  0.400  0.503- 148 2.11 151 2.11 152 2.11 171 2.11 154 2.11
  55  0.400  0.600  0.407- 138 2.11 153 2.11 157 2.11 158 2.11 155 2.11
  56  0.500  0.700  0.407- 162 2.11 158 2.11 157 2.11 177 2.11 156 2.11
  57  0.400  0.700  0.503- 159 2.11 155 2.11 156 2.11 136 2.11 157 2.11
  58  0.500  0.600  0.503- 152 2.11 155 2.11 156 2.11 175 2.11 158 2.11
  59  0.400  0.800  0.407- 157 2.11 142 2.11 161 2.11 162 2.11 159 2.11
  60  0.500  0.900  0.407- 146 2.11 161 2.11 162 2.11 181 2.11 160 2.11
[...]
 188  0.900  0.300  0.503-  90 2.11  89 2.11   9 2.11  94 2.11  88 2.11
 189  0.800  0.300  0.407-  68 2.11  87 2.11  88 2.11  91 2.11  89 2.11
 190  0.900  0.200  0.407-  88 2.11  84 2.11  87 2.11   7 2.11  90 2.11
 191  0.800  0.400  0.503-  74 2.11  89 2.11  93 2.11  94 2.11  91 2.11
 192  0.900  0.500  0.503-  13 2.11  93 2.11  94 2.11  98 2.11  92 2.11
 193  0.800  0.500  0.407-  72 2.11  91 2.11  92 2.11  95 2.11  93 2.11
 194  0.900  0.400  0.407-  11 2.11  88 2.11  91 2.11  92 2.11  94 2.11
 195  0.800  0.600  0.503-  78 2.11  93 2.11  97 2.11  98 2.11  95 2.11
 196  0.900  0.700  0.503- 102 2.11  97 2.11  98 2.11  17 2.11  96 2.11
 197  0.800  0.700  0.407-  76 2.11  99 2.11  96 2.11  95 2.11  97 2.11
 198  0.900  0.600  0.407-  15 2.11  92 2.11  95 2.11  96 2.11  98 2.11
 199  0.800  0.800  0.503-  82 2.11  97 2.11 101 2.11 102 2.11  99 2.11
 200  0.900  0.900  0.503-  21 2.11  86 2.11 101 2.11 102 2.11 100 2.11
 201  0.800  0.900  0.407-  80 2.11  83 2.11  99 2.11 100 2.11 101 2.11
 202  0.900  0.800  0.407-  96 2.11  19 2.11  99 2.11 100 2.11 102 2.11

  LATTYP: Found a simple tetragonal cell.
 ALAT       =    21.1388521970
 C/A-ratio  =     1.0461251639

  Lattice vectors:

 A1 = (  21.1388521970,   0.0000000000,   0.0000000000)
 A2 = (   0.0000000000,  21.1388521970,   0.0000000000)
 A3 = (   0.0000000000,   0.0000000000,  22.1138852197)

Analysis of symmetry for initial positions (statically):
 Subroutine PRICEL returns:
 Original cell was already a primitive cell.

 Routine SETGRP: Setting up the symmetry group for a
 simple tetragonal supercell.

 Subroutine GETGRP returns: Found  4 space group operations
 (whereof  4 operations were pure point group operations)
 out of a pool of 16 trial point group operations.

The static configuration has the point symmetry C_2v.

Analysis of symmetry for dynamics (positions and initial velocities):
 Subroutine PRICEL returns:
 Original cell was already a primitive cell.

 Routine SETGRP: Setting up the symmetry group for a
 simple tetragonal supercell.

 Subroutine GETGRP returns: Found  4 space group operations
 (whereof  4 operations were pure point group operations)
 out of a pool of 16 trial point group operations.

The dynamic configuration has the point symmetry C_2v.

 Subroutine INISYM returns: Found  4 space group operations
 (whereof  4 operations are pure point group operations),
 and found     1 'primitive' translations

                                     Primitive cell

  volume of cell :    9881.6133

  direct lattice vectors                    reciprocal lattice vectors
    21.138852197  0.000000000  0.000000000     0.047306258  0.000000000  0.000000000
     0.000000000 21.138852197  0.000000000     0.000000000  0.047306258  0.000000000
     0.000000000  0.000000000 22.113885220     0.000000000  0.000000000  0.045220457

  length of vectors
    21.138852197 21.138852197 22.113885220     0.047306258  0.047306258  0.045220457

  position of ions in fractional coordinates (direct lattice)
     0.552684359  0.500000000  0.630409391
[...]
     52     -44.3867      2.00000
     53     -44.3860      2.00000
     54     -44.3858      2.00000
     55     -44.3854      2.00000
     56     -44.3850      2.00000
     57     -44.3849      2.00000
     58     -44.3846      2.00000
     59     -44.3844      2.00000
     60     -44.3844      2.00000
[...]
    850       4.8074      0.00000
    851       4.8328      0.00000
    852       4.8586      0.00000
    853       4.8633      0.00000
    854       4.8699      0.00000
    855       4.8859      0.00000
    856       4.9782      0.00000
    857       5.0890      0.00000
    858       5.1039      0.00000
    859       5.1158      0.00000
    860       5.1236      0.00000
    861       5.1510      0.00000
    862       5.2565      0.00000
    863       5.4741      0.00000
    864       5.7998      0.00000

 soft charge-density along one line, spin component           1
         0         1         2         3         4         5         6         7         8         9
 total charge-density along one line

------------------------ aborting loop because EDIFF is reached ----------------------------------------

  FORCE on cell =-STRESS in cart. coord.  units (eV):
  Direction    XX          YY          ZZ          XY          YZ          ZX
  Alpha Z  1354.41543  1354.41543  1354.41543
  Ewald  479351.43510478555.77928************     0.00000     0.00000    -0.00000
  Hartree508236.71982507644.09105************    -0.00000     0.00000    -0.00000
  E(xc)   -8411.79605 -8411.89970 -8402.92666     0.00000     0.00000    -0.00000
  Local  ************************************    -0.00000    -0.00000     0.00000
  n-local -8733.89989 -8731.17641 -8854.00264     0.00000     0.00001     0.00000
  augment  3882.05199  3887.74667  3828.88004    -0.00000     0.00000     0.00000
  Kinetic 22907.75299 22913.61976 23137.91438     0.00001     0.00000    -0.00001
  Fock        0.00000     0.00000     0.00000     0.00000     0.00000     0.00000
  Total    -232.55607  -232.27309   -20.43667     0.00000     0.00000     0.00000
  in kB     -37.70599   -37.66011    -3.31354     0.00000     0.00000     0.00000

 VOLUME and BASIS-vectors are now :
  energy-cutoff  :      520.00
  volume of cell :     9881.61
      direct lattice vectors                 reciprocal lattice vectors
    21.138852197  0.000000000  0.000000000     0.047306258  0.000000000  0.000000000
     0.000000000 21.138852197  0.000000000     0.000000000  0.047306258  0.000000000
     0.000000000  0.000000000 22.113885220     0.000000000  0.000000000  0.045220457

  length of vectors
    21.138852197 21.138852197 22.113885220     0.047306258  0.047306258  0.045220457

 FORCES acting on ions:
    Electron-Ion                     Ewald-Force                    Non-Local-Force
   -.361E+03 -.154E-05 -.202E+04   0.348E+03 0.874E-08 0.202E+04   0.131E+02 0.531E-22 -.356E+00
   0.361E+03 -.154E-05 -.202E+04   -.348E+03 0.874E-08 0.202E+04   -.131E+02 0.130E-21 -.356E+00
   0.150E-12 -.456E-08 0.931E+03   0.941E-13 0.700E-08 -.923E+03   -.111E-22 -.154E-23 -.749E+01
   0.378E+01 0.407E+01 0.932E+03   -.378E+01 -.408E+01 -.924E+03   -.171E-02 0.716E-02 -.749E+01
   0.148E-12 0.433E+01 -.923E+03   0.131E-12 -.434E+01 0.915E+03   0.114E-23 0.666E-02 0.753E+01
   0.396E+01 -.650E-08 -.923E+03   -.396E+01 0.998E-08 0.915E+03   -.320E-02 0.166E-22 0.753E+01
   0.152E-12 0.599E+01 0.933E+03   0.155E-10 -.601E+01 -.925E+03   -.275E-23 0.114E-01 -.749E+01
   0.785E+01 0.768E+01 0.936E+03   -.786E+01 -.770E+01 -.928E+03   0.517E-02 0.163E-01 -.749E+01
   0.145E-12 0.804E+01 -.920E+03   0.207E-11 -.806E+01 0.912E+03   0.730E-23 0.133E-01 0.753E+01
   0.716E+01 0.904E+01 -.921E+03   -.716E+01 -.906E+01 0.913E+03   -.123E-02 0.144E-01 0.753E+01
   0.154E-12 0.413E+01 0.936E+03   -.175E-10 -.415E+01 -.928E+03   0.416E-23 0.851E-02 -.749E+01
   0.115E+02 0.695E-08 0.939E+03   -.115E+02 -.107E-07 -.931E+03   0.244E-01 0.490E-23 -.749E+01
   0.157E-12 0.715E-08 -.918E+03   0.229E-12 -.110E-07 0.911E+03   0.128E-25 -.340E-24 0.753E+01
   0.155E+02 0.705E+01 -.917E+03   -.156E+02 -.706E+01 0.909E+03   0.194E-01 0.126E-01 0.753E+01
   0.154E-12 -.413E+01 0.936E+03   0.114E-11 0.415E+01 -.928E+03   -.739E-24 -.851E-02 -.749E+01
   0.785E+01 -.768E+01 0.936E+03   -.786E+01 0.770E+01 -.928E+03   0.517E-02 -.163E-01 -.749E+01
   0.155E-12 -.804E+01 -.920E+03   -.927E-12 0.806E+01 0.912E+03   -.240E-24 -.133E-01 0.753E+01
   0.155E+02 -.705E+01 -.917E+03   -.156E+02 0.706E+01 0.909E+03   0.194E-01 -.126E-01 0.753E+01
   0.156E-12 -.599E+01 0.933E+03   0.909E-12 0.601E+01 -.925E+03   -.247E-23 -.114E-01 -.749E+01
   0.378E+01 -.407E+01 0.932E+03   -.378E+01 0.408E+01 -.924E+03   -.171E-02 -.716E-02 -.749E+01
   0.146E-12 -.433E+01 -.923E+03   -.899E-12 0.434E+01 0.915E+03   -.162E-23 -.666E-02 0.753E+01
   0.716E+01 -.904E+01 -.921E+03   -.716E+01 0.906E+01 0.913E+03   -.123E-02 -.144E-01 0.753E+01
   0.544E+01 -.709E-08 0.933E+03   -.544E+01 0.109E-07 -.925E+03   -.414E-02 0.595E-23 -.749E+01
   0.688E+01 0.794E+01 0.935E+03   -.687E+01 -.795E+01 -.927E+03   -.511E-02 0.112E-01 -.750E+01
   0.821E+01 0.747E+01 -.921E+03   -.820E+01 -.748E+01 0.913E+03   -.652E-02 0.896E-02 0.753E+01
   0.709E+01 -.134E-07 -.921E+03   -.708E+01 0.205E-07 0.913E+03   -.693E-02 -.312E-23 0.753E+01
   0.955E+01 0.102E+02 0.936E+03   -.955E+01 -.102E+02 -.928E+03   -.620E-03 0.187E-01 -.749E+01
   0.182E+02 0.196E+02 0.950E+03   -.182E+02 -.197E+02 -.942E+03   0.807E-02 0.421E-01 -.749E+01
   0.226E+02 0.179E+02 -.914E+03   -.226E+02 -.180E+02 0.906E+03   0.412E-02 0.337E-01 0.753E+01
   0.158E+02 0.230E+02 -.914E+03   -.157E+02 -.230E+02 0.906E+03   -.150E-01 0.263E-01 0.752E+01
   0.207E+02 0.861E+01 0.946E+03   -.207E+02 -.864E+01 -.938E+03   0.249E-01 0.248E-01 -.748E+01
   0.330E+02 0.231E-07 0.970E+03   -.330E+02 -.354E-07 -.962E+03   0.147E-01 0.105E-22 -.739E+01
   0.413E+02 0.205E-07 -.904E+03   -.415E+02 -.315E-07 0.896E+03   0.913E-01 -.916E-23 0.754E+01
   0.586E+02 0.339E+02 -.881E+03   -.587E+02 -.340E+02 0.873E+03   0.462E-01 0.951E-01 0.753E+01
   0.207E+02 -.861E+01 0.946E+03   -.207E+02 0.864E+01 -.938E+03   0.249E-01 -.248E-01 -.748E+01
   0.182E+02 -.196E+02 0.950E+03   -.182E+02 0.197E+02 -.942E+03   0.807E-02 -.421E-01 -.749E+01
   0.226E+02 -.179E+02 -.914E+03   -.226E+02 0.180E+02 0.906E+03   0.412E-02 -.337E-01 0.753E+01
   0.586E+02 -.339E+02 -.881E+03   -.587E+02 0.340E+02 0.873E+03   0.462E-01 -.951E-01 0.753E+01
   0.955E+01 -.102E+02 0.936E+03   -.955E+01 0.102E+02 -.928E+03   -.620E-03 -.187E-01 -.749E+01
   0.688E+01 -.794E+01 0.935E+03   -.687E+01 0.795E+01 -.927E+03   -.511E-02 -.112E-01 -.750E+01
   0.821E+01 -.747E+01 -.921E+03   -.820E+01 0.748E+01 0.913E+03   -.652E-02 -.896E-02 0.753E+01
   0.158E+02 -.230E+02 -.914E+03   -.157E+02 0.230E+02 0.906E+03   -.150E-01 -.263E-01 0.752E+01
   0.364E+01 -.123E-07 0.935E+03   -.364E+01 0.189E-07 -.927E+03   -.345E-02 -.271E-23 -.750E+01
   -.231E-12 0.111E+02 0.938E+03   0.435E-11 -.111E+02 -.930E+03   -.100E-22 0.847E-02 -.750E+01
   0.597E+01 0.147E+02 -.918E+03   -.596E+01 -.147E+02 0.910E+03   -.655E-02 0.146E-02 0.752E+01
   -.221E-12 -.190E-07 -.919E+03   0.875E-13 0.292E-07 0.911E+03   -.114E-25 -.751E-23 0.752E+01
   0.742E+01 0.204E+02 0.945E+03   -.742E+01 -.205E+02 -.937E+03   -.506E-02 0.356E-01 -.751E+01
   -.221E-12 0.330E+02 0.966E+03   -.558E-11 -.331E+02 -.958E+03   -.118E-23 0.491E-01 -.754E+01
   0.259E+02 0.581E+02 -.886E+03   -.258E+02 -.582E+02 0.879E+03   -.459E-01 0.101E+00 0.748E+01
   -.215E-12 0.378E+02 -.907E+03   -.191E-10 -.378E+02 0.899E+03   -.160E-22 -.144E-01 0.751E+01
   0.224E+02 0.254E+02 0.985E+03   -.224E+02 -.254E+02 -.977E+03   0.877E-02 0.300E-01 -.740E+01
   -.237E-12 0.481E-07 0.102E+04   -.457E-13 -.740E-07 -.101E+04   -.408E-23 0.662E-23 -.747E+01
   0.965E+02 0.160E-06 -.750E+03   -.964E+02 -.246E-06 0.743E+03   -.530E-01 0.261E-22 0.670E+01
   -.229E-12 0.103E+03 -.787E+03   0.216E-10 -.103E+03 0.780E+03   0.601E-23 0.102E+00 0.705E+01
   0.224E+02 -.254E+02 0.985E+03   -.224E+02 0.254E+02 -.977E+03   0.877E-02 -.300E-01 -.740E+01
   -.221E-12 -.330E+02 0.966E+03   -.183E-10 0.331E+02 -.958E+03   0.573E-23 -.491E-01 -.754E+01
   0.259E+02 -.581E+02 -.886E+03   -.258E+02 0.582E+02 0.879E+03   -.459E-01 -.101E+00 0.748E+01
   -.243E-12 -.103E+03 -.787E+03   0.182E-10 0.103E+03 0.780E+03   0.665E-23 -.102E+00 0.705E+01
   0.742E+01 -.204E+02 0.945E+03   -.742E+01 0.205E+02 -.937E+03   -.506E-02 -.356E-01 -.751E+01
   -.199E-12 -.111E+02 0.938E+03   0.205E-10 0.111E+02 -.930E+03   -.177E-23 -.847E-02 -.750E+01
[...]
   -.111E+02 0.899E+01 0.707E+03   0.111E+02 -.901E+01 -.711E+03   -.913E-02 0.295E-01 0.347E+01
   -.403E+01 0.528E+01 0.702E+03   0.403E+01 -.529E+01 -.706E+03   -.917E-03 0.147E-01 0.347E+01
   -.261E+02 0.105E+02 -.682E+03   0.261E+02 -.106E+02 0.686E+03   -.369E-01 0.437E-01 -.348E+01
   -.132E+02 0.725E-08 -.689E+03   0.132E+02 -.111E-07 0.692E+03   -.214E-01 0.585E-24 -.349E+01
   -.176E+02 0.906E-08 0.713E+03   0.176E+02 -.139E-07 -.717E+03   -.485E-01 0.328E-23 0.351E+01
   -.779E+01 0.385E+01 0.705E+03   0.780E+01 -.386E+01 -.709E+03   -.150E-01 0.159E-01 0.348E+01
   -.261E+02 -.105E+02 -.682E+03   0.261E+02 0.106E+02 0.686E+03   -.369E-01 -.437E-01 -.348E+01
   -.836E+01 -.766E+01 -.691E+03   0.837E+01 0.767E+01 0.695E+03   -.761E-02 -.217E-01 -.349E+01
   -.111E+02 -.899E+01 0.707E+03   0.111E+02 0.901E+01 -.711E+03   -.913E-02 -.295E-01 0.347E+01
   -.779E+01 -.385E+01 0.705E+03   0.780E+01 0.386E+01 -.709E+03   -.150E-01 -.159E-01 0.348E+01
   -.989E+01 -.106E+02 -.691E+03   0.989E+01 0.106E+02 0.694E+03   0.174E-02 -.197E-01 -.350E+01
   -.355E+01 -.384E+01 -.693E+03   0.355E+01 0.385E+01 0.697E+03   0.219E-02 -.760E-02 -.349E+01
   -.483E+01 -.423E+01 0.702E+03   0.483E+01 0.424E+01 -.706E+03   0.340E-02 -.898E-02 0.347E+01
   -.403E+01 -.528E+01 0.702E+03   0.403E+01 0.529E+01 -.706E+03   -.917E-03 -.147E-01 0.347E+01
   0.518E-11 -.305E-05 0.787E+01   0.387E-11 -.142E-11 -.671E-11   -.943E-17 0.451E-16 -.513E+01

 POSITION                                       TOTAL-FORCE (eV/Angst)
     11.68311     10.56943     13.94080        -0.260743      0.000000     -0.081395
      9.45574     10.56943     13.94080         0.260743      0.000000     -0.081395
      0.00000      0.00000      9.00000        -0.000000      0.000000      0.512129
      2.11389      2.11389      9.00000         0.000471     -0.001996      0.512158
      0.00000      2.11389     11.11389        -0.000000     -0.001887     -0.482830
      2.11389      0.00000     11.11389         0.000915      0.000000     -0.482736
      0.00000      4.22777      9.00000        -0.000000     -0.003257      0.511856
      2.11389      6.34166      9.00000        -0.001533     -0.004722      0.511387
      0.00000      6.34166     11.11389        -0.000000     -0.003897     -0.482805
      2.11389      4.22777     11.11389         0.000352     -0.004086     -0.482561
      0.00000      8.45554      9.00000        -0.000000     -0.002542      0.511381
      2.11389     10.56943      9.00000        -0.006374      0.000000      0.510820
      0.00000     10.56943     11.11389        -0.000000      0.000000     -0.483299
      2.11389      8.45554     11.11389        -0.005484     -0.003774     -0.483010
      0.00000     12.68331      9.00000        -0.000000      0.002542      0.511381
      2.11389     14.79720      9.00000        -0.001533      0.004722      0.511387
      0.00000     14.79720     11.11389        -0.000000      0.003897     -0.482805
      2.11389     12.68331     11.11389        -0.005484      0.003774     -0.483010
      0.00000     16.91108      9.00000        -0.000000      0.003257      0.511856
      2.11389     19.02497      9.00000         0.000471      0.001996      0.512158
      0.00000     19.02497     11.11389        -0.000000      0.001887     -0.482830
      2.11389     16.91108     11.11389         0.000352      0.004086     -0.482561
      4.22777      0.00000      9.00000         0.001188      0.000000      0.512514
      6.34166      2.11389      9.00000         0.001512     -0.002976      0.513185
      4.22777      2.11389     11.11389         0.001883     -0.002455     -0.482098
      6.34166      0.00000     11.11389         0.002066      0.000000     -0.481638
      4.22777      4.22777      9.00000         0.000120     -0.005192      0.512234
      6.34166      6.34166      9.00000        -0.002924     -0.012087      0.511802
      4.22777      6.34166     11.11389        -0.001134     -0.009666     -0.481834
      6.34166      4.22777     11.11389         0.004548     -0.006965     -0.479061
      4.22777      8.45554      9.00000        -0.007348     -0.007681      0.508820
      6.34166     10.56943      9.00000        -0.003816      0.000000      0.482410
      4.22777     10.56943     11.11389        -0.029520      0.000000     -0.484642
      6.34166      8.45554     11.11389        -0.012905     -0.027227     -0.481111
      4.22777     12.68331      9.00000        -0.007348      0.007681      0.508820
      6.34166     14.79720      9.00000        -0.002924      0.012087      0.511802
      4.22777     14.79720     11.11389        -0.001134      0.009666     -0.481834
      6.34166     12.68331     11.11389        -0.012905      0.027227     -0.481111
      4.22777     16.91108      9.00000         0.000120      0.005192      0.512234
      6.34166     19.02497      9.00000         0.001512      0.002976      0.513185
      4.22777     19.02497     11.11389         0.001883      0.002455     -0.482098
      6.34166     16.91108     11.11389         0.004548      0.006965     -0.479061
      8.45554      0.00000      9.00000         0.001029      0.000000      0.513245
     10.56943      2.11389      9.00000        -0.000000     -0.002413      0.513980
      8.45554      2.11389     11.11389         0.002079     -0.000121     -0.479736
     10.56943      0.00000     11.11389        -0.000000      0.000000     -0.480653
      8.45554      4.22777      9.00000         0.001682     -0.009271      0.516470
     10.56943      6.34166      9.00000        -0.000000     -0.015378      0.522208
      8.45554      6.34166     11.11389         0.018425     -0.028709     -0.452564
     10.56943      4.22777     11.11389        -0.000000      0.005241     -0.471253
      8.45554      8.45554      9.00000        -0.001353     -0.007249      0.481847
     10.56943     10.56943      9.00000        -0.000000      0.000000      0.456349
      8.45554     10.56943     11.11389        -0.010123      0.000000     -0.532152
     10.56943      8.45554     11.11389        -0.000000     -0.010440     -0.262559
      8.45554     12.68331      9.00000        -0.001353      0.007249      0.481847
     10.56943     14.79720      9.00000        -0.000000      0.015378      0.522208
      8.45554     14.79720     11.11389         0.018425      0.028709     -0.452564
     10.56943     12.68331     11.11389        -0.000000      0.010440     -0.262559
      8.45554     16.91108      9.00000         0.001682      0.009271      0.516470
     10.56943     19.02497      9.00000        -0.000000      0.002413      0.513980
[...]
     19.02497      6.34166     11.11389        -0.002145      0.006021      0.322506
     16.91108      6.34166      9.00000        -0.002613      0.008239     -0.349542
     19.02497      4.22777      9.00000        -0.000263      0.004085     -0.350161
     16.91108      8.45554     11.11389        -0.011013      0.012428      0.325158
     19.02497     10.56943     11.11389        -0.006064      0.000000      0.323213
     16.91108     10.56943      9.00000        -0.014458      0.000000     -0.341034
     19.02497      8.45554      9.00000        -0.004200      0.004422     -0.348972
     16.91108     12.68331     11.11389        -0.011013     -0.012428      0.325158
     19.02497     14.79720     11.11389        -0.002145     -0.006021      0.322506
     16.91108     14.79720      9.00000        -0.002613     -0.008239     -0.349542
     19.02497     12.68331      9.00000        -0.004200     -0.004422     -0.348972
     16.91108     16.91108     11.11389         0.000421     -0.005503      0.321409
     19.02497     19.02497     11.11389         0.000595     -0.002111      0.322379
     16.91108     19.02497      9.00000         0.000924     -0.002498     -0.350644
     19.02497     16.91108      9.00000        -0.000263     -0.004085     -0.350161
    total drift:                                0.000000     -0.000003      2.733806

  FREE ENERGIE OF THE ION-ELECTRON SYSTEM (eV)
  free  energy   TOTEN  =     -1514.68395122 eV

  energy  without entropy=    -1514.68395122  energy(sigma->0) =    -1514.68395122