 vasp.6.3.0 20Jan22 (build Apr  1 2022 16:44:48) complex
 executed on        HPECrayEX_GCC date 2023.01.09  20:21:53

 INCAR:
   SYSTEM = MgO-rocksalt
   ISMEAR = 0
   SIGMA = 0.05
   EDIFF = 1E-6
   ALGO = ALL
   ISTART = 0
   IBRION = -1
   NSW = 0
   ISYM = 2
   DIPOL = 0.5 0.5 0.5
   IDIPOL = 3
   LDIPOL = .TRUE.
   GGA = MK
   PARAM1 = 0.1234
   PARAM2 = 1.0
   LUSE_VDW = .TRUE.
   AGGAC = 0.0
   ENCUT = 520
   PREC = Accurate
   LASPH = .TRUE.
   LREAL = Auto
   ISPIN = 1
   NELM = 200
   NELMIN = 8
   NCORE = 4
   KPAR = 2
   LWAVE = .FALSE.
   LCHARG = .FALSE.

 POTCAR:    PAW_PBE Ag 02Apr2005
 POTCAR:    PAW_PBE Mg_pv 13Apr2007
 POTCAR:    PAW_PBE O 08Apr2002
|               ----> ADVICE to this user running VASP <----                  |
|     You have switched on vdW-DFT.                                           |
|     This routine was written and supplied by Jiri Klimes. We recommend      |
|     that you carefully read and cite the following publications:            |
|       J. Klimes, D.R. Bowler, A. Michelides                                 |
|          J. Phys.: Cond Matt. 22 022201 (2010)                              |
|       J. Klimes, D.R. Bowler, A. Michelides                                 |
|          Phys. Rev. B. 83, 195131 (2011)                                    |
|     and references therein.                                                 |

   TITEL  = PAW_PBE Ag 02Apr2005
   POMASS =  107.868; ZVAL   =   11.000    mass and valenz
   ENMAX  =  249.844; ENMIN  =  187.383 eV

   TITEL  = PAW_PBE Mg_pv 13Apr2007
   POMASS =   24.305; ZVAL   =    8.000    mass and valenz
   ENMAX  =  403.929; ENMIN  =  302.947 eV

   TITEL  = PAW_PBE O 08Apr2002
   POMASS =   16.000; ZVAL   =    6.000    mass and valenz
   ENMAX  =  400.000; ENMIN  =  300.000 eV

 Optimization of the real space projectors (new method)

 maximal supplied QI-value         = 15.12
 optimisation between [QCUT,QGAM] = [ 11.64, 23.28] = [ 37.95,151.78] Ry
 Optimized for a Real-space Cutoff    1.45 Angstroem

   l    n(q)    QCUT    max X(q) W(low)/X(q) W(high)/X(q)  e(spline)
   2      9    11.641    53.897    0.22E-03    0.42E-04    0.28E-06
   2      9    11.641    52.416    0.23E-03    0.44E-04    0.29E-06
   0     10    11.641   122.045    0.51E-04    0.25E-04    0.16E-06
   0     10    11.641    73.629    0.49E-04    0.24E-04    0.16E-06
   1     10    11.641    15.255    0.99E-04    0.55E-04    0.11E-06
   1     10    11.641     9.562    0.81E-04    0.47E-04    0.95E-07
 Optimization of the real space projectors (new method)

[...]

   l    n(q)    QCUT    max X(q) W(low)/X(q) W(high)/X(q)  e(spline)
   1      8    11.527     2.974    0.44E-04    0.56E-04    0.12E-06
   1      8    11.527     4.279    0.12E-03    0.12E-03    0.26E-06
   0      9    11.527    16.381    0.46E-04    0.64E-04    0.78E-07
   0      9    11.527     5.611    0.26E-04    0.43E-04    0.55E-07
   2      8    11.527     4.652    0.22E-03    0.72E-04    0.47E-07
 Optimization of the real space projectors (new method)

 maximal supplied QI-value         = 24.76
 optimisation between [QCUT,QGAM] = [ 11.64, 23.27] = [ 37.91,151.63] Ry
 Optimized for a Real-space Cutoff    1.14 Angstroem

   l    n(q)    QCUT    max X(q) W(low)/X(q) W(high)/X(q)  e(spline)
   0      8    11.635    20.381    0.10E-03    0.33E-03    0.24E-06
   0      8    11.635    15.268    0.11E-03    0.35E-03    0.26E-06
   1      7    11.635     5.964    0.24E-03    0.31E-03    0.30E-06
   1      7    11.635     5.382    0.22E-03    0.25E-03    0.26E-06
|               ----> ADVICE to this user running VASP <----                  |
|     You enforced a specific xc type in the INCAR file but a different       |
|     type was found in the POTCAR file.                                      |
|     I HOPE YOU KNOW WHAT YOU ARE DOING!                                     |

  PAW_PBE Ag 02Apr2005                  :
  PAW_PBE Mg_pv 13Apr2007               :
  PAW_PBE O 08Apr2002                   :

 POSCAR: Ag Mg  O
  positions in direct lattice
  velocities in cartesian coordinates
 exchange correlation table for  LEXCH =       43
   RHO(1)=    0.500       N(1)  =     2000
   RHO(2)=  100.500       N(2)  =     4000

 ion  position               nearest neighbor table
   1  0.400  0.429  0.610- 153 2.46   2 2.60  55 2.82   4 3.42
   2  0.400  0.512  0.697-   1 2.60   4 2.64   3 2.77
   3  0.401  0.641  0.713-   4 2.63   2 2.77
   4  0.400  0.590  0.604- 157 2.26   3 2.63   2 2.64  55 2.95   1 3.42
   5  0.000  0.000  0.407- 107 2.11 108 2.11 123 2.11 188 2.11 105 2.11
   6  0.100  0.100  0.407- 107 2.11 108 2.11 112 2.11 127 2.11 106 2.11
   7  0.000  0.100  0.503- 105 2.11 106 2.11 109 2.11 186 2.11 107 2.11
   8  0.100  0.000  0.503- 105 2.11 106 2.11 122 2.11 125 2.11 108 2.11
   9  0.000  0.200  0.407- 111 2.11 107 2.11 112 2.11 192 2.11 109 2.11
  10  0.100  0.300  0.407- 112 2.11 111 2.11 116 2.11 131 2.11 110 2.11
  11  0.000  0.300  0.503- 109 2.11 110 2.11 113 2.11 190 2.11 111 2.11
  12  0.100  0.200  0.503- 110 2.11 109 2.11 106 2.11 129 2.11 112 2.11
  13  0.000  0.400  0.407- 111 2.11 115 2.11 116 2.11 196 2.11 113 2.11
  14  0.100  0.500  0.407- 115 2.11 116 2.11 120 2.11 135 2.11 114 2.11
  15  0.000  0.500  0.503- 113 2.11 114 2.11 117 2.11 194 2.11 115 2.11
  16  0.100  0.400  0.503- 110 2.11 113 2.11 114 2.11 133 2.11 116 2.11
  17  0.000  0.600  0.407- 115 2.11 119 2.11 120 2.11 200 2.11 117 2.11
  18  0.100  0.700  0.407- 124 2.11 120 2.11 119 2.11 139 2.11 118 2.11
  19  0.000  0.700  0.503- 121 2.11 118 2.11 117 2.11 198 2.11 119 2.11
  20  0.100  0.600  0.503- 114 2.11 117 2.11 118 2.11 137 2.11 120 2.11
  21  0.000  0.800  0.407- 119 2.11 123 2.11 124 2.11 204 2.11 121 2.11
  22  0.100  0.900  0.407- 108 2.11 123 2.11 124 2.11 143 2.11 122 2.11
  23  0.000  0.900  0.503- 105 2.11 121 2.11 122 2.11 202 2.11 123 2.11
  24  0.100  0.800  0.503- 118 2.11 121 2.11 122 2.11 141 2.11 124 2.11
  25  0.200  0.000  0.407- 128 2.11 127 2.11 108 2.11 143 2.11 125 2.11
  26  0.300  0.100  0.407- 127 2.11 128 2.11 132 2.11 147 2.11 126 2.11
  27  0.200  0.100  0.503- 126 2.11 125 2.11 106 2.11 129 2.11 127 2.11
  28  0.300  0.000  0.503- 125 2.11 126 2.11 142 2.11 145 2.11 128 2.11
  29  0.200  0.200  0.407- 131 2.11 132 2.11 112 2.11 127 2.11 129 2.11
  30  0.300  0.300  0.407- 131 2.11 132 2.11 136 2.11 151 2.11 130 2.11
  31  0.200  0.300  0.503- 129 2.11 130 2.11 110 2.11 133 2.11 131 2.11
  32  0.300  0.200  0.503- 129 2.11 130 2.11 126 2.11 149 2.11 132 2.11
  33  0.200  0.400  0.407- 136 2.11 131 2.11 135 2.11 116 2.11 133 2.11
  34  0.300  0.500  0.407- 135 2.11 136 2.11 140 2.11 155 2.11 134 2.11
  35  0.200  0.500  0.503- 134 2.11 133 2.11 114 2.11 137 2.11 135 2.11
  36  0.300  0.400  0.503- 133 2.11 130 2.11 134 2.11 153 2.11 136 2.11
  37  0.200  0.600  0.407- 140 2.11 135 2.11 139 2.11 120 2.11 137 2.11
  38  0.300  0.700  0.407- 139 2.11 144 2.11 140 2.11 159 2.11 138 2.11
  39  0.200  0.700  0.503- 138 2.11 141 2.11 118 2.11 137 2.11 139 2.11
  40  0.300  0.600  0.503- 137 2.11 134 2.11 138 2.11 157 2.11 140 2.11
  41  0.200  0.800  0.407- 139 2.11 144 2.11 143 2.11 124 2.11 141 2.11
  42  0.300  0.900  0.407- 143 2.11 128 2.11 144 2.11 163 2.11 142 2.11
  43  0.200  0.900  0.503- 142 2.11 125 2.11 141 2.11 122 2.11 143 2.11
  44  0.300  0.800  0.503- 138 2.11 141 2.11 142 2.11 161 2.11 144 2.11
  45  0.400  0.000  0.407- 128 2.11 147 2.11 148 2.11 163 2.11 145 2.11
  46  0.500  0.100  0.407- 147 2.11 148 2.11 152 2.11 167 2.11 146 2.11
  47  0.400  0.100  0.503- 126 2.11 145 2.11 146 2.11 149 2.11 147 2.11
  48  0.500  0.000  0.503- 145 2.11 146 2.11 162 2.11 165 2.11 148 2.11
  49  0.400  0.200  0.407- 151 2.11 147 2.11 132 2.11 152 2.11 149 2.11
  50  0.500  0.300  0.407- 152 2.11 151 2.11 156 2.11 171 2.11 150 2.11
  51  0.400  0.300  0.503- 149 2.11 130 2.11 150 2.11 153 2.11 151 2.11
  52  0.500  0.200  0.503- 150 2.11 149 2.11 146 2.11 169 2.11 152 2.11
  53  0.400  0.400  0.407- 136 2.11 151 2.11 155 2.11 156 2.11 153 2.11
  54  0.500  0.500  0.407- 155 2.11 156 2.11 160 2.11 175 2.11 154 2.11
  55  0.400  0.500  0.503- 134 2.11 153 2.11 154 2.11 157 2.11 155 2.11   1 2.82   4 2.95
  56  0.500  0.400  0.503- 150 2.11 153 2.11 154 2.11 173 2.11 156 2.11
  57  0.400  0.600  0.407- 140 2.11 155 2.11 159 2.11 160 2.11 157 2.11
  58  0.500  0.700  0.407- 164 2.11 160 2.11 159 2.11 179 2.11 158 2.11
  59  0.400  0.700  0.503- 161 2.11 157 2.11 158 2.11 138 2.11 159 2.11
  60  0.500  0.600  0.503- 154 2.11 157 2.11 158 2.11 177 2.11 160 2.11
[...]
 190  0.900  0.300  0.503-  92 2.11  91 2.11  11 2.11  96 2.11  90 2.11
 191  0.800  0.300  0.407-  70 2.11  89 2.11  90 2.11  93 2.11  91 2.11
 192  0.900  0.200  0.407-  90 2.11  86 2.11  89 2.11   9 2.11  92 2.11
 193  0.800  0.400  0.503-  76 2.11  91 2.11  95 2.11  96 2.11  93 2.11
 194  0.900  0.500  0.503-  15 2.11  95 2.11  96 2.11 100 2.11  94 2.11
 195  0.800  0.500  0.407-  74 2.11  93 2.11  94 2.11  97 2.11  95 2.11
 196  0.900  0.400  0.407-  13 2.11  90 2.11  93 2.11  94 2.11  96 2.11
 197  0.800  0.600  0.503-  80 2.11  95 2.11  99 2.11 100 2.11  97 2.11
 198  0.900  0.700  0.503- 104 2.11  99 2.11 100 2.11  19 2.11  98 2.11
 199  0.800  0.700  0.407-  78 2.11 101 2.11  98 2.11  97 2.11  99 2.11
 200  0.900  0.600  0.407-  17 2.11  94 2.11  97 2.11  98 2.11 100 2.11
 201  0.800  0.800  0.503-  84 2.11  99 2.11 103 2.11 104 2.11 101 2.11
 202  0.900  0.900  0.503-  23 2.11  88 2.11 103 2.11 104 2.11 102 2.11
 203  0.800  0.900  0.407-  82 2.11  85 2.11 101 2.11 102 2.11 103 2.11
 204  0.900  0.800  0.407-  98 2.11  21 2.11 101 2.11 102 2.11 104 2.11

  LATTYP: Found a simple tetragonal cell.
 ALAT       =    21.1388521970
 C/A-ratio  =     1.0461251639

  Lattice vectors:

 A1 = (  21.1388521970,   0.0000000000,   0.0000000000)
 A2 = (   0.0000000000,  21.1388521970,   0.0000000000)
 A3 = (   0.0000000000,   0.0000000000,  22.1138852197)

Analysis of symmetry for initial positions (statically):
 Subroutine PRICEL returns:
 Original cell was already a primitive cell.

 Routine SETGRP: Setting up the symmetry group for a
 simple tetragonal supercell.

 Subroutine GETGRP returns: Found  1 space group operations
 (whereof  1 operations were pure point group operations)
 out of a pool of 16 trial point group operations.

The static configuration has the point symmetry C_1 .

Analysis of symmetry for dynamics (positions and initial velocities):
 Subroutine PRICEL returns:
 Original cell was already a primitive cell.

[...]

The dynamic configuration has the point symmetry C_1 .

Analysis of constrained symmetry for selective dynamics:
 Subroutine PRICEL returns:
 Original cell was already a primitive cell.

 Routine SETGRP: Setting up the symmetry group for a
 simple tetragonal supercell.

 Subroutine GETGRP returns: Found  1 space group operations
 (whereof  1 operations were pure point group operations)
 out of a pool of 16 trial point group operations.

The constrained configuration has the point symmetry C_1 .

 Subroutine INISYM returns: Found  1 space group operations
 (whereof  1 operations are pure point group operations),
 and found     1 'primitive' translations

[...]
     52     -43.2274      2.00000
     53     -43.2271      2.00000
     54     -43.2268      2.00000
     55     -43.2245      2.00000
     56     -43.2242      2.00000
     57     -43.2239      2.00000
     58     -43.2224      2.00000
     59     -43.2221      2.00000
     60     -43.2219      2.00000
[...]
    946       5.4681      0.00000
    947       5.4907      0.00000
    948       5.5120      0.00000
    949       5.5366      0.00000
    950       5.5741      0.00000
    951       5.6104      0.00000
    952       5.6462      0.00000
    953       5.6913      0.00000
    954       5.7482      0.00000
    955       5.8166      0.00000
    956       5.9059      0.00000
    957       5.9250      0.00000
    958       6.0891      0.00000
    959       6.1408      0.00000
    960       6.2754      0.00000

 soft charge-density along one line, spin component           1
         0         1         2         3         4         5         6         7         8         9
 total charge-density along one line

------------------------ aborting loop because EDIFF is reached ----------------------------------------

  FORCE on cell =-STRESS in cart. coord.  units (eV):
  Direction    XX          YY          ZZ          XY          YZ          ZX
  Alpha Z  1401.13727  1401.13727  1401.13727
  Ewald  477666.07547479799.93693************     3.84227   439.22239     3.11972
  Hartree507165.26870508899.67296************     3.08122   355.58992     2.35894
  E(xc)   -7887.19474 -7886.67990 -7886.14030     0.00104     0.18539     0.00191
  Local  ************************************    -6.90514  -793.19227    -5.44688
  n-local -8843.11672 -8844.13578 -8960.50328    -0.00029    -0.12227    -0.00789
  augment  3653.09692  3650.28305  3589.75326    -0.00592    -0.53543    -0.00577
  Kinetic 23240.32719 23233.72076 23463.56394    -0.01114    -1.11915    -0.02537
  Fock        0.00000     0.00000     0.00000     0.00000     0.00000     0.00000
  Total    -186.17138  -186.69762    -0.25739     0.00205     0.02860    -0.00534
  in kB     -30.18531   -30.27063    -0.04173     0.00033     0.00464    -0.00087

 VOLUME and BASIS-vectors are now :
  energy-cutoff  :      520.00
  volume of cell :     9881.61
      direct lattice vectors                 reciprocal lattice vectors
    21.138852197  0.000000000  0.000000000     0.047306258  0.000000000  0.000000000
     0.000000000 21.138852197  0.000000000     0.000000000  0.047306258  0.000000000
     0.000000000  0.000000000 22.113885220     0.000000000  0.000000000  0.045220457

  length of vectors
    21.138852197 21.138852197 22.113885220     0.047306258  0.047306258  0.045220457

 FORCES acting on ions:
    Electron-Ion                     Ewald-Force                    Non-Local-Force
   0.593E+00 0.380E+03 -.193E+04   -.587E+00 -.376E+03 0.193E+04   -.581E-02 -.423E+01 -.387E+01
   0.162E+00 0.207E+03 -.197E+04   -.167E+00 -.207E+03 0.196E+04   0.604E-02 0.194E+00 0.652E+01
   -.148E+01 -.388E+03 -.180E+04   0.146E+01 0.384E+03 0.179E+04   0.238E-01 0.453E+01 0.490E+01
   0.687E+00 -.198E+03 -.176E+04   -.677E+00 0.199E+03 0.176E+04   -.117E-01 -.435E+00 -.386E+01
   0.711E+01 -.266E+01 0.936E+03   -.712E+01 0.267E+01 -.929E+03   0.115E-01 -.702E-02 -.727E+01
   0.128E+02 0.613E+01 0.939E+03   -.128E+02 -.614E+01 -.932E+03   0.223E-01 0.706E-02 -.727E+01
   0.932E+01 0.530E+01 -.917E+03   -.933E+01 -.530E+01 0.910E+03   0.868E-02 -.198E-02 0.721E+01
   0.155E+02 -.503E+01 -.915E+03   -.155E+02 0.504E+01 0.908E+03   0.118E-01 -.946E-02 0.720E+01
   0.955E+01 0.984E+01 0.938E+03   -.957E+01 -.985E+01 -.931E+03   0.194E-01 0.804E-02 -.727E+01
   0.248E+02 0.182E+02 0.949E+03   -.249E+02 -.183E+02 -.942E+03   0.742E-01 0.287E-01 -.729E+01
   0.181E+02 0.157E+02 -.913E+03   -.181E+02 -.157E+02 0.905E+03   0.144E-01 0.553E-02 0.720E+01
   0.235E+02 0.199E+02 -.911E+03   -.235E+02 -.199E+02 0.904E+03   0.293E-01 0.541E-02 0.720E+01
   0.168E+02 0.959E+01 0.945E+03   -.169E+02 -.960E+01 -.937E+03   0.406E-01 0.132E-01 -.728E+01
   0.383E+02 0.456E+01 0.961E+03   -.385E+02 -.459E+01 -.954E+03   0.142E+00 0.192E-01 -.731E+01
   0.281E+02 0.416E+01 -.907E+03   -.281E+02 -.417E+01 0.900E+03   0.251E-01 0.769E-02 0.719E+01
   0.527E+02 0.223E+02 -.896E+03   -.527E+02 -.223E+02 0.889E+03   0.441E-01 0.146E-01 0.717E+01
   0.186E+02 -.489E+01 0.947E+03   -.186E+02 0.489E+01 -.939E+03   0.559E-01 0.224E-03 -.728E+01
   0.302E+02 -.166E+02 0.955E+03   -.304E+02 0.166E+02 -.947E+03   0.120E+00 -.267E-01 -.730E+01
   0.226E+02 -.139E+02 -.909E+03   -.226E+02 0.140E+02 0.902E+03   0.290E-01 -.267E-02 0.720E+01
   0.607E+02 -.119E+02 -.891E+03   -.608E+02 0.119E+02 0.884E+03   0.975E-01 0.734E-02 0.717E+01
   0.118E+02 -.119E+02 0.941E+03   -.118E+02 0.119E+02 -.933E+03   0.312E-01 -.144E-01 -.728E+01
   0.152E+02 -.124E+02 0.942E+03   -.152E+02 0.124E+02 -.934E+03   0.321E-01 -.283E-01 -.728E+01
   0.114E+02 -.112E+02 -.916E+03   -.114E+02 0.112E+02 0.908E+03   0.130E-01 -.857E-02 0.721E+01
   0.319E+02 -.252E+02 -.906E+03   -.319E+02 0.253E+02 0.898E+03   0.509E-01 -.178E-01 0.719E+01
   0.130E+02 -.502E+01 0.942E+03   -.130E+02 0.505E+01 -.935E+03   0.194E-01 -.174E-01 -.728E+01
   0.925E+01 0.123E+02 0.947E+03   -.927E+01 -.124E+02 -.940E+03   0.167E-01 0.463E-01 -.729E+01
   0.184E+02 0.130E+02 -.911E+03   -.184E+02 -.130E+02 0.904E+03   0.153E-01 0.149E-01 0.720E+01
   0.114E+02 -.101E+02 -.908E+03   -.114E+02 0.101E+02 0.900E+03   0.675E-02 -.106E-01 0.720E+01
   0.199E+02 0.221E+02 0.950E+03   -.200E+02 -.222E+02 -.943E+03   0.568E-01 0.577E-01 -.729E+01
   0.252E+02 0.442E+02 0.984E+03   -.254E+02 -.445E+02 -.976E+03   0.147E+00 0.213E+00 -.730E+01
   0.539E+02 0.495E+02 -.887E+03   -.541E+02 -.495E+02 0.879E+03   0.129E+00 0.117E-01 0.715E+01
   0.231E+02 0.522E+02 -.894E+03   -.231E+02 -.523E+02 0.886E+03   0.213E-01 0.120E+00 0.717E+01
   0.454E+02 0.249E+02 0.981E+03   -.457E+02 -.250E+02 -.973E+03   0.261E+00 0.801E-01 -.738E+01
   0.487E+02 0.112E+02 0.104E+04   -.492E+02 -.113E+02 -.103E+04   0.355E+00 0.118E+00 -.734E+01
   0.110E+03 0.140E+02 -.845E+03   -.111E+03 -.141E+02 0.838E+03   0.256E+00 0.469E-01 0.708E+01
   0.119E+03 0.916E+02 -.769E+03   -.120E+03 -.917E+02 0.763E+03   0.991E+00 0.137E+00 0.673E+01
   0.515E+02 -.143E+02 0.989E+03   -.519E+02 0.144E+02 -.981E+03   0.388E+00 -.221E-01 -.738E+01
   0.327E+02 -.435E+02 0.100E+04   -.330E+02 0.439E+02 -.996E+03   0.255E+00 -.275E+00 -.727E+01
   0.739E+02 -.493E+02 -.868E+03   -.742E+02 0.493E+02 0.861E+03   0.246E+00 -.263E-01 0.713E+01
   0.146E+03 -.566E+02 -.727E+03   -.149E+03 0.566E+02 0.720E+03   0.193E+01 -.317E-01 0.698E+01
   0.261E+02 -.276E+02 0.959E+03   -.262E+02 0.278E+02 -.951E+03   0.939E-01 -.976E-01 -.729E+01
   0.116E+02 -.244E+02 0.954E+03   -.116E+02 0.245E+02 -.946E+03   0.216E-01 -.108E+00 -.730E+01
   0.242E+02 -.275E+02 -.905E+03   -.242E+02 0.276E+02 0.898E+03   0.147E-01 -.477E-01 0.719E+01
   0.359E+02 -.731E+02 -.870E+03   -.359E+02 0.734E+02 0.863E+03   -.242E-02 -.251E+00 0.712E+01
   0.249E-01 -.702E+01 0.947E+03   -.247E-01 0.705E+01 -.940E+03   -.112E-03 -.230E-01 -.729E+01
   -.921E+01 0.123E+02 0.947E+03   0.924E+01 -.124E+02 -.940E+03   -.168E-01 0.463E-01 -.729E+01
   0.304E-01 0.213E+02 -.905E+03   -.303E-01 -.214E+02 0.898E+03   -.110E-03 0.401E-01 0.719E+01
   -.114E+02 -.102E+02 -.908E+03   0.114E+02 0.102E+02 0.900E+03   -.694E-02 -.105E-01 0.719E+01
   0.300E-01 0.351E+02 0.963E+03   -.299E-01 -.354E+02 -.955E+03   -.119E-03 0.215E+00 -.733E+01
   -.251E+02 0.443E+02 0.984E+03   0.253E+02 -.446E+02 -.976E+03   -.148E+00 0.212E+00 -.730E+01
   0.107E+00 0.125E+03 -.824E+03   -.107E+00 -.126E+03 0.817E+03   -.379E-03 0.102E+01 0.713E+01
   -.230E+02 0.522E+02 -.894E+03   0.230E+02 -.524E+02 0.886E+03   -.216E-01 0.120E+00 0.717E+01
   0.862E-01 0.467E+02 0.104E+04   -.858E-01 -.471E+02 -.103E+04   -.297E-03 0.321E+00 -.618E+01
   -.486E+02 0.112E+02 0.104E+04   0.490E+02 -.114E+02 -.103E+04   -.356E+00 0.118E+00 -.734E+01
   0.463E+00 0.320E+02 -.582E+03   -.463E+00 -.334E+02 0.577E+03   -.677E-03 0.109E+01 0.505E+01
   -.118E+03 0.918E+02 -.769E+03   0.120E+03 -.919E+02 0.762E+03   -.992E+00 0.137E+00 0.672E+01
   0.139E+00 -.290E+02 0.106E+04   -.137E+00 0.291E+02 -.106E+04   -.109E-02 -.122E+00 -.510E+01
   -.326E+02 -.436E+02 0.100E+04   0.329E+02 0.440E+02 -.996E+03   -.255E+00 -.275E+00 -.727E+01
   0.331E+00 -.146E+03 -.755E+03   -.328E+00 0.148E+03 0.748E+03   -.174E-02 -.190E+01 0.686E+01
   -.146E+03 -.567E+02 -.726E+03   0.149E+03 0.567E+02 0.719E+03   -.193E+01 -.330E-01 0.698E+01
[...]
   -.986E+01 0.905E+01 0.708E+03   0.988E+01 -.906E+01 -.712E+03   -.254E-01 0.153E-01 0.358E+01
   -.162E-01 0.628E+01 0.704E+03   0.161E-01 -.628E+01 -.708E+03   0.110E-03 0.645E-02 0.359E+01
   -.183E+02 0.959E+01 -.684E+03   0.183E+02 -.960E+01 0.688E+03   -.212E-01 0.112E-01 -.371E+01
   -.495E-01 0.250E+01 -.685E+03   0.493E-01 -.250E+01 0.689E+03   0.268E-03 0.758E-02 -.370E+01
   -.144E+02 0.227E+01 0.712E+03   0.144E+02 -.228E+01 -.716E+03   -.408E-01 0.121E-01 0.358E+01
   -.282E-01 0.600E+01 0.708E+03   0.281E-01 -.601E+01 -.712E+03   0.193E-03 0.116E-01 0.358E+01
   -.207E+02 -.480E+01 -.682E+03   0.207E+02 0.480E+01 0.686E+03   -.302E-01 0.391E-02 -.372E+01
   -.472E-01 -.830E+01 -.686E+03   0.470E-01 0.830E+01 0.690E+03   0.276E-03 -.331E-02 -.370E+01
   -.118E+02 -.796E+01 0.710E+03   0.118E+02 0.797E+01 -.714E+03   -.387E-01 -.132E-01 0.358E+01
   -.356E-01 -.299E+01 0.709E+03   0.354E-01 0.299E+01 -.713E+03   0.257E-03 0.883E-03 0.358E+01
   -.123E+02 -.116E+02 -.686E+03   0.123E+02 0.116E+02 0.691E+03   -.216E-01 -.124E-01 -.370E+01
   -.260E-01 -.701E+01 -.690E+03   0.259E-01 0.702E+01 0.694E+03   0.162E-03 -.871E-02 -.369E+01
   -.654E+01 -.655E+01 0.705E+03   0.655E+01 0.656E+01 -.709E+03   -.189E-01 -.163E-01 0.359E+01
   -.259E-01 -.754E+01 0.706E+03   0.257E-01 0.755E+01 -.710E+03   0.197E-03 -.124E-01 0.359E+01
   -.248E-01 -.115E+00 0.152E+01   0.702E-12 0.682E-12 0.200E-10   0.277E-01 0.116E+00 -.194E+01

 POSITION                                       TOTAL-FORCE (eV/Angst)
      8.45714      9.05883     13.49759        -0.000332      0.025079     -0.022753
      8.46060     10.81262     15.42040         0.001026      0.018643     -0.029980
      8.46768     13.55697     15.76553         0.000444     -0.017940     -0.031065
      8.45984     12.47141     13.36585        -0.000645     -0.010951      0.001188
      0.00000      0.00000      9.00000        -0.003187      0.001933      0.357177
      2.11389      2.11389      9.00000        -0.006202     -0.002033      0.358108
      0.00000      2.11389     11.11389        -0.002286      0.000543     -0.334306
      2.11389      0.00000     11.11389        -0.003241      0.002460     -0.332700
      0.00000      4.22777      9.00000        -0.005180     -0.002239      0.358206
      2.11389      6.34166      9.00000        -0.019712     -0.007852      0.362831
      0.00000      6.34166     11.11389        -0.003368     -0.001383     -0.330280
      2.11389      4.22777     11.11389        -0.007292     -0.001255     -0.328392
      0.00000      8.45554      9.00000        -0.010861     -0.003687      0.360374
      2.11389     10.56943      9.00000        -0.037903     -0.005709      0.367115
      0.00000     10.56943     11.11389        -0.005697     -0.002221     -0.326515
      2.11389      8.45554     11.11389        -0.008595     -0.003570     -0.313407
      0.00000     12.68331      9.00000        -0.014650     -0.000133      0.360862
      2.11389     14.79720      9.00000        -0.031784      0.007712      0.363761
      0.00000     14.79720     11.11389        -0.007029      0.000691     -0.328928
      2.11389     12.68331     11.11389        -0.021794     -0.002380     -0.311324
      0.00000     16.91108      9.00000        -0.008359      0.004072      0.358611
      2.11389     19.02497      9.00000        -0.008945      0.007865      0.358434
      0.00000     19.02497     11.11389        -0.003385      0.002346     -0.333519
      2.11389     16.91108     11.11389        -0.012531      0.004709     -0.324906
      4.22777      0.00000      9.00000        -0.005447      0.004597      0.359377
      6.34166      2.11389      9.00000        -0.004868     -0.012337      0.361015
      4.22777      2.11389     11.11389        -0.004168     -0.003560     -0.328707
      6.34166      0.00000     11.11389        -0.001802      0.002384     -0.326995
      4.22777      4.22777      9.00000        -0.016191     -0.016320      0.360364
      6.34166      6.34166      9.00000        -0.048986     -0.064807      0.352921
      4.22777      6.34166     11.11389        -0.029627      0.000680     -0.296297
      6.34166      4.22777     11.11389        -0.005962     -0.029129     -0.308878
      4.22777      8.45554      9.00000        -0.067924     -0.022225      0.379128
      6.34166     10.56943      9.00000        -0.118251     -0.038857      0.336687
      4.22777     10.56943     11.11389        -0.059563     -0.015526     -0.250711
      6.34166      8.45554     11.11389        -0.345635     -0.020672     -0.181028
      4.22777     12.68331      9.00000        -0.097889      0.005631      0.379606
      6.34166     14.79720      9.00000        -0.084112      0.089381      0.337094
      4.22777     14.79720     11.11389        -0.058688      0.005871     -0.283323
      6.34166     12.68331     11.11389        -0.680912      0.012730     -0.339373
      4.22777     16.91108      9.00000        -0.027035      0.027874      0.361169
      6.34166     19.02497      9.00000        -0.006135      0.028327      0.364854
      4.22777     19.02497     11.11389        -0.003866      0.011616     -0.324311
      6.34166     16.91108     11.11389         0.004040      0.058012     -0.276573
      8.45554      0.00000      9.00000         0.000022      0.006086      0.361118
     10.56943      2.11389      9.00000         0.004889     -0.012343      0.361013
      8.45554      2.11389     11.11389         0.000016     -0.009120     -0.323612
     10.56943      0.00000     11.11389         0.001821      0.002343     -0.326985
      8.45554      4.22777      9.00000         0.000016     -0.054587      0.368084
     10.56943      6.34166      9.00000         0.049032     -0.064768      0.352977
      8.45554      6.34166     11.11389         0.000108     -0.322609     -0.280358
     10.56943      4.22777     11.11389         0.006001     -0.029062     -0.308845
      8.45554      8.45554      9.00000         0.000087     -0.072048      0.105760
     10.56943     10.56943      9.00000         0.118356     -0.038700      0.336605
      8.45554     10.56943     11.11389        -0.000386     -0.293629     -0.315304
     10.56943      8.45554     11.11389         0.346144     -0.020753     -0.180735
      8.45554     12.68331      9.00000         0.000340      0.023523     -0.117749
     10.56943     14.79720      9.00000         0.084250      0.089263      0.337334
      8.45554     14.79720     11.11389         0.000551      0.629353     -0.213305
     10.56943     12.68331     11.11389         0.683470      0.013544     -0.340319
[...]
     19.02497      6.34166     11.11389         0.000029      0.001645      0.374181
     16.91108      6.34166      9.00000        -0.007057      0.004251     -0.402357
     19.02497      4.22777      9.00000         0.000015      0.001788     -0.400576
     16.91108      8.45554     11.11389        -0.005878      0.003045      0.369147
     19.02497     10.56943     11.11389         0.000060      0.002076      0.371682
     16.91108     10.56943      9.00000        -0.011290      0.003281     -0.404120
     19.02497      8.45554      9.00000         0.000038      0.003196     -0.402085
     16.91108     12.68331     11.11389        -0.008360      0.001056      0.368091
     19.02497     14.79720     11.11389         0.000061     -0.000917      0.373154
     16.91108     14.79720      9.00000        -0.010666     -0.003687     -0.402708
     19.02497     12.68331      9.00000         0.000056      0.000213     -0.402214
     16.91108     16.91108     11.11389        -0.005938     -0.003412      0.373088
     19.02497     19.02497     11.11389         0.000030     -0.002406      0.376390
     16.91108     19.02497      9.00000        -0.005181     -0.004490     -0.400557
     19.02497     16.91108      9.00000         0.000045     -0.003438     -0.400823
    total drift:                                0.002915      0.001385     -0.417913

  FREE ENERGIE OF THE ION-ELECTRON SYSTEM (eV)
  free  energy   TOTEN  =      -740.03754507 eV

  energy  without entropy=     -740.03754507  energy(sigma->0) =     -740.03754507