 vasp.6.3.0 20Jan22 (build Apr  1 2022 16:44:48) complex
 executed on        HPECrayEX_GCC date 2023.01.09  09:27:26

 INCAR:
   SYSTEM = MgO-rocksalt
   ISMEAR = 0
   SIGMA = 0.05
   EDIFF = 1E-6
   ALGO = ALL
   ISTART = 0
   IBRION = -1
   NSW = 0
   ISYM = 2
   DIPOL = 0.5 0.5 0.5
   IDIPOL = 3
   LDIPOL = .TRUE.
   GGA = PE
   IVDW = 1
   ENCUT = 520
   PREC = Accurate
   LASPH = .TRUE.
   LREAL = Auto
   ISPIN = 1
   NELM = 200
   NELMIN = 8
   NCORE = 4
   KPAR = 2
   LWAVE = .FALSE.
   LCHARG = .FALSE.

 POTCAR:    PAW_PBE Ag 02Apr2005
 POTCAR:    PAW_PBE Mg_pv 13Apr2007
 POTCAR:    PAW_PBE O 08Apr2002
 POTCAR:    PAW_PBE Ag 02Apr2005
   VRHFIN =Ag : s1 d10

   TITEL  = PAW_PBE Ag 02Apr2005
   POMASS =  107.868; ZVAL   =   11.000    mass and valenz
   ENMAX  =  249.844; ENMIN  =  187.383 eV

   TITEL  = PAW_PBE Mg_pv 13Apr2007
   POMASS =   24.305; ZVAL   =    8.000    mass and valenz
   ENMAX  =  403.929; ENMIN  =  302.947 eV

   TITEL  = PAW_PBE O 08Apr2002
   POMASS =   16.000; ZVAL   =    6.000    mass and valenz
   ENMAX  =  400.000; ENMIN  =  300.000 eV

 Optimization of the real space projectors (new method)

 maximal supplied QI-value         = 15.12
 optimisation between [QCUT,QGAM] = [ 11.64, 23.28] = [ 37.95,151.78] Ry
 Optimized for a Real-space Cutoff    1.45 Angstroem

   l    n(q)    QCUT    max X(q) W(low)/X(q) W(high)/X(q)  e(spline)
   2      9    11.641    53.897    0.22E-03    0.42E-04    0.28E-06
   2      9    11.641    52.416    0.23E-03    0.44E-04    0.29E-06
   0     10    11.641   122.045    0.51E-04    0.25E-04    0.16E-06
   0     10    11.641    73.629    0.49E-04    0.24E-04    0.16E-06
   1     10    11.641    15.255    0.99E-04    0.55E-04    0.11E-06
   1     10    11.641     9.562    0.81E-04    0.47E-04    0.95E-07
 Optimization of the real space projectors (new method)

[...]

   l    n(q)    QCUT    max X(q) W(low)/X(q) W(high)/X(q)  e(spline)
   1      8    11.527     2.974    0.44E-04    0.56E-04    0.12E-06
   1      8    11.527     4.279    0.12E-03    0.12E-03    0.26E-06
   0      9    11.527    16.381    0.46E-04    0.64E-04    0.78E-07
   0      9    11.527     5.611    0.26E-04    0.43E-04    0.55E-07
   2      8    11.527     4.652    0.22E-03    0.72E-04    0.47E-07
 Optimization of the real space projectors (new method)

 maximal supplied QI-value         = 24.76
 optimisation between [QCUT,QGAM] = [ 11.64, 23.27] = [ 37.91,151.63] Ry
 Optimized for a Real-space Cutoff    1.14 Angstroem

   l    n(q)    QCUT    max X(q) W(low)/X(q) W(high)/X(q)  e(spline)
   0      8    11.635    20.381    0.10E-03    0.33E-03    0.24E-06
   0      8    11.635    15.268    0.11E-03    0.35E-03    0.26E-06
   1      7    11.635     5.964    0.24E-03    0.31E-03    0.30E-06
   1      7    11.635     5.382    0.22E-03    0.25E-03    0.26E-06
  PAW_PBE Ag 02Apr2005                  :
  PAW_PBE Mg_pv 13Apr2007               :
  PAW_PBE O 08Apr2002                   :

 POSCAR: Ag Mg  O
  positions in direct lattice
  velocities in cartesian coordinates
 exchange correlation table for  LEXCH =        8
   RHO(1)=    0.500       N(1)  =     2000
   RHO(2)=  100.500       N(2)  =     4000

 ion  position               nearest neighbor table
   1  0.404  0.596  0.628-   2 2.63   4 2.74 157 2.77
   2  0.317  0.683  0.613- 138 2.50   1 2.63  59 3.04  40 3.04
   3  0.583  0.417  0.613- 173 2.50   4 2.63  75 3.04  56 3.04
   4  0.496  0.504  0.628-   3 2.63   1 2.74 154 2.77
   5  0.000  0.000  0.407- 107 2.11 108 2.11 123 2.11 188 2.11 105 2.11
   6  0.100  0.100  0.407- 107 2.11 108 2.11 112 2.11 127 2.11 106 2.11
   7  0.000  0.100  0.503- 105 2.11 106 2.11 109 2.11 186 2.11 107 2.11
   8  0.100  0.000  0.503- 105 2.11 106 2.11 122 2.11 125 2.11 108 2.11
   9  0.000  0.200  0.407- 111 2.11 107 2.11 112 2.11 192 2.11 109 2.11
  10  0.100  0.300  0.407- 112 2.11 111 2.11 116 2.11 131 2.11 110 2.11
  11  0.000  0.300  0.503- 109 2.11 110 2.11 113 2.11 190 2.11 111 2.11
  12  0.100  0.200  0.503- 110 2.11 109 2.11 106 2.11 129 2.11 112 2.11
  13  0.000  0.400  0.407- 111 2.11 115 2.11 116 2.11 196 2.11 113 2.11
  14  0.100  0.500  0.407- 115 2.11 116 2.11 120 2.11 135 2.11 114 2.11
  15  0.000  0.500  0.503- 113 2.11 114 2.11 117 2.11 194 2.11 115 2.11
  16  0.100  0.400  0.503- 110 2.11 113 2.11 114 2.11 133 2.11 116 2.11
  17  0.000  0.600  0.407- 115 2.11 119 2.11 120 2.11 200 2.11 117 2.11
  18  0.100  0.700  0.407- 124 2.11 120 2.11 119 2.11 139 2.11 118 2.11
  19  0.000  0.700  0.503- 121 2.11 118 2.11 117 2.11 198 2.11 119 2.11
  20  0.100  0.600  0.503- 114 2.11 117 2.11 118 2.11 137 2.11 120 2.11
  21  0.000  0.800  0.407- 119 2.11 123 2.11 124 2.11 204 2.11 121 2.11
  22  0.100  0.900  0.407- 108 2.11 123 2.11 124 2.11 143 2.11 122 2.11
  23  0.000  0.900  0.503- 105 2.11 121 2.11 122 2.11 202 2.11 123 2.11
  24  0.100  0.800  0.503- 118 2.11 121 2.11 122 2.11 141 2.11 124 2.11
  25  0.200  0.000  0.407- 128 2.11 127 2.11 108 2.11 143 2.11 125 2.11
  26  0.300  0.100  0.407- 127 2.11 128 2.11 132 2.11 147 2.11 126 2.11
  27  0.200  0.100  0.503- 126 2.11 125 2.11 106 2.11 129 2.11 127 2.11
  28  0.300  0.000  0.503- 125 2.11 126 2.11 142 2.11 145 2.11 128 2.11
  29  0.200  0.200  0.407- 131 2.11 132 2.11 112 2.11 127 2.11 129 2.11
  30  0.300  0.300  0.407- 131 2.11 132 2.11 136 2.11 151 2.11 130 2.11
  31  0.200  0.300  0.503- 129 2.11 130 2.11 110 2.11 133 2.11 131 2.11
  32  0.300  0.200  0.503- 129 2.11 130 2.11 126 2.11 149 2.11 132 2.11
  33  0.200  0.400  0.407- 136 2.11 131 2.11 135 2.11 116 2.11 133 2.11
  34  0.300  0.500  0.407- 135 2.11 136 2.11 140 2.11 155 2.11 134 2.11
  35  0.200  0.500  0.503- 134 2.11 133 2.11 114 2.11 137 2.11 135 2.11
  36  0.300  0.400  0.503- 133 2.11 130 2.11 134 2.11 153 2.11 136 2.11
  37  0.200  0.600  0.407- 140 2.11 135 2.11 139 2.11 120 2.11 137 2.11
  38  0.300  0.700  0.407- 139 2.11 144 2.11 140 2.11 159 2.11 138 2.11
  39  0.200  0.700  0.503- 138 2.11 141 2.11 118 2.11 137 2.11 139 2.11
  40  0.300  0.600  0.503- 137 2.11 134 2.11 138 2.11 157 2.11 140 2.11   2 3.04
  41  0.200  0.800  0.407- 139 2.11 144 2.11 143 2.11 124 2.11 141 2.11
  42  0.300  0.900  0.407- 143 2.11 128 2.11 144 2.11 163 2.11 142 2.11
  43  0.200  0.900  0.503- 142 2.11 125 2.11 141 2.11 122 2.11 143 2.11
  44  0.300  0.800  0.503- 138 2.11 141 2.11 142 2.11 161 2.11 144 2.11
  45  0.400  0.000  0.407- 128 2.11 147 2.11 148 2.11 163 2.11 145 2.11
  46  0.500  0.100  0.407- 147 2.11 148 2.11 152 2.11 167 2.11 146 2.11
  47  0.400  0.100  0.503- 126 2.11 145 2.11 146 2.11 149 2.11 147 2.11
  48  0.500  0.000  0.503- 145 2.11 146 2.11 162 2.11 165 2.11 148 2.11
  49  0.400  0.200  0.407- 151 2.11 147 2.11 132 2.11 152 2.11 149 2.11
  50  0.500  0.300  0.407- 152 2.11 151 2.11 156 2.11 171 2.11 150 2.11
  51  0.400  0.300  0.503- 149 2.11 130 2.11 150 2.11 153 2.11 151 2.11
  52  0.500  0.200  0.503- 150 2.11 149 2.11 146 2.11 169 2.11 152 2.11
  53  0.400  0.400  0.407- 136 2.11 151 2.11 155 2.11 156 2.11 153 2.11
  54  0.500  0.500  0.407- 155 2.11 156 2.11 160 2.11 175 2.11 154 2.11
  55  0.400  0.500  0.503- 134 2.11 153 2.11 154 2.11 157 2.11 155 2.11
  56  0.500  0.400  0.503- 150 2.11 153 2.11 154 2.11 173 2.11 156 2.11   3 3.04
  57  0.400  0.600  0.407- 140 2.11 155 2.11 159 2.11 160 2.11 157 2.11
  58  0.500  0.700  0.407- 164 2.11 160 2.11 159 2.11 179 2.11 158 2.11
  59  0.400  0.700  0.503- 161 2.11 157 2.11 158 2.11 138 2.11 159 2.11   2 3.04
  60  0.500  0.600  0.503- 154 2.11 157 2.11 158 2.11 177 2.11 160 2.11
[...]
 190  0.900  0.300  0.503-  92 2.11  91 2.11  11 2.11  96 2.11  90 2.11
 191  0.800  0.300  0.407-  70 2.11  89 2.11  90 2.11  93 2.11  91 2.11
 192  0.900  0.200  0.407-  90 2.11  86 2.11  89 2.11   9 2.11  92 2.11
 193  0.800  0.400  0.503-  76 2.11  91 2.11  95 2.11  96 2.11  93 2.11
 194  0.900  0.500  0.503-  15 2.11  95 2.11  96 2.11 100 2.11  94 2.11
 195  0.800  0.500  0.407-  74 2.11  93 2.11  94 2.11  97 2.11  95 2.11
 196  0.900  0.400  0.407-  13 2.11  90 2.11  93 2.11  94 2.11  96 2.11
 197  0.800  0.600  0.503-  80 2.11  95 2.11  99 2.11 100 2.11  97 2.11
 198  0.900  0.700  0.503- 104 2.11  99 2.11 100 2.11  19 2.11  98 2.11
 199  0.800  0.700  0.407-  78 2.11 101 2.11  98 2.11  97 2.11  99 2.11
 200  0.900  0.600  0.407-  17 2.11  94 2.11  97 2.11  98 2.11 100 2.11
 201  0.800  0.800  0.503-  84 2.11  99 2.11 103 2.11 104 2.11 101 2.11
 202  0.900  0.900  0.503-  23 2.11  88 2.11 103 2.11 104 2.11 102 2.11
 203  0.800  0.900  0.407-  82 2.11  85 2.11 101 2.11 102 2.11 103 2.11
 204  0.900  0.800  0.407-  98 2.11  21 2.11 101 2.11 102 2.11 104 2.11

  LATTYP: Found a simple tetragonal cell.
 ALAT       =    21.1388521970
 C/A-ratio  =     1.0461251639

  Lattice vectors:

 A1 = (  21.1388521970,   0.0000000000,   0.0000000000)
 A2 = (   0.0000000000,  21.1388521970,   0.0000000000)
 A3 = (   0.0000000000,   0.0000000000,  22.1138852197)

Analysis of symmetry for initial positions (statically):
 Subroutine PRICEL returns:
 Original cell was already a primitive cell.

 Routine SETGRP: Setting up the symmetry group for a
 simple tetragonal supercell.

 Subroutine GETGRP returns: Found  2 space group operations
 (whereof  1 operations were pure point group operations)
 out of a pool of 16 trial point group operations.

The static configuration has the point symmetry C_1 .
 The point group associated with its full space group is C_1h.

Analysis of symmetry for dynamics (positions and initial velocities):
 Subroutine PRICEL returns:
 Original cell was already a primitive cell.

[...]

The dynamic configuration has the point symmetry C_1 .
 The point group associated with its full space group is C_1h.

Analysis of constrained symmetry for selective dynamics:
 Subroutine PRICEL returns:
 Original cell was already a primitive cell.

 Routine SETGRP: Setting up the symmetry group for a
 simple tetragonal supercell.

 Subroutine GETGRP returns: Found  2 space group operations
 (whereof  1 operations were pure point group operations)
 out of a pool of 16 trial point group operations.

The constrained configuration has the point symmetry C_1 .
 The point group associated with its full space group is C_1h.

 Subroutine INISYM returns: Found  2 space group operations
 (whereof  1 operations are pure point group operations),
 and found     1 'primitive' translations

                                     Primitive cell

  volume of cell :    9881.6133

  direct lattice vectors                    reciprocal lattice vectors
    21.138852197  0.000000000  0.000000000     0.047306258  0.000000000  0.000000000
     0.000000000 21.138852197  0.000000000     0.000000000  0.047306258  0.000000000
     0.000000000  0.000000000 22.113885220     0.000000000  0.000000000  0.045220457

  length of vectors
    21.138852197 21.138852197 22.113885220     0.047306258  0.047306258  0.045220457

  position of ions in fractional coordinates (direct lattice)
     0.404209587  0.595838152  0.627872356
     0.316904301  0.683142271  0.613368187
     0.583141798  0.416904774  0.613368187
     0.495837679  0.504209587  0.627872356
     0.000000000  0.000000000  0.406984115
     0.100000000  0.100000000  0.406984115
[...]
    953       6.5039      0.00000
    954       6.5507      0.00000
    955       6.6845      0.00000
    956       6.7273      0.00000
    957       6.7450      0.00000
    958       6.7895      0.00000
    959       6.8378      0.00000
    960       6.9102      0.00000

 soft charge-density along one line, spin component           1
         0         1         2         3         4         5         6         7         8         9
 total charge-density along one line

------------------------ aborting loop because EDIFF is reached ----------------------------------------

  DFT-D2 method for vdW energy calculation

  Parameters of vdW forcefield:
         C6(Jnm^6/mol)     R0(A)
   Ag      24.670          1.639
   Mg       5.710          1.364
   O        0.700          1.342

  vdW correction parametrized for the method pbe

  IVDW =   1
  VDW_RADIUS =    50.000 A
  VDW_S6 =     0.750
  VDW_SR =     1.000
  VDW_D =    20.000
  LVDW_EWALD = F

  Number of pair interactions contributing to vdW energy: 1118630
  Edisp (eV):  -35.36406

  FORCE on cell =-STRESS in cart. coord.  units (eV):
  Direction    XX          YY          ZZ          XY          YZ          ZX
  Alpha Z  1401.13727  1401.13727  1401.13727
  Ewald  484692.10145484692.10210************ -1322.16574    -0.00388    -0.00457
  Hartree513949.84892513949.84926************ -1068.60177     0.00105     0.00111
  E(xc)   -7881.23330 -7881.23330 -7912.43997    -0.89860     0.00008     0.00008
  Local  ************************************  2382.86770     0.00083     0.00130
  n-local -8804.26849 -8804.26851 -8924.36511     1.41697    -0.00019    -0.00030
  augment  3649.19408  3649.19409  3595.96660     1.67470     0.00113     0.00116
  Kinetic 23226.70763 23226.70765 23486.35662     5.53550     0.00085     0.00085
  Fock        0.00000     0.00000     0.00000     0.00000     0.00000     0.00000
  vdW       -48.65219   -48.65219   -27.36223    -0.00554    -0.00053    -0.00053
  Total    -196.73173  -196.73173    -8.05368    -0.17678    -0.00078    -0.00078
  in kB     -31.89754   -31.89754    -1.30580    -0.02866    -0.00013    -0.00013

 VOLUME and BASIS-vectors are now :
  energy-cutoff  :      520.00
  volume of cell :     9881.61
      direct lattice vectors                 reciprocal lattice vectors
    21.138852197  0.000000000  0.000000000     0.047306258  0.000000000  0.000000000
     0.000000000 21.138852197  0.000000000     0.000000000  0.047306258  0.000000000
     0.000000000  0.000000000 22.113885220     0.000000000  0.000000000  0.045220457

  length of vectors
    21.138852197 21.138852197 22.113885220     0.047306258  0.047306258  0.045220457

 FORCES acting on ions:
    Electron-Ion                     Ewald-Force                    Non-Local-Force
   0.255E+02 -.255E+02 -.207E+04   -.273E+02 0.273E+02 0.207E+04   0.182E+01 -.182E+01 -.106E-01
   0.234E+03 -.234E+03 -.209E+04   -.231E+03 0.231E+03 0.209E+04   -.390E+01 0.390E+01 -.287E+00
   -.234E+03 0.234E+03 -.209E+04   0.231E+03 -.231E+03 0.209E+04   0.390E+01 -.390E+01 -.287E+00
   -.255E+02 0.255E+02 -.207E+04   0.273E+02 -.273E+02 0.207E+04   -.182E+01 0.182E+01 -.106E-01
   0.489E+01 -.489E+01 0.938E+03   -.492E+01 0.492E+01 -.930E+03   0.204E-01 -.204E-01 -.743E+01
   0.905E+01 0.161E+01 0.939E+03   -.905E+01 -.156E+01 -.931E+03   -.244E-02 -.375E-01 -.743E+01
   0.313E+01 0.313E+01 -.918E+03   -.312E+01 -.312E+01 0.911E+03   -.141E-01 -.141E-01 0.736E+01
   0.146E+02 -.117E+02 -.916E+03   -.146E+02 0.118E+02 0.908E+03   0.176E-01 -.691E-01 0.736E+01
   0.160E+01 0.905E+01 0.939E+03   -.156E+01 -.905E+01 -.931E+03   -.375E-01 -.244E-02 -.743E+01
   0.143E+02 0.157E+02 0.944E+03   -.142E+02 -.157E+02 -.937E+03   -.296E-01 0.288E-02 -.744E+01
   0.211E+01 0.156E+02 -.915E+03   -.203E+01 -.156E+02 0.907E+03   -.615E-01 -.839E-03 0.736E+01
   0.130E+02 0.130E+02 -.916E+03   -.129E+02 -.129E+02 0.908E+03   -.268E-01 -.268E-01 0.736E+01
   0.444E+01 0.112E+02 0.945E+03   -.438E+01 -.112E+02 -.938E+03   -.488E-01 0.124E-01 -.744E+01
   0.288E+02 0.120E+02 0.958E+03   -.289E+02 -.121E+02 -.950E+03   0.146E-01 0.762E-01 -.745E+01
   0.127E+02 0.836E+01 -.909E+03   -.127E+02 -.838E+01 0.901E+03   -.186E-01 0.180E-01 0.735E+01
   0.305E+02 0.240E+02 -.907E+03   -.304E+02 -.241E+02 0.899E+03   -.625E-01 0.287E-01 0.735E+01
   0.128E+02 -.212E+01 0.950E+03   -.129E+02 0.210E+01 -.942E+03   0.545E-01 0.211E-01 -.744E+01
   0.337E+02 -.125E+02 0.962E+03   -.340E+02 0.125E+02 -.955E+03   0.233E+00 0.302E-01 -.746E+01
   0.225E+02 -.126E+02 -.909E+03   -.226E+02 0.125E+02 0.901E+03   0.103E+00 0.145E-01 0.736E+01
   0.606E+02 0.530E+01 -.891E+03   -.608E+02 -.541E+01 0.884E+03   0.115E+00 0.875E-01 0.734E+01
   0.120E+02 -.133E+02 0.944E+03   -.121E+02 0.133E+02 -.937E+03   0.100E+00 -.107E-01 -.744E+01
   0.168E+02 -.168E+02 0.946E+03   -.169E+02 0.169E+02 -.938E+03   0.718E-01 -.718E-01 -.742E+01
   0.117E+02 -.146E+02 -.916E+03   -.118E+02 0.146E+02 0.908E+03   0.691E-01 -.176E-01 0.736E+01
   0.428E+02 -.304E+02 -.901E+03   -.431E+02 0.304E+02 0.893E+03   0.249E+00 -.203E-01 0.737E+01
   0.133E+02 -.120E+02 0.944E+03   -.133E+02 0.122E+02 -.937E+03   0.107E-01 -.100E+00 -.744E+01
   0.112E+02 0.445E+01 0.945E+03   -.112E+02 -.438E+01 -.938E+03   0.124E-01 -.488E-01 -.744E+01
   0.156E+02 0.211E+01 -.915E+03   -.156E+02 -.203E+01 0.907E+03   -.839E-03 -.615E-01 0.736E+01
   0.126E+02 -.225E+02 -.909E+03   -.125E+02 0.226E+02 0.901E+03   -.145E-01 -.103E+00 0.736E+01
   0.157E+02 0.143E+02 0.944E+03   -.157E+02 -.142E+02 -.937E+03   0.288E-02 -.296E-01 -.744E+01
   0.263E+02 0.335E+02 0.964E+03   -.264E+02 -.335E+02 -.956E+03   0.629E-01 -.584E-02 -.748E+01
   0.333E+02 0.333E+02 -.906E+03   -.333E+02 -.333E+02 0.898E+03   -.333E-01 -.333E-01 0.734E+01
   0.240E+02 0.305E+02 -.907E+03   -.241E+02 -.304E+02 0.899E+03   0.287E-01 -.625E-01 0.735E+01
   0.335E+02 0.264E+02 0.964E+03   -.335E+02 -.264E+02 -.956E+03   -.584E-02 0.629E-01 -.748E+01
   0.466E+02 0.293E+02 0.101E+04   -.467E+02 -.296E+02 -.101E+04   0.741E-01 0.269E+00 -.764E+01
   0.816E+02 0.439E+02 -.870E+03   -.814E+02 -.441E+02 0.863E+03   -.120E+00 0.202E+00 0.728E+01
   0.719E+02 0.719E+02 -.863E+03   -.718E+02 -.718E+02 0.856E+03   -.518E-01 -.518E-01 0.727E+01
   0.514E+02 0.400E+01 0.994E+03   -.516E+02 -.427E+01 -.986E+03   0.160E+00 0.208E+00 -.743E+01
   0.340E+02 -.340E+02 0.103E+04   -.340E+02 0.339E+02 -.102E+04   -.150E-01 0.148E-01 -.600E+01
   0.116E+03 -.393E+02 -.827E+03   -.117E+03 0.391E+02 0.819E+03   0.115E+01 0.151E+00 0.738E+01
   0.123E+03 0.488E+02 -.709E+03   -.123E+03 -.506E+02 0.703E+03   0.160E+00 0.128E+01 0.622E+01
   0.324E+02 -.324E+02 0.973E+03   -.326E+02 0.326E+02 -.966E+03   0.140E+00 -.140E+00 -.731E+01
   0.125E+02 -.337E+02 0.962E+03   -.125E+02 0.340E+02 -.955E+03   -.302E-01 -.233E+00 -.746E+01
   0.304E+02 -.428E+02 -.901E+03   -.304E+02 0.431E+02 0.893E+03   0.203E-01 -.249E+00 0.737E+01
   0.393E+02 -.116E+03 -.827E+03   -.391E+02 0.117E+03 0.819E+03   -.151E+00 -.115E+01 0.738E+01
   0.212E+01 -.128E+02 0.950E+03   -.210E+01 0.129E+02 -.942E+03   -.211E-01 -.545E-01 -.744E+01
   -.212E+01 0.128E+02 0.950E+03   0.210E+01 -.129E+02 -.942E+03   0.211E-01 0.545E-01 -.744E+01
   0.835E+01 0.127E+02 -.909E+03   -.838E+01 -.127E+02 0.901E+03   0.180E-01 -.186E-01 0.735E+01
   -.836E+01 -.128E+02 -.909E+03   0.838E+01 0.127E+02 0.901E+03   -.180E-01 0.187E-01 0.735E+01
   0.120E+02 0.289E+02 0.958E+03   -.121E+02 -.289E+02 -.950E+03   0.762E-01 0.146E-01 -.745E+01
   0.400E+01 0.514E+02 0.994E+03   -.427E+01 -.516E+02 -.986E+03   0.208E+00 0.160E+00 -.743E+01
   0.439E+02 0.816E+02 -.870E+03   -.441E+02 -.814E+02 0.863E+03   0.202E+00 -.120E+00 0.728E+01
   0.530E+01 0.606E+02 -.891E+03   -.541E+01 -.608E+02 0.884E+03   0.875E-01 0.115E+00 0.734E+01
   0.293E+02 0.466E+02 0.101E+04   -.296E+02 -.467E+02 -.101E+04   0.269E+00 0.741E-01 -.764E+01
   -.111E+02 0.111E+02 0.106E+04   0.109E+02 -.109E+02 -.105E+04   0.148E+00 -.148E+00 -.718E+01
   0.857E+02 0.857E+02 -.704E+03   -.863E+02 -.863E+02 0.697E+03   0.446E+00 0.446E+00 0.667E+01
   0.488E+02 0.123E+03 -.709E+03   -.506E+02 -.123E+03 0.703E+03   0.128E+01 0.160E+00 0.622E+01
   0.111E+02 -.111E+02 0.106E+04   -.109E+02 0.109E+02 -.105E+04   -.148E+00 0.148E+00 -.718E+01
   -.293E+02 -.466E+02 0.101E+04   0.296E+02 0.467E+02 -.101E+04   -.269E+00 -.741E-01 -.764E+01
   -.488E+02 -.123E+03 -.709E+03   0.506E+02 0.123E+03 0.703E+03   -.128E+01 -.160E+00 0.622E+01
   -.857E+02 -.857E+02 -.704E+03   0.863E+02 0.863E+02 0.697E+03   -.446E+00 -.446E+00 0.667E+01
[...]
   -.193E+02 0.147E+02 0.718E+03   0.194E+02 -.148E+02 -.722E+03   -.163E+00 0.621E-01 0.355E+01
   -.621E+01 0.833E+01 0.707E+03   0.625E+01 -.834E+01 -.711E+03   -.592E-01 0.303E-01 0.351E+01
   -.458E+02 0.136E+02 -.670E+03   0.460E+02 -.135E+02 0.674E+03   -.176E+00 -.681E-01 -.366E+01
   -.151E+02 0.147E+01 -.682E+03   0.151E+02 -.144E+01 0.686E+03   -.403E-01 -.332E-01 -.364E+01
   -.261E+02 -.709E+00 0.724E+03   0.261E+02 0.794E+00 -.728E+03   -.101E+00 -.109E+00 0.350E+01
   -.107E+02 0.733E+01 0.713E+03   0.107E+02 -.732E+01 -.717E+03   -.817E-01 -.109E-01 0.351E+01
   -.345E+02 -.150E+02 -.676E+03   0.345E+02 0.151E+02 0.680E+03   -.121E-01 -.934E-01 -.367E+01
   -.431E+01 -.110E+02 -.685E+03   0.428E+01 0.110E+02 0.690E+03   0.419E-01 -.742E-02 -.363E+01
   -.157E+02 -.126E+02 0.715E+03   0.157E+02 0.126E+02 -.719E+03   0.221E-01 -.310E-01 0.349E+01
   -.650E+01 -.442E+01 0.713E+03   0.649E+01 0.444E+01 -.717E+03   0.424E-02 -.240E-01 0.350E+01
   -.145E+02 -.157E+02 -.686E+03   0.144E+02 0.157E+02 0.690E+03   0.412E-01 0.136E-01 -.363E+01
   -.118E+01 -.845E+01 -.690E+03   0.115E+01 0.845E+01 0.694E+03   0.369E-01 0.393E-02 -.361E+01
   -.765E+01 -.764E+01 0.707E+03   0.763E+01 0.763E+01 -.711E+03   0.184E-01 0.184E-01 0.351E+01
   -.152E+01 -.923E+01 0.708E+03   0.148E+01 0.924E+01 -.712E+03   0.465E-01 -.477E-02 0.351E+01
   -.729E+00 0.729E+00 0.133E+02   0.193E-11 0.134E-11 0.728E-11   -.583E-03 -.583E-03 -.139E+02

 POSITION                                       TOTAL-FORCE (eV/Angst)
      8.54453     12.59533     13.88470        -0.004193      0.003801     -0.162921
      6.69899     14.44084     13.56395        -0.137874      0.137087      0.012085
     12.32695      8.81289     13.56395         0.137087     -0.137874      0.012085
     10.48144     10.65841     13.88470         0.003801     -0.004193     -0.162921
      0.00000      0.00000      9.00000        -0.005674      0.005677      0.523590
      2.11389      2.11389      9.00000         0.000612      0.009999      0.524990
      0.00000      2.11389     11.11389         0.003715      0.003715     -0.502526
      2.11389      0.00000     11.11389        -0.005020      0.018201     -0.501534
      0.00000      4.22777      9.00000         0.009999      0.000612      0.524990
      2.11389      6.34166      9.00000         0.008131     -0.000304      0.528139
      0.00000      6.34166     11.11389         0.016262      0.000553     -0.499953
      2.11389      4.22777     11.11389         0.007457      0.007457     -0.500402
      0.00000      8.45554      9.00000         0.012629     -0.003127      0.526537
      2.11389     10.56943      9.00000        -0.005054     -0.021354      0.529164
      0.00000     10.56943     11.11389         0.005446     -0.004738     -0.495437
      2.11389      8.45554     11.11389         0.017757     -0.006205     -0.491930
      0.00000     12.68331      9.00000        -0.014432     -0.006291      0.526880
      2.11389     14.79720      9.00000        -0.058856     -0.009143      0.526801
      0.00000     14.79720     11.11389        -0.025844     -0.004519     -0.496952
      2.11389     12.68331     11.11389        -0.027011     -0.024377     -0.480720
      0.00000     16.91108      9.00000        -0.026157      0.003133      0.524882
      2.11389     19.02497      9.00000        -0.020829      0.020834      0.519488
      0.00000     19.02497     11.11389        -0.018197      0.005023     -0.501535
      2.11389     16.91108     11.11389        -0.065133      0.005359     -0.496500
      4.22777      0.00000      9.00000        -0.003124      0.026155      0.524881
      6.34166      2.11389      9.00000        -0.003127      0.012629      0.526537
      4.22777      2.11389     11.11389         0.000553      0.016262     -0.499953
      6.34166      0.00000     11.11389         0.004535      0.025831     -0.496950
      4.22777      4.22777      9.00000        -0.000304      0.008131      0.528139
      6.34166      6.34166      9.00000        -0.015058      0.002499      0.539422
      4.22777      6.34166     11.11389         0.010765      0.010765     -0.490445
      6.34166      4.22777     11.11389        -0.006205      0.017757     -0.491930
      4.22777      8.45554      9.00000         0.002499     -0.015058      0.539422
      6.34166     10.56943      9.00000        -0.017630     -0.068676      0.572998
      4.22777     10.56943     11.11389         0.048232     -0.040848     -0.437866
      6.34166      8.45554     11.11389         0.027001      0.027001     -0.437115
      4.22777     12.68331      9.00000        -0.048549     -0.066068      0.512993
      6.34166     14.79720      9.00000         0.006954     -0.006896      0.193883
      4.22777     14.79720     11.11389        -0.326956     -0.059119     -0.483322
      6.34166     12.68331     11.11389        -0.018495     -0.545805     -0.284635
      4.22777     16.91108      9.00000        -0.046381      0.046403      0.483028
      6.34166     19.02497      9.00000         0.009157      0.058850      0.526807
      4.22777     19.02497     11.11389        -0.005340      0.065134     -0.496500
      6.34166     16.91108     11.11389         0.059175      0.327012     -0.483340
      8.45554      0.00000      9.00000         0.006304      0.014424      0.526886
     10.56943      2.11389      9.00000        -0.006291     -0.014432      0.526880
      8.45554      2.11389     11.11389        -0.004738      0.005446     -0.495437
     10.56943      0.00000     11.11389         0.004751     -0.005466     -0.495435
      8.45554      4.22777      9.00000        -0.021354     -0.005054      0.529164
     10.56943      6.34166      9.00000        -0.066068     -0.048549      0.512993
      8.45554      6.34166     11.11389        -0.040848      0.048232     -0.437866
     10.56943      4.22777     11.11389        -0.024377     -0.027011     -0.480720
      8.45554      8.45554      9.00000        -0.068676     -0.017630      0.572998
     10.56943     10.56943      9.00000        -0.048237      0.048294      0.437301
      8.45554     10.56943     11.11389        -0.106330     -0.106330     -0.171436
     10.56943      8.45554     11.11389        -0.545805     -0.018495     -0.284635
      8.45554     12.68331      9.00000         0.048294     -0.048237      0.437301
     10.56943     14.79720      9.00000         0.068704      0.017639      0.573052
      8.45554     14.79720     11.11389         0.546418      0.018564     -0.284982
     10.56943     12.68331     11.11389         0.106508      0.106508     -0.171287
[...]
     19.02497      6.34166     11.11389        -0.024048      0.003286      0.470904
     16.91108      6.34166      9.00000        -0.046152      0.017350     -0.486747
     19.02497      4.22777      9.00000        -0.016378      0.008407     -0.495483
     16.91108      8.45554     11.11389        -0.054308     -0.018138      0.463925
     19.02497     10.56943     11.11389        -0.011592     -0.009269      0.466003
     16.91108     10.56943      9.00000        -0.030745     -0.030055     -0.497996
     19.02497      8.45554      9.00000        -0.022918     -0.003028     -0.496666
     16.91108     12.68331     11.11389        -0.004842     -0.026671      0.456934
     19.02497     14.79720     11.11389         0.011567     -0.002004      0.468418
     16.91108     14.79720      9.00000         0.005769     -0.008814     -0.502111
     19.02497     12.68331      9.00000         0.001046     -0.006625     -0.499225
     16.91108     16.91108     11.11389         0.011196      0.003595      0.467799
     19.02497     19.02497     11.11389         0.010145      0.001018      0.472779
     16.91108     19.02497      9.00000         0.004979      0.004979     -0.498045
     19.02497     16.91108      9.00000         0.012821     -0.001368     -0.497579
    total drift:                               -0.729964      0.728574     -0.591632

  FREE ENERGIE OF THE ION-ELECTRON SYSTEM (eV)
  free  energy   TOTEN  =     -1178.99018139 eV

  energy  without entropy=    -1178.99018139  energy(sigma->0) =    -1178.99018139