 vasp.6.4.0 14Feb23 (build Jul 14 2023 13:46:40) complex

 executed on             LinuxIFC date 2023.07.30  07:11:11

 INCAR:
   SYSTEM = MgO-rocksalt
   ISMEAR = 0
   SIGMA = 0.05
   EDIFF = 1E-6
   ALGO = ALL
   ISTART = 0
   IBRION = -1
   NSW = 0
   ISYM = 2
   DIPOL = 0.5 0.5 0.5
   IDIPOL = 3
   LDIPOL = .TRUE.
   METAGGA = R2SCAN
   LUSE_VDW = .TRUE.
   BPARAM = 11.95
   CPARAM = 0.0093
   ENCUT = 520
   PREC = Accurate
   LASPH = .TRUE.
   LREAL = Auto
   ISPIN = 1
   NELM = 200
   NELMIN = 8
   NCORE = 16
   KPAR = 1
   LWAVE = .FALSE.
   LCHARG = .FALSE.

 POTCAR:    PAW_PBE Au 04Oct2007
 POTCAR:    PAW_PBE Mg_pv 13Apr2007
 POTCAR:    PAW_PBE O 08Apr2002
|               ----> ADVICE to this user running VASP <----                  |
|     You have switched on vdW-DFT.                                           |
|     This routine was written and supplied by Jiri Klimes. We recommend      |
|     that you carefully read and cite the following publications:            |
|       J. Klimes, D.R. Bowler, A. Michelides                                 |
|          J. Phys.: Cond Matt. 22 022201 (2010)                              |
|       J. Klimes, D.R. Bowler, A. Michelides                                 |
|          Phys. Rev. B. 83, 195131 (2011)                                    |
|     and references therein.                                                 |

   TITEL  = PAW_PBE Au 04Oct2007
   POMASS =  196.966; ZVAL   =   11.000    mass and valenz
   ENMAX  =  229.943; ENMIN  =  172.457 eV

   TITEL  = PAW_PBE Mg_pv 13Apr2007
   POMASS =   24.305; ZVAL   =    8.000    mass and valenz
   ENMAX  =  403.929; ENMIN  =  302.947 eV

   TITEL  = PAW_PBE O 08Apr2002
   POMASS =   16.000; ZVAL   =    6.000    mass and valenz
   ENMAX  =  400.000; ENMIN  =  300.000 eV

 Optimization of the real space projectors (new method)

 maximal supplied QI-value         = 15.12
 optimisation between [QCUT,QGAM] = [ 11.64, 23.28] = [ 37.95,151.78] Ry
 Optimized for a Real-space Cutoff    1.49 Angstroem

   l    n(q)    QCUT    max X(q) W(low)/X(q) W(high)/X(q)  e(spline)
   2      9    11.641    60.898    0.24E-03    0.10E-03    0.19E-06
   2      9    11.641    58.894    0.25E-03    0.10E-03    0.19E-06
   0     10    11.641   109.617    0.73E-04    0.33E-04    0.11E-06
   0     10    11.641    75.026    0.71E-04    0.32E-04    0.11E-06
   1     10    11.641    16.344    0.27E-04    0.97E-04    0.16E-06
   1     10    11.641    10.160    0.23E-04    0.77E-04    0.13E-06
 Optimization of the real space projectors (new method)

[...]

   l    n(q)    QCUT    max X(q) W(low)/X(q) W(high)/X(q)  e(spline)
   1      8    11.527     2.974    0.44E-04    0.56E-04    0.12E-06
   1      8    11.527     4.279    0.12E-03    0.12E-03    0.26E-06
   0      9    11.527    16.381    0.46E-04    0.64E-04    0.78E-07
   0      9    11.527     5.611    0.26E-04    0.43E-04    0.55E-07
   2      8    11.527     4.652    0.22E-03    0.72E-04    0.47E-07
 Optimization of the real space projectors (new method)

 maximal supplied QI-value         = 24.76
 optimisation between [QCUT,QGAM] = [ 11.64, 23.27] = [ 37.91,151.63] Ry
 Optimized for a Real-space Cutoff    1.14 Angstroem

   l    n(q)    QCUT    max X(q) W(low)/X(q) W(high)/X(q)  e(spline)
   0      8    11.635    20.381    0.10E-03    0.33E-03    0.24E-06
   0      8    11.635    15.268    0.11E-03    0.35E-03    0.26E-06
   1      7    11.635     5.964    0.24E-03    0.31E-03    0.30E-06
   1      7    11.635     5.382    0.22E-03    0.25E-03    0.26E-06
  PAW_PBE Au 04Oct2007                  :
  PAW_PBE Mg_pv 13Apr2007               :
  PAW_PBE O 08Apr2002                   :

 POSCAR: Au Mg  O
  positions in direct lattice
  velocities in cartesian coordinates

 METAGGA = R2SCAN                                      LMAXTAU =  6    LMIXTAU =  F

 ion  position               nearest neighbor table
   1  0.400  0.565  0.604- 157 2.36   3 2.61  55 2.63   4 2.77
   2  0.400  0.500  0.818-   3 2.52
   3  0.400  0.500  0.704-   2 2.52   4 2.61   1 2.61
   4  0.400  0.434  0.604- 153 2.35   3 2.61  55 2.64   1 2.77
   5  0.000  0.000  0.407- 107 2.11 108 2.11 123 2.11 188 2.11 105 2.11
   6  0.100  0.100  0.407- 107 2.11 108 2.11 112 2.11 127 2.11 106 2.11
   7  0.000  0.100  0.503- 105 2.11 106 2.11 109 2.11 186 2.11 107 2.11
   8  0.100  0.000  0.503- 105 2.11 106 2.11 122 2.11 125 2.11 108 2.11
   9  0.000  0.200  0.407- 111 2.11 107 2.11 112 2.11 192 2.11 109 2.11
  10  0.100  0.300  0.407- 112 2.11 111 2.11 116 2.11 131 2.11 110 2.11
  11  0.000  0.300  0.503- 109 2.11 110 2.11 113 2.11 190 2.11 111 2.11
  12  0.100  0.200  0.503- 110 2.11 109 2.11 106 2.11 129 2.11 112 2.11
  13  0.000  0.400  0.407- 111 2.11 115 2.11 116 2.11 196 2.11 113 2.11
  14  0.100  0.500  0.407- 115 2.11 116 2.11 120 2.11 135 2.11 114 2.11
  15  0.000  0.500  0.503- 113 2.11 114 2.11 117 2.11 194 2.11 115 2.11
  16  0.100  0.400  0.503- 110 2.11 113 2.11 114 2.11 133 2.11 116 2.11
  17  0.000  0.600  0.407- 115 2.11 119 2.11 120 2.11 200 2.11 117 2.11
  18  0.100  0.700  0.407- 124 2.11 120 2.11 119 2.11 139 2.11 118 2.11
  19  0.000  0.700  0.503- 121 2.11 118 2.11 117 2.11 198 2.11 119 2.11
  20  0.100  0.600  0.503- 114 2.11 117 2.11 118 2.11 137 2.11 120 2.11
  21  0.000  0.800  0.407- 119 2.11 123 2.11 124 2.11 204 2.11 121 2.11
  22  0.100  0.900  0.407- 108 2.11 123 2.11 124 2.11 143 2.11 122 2.11
  23  0.000  0.900  0.503- 105 2.11 121 2.11 122 2.11 202 2.11 123 2.11
  24  0.100  0.800  0.503- 118 2.11 121 2.11 122 2.11 141 2.11 124 2.11
  25  0.200  0.000  0.407- 128 2.11 127 2.11 108 2.11 143 2.11 125 2.11
  26  0.300  0.100  0.407- 127 2.11 128 2.11 132 2.11 147 2.11 126 2.11
  27  0.200  0.100  0.503- 126 2.11 125 2.11 106 2.11 129 2.11 127 2.11
  28  0.300  0.000  0.503- 125 2.11 126 2.11 142 2.11 145 2.11 128 2.11
  29  0.200  0.200  0.407- 131 2.11 132 2.11 112 2.11 127 2.11 129 2.11
  30  0.300  0.300  0.407- 131 2.11 132 2.11 136 2.11 151 2.11 130 2.11
  31  0.200  0.300  0.503- 129 2.11 130 2.11 110 2.11 133 2.11 131 2.11
  32  0.300  0.200  0.503- 129 2.11 130 2.11 126 2.11 149 2.11 132 2.11
  33  0.200  0.400  0.407- 136 2.11 131 2.11 135 2.11 116 2.11 133 2.11
  34  0.300  0.500  0.407- 135 2.11 136 2.11 140 2.11 155 2.11 134 2.11
  35  0.200  0.500  0.503- 134 2.11 133 2.11 114 2.11 137 2.11 135 2.11
  36  0.300  0.400  0.503- 133 2.11 130 2.11 134 2.11 153 2.11 136 2.11
  37  0.200  0.600  0.407- 140 2.11 135 2.11 139 2.11 120 2.11 137 2.11
  38  0.300  0.700  0.407- 139 2.11 144 2.11 140 2.11 159 2.11 138 2.11
  39  0.200  0.700  0.503- 138 2.11 141 2.11 118 2.11 137 2.11 139 2.11
  40  0.300  0.600  0.503- 137 2.11 134 2.11 138 2.11 157 2.11 140 2.11
  41  0.200  0.800  0.407- 139 2.11 144 2.11 143 2.11 124 2.11 141 2.11
  42  0.300  0.900  0.407- 143 2.11 128 2.11 144 2.11 163 2.11 142 2.11
  43  0.200  0.900  0.503- 142 2.11 125 2.11 141 2.11 122 2.11 143 2.11
  44  0.300  0.800  0.503- 138 2.11 141 2.11 142 2.11 161 2.11 144 2.11
  45  0.400  0.000  0.407- 128 2.11 147 2.11 148 2.11 163 2.11 145 2.11
  46  0.500  0.100  0.407- 147 2.11 148 2.11 152 2.11 167 2.11 146 2.11
  47  0.400  0.100  0.503- 126 2.11 145 2.11 146 2.11 149 2.11 147 2.11
  48  0.500  0.000  0.503- 145 2.11 146 2.11 162 2.11 165 2.11 148 2.11
  49  0.400  0.200  0.407- 151 2.11 147 2.11 132 2.11 152 2.11 149 2.11
  50  0.500  0.300  0.407- 152 2.11 151 2.11 156 2.11 171 2.11 150 2.11
  51  0.400  0.300  0.503- 149 2.11 130 2.11 150 2.11 153 2.11 151 2.11
  52  0.500  0.200  0.503- 150 2.11 149 2.11 146 2.11 169 2.11 152 2.11
  53  0.400  0.400  0.407- 136 2.11 151 2.11 155 2.11 156 2.11 153 2.11
  54  0.500  0.500  0.407- 155 2.11 156 2.11 160 2.11 175 2.11 154 2.11
  55  0.400  0.500  0.503- 134 2.11 153 2.11 154 2.11 157 2.11 155 2.11   1 2.63   4 2.64
  56  0.500  0.400  0.503- 150 2.11 153 2.11 154 2.11 173 2.11 156 2.11
  57  0.400  0.600  0.407- 140 2.11 155 2.11 159 2.11 160 2.11 157 2.11
  58  0.500  0.700  0.407- 164 2.11 160 2.11 159 2.11 179 2.11 158 2.11
  59  0.400  0.700  0.503- 161 2.11 157 2.11 158 2.11 138 2.11 159 2.11
  60  0.500  0.600  0.503- 154 2.11 157 2.11 158 2.11 177 2.11 160 2.11
[...]
 190  0.900  0.300  0.503-  92 2.11  91 2.11  11 2.11  96 2.11  90 2.11
 191  0.800  0.300  0.407-  70 2.11  89 2.11  90 2.11  93 2.11  91 2.11
 192  0.900  0.200  0.407-  90 2.11  86 2.11  89 2.11   9 2.11  92 2.11
 193  0.800  0.400  0.503-  76 2.11  91 2.11  95 2.11  96 2.11  93 2.11
 194  0.900  0.500  0.503-  15 2.11  95 2.11  96 2.11 100 2.11  94 2.11
 195  0.800  0.500  0.407-  74 2.11  93 2.11  94 2.11  97 2.11  95 2.11
 196  0.900  0.400  0.407-  13 2.11  90 2.11  93 2.11  94 2.11  96 2.11
 197  0.800  0.600  0.503-  80 2.11  95 2.11  99 2.11 100 2.11  97 2.11
 198  0.900  0.700  0.503- 104 2.11  99 2.11 100 2.11  19 2.11  98 2.11
 199  0.800  0.700  0.407-  78 2.11 101 2.11  98 2.11  97 2.11  99 2.11
 200  0.900  0.600  0.407-  17 2.11  94 2.11  97 2.11  98 2.11 100 2.11
 201  0.800  0.800  0.503-  84 2.11  99 2.11 103 2.11 104 2.11 101 2.11
 202  0.900  0.900  0.503-  23 2.11  88 2.11 103 2.11 104 2.11 102 2.11
 203  0.800  0.900  0.407-  82 2.11  85 2.11 101 2.11 102 2.11 103 2.11
 204  0.900  0.800  0.407-  98 2.11  21 2.11 101 2.11 102 2.11 104 2.11

  LATTYP: Found a simple tetragonal cell.
 ALAT       =    21.1388521970
 C/A-ratio  =     1.0461251639

  Lattice vectors:

 A1 = (  21.1388521970,   0.0000000000,   0.0000000000)
 A2 = (   0.0000000000,  21.1388521970,   0.0000000000)
 A3 = (   0.0000000000,   0.0000000000,  22.1138852197)

Analysis of symmetry for initial positions (statically):
 Subroutine PRICEL returns:
 Original cell was already a primitive cell.

 Routine SETGRP: Setting up the symmetry group for a
 simple tetragonal supercell.

 Subroutine GETGRP returns: Found  1 space group operations
 (whereof  1 operations were pure point group operations)
 out of a pool of 16 trial point group operations.

The static configuration has the point symmetry C_1 .

Analysis of symmetry for dynamics (positions and initial velocities):
 Subroutine PRICEL returns:
 Original cell was already a primitive cell.

[...]

The dynamic configuration has the point symmetry C_1 .

Analysis of constrained symmetry for selective dynamics:
 Subroutine PRICEL returns:
 Original cell was already a primitive cell.

 Routine SETGRP: Setting up the symmetry group for a
 simple tetragonal supercell.

 Subroutine GETGRP returns: Found  1 space group operations
 (whereof  1 operations were pure point group operations)
 out of a pool of 16 trial point group operations.

The constrained configuration has the point symmetry C_1 .

 Subroutine INISYM returns: Found  1 space group operations
 (whereof  1 operations are pure point group operations),
 and found     1 'primitive' translations

                                     Primitive cell

  volume of cell :    9881.6133

  direct lattice vectors                    reciprocal lattice vectors
    21.138852197  0.000000000  0.000000000     0.047306258  0.000000000  0.000000000
     0.000000000 21.138852197  0.000000000     0.000000000  0.047306258  0.000000000
[...]
     52     -44.5387      2.00000
     53     -44.5386      2.00000
     54     -44.5382      2.00000
     55     -44.5382      2.00000
     56     -44.5279      2.00000
     57     -44.5276      2.00000
     58     -44.5276      2.00000
     59     -44.5273      2.00000
     60     -44.5252      2.00000
[...]
    882       4.9410      0.00000
    883       4.9713      0.00000
    884       4.9928      0.00000
    885       5.0330      0.00000
    886       5.1142      0.00000
    887       5.2182      0.00000
    888       5.2366      0.00000
    889       5.2774      0.00000
    890       5.5393      0.00000
    891       5.5897      0.00000
    892       5.6858      0.00000
    893       5.7590      0.00000
    894       5.8349      0.00000
    895       5.8795      0.00000
    896       5.9695      0.00000

 soft charge-density along one line, spin component           1
         0         1         2         3         4         5         6         7         8         9
 total charge-density along one line

------------------------ aborting loop because EDIFF is reached ----------------------------------------

  FORCE on cell =-STRESS in cart. coord.  units (eV):
  Direction    XX          YY          ZZ          XY          YZ          ZX
  Alpha Z  1417.83424  1417.83424  1417.83424
  Ewald  475017.55858476123.61356************     0.15895     0.50430    -0.54556
  Hartree504592.37467505389.41345************     0.11364     0.17865    -0.38643
  E(xc)   -8481.07223 -8480.63669 -8471.15900     0.00002     0.00068    -0.00020
  Local  ************************************    -0.26842    -0.67186     0.91240
  n-local -8672.53836 -8682.68459 -8817.98752    -0.00099     0.02134     0.00812
  augment  3971.31164  3966.87541  3904.18863    -0.00095    -0.00873     0.00228
  Kinetic 23361.16645 23349.19658 23555.90631    -0.00226     0.00512     0.01310
  Fock        0.00000     0.00000     0.00000     0.00000     0.00000     0.00000
  Total    -229.90146  -230.75821   -21.70695    -0.00001     0.02951     0.00371
  in kB     -37.27558   -37.41450    -3.51951    -0.00000     0.00478     0.00060

 VOLUME and BASIS-vectors are now :
  energy-cutoff  :      520.00
  volume of cell :     9881.61
      direct lattice vectors                 reciprocal lattice vectors
    21.138852197  0.000000000  0.000000000     0.047306258  0.000000000  0.000000000
     0.000000000 21.138852197  0.000000000     0.000000000  0.047306258  0.000000000
     0.000000000  0.000000000 22.113885220     0.000000000  0.000000000  0.045220457

  length of vectors
    21.138852197 21.138852197 22.113885220     0.047306258  0.047306258  0.045220457

 FORCES acting on ions:
    Electron-Ion                     Ewald-Force                    Non-Local-Force
   -.145E+00 -.384E+03 -.190E+04   0.143E+00 0.380E+03 0.191E+04   0.324E-02 0.389E+01 -.315E+01
   0.315E-01 -.107E+00 -.126E+04   -.320E-01 0.987E-01 0.126E+04   0.100E-02 0.910E-02 0.757E+01
   0.161E+00 0.644E+00 -.172E+04   -.160E+00 -.643E+00 0.172E+04   -.851E-03 0.328E-02 0.216E+01
   -.301E-01 0.383E+03 -.190E+04   0.285E-01 -.379E+03 0.191E+04   0.278E-02 -.385E+01 -.315E+01
   0.633E+01 0.232E-01 0.935E+03   -.637E+01 -.232E-01 -.927E+03   0.285E-01 0.328E-04 -.755E+01
   0.124E+02 0.940E+01 0.938E+03   -.125E+02 -.943E+01 -.930E+03   0.631E-01 0.261E-01 -.755E+01
   0.906E+01 0.847E+01 -.918E+03   -.910E+01 -.848E+01 0.910E+03   0.317E-01 0.374E-02 0.747E+01
   0.132E+02 0.415E-01 -.917E+03   -.133E+02 -.416E-01 0.909E+03   0.436E-01 0.499E-04 0.747E+01
   0.980E+01 0.114E+02 0.938E+03   -.986E+01 -.114E+02 -.930E+03   0.511E-01 0.130E-01 -.755E+01
   0.257E+02 0.184E+02 0.950E+03   -.259E+02 -.184E+02 -.941E+03   0.170E+00 0.340E-01 -.758E+01
   0.189E+02 0.157E+02 -.912E+03   -.189E+02 -.157E+02 0.904E+03   0.533E-01 0.983E-03 0.746E+01
   0.243E+02 0.227E+02 -.911E+03   -.244E+02 -.227E+02 0.903E+03   0.102E+00 0.186E-01 0.746E+01
   0.171E+02 0.780E+01 0.945E+03   -.172E+02 -.781E+01 -.936E+03   0.821E-01 0.578E-02 -.756E+01
   0.374E+02 -.460E-01 0.959E+03   -.377E+02 0.461E-01 -.951E+03   0.212E+00 -.132E-03 -.760E+01
   0.272E+02 -.374E-01 -.908E+03   -.272E+02 0.374E-01 0.900E+03   0.536E-01 -.295E-04 0.745E+01
   0.540E+02 0.187E+02 -.895E+03   -.541E+02 -.187E+02 0.887E+03   0.148E+00 -.105E-02 0.743E+01
   0.170E+02 -.785E+01 0.945E+03   -.171E+02 0.785E+01 -.936E+03   0.820E-01 -.584E-02 -.756E+01
   0.256E+02 -.184E+02 0.949E+03   -.258E+02 0.184E+02 -.941E+03   0.169E+00 -.340E-01 -.758E+01
   0.188E+02 -.157E+02 -.912E+03   -.189E+02 0.157E+02 0.904E+03   0.532E-01 -.995E-03 0.746E+01
   0.539E+02 -.188E+02 -.895E+03   -.541E+02 0.188E+02 0.887E+03   0.147E+00 0.974E-03 0.743E+01
   0.978E+01 -.114E+02 0.938E+03   -.984E+01 0.114E+02 -.930E+03   0.510E-01 -.129E-01 -.755E+01
   0.124E+02 -.934E+01 0.938E+03   -.125E+02 0.938E+01 -.930E+03   0.630E-01 -.259E-01 -.755E+01
   0.905E+01 -.842E+01 -.918E+03   -.909E+01 0.843E+01 0.910E+03   0.317E-01 -.372E-02 0.747E+01
   0.242E+02 -.226E+02 -.911E+03   -.243E+02 0.227E+02 0.903E+03   0.102E+00 -.186E-01 0.746E+01
   0.113E+02 0.447E-01 0.940E+03   -.114E+02 -.449E-01 -.932E+03   0.526E-01 0.149E-03 -.755E+01
   0.897E+01 0.176E+02 0.946E+03   -.903E+01 -.178E+02 -.938E+03   0.491E-01 0.125E+00 -.756E+01
   0.178E+02 0.191E+02 -.911E+03   -.179E+02 -.191E+02 0.904E+03   0.628E-01 0.610E-01 0.746E+01
   0.935E+01 0.818E-01 -.912E+03   -.939E+01 -.820E-01 0.904E+03   0.307E-01 0.134E-03 0.746E+01
   0.205E+02 0.249E+02 0.950E+03   -.207E+02 -.251E+02 -.942E+03   0.147E+00 0.114E+00 -.755E+01
   0.263E+02 0.455E+02 0.985E+03   -.267E+02 -.460E+02 -.977E+03   0.329E+00 0.331E+00 -.748E+01
   0.564E+02 0.507E+02 -.884E+03   -.569E+02 -.507E+02 0.876E+03   0.368E+00 0.280E-01 0.742E+01
   0.238E+02 0.576E+02 -.892E+03   -.239E+02 -.580E+02 0.884E+03   0.938E-01 0.323E+00 0.744E+01
   0.468E+02 0.217E+02 0.981E+03   -.474E+02 -.217E+02 -.973E+03   0.484E+00 0.538E-01 -.767E+01
   0.497E+02 -.146E+00 0.104E+04   -.504E+02 0.149E+00 -.103E+04   0.534E+00 -.176E-02 -.770E+01
   0.110E+03 -.160E+00 -.847E+03   -.111E+03 0.160E+00 0.839E+03   0.316E+00 -.802E-04 0.733E+01
   0.128E+03 0.923E+02 -.759E+03   -.131E+03 -.922E+02 0.752E+03   0.201E+01 -.289E-01 0.701E+01
   0.467E+02 -.218E+02 0.981E+03   -.474E+02 0.218E+02 -.973E+03   0.482E+00 -.544E-01 -.767E+01
   0.262E+02 -.455E+02 0.985E+03   -.266E+02 0.460E+02 -.977E+03   0.328E+00 -.330E+00 -.748E+01
   0.562E+02 -.507E+02 -.884E+03   -.567E+02 0.507E+02 0.876E+03   0.367E+00 -.283E-01 0.742E+01
   0.128E+03 -.927E+02 -.760E+03   -.130E+03 0.926E+02 0.753E+03   0.200E+01 0.276E-01 0.702E+01
   0.204E+02 -.249E+02 0.950E+03   -.206E+02 0.250E+02 -.942E+03   0.146E+00 -.114E+00 -.755E+01
   0.895E+01 -.175E+02 0.946E+03   -.901E+01 0.176E+02 -.938E+03   0.490E-01 -.124E+00 -.756E+01
   0.178E+02 -.189E+02 -.912E+03   -.178E+02 0.190E+02 0.904E+03   0.628E-01 -.607E-01 0.746E+01
   0.237E+02 -.574E+02 -.892E+03   -.238E+02 0.578E+02 0.884E+03   0.937E-01 -.322E+00 0.744E+01
   -.639E-02 0.627E-01 0.943E+03   0.633E-02 -.631E-01 -.935E+03   0.403E-04 0.263E-03 -.756E+01
   -.898E+01 0.176E+02 0.946E+03   0.904E+01 -.178E+02 -.938E+03   -.490E-01 0.125E+00 -.756E+01
   -.111E-01 0.296E+02 -.906E+03   0.110E-01 -.298E+02 0.898E+03   0.262E-04 0.143E+00 0.746E+01
   -.936E+01 0.814E-01 -.912E+03   0.940E+01 -.815E-01 0.904E+03   -.307E-01 0.135E-03 0.746E+01
   -.134E-01 0.391E+02 0.963E+03   0.133E-01 -.396E+02 -.955E+03   0.721E-04 0.440E+00 -.761E+01
   -.263E+02 0.455E+02 0.985E+03   0.268E+02 -.460E+02 -.977E+03   -.329E+00 0.332E+00 -.748E+01
   -.633E-01 0.130E+03 -.820E+03   0.629E-01 -.132E+03 0.812E+03   0.274E-03 0.197E+01 0.750E+01
   -.238E+02 0.576E+02 -.892E+03   0.239E+02 -.580E+02 0.884E+03   -.936E-01 0.324E+00 0.744E+01
   -.418E-01 0.441E+02 0.104E+04   0.411E-01 -.444E+02 -.104E+04   0.516E-03 0.247E+00 -.517E+01
   -.497E+02 -.143E+00 0.104E+04   0.504E+02 0.146E+00 -.103E+04   -.534E+00 -.182E-02 -.770E+01
   -.224E+00 -.540E+00 -.531E+03   0.224E+00 0.562E+00 0.527E+03   0.894E-03 -.201E-01 0.339E+01
   -.128E+03 0.922E+02 -.759E+03   0.131E+03 -.921E+02 0.752E+03   -.201E+01 -.285E-01 0.701E+01
   -.384E-01 -.443E+02 0.104E+04   0.379E-01 0.446E+02 -.104E+04   0.365E-03 -.248E+00 -.519E+01
   -.262E+02 -.455E+02 0.985E+03   0.267E+02 0.459E+02 -.977E+03   -.328E+00 -.331E+00 -.748E+01
   -.543E-01 -.129E+03 -.821E+03   0.540E-01 0.132E+03 0.813E+03   0.283E-03 -.195E+01 0.750E+01
   -.128E+03 -.926E+02 -.760E+03   0.130E+03 0.925E+02 0.753E+03   -.199E+01 0.273E-01 0.702E+01
[...]
   -.102E+02 0.905E+01 0.708E+03   0.102E+02 -.906E+01 -.712E+03   -.631E-01 0.154E-01 0.339E+01
   0.619E-02 0.733E+01 0.704E+03   -.613E-02 -.734E+01 -.708E+03   -.682E-04 0.101E-01 0.340E+01
   -.185E+02 0.775E+01 -.683E+03   0.185E+02 -.775E+01 0.687E+03   -.571E-01 -.260E-04 -.364E+01
   0.157E-01 -.217E-01 -.685E+03   -.156E-01 0.217E-01 0.689E+03   -.134E-03 -.381E-05 -.363E+01
   -.139E+02 -.208E-01 0.711E+03   0.140E+02 0.209E-01 -.715E+03   -.737E-01 -.435E-04 0.338E+01
   0.102E-01 0.484E+01 0.708E+03   -.101E-01 -.484E+01 -.711E+03   -.107E-03 0.398E-02 0.339E+01
   -.185E+02 -.779E+01 -.683E+03   0.185E+02 0.779E+01 0.687E+03   -.570E-01 -.162E-04 -.364E+01
   0.110E-01 -.949E+01 -.688E+03   -.110E-01 0.949E+01 0.692E+03   -.970E-04 -.160E-02 -.361E+01
   -.101E+02 -.905E+01 0.708E+03   0.102E+02 0.907E+01 -.712E+03   -.630E-01 -.154E-01 0.339E+01
   0.100E-01 -.487E+01 0.708E+03   -.994E-02 0.487E+01 -.711E+03   -.111E-03 -.402E-02 0.339E+01
   -.969E+01 -.109E+02 -.688E+03   0.972E+01 0.109E+02 0.692E+03   -.435E-01 -.102E-01 -.361E+01
   0.564E-02 -.535E+01 -.691E+03   -.560E-02 0.535E+01 0.695E+03   -.471E-04 -.375E-02 -.360E+01
   -.541E+01 -.504E+01 0.704E+03   0.543E+01 0.505E+01 -.707E+03   -.375E-01 -.125E-01 0.340E+01
   0.596E-02 -.732E+01 0.704E+03   -.591E-02 0.733E+01 -.708E+03   -.696E-04 -.101E-01 0.340E+01
   0.493E-02 -.449E-01 0.642E+01   0.161E-11 -.110E-11 -.762E-11   -.346E-02 0.459E-01 -.363E+01

 POSITION                                       TOTAL-FORCE (eV/Angst)
      8.45440     11.94847     13.35506         0.000681     -0.170905     -0.034244
      8.45328     10.56231     18.09008         0.000504      0.000195     -0.221017
      8.45334     10.56083     15.56737         0.000629      0.004115     -0.091416
      8.45399      9.17859     13.35199         0.001155      0.181864     -0.034506
      0.00000      0.00000      9.00000        -0.008062     -0.000012      0.531547
      2.11389      2.11389      9.00000        -0.017944     -0.007509      0.531616
      0.00000      2.11389     11.11389        -0.008822     -0.001058     -0.455531
      2.11389      0.00000     11.11389        -0.012490     -0.000016     -0.454440
      0.00000      4.22777      9.00000        -0.014022     -0.003746      0.532906
      2.11389      6.34166      9.00000        -0.046111     -0.009727      0.537229
      0.00000      6.34166     11.11389        -0.014078     -0.000031     -0.449066
      2.11389      4.22777     11.11389        -0.027754     -0.005266     -0.447566
      0.00000      8.45554      9.00000        -0.022256     -0.001540      0.535796
      2.11389     10.56943      9.00000        -0.058842      0.000018      0.542122
      0.00000     10.56943     11.11389        -0.013668     -0.000021     -0.443836
      2.11389      8.45554     11.11389        -0.037135      0.001248     -0.428356
      0.00000     12.68331      9.00000        -0.022228      0.001538      0.535789
      2.11389     14.79720      9.00000        -0.045970      0.009725      0.537195
      0.00000     14.79720     11.11389        -0.014062      0.000027     -0.449096
      2.11389     12.68331     11.11389        -0.037104     -0.001266     -0.428384
      0.00000     16.91108      9.00000        -0.013989      0.003728      0.532896
      2.11389     19.02497      9.00000        -0.017910      0.007458      0.531613
      0.00000     19.02497     11.11389        -0.008810      0.001044     -0.455549
      2.11389     16.91108     11.11389        -0.027688      0.005254     -0.447621
      4.22777      0.00000      9.00000        -0.015208     -0.000046      0.531952
      6.34166      2.11389      9.00000        -0.014612     -0.033869      0.532941
      4.22777      2.11389     11.11389        -0.018181     -0.016409     -0.448817
      6.34166      0.00000     11.11389        -0.009006     -0.000037     -0.449531
      4.22777      4.22777      9.00000        -0.042637     -0.033309      0.529873
      6.34166      6.34166      9.00000        -0.107418     -0.106165      0.490057
      4.22777      6.34166     11.11389        -0.096880     -0.005601     -0.414195
      6.34166      4.22777     11.11389        -0.028121     -0.086443     -0.428773
      4.22777      8.45554      9.00000        -0.127103     -0.013767      0.552831
      6.34166     10.56943      9.00000        -0.176617      0.000609      0.513109
      4.22777     10.56943     11.11389        -0.079368     -0.000027     -0.359421
      6.34166      8.45554     11.11389        -0.664282      0.028211     -0.314542
      4.22777     12.68331      9.00000        -0.126665      0.013903      0.552730
      6.34166     14.79720      9.00000        -0.107064      0.105758      0.490356
      4.22777     14.79720     11.11389        -0.096502      0.005670     -0.414478
      6.34166     12.68331     11.11389        -0.658550     -0.028155     -0.314482
      4.22777     16.91108      9.00000        -0.042502      0.033170      0.529851
      6.34166     19.02497      9.00000        -0.014582      0.033691      0.532918
      4.22777     19.02497     11.11389        -0.018160      0.016330     -0.448866
      6.34166     16.91108     11.11389        -0.028113      0.086068     -0.429026
      8.45554      0.00000      9.00000        -0.000028     -0.000074      0.532716
     10.56943      2.11389      9.00000         0.014570     -0.033875      0.532936
      8.45554      2.11389     11.11389        -0.000058     -0.037302     -0.443906
     10.56943      0.00000     11.11389         0.008966     -0.000036     -0.449533
      8.45554      4.22777      9.00000        -0.000031     -0.114757      0.536567
     10.56943      6.34166      9.00000         0.107350     -0.106245      0.490036
      8.45554      6.34166     11.11389        -0.000103     -0.615137     -0.416284
     10.56943      4.22777     11.11389         0.028059     -0.086492     -0.428800
      8.45554      8.45554      9.00000        -0.000184     -0.048283     -0.024449
     10.56943     10.56943      9.00000         0.176501      0.000627      0.513090
      8.45554     10.56943     11.11389         0.000540      0.001515     -0.929735
     10.56943      8.45554     11.11389         0.663653      0.028281     -0.314449
      8.45554     12.68331      9.00000        -0.000151      0.048364     -0.020927
     10.56943     14.79720      9.00000         0.106994      0.105814      0.490338
      8.45554     14.79720     11.11389        -0.000069      0.610517     -0.416182
     10.56943     12.68331     11.11389         0.658096     -0.028181     -0.314519
[...]
     19.02497      6.34166     11.11389        -0.000032      0.000449      0.290165
     16.91108      6.34166      9.00000        -0.017487      0.004289     -0.371596
     19.02497      4.22777      9.00000        -0.000022      0.002796     -0.369900
     16.91108      8.45554     11.11389        -0.015913     -0.000004      0.283006
     19.02497     10.56943     11.11389        -0.000041     -0.000003      0.286641
     16.91108     10.56943      9.00000        -0.020417     -0.000019     -0.373879
     19.02497      8.45554      9.00000        -0.000036      0.001106     -0.371765
     16.91108     12.68331     11.11389        -0.015898     -0.000013      0.283026
     19.02497     14.79720     11.11389        -0.000031     -0.000463      0.290186
     16.91108     14.79720      9.00000        -0.017454     -0.004301     -0.371587
     19.02497     12.68331      9.00000        -0.000033     -0.001131     -0.371767
     16.91108     16.91108     11.11389        -0.012075     -0.002860      0.291314
     19.02497     19.02497     11.11389        -0.000020     -0.001013      0.295130
     16.91108     19.02497      9.00000        -0.010360     -0.003452     -0.369336
     19.02497     16.91108      9.00000        -0.000022     -0.002802     -0.369895
    total drift:                                0.001471      0.000967      2.784774

  FREE ENERGIE OF THE ION-ELECTRON SYSTEM (eV)
  free  energy   TOTEN  =     -1694.47852025 eV

  energy  without entropy=    -1694.47852025  energy(sigma->0) =    -1694.47852025