 vasp.6.3.0 20Jan22 (build Apr  1 2022 16:44:48) complex
 executed on        HPECrayEX_GCC date 2023.01.10  17:53:58

 INCAR:
   SYSTEM = MgO-rocksalt
   ISMEAR = 0
   SIGMA = 0.05
   EDIFF = 1E-6
   ALGO = ALL
   ISTART = 0
   IBRION = -1
   NSW = 0
   ISYM = 2
   DIPOL = 0.5 0.5 0.5
   IDIPOL = 3
   LDIPOL = .TRUE.
   LHFCALC = .TRUE.
   GGA = B5
   AEXX = 0.2
   AGGAX = 0.72
   AGGAC = 0.81
   ALDAC = 0.19
   ENCUT = 520
   PREC = Accurate
   LASPH = .TRUE.
   LREAL = Auto
   ISPIN = 1
   NELM = 200
   NELMIN = 8
   NCORE = 4
   KPAR = 2
   LWAVE = .FALSE.
   LCHARG = .FALSE.

 POTCAR:    PAW_PBE Au 04Oct2007
 POTCAR:    PAW_PBE Mg_pv 13Apr2007
 POTCAR:    PAW_PBE O 08Apr2002
|           W    W    AA    RRRRR   N    N  II  N    N   GGGG   !!!           |
|           W    W   A  A   R    R  NN   N  II  NN   N  G    G  !!!           |
|           W    W  A    A  R    R  N N  N  II  N N  N  G       !!!           |
|           W WW W  AAAAAA  RRRRR   N  N N  II  N  N N  G  GGG   !            |
|           WW  WW  A    A  R   R   N   NN  II  N   NN  G    G                |
|           W    W  A    A  R    R  N    N  II  N    N   GGGG   !!!           |
|     You have selected ISYM=2 for a HF type calculation. This will           |
|     symmetrize the charge density but not the exchange potential. I         |
|     suggest to use ISYM=3 instead. This uses symmetry to obtain the         |
|     orbitals at all k-points in the Brillouin zone, but does not apply      |
|     symmetry to the Hartree potential directly. The resultant charge        |
|     might have lower symmetry than the crystal but, at least, Hartree       |
|     and exchange are fully compatible.                                      |

   TITEL  = PAW_PBE Au 04Oct2007
   POMASS =  196.966; ZVAL   =   11.000    mass and valenz
   ENMAX  =  229.943; ENMIN  =  172.457 eV

   TITEL  = PAW_PBE Mg_pv 13Apr2007
   POMASS =   24.305; ZVAL   =    8.000    mass and valenz
   ENMAX  =  403.929; ENMIN  =  302.947 eV

   TITEL  = PAW_PBE O 08Apr2002
   POMASS =   16.000; ZVAL   =    6.000    mass and valenz
   ENMAX  =  400.000; ENMIN  =  300.000 eV

 Optimization of the real space projectors (new method)

 maximal supplied QI-value         = 15.12
 optimisation between [QCUT,QGAM] = [ 11.64, 23.28] = [ 37.95,151.78] Ry
 Optimized for a Real-space Cutoff    1.49 Angstroem

   l    n(q)    QCUT    max X(q) W(low)/X(q) W(high)/X(q)  e(spline)
   2      9    11.641    60.898    0.24E-03    0.10E-03    0.19E-06
   2      9    11.641    58.894    0.25E-03    0.10E-03    0.19E-06
   0     10    11.641   109.617    0.73E-04    0.33E-04    0.11E-06
   0     10    11.641    75.026    0.71E-04    0.32E-04    0.11E-06
   1     10    11.641    16.344    0.27E-04    0.97E-04    0.16E-06
   1     10    11.641    10.160    0.23E-04    0.77E-04    0.13E-06
 Optimization of the real space projectors (new method)

[...]

   l    n(q)    QCUT    max X(q) W(low)/X(q) W(high)/X(q)  e(spline)
   1      8    11.527     2.974    0.44E-04    0.56E-04    0.12E-06
   1      8    11.527     4.279    0.12E-03    0.12E-03    0.26E-06
   0      9    11.527    16.381    0.46E-04    0.64E-04    0.78E-07
   0      9    11.527     5.611    0.26E-04    0.43E-04    0.55E-07
   2      8    11.527     4.652    0.22E-03    0.72E-04    0.47E-07
 Optimization of the real space projectors (new method)

 maximal supplied QI-value         = 24.76
 optimisation between [QCUT,QGAM] = [ 11.64, 23.27] = [ 37.91,151.63] Ry
 Optimized for a Real-space Cutoff    1.14 Angstroem

   l    n(q)    QCUT    max X(q) W(low)/X(q) W(high)/X(q)  e(spline)
   0      8    11.635    20.381    0.10E-03    0.33E-03    0.24E-06
   0      8    11.635    15.268    0.11E-03    0.35E-03    0.26E-06
   1      7    11.635     5.964    0.24E-03    0.31E-03    0.30E-06
   1      7    11.635     5.382    0.22E-03    0.25E-03    0.26E-06
|               ----> ADVICE to this user running VASP <----                  |
|     You enforced a specific xc type in the INCAR file but a different       |
|     type was found in the POTCAR file.                                      |
|     I HOPE YOU KNOW WHAT YOU ARE DOING!                                     |

  PAW_PBE Au 04Oct2007                  :
  PAW_PBE Mg_pv 13Apr2007               :
  PAW_PBE O 08Apr2002                   :

 POSCAR: Au Mg  O
  positions in direct lattice
  velocities in cartesian coordinates
 exchange correlation table for  LEXCH =       12
   RHO(1)=    0.500       N(1)  =     2000
   RHO(2)=  100.500       N(2)  =     4000

 ion  position               nearest neighbor table
   1  0.404  0.596  0.665-   2 2.57   4 2.74
   2  0.332  0.668  0.602- 138 2.40   1 2.57  59 2.71  40 2.71
   3  0.568  0.432  0.602- 173 2.40   4 2.57  75 2.71  56 2.71
   4  0.496  0.504  0.665-   3 2.57   1 2.74
   5  0.000  0.000  0.407- 107 2.11 108 2.11 123 2.11 188 2.11 105 2.11
   6  0.100  0.100  0.407- 107 2.11 108 2.11 112 2.11 127 2.11 106 2.11
   7  0.000  0.100  0.503- 105 2.11 106 2.11 109 2.11 186 2.11 107 2.11
   8  0.100  0.000  0.503- 105 2.11 106 2.11 122 2.11 125 2.11 108 2.11
   9  0.000  0.200  0.407- 111 2.11 107 2.11 112 2.11 192 2.11 109 2.11
  10  0.100  0.300  0.407- 112 2.11 111 2.11 116 2.11 131 2.11 110 2.11
  11  0.000  0.300  0.503- 109 2.11 110 2.11 113 2.11 190 2.11 111 2.11
  12  0.100  0.200  0.503- 110 2.11 109 2.11 106 2.11 129 2.11 112 2.11
  13  0.000  0.400  0.407- 111 2.11 115 2.11 116 2.11 196 2.11 113 2.11
  14  0.100  0.500  0.407- 115 2.11 116 2.11 120 2.11 135 2.11 114 2.11
  15  0.000  0.500  0.503- 113 2.11 114 2.11 117 2.11 194 2.11 115 2.11
  16  0.100  0.400  0.503- 110 2.11 113 2.11 114 2.11 133 2.11 116 2.11
  17  0.000  0.600  0.407- 115 2.11 119 2.11 120 2.11 200 2.11 117 2.11
  18  0.100  0.700  0.407- 124 2.11 120 2.11 119 2.11 139 2.11 118 2.11
  19  0.000  0.700  0.503- 121 2.11 118 2.11 117 2.11 198 2.11 119 2.11
  20  0.100  0.600  0.503- 114 2.11 117 2.11 118 2.11 137 2.11 120 2.11
  21  0.000  0.800  0.407- 119 2.11 123 2.11 124 2.11 204 2.11 121 2.11
  22  0.100  0.900  0.407- 108 2.11 123 2.11 124 2.11 143 2.11 122 2.11
  23  0.000  0.900  0.503- 105 2.11 121 2.11 122 2.11 202 2.11 123 2.11
  24  0.100  0.800  0.503- 118 2.11 121 2.11 122 2.11 141 2.11 124 2.11
  25  0.200  0.000  0.407- 128 2.11 127 2.11 108 2.11 143 2.11 125 2.11
  26  0.300  0.100  0.407- 127 2.11 128 2.11 132 2.11 147 2.11 126 2.11
  27  0.200  0.100  0.503- 126 2.11 125 2.11 106 2.11 129 2.11 127 2.11
  28  0.300  0.000  0.503- 125 2.11 126 2.11 142 2.11 145 2.11 128 2.11
  29  0.200  0.200  0.407- 131 2.11 132 2.11 112 2.11 127 2.11 129 2.11
  30  0.300  0.300  0.407- 131 2.11 132 2.11 136 2.11 151 2.11 130 2.11
  31  0.200  0.300  0.503- 129 2.11 130 2.11 110 2.11 133 2.11 131 2.11
  32  0.300  0.200  0.503- 129 2.11 130 2.11 126 2.11 149 2.11 132 2.11
  33  0.200  0.400  0.407- 136 2.11 131 2.11 135 2.11 116 2.11 133 2.11
  34  0.300  0.500  0.407- 135 2.11 136 2.11 140 2.11 155 2.11 134 2.11
  35  0.200  0.500  0.503- 134 2.11 133 2.11 114 2.11 137 2.11 135 2.11
  36  0.300  0.400  0.503- 133 2.11 130 2.11 134 2.11 153 2.11 136 2.11
  37  0.200  0.600  0.407- 140 2.11 135 2.11 139 2.11 120 2.11 137 2.11
  38  0.300  0.700  0.407- 139 2.11 144 2.11 140 2.11 159 2.11 138 2.11
  39  0.200  0.700  0.503- 138 2.11 141 2.11 118 2.11 137 2.11 139 2.11
  40  0.300  0.600  0.503- 137 2.11 134 2.11 138 2.11 157 2.11 140 2.11   2 2.71
  41  0.200  0.800  0.407- 139 2.11 144 2.11 143 2.11 124 2.11 141 2.11
  42  0.300  0.900  0.407- 143 2.11 128 2.11 144 2.11 163 2.11 142 2.11
  43  0.200  0.900  0.503- 142 2.11 125 2.11 141 2.11 122 2.11 143 2.11
  44  0.300  0.800  0.503- 138 2.11 141 2.11 142 2.11 161 2.11 144 2.11
  45  0.400  0.000  0.407- 128 2.11 147 2.11 148 2.11 163 2.11 145 2.11
  46  0.500  0.100  0.407- 147 2.11 148 2.11 152 2.11 167 2.11 146 2.11
  47  0.400  0.100  0.503- 126 2.11 145 2.11 146 2.11 149 2.11 147 2.11
  48  0.500  0.000  0.503- 145 2.11 146 2.11 162 2.11 165 2.11 148 2.11
  49  0.400  0.200  0.407- 151 2.11 147 2.11 132 2.11 152 2.11 149 2.11
  50  0.500  0.300  0.407- 152 2.11 151 2.11 156 2.11 171 2.11 150 2.11
  51  0.400  0.300  0.503- 149 2.11 130 2.11 150 2.11 153 2.11 151 2.11
  52  0.500  0.200  0.503- 150 2.11 149 2.11 146 2.11 169 2.11 152 2.11
  53  0.400  0.400  0.407- 136 2.11 151 2.11 155 2.11 156 2.11 153 2.11
  54  0.500  0.500  0.407- 155 2.11 156 2.11 160 2.11 175 2.11 154 2.11
  55  0.400  0.500  0.503- 134 2.11 153 2.11 154 2.11 157 2.11 155 2.11
  56  0.500  0.400  0.503- 150 2.11 153 2.11 154 2.11 173 2.11 156 2.11   3 2.71
  57  0.400  0.600  0.407- 140 2.11 155 2.11 159 2.11 160 2.11 157 2.11
  58  0.500  0.700  0.407- 164 2.11 160 2.11 159 2.11 179 2.11 158 2.11
  59  0.400  0.700  0.503- 161 2.11 157 2.11 158 2.11 138 2.11 159 2.11   2 2.71
  60  0.500  0.600  0.503- 154 2.11 157 2.11 158 2.11 177 2.11 160 2.11
[...]
 190  0.900  0.300  0.503-  92 2.11  91 2.11  11 2.11  96 2.11  90 2.11
 191  0.800  0.300  0.407-  70 2.11  89 2.11  90 2.11  93 2.11  91 2.11
 192  0.900  0.200  0.407-  90 2.11  86 2.11  89 2.11   9 2.11  92 2.11
 193  0.800  0.400  0.503-  76 2.11  91 2.11  95 2.11  96 2.11  93 2.11
 194  0.900  0.500  0.503-  15 2.11  95 2.11  96 2.11 100 2.11  94 2.11
 195  0.800  0.500  0.407-  74 2.11  93 2.11  94 2.11  97 2.11  95 2.11
 196  0.900  0.400  0.407-  13 2.11  90 2.11  93 2.11  94 2.11  96 2.11
 197  0.800  0.600  0.503-  80 2.11  95 2.11  99 2.11 100 2.11  97 2.11
 198  0.900  0.700  0.503- 104 2.11  99 2.11 100 2.11  19 2.11  98 2.11
 199  0.800  0.700  0.407-  78 2.11 101 2.11  98 2.11  97 2.11  99 2.11
 200  0.900  0.600  0.407-  17 2.11  94 2.11  97 2.11  98 2.11 100 2.11
 201  0.800  0.800  0.503-  84 2.11  99 2.11 103 2.11 104 2.11 101 2.11
 202  0.900  0.900  0.503-  23 2.11  88 2.11 103 2.11 104 2.11 102 2.11
 203  0.800  0.900  0.407-  82 2.11  85 2.11 101 2.11 102 2.11 103 2.11
 204  0.900  0.800  0.407-  98 2.11  21 2.11 101 2.11 102 2.11 104 2.11

  LATTYP: Found a simple tetragonal cell.
 ALAT       =    21.1388521970
 C/A-ratio  =     1.0461251639

  Lattice vectors:

 A1 = (  21.1388521970,   0.0000000000,   0.0000000000)
 A2 = (   0.0000000000,  21.1388521970,   0.0000000000)
 A3 = (   0.0000000000,   0.0000000000,  22.1138852197)

Analysis of symmetry for initial positions (statically):
 Subroutine PRICEL returns:
 Original cell was already a primitive cell.

 Routine SETGRP: Setting up the symmetry group for a
 simple tetragonal supercell.

 Subroutine GETGRP returns: Found  2 space group operations
 (whereof  1 operations were pure point group operations)
 out of a pool of 16 trial point group operations.

The static configuration has the point symmetry C_1 .
 The point group associated with its full space group is C_1h.

Analysis of symmetry for dynamics (positions and initial velocities):
 Subroutine PRICEL returns:
 Original cell was already a primitive cell.

[...]

The dynamic configuration has the point symmetry C_1 .
 The point group associated with its full space group is C_1h.

Analysis of constrained symmetry for selective dynamics:
 Subroutine PRICEL returns:
 Original cell was already a primitive cell.

[...]
     22     -46.4898      2.00000
     23     -46.4896      2.00000
     24     -46.4896      2.00000
     25     -46.4837      2.00000
     26     -46.4837      2.00000
     27     -46.4836      2.00000
     28     -46.4836      2.00000
     29     -46.4685      2.00000
     30     -46.4685      2.00000
     31     -46.4662      2.00000
     32     -46.4662      2.00000
     33     -46.4661      2.00000
     34     -46.4660      2.00000
     35     -46.4647      2.00000
     36     -46.4647      2.00000
     37     -46.4499      2.00000
     38     -46.4499      2.00000
     39     -46.4493      2.00000
     40     -46.4493      2.00000
     41     -46.4364      2.00000
     42     -46.4364      2.00000
     43     -46.4228      2.00000
     44     -46.4227      2.00000
     45     -46.4223      2.00000
     46     -46.4222      2.00000
     47     -46.4197      2.00000
     48     -46.4197      2.00000
     49     -46.4196      2.00000
     50     -46.4195      2.00000
     51     -46.4190      2.00000
     52     -46.4173      2.00000
     53     -46.4127      2.00000
     54     -46.4127      2.00000
     55     -46.4115      2.00000
     56     -46.4113      2.00000
     57     -46.4104      2.00000
     58     -46.4104      2.00000
     59     -46.4045      2.00000
     60     -46.4034      2.00000
[...]
   1010       7.4068      0.00000
   1011       7.5285      0.00000
   1012       7.5618      0.00000
   1013       7.5979      0.00000
   1014       7.6112      0.00000
   1015       7.7316      0.00000
   1016       7.7605      0.00000
   1017       7.8180      0.00000
   1018       7.8318      0.00000
   1019       7.8535      0.00000
   1020       8.0032      0.00000
   1021       8.1560      0.00000
   1022       8.2877      0.00000
   1023       8.3733      0.00000
   1024       8.4404      0.00000

 soft charge-density along one line, spin component           1
         0         1         2         3         4         5         6         7         8         9
 total charge-density along one line

------------------------ aborting loop because EDIFF is reached ----------------------------------------

 VOLUME and BASIS-vectors are now :
  energy-cutoff  :      520.00
  volume of cell :     9881.61
      direct lattice vectors                 reciprocal lattice vectors
    21.138852197  0.000000000  0.000000000     0.047306258  0.000000000  0.000000000
     0.000000000 21.138852197  0.000000000     0.000000000  0.047306258  0.000000000
     0.000000000  0.000000000 22.113885220     0.000000000  0.000000000  0.045220457

  length of vectors
    21.138852197 21.138852197 22.113885220     0.047306258  0.047306258  0.045220457

 FORCES acting on ions:
    Electron-Ion                     Ewald-Force                    Non-Local-Force
   0.485E+02 -.485E+02 -.197E+04   -.510E+02 0.510E+02 0.197E+04   0.230E+01 -.229E+01 0.281E+01
   0.221E+03 -.221E+03 -.203E+04   -.218E+03 0.218E+03 0.203E+04   -.273E+01 0.273E+01 -.245E+01
   -.221E+03 0.221E+03 -.203E+04   0.218E+03 -.218E+03 0.203E+04   0.273E+01 -.273E+01 -.245E+01
   -.485E+02 0.485E+02 -.197E+04   0.510E+02 -.510E+02 0.197E+04   -.229E+01 0.230E+01 0.281E+01
   0.457E+01 -.457E+01 0.937E+03   -.461E+01 0.461E+01 -.929E+03   0.269E-01 -.269E-01 -.672E+01
   0.896E+01 0.202E+01 0.938E+03   -.895E+01 -.195E+01 -.930E+03   -.349E-02 -.499E-01 -.673E+01
   0.330E+01 0.331E+01 -.918E+03   -.328E+01 -.328E+01 0.911E+03   -.177E-01 -.177E-01 0.664E+01
   0.139E+02 -.104E+02 -.916E+03   -.139E+02 0.105E+02 0.908E+03   0.246E-01 -.876E-01 0.664E+01
   0.202E+01 0.896E+01 0.938E+03   -.195E+01 -.895E+01 -.930E+03   -.499E-01 -.349E-02 -.673E+01
   0.143E+02 0.155E+02 0.944E+03   -.142E+02 -.155E+02 -.936E+03   -.454E-01 0.960E-04 -.674E+01
   0.314E+01 0.155E+02 -.915E+03   -.302E+01 -.155E+02 0.907E+03   -.820E-01 -.900E-03 0.664E+01
   0.132E+02 0.132E+02 -.916E+03   -.132E+02 -.132E+02 0.908E+03   -.366E-01 -.366E-01 0.664E+01
   0.486E+01 0.110E+02 0.945E+03   -.477E+01 -.110E+02 -.937E+03   -.688E-01 0.166E-01 -.673E+01
   0.281E+02 0.111E+02 0.957E+03   -.281E+02 -.113E+02 -.949E+03   -.399E-02 0.103E+00 -.674E+01
   0.128E+02 0.788E+01 -.909E+03   -.128E+02 -.792E+01 0.901E+03   -.270E-01 0.251E-01 0.663E+01
   0.306E+02 0.233E+02 -.906E+03   -.304E+02 -.233E+02 0.898E+03   -.923E-01 0.378E-01 0.662E+01
   0.121E+02 -.242E+01 0.949E+03   -.122E+02 0.238E+01 -.941E+03   0.693E-01 0.289E-01 -.674E+01
   0.318E+02 -.129E+02 0.960E+03   -.323E+02 0.128E+02 -.952E+03   0.334E+00 0.428E-01 -.676E+01
   0.203E+02 -.128E+02 -.909E+03   -.205E+02 0.128E+02 0.901E+03   0.138E+00 0.180E-01 0.663E+01
   0.581E+02 0.283E+01 -.892E+03   -.583E+02 -.301E+01 0.885E+03   0.142E+00 0.121E+00 0.661E+01
   0.109E+02 -.130E+02 0.943E+03   -.110E+02 0.130E+02 -.936E+03   0.131E+00 -.151E-01 -.673E+01
   0.158E+02 -.158E+02 0.944E+03   -.159E+02 0.159E+02 -.937E+03   0.963E-01 -.964E-01 -.671E+01
   0.104E+02 -.139E+02 -.916E+03   -.105E+02 0.139E+02 0.908E+03   0.877E-01 -.246E-01 0.664E+01
   0.387E+02 -.287E+02 -.903E+03   -.391E+02 0.288E+02 0.896E+03   0.311E+00 -.339E-01 0.664E+01
   0.130E+02 -.109E+02 0.943E+03   -.130E+02 0.110E+02 -.936E+03   0.151E-01 -.131E+00 -.673E+01
   0.110E+02 0.486E+01 0.945E+03   -.110E+02 -.477E+01 -.937E+03   0.166E-01 -.688E-01 -.673E+01
   0.155E+02 0.314E+01 -.915E+03   -.155E+02 -.302E+01 0.907E+03   -.900E-03 -.820E-01 0.664E+01
   0.128E+02 -.203E+02 -.909E+03   -.128E+02 0.205E+02 0.901E+03   -.181E-01 -.138E+00 0.663E+01
   0.155E+02 0.143E+02 0.944E+03   -.155E+02 -.142E+02 -.936E+03   0.960E-04 -.454E-01 -.674E+01
   0.252E+02 0.322E+02 0.963E+03   -.253E+02 -.321E+02 -.955E+03   0.647E-01 -.385E-01 -.679E+01
   0.329E+02 0.329E+02 -.904E+03   -.328E+02 -.328E+02 0.897E+03   -.526E-01 -.526E-01 0.661E+01
   0.233E+02 0.306E+02 -.906E+03   -.233E+02 -.304E+02 0.898E+03   0.378E-01 -.923E-01 0.662E+01
   0.322E+02 0.252E+02 0.963E+03   -.321E+02 -.253E+02 -.955E+03   -.385E-01 0.647E-01 -.679E+01
   0.426E+02 0.277E+02 0.101E+04   -.426E+02 -.282E+02 -.100E+04   -.139E-01 0.309E+00 -.701E+01
   0.791E+02 0.416E+02 -.869E+03   -.788E+02 -.419E+02 0.862E+03   -.223E+00 0.267E+00 0.654E+01
   0.671E+02 0.671E+02 -.862E+03   -.669E+02 -.669E+02 0.854E+03   -.120E+00 -.120E+00 0.652E+01
   0.499E+02 0.289E+01 0.992E+03   -.501E+02 -.338E+01 -.984E+03   0.132E+00 0.327E+00 -.672E+01
   0.342E+02 -.342E+02 0.102E+04   -.339E+02 0.339E+02 -.102E+04   -.167E+00 0.166E+00 -.459E+01
   0.109E+03 -.430E+02 -.839E+03   -.112E+03 0.427E+02 0.832E+03   0.171E+01 0.175E+00 0.679E+01
   0.120E+03 0.623E+02 -.699E+03   -.120E+03 -.655E+02 0.692E+03   -.340E+00 0.193E+01 0.529E+01
   0.312E+02 -.312E+02 0.969E+03   -.315E+02 0.315E+02 -.962E+03   0.216E+00 -.216E+00 -.661E+01
   0.129E+02 -.318E+02 0.960E+03   -.128E+02 0.323E+02 -.952E+03   -.427E-01 -.334E+00 -.676E+01
   0.287E+02 -.387E+02 -.903E+03   -.288E+02 0.391E+02 0.896E+03   0.338E-01 -.311E+00 0.664E+01
   0.431E+02 -.109E+03 -.839E+03   -.428E+02 0.112E+03 0.832E+03   -.175E+00 -.171E+01 0.679E+01
   0.242E+01 -.121E+02 0.949E+03   -.238E+01 0.122E+02 -.941E+03   -.288E-01 -.693E-01 -.674E+01
   -.242E+01 0.121E+02 0.949E+03   0.238E+01 -.122E+02 -.941E+03   0.289E-01 0.693E-01 -.674E+01
   0.788E+01 0.128E+02 -.909E+03   -.792E+01 -.128E+02 0.901E+03   0.251E-01 -.270E-01 0.663E+01
   -.788E+01 -.129E+02 -.909E+03   0.792E+01 0.128E+02 0.901E+03   -.251E-01 0.271E-01 0.663E+01
   0.111E+02 0.281E+02 0.957E+03   -.113E+02 -.281E+02 -.949E+03   0.103E+00 -.399E-02 -.674E+01
   0.289E+01 0.499E+02 0.992E+03   -.338E+01 -.501E+02 -.984E+03   0.327E+00 0.132E+00 -.672E+01
   0.416E+02 0.791E+02 -.869E+03   -.419E+02 -.788E+02 0.862E+03   0.267E+00 -.223E+00 0.654E+01
   0.283E+01 0.581E+02 -.892E+03   -.301E+01 -.583E+02 0.885E+03   0.121E+00 0.142E+00 0.661E+01
   0.277E+02 0.426E+02 0.101E+04   -.282E+02 -.426E+02 -.100E+04   0.309E+00 -.139E-01 -.701E+01
   -.768E+01 0.770E+01 0.105E+04   0.734E+01 -.737E+01 -.104E+04   0.226E+00 -.226E+00 -.701E+01
   0.665E+02 0.666E+02 -.736E+03   -.667E+02 -.667E+02 0.730E+03   0.108E+00 0.108E+00 0.619E+01
   0.623E+02 0.120E+03 -.699E+03   -.655E+02 -.120E+03 0.692E+03   0.193E+01 -.340E+00 0.529E+01
   0.770E+01 -.767E+01 0.105E+04   -.737E+01 0.734E+01 -.104E+04   -.226E+00 0.226E+00 -.701E+01
   -.277E+02 -.426E+02 0.101E+04   0.282E+02 0.426E+02 -.100E+04   -.309E+00 0.139E-01 -.701E+01
   -.623E+02 -.120E+03 -.698E+03   0.655E+02 0.120E+03 0.692E+03   -.193E+01 0.340E+00 0.528E+01
   -.665E+02 -.665E+02 -.736E+03   0.667E+02 0.667E+02 0.730E+03   -.108E+00 -.108E+00 0.619E+01
[...]
   -.181E+02 0.142E+02 0.716E+03   0.182E+02 -.143E+02 -.720E+03   -.212E+00 0.917E-01 0.318E+01
   -.563E+01 0.800E+01 0.706E+03   0.569E+01 -.802E+01 -.710E+03   -.757E-01 0.389E-01 0.315E+01
   -.422E+02 0.143E+02 -.672E+03   0.424E+02 -.143E+02 0.676E+03   -.260E+00 -.812E-01 -.333E+01
   -.142E+02 0.197E+01 -.682E+03   0.143E+02 -.193E+01 0.687E+03   -.523E-01 -.433E-01 -.330E+01
   -.251E+02 -.155E-01 0.723E+03   0.252E+02 0.151E+00 -.727E+03   -.133E+00 -.158E+00 0.314E+01
   -.984E+01 0.738E+01 0.712E+03   0.992E+01 -.736E+01 -.716E+03   -.108E+00 -.137E-01 0.315E+01
   -.339E+02 -.138E+02 -.676E+03   0.339E+02 0.139E+02 0.680E+03   -.520E-02 -.125E+00 -.334E+01
   -.496E+01 -.108E+02 -.685E+03   0.491E+01 0.108E+02 0.689E+03   0.575E-01 -.990E-02 -.329E+01
   -.155E+02 -.121E+02 0.714E+03   0.154E+02 0.122E+02 -.718E+03   0.395E-01 -.366E-01 0.312E+01
   -.646E+01 -.420E+01 0.713E+03   0.645E+01 0.424E+01 -.716E+03   0.806E-02 -.319E-01 0.314E+01
   -.147E+02 -.156E+02 -.686E+03   0.147E+02 0.156E+02 0.690E+03   0.586E-01 0.206E-01 -.329E+01
   -.171E+01 -.839E+01 -.690E+03   0.166E+01 0.840E+01 0.694E+03   0.478E-01 0.536E-02 -.327E+01
   -.770E+01 -.769E+01 0.707E+03   0.767E+01 0.767E+01 -.711E+03   0.260E-01 0.260E-01 0.314E+01
   -.194E+01 -.909E+01 0.708E+03   0.188E+01 0.910E+01 -.712E+03   0.622E-01 -.544E-02 0.314E+01
   -.729E+00 0.727E+00 0.109E+02   0.199E-11 0.119E-11 0.146E-10   0.334E-02 0.334E-02 -.976E+01

 POSITION                                       TOTAL-FORCE (eV/Angst)
      8.54545     12.59441     14.71338        -0.096666      0.097583      0.294682
      7.02105     14.11881     13.31306        -0.186021      0.185336      0.230295
     12.00492      9.13494     13.31306         0.185336     -0.186021      0.230295
     10.48052     10.65934     14.71338         0.097583     -0.096666      0.294682
      0.00000      0.00000      9.00000        -0.008518      0.008518      0.431111
      2.11389      2.11389      9.00000         0.000989      0.015248      0.432924
      0.00000      2.11389     11.11389         0.005348      0.005348     -0.396366
      2.11389      0.00000     11.11389        -0.008040      0.026526     -0.394699
      0.00000      4.22777      9.00000         0.015248      0.000989      0.432924
      2.11389      6.34166      9.00000         0.014128      0.000576      0.437197
      0.00000      6.34166     11.11389         0.024754      0.000577     -0.393098
      2.11389      4.22777     11.11389         0.011490      0.011490     -0.394131
      0.00000      8.45554      9.00000         0.020393     -0.004940      0.434931
      2.11389     10.56943      9.00000        -0.000610     -0.032910      0.437044
      0.00000     10.56943     11.11389         0.008310     -0.007821     -0.386966
      2.11389      8.45554     11.11389         0.028578     -0.010070     -0.382859
      0.00000     12.68331      9.00000        -0.021079     -0.009787      0.434843
      2.11389     14.79720      9.00000        -0.096394     -0.014390      0.435286
      0.00000     14.79720     11.11389        -0.039875     -0.006181     -0.388525
      2.11389     12.68331     11.11389        -0.042215     -0.040958     -0.372714
      0.00000     16.91108      9.00000        -0.039499      0.005177      0.432408
      2.11389     19.02497      9.00000        -0.031489      0.031502      0.425764
      0.00000     19.02497     11.11389        -0.026547      0.008029     -0.394662
      2.11389     16.91108     11.11389        -0.092919      0.012873     -0.387977
      4.22777      0.00000      9.00000        -0.005183      0.039453      0.432123
      6.34166      2.11389      9.00000        -0.004940      0.020393      0.434931
      4.22777      2.11389     11.11389         0.000577      0.024754     -0.393098
      6.34166      0.00000     11.11389         0.006170      0.039814     -0.388546
      4.22777      4.22777      9.00000         0.000576      0.014128      0.437197
      6.34166      6.34166      9.00000        -0.017397      0.013035      0.452801
      4.22777      6.34166     11.11389         0.017874      0.017874     -0.380258
      6.34166      4.22777     11.11389        -0.010070      0.028578     -0.382859
      4.22777      8.45554      9.00000         0.013035     -0.017397      0.452801
      6.34166     10.56943      9.00000         0.007788     -0.087384      0.509485
      4.22777     10.56943     11.11389         0.076733     -0.071793     -0.330310
      6.34166      8.45554     11.11389         0.044814      0.044814     -0.322563
      4.22777     12.68331      9.00000        -0.054615     -0.118436      0.411924
      6.34166     14.79720      9.00000         0.062298     -0.062205     -0.133882
      4.22777     14.79720     11.11389        -0.591545     -0.063107     -0.411066
      6.34166     12.68331     11.11389        -0.035441     -1.031161     -0.525397
      4.22777     16.91108      9.00000        -0.082832      0.082874      0.378187
      6.34166     19.02497      9.00000         0.014377      0.096387      0.435484
      4.22777     19.02497     11.11389        -0.012850      0.092917     -0.388032
      6.34166     16.91108     11.11389         0.063144      0.591589     -0.411123
      8.45554      0.00000      9.00000         0.009738      0.021029      0.434858
     10.56943      2.11389      9.00000        -0.009787     -0.021079      0.434843
      8.45554      2.11389     11.11389        -0.007821      0.008310     -0.386966
     10.56943      0.00000     11.11389         0.007797     -0.008384     -0.386930
      8.45554      4.22777      9.00000        -0.032910     -0.000610      0.437044
     10.56943      6.34166      9.00000        -0.118436     -0.054615      0.411924
      8.45554      6.34166     11.11389        -0.071793      0.076733     -0.330310
     10.56943      4.22777     11.11389        -0.040958     -0.042215     -0.372714
      8.45554      8.45554      9.00000        -0.087384      0.007788      0.509485
     10.56943     10.56943      9.00000        -0.082306      0.082359      0.468804
      8.45554     10.56943     11.11389        -0.020556     -0.020556     -0.093987
     10.56943      8.45554     11.11389        -1.031161     -0.035441     -0.525397
      8.45554     12.68331      9.00000         0.082359     -0.082306      0.468804
     10.56943     14.79720      9.00000         0.087386     -0.007808      0.509558
      8.45554     14.79720     11.11389         1.032204      0.035762     -0.526519
     10.56943     12.68331     11.11389         0.020675      0.020675     -0.093871
[...]
     19.02497      6.34166     11.11389        -0.036060      0.005499      0.429380
     16.91108      6.34166      9.00000        -0.068575      0.029188     -0.460414
     19.02497      4.22777      9.00000        -0.024464      0.012493     -0.469665
     16.91108      8.45554     11.11389        -0.085206     -0.026078      0.416642
     19.02497     10.56943     11.11389        -0.017023     -0.014065      0.423691
     16.91108     10.56943      9.00000        -0.042844     -0.050357     -0.473981
     19.02497      8.45554      9.00000        -0.034978     -0.004478     -0.471047
     16.91108     12.68331     11.11389        -0.002086     -0.040616      0.413372
     19.02497     14.79720     11.11389         0.018615     -0.003174      0.427204
     16.91108     14.79720      9.00000         0.012843     -0.011854     -0.478754
     19.02497     12.68331      9.00000         0.002641     -0.010287     -0.474512
     16.91108     16.91108     11.11389         0.018890      0.006610      0.426719
     19.02497     19.02497     11.11389         0.015440      0.001706      0.433124
     16.91108     19.02497      9.00000         0.008386      0.008386     -0.473251
     19.02497     16.91108      9.00000         0.020117     -0.001749     -0.472565
    total drift:                               -0.726568      0.730209     -0.237421

  FREE ENERGIE OF THE ION-ELECTRON SYSTEM (eV)
  free  energy   TOTEN  =     -1336.82449634 eV

  energy  without entropy=    -1336.82449634  energy(sigma->0) =    -1336.82449634