 vasp.6.3.0 20Jan22 (build Apr  1 2022 16:44:48) complex
 executed on        HPECrayEX_GCC date 2022.10.18  15:45:02

 INCAR:
   SYSTEM = MgO-rocksalt
   ISMEAR = 0
   SIGMA = 0.05
   EDIFF = 1E-6
   ALGO = ALL
   ISTART = 0
   IBRION = -1
   NSW = 0
   ISYM = 2
   DIPOL = 0.5 0.5 0.5
   IDIPOL = 3
   LDIPOL = .TRUE.
   LHFCALC = .TRUE.
   GGA = PE
   IVDW = 13
   VDW_S8 = 1.2007
   VDW_A1 = 0.4009
   VDW_A2 = 5.0293
   ENCUT = 520
   PREC = Accurate
   LASPH = .TRUE.
   LREAL = Auto
   ISPIN = 1
   NELM = 200
   NELMIN = 8
   NCORE = 4
   KPAR = 2
   LWAVE = .FALSE.
   LCHARG = .FALSE.

 POTCAR:    PAW_PBE Au 04Oct2007
 POTCAR:    PAW_PBE Mg_pv 13Apr2007
 POTCAR:    PAW_PBE O 08Apr2002
|           W    W    AA    RRRRR   N    N  II  N    N   GGGG   !!!           |
|           W    W   A  A   R    R  NN   N  II  NN   N  G    G  !!!           |
|           W    W  A    A  R    R  N N  N  II  N N  N  G       !!!           |
|           W WW W  AAAAAA  RRRRR   N  N N  II  N  N N  G  GGG   !            |
|           WW  WW  A    A  R   R   N   NN  II  N   NN  G    G                |
|           W    W  A    A  R    R  N    N  II  N    N   GGGG   !!!           |
|     You have selected ISYM=2 for a HF type calculation. This will           |
|     symmetrize the charge density but not the exchange potential. I         |
|     suggest to use ISYM=3 instead. This uses symmetry to obtain the         |
|     orbitals at all k-points in the Brillouin zone, but does not apply      |
|     symmetry to the Hartree potential directly. The resultant charge        |
|     might have lower symmetry than the crystal but, at least, Hartree       |
|     and exchange are fully compatible.                                      |

   TITEL  = PAW_PBE Au 04Oct2007
   POMASS =  196.966; ZVAL   =   11.000    mass and valenz
   ENMAX  =  229.943; ENMIN  =  172.457 eV

   TITEL  = PAW_PBE Mg_pv 13Apr2007
   POMASS =   24.305; ZVAL   =    8.000    mass and valenz
   ENMAX  =  403.929; ENMIN  =  302.947 eV

   TITEL  = PAW_PBE O 08Apr2002
   POMASS =   16.000; ZVAL   =    6.000    mass and valenz
   ENMAX  =  400.000; ENMIN  =  300.000 eV

 Optimization of the real space projectors (new method)

 maximal supplied QI-value         = 15.12
 optimisation between [QCUT,QGAM] = [ 11.64, 23.28] = [ 37.95,151.78] Ry
 Optimized for a Real-space Cutoff    1.49 Angstroem

   l    n(q)    QCUT    max X(q) W(low)/X(q) W(high)/X(q)  e(spline)
   2      9    11.641    60.898    0.24E-03    0.10E-03    0.19E-06
   2      9    11.641    58.894    0.25E-03    0.10E-03    0.19E-06
   0     10    11.641   109.617    0.73E-04    0.33E-04    0.11E-06
   0     10    11.641    75.026    0.71E-04    0.32E-04    0.11E-06
   1     10    11.641    16.344    0.27E-04    0.97E-04    0.16E-06
   1     10    11.641    10.160    0.23E-04    0.77E-04    0.13E-06
 Optimization of the real space projectors (new method)

[...]

   l    n(q)    QCUT    max X(q) W(low)/X(q) W(high)/X(q)  e(spline)
   1      8    11.527     2.974    0.44E-04    0.56E-04    0.12E-06
   1      8    11.527     4.279    0.12E-03    0.12E-03    0.26E-06
   0      9    11.527    16.381    0.46E-04    0.64E-04    0.78E-07
   0      9    11.527     5.611    0.26E-04    0.43E-04    0.55E-07
   2      8    11.527     4.652    0.22E-03    0.72E-04    0.47E-07
 Optimization of the real space projectors (new method)

 maximal supplied QI-value         = 24.76
 optimisation between [QCUT,QGAM] = [ 11.64, 23.27] = [ 37.91,151.63] Ry
 Optimized for a Real-space Cutoff    1.14 Angstroem

   l    n(q)    QCUT    max X(q) W(low)/X(q) W(high)/X(q)  e(spline)
   0      8    11.635    20.381    0.10E-03    0.33E-03    0.24E-06
   0      8    11.635    15.268    0.11E-03    0.35E-03    0.26E-06
   1      7    11.635     5.964    0.24E-03    0.31E-03    0.30E-06
   1      7    11.635     5.382    0.22E-03    0.25E-03    0.26E-06
  PAW_PBE Au 04Oct2007                  :
  PAW_PBE Mg_pv 13Apr2007               :
  PAW_PBE O 08Apr2002                   :

 POSCAR: Au Mg  O
  positions in direct lattice
|           W    W    AA    RRRRR   N    N  II  N    N   GGGG   !!!           |
|           W    W   A  A   R    R  NN   N  II  NN   N  G    G  !!!           |
|           W    W  A    A  R    R  N N  N  II  N N  N  G       !!!           |
|           W WW W  AAAAAA  RRRRR   N  N N  II  N  N N  G  GGG   !            |
|           WW  WW  A    A  R   R   N   NN  II  N   NN  G    G                |
|           W    W  A    A  R    R  N    N  II  N    N   GGGG   !!!           |
|     Specifying the vdW parameters                                           |
|     VDW_S8 = 1.201                                                          |
|     VDW_A1 = 0.401                                                          |
|     VDW_A2 = 5.029                                                          |
|     in the INCAR file will overwrite the defaults for pbe0. Please make     |
|     sure that is what you intended.                                         |

 ion  position               nearest neighbor table
   1  0.661  0.500  0.614-   2 2.57 172 2.59  73 2.77
   2  0.539  0.500  0.614-   1 2.57 152 2.59  73 2.77
   3  0.000  0.000  0.407- 105 2.11 106 2.11 121 2.11 186 2.11 103 2.11
   4  0.100  0.100  0.407- 105 2.11 106 2.11 110 2.11 125 2.11 104 2.11
   5  0.000  0.100  0.503- 103 2.11 104 2.11 107 2.11 184 2.11 105 2.11
   6  0.100  0.000  0.503- 103 2.11 104 2.11 120 2.11 123 2.11 106 2.11
   7  0.000  0.200  0.407- 109 2.11 105 2.11 110 2.11 190 2.11 107 2.11
   8  0.100  0.300  0.407- 110 2.11 109 2.11 114 2.11 129 2.11 108 2.11
   9  0.000  0.300  0.503- 107 2.11 108 2.11 111 2.11 188 2.11 109 2.11
  10  0.100  0.200  0.503- 108 2.11 107 2.11 104 2.11 127 2.11 110 2.11
  11  0.000  0.400  0.407- 109 2.11 113 2.11 114 2.11 194 2.11 111 2.11
  12  0.100  0.500  0.407- 113 2.11 114 2.11 118 2.11 133 2.11 112 2.11
  13  0.000  0.500  0.503- 111 2.11 112 2.11 115 2.11 192 2.11 113 2.11
  14  0.100  0.400  0.503- 108 2.11 111 2.11 112 2.11 131 2.11 114 2.11
  15  0.000  0.600  0.407- 113 2.11 117 2.11 118 2.11 198 2.11 115 2.11
  16  0.100  0.700  0.407- 122 2.11 118 2.11 117 2.11 137 2.11 116 2.11
  17  0.000  0.700  0.503- 119 2.11 116 2.11 115 2.11 196 2.11 117 2.11
  18  0.100  0.600  0.503- 112 2.11 115 2.11 116 2.11 135 2.11 118 2.11
  19  0.000  0.800  0.407- 117 2.11 121 2.11 122 2.11 202 2.11 119 2.11
  20  0.100  0.900  0.407- 106 2.11 121 2.11 122 2.11 141 2.11 120 2.11
  21  0.000  0.900  0.503- 103 2.11 119 2.11 120 2.11 200 2.11 121 2.11
  22  0.100  0.800  0.503- 116 2.11 119 2.11 120 2.11 139 2.11 122 2.11
  23  0.200  0.000  0.407- 126 2.11 125 2.11 106 2.11 141 2.11 123 2.11
  24  0.300  0.100  0.407- 125 2.11 126 2.11 130 2.11 145 2.11 124 2.11
  25  0.200  0.100  0.503- 124 2.11 123 2.11 104 2.11 127 2.11 125 2.11
  26  0.300  0.000  0.503- 123 2.11 124 2.11 140 2.11 143 2.11 126 2.11
  27  0.200  0.200  0.407- 129 2.11 130 2.11 110 2.11 125 2.11 127 2.11
  28  0.300  0.300  0.407- 129 2.11 130 2.11 134 2.11 149 2.11 128 2.11
  29  0.200  0.300  0.503- 127 2.11 128 2.11 108 2.11 131 2.11 129 2.11
  30  0.300  0.200  0.503- 127 2.11 128 2.11 124 2.11 147 2.11 130 2.11
  31  0.200  0.400  0.407- 134 2.11 129 2.11 133 2.11 114 2.11 131 2.11
  32  0.300  0.500  0.407- 133 2.11 134 2.11 138 2.11 153 2.11 132 2.11
  33  0.200  0.500  0.503- 132 2.11 131 2.11 112 2.11 135 2.11 133 2.11
  34  0.300  0.400  0.503- 131 2.11 128 2.11 132 2.11 151 2.11 134 2.11
  35  0.200  0.600  0.407- 138 2.11 133 2.11 137 2.11 118 2.11 135 2.11
  36  0.300  0.700  0.407- 137 2.11 142 2.11 138 2.11 157 2.11 136 2.11
  37  0.200  0.700  0.503- 136 2.11 139 2.11 116 2.11 135 2.11 137 2.11
  38  0.300  0.600  0.503- 135 2.11 132 2.11 136 2.11 155 2.11 138 2.11
  39  0.200  0.800  0.407- 137 2.11 142 2.11 141 2.11 122 2.11 139 2.11
  40  0.300  0.900  0.407- 141 2.11 126 2.11 142 2.11 161 2.11 140 2.11
  41  0.200  0.900  0.503- 140 2.11 123 2.11 139 2.11 120 2.11 141 2.11
  42  0.300  0.800  0.503- 136 2.11 139 2.11 140 2.11 159 2.11 142 2.11
  43  0.400  0.000  0.407- 126 2.11 145 2.11 146 2.11 161 2.11 143 2.11
  44  0.500  0.100  0.407- 145 2.11 146 2.11 150 2.11 165 2.11 144 2.11
  45  0.400  0.100  0.503- 124 2.11 143 2.11 144 2.11 147 2.11 145 2.11
  46  0.500  0.000  0.503- 143 2.11 144 2.11 160 2.11 163 2.11 146 2.11
  47  0.400  0.200  0.407- 149 2.11 145 2.11 130 2.11 150 2.11 147 2.11
  48  0.500  0.300  0.407- 150 2.11 149 2.11 154 2.11 169 2.11 148 2.11
  49  0.400  0.300  0.503- 147 2.11 128 2.11 148 2.11 151 2.11 149 2.11
  50  0.500  0.200  0.503- 148 2.11 147 2.11 144 2.11 167 2.11 150 2.11
  51  0.400  0.400  0.407- 134 2.11 149 2.11 153 2.11 154 2.11 151 2.11
  52  0.500  0.500  0.407- 153 2.11 154 2.11 158 2.11 173 2.11 152 2.11
  53  0.400  0.500  0.503- 132 2.11 151 2.11 152 2.11 155 2.11 153 2.11
  54  0.500  0.400  0.503- 148 2.11 151 2.11 152 2.11 171 2.11 154 2.11
  55  0.400  0.600  0.407- 138 2.11 153 2.11 157 2.11 158 2.11 155 2.11
  56  0.500  0.700  0.407- 162 2.11 158 2.11 157 2.11 177 2.11 156 2.11
  57  0.400  0.700  0.503- 159 2.11 155 2.11 156 2.11 136 2.11 157 2.11
  58  0.500  0.600  0.503- 152 2.11 155 2.11 156 2.11 175 2.11 158 2.11
  59  0.400  0.800  0.407- 157 2.11 142 2.11 161 2.11 162 2.11 159 2.11
  60  0.500  0.900  0.407- 146 2.11 161 2.11 162 2.11 181 2.11 160 2.11
[...]
 188  0.900  0.300  0.503-  90 2.11  89 2.11   9 2.11  94 2.11  88 2.11
 189  0.800  0.300  0.407-  68 2.11  87 2.11  88 2.11  91 2.11  89 2.11
 190  0.900  0.200  0.407-  88 2.11  84 2.11  87 2.11   7 2.11  90 2.11
 191  0.800  0.400  0.503-  74 2.11  89 2.11  93 2.11  94 2.11  91 2.11
 192  0.900  0.500  0.503-  13 2.11  93 2.11  94 2.11  98 2.11  92 2.11
 193  0.800  0.500  0.407-  72 2.11  91 2.11  92 2.11  95 2.11  93 2.11
 194  0.900  0.400  0.407-  11 2.11  88 2.11  91 2.11  92 2.11  94 2.11
 195  0.800  0.600  0.503-  78 2.11  93 2.11  97 2.11  98 2.11  95 2.11
 196  0.900  0.700  0.503- 102 2.11  97 2.11  98 2.11  17 2.11  96 2.11
 197  0.800  0.700  0.407-  76 2.11  99 2.11  96 2.11  95 2.11  97 2.11
 198  0.900  0.600  0.407-  15 2.11  92 2.11  95 2.11  96 2.11  98 2.11
 199  0.800  0.800  0.503-  82 2.11  97 2.11 101 2.11 102 2.11  99 2.11
 200  0.900  0.900  0.503-  21 2.11  86 2.11 101 2.11 102 2.11 100 2.11
 201  0.800  0.900  0.407-  80 2.11  83 2.11  99 2.11 100 2.11 101 2.11
 202  0.900  0.800  0.407-  96 2.11  19 2.11  99 2.11 100 2.11 102 2.11

  LATTYP: Found a simple tetragonal cell.
 ALAT       =    21.1388521970
 C/A-ratio  =     1.0461251639

  Lattice vectors:

 A1 = (  21.1388521970,   0.0000000000,   0.0000000000)
 A2 = (   0.0000000000,  21.1388521970,   0.0000000000)
 A3 = (   0.0000000000,   0.0000000000,  22.1138852197)

Analysis of symmetry for initial positions (statically):
 Subroutine PRICEL returns:
 Original cell was already a primitive cell.

 Routine SETGRP: Setting up the symmetry group for a
 simple tetragonal supercell.

 Subroutine GETGRP returns: Found  4 space group operations
 (whereof  2 operations were pure point group operations)
 out of a pool of 16 trial point group operations.

The static configuration has the point symmetry C_1h.
[...]
     22     -47.0581      2.00000
     23     -47.0542      2.00000
     24     -47.0541      2.00000
     25     -47.0405      2.00000
     26     -47.0404      2.00000
     27     -47.0382      2.00000
     28     -47.0380      2.00000
     29     -47.0313      2.00000
     30     -47.0283      2.00000
     31     -47.0282      2.00000
     32     -47.0282      2.00000
     33     -47.0281      2.00000
     34     -47.0265      2.00000
     35     -47.0254      2.00000
     36     -47.0231      2.00000
     37     -47.0216      2.00000
     38     -47.0214      2.00000
     39     -47.0214      2.00000
     40     -47.0214      2.00000
     41     -47.0197      2.00000
     42     -47.0166      2.00000
     43     -47.0160      2.00000
     44     -47.0138      2.00000
     45     -47.0126      2.00000
     46     -47.0125      2.00000
     47     -47.0124      2.00000
     48     -47.0119      2.00000
     49     -47.0116      2.00000
     50     -47.0075      2.00000
     51     -47.0069      2.00000
     52     -47.0067      2.00000
     53     -47.0065      2.00000
     54     -47.0064      2.00000
     55     -47.0060      2.00000
     56     -47.0059      2.00000
     57     -47.0056      2.00000
     58     -47.0040      2.00000
     59     -47.0038      2.00000
     60     -47.0027      2.00000
[...]
    946       6.6491      0.00000
    947       6.6673      0.00000
    948       6.7237      0.00000
    949       6.7476      0.00000
    950       6.7823      0.00000
    951       6.8530      0.00000
    952       6.9791      0.00000
    953       7.0585      0.00000
    954       7.0614      0.00000
    955       7.1485      0.00000
    956       7.2059      0.00000
    957       7.2634      0.00000
    958       7.4640      0.00000
    959       7.4964      0.00000
    960       7.6245      0.00000

 soft charge-density along one line, spin component           1
         0         1         2         3         4         5         6         7         8         9
 total charge-density along one line

------------------------ aborting loop because EDIFF is reached ----------------------------------------

 VOLUME and BASIS-vectors are now :
  energy-cutoff  :      520.00
  volume of cell :     9881.61
      direct lattice vectors                 reciprocal lattice vectors
    21.138852197  0.000000000  0.000000000     0.047306258  0.000000000  0.000000000
     0.000000000 21.138852197  0.000000000     0.000000000  0.047306258  0.000000000
     0.000000000  0.000000000 22.113885220     0.000000000  0.000000000  0.045220457

  length of vectors
    21.138852197 21.138852197 22.113885220     0.047306258  0.047306258  0.045220457

 FORCES acting on ions:
    Electron-Ion                     Ewald-Force                    Non-Local-Force
   -.271E+03 -.140E-05 -.213E+04   0.264E+03 0.167E-07 0.213E+04   0.660E+01 0.000E+00 -.800E+00
   0.271E+03 -.104E-05 -.213E+04   -.264E+03 0.167E-07 0.213E+04   -.660E+01 0.000E+00 -.800E+00
   -.334E+01 0.484E-06 0.932E+03   0.333E+01 0.847E-08 -.923E+03   0.374E-02 0.000E+00 -.710E+01
   -.184E-03 0.373E+01 0.932E+03   -.146E-05 -.375E+01 -.923E+03   0.000E+00 0.129E-01 -.710E+01
   -.483E+01 0.534E+01 -.923E+03   0.482E+01 -.536E+01 0.915E+03   0.547E-02 0.145E-01 0.706E+01
   -.184E-03 0.482E-06 -.924E+03   -.150E-05 0.890E-08 0.915E+03   0.000E+00 0.000E+00 0.706E+01
   -.565E+01 0.749E+01 0.934E+03   0.565E+01 -.753E+01 -.926E+03   -.221E-02 0.279E-01 -.710E+01
   -.182E-03 0.677E+01 0.935E+03   -.302E-05 -.681E+01 -.926E+03   0.000E+00 0.249E-01 -.710E+01
   -.117E+02 0.108E+02 -.920E+03   0.117E+02 -.109E+02 0.911E+03   -.160E-01 0.318E-01 0.706E+01
   -.183E-03 0.778E+01 -.923E+03   -.268E-05 -.781E+01 0.914E+03   0.339E-20 0.217E-01 0.706E+01
   -.112E+02 0.557E+01 0.939E+03   0.113E+02 -.560E+01 -.931E+03   -.414E-01 0.231E-01 -.710E+01
   -.181E-03 0.495E-06 0.937E+03   -.440E-05 -.915E-08 -.929E+03   0.000E+00 0.000E+00 -.710E+01
   -.189E+02 0.462E-06 -.917E+03   0.190E+02 -.161E-07 0.908E+03   -.598E-01 0.000E+00 0.706E+01
   -.180E-03 0.562E+01 -.920E+03   -.565E-05 -.565E+01 0.912E+03   -.339E-20 0.161E-01 0.706E+01
   -.112E+02 -.557E+01 0.939E+03   0.113E+02 0.560E+01 -.931E+03   -.414E-01 -.231E-01 -.710E+01
   -.182E-03 -.677E+01 0.935E+03   -.302E-05 0.681E+01 -.926E+03   0.000E+00 -.249E-01 -.710E+01
   -.117E+02 -.108E+02 -.920E+03   0.117E+02 0.109E+02 0.911E+03   -.160E-01 -.318E-01 0.706E+01
   -.180E-03 -.562E+01 -.920E+03   -.565E-05 0.565E+01 0.912E+03   -.339E-20 -.161E-01 0.706E+01
   -.565E+01 -.749E+01 0.934E+03   0.565E+01 0.753E+01 -.926E+03   -.221E-02 -.279E-01 -.710E+01
   -.184E-03 -.373E+01 0.932E+03   -.146E-05 0.375E+01 -.923E+03   0.000E+00 -.129E-01 -.710E+01
   -.483E+01 -.534E+01 -.923E+03   0.482E+01 0.536E+01 0.915E+03   0.547E-02 -.145E-01 0.706E+01
   -.183E-03 -.778E+01 -.923E+03   -.268E-05 0.781E+01 0.914E+03   0.339E-20 -.217E-01 0.706E+01
   0.334E+01 0.482E-06 0.932E+03   -.333E+01 0.847E-08 -.923E+03   -.374E-02 0.000E+00 -.710E+01
   0.666E+01 0.599E+01 0.934E+03   -.665E+01 -.602E+01 -.925E+03   -.651E-02 0.196E-01 -.710E+01
   0.483E+01 0.534E+01 -.923E+03   -.482E+01 -.536E+01 0.915E+03   -.547E-02 0.145E-01 0.706E+01
   0.678E+01 0.477E-06 -.923E+03   -.676E+01 0.148E-07 0.914E+03   -.100E-01 0.000E+00 0.706E+01
   0.565E+01 0.749E+01 0.934E+03   -.565E+01 -.753E+01 -.926E+03   0.221E-02 0.279E-01 -.710E+01
   0.159E+02 0.131E+02 0.942E+03   -.159E+02 -.132E+02 -.933E+03   0.232E-01 0.626E-01 -.710E+01
   0.117E+02 0.108E+02 -.920E+03   -.117E+02 -.109E+02 0.911E+03   0.160E-01 0.318E-01 0.706E+01
   0.136E+02 0.150E+02 -.920E+03   -.136E+02 -.150E+02 0.911E+03   -.136E-01 0.444E-01 0.705E+01
   0.112E+02 0.557E+01 0.939E+03   -.113E+02 -.560E+01 -.931E+03   0.414E-01 0.231E-01 -.710E+01
   0.260E+02 0.548E-06 0.951E+03   -.262E+02 -.210E-07 -.942E+03   0.156E+00 0.000E+00 -.711E+01
   0.189E+02 0.537E-06 -.917E+03   -.190E+02 -.161E-07 0.908E+03   0.598E-01 0.000E+00 0.706E+01
   0.378E+02 0.157E+02 -.908E+03   -.380E+02 -.157E+02 0.900E+03   0.118E+00 0.518E-01 0.706E+01
   0.112E+02 -.557E+01 0.939E+03   -.113E+02 0.560E+01 -.931E+03   0.414E-01 -.231E-01 -.710E+01
   0.159E+02 -.131E+02 0.942E+03   -.159E+02 0.132E+02 -.933E+03   0.232E-01 -.626E-01 -.710E+01
   0.117E+02 -.108E+02 -.920E+03   -.117E+02 0.109E+02 0.911E+03   0.160E-01 -.318E-01 0.706E+01
   0.378E+02 -.157E+02 -.908E+03   -.380E+02 0.157E+02 0.900E+03   0.118E+00 -.518E-01 0.706E+01
   0.565E+01 -.749E+01 0.934E+03   -.565E+01 0.753E+01 -.926E+03   0.221E-02 -.279E-01 -.710E+01
   0.666E+01 -.599E+01 0.934E+03   -.665E+01 0.602E+01 -.925E+03   -.651E-02 -.196E-01 -.710E+01
   0.483E+01 -.534E+01 -.923E+03   -.482E+01 0.536E+01 0.915E+03   -.547E-02 -.145E-01 0.706E+01
   0.136E+02 -.150E+02 -.920E+03   -.136E+02 0.150E+02 0.911E+03   -.136E-01 -.444E-01 0.705E+01
   0.583E+01 0.476E-06 0.934E+03   -.582E+01 0.160E-07 -.926E+03   -.828E-02 0.000E+00 -.711E+01
   0.464E+01 0.109E+02 0.938E+03   -.463E+01 -.109E+02 -.929E+03   -.694E-02 0.185E-01 -.711E+01
   0.910E+01 0.116E+02 -.921E+03   -.908E+01 -.116E+02 0.912E+03   -.144E-01 0.127E-01 0.705E+01
   0.462E+01 0.468E-06 -.921E+03   -.461E+01 0.276E-07 0.912E+03   -.797E-02 0.000E+00 0.705E+01
   0.114E+02 0.165E+02 0.941E+03   -.114E+02 -.166E+02 -.933E+03   -.986E-02 0.612E-01 -.712E+01
   0.146E+02 0.322E+02 0.963E+03   -.146E+02 -.324E+02 -.954E+03   -.178E-01 0.181E+00 -.718E+01
   0.332E+02 0.378E+02 -.904E+03   -.331E+02 -.380E+02 0.896E+03   -.575E-01 0.167E+00 0.703E+01
   0.116E+02 0.351E+02 -.911E+03   -.116E+02 -.351E+02 0.903E+03   -.229E-01 0.810E-02 0.703E+01
   0.311E+02 0.181E+02 0.966E+03   -.312E+02 -.183E+02 -.958E+03   0.871E-01 0.137E+00 -.705E+01
   0.316E+02 0.659E-06 0.101E+04   -.317E+02 -.741E-07 -.100E+04   0.796E-01 0.000E+00 -.603E+01
   0.915E+02 0.740E-06 -.860E+03   -.928E+02 -.109E-06 0.851E+03   0.797E+00 0.000E+00 0.717E+01
   0.678E+02 0.940E+02 -.815E+03   -.674E+02 -.953E+02 0.807E+03   -.262E+00 0.872E+00 0.675E+01
   0.311E+02 -.181E+02 0.966E+03   -.312E+02 0.183E+02 -.958E+03   0.871E-01 -.137E+00 -.705E+01
   0.146E+02 -.322E+02 0.963E+03   -.146E+02 0.324E+02 -.954E+03   -.178E-01 -.181E+00 -.718E+01
   0.332E+02 -.378E+02 -.904E+03   -.331E+02 0.380E+02 0.896E+03   -.575E-01 -.167E+00 0.703E+01
   0.678E+02 -.940E+02 -.815E+03   -.674E+02 0.953E+02 0.807E+03   -.262E+00 -.872E+00 0.675E+01
   0.114E+02 -.165E+02 0.941E+03   -.114E+02 0.166E+02 -.933E+03   -.986E-02 -.612E-01 -.712E+01
   0.464E+01 -.109E+02 0.938E+03   -.463E+01 0.109E+02 -.929E+03   -.694E-02 -.185E-01 -.711E+01
[...]
   -.148E+02 0.164E+02 0.715E+03   0.148E+02 -.165E+02 -.719E+03   -.130E-01 0.118E+00 0.307E+01
   -.754E+01 0.824E+01 0.704E+03   0.754E+01 -.828E+01 -.708E+03   -.287E-02 0.415E-01 0.308E+01
   -.495E+02 0.299E+02 -.661E+03   0.496E+02 -.302E+02 0.665E+03   -.184E+00 0.332E+00 -.316E+01
   -.343E+02 0.231E-05 -.680E+03   0.344E+02 -.268E-07 0.684E+03   -.134E+00 0.000E+00 -.315E+01
   -.280E+02 0.232E-05 0.732E+03   0.283E+02 -.316E-07 -.736E+03   -.279E+00 0.000E+00 0.330E+01
   -.170E+02 0.721E+01 0.712E+03   0.171E+02 -.727E+01 -.716E+03   -.845E-01 0.700E-01 0.310E+01
   -.495E+02 -.299E+02 -.661E+03   0.496E+02 0.302E+02 0.665E+03   -.184E+00 -.332E+00 -.316E+01
   -.179E+02 -.145E+02 -.687E+03   0.179E+02 0.146E+02 0.691E+03   -.373E-01 -.827E-01 -.315E+01
   -.148E+02 -.164E+02 0.715E+03   0.148E+02 0.165E+02 -.719E+03   -.130E-01 -.118E+00 0.307E+01
   -.170E+02 -.721E+01 0.712E+03   0.171E+02 0.727E+01 -.716E+03   -.845E-01 -.700E-01 0.310E+01
   -.122E+02 -.183E+02 -.688E+03   0.122E+02 0.184E+02 0.692E+03   0.278E-01 -.322E-01 -.317E+01
   -.626E+01 -.586E+01 -.693E+03   0.625E+01 0.587E+01 0.697E+03   0.102E-01 -.140E-01 -.314E+01
   -.533E+01 -.636E+01 0.703E+03   0.532E+01 0.638E+01 -.707E+03   0.984E-02 -.170E-01 0.307E+01
   -.754E+01 -.824E+01 0.704E+03   0.754E+01 0.828E+01 -.708E+03   -.287E-02 -.415E-01 0.308E+01
   -.109E+00 0.285E-03 0.104E+02   0.128E-11 0.734E-12 0.284E-11   0.272E-15 0.278E-16 -.965E+01

 POSITION                                       TOTAL-FORCE (eV/Angst)
     13.96710     10.56943     13.56860        -0.098178      0.000000      0.049621
     11.39952     10.56943     13.56860         0.098178      0.000000      0.049621
      0.00000      0.00000      9.00000        -0.001179      0.000000      0.580592
      2.11389      2.11389      9.00000         0.000000     -0.004165      0.580258
      0.00000      2.11389     11.11389        -0.001727     -0.004528     -0.565062
      2.11389      0.00000     11.11389         0.000000      0.000000     -0.565929
      0.00000      4.22777      9.00000         0.000850     -0.008997      0.580088
      2.11389      6.34166      9.00000         0.000000     -0.008217      0.579906
      0.00000      6.34166     11.11389         0.004771     -0.010387     -0.562901
      2.11389      4.22777     11.11389         0.000000     -0.006995     -0.564664
      0.00000      8.45554      9.00000         0.012747     -0.007843      0.579702
      2.11389     10.56943      9.00000         0.000000      0.000000      0.579983
      0.00000     10.56943     11.11389         0.017303      0.000000     -0.562182
      2.11389      8.45554     11.11389         0.000000     -0.005368     -0.563381
      0.00000     12.68331      9.00000         0.012747      0.007843      0.579702
      2.11389     14.79720      9.00000         0.000000      0.008217      0.579906
      0.00000     14.79720     11.11389         0.004771      0.010387     -0.562901
      2.11389     12.68331     11.11389         0.000000      0.005368     -0.563381
      0.00000     16.91108      9.00000         0.000850      0.008997      0.580088
      2.11389     19.02497      9.00000         0.000000      0.004165      0.580258
      0.00000     19.02497     11.11389        -0.001727      0.004528     -0.565062
      2.11389     16.91108     11.11389         0.000000      0.006995     -0.564664
      4.22777      0.00000      9.00000         0.001179      0.000000      0.580592
      6.34166      2.11389      9.00000         0.002116     -0.006008      0.581305
      4.22777      2.11389     11.11389         0.001727     -0.004528     -0.565062
      6.34166      0.00000     11.11389         0.003296      0.000000     -0.564500
      4.22777      4.22777      9.00000        -0.000850     -0.008997      0.580088
      6.34166      6.34166      9.00000        -0.008225     -0.020648      0.578910
      4.22777      6.34166     11.11389        -0.004771     -0.010387     -0.562901
      6.34166      4.22777     11.11389         0.004299     -0.013406     -0.561639
      4.22777      8.45554      9.00000        -0.012747     -0.007843      0.579702
      6.34166     10.56943      9.00000        -0.045861      0.000000      0.579118
      4.22777     10.56943     11.11389        -0.017303      0.000000     -0.562182
      6.34166      8.45554     11.11389        -0.034421     -0.017456     -0.558037
      4.22777     12.68331      9.00000        -0.012747      0.007843      0.579702
      6.34166     14.79720      9.00000        -0.008225      0.020648      0.578910
      4.22777     14.79720     11.11389        -0.004771      0.010387     -0.562901
      6.34166     12.68331     11.11389        -0.034421      0.017456     -0.558037
      4.22777     16.91108      9.00000        -0.000850      0.008997      0.580088
      6.34166     19.02497      9.00000         0.002116      0.006008      0.581305
      4.22777     19.02497     11.11389         0.001727      0.004528     -0.565062
      6.34166     16.91108     11.11389         0.004299      0.013406     -0.561639
      8.45554      0.00000      9.00000         0.002793      0.000000      0.581869
     10.56943      2.11389      9.00000         0.002460     -0.005583      0.583755
      8.45554      2.11389     11.11389         0.004923     -0.003506     -0.561835
     10.56943      0.00000     11.11389         0.002757      0.000000     -0.562199
      8.45554      4.22777      9.00000         0.003472     -0.018232      0.585118
     10.56943      6.34166      9.00000         0.008576     -0.050839      0.604815
      8.45554      6.34166     11.11389         0.021642     -0.046592     -0.544319
     10.56943      4.22777     11.11389         0.008782      0.000900     -0.549382
      8.45554      8.45554      9.00000        -0.033741     -0.050659      0.559418
     10.56943     10.56943      9.00000        -0.010308      0.000000      0.291454
      8.45554     10.56943     11.11389        -0.293878      0.000000     -0.601340
     10.56943      8.45554     11.11389         0.121657     -0.317916     -0.436765
      8.45554     12.68331      9.00000        -0.033741      0.050659      0.559418
     10.56943     14.79720      9.00000         0.008576      0.050839      0.604815
      8.45554     14.79720     11.11389         0.021642      0.046592     -0.544319
     10.56943     12.68331     11.11389         0.121657      0.317916     -0.436765
      8.45554     16.91108      9.00000         0.003472      0.018232      0.585118
     10.56943     19.02497      9.00000         0.002460      0.005583      0.583755
[...]
     19.02497      6.34166     11.11389        -0.012859      0.027809      0.387147
     16.91108      6.34166      9.00000        -0.004508      0.039991     -0.409153
     19.02497      4.22777      9.00000        -0.000973      0.013809     -0.408800
     16.91108      8.45554     11.11389        -0.071313      0.115868      0.394743
     19.02497     10.56943     11.11389        -0.047200      0.000000      0.389713
     16.91108     10.56943      9.00000        -0.104799      0.000000     -0.335221
     19.02497      8.45554      9.00000        -0.028428      0.023145     -0.402714
     16.91108     12.68331     11.11389        -0.071313     -0.115868      0.394743
     19.02497     14.79720     11.11389        -0.012859     -0.027809      0.387147
     16.91108     14.79720      9.00000        -0.004508     -0.039991     -0.409153
     19.02497     12.68331      9.00000        -0.028428     -0.023145     -0.402714
     16.91108     16.91108     11.11389         0.008961     -0.011119      0.383054
     19.02497     19.02497     11.11389         0.003353     -0.004703      0.390757
     16.91108     19.02497      9.00000         0.003232     -0.005691     -0.409907
     19.02497     16.91108      9.00000        -0.000973     -0.013809     -0.408800
    total drift:                               -0.108733      0.000285     -0.530633

  FREE ENERGIE OF THE ION-ELECTRON SYSTEM (eV)
  free  energy   TOTEN  =     -1441.44072561 eV

  energy  without entropy=    -1441.44072561  energy(sigma->0) =    -1441.44072561