 vasp.6.4.1 05Apr23 (build May 06 2023 19:47:20) complex

 executed on             LinuxIFC date 2023.05.12  14:21:45

 INCAR:
   SYSTEM = MgO-rocksalt
   ISMEAR = 0
   SIGMA = 0.05
   EDIFF = 1E-4
   ALGO = ALL
   ISTART = 0
   IBRION = -1
   NSW = 0
   ISYM = 3
   DIPOL = 0.5 0.5 0.5
   IDIPOL = 3
   LDIPOL = .TRUE.
   LHFCALC = .TRUE.
   HFSCREEN = 0.2
   GGA = PE
   IVDW = 13
   VDW_S8 = 1.19528249
   VDW_A1 = 0.38663183
   VDW_A2 = 5.19133469
   ENCUT = 520
   PREC = Normal
   LASPH = .TRUE.
   LREAL = Auto
   ISPIN = 1
   NELM = 200
   NELMIN = 8
   NCORE = 16
   KPAR = 1
   LWAVE = .FALSE.
   LCHARG = .FALSE.

 POTCAR:    PAW_PBE Au 04Oct2007
 POTCAR:    PAW_PBE Mg_pv 13Apr2007
 POTCAR:    PAW_PBE O 08Apr2002
 POTCAR:    PAW_PBE Au 04Oct2007
   VRHFIN =Au: s1d10

   TITEL  = PAW_PBE Au 04Oct2007
   POMASS =  196.966; ZVAL   =   11.000    mass and valenz
   ENMAX  =  229.943; ENMIN  =  172.457 eV

   TITEL  = PAW_PBE Mg_pv 13Apr2007
   POMASS =   24.305; ZVAL   =    8.000    mass and valenz
   ENMAX  =  403.929; ENMIN  =  302.947 eV

   TITEL  = PAW_PBE O 08Apr2002
   POMASS =   16.000; ZVAL   =    6.000    mass and valenz
   ENMAX  =  400.000; ENMIN  =  300.000 eV

 Optimization of the real space projectors (new method)

 maximal supplied QI-value         = 15.12
 optimisation between [QCUT,QGAM] = [ 11.64, 23.28] = [ 37.95,151.78] Ry
 Optimized for a Real-space Cutoff    1.36 Angstroem

   l    n(q)    QCUT    max X(q) W(low)/X(q) W(high)/X(q)  e(spline)
   2      9    11.641    60.898    0.44E-03    0.10E-02    0.32E-06
   2      9    11.641    58.894    0.45E-03    0.11E-02    0.32E-06
   0      9    11.641   109.617    0.19E-03    0.78E-04    0.11E-06
   0      9    11.641    75.026    0.19E-03    0.76E-04    0.10E-06
   1      9    11.641    16.344    0.43E-03    0.28E-03    0.32E-06
   1      9    11.641    10.160    0.36E-03    0.22E-03    0.26E-06
 Optimization of the real space projectors (new method)

[...]

   l    n(q)    QCUT    max X(q) W(low)/X(q) W(high)/X(q)  e(spline)
   1      8    11.527     2.974    0.16E-03    0.13E-03    0.98E-07
   1      8    11.527     4.279    0.42E-03    0.30E-03    0.22E-06
   0      8    11.527    16.381    0.13E-03    0.20E-03    0.72E-07
   0      8    11.527     5.611    0.88E-04    0.13E-03    0.50E-07
   2      7    11.527     4.652    0.25E-03    0.73E-04    0.51E-07
 Optimization of the real space projectors (new method)

 maximal supplied QI-value         = 24.76
 optimisation between [QCUT,QGAM] = [ 11.64, 23.27] = [ 37.91,151.63] Ry
 Optimized for a Real-space Cutoff    1.04 Angstroem

   l    n(q)    QCUT    max X(q) W(low)/X(q) W(high)/X(q)  e(spline)
   0      7    11.635    20.381    0.14E-03    0.49E-03    0.18E-06
   0      7    11.635    15.268    0.16E-03    0.52E-03    0.19E-06
   1      7    11.635     5.964    0.30E-03    0.44E-03    0.22E-06
   1      7    11.635     5.382    0.27E-03    0.34E-03    0.19E-06
  PAW_PBE Au 04Oct2007                  :
  PAW_PBE Mg_pv 13Apr2007               :
  PAW_PBE O 08Apr2002                   :

 POSCAR: Mg  O
  positions in direct lattice
  velocities in cartesian coordinates
|           W    W    AA    RRRRR   N    N  II  N    N   GGGG   !!!           |
|           W    W   A  A   R    R  NN   N  II  NN   N  G    G  !!!           |
|           W    W  A    A  R    R  N N  N  II  N N  N  G       !!!           |
|           W WW W  AAAAAA  RRRRR   N  N N  II  N  N N  G  GGG   !            |
|           WW  WW  A    A  R   R   N   NN  II  N   NN  G    G                |
|           W    W  A    A  R    R  N    N  II  N    N   GGGG   !!!           |
|     Specifying the vdW parameters                                           |
|     VDW_S8 = 1.195                                                          |
|     VDW_A1 = 0.387                                                          |
|     VDW_A2 = 5.191                                                          |
|     in the INCAR file will overwrite the defaults for hse06. Please         |
|     make sure that is what you intended.                                    |

 ion  position               nearest neighbor table
   1  0.525  0.447  0.604-   9 2.67   5 2.69   6 2.74  10 2.79   2 2.83
   2  0.392  0.462  0.611-  10 2.68   6 2.70   7 2.71   3 2.74  11 2.75   1 2.83
   3  0.263  0.476  0.611-   8 2.71   4 2.74   2 2.74  12 2.74  11 2.75   7 2.76
   4  0.142  0.488  0.581- 230 2.54  12 2.68   3 2.74   8 2.75  51 2.76
   5  0.597  0.552  0.599-   1 2.69  13 2.70   6 2.73  14 2.76
   6  0.469  0.564  0.610-   7 2.70   2 2.70   5 2.73   1 2.74  14 2.75  15 2.77
   7  0.342  0.580  0.615-  16 2.70   6 2.70   2 2.71   8 2.75   3 2.76  15 2.77
   8  0.223  0.590  0.580- 253 2.44   3 2.71  16 2.73   7 2.75   4 2.75  56 2.95
   9  0.567  0.328  0.608-  17 2.66   1 2.67  10 2.67  18 2.84
  10  0.441  0.345  0.606-   9 2.67  11 2.67   2 2.68  18 2.72   1 2.79  19 2.83
  11  0.316  0.357  0.606-  10 2.67  19 2.71  12 2.72   2 2.75   3 2.75  20 2.78
  12  0.189  0.372  0.596-  20 2.66   4 2.68  11 2.72   3 2.74
  13  0.664  0.657  0.580- 294 2.61  14 2.66   5 2.70  96 2.83  95 2.91
  14  0.542  0.671  0.600-  15 2.63  13 2.66   6 2.75   5 2.76
  15  0.420  0.685  0.613-  14 2.63  16 2.66   7 2.77   6 2.77
  16  0.306  0.688  0.576- 254 2.29  15 2.66   7 2.70   8 2.73  56 2.97  75 3.04
  17  0.590  0.216  0.572- 285 2.19  18 2.62   9 2.66  87 2.86  68 2.93
  18  0.483  0.224  0.615-  17 2.62  19 2.63  10 2.72   9 2.84
  19  0.361  0.238  0.599-  18 2.63  20 2.71  11 2.71  10 2.83
  20  0.235  0.255  0.591-  12 2.66  19 2.71  11 2.78  47 2.95
  21  0.000  0.000  0.430- 223 2.11 224 2.11 304 2.11 239 2.12 321 2.12 221 2.13
  22  0.100  0.100  0.430- 243 2.11 228 2.11 223 2.11 224 2.12 322 2.12 222 2.13
  23  1.000  0.100  0.500- 223 2.11 222 2.11 302 2.11 225 2.11 221 2.11
  24  0.100  0.000  0.500- 224 2.11 222 2.11 221 2.11 238 2.11 241 2.11
  25  0.000  0.200  0.430- 228 2.11 308 2.11 223 2.11 227 2.12 325 2.12 225 2.13
  26  0.100  0.300  0.430- 247 2.10 228 2.11 227 2.12 326 2.12 232 2.13 226 2.13
  27  1.000  0.300  0.500- 306 2.11 227 2.11 226 2.11 225 2.11 229 2.12
  28  0.100  0.200  0.500- 225 2.11 228 2.11 226 2.11 222 2.11 245 2.11
  29  1.000  0.400  0.430- 232 2.11 227 2.11 312 2.11 231 2.12 329 2.12 229 2.13
  30  0.100  0.500  0.429- 232 2.10 251 2.10 231 2.11 330 2.11 236 2.12 230 2.19
  31  0.998  0.500  0.500- 310 2.08 231 2.11 229 2.11 230 2.12 233 2.12
  32  0.100  0.398  0.500- 226 2.09 229 2.11 232 2.11 249 2.12 230 2.16
  33  1.000  0.600  0.430- 316 2.11 231 2.11 235 2.11 333 2.12 236 2.12 233 2.14
  34  0.099  0.700  0.430- 235 2.10 240 2.11 334 2.12 255 2.12 236 2.12 234 2.14
  35  0.999  0.701  0.500- 314 2.10 235 2.11 237 2.11 234 2.11 233 2.12
  36  0.098  0.601  0.500- 233 2.08 234 2.10 236 2.10 253 2.12 230 2.13
  37  1.000  0.800  0.430- 239 2.11 320 2.11 240 2.12 337 2.12 235 2.12 237 2.13
  38  0.100  0.900  0.430- 224 2.11 239 2.11 259 2.11 338 2.12 240 2.12 238 2.13
  39  1.000  0.900  0.500- 239 2.10 221 2.11 318 2.11 238 2.11 237 2.12
  40  0.099  0.801  0.500- 238 2.10 237 2.10 240 2.11 257 2.12 234 2.12
  41  0.200  0.000  0.430- 243 2.11 244 2.11 224 2.11 259 2.12 341 2.12 241 2.13
  42  0.300  0.100  0.430- 248 2.10 243 2.12 263 2.12 244 2.12 342 2.12 242 2.13
  43  0.200  0.100  0.500- 241 2.11 245 2.11 243 2.11 242 2.11 222 2.12
  44  0.300  0.000  0.500- 242 2.10 258 2.10 244 2.11 261 2.12 241 2.12
  45  0.200  0.200  0.430- 248 2.10 247 2.10 243 2.12 228 2.12 345 2.12 245 2.15
  46  0.300  0.300  0.430- 246 2.08 267 2.11 252 2.12 248 2.12 346 2.12 247 2.13
  47  0.200  0.300  0.501- 249 2.11 246 2.12 245 2.13 226 2.13 247 2.14  20 2.95
  48  0.300  0.200  0.501- 265 2.10 246 2.12 242 2.12 245 2.13 248 2.14
  49  0.200  0.399  0.429- 249 2.08 252 2.11 247 2.11 349 2.11 232 2.13 251 2.14
  50  0.301  0.499  0.430- 271 2.10 252 2.10 250 2.10 350 2.11 256 2.14 251 2.14
  51  0.202  0.498  0.500- 250 2.07 249 2.08 251 2.09 253 2.19 230 2.20   4 2.76
  52  0.301  0.399  0.501- 246 2.10 269 2.10 250 2.12 249 2.14 252 2.14
  53  0.200  0.600  0.429- 256 2.10 251 2.10 353 2.10 255 2.11 236 2.11 253 2.16
  54  0.300  0.700  0.429- 354 2.10 275 2.10 256 2.11 260 2.11 255 2.12 254 2.14
  55  0.198  0.702  0.500- 234 2.08 257 2.08 255 2.09 254 2.13 253 2.13
  56  0.302  0.598  0.500- 273 2.06 250 2.07 256 2.10 253 2.20 254 2.22   8 2.95  16 2.97
  57  0.200  0.801  0.430- 259 2.10 260 2.11 240 2.11 357 2.12 255 2.13 257 2.13
  58  0.300  0.901  0.430- 244 2.10 279 2.11 358 2.11 259 2.12 260 2.12 258 2.13
  59  0.200  0.901  0.500- 241 2.10 259 2.11 238 2.11 257 2.11 258 2.12
  60  0.300  0.803  0.499- 258 2.07 260 2.10 277 2.11 254 2.12 257 2.13
[...]
 406  0.900  0.300  0.359- 208 2.11 207 2.11 127 2.11 212 2.11 206 2.11 106 2.12
 407  0.800  0.300  0.289- 186 2.11 205 2.11 206 2.11 209 2.11 207 2.11
 408  0.900  0.200  0.289- 206 2.11 202 2.11 205 2.11 125 2.11 208 2.11
 409  0.800  0.400  0.359- 192 2.11 207 2.11 211 2.11 212 2.11 209 2.11 109 2.12
 410  0.900  0.500  0.359- 131 2.11 211 2.11 212 2.11 216 2.11 210 2.11 110 2.12
 411  0.800  0.500  0.289- 190 2.11 209 2.11 210 2.11 213 2.11 211 2.11
 412  0.900  0.400  0.289- 129 2.11 206 2.11 209 2.11 210 2.11 212 2.11
 413  0.800  0.600  0.359- 196 2.11 211 2.11 215 2.11 216 2.11 213 2.11 113 2.12
 414  0.900  0.700  0.359- 220 2.11 215 2.11 216 2.11 135 2.11 214 2.11 114 2.12
 415  0.800  0.700  0.289- 194 2.11 217 2.11 214 2.11 213 2.11 215 2.11
 416  0.900  0.600  0.289- 133 2.11 210 2.11 213 2.11 214 2.11 216 2.11
 417  0.800  0.800  0.359- 200 2.11 215 2.11 219 2.11 220 2.11 217 2.11 117 2.12
 418  0.900  0.900  0.359- 139 2.11 204 2.11 219 2.11 220 2.11 218 2.11 118 2.12
 419  0.800  0.900  0.289- 198 2.11 201 2.11 217 2.11 218 2.11 219 2.11
 420  0.900  0.800  0.289- 214 2.11 137 2.11 217 2.11 218 2.11 220 2.11

  LATTYP: Found a simple tetragonal cell.
 ALAT       =    21.1388521970
 C/A-ratio  =     1.4191877459

  Lattice vectors:

 A1 = (  21.1388521970,   0.0000000000,   0.0000000000)
 A2 = (   0.0000000000,  21.1388521970,   0.0000000000)
 A3 = (   0.0000000000,   0.0000000000,  30.0000000000)

Analysis of symmetry for initial positions (statically):
 Subroutine PRICEL returns:
 Original cell was already a primitive cell.

 Routine SETGRP: Setting up the symmetry group for a
 simple tetragonal supercell.

 Subroutine GETGRP returns: Found  1 space group operations
 (whereof  1 operations were pure point group operations)
 out of a pool of 16 trial point group operations.

The static configuration has the point symmetry C_1 .

Analysis of symmetry for dynamics (positions and initial velocities):
 Subroutine PRICEL returns:
 Original cell was already a primitive cell.

[...]

The dynamic configuration has the point symmetry C_1 .

Analysis of constrained symmetry for selective dynamics:
 Subroutine PRICEL returns:
 Original cell was already a primitive cell.

 Routine SETGRP: Setting up the symmetry group for a
 simple tetragonal supercell.

 Subroutine GETGRP returns: Found  1 space group operations
 (whereof  1 operations were pure point group operations)
 out of a pool of 16 trial point group operations.

[...]
     22     -46.1047      2.00000
     23     -46.1041      2.00000
     24     -46.1032      2.00000
     25     -46.1023      2.00000
     26     -46.1017      2.00000
     27     -46.1008      2.00000
     28     -46.1004      2.00000
     29     -46.0989      2.00000
     30     -46.0985      2.00000
     31     -46.0963      2.00000
     32     -46.0958      2.00000
     33     -46.0949      2.00000
     34     -46.0946      2.00000
     35     -46.0928      2.00000
     36     -46.0925      2.00000
     37     -46.0925      2.00000
     38     -46.0921      2.00000
     39     -46.0910      2.00000
     40     -46.0903      2.00000
     41     -46.0891      2.00000
     42     -46.0886      2.00000
     43     -46.0825      2.00000
     44     -46.0798      2.00000
     45     -46.0791      2.00000
     46     -46.0773      2.00000
     47     -46.0749      2.00000
     48     -46.0724      2.00000
     49     -46.0678      2.00000
     50     -46.0651      2.00000
     51     -46.0646      2.00000
     52     -46.0573      2.00000
     53     -46.0567      2.00000
     54     -46.0563      2.00000
     55     -46.0540      2.00000
     56     -46.0524      2.00000
     57     -46.0478      2.00000
     58     -46.0448      2.00000
     59     -46.0400      2.00000
     60     -46.0396      2.00000
[...]
   1810       7.5500      0.00000
   1811       7.5965      0.00000
   1812       7.6254      0.00000
   1813       7.6465      0.00000
   1814       7.6829      0.00000
   1815       7.7425      0.00000
   1816       7.7631      0.00000
   1817       7.8138      0.00000
   1818       7.8281      0.00000
   1819       7.8523      0.00000
   1820       7.8984      0.00000
   1821       7.9305      0.00000
   1822       7.9593      0.00000
   1823       7.9827      0.00000
   1824       8.0097      0.00000

 soft charge-density along one line, spin component           1
         0         1         2         3         4         5         6         7         8         9
 total charge-density along one line

------------------------ aborting loop because EDIFF is reached ----------------------------------------

 VOLUME and BASIS-vectors are now :
  energy-cutoff  :      520.00
  volume of cell :    13405.53
      direct lattice vectors                 reciprocal lattice vectors
    21.138852197  0.000000000  0.000000000     0.047306258  0.000000000  0.000000000
     0.000000000 21.138852197  0.000000000     0.000000000  0.047306258  0.000000000
     0.000000000  0.000000000 30.000000000     0.000000000  0.000000000  0.033333333

  length of vectors
    21.138852197 21.138852197 30.000000000     0.047306258  0.047306258  0.033333333

 FORCES acting on ions:
    Electron-Ion                     Ewald-Force                    Non-Local-Force
   -.533E+03 0.643E+02 -.361E+04   0.534E+03 -.644E+02 0.361E+04   -.600E+00 0.217E+00 -.182E-01
   -.172E+02 0.647E+01 -.365E+04   0.149E+02 -.573E+01 0.365E+04   0.217E+01 -.878E+00 0.303E+00
   0.387E+03 -.563E+02 -.377E+04   -.387E+03 0.562E+02 0.377E+04   -.268E-01 0.160E+00 0.750E+00
   0.824E+03 -.119E+03 -.371E+04   -.819E+03 0.118E+03 0.371E+04   -.551E+01 0.146E+01 -.205E+01
   -.697E+03 0.399E+02 -.367E+04   0.695E+03 -.394E+02 0.367E+04   0.233E+01 -.244E+00 0.365E+00
   -.204E+03 -.214E+03 -.366E+04   0.204E+03 0.212E+03 0.366E+04   0.610E+00 0.156E+01 0.267E+00
   0.200E+03 -.331E+03 -.378E+04   -.200E+03 0.330E+03 0.378E+04   0.573E+00 0.119E+01 0.106E+01
   0.617E+03 -.471E+03 -.366E+04   -.614E+03 0.470E+03 0.366E+04   -.278E+01 0.128E+01 -.234E+01
   -.723E+03 0.148E+03 -.369E+04   0.721E+03 -.148E+03 0.369E+04   0.304E+01 0.241E+00 0.122E+01
   -.139E+03 0.249E+03 -.362E+04   0.138E+03 -.247E+03 0.362E+04   0.113E+01 -.219E+01 -.423E-01
   0.230E+03 0.265E+03 -.368E+04   -.229E+03 -.263E+03 0.368E+04   -.103E+01 -.186E+01 0.468E+00
   0.736E+03 0.296E+03 -.369E+04   -.733E+03 -.296E+03 0.369E+04   -.308E+01 -.224E+00 -.513E+00
   -.652E+03 -.352E+03 -.374E+04   0.646E+03 0.349E+03 0.374E+04   0.586E+01 0.302E+01 -.223E+01
   -.313E+03 -.665E+03 -.366E+04   0.312E+03 0.663E+03 0.366E+04   0.920E+00 0.198E+01 -.186E+00
   -.192E+02 -.779E+03 -.371E+04   0.205E+02 0.777E+03 0.371E+04   -.129E+01 0.221E+01 0.202E+01
   0.333E+03 -.742E+03 -.364E+04   -.332E+03 0.739E+03 0.364E+04   -.119E+01 0.347E+01 -.336E+01
   -.541E+03 0.500E+03 -.368E+04   0.538E+03 -.497E+03 0.369E+04   0.280E+01 -.282E+01 -.323E+01
   -.162E+03 0.720E+03 -.374E+04   0.162E+03 -.718E+03 0.373E+04   -.220E-02 -.165E+01 0.232E+01
   0.150E+03 0.755E+03 -.362E+04   -.149E+03 -.753E+03 0.363E+04   -.126E+01 -.228E+01 -.974E+00
   0.535E+03 0.674E+03 -.368E+04   -.533E+03 -.668E+03 0.368E+04   -.196E+01 -.495E+01 -.665E+00
   0.279E+02 0.130E+02 -.703E+03   -.279E+02 -.129E+02 0.703E+03   -.220E-01 -.836E-01 -.246E+00
   0.650E+02 0.601E+02 -.666E+03   -.649E+02 -.600E+02 0.666E+03   -.981E-01 -.106E+00 -.294E+00
   0.574E+02 0.643E+02 -.234E+04   -.574E+02 -.643E+02 0.234E+04   -.396E-01 -.941E-02 0.608E+01
   0.734E+02 0.322E+02 -.234E+04   -.734E+02 -.320E+02 0.234E+04   0.295E-01 -.151E+00 0.608E+01
   0.525E+02 0.575E+02 -.666E+03   -.524E+02 -.576E+02 0.667E+03   -.349E-01 0.315E-01 -.275E+00
   0.118E+03 0.705E+02 -.572E+03   -.117E+03 -.708E+02 0.572E+03   -.302E+00 0.318E+00 -.331E+00
   0.134E+03 0.840E+02 -.228E+04   -.134E+03 -.842E+02 0.228E+04   0.255E-01 0.190E+00 0.610E+01
   0.171E+03 0.149E+03 -.225E+04   -.171E+03 -.149E+03 0.224E+04   0.108E+00 0.345E-01 0.609E+01
   0.833E+02 0.239E+02 -.616E+03   -.832E+02 -.241E+02 0.617E+03   -.614E-01 0.183E+00 -.312E+00
   0.130E+03 -.228E+02 -.532E+03   -.130E+03 0.225E+02 0.531E+03   -.307E-01 0.269E+00 0.131E+01
   0.167E+03 -.254E+02 -.224E+04   -.168E+03 0.250E+02 0.223E+04   0.817E+00 0.307E+00 0.610E+01
   0.290E+03 0.740E+02 -.207E+04   -.290E+03 -.756E+02 0.206E+04   0.113E+00 0.145E+01 0.582E+01
   0.672E+02 -.464E+02 -.629E+03   -.675E+02 0.464E+02 0.629E+03   0.291E+00 0.447E-01 -.252E+00
   0.913E+02 -.799E+02 -.609E+03   -.916E+02 0.802E+02 0.609E+03   0.237E+00 -.280E+00 -.164E+00
   0.848E+02 -.930E+02 -.231E+04   -.851E+02 0.933E+02 0.231E+04   0.313E+00 -.277E+00 0.609E+01
   0.243E+03 -.141E+03 -.214E+04   -.245E+03 0.141E+03 0.213E+04   0.110E+01 -.643E+00 0.616E+01
   0.360E+02 -.478E+02 -.685E+03   -.361E+02 0.480E+02 0.685E+03   0.745E-01 -.163E+00 -.241E+00
   0.516E+02 -.269E+02 -.684E+03   -.516E+02 0.272E+02 0.684E+03   0.310E-01 -.192E+00 -.233E+00
   0.381E+02 -.297E+02 -.236E+04   -.382E+02 0.299E+02 0.235E+04   0.670E-01 -.186E+00 0.608E+01
   0.108E+03 -.108E+03 -.231E+04   -.108E+03 0.109E+03 0.231E+04   0.313E+00 -.508E+00 0.613E+01
   0.543E+02 0.254E+02 -.663E+03   -.543E+02 -.253E+02 0.663E+03   -.149E-01 -.126E+00 -.259E+00
   0.447E+02 0.992E+02 -.598E+03   -.447E+02 -.988E+02 0.598E+03   0.558E-02 -.305E+00 -.369E+00
   0.115E+03 0.158E+03 -.226E+04   -.115E+03 -.158E+03 0.225E+04   -.125E+00 0.388E-01 0.608E+01
   0.554E+02 0.599E+02 -.229E+04   -.554E+02 -.597E+02 0.229E+04   0.550E-02 -.181E+00 0.609E+01
   0.929E+02 0.110E+03 -.562E+03   -.926E+02 -.110E+03 0.562E+03   -.266E+00 -.229E+00 0.199E+00
   0.622E+02 0.993E+02 -.422E+03   -.619E+02 -.992E+02 0.423E+03   -.272E+00 -.810E-01 -.119E+01
   0.237E+03 0.181E+03 -.195E+04   -.237E+03 -.180E+03 0.194E+04   -.424E+00 -.198E+00 0.459E+01
   0.104E+03 0.282E+03 -.202E+04   -.104E+03 -.281E+03 0.201E+04   -.475E+00 -.189E+00 0.542E+01
   0.121E+03 0.355E+02 -.427E+03   -.121E+03 -.362E+02 0.428E+03   -.383E+00 0.595E+00 -.107E+01
   0.658E+02 -.309E+02 -.369E+03   -.648E+02 0.301E+02 0.370E+03   -.826E+00 0.753E+00 -.796E+00
   0.221E+03 -.524E+02 -.181E+04   -.219E+03 0.502E+02 0.180E+04   -.175E+01 0.202E+01 0.462E+01
   0.996E+02 0.613E+02 -.180E+04   -.988E+02 -.619E+02 0.180E+04   -.792E+00 0.538E+00 0.578E+01
   0.113E+03 -.825E+02 -.471E+03   -.113E+03 0.823E+02 0.470E+03   -.197E+00 0.164E+00 0.106E+01
   0.579E+02 -.121E+03 -.481E+03   -.574E+02 0.121E+03 0.480E+03   -.423E+00 0.626E-02 0.118E+01
   0.207E+03 -.224E+03 -.210E+04   -.208E+03 0.226E+03 0.209E+04   0.120E+01 -.116E+01 0.611E+01
   0.103E+03 -.159E+03 -.179E+04   -.100E+03 0.156E+03 0.178E+04   -.239E+01 0.253E+01 0.523E+01
   0.733E+02 -.873E+02 -.614E+03   -.733E+02 0.877E+02 0.615E+03   -.210E-01 -.356E+00 -.212E+00
   0.373E+02 -.443E+02 -.633E+03   -.372E+02 0.446E+02 0.633E+03   -.842E-01 -.304E+00 -.165E+00
   0.844E+02 -.632E+02 -.231E+04   -.846E+02 0.636E+02 0.231E+04   0.176E+00 -.328E+00 0.611E+01
   0.833E+02 -.227E+03 -.217E+04   -.830E+02 0.228E+03 0.216E+04   -.299E+00 -.133E+01 0.620E+01
[...]
   -.136E+02 0.125E+02 0.193E+04   0.136E+02 -.125E+02 -.194E+04   0.138E-01 -.183E-01 0.309E+01
   -.299E+00 0.140E+02 0.192E+04   0.310E+00 -.140E+02 -.193E+04   -.137E-01 -.238E-02 0.309E+01
   -.276E+02 0.105E+02 0.735E+03   0.276E+02 -.105E+02 -.735E+03   0.686E-01 -.158E-01 -.116E+00
   0.386E+00 -.420E+01 0.729E+03   -.449E+00 0.418E+01 -.729E+03   0.825E-01 0.302E-01 -.449E-01
   -.149E+02 -.263E+01 0.194E+04   0.148E+02 0.261E+01 -.194E+04   0.493E-01 0.180E-01 0.309E+01
   0.481E+00 0.579E+01 0.193E+04   -.500E+00 -.581E+01 -.194E+04   0.237E-01 0.226E-01 0.309E+01
   -.279E+02 -.175E+02 0.734E+03   0.278E+02 0.174E+02 -.734E+03   0.671E-01 0.593E-01 -.116E+00
   -.143E+01 -.232E+02 0.714E+03   0.144E+01 0.232E+02 -.714E+03   -.176E-01 -.631E-02 -.361E-01
   -.131E+02 -.149E+02 0.193E+04   0.130E+02 0.149E+02 -.193E+04   0.306E-01 0.976E-02 0.310E+01
   -.278E+00 -.105E+02 0.193E+04   0.239E+00 0.105E+02 -.193E+04   0.470E-01 0.155E-01 0.311E+01
   -.199E+02 -.220E+02 0.709E+03   0.199E+02 0.221E+02 -.709E+03   -.123E-01 -.464E-01 -.112E+00
   -.197E+01 -.907E+01 0.696E+03   0.196E+01 0.910E+01 -.696E+03   0.478E-03 -.326E-01 -.833E-01
   -.102E+02 -.600E+01 0.192E+04   0.102E+02 0.600E+01 -.192E+04   0.642E-02 -.739E-02 0.309E+01
   -.928E+00 -.123E+02 0.192E+04   0.911E+00 0.123E+02 -.192E+04   0.208E-01 -.195E-01 0.310E+01
   0.170E+00 -.136E+00 0.946E+02   0.547E-12 -.365E-11 -.175E-09   0.220E+00 0.199E+00 -.842E+02

 POSITION                                       TOTAL-FORCE (eV/Angst)
     11.09519      9.45482     18.11852        -0.107799      0.083091      0.001863
      8.29301      9.75878     18.32361        -0.033197     -0.083064      0.049108
      5.56783     10.06397     18.32381         0.035564      0.021120     -0.068662
      2.99555     10.31153     17.42772        -0.010599      0.021945      0.049391
     12.60980     11.66864     17.97165        -0.001523      0.140786      0.018731
      9.91561     11.91931     18.29835         0.082477     -0.034588     -0.001199
      7.23924     12.25095     18.45349        -0.046926     -0.000168     -0.121761
      4.70923     12.46418     17.40695         0.020093     -0.076679     -0.079164
     11.97817      6.94163     18.23352        -0.024609     -0.042959      0.064169
      9.33064      7.28957     18.17027        -0.019331     -0.021838      0.044771
      6.66947      7.54260     18.19330         0.001091     -0.052973      0.036373
      3.98913      7.86207     17.88644         0.143210      0.058067      0.009441
     14.03302     13.88852     17.41118        -0.015096     -0.002518     -0.013583
     11.45387     14.17698     18.01115         0.038077     -0.097092      0.012054
      8.87221     14.48562     18.39654        -0.020100     -0.082759      0.032969
      6.46511     14.54646     17.26643        -0.099614     -0.038185     -0.115593
     12.47854      4.55951     17.16313         0.009578      0.000977     -0.175783
     10.20822      4.73313     18.45875         0.040961      0.014427     -0.044472
      7.64038      5.02502     17.96040         0.142602      0.077403     -0.013839
      4.97030      5.39304     17.71892        -0.024362      0.104997      0.022310
      0.00000      0.00220     12.89027         0.001076      0.002893     -0.022329
      2.11483      2.11605     12.89462         0.007065      0.010103     -0.020480
     21.13851      2.11223     14.99108         0.002069      0.001735     -0.234444
      2.10817      0.00457     14.99047        -0.000465      0.003580     -0.235135
      0.00264      4.22684     12.89303         0.009386      0.003760     -0.022004
      2.11888      6.33717     12.89579         0.016898     -0.001064     -0.007027
     21.13368      6.33562     14.99490         0.014995      0.003836     -0.243073
      2.10742      4.22403     15.00238         0.018334      0.012635     -0.254791
     21.13862      8.45200     12.89505         0.013216      0.003359     -0.016651
      2.11150     10.56547     12.88112         0.009224      0.001931      0.001397
     21.10260     10.56360     14.99839         0.026839     -0.005929     -0.260804
      2.10799      8.42340     15.00609         0.008397     -0.002753     -0.303310
     21.13016     12.68396     12.89305         0.007351     -0.007941     -0.019585
      2.10320     14.80486     12.88845         0.005335     -0.009185     -0.016217
     21.12360     14.81000     14.99175         0.002125     -0.000279     -0.239823
      2.06964     12.70881     14.99924         0.023896     -0.012302     -0.278262
     21.13452     16.91578     12.89019        -0.002035      0.001463     -0.021715
      2.11053     19.03147     12.88983        -0.001922      0.004016     -0.022733
     21.13399     19.03231     14.98815        -0.002090      0.001028     -0.231958
      2.09717     16.93244     14.99073        -0.005287      0.001045     -0.242605
      4.22633      0.00502     12.89154         0.000199      0.009515     -0.023316
      6.34143      2.11910     12.89673        -0.001309      0.016835     -0.017560
      4.22741      2.10483     14.99816         0.002349      0.023177     -0.251801
      6.34004      0.00464     14.99183         0.000306      0.005607     -0.241243
      4.23259      4.23032     12.89227         0.008131      0.011979     -0.003222
      6.34733      6.34126     12.89259         0.007818      0.009802      0.023213
      4.23638      6.34237     15.02882         0.028480      0.025404     -0.303148
      6.34782      4.22911     15.02489         0.009730      0.021181     -0.319518
      4.23452      8.44123     12.88414         0.014166     -0.000981      0.025502
      6.35733     10.55724     12.88627         0.010446     -0.011110      0.027007
      4.27194     10.53204     14.98507         0.046706     -0.023079     -0.263992
      6.35958      8.44474     15.01939         0.019237      0.008187     -0.264643
      4.22676     12.68757     12.87590         0.003543     -0.004810      0.016369
      6.34551     14.80582     12.86872         0.000766     -0.010302      0.012784
      4.17652     14.84757     14.98511         0.013320     -0.031388     -0.290364
      6.39100     12.64059     14.99300         0.031332     -0.050301     -0.256275
      4.22334     16.92409     12.88829         0.005738     -0.006436     -0.017498
      6.34200     19.03690     12.88646         0.001977      0.000387     -0.022872
      4.21731     19.04067     14.98967        -0.004611      0.002014     -0.240450
      6.34164     16.97216     14.98051         0.005845     -0.020602     -0.282821
[...]
     19.02497      6.34166     10.77222         0.005382      0.001592      0.023711
     16.91108      6.34166      8.65833         0.003979     -0.005966     -0.394972
     19.02497      4.22777      8.65833        -0.005063     -0.000639     -0.395054
     16.91108      8.45554     10.77222         0.024047     -0.005168      0.014683
     19.02497     10.56943     10.77222         0.031970      0.011424      0.039223
     16.91108     10.56943      8.65833         0.015703      0.005986     -0.397011
     19.02497      8.45554      8.65833         0.007195      0.007513     -0.394943
     16.91108     12.68331     10.77222         0.023898      0.022128      0.025817
     19.02497     14.79720     10.77222        -0.007250     -0.002785      0.046083
     16.91108     14.79720      8.65833         0.009337      0.003230     -0.390869
     19.02497     12.68331      8.65833         0.014931      0.005196     -0.389404
     16.91108     16.91108     10.77222        -0.005087     -0.016091      0.041527
     19.02497     19.02497     10.77222        -0.000618     -0.011890      0.018673
     16.91108     19.02497      8.65833         0.001497     -0.002330     -0.394058
     19.02497     16.91108      8.65833         0.006239     -0.006267     -0.392086
    total drift:                                0.245211     -0.051157     -3.023879

  FREE ENERGIE OF THE ION-ELECTRON SYSTEM (eV)
  free  energy   TOTEN  =     -2892.37416126 eV

  energy  without entropy=    -2892.37416126  energy(sigma->0) =    -2892.37416126