 vasp.6.4.1 05Apr23 (build May 06 2023 19:47:20) complex

 executed on             LinuxIFC date 2023.05.07  14:13:35

 INCAR:
   SYSTEM = MgO-rocksalt
   ISMEAR = 0
   SIGMA = 0.05
   EDIFF = 1E-6
   ALGO = ALL
   ISTART = 0
   IBRION = -1
   NSW = 0
   ISYM = 2
   DIPOL = 0.5 0.5 0.5
   IDIPOL = 3
   LDIPOL = .TRUE.
   METAGGA = R2SCAN
   IVDW = 13
   VDW_S8 = 0.6019
   VDW_A1 = 0.5156
   VDW_A2 = 5.7734
   ENCUT = 520
   PREC = Accurate
   LASPH = .TRUE.
   LREAL = Auto
   ISPIN = 1
   NELM = 200
   NELMIN = 8
   NCORE = 4
   KPAR = 2
   LWAVE = .FALSE.
   LCHARG = .FALSE.

 POTCAR:    PAW_PBE Au 04Oct2007
 POTCAR:    PAW_PBE Mg_pv 13Apr2007
 POTCAR:    PAW_PBE O 08Apr2002
 POTCAR:    PAW_PBE Au 04Oct2007
   VRHFIN =Au: s1d10

   TITEL  = PAW_PBE Au 04Oct2007
   POMASS =  196.966; ZVAL   =   11.000    mass and valenz
   ENMAX  =  229.943; ENMIN  =  172.457 eV

   TITEL  = PAW_PBE Mg_pv 13Apr2007
   POMASS =   24.305; ZVAL   =    8.000    mass and valenz
   ENMAX  =  403.929; ENMIN  =  302.947 eV

   TITEL  = PAW_PBE O 08Apr2002
   POMASS =   16.000; ZVAL   =    6.000    mass and valenz
   ENMAX  =  400.000; ENMIN  =  300.000 eV

 Optimization of the real space projectors (new method)

 maximal supplied QI-value         = 15.12
 optimisation between [QCUT,QGAM] = [ 11.64, 23.28] = [ 37.95,151.78] Ry
 Optimized for a Real-space Cutoff    1.49 Angstroem

   l    n(q)    QCUT    max X(q) W(low)/X(q) W(high)/X(q)  e(spline)
   2      9    11.641    60.898    0.24E-03    0.10E-03    0.19E-06
   2      9    11.641    58.894    0.25E-03    0.10E-03    0.19E-06
   0     10    11.641   109.617    0.73E-04    0.33E-04    0.11E-06
   0     10    11.641    75.026    0.71E-04    0.32E-04    0.11E-06
   1     10    11.641    16.344    0.27E-04    0.97E-04    0.16E-06
   1     10    11.641    10.160    0.23E-04    0.77E-04    0.13E-06
 Optimization of the real space projectors (new method)

[...]

   l    n(q)    QCUT    max X(q) W(low)/X(q) W(high)/X(q)  e(spline)
   1      8    11.527     2.974    0.44E-04    0.56E-04    0.12E-06
   1      8    11.527     4.279    0.12E-03    0.12E-03    0.26E-06
   0      9    11.527    16.381    0.46E-04    0.64E-04    0.78E-07
   0      9    11.527     5.611    0.26E-04    0.43E-04    0.55E-07
   2      8    11.527     4.652    0.22E-03    0.72E-04    0.47E-07
 Optimization of the real space projectors (new method)

 maximal supplied QI-value         = 24.76
 optimisation between [QCUT,QGAM] = [ 11.64, 23.27] = [ 37.91,151.63] Ry
 Optimized for a Real-space Cutoff    1.14 Angstroem

   l    n(q)    QCUT    max X(q) W(low)/X(q) W(high)/X(q)  e(spline)
   0      8    11.635    20.381    0.10E-03    0.33E-03    0.24E-06
   0      8    11.635    15.268    0.11E-03    0.35E-03    0.26E-06
   1      7    11.635     5.964    0.24E-03    0.31E-03    0.30E-06
   1      7    11.635     5.382    0.22E-03    0.25E-03    0.26E-06
  PAW_PBE Au 04Oct2007                  :
  PAW_PBE Mg_pv 13Apr2007               :
  PAW_PBE O 08Apr2002                   :

 POSCAR: Mg  O
  positions in direct lattice
  velocities in cartesian coordinates

 METAGGA = R2SCAN                                      LMAXTAU =  6    LMIXTAU =  F

 WARNING: Using user supplied parameters
     VDW_S8 = 0.602
     VDW_A1 = 0.516
     VDW_A2 = 5.773
     because the xc functional is not supported. Required parameters not
     defined in the INCAR file will be replaced with PBE defaults ones.

 ion  position               nearest neighbor table
   1  0.525  0.447  0.604-   9 2.67   5 2.69   6 2.74  10 2.79   2 2.83
   2  0.392  0.462  0.611-  10 2.68   6 2.70   7 2.71   3 2.74  11 2.75   1 2.83
   3  0.263  0.476  0.611-   8 2.71   4 2.74   2 2.74  12 2.74  11 2.75   7 2.76
   4  0.142  0.488  0.581- 230 2.54  12 2.68   3 2.74   8 2.75  51 2.76
   5  0.597  0.552  0.599-   1 2.69  13 2.70   6 2.73  14 2.76
   6  0.469  0.564  0.610-   7 2.70   2 2.70   5 2.73   1 2.74  14 2.75  15 2.77
   7  0.342  0.580  0.615-  16 2.70   6 2.70   2 2.71   8 2.75   3 2.76  15 2.77
   8  0.223  0.590  0.580- 253 2.44   3 2.71  16 2.73   7 2.75   4 2.75  56 2.95
   9  0.567  0.328  0.608-  17 2.66   1 2.67  10 2.67  18 2.84
  10  0.441  0.345  0.606-   9 2.67  11 2.67   2 2.68  18 2.72   1 2.79  19 2.83
  11  0.316  0.357  0.606-  10 2.67  19 2.71  12 2.72   2 2.75   3 2.75  20 2.78
  12  0.189  0.372  0.596-  20 2.66   4 2.68  11 2.72   3 2.74
  13  0.664  0.657  0.580- 294 2.61  14 2.66   5 2.70  96 2.83  95 2.91
  14  0.542  0.671  0.600-  15 2.63  13 2.66   6 2.75   5 2.76
  15  0.420  0.685  0.613-  14 2.63  16 2.66   7 2.77   6 2.77
  16  0.306  0.688  0.576- 254 2.29  15 2.66   7 2.70   8 2.73  56 2.97  75 3.04
  17  0.590  0.216  0.572- 285 2.19  18 2.62   9 2.66  87 2.86  68 2.93
  18  0.483  0.224  0.615-  17 2.62  19 2.63  10 2.72   9 2.84
  19  0.361  0.238  0.599-  18 2.63  20 2.71  11 2.71  10 2.83
  20  0.235  0.255  0.591-  12 2.66  19 2.71  11 2.78  47 2.95
  21  0.000  0.000  0.430- 223 2.11 224 2.11 304 2.11 239 2.12 321 2.12 221 2.13
  22  0.100  0.100  0.430- 243 2.11 228 2.11 223 2.11 224 2.12 322 2.12 222 2.13
  23  1.000  0.100  0.500- 223 2.11 222 2.11 302 2.11 225 2.11 221 2.11
  24  0.100  0.000  0.500- 224 2.11 222 2.11 221 2.11 238 2.11 241 2.11
  25  0.000  0.200  0.430- 228 2.11 308 2.11 223 2.11 227 2.12 325 2.12 225 2.13
  26  0.100  0.300  0.430- 247 2.10 228 2.11 227 2.12 326 2.12 232 2.13 226 2.13
  27  1.000  0.300  0.500- 306 2.11 227 2.11 226 2.11 225 2.11 229 2.12
  28  0.100  0.200  0.500- 225 2.11 228 2.11 226 2.11 222 2.11 245 2.11
  29  1.000  0.400  0.430- 232 2.11 227 2.11 312 2.11 231 2.12 329 2.12 229 2.13
  30  0.100  0.500  0.429- 232 2.10 251 2.10 231 2.11 330 2.11 236 2.12 230 2.19
  31  0.998  0.500  0.500- 310 2.08 231 2.11 229 2.11 230 2.12 233 2.12
  32  0.100  0.398  0.500- 226 2.09 229 2.11 232 2.11 249 2.12 230 2.16
  33  1.000  0.600  0.430- 316 2.11 231 2.11 235 2.11 333 2.12 236 2.12 233 2.14
  34  0.099  0.700  0.430- 235 2.10 240 2.11 334 2.12 255 2.12 236 2.12 234 2.14
  35  0.999  0.701  0.500- 314 2.10 235 2.11 237 2.11 234 2.11 233 2.12
  36  0.098  0.601  0.500- 233 2.08 234 2.10 236 2.10 253 2.12 230 2.13
  37  1.000  0.800  0.430- 239 2.11 320 2.11 240 2.12 337 2.12 235 2.12 237 2.13
  38  0.100  0.900  0.430- 224 2.11 239 2.11 259 2.11 338 2.12 240 2.12 238 2.13
  39  1.000  0.900  0.500- 239 2.10 221 2.11 318 2.11 238 2.11 237 2.12
  40  0.099  0.801  0.500- 238 2.10 237 2.10 240 2.11 257 2.12 234 2.12
  41  0.200  0.000  0.430- 243 2.11 244 2.11 224 2.11 259 2.12 341 2.12 241 2.13
  42  0.300  0.100  0.430- 248 2.10 243 2.12 263 2.12 244 2.12 342 2.12 242 2.13
  43  0.200  0.100  0.500- 241 2.11 245 2.11 243 2.11 242 2.11 222 2.12
  44  0.300  0.000  0.500- 242 2.10 258 2.10 244 2.11 261 2.12 241 2.12
  45  0.200  0.200  0.430- 248 2.10 247 2.10 243 2.12 228 2.12 345 2.12 245 2.15
  46  0.300  0.300  0.430- 246 2.08 267 2.11 252 2.12 248 2.12 346 2.12 247 2.13
  47  0.200  0.300  0.501- 249 2.11 246 2.12 245 2.13 226 2.13 247 2.14  20 2.95
  48  0.300  0.200  0.501- 265 2.10 246 2.12 242 2.12 245 2.13 248 2.14
  49  0.200  0.399  0.429- 249 2.08 252 2.11 247 2.11 349 2.11 232 2.13 251 2.14
  50  0.301  0.499  0.430- 271 2.10 252 2.10 250 2.10 350 2.11 256 2.14 251 2.14
  51  0.202  0.498  0.500- 250 2.07 249 2.08 251 2.09 253 2.19 230 2.20   4 2.76
  52  0.301  0.399  0.501- 246 2.10 269 2.10 250 2.12 249 2.14 252 2.14
  53  0.200  0.600  0.429- 256 2.10 251 2.10 353 2.10 255 2.11 236 2.11 253 2.16
  54  0.300  0.700  0.429- 354 2.10 275 2.10 256 2.11 260 2.11 255 2.12 254 2.14
  55  0.198  0.702  0.500- 234 2.08 257 2.08 255 2.09 254 2.13 253 2.13
  56  0.302  0.598  0.500- 273 2.06 250 2.07 256 2.10 253 2.20 254 2.22   8 2.95  16 2.97
  57  0.200  0.801  0.430- 259 2.10 260 2.11 240 2.11 357 2.12 255 2.13 257 2.13
  58  0.300  0.901  0.430- 244 2.10 279 2.11 358 2.11 259 2.12 260 2.12 258 2.13
  59  0.200  0.901  0.500- 241 2.10 259 2.11 238 2.11 257 2.11 258 2.12
  60  0.300  0.803  0.499- 258 2.07 260 2.10 277 2.11 254 2.12 257 2.13
[...]
 406  0.900  0.300  0.359- 208 2.11 207 2.11 127 2.11 212 2.11 206 2.11 106 2.12
 407  0.800  0.300  0.289- 186 2.11 205 2.11 206 2.11 209 2.11 207 2.11
 408  0.900  0.200  0.289- 206 2.11 202 2.11 205 2.11 125 2.11 208 2.11
 409  0.800  0.400  0.359- 192 2.11 207 2.11 211 2.11 212 2.11 209 2.11 109 2.12
 410  0.900  0.500  0.359- 131 2.11 211 2.11 212 2.11 216 2.11 210 2.11 110 2.12
 411  0.800  0.500  0.289- 190 2.11 209 2.11 210 2.11 213 2.11 211 2.11
 412  0.900  0.400  0.289- 129 2.11 206 2.11 209 2.11 210 2.11 212 2.11
 413  0.800  0.600  0.359- 196 2.11 211 2.11 215 2.11 216 2.11 213 2.11 113 2.12
 414  0.900  0.700  0.359- 220 2.11 215 2.11 216 2.11 135 2.11 214 2.11 114 2.12
 415  0.800  0.700  0.289- 194 2.11 217 2.11 214 2.11 213 2.11 215 2.11
 416  0.900  0.600  0.289- 133 2.11 210 2.11 213 2.11 214 2.11 216 2.11
 417  0.800  0.800  0.359- 200 2.11 215 2.11 219 2.11 220 2.11 217 2.11 117 2.12
 418  0.900  0.900  0.359- 139 2.11 204 2.11 219 2.11 220 2.11 218 2.11 118 2.12
 419  0.800  0.900  0.289- 198 2.11 201 2.11 217 2.11 218 2.11 219 2.11
 420  0.900  0.800  0.289- 214 2.11 137 2.11 217 2.11 218 2.11 220 2.11

  LATTYP: Found a simple tetragonal cell.
 ALAT       =    21.1388521970
 C/A-ratio  =     1.4191877459

  Lattice vectors:

 A1 = (  21.1388521970,   0.0000000000,   0.0000000000)
 A2 = (   0.0000000000,  21.1388521970,   0.0000000000)
 A3 = (   0.0000000000,   0.0000000000,  30.0000000000)

Analysis of symmetry for initial positions (statically):
 Subroutine PRICEL returns:
 Original cell was already a primitive cell.

 Routine SETGRP: Setting up the symmetry group for a
 simple tetragonal supercell.

 Subroutine GETGRP returns: Found  1 space group operations
 (whereof  1 operations were pure point group operations)
 out of a pool of 16 trial point group operations.

The static configuration has the point symmetry C_1 .

Analysis of symmetry for dynamics (positions and initial velocities):
 Subroutine PRICEL returns:
 Original cell was already a primitive cell.

[...]

The dynamic configuration has the point symmetry C_1 .

Analysis of constrained symmetry for selective dynamics:
 Subroutine PRICEL returns:
 Original cell was already a primitive cell.

 Routine SETGRP: Setting up the symmetry group for a
 simple tetragonal supercell.

 Subroutine GETGRP returns: Found  1 space group operations
 (whereof  1 operations were pure point group operations)
 out of a pool of 16 trial point group operations.

The constrained configuration has the point symmetry C_1 .

 Subroutine INISYM returns: Found  1 space group operations
 (whereof  1 operations are pure point group operations),
 and found     1 'primitive' translations

                                     Primitive cell

  volume of cell :   13405.5322

  direct lattice vectors                    reciprocal lattice vectors
    21.138852197  0.000000000  0.000000000     0.047306258  0.000000000  0.000000000
     0.000000000 21.138852197  0.000000000     0.000000000  0.047306258  0.000000000
     0.000000000  0.000000000 30.000000000     0.000000000  0.000000000  0.033333333

  length of vectors
[...]
     54     -43.8622      2.00000
     55     -43.8619      2.00000
     56     -43.8618      2.00000
     57     -43.8570      2.00000
     58     -43.8518      2.00000
     59     -43.8517      2.00000
     60     -43.8487      2.00000
[...]
   1810       7.6394      0.00000
   1811       7.6786      0.00000
   1812       7.6841      0.00000
   1813       7.7144      0.00000
   1814       7.7365      0.00000
   1815       7.7490      0.00000
   1816       7.7674      0.00000
   1817       7.7746      0.00000
   1818       7.7947      0.00000
   1819       7.8046      0.00000
   1820       7.8369      0.00000
   1821       7.8389      0.00000
   1822       7.8602      0.00000
   1823       7.8739      0.00000
   1824       7.8768      0.00000

 soft charge-density along one line, spin component           1
         0         1         2         3         4         5         6         7         8         9
 total charge-density along one line

------------------------ aborting loop because EDIFF is reached ----------------------------------------

  FORCE on cell =-STRESS in cart. coord.  units (eV):
  Direction    XX          YY          ZZ          XY          YZ          ZX
  Alpha Z  4657.84619  4657.84619  4657.84619
  Ewald  ************************************   472.68918  -309.70176   568.69190
  Hartree************************************   426.45173  -245.43686   469.86665
  E(xc)  -17648.63023-17648.82151-17653.44252     0.04403    -0.16369     0.16002
  Local  ************************************  -899.25334   551.88572 -1035.98129
  n-local-17443.88698-17436.74620-17510.46552    -2.01307     2.39517    -2.07948
  augment  8737.04677  8738.60053  8718.01688     0.43487     0.13514     0.05229
  Kinetic 48788.48853 48794.32103 49096.00034    -1.27547     0.90016    -1.35022
  Fock        0.00000     0.00000     0.00000     0.00000     0.00000     0.00000
  vdW       -23.97546   -23.99233   -16.36703    -0.01118     0.00245    -0.00979
  Total    -275.81154  -275.19159   -66.19691    -2.93326     0.01633    -0.64992
  in kB     -32.96393   -32.88983    -7.91160    -0.35057     0.00195    -0.07768

 VOLUME and BASIS-vectors are now :
  energy-cutoff  :      520.00
  volume of cell :    13405.53
      direct lattice vectors                 reciprocal lattice vectors
    21.138852197  0.000000000  0.000000000     0.047306258  0.000000000  0.000000000
     0.000000000 21.138852197  0.000000000     0.000000000  0.047306258  0.000000000
     0.000000000  0.000000000 30.000000000     0.000000000  0.000000000  0.033333333

  length of vectors
    21.138852197 21.138852197 30.000000000     0.047306258  0.047306258  0.033333333

 FORCES acting on ions:
    Electron-Ion                     Ewald-Force                    Non-Local-Force
   -.533E+03 0.643E+02 -.361E+04   0.534E+03 -.644E+02 0.361E+04   -.815E+00 0.106E+00 -.203E-01
   -.167E+02 0.644E+01 -.365E+04   0.149E+02 -.573E+01 0.365E+04   0.183E+01 -.741E+00 0.247E+00
   0.387E+03 -.563E+02 -.377E+04   -.387E+03 0.562E+02 0.377E+04   -.224E+00 0.142E+00 0.535E+00
   0.824E+03 -.119E+03 -.371E+04   -.819E+03 0.118E+03 0.371E+04   -.516E+01 0.143E+01 -.226E+01
   -.697E+03 0.393E+02 -.367E+04   0.695E+03 -.394E+02 0.367E+04   0.222E+01 0.971E-01 0.331E+00
   -.204E+03 -.214E+03 -.366E+04   0.204E+03 0.212E+03 0.366E+04   0.542E+00 0.161E+01 0.232E+00
   0.200E+03 -.331E+03 -.378E+04   -.200E+03 0.330E+03 0.378E+04   0.395E+00 0.128E+01 0.837E+00
   0.617E+03 -.471E+03 -.366E+04   -.614E+03 0.470E+03 0.366E+04   -.250E+01 0.128E+01 -.241E+01
   -.723E+03 0.148E+03 -.369E+04   0.721E+03 -.148E+03 0.369E+04   0.287E+01 -.813E-01 0.101E+01
   -.139E+03 0.249E+03 -.362E+04   0.138E+03 -.247E+03 0.362E+04   0.104E+01 -.210E+01 -.152E+00
   0.230E+03 0.265E+03 -.368E+04   -.229E+03 -.263E+03 0.368E+04   -.114E+01 -.189E+01 0.349E+00
   0.735E+03 0.296E+03 -.369E+04   -.733E+03 -.296E+03 0.369E+04   -.293E+01 -.280E+00 -.633E+00
   -.651E+03 -.352E+03 -.374E+04   0.646E+03 0.349E+03 0.374E+04   0.557E+01 0.303E+01 -.238E+01
   -.313E+03 -.664E+03 -.366E+04   0.312E+03 0.663E+03 0.366E+04   0.112E+01 0.178E+01 -.342E+00
   -.194E+02 -.778E+03 -.371E+04   0.205E+02 0.777E+03 0.371E+04   -.116E+01 0.189E+01 0.192E+01
   0.333E+03 -.742E+03 -.364E+04   -.332E+03 0.739E+03 0.364E+04   -.912E+00 0.302E+01 -.354E+01
   -.541E+03 0.500E+03 -.368E+04   0.538E+03 -.497E+03 0.369E+04   0.241E+01 -.265E+01 -.344E+01
   -.162E+03 0.719E+03 -.374E+04   0.162E+03 -.718E+03 0.373E+04   0.326E+00 -.130E+01 0.220E+01
   0.150E+03 0.755E+03 -.362E+04   -.149E+03 -.753E+03 0.363E+04   -.125E+01 -.196E+01 -.946E+00
   0.535E+03 0.673E+03 -.368E+04   -.533E+03 -.668E+03 0.368E+04   -.182E+01 -.476E+01 -.671E+00
   0.279E+02 0.130E+02 -.703E+03   -.279E+02 -.129E+02 0.703E+03   -.208E-01 -.959E-01 -.271E+00
   0.650E+02 0.601E+02 -.666E+03   -.649E+02 -.600E+02 0.666E+03   -.968E-01 -.102E+00 -.265E+00
   0.574E+02 0.643E+02 -.234E+04   -.574E+02 -.643E+02 0.234E+04   -.325E-01 0.151E-01 0.640E+01
   0.734E+02 0.322E+02 -.234E+04   -.734E+02 -.320E+02 0.234E+04   0.106E+00 -.225E+00 0.639E+01
   0.524E+02 0.575E+02 -.666E+03   -.524E+02 -.576E+02 0.667E+03   -.253E-01 0.443E-01 -.270E+00
   0.117E+03 0.705E+02 -.572E+03   -.117E+03 -.708E+02 0.572E+03   -.308E+00 0.364E+00 -.285E+00
   0.134E+03 0.839E+02 -.228E+04   -.134E+03 -.842E+02 0.228E+04   0.125E+00 0.303E+00 0.634E+01
   0.171E+03 0.149E+03 -.225E+04   -.171E+03 -.149E+03 0.224E+04   0.218E+00 0.105E+00 0.626E+01
   0.832E+02 0.239E+02 -.616E+03   -.832E+02 -.241E+02 0.617E+03   -.407E-01 0.216E+00 -.276E+00
   0.130E+03 -.229E+02 -.532E+03   -.130E+03 0.225E+02 0.531E+03   -.654E-02 0.305E+00 0.140E+01
   0.167E+03 -.254E+02 -.224E+04   -.168E+03 0.250E+02 0.223E+04   0.921E+00 0.326E+00 0.632E+01
   0.290E+03 0.739E+02 -.207E+04   -.290E+03 -.756E+02 0.206E+04   0.181E+00 0.177E+01 0.601E+01
   0.672E+02 -.464E+02 -.629E+03   -.675E+02 0.464E+02 0.629E+03   0.343E+00 0.374E-01 -.248E+00
   0.913E+02 -.799E+02 -.609E+03   -.916E+02 0.802E+02 0.609E+03   0.305E+00 -.338E+00 -.178E+00
   0.847E+02 -.929E+02 -.231E+04   -.851E+02 0.933E+02 0.231E+04   0.488E+00 -.419E+00 0.637E+01
   0.243E+03 -.141E+03 -.214E+04   -.245E+03 0.141E+03 0.213E+04   0.122E+01 -.884E+00 0.638E+01
   0.360E+02 -.478E+02 -.685E+03   -.361E+02 0.480E+02 0.685E+03   0.780E-01 -.178E+00 -.268E+00
   0.516E+02 -.269E+02 -.684E+03   -.516E+02 0.272E+02 0.684E+03   0.259E-01 -.205E+00 -.263E+00
   0.381E+02 -.297E+02 -.236E+04   -.382E+02 0.299E+02 0.235E+04   0.138E+00 -.287E+00 0.641E+01
   0.108E+03 -.108E+03 -.231E+04   -.108E+03 0.109E+03 0.231E+04   0.459E+00 -.718E+00 0.641E+01
   0.543E+02 0.254E+02 -.663E+03   -.543E+02 -.253E+02 0.663E+03   -.175E-01 -.128E+00 -.276E+00
   0.447E+02 0.991E+02 -.598E+03   -.447E+02 -.988E+02 0.598E+03   0.442E-02 -.319E+00 -.329E+00
   0.115E+03 0.158E+03 -.226E+04   -.115E+03 -.158E+03 0.225E+04   -.130E+00 0.186E+00 0.628E+01
   0.554E+02 0.599E+02 -.229E+04   -.554E+02 -.597E+02 0.229E+04   0.277E-01 -.257E+00 0.638E+01
   0.929E+02 0.110E+03 -.562E+03   -.926E+02 -.110E+03 0.562E+03   -.279E+00 -.222E+00 0.303E+00
   0.622E+02 0.993E+02 -.422E+03   -.619E+02 -.992E+02 0.423E+03   -.297E+00 -.683E-01 -.125E+01
   0.237E+03 0.181E+03 -.195E+04   -.237E+03 -.180E+03 0.194E+04   -.444E+00 -.172E+00 0.478E+01
   0.104E+03 0.281E+03 -.202E+04   -.104E+03 -.281E+03 0.201E+04   -.539E+00 -.156E+00 0.556E+01
   0.121E+03 0.355E+02 -.427E+03   -.121E+03 -.362E+02 0.428E+03   -.433E+00 0.722E+00 -.113E+01
   0.658E+02 -.309E+02 -.369E+03   -.648E+02 0.301E+02 0.370E+03   -.998E+00 0.902E+00 -.808E+00
   0.221E+03 -.525E+02 -.181E+04   -.219E+03 0.502E+02 0.180E+04   -.191E+01 0.231E+01 0.477E+01
   0.996E+02 0.612E+02 -.180E+04   -.988E+02 -.619E+02 0.180E+04   -.934E+00 0.694E+00 0.597E+01
   0.113E+03 -.825E+02 -.471E+03   -.113E+03 0.823E+02 0.470E+03   -.195E+00 0.141E+00 0.113E+01
   0.579E+02 -.121E+03 -.481E+03   -.574E+02 0.121E+03 0.480E+03   -.517E+00 -.108E+00 0.125E+01
   0.207E+03 -.224E+03 -.209E+04   -.208E+03 0.226E+03 0.209E+04   0.127E+01 -.125E+01 0.637E+01
   0.103E+03 -.158E+03 -.179E+04   -.100E+03 0.156E+03 0.178E+04   -.260E+01 0.271E+01 0.545E+01
   0.733E+02 -.872E+02 -.614E+03   -.733E+02 0.877E+02 0.615E+03   -.130E-01 -.449E+00 -.240E+00
   0.373E+02 -.443E+02 -.633E+03   -.372E+02 0.446E+02 0.633E+03   -.917E-01 -.369E+00 -.217E+00
   0.844E+02 -.632E+02 -.231E+04   -.846E+02 0.636E+02 0.231E+04   0.276E+00 -.504E+00 0.641E+01
   0.833E+02 -.227E+03 -.217E+04   -.830E+02 0.228E+03 0.216E+04   -.318E+00 -.148E+01 0.650E+01
[...]
   -.136E+02 0.125E+02 0.193E+04   0.136E+02 -.125E+02 -.194E+04   0.146E-01 -.177E-01 0.338E+01
   -.301E+00 0.140E+02 0.192E+04   0.310E+00 -.140E+02 -.193E+04   -.134E-01 0.140E-02 0.338E+01
   -.276E+02 0.105E+02 0.735E+03   0.276E+02 -.105E+02 -.735E+03   0.772E-01 -.155E-01 -.115E+00
   0.378E+00 -.421E+01 0.729E+03   -.449E+00 0.418E+01 -.729E+03   0.107E+00 0.363E-01 -.279E-01
   -.149E+02 -.263E+01 0.194E+04   0.148E+02 0.261E+01 -.194E+04   0.571E-01 0.214E-01 0.338E+01
   0.477E+00 0.579E+01 0.193E+04   -.500E+00 -.581E+01 -.194E+04   0.321E-01 0.292E-01 0.339E+01
   -.279E+02 -.175E+02 0.734E+03   0.278E+02 0.174E+02 -.734E+03   0.768E-01 0.689E-01 -.112E+00
   -.143E+01 -.232E+02 0.714E+03   0.144E+01 0.232E+02 -.714E+03   -.188E-01 -.127E-01 -.184E-01
   -.131E+02 -.149E+02 0.193E+04   0.130E+02 0.149E+02 -.193E+04   0.349E-01 0.789E-02 0.340E+01
   -.281E+00 -.105E+02 0.193E+04   0.239E+00 0.105E+02 -.193E+04   0.594E-01 0.156E-01 0.341E+01
   -.199E+02 -.220E+02 0.709E+03   0.199E+02 0.221E+02 -.709E+03   -.178E-01 -.600E-01 -.105E+00
   -.197E+01 -.907E+01 0.696E+03   0.196E+01 0.910E+01 -.696E+03   0.172E-02 -.412E-01 -.796E-01
   -.102E+02 -.599E+01 0.192E+04   0.102E+02 0.600E+01 -.192E+04   0.610E-02 -.116E-01 0.339E+01
   -.929E+00 -.123E+02 0.192E+04   0.911E+00 0.123E+02 -.192E+04   0.257E-01 -.274E-01 0.340E+01
   0.274E+00 -.565E+00 0.104E+03   0.547E-12 -.365E-11 -.175E-09   -.840E+00 0.338E+00 -.102E+03

 POSITION                                       TOTAL-FORCE (eV/Angst)
     11.09519      9.45482     18.11852        -0.004768      0.009420      0.010360
      8.29301      9.75878     18.32361        -0.026112      0.002851      0.004150
      5.56783     10.06397     18.32381        -0.007805      0.008968     -0.066456
      2.99555     10.31153     17.42772         0.145181     -0.041692     -0.029105
     12.60980     11.66864     17.97165        -0.100477      0.059702     -0.013762
      9.91561     11.91931     18.29835        -0.008217     -0.027243     -0.004601
      7.23924     12.25095     18.45349         0.009294     -0.006150     -0.084604
      4.70923     12.46418     17.40695         0.091287     -0.056226     -0.013602
     11.97817      6.94163     18.23352        -0.133672     -0.019730     -0.060470
      9.33064      7.28957     18.17027        -0.008049      0.026695      0.019928
      6.66947      7.54260     18.19330         0.026387     -0.006383     -0.013902
      3.98913      7.86207     17.88644         0.117349      0.018114     -0.019201
     14.03302     13.88852     17.41118        -0.170119     -0.060036     -0.019765
     11.45387     14.17698     18.01115        -0.030717     -0.093945     -0.009256
      8.87221     14.48562     18.39654         0.025794     -0.102789     -0.079926
      6.46511     14.54646     17.26643         0.057489     -0.141499     -0.017817
     12.47854      4.55951     17.16313        -0.124688      0.096865     -0.040348
     10.20822      4.73313     18.45875        -0.006249      0.098965     -0.122653
      7.64038      5.02502     17.96040         0.034242      0.089591      0.020757
      4.97030      5.39304     17.71892         0.066100      0.146006     -0.001792
      0.00000      0.00220     12.89027         0.002564     -0.001273     -0.005845
      2.11483      2.11605     12.89462         0.005626      0.003535      0.049201
     21.13851      2.11223     14.99108         0.007549      0.023931     -0.141952
      2.10817      0.00457     14.99047         0.068359     -0.049508     -0.156795
      0.00264      4.22684     12.89303         0.002192      0.001369      0.028279
      2.11888      6.33717     12.89579         0.011617     -0.007445      0.051031
     21.13368      6.33562     14.99490         0.069085      0.072925     -0.201539
      2.10742      4.22403     15.00238         0.076618      0.047326     -0.234699
     21.13862      8.45200     12.89505         0.004636      0.000766      0.051442
      2.11150     10.56547     12.88112         0.002310     -0.002391     -0.143192
     21.10260     10.56360     14.99839        -0.046170     -0.016050     -0.192034
      2.10799      8.42340     15.00609         0.008317      0.088426     -0.154953
     21.13016     12.68396     12.89305        -0.012223      0.000184      0.019502
      2.10320     14.80486     12.88845         0.007080      0.004070     -0.003897
     21.12360     14.81000     14.99175         0.109546     -0.086255     -0.180839
      2.06964     12.70881     14.99924        -0.069121     -0.088439     -0.181197
     21.13452     16.91578     12.89019        -0.010996      0.013744     -0.004723
      2.11053     19.03147     12.88983        -0.011385      0.016890     -0.007800
     21.13399     19.03231     14.98815         0.055375     -0.066419     -0.142074
      2.09717     16.93244     14.99073         0.087503     -0.117309     -0.173669
      4.22633      0.00502     12.89154         0.000069      0.009567      0.010086
      6.34143      2.11910     12.89673         0.001903      0.005580      0.064721
      4.22741      2.10483     14.99816         0.010358      0.110279     -0.217448
      6.34004      0.00464     14.99183         0.024848     -0.057652     -0.163704
      4.23259      4.23032     12.89227         0.011873      0.010820      0.027014
      6.34733      6.34126     12.89259         0.009304      0.003329      0.030458
      4.23638      6.34237     15.02882         0.003873      0.013354     -0.085616
      6.34782      4.22911     15.02489         0.010028      0.000007     -0.167859
      4.23452      8.44123     12.88414        -0.007033      0.033527      0.026613
      6.35733     10.55724     12.88627        -0.052369      0.041656      0.023546
      4.27194     10.53204     14.98507         0.030085     -0.000860     -0.191998
      6.35958      8.44474     15.01939        -0.049941      0.055168     -0.187026
      4.22676     12.68757     12.87590         0.011470     -0.023094     -0.143473
      6.34551     14.80582     12.86872        -0.035236     -0.075040     -0.121361
      4.17652     14.84757     14.98511        -0.098530      0.109339     -0.147371
      6.39100     12.64059     14.99300         0.093074     -0.103911     -0.203574
      4.22334     16.92409     12.88829        -0.000833     -0.012365     -0.007532
      6.34200     19.03690     12.88646         0.005161     -0.002461     -0.021938
      4.21731     19.04067     14.98967         0.077718     -0.110906     -0.166522
      6.34164     16.97216     14.98051         0.009469      0.044091     -0.106849
[...]
     19.02497      6.34166     10.77222         0.008650      0.003250      0.019705
     16.91108      6.34166      8.65833         0.005430     -0.004513     -0.358605
     19.02497      4.22777      8.65833        -0.002446      0.000871     -0.358762
     16.91108      8.45554     10.77222         0.024980     -0.003881      0.010529
     19.02497     10.56943     10.77222         0.036564      0.012148      0.036272
     16.91108     10.56943      8.65833         0.017398      0.006494     -0.360271
     19.02497      8.45554      8.65833         0.010290      0.008651     -0.358302
     16.91108     12.68331     10.77222         0.025323      0.022237      0.022499
     19.02497     14.79720     10.77222        -0.004492     -0.003782      0.042880
     16.91108     14.79720      8.65833         0.011013      0.002791     -0.354913
     19.02497     12.68331      8.65833         0.018045      0.004909     -0.352486
     16.91108     16.91108     10.77222        -0.003812     -0.016991      0.038086
     19.02497     19.02497     10.77222         0.001684     -0.012252      0.013925
     16.91108     19.02497      8.65833         0.003064     -0.002718     -0.358041
     19.02497     16.91108      8.65833         0.008514     -0.007073     -0.355876
    total drift:                               -0.565716     -0.226960      2.116198

  FREE ENERGIE OF THE ION-ELECTRON SYSTEM (eV)
  free  energy   TOTEN  =     -4181.78193871 eV

  energy  without entropy=    -4181.78193871  energy(sigma->0) =    -4181.78193871