 vasp.6.3.0 20Jan22 (build Apr  1 2022 16:44:48) complex
 executed on        HPECrayEX_GCC date 2022.10.13  14:16:39

 INCAR:
   SYSTEM = MgO-rocksalt
   ISMEAR = 0
   SIGMA = 0.05
   EDIFF = 1E-6
   ALGO = ALL
   ISTART = 0
   IBRION = -1
   NSW = 0
   ISYM = 2
   DIPOL = 0.5 0.5 0.5
   IDIPOL = 3
   LDIPOL = .TRUE.
   GGA = PE
   IVDW = 212
   LVDWEXPANSION = .TRUE.
   ENCUT = 520
   PREC = Accurate
   LASPH = .TRUE.
   LREAL = Auto
   ISPIN = 1
   NELM = 200
   NELMIN = 8
   NCORE = 4
   KPAR = 2
   LWAVE = .FALSE.
   LCHARG = .FALSE.

 POTCAR:    PAW_PBE Au 04Oct2007
 POTCAR:    PAW_PBE Mg_pv 13Apr2007
 POTCAR:    PAW_PBE O 08Apr2002
 POTCAR:    PAW_PBE Au 04Oct2007
   VRHFIN =Au: s1d10

   TITEL  = PAW_PBE Au 04Oct2007
   POMASS =  196.966; ZVAL   =   11.000    mass and valenz
   ENMAX  =  229.943; ENMIN  =  172.457 eV

   TITEL  = PAW_PBE Mg_pv 13Apr2007
   POMASS =   24.305; ZVAL   =    8.000    mass and valenz
   ENMAX  =  403.929; ENMIN  =  302.947 eV

   TITEL  = PAW_PBE O 08Apr2002
   POMASS =   16.000; ZVAL   =    6.000    mass and valenz
   ENMAX  =  400.000; ENMIN  =  300.000 eV

 Optimization of the real space projectors (new method)

 maximal supplied QI-value         = 15.12
 optimisation between [QCUT,QGAM] = [ 11.64, 23.28] = [ 37.95,151.78] Ry
 Optimized for a Real-space Cutoff    1.49 Angstroem

   l    n(q)    QCUT    max X(q) W(low)/X(q) W(high)/X(q)  e(spline)
   2      9    11.641    60.898    0.24E-03    0.10E-03    0.19E-06
   2      9    11.641    58.894    0.25E-03    0.10E-03    0.19E-06
   0     10    11.641   109.617    0.73E-04    0.33E-04    0.11E-06
   0     10    11.641    75.026    0.71E-04    0.32E-04    0.11E-06
   1     10    11.641    16.344    0.27E-04    0.97E-04    0.16E-06
   1     10    11.641    10.160    0.23E-04    0.77E-04    0.13E-06
 Optimization of the real space projectors (new method)

[...]

   l    n(q)    QCUT    max X(q) W(low)/X(q) W(high)/X(q)  e(spline)
   1      8    11.527     2.974    0.44E-04    0.56E-04    0.12E-06
   1      8    11.527     4.279    0.12E-03    0.12E-03    0.26E-06
   0      9    11.527    16.381    0.46E-04    0.64E-04    0.78E-07
   0      9    11.527     5.611    0.26E-04    0.43E-04    0.55E-07
   2      8    11.527     4.652    0.22E-03    0.72E-04    0.47E-07
 Optimization of the real space projectors (new method)

 maximal supplied QI-value         = 24.76
 optimisation between [QCUT,QGAM] = [ 11.64, 23.27] = [ 37.91,151.63] Ry
 Optimized for a Real-space Cutoff    1.14 Angstroem

   l    n(q)    QCUT    max X(q) W(low)/X(q) W(high)/X(q)  e(spline)
   0      8    11.635    20.381    0.10E-03    0.33E-03    0.24E-06
   0      8    11.635    15.268    0.11E-03    0.35E-03    0.26E-06
   1      7    11.635     5.964    0.24E-03    0.31E-03    0.30E-06
   1      7    11.635     5.382    0.22E-03    0.25E-03    0.26E-06
  PAW_PBE Au 04Oct2007                  :
  PAW_PBE Mg_pv 13Apr2007               :
  PAW_PBE O 08Apr2002                   :

 POSCAR: Au Mg  O
  positions in direct lattice
 exchange correlation table for  LEXCH =        8
   RHO(1)=    0.500       N(1)  =     2000
   RHO(2)=  100.500       N(2)  =     4000

 ion  position               nearest neighbor table
   1  0.450  0.450  0.719-   2 2.52
   2  0.450  0.450  0.605-   1 2.52  53 2.72 152 2.72 151 2.72  54 2.72
   3  0.000  0.000  0.407- 105 2.11 106 2.11 121 2.11 186 2.11 103 2.11
   4  0.100  0.100  0.407- 105 2.11 106 2.11 110 2.11 125 2.11 104 2.11
   5  0.000  0.100  0.503- 103 2.11 104 2.11 107 2.11 184 2.11 105 2.11
   6  0.100  0.000  0.503- 103 2.11 104 2.11 120 2.11 123 2.11 106 2.11
   7  0.000  0.200  0.407- 109 2.11 105 2.11 110 2.11 190 2.11 107 2.11
   8  0.100  0.300  0.407- 110 2.11 109 2.11 114 2.11 129 2.11 108 2.11
   9  0.000  0.300  0.503- 107 2.11 108 2.11 111 2.11 188 2.11 109 2.11
  10  0.100  0.200  0.503- 108 2.11 107 2.11 104 2.11 127 2.11 110 2.11
  11  0.000  0.400  0.407- 109 2.11 113 2.11 114 2.11 194 2.11 111 2.11
  12  0.100  0.500  0.407- 113 2.11 114 2.11 118 2.11 133 2.11 112 2.11
  13  0.000  0.500  0.503- 111 2.11 112 2.11 115 2.11 192 2.11 113 2.11
  14  0.100  0.400  0.503- 108 2.11 111 2.11 112 2.11 131 2.11 114 2.11
  15  0.000  0.600  0.407- 113 2.11 117 2.11 118 2.11 198 2.11 115 2.11
  16  0.100  0.700  0.407- 122 2.11 118 2.11 117 2.11 137 2.11 116 2.11
  17  0.000  0.700  0.503- 119 2.11 116 2.11 115 2.11 196 2.11 117 2.11
  18  0.100  0.600  0.503- 112 2.11 115 2.11 116 2.11 135 2.11 118 2.11
  19  0.000  0.800  0.407- 117 2.11 121 2.11 122 2.11 202 2.11 119 2.11
  20  0.100  0.900  0.407- 106 2.11 121 2.11 122 2.11 141 2.11 120 2.11
  21  0.000  0.900  0.503- 103 2.11 119 2.11 120 2.11 200 2.11 121 2.11
  22  0.100  0.800  0.503- 116 2.11 119 2.11 120 2.11 139 2.11 122 2.11
  23  0.200  0.000  0.407- 126 2.11 125 2.11 106 2.11 141 2.11 123 2.11
  24  0.300  0.100  0.407- 125 2.11 126 2.11 130 2.11 145 2.11 124 2.11
  25  0.200  0.100  0.503- 124 2.11 123 2.11 104 2.11 127 2.11 125 2.11
  26  0.300  0.000  0.503- 123 2.11 124 2.11 140 2.11 143 2.11 126 2.11
  27  0.200  0.200  0.407- 129 2.11 130 2.11 110 2.11 125 2.11 127 2.11
  28  0.300  0.300  0.407- 129 2.11 130 2.11 134 2.11 149 2.11 128 2.11
  29  0.200  0.300  0.503- 127 2.11 128 2.11 108 2.11 131 2.11 129 2.11
  30  0.300  0.200  0.503- 127 2.11 128 2.11 124 2.11 147 2.11 130 2.11
  31  0.200  0.400  0.407- 134 2.11 129 2.11 133 2.11 114 2.11 131 2.11
  32  0.300  0.500  0.407- 133 2.11 134 2.11 138 2.11 153 2.11 132 2.11
  33  0.200  0.500  0.503- 132 2.11 131 2.11 112 2.11 135 2.11 133 2.11
  34  0.300  0.400  0.503- 131 2.11 128 2.11 132 2.11 151 2.11 134 2.11
  35  0.200  0.600  0.407- 138 2.11 133 2.11 137 2.11 118 2.11 135 2.11
  36  0.300  0.700  0.407- 137 2.11 142 2.11 138 2.11 157 2.11 136 2.11
  37  0.200  0.700  0.503- 136 2.11 139 2.11 116 2.11 135 2.11 137 2.11
  38  0.300  0.600  0.503- 135 2.11 132 2.11 136 2.11 155 2.11 138 2.11
  39  0.200  0.800  0.407- 137 2.11 142 2.11 141 2.11 122 2.11 139 2.11
  40  0.300  0.900  0.407- 141 2.11 126 2.11 142 2.11 161 2.11 140 2.11
  41  0.200  0.900  0.503- 140 2.11 123 2.11 139 2.11 120 2.11 141 2.11
  42  0.300  0.800  0.503- 136 2.11 139 2.11 140 2.11 159 2.11 142 2.11
  43  0.400  0.000  0.407- 126 2.11 145 2.11 146 2.11 161 2.11 143 2.11
  44  0.500  0.100  0.407- 145 2.11 146 2.11 150 2.11 165 2.11 144 2.11
  45  0.400  0.100  0.503- 124 2.11 143 2.11 144 2.11 147 2.11 145 2.11
  46  0.500  0.000  0.503- 143 2.11 144 2.11 160 2.11 163 2.11 146 2.11
  47  0.400  0.200  0.407- 149 2.11 145 2.11 130 2.11 150 2.11 147 2.11
  48  0.500  0.300  0.407- 150 2.11 149 2.11 154 2.11 169 2.11 148 2.11
  49  0.400  0.300  0.503- 147 2.11 128 2.11 148 2.11 151 2.11 149 2.11
  50  0.500  0.200  0.503- 148 2.11 147 2.11 144 2.11 167 2.11 150 2.11
  51  0.400  0.400  0.407- 134 2.11 149 2.11 153 2.11 154 2.11 151 2.11
  52  0.500  0.500  0.407- 153 2.11 154 2.11 158 2.11 173 2.11 152 2.11
  53  0.400  0.500  0.503- 132 2.11 151 2.11 152 2.11 155 2.11 153 2.11   2 2.72
  54  0.500  0.400  0.503- 148 2.11 151 2.11 152 2.11 171 2.11 154 2.11   2 2.72
  55  0.400  0.600  0.407- 138 2.11 153 2.11 157 2.11 158 2.11 155 2.11
  56  0.500  0.700  0.407- 162 2.11 158 2.11 157 2.11 177 2.11 156 2.11
  57  0.400  0.700  0.503- 159 2.11 155 2.11 156 2.11 136 2.11 157 2.11
  58  0.500  0.600  0.503- 152 2.11 155 2.11 156 2.11 175 2.11 158 2.11
  59  0.400  0.800  0.407- 157 2.11 142 2.11 161 2.11 162 2.11 159 2.11
  60  0.500  0.900  0.407- 146 2.11 161 2.11 162 2.11 181 2.11 160 2.11
[...]
 188  0.900  0.300  0.503-  90 2.11  89 2.11   9 2.11  94 2.11  88 2.11
 189  0.800  0.300  0.407-  68 2.11  87 2.11  88 2.11  91 2.11  89 2.11
 190  0.900  0.200  0.407-  88 2.11  84 2.11  87 2.11   7 2.11  90 2.11
 191  0.800  0.400  0.503-  74 2.11  89 2.11  93 2.11  94 2.11  91 2.11
 192  0.900  0.500  0.503-  13 2.11  93 2.11  94 2.11  98 2.11  92 2.11
 193  0.800  0.500  0.407-  72 2.11  91 2.11  92 2.11  95 2.11  93 2.11
 194  0.900  0.400  0.407-  11 2.11  88 2.11  91 2.11  92 2.11  94 2.11
 195  0.800  0.600  0.503-  78 2.11  93 2.11  97 2.11  98 2.11  95 2.11
 196  0.900  0.700  0.503- 102 2.11  97 2.11  98 2.11  17 2.11  96 2.11
 197  0.800  0.700  0.407-  76 2.11  99 2.11  96 2.11  95 2.11  97 2.11
 198  0.900  0.600  0.407-  15 2.11  92 2.11  95 2.11  96 2.11  98 2.11
 199  0.800  0.800  0.503-  82 2.11  97 2.11 101 2.11 102 2.11  99 2.11
 200  0.900  0.900  0.503-  21 2.11  86 2.11 101 2.11 102 2.11 100 2.11
 201  0.800  0.900  0.407-  80 2.11  83 2.11  99 2.11 100 2.11 101 2.11
 202  0.900  0.800  0.407-  96 2.11  19 2.11  99 2.11 100 2.11 102 2.11

  LATTYP: Found a simple tetragonal cell.
 ALAT       =    21.1388521970
 C/A-ratio  =     1.0461251639

  Lattice vectors:

 A1 = (  21.1388521970,   0.0000000000,   0.0000000000)
 A2 = (   0.0000000000,  21.1388521970,   0.0000000000)
 A3 = (   0.0000000000,   0.0000000000,  22.1138852197)

Analysis of symmetry for initial positions (statically):
 Subroutine PRICEL returns:
 Original cell was already a primitive cell.

 Routine SETGRP: Setting up the symmetry group for a
 simple tetragonal supercell.

 Subroutine GETGRP returns: Found  4 space group operations
 (whereof  2 operations were pure point group operations)
 out of a pool of 16 trial point group operations.

The static configuration has the point symmetry C_1h.
 The point group associated with its full space group is C_2v.

Analysis of symmetry for dynamics (positions and initial velocities):
 Subroutine PRICEL returns:
 Original cell was already a primitive cell.

 Routine SETGRP: Setting up the symmetry group for a
 simple tetragonal supercell.

 Subroutine GETGRP returns: Found  4 space group operations
 (whereof  2 operations were pure point group operations)
 out of a pool of 16 trial point group operations.

The dynamic configuration has the point symmetry C_1h.
 The point group associated with its full space group is C_2v.

 Subroutine INISYM returns: Found  4 space group operations
 (whereof  2 operations are pure point group operations),
 and found     1 'primitive' translations

                                     Primitive cell

  volume of cell :    9881.6133

  direct lattice vectors                    reciprocal lattice vectors
    21.138852197  0.000000000  0.000000000     0.047306258  0.000000000  0.000000000
     0.000000000 21.138852197  0.000000000     0.000000000  0.047306258  0.000000000
     0.000000000  0.000000000 22.113885220     0.000000000  0.000000000  0.045220457

  length of vectors
    21.138852197 21.138852197 22.113885220     0.047306258  0.047306258  0.045220457

  position of ions in fractional coordinates (direct lattice)
     0.449999988  0.450000018  0.719165712
     0.449999988  0.450000018  0.605265726
     0.000000000  0.000000000  0.406984115
     0.100000000  0.100000000  0.406984115
     0.000000000  0.100000000  0.502574971
     0.100000000  0.000000000  0.502574971
     0.000000000  0.200000000  0.406984115
     0.100000000  0.300000000  0.406984115
     0.000000000  0.300000000  0.502574971
     0.100000000  0.200000000  0.502574971
     0.000000000  0.400000000  0.406984115
     0.100000000  0.500000000  0.406984115
[...]
   O         168.029          4.746         17.722          4.747         17.737          3.282
   O         168.276          4.747         17.735          4.748         17.747          3.284
   O         168.846          4.750         17.765          4.752         17.791          3.290
   O         168.875          4.750         17.767          4.752         17.789          3.290
   O         168.262          4.747         17.735          4.748         17.748          3.284
   O         168.360          4.748         17.740          4.749         17.752          3.285
   O         168.863          4.750         17.766          4.752         17.787          3.290
   O         168.863          4.750         17.766          4.752         17.787          3.290

  vdW correction parametrized for the method pbe

  IVDW = 212
  VDW_RADIUS =    50.000 A
  VDW_SR =     0.820
  VDW_D =     6.000
  SCSRAD =   120.000 A
  LVDWSCS = T
  LSCSGRAD = T
  LSCALER0 = T
  ITIM = -1
  Edisp (eV):   -9.53343

  FORCE on cell =-STRESS in cart. coord.  units (eV):
  Direction    XX          YY          ZZ          XY          YZ          ZX
  Alpha Z  1365.75682  1365.75682  1365.75682
  Ewald  476307.94337476307.94337************   -10.19852    -0.00001     0.00001
  Hartree504910.24566504910.24565************    -3.42105    -0.00000     0.00001
  E(xc)   -7748.29540 -7748.29540 -7778.77989     0.01904     0.00000    -0.00000
  Local  ************************************    12.26627     0.00001    -0.00002
  n-local -8759.14647 -8759.14645 -8894.19023    -1.76681     0.00000     0.00000
  augment  3419.05050  3419.05049  3358.21608     1.13059     0.00000    -0.00000
  Kinetic 22990.30352 22990.30350 23235.67079     0.76802    -0.00000     0.00001
  Fock        0.00000     0.00000     0.00000     0.00000     0.00000     0.00000
  vdW        -9.85128    -9.85134    -2.73818    -0.00134    -0.00000     0.00000
  Total    -159.55308  -159.55308    15.73565    -1.20379     0.00000     0.00000
  in kB     -25.86949   -25.86949     2.55133    -0.19518     0.00000     0.00000

 VOLUME and BASIS-vectors are now :
  energy-cutoff  :      520.00
  volume of cell :     9881.61
      direct lattice vectors                 reciprocal lattice vectors
    21.138852197  0.000000000  0.000000000     0.047306258  0.000000000  0.000000000
     0.000000000 21.138852197  0.000000000     0.000000000  0.047306258  0.000000000
     0.000000000  0.000000000 22.113885220     0.000000000  0.000000000  0.045220457

  length of vectors
    21.138852197 21.138852197 22.113885220     0.047306258  0.047306258  0.045220457

 FORCES acting on ions:
    Electron-Ion                     Ewald-Force                    Non-Local-Force
   0.361E-04 -.159E-03 -.175E+04   0.163E-07 -.120E-07 0.174E+04   0.000E+00 0.424E-21 0.721E+01
   0.310E-04 -.152E-03 -.190E+04   0.539E-05 -.567E-05 0.190E+04   0.000E+00 0.000E+00 -.476E+01
   0.169E+01 0.169E+01 0.931E+03   -.170E+01 -.170E+01 -.923E+03   0.589E-02 0.589E-02 -.742E+01
   0.595E+01 0.595E+01 0.933E+03   -.598E+01 -.598E+01 -.925E+03   0.236E-01 0.236E-01 -.742E+01
   0.277E+01 0.568E+01 -.922E+03   -.278E+01 -.569E+01 0.914E+03   0.128E-01 0.754E-02 0.737E+01
   0.568E+01 0.277E+01 -.922E+03   -.569E+01 -.278E+01 0.914E+03   0.754E-02 0.128E-01 0.737E+01
   0.302E+01 0.595E+01 0.933E+03   -.305E+01 -.596E+01 -.925E+03   0.233E-01 0.115E-01 -.743E+01
   0.121E+02 0.722E+01 0.938E+03   -.122E+02 -.723E+01 -.930E+03   0.841E-01 0.133E-01 -.744E+01
   0.577E+01 0.652E+01 -.919E+03   -.580E+01 -.652E+01 0.911E+03   0.233E-01 0.356E-02 0.737E+01
   0.121E+02 0.109E+02 -.918E+03   -.122E+02 -.109E+02 0.911E+03   0.451E-01 0.141E-01 0.736E+01
   0.484E+01 0.201E+01 0.935E+03   -.488E+01 -.201E+01 -.928E+03   0.278E-01 0.688E-04 -.743E+01
   0.148E+02 -.293E+01 0.940E+03   -.149E+02 0.296E+01 -.932E+03   0.737E-01 -.196E-01 -.744E+01
   0.705E+01 -.260E+01 -.918E+03   -.706E+01 0.261E+01 0.910E+03   0.619E-02 -.543E-02 0.736E+01
   0.229E+02 0.429E+01 -.913E+03   -.230E+02 -.428E+01 0.905E+03   0.588E-01 -.984E-02 0.735E+01
   0.411E+01 -.507E+01 0.934E+03   -.411E+01 0.509E+01 -.927E+03   0.532E-02 -.105E-01 -.743E+01
   0.869E+01 -.807E+01 0.935E+03   -.871E+01 0.809E+01 -.927E+03   0.184E-01 -.190E-01 -.743E+01
   0.413E+01 -.751E+01 -.920E+03   -.412E+01 0.752E+01 0.913E+03   -.558E-02 -.616E-02 0.737E+01
   0.181E+02 -.101E+02 -.915E+03   -.181E+02 0.102E+02 0.908E+03   0.123E-01 -.144E-01 0.736E+01
   0.217E+01 -.458E+01 0.931E+03   -.217E+01 0.459E+01 -.924E+03   -.185E-02 -.694E-02 -.742E+01
   0.458E+01 -.217E+01 0.931E+03   -.459E+01 0.217E+01 -.924E+03   0.694E-02 0.185E-02 -.742E+01
   0.209E+01 -.209E+01 -.922E+03   -.209E+01 0.209E+01 0.915E+03   -.468E-03 0.468E-03 0.737E+01
   0.780E+01 -.780E+01 -.921E+03   -.781E+01 0.781E+01 0.913E+03   0.282E-02 -.282E-02 0.737E+01
   0.595E+01 0.302E+01 0.933E+03   -.596E+01 -.305E+01 -.925E+03   0.115E-01 0.233E-01 -.743E+01
   0.722E+01 0.121E+02 0.938E+03   -.723E+01 -.122E+02 -.930E+03   0.133E-01 0.841E-01 -.744E+01
   0.109E+02 0.121E+02 -.918E+03   -.109E+02 -.122E+02 0.911E+03   0.141E-01 0.451E-01 0.736E+01
   0.652E+01 0.577E+01 -.919E+03   -.652E+01 -.580E+01 0.911E+03   0.356E-02 0.233E-01 0.737E+01
   0.125E+02 0.125E+02 0.939E+03   -.126E+02 -.126E+02 -.932E+03   0.685E-01 0.685E-01 -.743E+01
   0.207E+02 0.207E+02 0.959E+03   -.210E+02 -.210E+02 -.951E+03   0.192E+00 0.192E+00 -.743E+01
   0.317E+02 0.201E+02 -.906E+03   -.320E+02 -.201E+02 0.898E+03   0.177E+00 0.390E-02 0.734E+01
   0.201E+02 0.317E+02 -.906E+03   -.201E+02 -.320E+02 0.898E+03   0.390E-02 0.177E+00 0.734E+01
   0.244E+02 0.537E+01 0.951E+03   -.248E+02 -.536E+01 -.943E+03   0.290E+00 -.101E-01 -.751E+01
   0.298E+02 -.994E+01 0.973E+03   -.301E+02 0.102E+02 -.965E+03   0.283E+00 -.188E+00 -.756E+01
   0.450E+02 -.944E+01 -.898E+03   -.451E+02 0.950E+01 0.891E+03   0.744E-01 -.406E-01 0.731E+01
   0.762E+02 0.262E+02 -.855E+03   -.777E+02 -.261E+02 0.848E+03   0.113E+01 -.134E+00 0.726E+01
   0.190E+02 -.122E+02 0.946E+03   -.191E+02 0.123E+02 -.938E+03   0.821E-01 -.635E-01 -.746E+01
   0.122E+02 -.190E+02 0.946E+03   -.123E+02 0.191E+02 -.938E+03   0.635E-01 -.821E-01 -.746E+01
   0.188E+02 -.188E+02 -.913E+03   -.188E+02 0.188E+02 0.906E+03   0.155E-01 -.155E-01 0.735E+01
   0.427E+02 -.427E+02 -.885E+03   -.428E+02 0.428E+02 0.877E+03   0.738E-01 -.738E-01 0.728E+01
   0.807E+01 -.869E+01 0.935E+03   -.809E+01 0.871E+01 -.927E+03   0.190E-01 -.184E-01 -.743E+01
   0.507E+01 -.411E+01 0.934E+03   -.509E+01 0.411E+01 -.927E+03   0.105E-01 -.532E-02 -.743E+01
   0.751E+01 -.413E+01 -.920E+03   -.752E+01 0.412E+01 0.913E+03   0.616E-02 0.558E-02 0.737E+01
   0.101E+02 -.181E+02 -.915E+03   -.102E+02 0.181E+02 0.908E+03   0.144E-01 -.123E-01 0.736E+01
   0.201E+01 0.484E+01 0.935E+03   -.201E+01 -.488E+01 -.928E+03   0.688E-04 0.278E-01 -.743E+01
   -.293E+01 0.148E+02 0.940E+03   0.296E+01 -.149E+02 -.932E+03   -.196E-01 0.737E-01 -.744E+01
   0.429E+01 0.229E+02 -.913E+03   -.428E+01 -.230E+02 0.905E+03   -.984E-02 0.588E-01 0.735E+01
   -.260E+01 0.705E+01 -.918E+03   0.261E+01 -.706E+01 0.910E+03   -.543E-02 0.619E-02 0.736E+01
   0.537E+01 0.244E+02 0.951E+03   -.536E+01 -.248E+02 -.943E+03   -.101E-01 0.290E+00 -.751E+01
   -.994E+01 0.298E+02 0.973E+03   0.102E+02 -.301E+02 -.965E+03   -.188E+00 0.283E+00 -.756E+01
   0.262E+02 0.762E+02 -.855E+03   -.261E+02 -.777E+02 0.848E+03   -.134E+00 0.113E+01 0.726E+01
   -.944E+01 0.450E+02 -.898E+03   0.950E+01 -.451E+02 0.891E+03   -.406E-01 0.744E-01 0.731E+01
   0.164E+02 0.164E+02 0.999E+03   -.164E+02 -.164E+02 -.993E+03   -.282E-02 -.282E-02 -.623E+01
   -.164E+02 -.164E+02 0.999E+03   0.164E+02 0.164E+02 -.993E+03   0.282E-02 0.282E-02 -.623E+01
   0.747E+02 -.747E+02 -.737E+03   -.762E+02 0.762E+02 0.731E+03   0.887E+00 -.887E+00 0.553E+01
   -.747E+02 0.747E+02 -.737E+03   0.762E+02 -.762E+02 0.731E+03   -.887E+00 0.887E+00 0.553E+01
   0.994E+01 -.298E+02 0.973E+03   -.102E+02 0.301E+02 -.965E+03   0.188E+00 -.283E+00 -.756E+01
   -.537E+01 -.244E+02 0.951E+03   0.536E+01 0.248E+02 -.943E+03   0.101E-01 -.290E+00 -.751E+01
   0.944E+01 -.450E+02 -.898E+03   -.950E+01 0.451E+02 0.891E+03   0.406E-01 -.744E-01 0.731E+01
   -.262E+02 -.762E+02 -.855E+03   0.261E+02 0.777E+02 0.848E+03   0.134E+00 -.113E+01 0.726E+01
   0.293E+01 -.148E+02 0.940E+03   -.296E+01 0.149E+02 -.932E+03   0.196E-01 -.737E-01 -.744E+01
   -.201E+01 -.484E+01 0.935E+03   0.201E+01 0.488E+01 -.928E+03   -.688E-04 -.278E-01 -.743E+01
[...]
   -.912E+01 0.540E+01 0.705E+03   0.915E+01 -.542E+01 -.709E+03   -.361E-01 0.314E-01 0.350E+01
   -.229E+01 0.446E+01 0.701E+03   0.229E+01 -.447E+01 -.705E+03   -.566E-04 0.133E-01 0.351E+01
   -.172E+02 0.319E+01 -.686E+03   0.172E+02 -.321E+01 0.691E+03   -.377E-01 0.241E-01 -.364E+01
   -.528E+01 -.196E+01 -.690E+03   0.529E+01 0.196E+01 0.694E+03   -.169E-01 0.180E-02 -.361E+01
   -.111E+02 -.222E+01 0.706E+03   0.111E+02 0.222E+01 -.711E+03   -.736E-01 0.608E-02 0.350E+01
   -.365E+01 0.150E+01 0.703E+03   0.366E+01 -.151E+01 -.707E+03   -.133E-01 0.916E-02 0.351E+01
   -.136E+02 -.762E+01 -.688E+03   0.136E+02 0.762E+01 0.692E+03   -.558E-01 -.925E-02 -.363E+01
   -.308E+01 -.563E+01 -.692E+03   0.309E+01 0.564E+01 0.696E+03   -.186E-01 -.108E-01 -.360E+01
   -.650E+01 -.604E+01 0.703E+03   0.653E+01 0.607E+01 -.707E+03   -.500E-01 -.339E-01 0.351E+01
   -.307E+01 -.381E+01 0.702E+03   0.309E+01 0.381E+01 -.706E+03   -.244E-01 -.104E-01 0.351E+01
   -.584E+01 -.584E+01 -.692E+03   0.586E+01 0.586E+01 0.696E+03   -.253E-01 -.253E-01 -.360E+01
   -.157E+01 -.156E+01 -.693E+03   0.157E+01 0.157E+01 0.698E+03   -.602E-02 -.602E-02 -.359E+01
   -.343E+01 -.162E+01 0.700E+03   0.344E+01 0.163E+01 -.704E+03   -.135E-01 -.139E-01 0.352E+01
   -.162E+01 -.343E+01 0.700E+03   0.163E+01 0.344E+01 -.704E+03   -.139E-01 -.135E-01 0.352E+01
   -.301E-01 0.149E-01 0.693E+01   0.746E-12 0.121E-11 0.955E-11   -.160E-15 -.269E-15 -.753E+01

 POSITION                                       TOTAL-FORCE (eV/Angst)
      9.51248      9.51248     15.90355        -0.000000     -0.000000      0.069050
      9.51248      9.51248     13.38478        -0.000000     -0.000000     -0.013571
      0.00000      0.00000      9.00000        -0.001618     -0.001618      0.338689
      2.11389      2.11389      9.00000        -0.006535     -0.006535      0.339095
      0.00000      2.11389     11.11389        -0.003389     -0.002062     -0.322195
      2.11389      0.00000     11.11389        -0.002062     -0.003389     -0.322195
      0.00000      4.22777      9.00000        -0.006161     -0.003217      0.339710
      2.11389      6.34166      9.00000        -0.022009     -0.003845      0.342489
      0.00000      6.34166     11.11389        -0.005845     -0.000945     -0.319423
      2.11389      4.22777     11.11389        -0.011545     -0.003967     -0.318359
      0.00000      8.45554      9.00000        -0.007196      0.000015      0.341076
      2.11389     10.56943      9.00000        -0.019420      0.005731      0.344258
      0.00000     10.56943     11.11389        -0.001307      0.001524     -0.318305
      2.11389      8.45554     11.11389        -0.013277      0.003061     -0.311821
      0.00000     12.68331      9.00000        -0.001429      0.002922      0.340581
      2.11389     14.79720      9.00000        -0.004876      0.005092      0.341143
      0.00000     14.79720     11.11389         0.001562      0.001614     -0.320853
      2.11389     12.68331     11.11389        -0.002314      0.003706     -0.314312
      0.00000     16.91108      9.00000         0.000487      0.001897      0.339162
      2.11389     19.02497      9.00000        -0.001897     -0.000487      0.339162
      0.00000     19.02497     11.11389         0.000132     -0.000132     -0.322937
      2.11389     16.91108     11.11389        -0.000628      0.000628     -0.320910
      4.22777      0.00000      9.00000        -0.003217     -0.006161      0.339710
      6.34166      2.11389      9.00000        -0.003845     -0.022009      0.342489
      4.22777      2.11389     11.11389        -0.003967     -0.011545     -0.318359
      6.34166      0.00000     11.11389        -0.000945     -0.005845     -0.319423
      4.22777      4.22777      9.00000        -0.019335     -0.019335      0.339494
      6.34166      6.34166      9.00000        -0.063201     -0.063201      0.327917
      4.22777      6.34166     11.11389        -0.043396     -0.001329     -0.302264
      6.34166      4.22777     11.11389        -0.001329     -0.043396     -0.302264
      4.22777      8.45554      9.00000        -0.071975      0.003435      0.357317
      6.34166     10.56943      9.00000        -0.079088      0.060778      0.358690
      4.22777     10.56943     11.11389        -0.015936      0.011799     -0.287462
      6.34166      8.45554     11.11389        -0.317120      0.055930     -0.200043
      4.22777     12.68331      9.00000        -0.021944      0.017150      0.348377
      6.34166     14.79720      9.00000        -0.017150      0.021944      0.348377
      4.22777     14.79720     11.11389        -0.003119      0.003119     -0.311662
      6.34166     12.68331     11.11389        -0.006603      0.006603     -0.256484
      4.22777     16.91108      9.00000        -0.005092      0.004876      0.341143
      6.34166     19.02497      9.00000        -0.002922      0.001429      0.340581
      4.22777     19.02497     11.11389        -0.001614     -0.001562     -0.320853
      6.34166     16.91108     11.11389        -0.003706      0.002314     -0.314312
      8.45554      0.00000      9.00000         0.000015     -0.007196      0.341076
     10.56943      2.11389      9.00000         0.005731     -0.019420      0.344258
      8.45554      2.11389     11.11389         0.003061     -0.013277     -0.311821
     10.56943      0.00000     11.11389         0.001524     -0.001307     -0.318305
      8.45554      4.22777      9.00000         0.003435     -0.071975      0.357317
     10.56943      6.34166      9.00000         0.060778     -0.079088      0.358690
      8.45554      6.34166     11.11389         0.055930     -0.317120     -0.200043
     10.56943      4.22777     11.11389         0.011799     -0.015936     -0.287462
      8.45554      8.45554      9.00000         0.005574      0.005574      0.031553
     10.56943     10.56943      9.00000        -0.005574     -0.005574      0.031553
      8.45554     10.56943     11.11389        -0.595024      0.595024     -0.483433
     10.56943      8.45554     11.11389         0.595024     -0.595024     -0.483433
      8.45554     12.68331      9.00000        -0.060778      0.079088      0.358690
     10.56943     14.79720      9.00000        -0.003435      0.071975      0.357317
      8.45554     14.79720     11.11389        -0.011799      0.015936     -0.287462
     10.56943     12.68331     11.11389        -0.055930      0.317120     -0.200043
      8.45554     16.91108      9.00000        -0.005731      0.019420      0.344258
     10.56943     19.02497      9.00000        -0.000015      0.007196      0.341076
[...]
     19.02497      6.34166     11.11389        -0.000254      0.002609      0.505119
     16.91108      6.34166      9.00000        -0.009968      0.008735     -0.529930
     19.02497      4.22777      9.00000         0.000002      0.003642     -0.526670
     16.91108      8.45554     11.11389        -0.010822      0.006759      0.496413
     19.02497     10.56943     11.11389        -0.004735      0.000488      0.503787
     16.91108     10.56943      9.00000        -0.020345      0.001603     -0.530600
     19.02497      8.45554      9.00000        -0.003659      0.002523     -0.527979
     16.91108     12.68331     11.11389        -0.015530     -0.002676      0.500078
     19.02497     14.79720     11.11389        -0.005114     -0.002994      0.506930
     16.91108     14.79720      9.00000        -0.013724     -0.009309     -0.526901
     19.02497     12.68331      9.00000        -0.006719     -0.002868     -0.527213
     16.91108     16.91108     11.11389        -0.006965     -0.006965      0.507242
     19.02497     19.02497     11.11389        -0.001650     -0.001650      0.509271
     16.91108     19.02497      9.00000        -0.003698     -0.003800     -0.525855
     19.02497     16.91108      9.00000        -0.003800     -0.003698     -0.525855
    total drift:                               -0.030117      0.014950     -0.596803

  FREE ENERGIE OF THE ION-ELECTRON SYSTEM (eV)
  free  energy   TOTEN  =     -1151.00876876 eV

  energy  without entropy=    -1151.00876876  energy(sigma->0) =    -1151.00876876