 vasp.6.3.0 20Jan22 (build Apr  1 2022 16:44:48) complex
 executed on        HPECrayEX_GCC date 2022.12.11  06:10:12

 INCAR:
   SYSTEM = MgO-rocksalt
   ISMEAR = 0
   SIGMA = 0.05
   EDIFF = 1E-6
   ALGO = ALL
   ISTART = 0
   IBRION = -1
   NSW = 0
   ISYM = 2
   DIPOL = 0.5 0.5 0.5
   IDIPOL = 3
   LDIPOL = .TRUE.
   GGA = PS
   IVDW = 13
   VDW_S8 = 1.71885698
   VDW_A1 = 0.47901421
   VDW_A2 = 5.96771589
   ENCUT = 520
   PREC = Accurate
   LASPH = .TRUE.
   LREAL = Auto
   ISPIN = 1
   NELM = 200
   NELMIN = 8
   NCORE = 4
   KPAR = 2
   LWAVE = .FALSE.
   LCHARG = .FALSE.

 POTCAR:    PAW_PBE Au 04Oct2007
 POTCAR:    PAW_PBE Mg_pv 13Apr2007
 POTCAR:    PAW_PBE O 08Apr2002
 POTCAR:    PAW_PBE Au 04Oct2007
   VRHFIN =Au: s1d10

   TITEL  = PAW_PBE Au 04Oct2007
   POMASS =  196.966; ZVAL   =   11.000    mass and valenz
   ENMAX  =  229.943; ENMIN  =  172.457 eV

   TITEL  = PAW_PBE Mg_pv 13Apr2007
   POMASS =   24.305; ZVAL   =    8.000    mass and valenz
   ENMAX  =  403.929; ENMIN  =  302.947 eV

   TITEL  = PAW_PBE O 08Apr2002
   POMASS =   16.000; ZVAL   =    6.000    mass and valenz
   ENMAX  =  400.000; ENMIN  =  300.000 eV

 Optimization of the real space projectors (new method)

 maximal supplied QI-value         = 15.12
 optimisation between [QCUT,QGAM] = [ 11.64, 23.28] = [ 37.95,151.78] Ry
 Optimized for a Real-space Cutoff    1.49 Angstroem

   l    n(q)    QCUT    max X(q) W(low)/X(q) W(high)/X(q)  e(spline)
   2      9    11.641    60.898    0.24E-03    0.10E-03    0.19E-06
   2      9    11.641    58.894    0.25E-03    0.10E-03    0.19E-06
   0     10    11.641   109.617    0.73E-04    0.33E-04    0.11E-06
   0     10    11.641    75.026    0.71E-04    0.32E-04    0.11E-06
   1     10    11.641    16.344    0.27E-04    0.97E-04    0.16E-06
   1     10    11.641    10.160    0.23E-04    0.77E-04    0.13E-06
 Optimization of the real space projectors (new method)

[...]

   l    n(q)    QCUT    max X(q) W(low)/X(q) W(high)/X(q)  e(spline)
   1      8    11.527     2.974    0.44E-04    0.56E-04    0.12E-06
   1      8    11.527     4.279    0.12E-03    0.12E-03    0.26E-06
   0      9    11.527    16.381    0.46E-04    0.64E-04    0.78E-07
   0      9    11.527     5.611    0.26E-04    0.43E-04    0.55E-07
   2      8    11.527     4.652    0.22E-03    0.72E-04    0.47E-07
 Optimization of the real space projectors (new method)

 maximal supplied QI-value         = 24.76
 optimisation between [QCUT,QGAM] = [ 11.64, 23.27] = [ 37.91,151.63] Ry
 Optimized for a Real-space Cutoff    1.14 Angstroem

   l    n(q)    QCUT    max X(q) W(low)/X(q) W(high)/X(q)  e(spline)
   0      8    11.635    20.381    0.10E-03    0.33E-03    0.24E-06
   0      8    11.635    15.268    0.11E-03    0.35E-03    0.26E-06
   1      7    11.635     5.964    0.24E-03    0.31E-03    0.30E-06
   1      7    11.635     5.382    0.22E-03    0.25E-03    0.26E-06
|               ----> ADVICE to this user running VASP <----                  |
|     You enforced a specific xc type in the INCAR file but a different       |
|     type was found in the POTCAR file.                                      |
|     I HOPE YOU KNOW WHAT YOU ARE DOING!                                     |

  PAW_PBE Au 04Oct2007                  :
  PAW_PBE Mg_pv 13Apr2007               :
  PAW_PBE O 08Apr2002                   :

 POSCAR: Au Mg  O
  positions in direct lattice
|           W    W    AA    RRRRR   N    N  II  N    N   GGGG   !!!           |
|           W    W   A  A   R    R  NN   N  II  NN   N  G    G  !!!           |
|           W    W  A    A  R    R  N N  N  II  N N  N  G       !!!           |
|           W WW W  AAAAAA  RRRRR   N  N N  II  N  N N  G  GGG   !            |
|           WW  WW  A    A  R   R   N   NN  II  N   NN  G    G                |
|           W    W  A    A  R    R  N    N  II  N    N   GGGG   !!!           |
|     Specifying the vdW parameters                                           |
|     VDW_S8 = 1.719                                                          |
|     VDW_A1 = 0.479                                                          |
|     VDW_A2 = 5.968                                                          |
|     in the INCAR file will overwrite the defaults for pbesol. Please        |
|     make sure that is what you intended.                                    |

 ion  position               nearest neighbor table
   1  0.543  0.557  0.621-   2 2.56  58 2.91
   2  0.457  0.643  0.621-   1 2.56  58 2.91
   3  0.000  0.000  0.407- 105 2.11 106 2.11 121 2.11 186 2.11 103 2.11
   4  0.100  0.100  0.407- 105 2.11 106 2.11 110 2.11 125 2.11 104 2.11
   5  0.000  0.100  0.503- 103 2.11 104 2.11 107 2.11 184 2.11 105 2.11
   6  0.100  0.000  0.503- 103 2.11 104 2.11 120 2.11 123 2.11 106 2.11
   7  0.000  0.200  0.407- 109 2.11 105 2.11 110 2.11 190 2.11 107 2.11
   8  0.100  0.300  0.407- 110 2.11 109 2.11 114 2.11 129 2.11 108 2.11
   9  0.000  0.300  0.503- 107 2.11 108 2.11 111 2.11 188 2.11 109 2.11
  10  0.100  0.200  0.503- 108 2.11 107 2.11 104 2.11 127 2.11 110 2.11
  11  0.000  0.400  0.407- 109 2.11 113 2.11 114 2.11 194 2.11 111 2.11
  12  0.100  0.500  0.407- 113 2.11 114 2.11 118 2.11 133 2.11 112 2.11
  13  0.000  0.500  0.503- 111 2.11 112 2.11 115 2.11 192 2.11 113 2.11
  14  0.100  0.400  0.503- 108 2.11 111 2.11 112 2.11 131 2.11 114 2.11
  15  0.000  0.600  0.407- 113 2.11 117 2.11 118 2.11 198 2.11 115 2.11
  16  0.100  0.700  0.407- 122 2.11 118 2.11 117 2.11 137 2.11 116 2.11
  17  0.000  0.700  0.503- 119 2.11 116 2.11 115 2.11 196 2.11 117 2.11
  18  0.100  0.600  0.503- 112 2.11 115 2.11 116 2.11 135 2.11 118 2.11
  19  0.000  0.800  0.407- 117 2.11 121 2.11 122 2.11 202 2.11 119 2.11
  20  0.100  0.900  0.407- 106 2.11 121 2.11 122 2.11 141 2.11 120 2.11
  21  0.000  0.900  0.503- 103 2.11 119 2.11 120 2.11 200 2.11 121 2.11
  22  0.100  0.800  0.503- 116 2.11 119 2.11 120 2.11 139 2.11 122 2.11
  23  0.200  0.000  0.407- 126 2.11 125 2.11 106 2.11 141 2.11 123 2.11
  24  0.300  0.100  0.407- 125 2.11 126 2.11 130 2.11 145 2.11 124 2.11
  25  0.200  0.100  0.503- 124 2.11 123 2.11 104 2.11 127 2.11 125 2.11
  26  0.300  0.000  0.503- 123 2.11 124 2.11 140 2.11 143 2.11 126 2.11
  27  0.200  0.200  0.407- 129 2.11 130 2.11 110 2.11 125 2.11 127 2.11
  28  0.300  0.300  0.407- 129 2.11 130 2.11 134 2.11 149 2.11 128 2.11
  29  0.200  0.300  0.503- 127 2.11 128 2.11 108 2.11 131 2.11 129 2.11
  30  0.300  0.200  0.503- 127 2.11 128 2.11 124 2.11 147 2.11 130 2.11
  31  0.200  0.400  0.407- 134 2.11 129 2.11 133 2.11 114 2.11 131 2.11
  32  0.300  0.500  0.407- 133 2.11 134 2.11 138 2.11 153 2.11 132 2.11
  33  0.200  0.500  0.503- 132 2.11 131 2.11 112 2.11 135 2.11 133 2.11
  34  0.300  0.400  0.503- 131 2.11 128 2.11 132 2.11 151 2.11 134 2.11
  35  0.200  0.600  0.407- 138 2.11 133 2.11 137 2.11 118 2.11 135 2.11
  36  0.300  0.700  0.407- 137 2.11 142 2.11 138 2.11 157 2.11 136 2.11
  37  0.200  0.700  0.503- 136 2.11 139 2.11 116 2.11 135 2.11 137 2.11
  38  0.300  0.600  0.503- 135 2.11 132 2.11 136 2.11 155 2.11 138 2.11
  39  0.200  0.800  0.407- 137 2.11 142 2.11 141 2.11 122 2.11 139 2.11
  40  0.300  0.900  0.407- 141 2.11 126 2.11 142 2.11 161 2.11 140 2.11
  41  0.200  0.900  0.503- 140 2.11 123 2.11 139 2.11 120 2.11 141 2.11
  42  0.300  0.800  0.503- 136 2.11 139 2.11 140 2.11 159 2.11 142 2.11
  43  0.400  0.000  0.407- 126 2.11 145 2.11 146 2.11 161 2.11 143 2.11
  44  0.500  0.100  0.407- 145 2.11 146 2.11 150 2.11 165 2.11 144 2.11
  45  0.400  0.100  0.503- 124 2.11 143 2.11 144 2.11 147 2.11 145 2.11
  46  0.500  0.000  0.503- 143 2.11 144 2.11 160 2.11 163 2.11 146 2.11
  47  0.400  0.200  0.407- 149 2.11 145 2.11 130 2.11 150 2.11 147 2.11
  48  0.500  0.300  0.407- 150 2.11 149 2.11 154 2.11 169 2.11 148 2.11
  49  0.400  0.300  0.503- 147 2.11 128 2.11 148 2.11 151 2.11 149 2.11
  50  0.500  0.200  0.503- 148 2.11 147 2.11 144 2.11 167 2.11 150 2.11
  51  0.400  0.400  0.407- 134 2.11 149 2.11 153 2.11 154 2.11 151 2.11
  52  0.500  0.500  0.407- 153 2.11 154 2.11 158 2.11 173 2.11 152 2.11
  53  0.400  0.500  0.503- 132 2.11 151 2.11 152 2.11 155 2.11 153 2.11
  54  0.500  0.400  0.503- 148 2.11 151 2.11 152 2.11 171 2.11 154 2.11
  55  0.400  0.600  0.407- 138 2.11 153 2.11 157 2.11 158 2.11 155 2.11
  56  0.500  0.700  0.407- 162 2.11 158 2.11 157 2.11 177 2.11 156 2.11
  57  0.400  0.700  0.503- 159 2.11 155 2.11 156 2.11 136 2.11 157 2.11
  58  0.500  0.600  0.503- 152 2.11 155 2.11 156 2.11 175 2.11 158 2.11   2 2.91   1 2.91
  59  0.400  0.800  0.407- 157 2.11 142 2.11 161 2.11 162 2.11 159 2.11
  60  0.500  0.900  0.407- 146 2.11 161 2.11 162 2.11 181 2.11 160 2.11
[...]
 188  0.900  0.300  0.503-  90 2.11  89 2.11   9 2.11  94 2.11  88 2.11
 189  0.800  0.300  0.407-  68 2.11  87 2.11  88 2.11  91 2.11  89 2.11
 190  0.900  0.200  0.407-  88 2.11  84 2.11  87 2.11   7 2.11  90 2.11
 191  0.800  0.400  0.503-  74 2.11  89 2.11  93 2.11  94 2.11  91 2.11
 192  0.900  0.500  0.503-  13 2.11  93 2.11  94 2.11  98 2.11  92 2.11
 193  0.800  0.500  0.407-  72 2.11  91 2.11  92 2.11  95 2.11  93 2.11
 194  0.900  0.400  0.407-  11 2.11  88 2.11  91 2.11  92 2.11  94 2.11
 195  0.800  0.600  0.503-  78 2.11  93 2.11  97 2.11  98 2.11  95 2.11
 196  0.900  0.700  0.503- 102 2.11  97 2.11  98 2.11  17 2.11  96 2.11
 197  0.800  0.700  0.407-  76 2.11  99 2.11  96 2.11  95 2.11  97 2.11
 198  0.900  0.600  0.407-  15 2.11  92 2.11  95 2.11  96 2.11  98 2.11
 199  0.800  0.800  0.503-  82 2.11  97 2.11 101 2.11 102 2.11  99 2.11
 200  0.900  0.900  0.503-  21 2.11  86 2.11 101 2.11 102 2.11 100 2.11
 201  0.800  0.900  0.407-  80 2.11  83 2.11  99 2.11 100 2.11 101 2.11
 202  0.900  0.800  0.407-  96 2.11  19 2.11  99 2.11 100 2.11 102 2.11

  LATTYP: Found a simple tetragonal cell.
 ALAT       =    21.1388521970
 C/A-ratio  =     1.0461251639

  Lattice vectors:

 A1 = (  21.1388521970,   0.0000000000,   0.0000000000)
 A2 = (   0.0000000000,  21.1388521970,   0.0000000000)
 A3 = (   0.0000000000,   0.0000000000,  22.1138852197)

Analysis of symmetry for initial positions (statically):
 Subroutine PRICEL returns:
 Original cell was already a primitive cell.

 Routine SETGRP: Setting up the symmetry group for a
 simple tetragonal supercell.

 Subroutine GETGRP returns: Found  4 space group operations
 (whereof  1 operations were pure point group operations)
 out of a pool of 16 trial point group operations.

The static configuration has the point symmetry C_1 .
 The point group associated with its full space group is C_2v.

Analysis of symmetry for dynamics (positions and initial velocities):
 Subroutine PRICEL returns:
 Original cell was already a primitive cell.

 Routine SETGRP: Setting up the symmetry group for a
 simple tetragonal supercell.

 Subroutine GETGRP returns: Found  4 space group operations
 (whereof  1 operations were pure point group operations)
 out of a pool of 16 trial point group operations.

The dynamic configuration has the point symmetry C_1 .
 The point group associated with its full space group is C_2v.

 Subroutine INISYM returns: Found  4 space group operations
[...]
     54     -42.8309      2.00000
     55     -42.8305      2.00000
     56     -42.8302      2.00000
     57     -42.8295      2.00000
     58     -42.8290      2.00000
     59     -42.8278      2.00000
     60     -42.8276      2.00000
[...]
    882       5.1384      0.00000
    883       5.1413      0.00000
    884       5.2796      0.00000
    885       5.2902      0.00000
    886       5.3675      0.00000
    887       5.4038      0.00000
    888       5.4807      0.00000
    889       5.5001      0.00000
    890       5.5272      0.00000
    891       5.5276      0.00000
    892       5.5524      0.00000
    893       5.5909      0.00000
    894       5.5966      0.00000
    895       5.6023      0.00000
    896       5.6117      0.00000

 soft charge-density along one line, spin component           1
         0         1         2         3         4         5         6         7         8         9
 total charge-density along one line

------------------------ aborting loop because EDIFF is reached ----------------------------------------

  FORCE on cell =-STRESS in cart. coord.  units (eV):
  Direction    XX          YY          ZZ          XY          YZ          ZX
  Alpha Z  1365.75682  1365.75682  1365.75682
  Ewald  479770.72537479770.72537************  -347.00501     0.00001    -0.00001
  Hartree508283.79867508283.79867************  -233.76896     0.00000    -0.00002
  E(xc)   -7594.18423 -7594.18423 -7612.20859    -0.22969    -0.00000     0.00000
  Local  ************************************   568.96801    -0.00001     0.00003
  n-local -8808.31879 -8808.31880 -8923.20985     5.59923     0.00000     0.00000
  augment  3352.15344  3352.15344  3292.42536     1.71461    -0.00000     0.00000
  Kinetic 22939.60382 22939.60383 23208.32420     4.90979    -0.00000    -0.00001
  Fock        0.00000     0.00000     0.00000     0.00000     0.00000     0.00000
  vdW       -11.32242   -11.32242    -2.77144     0.00135     0.00000    -0.00000
  Total    -208.91823  -208.91823   -11.48202     0.18935     0.00000     0.00000
  in kB     -33.87342   -33.87342    -1.86166     0.03070     0.00000     0.00000

 VOLUME and BASIS-vectors are now :
  energy-cutoff  :      520.00
  volume of cell :     9881.61
      direct lattice vectors                 reciprocal lattice vectors
    21.138852197  0.000000000  0.000000000     0.047306258  0.000000000  0.000000000
     0.000000000 21.138852197  0.000000000     0.000000000  0.047306258  0.000000000
     0.000000000  0.000000000 22.113885220     0.000000000  0.000000000  0.045220457

  length of vectors
    21.138852197 21.138852197 22.113885220     0.047306258  0.047306258  0.045220457

 FORCES acting on ions:
    Electron-Ion                     Ewald-Force                    Non-Local-Force
   -.192E+03 0.192E+03 -.208E+04   0.188E+03 -.188E+03 0.208E+04   0.408E+01 -.408E+01 0.171E+00
   0.192E+03 -.192E+03 -.208E+04   -.188E+03 0.188E+03 0.208E+04   -.408E+01 0.408E+01 0.171E+00
   0.203E+00 -.347E+01 0.932E+03   -.205E+00 0.348E+01 -.923E+03   0.210E-02 -.436E-02 -.769E+01
   0.347E+01 -.203E+00 0.932E+03   -.348E+01 0.205E+00 -.923E+03   0.436E-02 -.210E-02 -.769E+01
   -.138E-07 -.187E-03 -.923E+03   0.101E-06 -.159E-05 0.915E+03   0.000E+00 0.000E+00 0.766E+01
   0.533E+01 -.533E+01 -.923E+03   -.533E+01 0.533E+01 0.914E+03   0.654E-02 -.654E-02 0.766E+01
   -.203E+00 0.347E+01 0.932E+03   0.205E+00 -.348E+01 -.923E+03   -.210E-02 0.436E-02 -.769E+01
   0.527E+01 0.675E+01 0.933E+03   -.528E+01 -.676E+01 -.925E+03   0.642E-02 0.879E-02 -.769E+01
   -.564E+00 0.719E+01 -.922E+03   0.571E+00 -.720E+01 0.914E+03   -.496E-02 0.501E-02 0.766E+01
   0.472E+01 0.472E+01 -.923E+03   -.473E+01 -.473E+01 0.915E+03   0.168E-02 0.168E-02 0.766E+01
   -.469E+00 0.617E+01 0.934E+03   0.476E+00 -.618E+01 -.926E+03   -.540E-02 0.737E-02 -.769E+01
   0.102E+02 0.522E+01 0.938E+03   -.103E+02 -.523E+01 -.930E+03   0.253E-01 0.976E-02 -.770E+01
   -.542E+00 0.503E+01 -.920E+03   0.548E+00 -.503E+01 0.912E+03   -.460E-02 0.318E-02 0.765E+01
   0.105E+02 0.972E+01 -.920E+03   -.105E+02 -.973E+01 0.912E+03   0.523E-02 0.717E-02 0.765E+01
   0.237E-06 -.190E-03 0.936E+03   -.146E-06 0.155E-05 -.928E+03   0.000E+00 0.000E+00 -.770E+01
   0.111E+02 -.468E+01 0.938E+03   -.112E+02 0.469E+01 -.930E+03   0.392E-01 -.455E-02 -.770E+01
   0.542E+00 -.503E+01 -.920E+03   -.548E+00 0.503E+01 0.912E+03   0.460E-02 -.318E-02 0.765E+01
   0.175E+02 0.742E+00 -.917E+03   -.175E+02 -.747E+00 0.909E+03   0.201E-01 0.417E-02 0.765E+01
   0.469E+00 -.617E+01 0.934E+03   -.476E+00 0.618E+01 -.926E+03   0.540E-02 -.737E-02 -.769E+01
   0.610E+01 -.709E+01 0.934E+03   -.612E+01 0.710E+01 -.926E+03   0.144E-01 -.119E-01 -.769E+01
   0.564E+00 -.719E+01 -.922E+03   -.571E+00 0.720E+01 0.914E+03   0.496E-02 -.501E-02 0.766E+01
   0.124E+02 -.985E+01 -.919E+03   -.124E+02 0.986E+01 0.911E+03   0.205E-01 -.647E-02 0.765E+01
   0.709E+01 -.610E+01 0.934E+03   -.710E+01 0.612E+01 -.926E+03   0.119E-01 -.144E-01 -.769E+01
   0.617E+01 -.469E+00 0.934E+03   -.618E+01 0.476E+00 -.926E+03   0.737E-02 -.540E-02 -.769E+01
   0.719E+01 -.565E+00 -.922E+03   -.720E+01 0.571E+00 0.914E+03   0.501E-02 -.496E-02 0.766E+01
   0.985E+01 -.124E+02 -.919E+03   -.986E+01 0.124E+02 0.911E+03   0.647E-02 -.205E-01 0.765E+01
   0.675E+01 0.527E+01 0.933E+03   -.676E+01 -.528E+01 -.925E+03   0.879E-02 0.642E-02 -.769E+01
   0.117E+02 0.149E+02 0.940E+03   -.117E+02 -.150E+02 -.932E+03   0.260E-01 0.357E-01 -.770E+01
   0.133E+02 0.133E+02 -.919E+03   -.133E+02 -.133E+02 0.911E+03   0.860E-02 0.860E-02 0.765E+01
   0.972E+01 0.105E+02 -.920E+03   -.973E+01 -.105E+02 0.912E+03   0.717E-02 0.523E-02 0.765E+01
   0.149E+02 0.117E+02 0.940E+03   -.150E+02 -.117E+02 -.932E+03   0.357E-01 0.260E-01 -.770E+01
   0.290E+02 0.162E+02 0.961E+03   -.292E+02 -.163E+02 -.953E+03   0.159E+00 0.782E-01 -.775E+01
   0.333E+02 0.141E+02 -.910E+03   -.334E+02 -.142E+02 0.902E+03   0.353E-01 0.153E-01 0.764E+01
   0.320E+02 0.320E+02 -.906E+03   -.321E+02 -.321E+02 0.898E+03   0.319E-01 0.319E-01 0.763E+01
   0.242E+02 0.113E+01 0.948E+03   -.244E+02 -.115E+01 -.940E+03   0.110E+00 0.102E-01 -.772E+01
   0.309E+02 -.144E+02 0.965E+03   -.310E+02 0.145E+02 -.957E+03   0.104E+00 -.589E-01 -.768E+01
   0.374E+02 -.120E+02 -.908E+03   -.375E+02 0.120E+02 0.900E+03   0.719E-01 -.728E-03 0.764E+01
   0.793E+02 0.827E+01 -.871E+03   -.797E+02 -.832E+01 0.863E+03   0.282E+00 0.384E-01 0.760E+01
   0.164E+02 -.120E+02 0.942E+03   -.165E+02 0.120E+02 -.934E+03   0.461E-01 -.287E-01 -.770E+01
   0.120E+02 -.164E+02 0.942E+03   -.120E+02 0.165E+02 -.934E+03   0.287E-01 -.461E-01 -.770E+01
   0.149E+02 -.149E+02 -.918E+03   -.149E+02 0.149E+02 0.910E+03   0.185E-01 -.185E-01 0.765E+01
   0.369E+02 -.369E+02 -.900E+03   -.370E+02 0.370E+02 0.892E+03   0.594E-01 -.594E-01 0.764E+01
   0.468E+01 -.111E+02 0.938E+03   -.469E+01 0.112E+02 -.930E+03   0.455E-02 -.392E-01 -.770E+01
   0.234E-06 -.184E-03 0.936E+03   -.139E-06 -.416E-05 -.928E+03   0.000E+00 0.000E+00 -.770E+01
   0.503E+01 -.543E+00 -.920E+03   -.503E+01 0.548E+00 0.912E+03   0.318E-02 -.460E-02 0.765E+01
   -.742E+00 -.175E+02 -.917E+03   0.747E+00 0.175E+02 0.909E+03   -.417E-02 -.201E-01 0.765E+01
   0.522E+01 0.102E+02 0.938E+03   -.523E+01 -.103E+02 -.930E+03   0.976E-02 0.253E-01 -.770E+01
   0.113E+01 0.242E+02 0.948E+03   -.115E+01 -.244E+02 -.940E+03   0.102E-01 0.110E+00 -.772E+01
   0.141E+02 0.333E+02 -.910E+03   -.142E+02 -.334E+02 0.902E+03   0.153E-01 0.353E-01 0.764E+01
   0.742E+00 0.175E+02 -.917E+03   -.747E+00 -.175E+02 0.909E+03   0.417E-02 0.201E-01 0.765E+01
   0.162E+02 0.290E+02 0.961E+03   -.163E+02 -.292E+02 -.953E+03   0.782E-01 0.159E+00 -.775E+01
   0.317E+01 0.312E+02 0.100E+04   -.309E+01 -.313E+02 -.995E+03   -.583E-01 0.124E+00 -.733E+01
   0.710E+02 0.710E+02 -.837E+03   -.714E+02 -.714E+02 0.830E+03   0.293E+00 0.293E+00 0.743E+01
   0.827E+01 0.793E+02 -.871E+03   -.832E+01 -.797E+02 0.863E+03   0.384E-01 0.282E+00 0.760E+01
   0.312E+02 0.317E+01 0.100E+04   -.313E+02 -.309E+01 -.995E+03   0.124E+00 -.583E-01 -.733E+01
   -.317E+01 -.312E+02 0.100E+04   0.309E+01 0.313E+02 -.995E+03   0.583E-01 -.124E+00 -.733E+01
   0.782E+02 -.782E+02 -.793E+03   -.784E+02 0.784E+02 0.786E+03   0.100E+00 -.100E+00 0.677E+01
   -.225E-04 -.245E-03 -.657E+03   0.225E-04 0.543E-04 0.653E+03   0.000E+00 0.000E+00 0.427E+01
   0.144E+02 -.309E+02 0.965E+03   -.145E+02 0.310E+02 -.957E+03   0.589E-01 -.104E+00 -.768E+01
   -.113E+01 -.242E+02 0.948E+03   0.115E+01 0.244E+02 -.940E+03   -.102E-01 -.110E+00 -.772E+01
[...]
   -.800E+01 0.799E+01 0.704E+03   0.801E+01 -.801E+01 -.708E+03   -.258E-01 0.258E-01 0.355E+01
   -.318E+01 0.317E+01 0.701E+03   0.318E+01 -.318E+01 -.705E+03   -.862E-02 0.862E-02 0.356E+01
   -.190E+02 0.134E+02 -.687E+03   0.191E+02 -.135E+02 0.691E+03   -.411E-01 0.281E-01 -.363E+01
   -.123E+02 0.466E+01 -.689E+03   0.123E+02 -.466E+01 0.694E+03   -.230E-01 0.293E-02 -.363E+01
   -.167E+02 0.580E+01 0.712E+03   0.168E+02 -.581E+01 -.716E+03   -.762E-01 0.232E-01 0.355E+01
   -.657E+01 0.562E+01 0.704E+03   0.658E+01 -.564E+01 -.708E+03   -.239E-01 0.156E-01 0.355E+01
   -.309E+02 -.184E+01 -.681E+03   0.310E+02 0.185E+01 0.685E+03   -.558E-01 -.175E-01 -.367E+01
   -.111E+02 -.530E+01 -.690E+03   0.111E+02 0.531E+01 0.694E+03   -.139E-01 -.986E-02 -.363E+01
   -.156E+02 -.671E+01 0.710E+03   0.157E+02 0.673E+01 -.714E+03   -.564E-01 -.356E-01 0.354E+01
   -.883E+01 -.324E+00 0.706E+03   0.885E+01 0.327E+00 -.710E+03   -.280E-01 -.567E-02 0.355E+01
   -.165E+02 -.126E+02 -.688E+03   0.165E+02 0.127E+02 0.692E+03   -.226E-01 -.210E-01 -.364E+01
   -.513E+01 -.639E+01 -.693E+03   0.514E+01 0.639E+01 0.697E+03   -.387E-02 -.707E-02 -.362E+01
   -.736E+01 -.737E+01 0.703E+03   0.738E+01 0.738E+01 -.707E+03   -.182E-01 -.182E-01 0.355E+01
   -.573E+01 -.561E+01 0.703E+03   0.574E+01 0.562E+01 -.707E+03   -.128E-01 -.142E-01 0.355E+01
   -.146E-04 -.110E+00 0.128E+02   0.189E-11 0.696E-12 -.557E-11   -.156E-16 -.382E-15 -.132E+02

 POSITION                                       TOTAL-FORCE (eV/Angst)
     11.47450     11.77823     13.73072        -0.225777      0.225777     -0.167531
      9.66435     13.58839     13.73072         0.225777     -0.225777     -0.167531
      0.00000      0.00000      9.00000        -0.000577      0.001197      0.454130
      2.11389      2.11389      9.00000        -0.001197      0.000577      0.454130
      0.00000      2.11389     11.11389         0.000000      0.000000     -0.442568
      2.11389      0.00000     11.11389        -0.001757      0.001757     -0.442122
      0.00000      4.22777      9.00000         0.000577     -0.001197      0.454130
      2.11389      6.34166      9.00000        -0.001713     -0.002403      0.454751
      0.00000      6.34166     11.11389         0.001349     -0.001356     -0.441705
      2.11389      4.22777     11.11389        -0.000414     -0.000414     -0.441962
      0.00000      8.45554      9.00000         0.001435     -0.002068      0.454768
      2.11389     10.56943      9.00000        -0.006689     -0.002746      0.455954
      0.00000     10.56943     11.11389         0.001216     -0.000863     -0.440032
      2.11389      8.45554     11.11389        -0.001076     -0.001875     -0.439415
      0.00000     12.68331      9.00000         0.000000      0.000000      0.455262
      2.11389     14.79720      9.00000        -0.010089      0.001289      0.456097
      0.00000     14.79720     11.11389        -0.001216      0.000863     -0.440032
      2.11389     12.68331     11.11389        -0.004340     -0.001231     -0.437628
      0.00000     16.91108      9.00000        -0.001435      0.002068      0.454768
      2.11389     19.02497      9.00000        -0.003897      0.003273      0.454355
      0.00000     19.02497     11.11389        -0.001349      0.001356     -0.441705
      2.11389     16.91108     11.11389        -0.005214      0.001766     -0.439938
      4.22777      0.00000      9.00000        -0.003273      0.003897      0.454355
      6.34166      2.11389      9.00000        -0.002068      0.001435      0.454768
      4.22777      2.11389     11.11389        -0.001356      0.001349     -0.441705
      6.34166      0.00000     11.11389        -0.001766      0.005214     -0.439938
      4.22777      4.22777      9.00000        -0.002403     -0.001713      0.454751
      6.34166      6.34166      9.00000        -0.007059     -0.009468      0.457138
      4.22777      6.34166     11.11389        -0.001986     -0.001986     -0.438669
      6.34166      4.22777     11.11389        -0.001875     -0.001076     -0.439415
      4.22777      8.45554      9.00000        -0.009468     -0.007059      0.457138
      6.34166     10.56943      9.00000        -0.042828     -0.024256      0.466264
      4.22777     10.56943     11.11389        -0.006129     -0.003653     -0.429624
      6.34166      8.45554     11.11389        -0.005272     -0.005272     -0.422133
      4.22777     12.68331      9.00000        -0.028646     -0.003025      0.461517
      6.34166     14.79720      9.00000        -0.027693      0.018224      0.448595
      4.22777     14.79720     11.11389        -0.019391     -0.000356     -0.430452
      6.34166     12.68331     11.11389        -0.082926     -0.006379     -0.379013
      4.22777     16.91108      9.00000        -0.012445      0.008134      0.455665
      6.34166     19.02497      9.00000        -0.008134      0.012445      0.455665
      4.22777     19.02497     11.11389        -0.004744      0.004744     -0.439815
      6.34166     16.91108     11.11389        -0.012337      0.012337     -0.426536
      8.45554      0.00000      9.00000        -0.001289      0.010089      0.456097
     10.56943      2.11389      9.00000         0.000000      0.000000      0.455262
      8.45554      2.11389     11.11389        -0.000863      0.001216     -0.440032
     10.56943      0.00000     11.11389         0.001231      0.004340     -0.437628
      8.45554      4.22777      9.00000        -0.002746     -0.006689      0.455954
     10.56943      6.34166      9.00000        -0.003025     -0.028646      0.461517
      8.45554      6.34166     11.11389        -0.003653     -0.006129     -0.429624
     10.56943      4.22777     11.11389        -0.001231     -0.004340     -0.437628
      8.45554      8.45554      9.00000        -0.024256     -0.042828      0.466264
     10.56943     10.56943      9.00000         0.022735     -0.031424      0.351376
      8.45554     10.56943     11.11389        -0.059036     -0.059036     -0.256397
     10.56943      8.45554     11.11389        -0.006379     -0.082926     -0.379013
      8.45554     12.68331      9.00000        -0.031424      0.022735      0.351376
     10.56943     14.79720      9.00000        -0.022735      0.031424      0.351376
      8.45554     14.79720     11.11389        -0.063362      0.063362     -0.364075
     10.56943     12.68331     11.11389         0.000000      0.000000      0.026201
      8.45554     16.91108      9.00000        -0.018224      0.027693      0.448595
     10.56943     19.02497      9.00000         0.003025      0.028646      0.461517
[...]
     19.02497      6.34166     11.11389        -0.003716      0.003232      0.386515
     16.91108      6.34166      9.00000        -0.007198      0.007198     -0.400500
     19.02497      4.22777      9.00000        -0.002399      0.002399     -0.399839
     16.91108      8.45554     11.11389        -0.012068      0.008277      0.382406
     19.02497     10.56943     11.11389        -0.006578      0.000848      0.383271
     16.91108     10.56943      9.00000        -0.021173      0.006313     -0.400197
     19.02497      8.45554      9.00000        -0.006631      0.004398     -0.400638
     16.91108     12.68331     11.11389        -0.017321     -0.005104      0.372909
     19.02497     14.79720     11.11389        -0.003958     -0.002761      0.382746
     16.91108     14.79720      9.00000        -0.016060     -0.009983     -0.405238
     19.02497     12.68331      9.00000        -0.007819     -0.001568     -0.401900
     16.91108     16.91108     11.11389        -0.006590     -0.005958      0.379481
     19.02497     19.02497     11.11389        -0.001075     -0.001978      0.386074
     16.91108     19.02497      9.00000        -0.005092     -0.005092     -0.401375
     19.02497     16.91108      9.00000        -0.003575     -0.003970     -0.401073
    total drift:                               -0.000015     -0.109716     -0.450499

  FREE ENERGIE OF THE ION-ELECTRON SYSTEM (eV)
  free  energy   TOTEN  =     -1201.22437291 eV

  energy  without entropy=    -1201.22437291  energy(sigma->0) =    -1201.22437291