 vasp.6.4.0 14Feb23 (build Jul 14 2023 13:46:40) complex

 executed on             LinuxIFC date 2023.07.30  06:53:32

 INCAR:
   SYSTEM = MgO-rocksalt
   ISMEAR = 0
   SIGMA = 0.05
   EDIFF = 1E-6
   ALGO = ALL
   ISTART = 0
   IBRION = -1
   NSW = 0
   ISYM = 2
   DIPOL = 0.5 0.5 0.5
   IDIPOL = 3
   LDIPOL = .TRUE.
   METAGGA = R2SCAN
   LUSE_VDW = .TRUE.
   BPARAM = 11.95
   CPARAM = 0.0093
   ENCUT = 520
   PREC = Accurate
   LASPH = .TRUE.
   LREAL = Auto
   ISPIN = 1
   NELM = 200
   NELMIN = 8
   NCORE = 16
   KPAR = 1
   LWAVE = .FALSE.
   LCHARG = .FALSE.

 POTCAR:    PAW_PBE Cu 22Jun2005
 POTCAR:    PAW_PBE Mg_pv 13Apr2007
 POTCAR:    PAW_PBE O 08Apr2002
|               ----> ADVICE to this user running VASP <----                  |
|     You have switched on vdW-DFT.                                           |
|     This routine was written and supplied by Jiri Klimes. We recommend      |
|     that you carefully read and cite the following publications:            |
|       J. Klimes, D.R. Bowler, A. Michelides                                 |
|          J. Phys.: Cond Matt. 22 022201 (2010)                              |
|       J. Klimes, D.R. Bowler, A. Michelides                                 |
|          Phys. Rev. B. 83, 195131 (2011)                                    |
|     and references therein.                                                 |

   TITEL  = PAW_PBE Cu 22Jun2005
   POMASS =   63.546; ZVAL   =   11.000    mass and valenz
   ENMAX  =  295.446; ENMIN  =  221.585 eV

   TITEL  = PAW_PBE Mg_pv 13Apr2007
   POMASS =   24.305; ZVAL   =    8.000    mass and valenz
   ENMAX  =  403.929; ENMIN  =  302.947 eV

   TITEL  = PAW_PBE O 08Apr2002
   POMASS =   16.000; ZVAL   =    6.000    mass and valenz
   ENMAX  =  400.000; ENMIN  =  300.000 eV

 Optimization of the real space projectors (new method)

 maximal supplied QI-value         = 16.25
 optimisation between [QCUT,QGAM] = [ 11.54, 23.24] = [ 37.28,151.24] Ry
 Optimized for a Real-space Cutoff    1.53 Angstroem

   l    n(q)    QCUT    max X(q) W(low)/X(q) W(high)/X(q)  e(spline)
   2     10    11.539     4.610    0.96E-04    0.13E-03    0.19E-06
   2     10    11.539     8.522    0.16E-03    0.21E-03    0.28E-06
   0     11    11.539    51.609    0.45E-04    0.31E-04    0.11E-06
   0     11    11.539    27.747    0.39E-04    0.29E-04    0.10E-06
   1     10    11.539    20.408    0.70E-05    0.38E-04    0.18E-06
   1     10    11.539    13.425    0.66E-05    0.34E-04    0.17E-06
 Optimization of the real space projectors (new method)

[...]

   l    n(q)    QCUT    max X(q) W(low)/X(q) W(high)/X(q)  e(spline)
   1      8    11.527     2.974    0.44E-04    0.56E-04    0.12E-06
   1      8    11.527     4.279    0.12E-03    0.12E-03    0.26E-06
   0      9    11.527    16.381    0.46E-04    0.64E-04    0.78E-07
   0      9    11.527     5.611    0.26E-04    0.43E-04    0.55E-07
   2      8    11.527     4.652    0.22E-03    0.72E-04    0.47E-07
 Optimization of the real space projectors (new method)

 maximal supplied QI-value         = 24.76
 optimisation between [QCUT,QGAM] = [ 11.64, 23.27] = [ 37.91,151.63] Ry
 Optimized for a Real-space Cutoff    1.14 Angstroem

   l    n(q)    QCUT    max X(q) W(low)/X(q) W(high)/X(q)  e(spline)
   0      8    11.635    20.381    0.10E-03    0.33E-03    0.24E-06
   0      8    11.635    15.268    0.11E-03    0.35E-03    0.26E-06
   1      7    11.635     5.964    0.24E-03    0.31E-03    0.30E-06
   1      7    11.635     5.382    0.22E-03    0.25E-03    0.26E-06
  PAW_PBE Cu 22Jun2005                  :
  PAW_PBE Mg_pv 13Apr2007               :
  PAW_PBE O 08Apr2002                   :

 POSCAR: Cu Mg  O
  positions in direct lattice
  velocities in cartesian coordinates

 METAGGA = R2SCAN                                      LMAXTAU =  6    LMIXTAU =  F

 ion  position               nearest neighbor table
   1  0.400  0.421  0.593- 153 2.05   2 2.27  55 2.60
   2  0.401  0.506  0.657-   1 2.27   4 2.38   3 2.40
   3  0.401  0.614  0.691-   4 2.27   2 2.40
   4  0.400  0.594  0.590- 157 1.94   3 2.27   2 2.38
   5  0.000  0.000  0.407- 107 2.11 108 2.11 123 2.11 188 2.11 105 2.11
   6  0.100  0.100  0.407- 107 2.11 108 2.11 112 2.11 127 2.11 106 2.11
   7  0.000  0.100  0.503- 105 2.11 106 2.11 109 2.11 186 2.11 107 2.11
   8  0.100  0.000  0.503- 105 2.11 106 2.11 122 2.11 125 2.11 108 2.11
   9  0.000  0.200  0.407- 111 2.11 107 2.11 112 2.11 192 2.11 109 2.11
  10  0.100  0.300  0.407- 112 2.11 111 2.11 116 2.11 131 2.11 110 2.11
  11  0.000  0.300  0.503- 109 2.11 110 2.11 113 2.11 190 2.11 111 2.11
  12  0.100  0.200  0.503- 110 2.11 109 2.11 106 2.11 129 2.11 112 2.11
  13  0.000  0.400  0.407- 111 2.11 115 2.11 116 2.11 196 2.11 113 2.11
  14  0.100  0.500  0.407- 115 2.11 116 2.11 120 2.11 135 2.11 114 2.11
  15  0.000  0.500  0.503- 113 2.11 114 2.11 117 2.11 194 2.11 115 2.11
  16  0.100  0.400  0.503- 110 2.11 113 2.11 114 2.11 133 2.11 116 2.11
  17  0.000  0.600  0.407- 115 2.11 119 2.11 120 2.11 200 2.11 117 2.11
  18  0.100  0.700  0.407- 124 2.11 120 2.11 119 2.11 139 2.11 118 2.11
  19  0.000  0.700  0.503- 121 2.11 118 2.11 117 2.11 198 2.11 119 2.11
  20  0.100  0.600  0.503- 114 2.11 117 2.11 118 2.11 137 2.11 120 2.11
  21  0.000  0.800  0.407- 119 2.11 123 2.11 124 2.11 204 2.11 121 2.11
  22  0.100  0.900  0.407- 108 2.11 123 2.11 124 2.11 143 2.11 122 2.11
  23  0.000  0.900  0.503- 105 2.11 121 2.11 122 2.11 202 2.11 123 2.11
  24  0.100  0.800  0.503- 118 2.11 121 2.11 122 2.11 141 2.11 124 2.11
  25  0.200  0.000  0.407- 128 2.11 127 2.11 108 2.11 143 2.11 125 2.11
  26  0.300  0.100  0.407- 127 2.11 128 2.11 132 2.11 147 2.11 126 2.11
  27  0.200  0.100  0.503- 126 2.11 125 2.11 106 2.11 129 2.11 127 2.11
  28  0.300  0.000  0.503- 125 2.11 126 2.11 142 2.11 145 2.11 128 2.11
  29  0.200  0.200  0.407- 131 2.11 132 2.11 112 2.11 127 2.11 129 2.11
  30  0.300  0.300  0.407- 131 2.11 132 2.11 136 2.11 151 2.11 130 2.11
  31  0.200  0.300  0.503- 129 2.11 130 2.11 110 2.11 133 2.11 131 2.11
  32  0.300  0.200  0.503- 129 2.11 130 2.11 126 2.11 149 2.11 132 2.11
  33  0.200  0.400  0.407- 136 2.11 131 2.11 135 2.11 116 2.11 133 2.11
  34  0.300  0.500  0.407- 135 2.11 136 2.11 140 2.11 155 2.11 134 2.11
  35  0.200  0.500  0.503- 134 2.11 133 2.11 114 2.11 137 2.11 135 2.11
  36  0.300  0.400  0.503- 133 2.11 130 2.11 134 2.11 153 2.11 136 2.11
  37  0.200  0.600  0.407- 140 2.11 135 2.11 139 2.11 120 2.11 137 2.11
  38  0.300  0.700  0.407- 139 2.11 144 2.11 140 2.11 159 2.11 138 2.11
  39  0.200  0.700  0.503- 138 2.11 141 2.11 118 2.11 137 2.11 139 2.11
  40  0.300  0.600  0.503- 137 2.11 134 2.11 138 2.11 157 2.11 140 2.11
  41  0.200  0.800  0.407- 139 2.11 144 2.11 143 2.11 124 2.11 141 2.11
  42  0.300  0.900  0.407- 143 2.11 128 2.11 144 2.11 163 2.11 142 2.11
  43  0.200  0.900  0.503- 142 2.11 125 2.11 141 2.11 122 2.11 143 2.11
  44  0.300  0.800  0.503- 138 2.11 141 2.11 142 2.11 161 2.11 144 2.11
  45  0.400  0.000  0.407- 128 2.11 147 2.11 148 2.11 163 2.11 145 2.11
  46  0.500  0.100  0.407- 147 2.11 148 2.11 152 2.11 167 2.11 146 2.11
  47  0.400  0.100  0.503- 126 2.11 145 2.11 146 2.11 149 2.11 147 2.11
  48  0.500  0.000  0.503- 145 2.11 146 2.11 162 2.11 165 2.11 148 2.11
  49  0.400  0.200  0.407- 151 2.11 147 2.11 132 2.11 152 2.11 149 2.11
  50  0.500  0.300  0.407- 152 2.11 151 2.11 156 2.11 171 2.11 150 2.11
  51  0.400  0.300  0.503- 149 2.11 130 2.11 150 2.11 153 2.11 151 2.11
  52  0.500  0.200  0.503- 150 2.11 149 2.11 146 2.11 169 2.11 152 2.11
  53  0.400  0.400  0.407- 136 2.11 151 2.11 155 2.11 156 2.11 153 2.11
  54  0.500  0.500  0.407- 155 2.11 156 2.11 160 2.11 175 2.11 154 2.11
  55  0.400  0.500  0.503- 134 2.11 153 2.11 154 2.11 157 2.11 155 2.11   1 2.60
  56  0.500  0.400  0.503- 150 2.11 153 2.11 154 2.11 173 2.11 156 2.11
  57  0.400  0.600  0.407- 140 2.11 155 2.11 159 2.11 160 2.11 157 2.11
  58  0.500  0.700  0.407- 164 2.11 160 2.11 159 2.11 179 2.11 158 2.11
  59  0.400  0.700  0.503- 161 2.11 157 2.11 158 2.11 138 2.11 159 2.11
  60  0.500  0.600  0.503- 154 2.11 157 2.11 158 2.11 177 2.11 160 2.11
[...]
 190  0.900  0.300  0.503-  92 2.11  91 2.11  11 2.11  96 2.11  90 2.11
 191  0.800  0.300  0.407-  70 2.11  89 2.11  90 2.11  93 2.11  91 2.11
 192  0.900  0.200  0.407-  90 2.11  86 2.11  89 2.11   9 2.11  92 2.11
 193  0.800  0.400  0.503-  76 2.11  91 2.11  95 2.11  96 2.11  93 2.11
 194  0.900  0.500  0.503-  15 2.11  95 2.11  96 2.11 100 2.11  94 2.11
 195  0.800  0.500  0.407-  74 2.11  93 2.11  94 2.11  97 2.11  95 2.11
 196  0.900  0.400  0.407-  13 2.11  90 2.11  93 2.11  94 2.11  96 2.11
 197  0.800  0.600  0.503-  80 2.11  95 2.11  99 2.11 100 2.11  97 2.11
 198  0.900  0.700  0.503- 104 2.11  99 2.11 100 2.11  19 2.11  98 2.11
 199  0.800  0.700  0.407-  78 2.11 101 2.11  98 2.11  97 2.11  99 2.11
 200  0.900  0.600  0.407-  17 2.11  94 2.11  97 2.11  98 2.11 100 2.11
 201  0.800  0.800  0.503-  84 2.11  99 2.11 103 2.11 104 2.11 101 2.11
 202  0.900  0.900  0.503-  23 2.11  88 2.11 103 2.11 104 2.11 102 2.11
 203  0.800  0.900  0.407-  82 2.11  85 2.11 101 2.11 102 2.11 103 2.11
 204  0.900  0.800  0.407-  98 2.11  21 2.11 101 2.11 102 2.11 104 2.11

  LATTYP: Found a simple tetragonal cell.
 ALAT       =    21.1388521970
 C/A-ratio  =     1.0461251639

  Lattice vectors:

 A1 = (  21.1388521970,   0.0000000000,   0.0000000000)
 A2 = (   0.0000000000,  21.1388521970,   0.0000000000)
 A3 = (   0.0000000000,   0.0000000000,  22.1138852197)

Analysis of symmetry for initial positions (statically):
 Subroutine PRICEL returns:
 Original cell was already a primitive cell.

 Routine SETGRP: Setting up the symmetry group for a
 simple tetragonal supercell.

 Subroutine GETGRP returns: Found  1 space group operations
 (whereof  1 operations were pure point group operations)
 out of a pool of 16 trial point group operations.

The static configuration has the point symmetry C_1 .

Analysis of symmetry for dynamics (positions and initial velocities):
 Subroutine PRICEL returns:
 Original cell was already a primitive cell.

[...]

The dynamic configuration has the point symmetry C_1 .

Analysis of constrained symmetry for selective dynamics:
 Subroutine PRICEL returns:
 Original cell was already a primitive cell.

 Routine SETGRP: Setting up the symmetry group for a
 simple tetragonal supercell.

 Subroutine GETGRP returns: Found  1 space group operations
 (whereof  1 operations were pure point group operations)
 out of a pool of 16 trial point group operations.

The constrained configuration has the point symmetry C_1 .

 Subroutine INISYM returns: Found  1 space group operations
 (whereof  1 operations are pure point group operations),
 and found     1 'primitive' translations

                                     Primitive cell

  volume of cell :    9881.6133

  direct lattice vectors                    reciprocal lattice vectors
    21.138852197  0.000000000  0.000000000     0.047306258  0.000000000  0.000000000
     0.000000000 21.138852197  0.000000000     0.000000000  0.047306258  0.000000000
     0.000000000  0.000000000 22.113885220     0.000000000  0.000000000  0.045220457

[...]
     52     -44.4526      2.00000
     53     -44.4518      2.00000
     54     -44.4500      2.00000
     55     -44.4490      2.00000
     56     -44.4486      2.00000
     57     -44.4481      2.00000
     58     -44.4451      2.00000
     59     -44.4447      2.00000
     60     -44.4445      2.00000
[...]
    882       5.0579      0.00000
    883       5.0891      0.00000
    884       5.2259      0.00000
    885       5.2825      0.00000
    886       5.3594      0.00000
    887       5.4040      0.00000
    888       5.6117      0.00000
    889       5.6364      0.00000
    890       5.7905      0.00000
    891       5.8705      0.00000
    892       5.8915      0.00000
    893       5.9299      0.00000
    894       5.9728      0.00000
    895       6.0332      0.00000
    896       6.0952      0.00000

 soft charge-density along one line, spin component           1
         0         1         2         3         4         5         6         7         8         9
 total charge-density along one line

------------------------ aborting loop because EDIFF is reached ----------------------------------------

  FORCE on cell =-STRESS in cart. coord.  units (eV):
  Direction    XX          YY          ZZ          XY          YZ          ZX
  Alpha Z  1394.80054  1394.80054  1394.80054
  Ewald  481518.80809483945.56047************     3.30592   512.32742     8.74192
  Hartree511615.71096513639.61510************     2.74862   417.83393     6.63291
  E(xc)   -8554.43945 -8554.14081 -8544.93236     0.00103     0.14609     0.00191
  Local  ************************************    -6.04626  -927.49643   -15.26836
  n-local -8770.36049 -8769.41780 -8894.20333     0.00134     0.11033    -0.00705
  augment  4088.99460  4082.41040  4020.59783    -0.00643    -1.75623    -0.05043
  Kinetic 23098.07130 23091.84267 23309.60988    -0.00219    -1.40148    -0.07168
  Fock        0.00000     0.00000     0.00000     0.00000     0.00000     0.00000
  Total    -228.98357  -230.25081   -21.40625     0.00202    -0.23637    -0.02078
  in kB     -37.12676   -37.33223    -3.47075     0.00033    -0.03832    -0.00337

 VOLUME and BASIS-vectors are now :
  energy-cutoff  :      520.00
  volume of cell :     9881.61
      direct lattice vectors                 reciprocal lattice vectors
    21.138852197  0.000000000  0.000000000     0.047306258  0.000000000  0.000000000
     0.000000000 21.138852197  0.000000000     0.000000000  0.047306258  0.000000000
     0.000000000  0.000000000 22.113885220     0.000000000  0.000000000  0.045220457

  length of vectors
    21.138852197 21.138852197 22.113885220     0.047306258  0.047306258  0.045220457

 FORCES acting on ions:
    Electron-Ion                     Ewald-Force                    Non-Local-Force
   0.145E+01 0.464E+03 -.201E+04   -.141E+01 -.456E+03 0.201E+04   -.460E-01 -.750E+01 -.781E+01
   -.175E+01 0.259E+03 -.217E+04   0.169E+01 -.262E+03 0.216E+04   0.540E-01 0.257E+01 0.767E+01
   -.278E+01 -.421E+03 -.212E+04   0.270E+01 0.413E+03 0.211E+04   0.465E-01 0.688E+01 0.126E+02
   0.287E+01 -.306E+03 -.175E+04   -.282E+01 0.306E+03 0.176E+04   -.532E-01 0.408E-01 -.673E+01
   0.744E+01 -.228E+01 0.937E+03   -.746E+01 0.229E+01 -.928E+03   0.157E-01 -.609E-02 -.752E+01
   0.138E+02 0.747E+01 0.940E+03   -.138E+02 -.748E+01 -.932E+03   0.331E-01 0.846E-02 -.752E+01
   0.982E+01 0.630E+01 -.919E+03   -.984E+01 -.629E+01 0.911E+03   0.138E-01 -.562E-02 0.750E+01
   0.159E+02 -.428E+01 -.917E+03   -.160E+02 0.429E+01 0.909E+03   0.187E-01 -.802E-02 0.750E+01
   0.105E+02 0.110E+02 0.939E+03   -.105E+02 -.110E+02 -.931E+03   0.275E-01 0.360E-02 -.752E+01
   0.281E+02 0.202E+02 0.951E+03   -.282E+02 -.203E+02 -.943E+03   0.103E+00 0.208E-01 -.755E+01
   0.198E+02 0.167E+02 -.914E+03   -.198E+02 -.167E+02 0.906E+03   0.166E-01 -.301E-02 0.749E+01
   0.257E+02 0.221E+02 -.913E+03   -.257E+02 -.221E+02 0.905E+03   0.457E-01 -.448E-02 0.749E+01
   0.188E+02 0.100E+02 0.946E+03   -.189E+02 -.100E+02 -.938E+03   0.466E-01 0.799E-02 -.753E+01
   0.436E+02 0.414E+01 0.964E+03   -.438E+02 -.416E+01 -.956E+03   0.153E+00 0.146E-01 -.757E+01
   0.305E+02 0.365E+01 -.909E+03   -.306E+02 -.366E+01 0.901E+03   0.154E-01 0.777E-02 0.748E+01
   0.589E+02 0.237E+02 -.898E+03   -.590E+02 -.237E+02 0.890E+03   0.365E-01 0.167E-03 0.745E+01
   0.204E+02 -.594E+01 0.948E+03   -.205E+02 0.593E+01 -.940E+03   0.570E-01 0.356E-02 -.753E+01
   0.332E+02 -.189E+02 0.956E+03   -.334E+02 0.189E+02 -.948E+03   0.131E+00 -.195E-01 -.755E+01
   0.238E+02 -.153E+02 -.911E+03   -.239E+02 0.153E+02 0.904E+03   0.267E-01 0.586E-02 0.749E+01
   0.666E+02 -.144E+02 -.893E+03   -.667E+02 0.144E+02 0.885E+03   0.750E-01 0.188E-01 0.745E+01
   0.125E+02 -.128E+02 0.941E+03   -.126E+02 0.128E+02 -.933E+03   0.346E-01 -.910E-02 -.752E+01
   0.160E+02 -.130E+02 0.942E+03   -.160E+02 0.130E+02 -.934E+03   0.386E-01 -.245E-01 -.752E+01
   0.116E+02 -.114E+02 -.917E+03   -.116E+02 0.114E+02 0.910E+03   0.164E-01 -.490E-02 0.750E+01
   0.332E+02 -.271E+02 -.908E+03   -.333E+02 0.271E+02 0.900E+03   0.564E-01 -.638E-02 0.748E+01
   0.137E+02 -.439E+01 0.943E+03   -.138E+02 0.441E+01 -.935E+03   0.273E-01 -.119E-01 -.753E+01
   0.102E+02 0.154E+02 0.949E+03   -.102E+02 -.155E+02 -.940E+03   0.260E-01 0.696E-01 -.754E+01
   0.197E+02 0.157E+02 -.913E+03   -.198E+02 -.157E+02 0.905E+03   0.260E-01 0.203E-01 0.749E+01
   0.118E+02 -.866E+01 -.910E+03   -.118E+02 0.867E+01 0.902E+03   0.117E-01 -.567E-02 0.749E+01
   0.226E+02 0.256E+02 0.952E+03   -.228E+02 -.257E+02 -.944E+03   0.859E-01 0.695E-01 -.754E+01
   0.309E+02 0.526E+02 0.992E+03   -.312E+02 -.530E+02 -.984E+03   0.226E+00 0.267E+00 -.753E+01
   0.624E+02 0.559E+02 -.887E+03   -.627E+02 -.559E+02 0.880E+03   0.210E+00 -.261E-01 0.742E+01
   0.267E+02 0.610E+02 -.894E+03   -.268E+02 -.612E+02 0.887E+03   0.392E-01 0.178E+00 0.745E+01
   0.539E+02 0.279E+02 0.987E+03   -.543E+02 -.279E+02 -.979E+03   0.361E+00 0.606E-01 -.768E+01
   0.605E+02 0.107E+02 0.106E+04   -.612E+02 -.108E+02 -.105E+04   0.491E+00 0.891E-01 -.774E+01
   0.129E+03 0.134E+02 -.844E+03   -.129E+03 -.135E+02 0.837E+03   0.199E+00 0.353E-01 0.732E+01
   0.157E+03 0.107E+03 -.748E+03   -.160E+03 -.107E+03 0.741E+03   0.168E+01 -.195E-01 0.669E+01
   0.600E+02 -.181E+02 0.995E+03   -.605E+02 0.181E+02 -.987E+03   0.457E+00 -.208E-01 -.768E+01
   0.385E+02 -.528E+02 0.101E+04   -.389E+02 0.532E+02 -.100E+04   0.311E+00 -.325E+00 -.754E+01
   0.819E+02 -.570E+02 -.871E+03   -.822E+02 0.570E+02 0.863E+03   0.262E+00 0.116E-01 0.741E+01
   0.186E+03 -.721E+02 -.705E+03   -.189E+03 0.720E+02 0.698E+03   0.245E+01 0.420E-01 0.694E+01
   0.285E+02 -.310E+02 0.960E+03   -.286E+02 0.311E+02 -.952E+03   0.107E+00 -.968E-01 -.754E+01
   0.124E+02 -.263E+02 0.954E+03   -.124E+02 0.264E+02 -.946E+03   0.271E-01 -.109E+00 -.755E+01
   0.248E+02 -.284E+02 -.908E+03   -.248E+02 0.284E+02 0.900E+03   0.227E-01 -.422E-01 0.749E+01
   0.387E+02 -.816E+02 -.875E+03   -.387E+02 0.819E+02 0.867E+03   0.487E-02 -.248E+00 0.741E+01
   0.453E-01 -.620E+01 0.948E+03   -.449E-01 0.622E+01 -.940E+03   -.295E-03 -.132E-01 -.753E+01
   -.101E+02 0.154E+02 0.949E+03   0.102E+02 -.155E+02 -.941E+03   -.266E-01 0.693E-01 -.754E+01
   0.640E-01 0.261E+02 -.907E+03   -.634E-01 -.262E+02 0.899E+03   -.455E-03 0.637E-01 0.748E+01
   -.117E+02 -.869E+01 -.910E+03   0.117E+02 0.870E+01 0.902E+03   -.123E-01 -.549E-02 0.749E+01
   0.735E-01 0.422E+02 0.967E+03   -.727E-01 -.426E+02 -.959E+03   -.542E-03 0.300E+00 -.759E+01
   -.307E+02 0.528E+02 0.993E+03   0.310E+02 -.531E+02 -.985E+03   -.227E+00 0.266E+00 -.753E+01
   0.338E+00 0.159E+03 -.811E+03   -.335E+00 -.161E+03 0.803E+03   -.219E-02 0.167E+01 0.737E+01
   -.266E+02 0.611E+02 -.894E+03   0.266E+02 -.613E+02 0.887E+03   -.404E-01 0.176E+00 0.745E+01
   0.237E+00 0.550E+02 0.107E+04   -.235E+00 -.555E+02 -.106E+04   -.193E-02 0.367E+00 -.575E+01
   -.602E+02 0.108E+02 0.106E+04   0.609E+02 -.109E+02 -.105E+04   -.494E+00 0.887E-01 -.775E+01
   0.128E+01 0.260E+02 -.514E+03   -.127E+01 -.271E+02 0.509E+03   -.709E-02 0.963E+00 0.420E+01
   -.157E+03 0.108E+03 -.747E+03   0.160E+03 -.108E+03 0.740E+03   -.168E+01 -.237E-01 0.667E+01
   0.296E+00 -.378E+02 0.109E+04   -.293E+00 0.380E+02 -.108E+04   -.252E-02 -.216E+00 -.490E+01
   -.383E+02 -.529E+02 0.101E+04   0.387E+02 0.534E+02 -.100E+04   -.313E+00 -.324E+00 -.754E+01
   0.621E+00 -.187E+03 -.741E+03   -.616E+00 0.190E+03 0.734E+03   -.423E-02 -.237E+01 0.684E+01
   -.186E+03 -.725E+02 -.704E+03   0.189E+03 0.724E+02 0.696E+03   -.245E+01 0.432E-01 0.692E+01
[...]
   -.110E+02 0.981E+01 0.709E+03   0.110E+02 -.982E+01 -.712E+03   -.308E-01 0.809E-02 0.342E+01
   -.348E-01 0.694E+01 0.705E+03   0.344E-01 -.694E+01 -.709E+03   0.533E-03 0.162E-02 0.344E+01
   -.201E+02 0.992E+01 -.685E+03   0.201E+02 -.992E+01 0.689E+03   -.180E-01 0.227E-02 -.358E+01
   -.101E+00 0.216E+01 -.686E+03   0.100E+00 -.216E+01 0.690E+03   0.942E-03 0.747E-02 -.357E+01
   -.161E+02 0.200E+01 0.713E+03   0.161E+02 -.201E+01 -.717E+03   -.401E-01 0.101E-01 0.341E+01
   -.612E-01 0.621E+01 0.709E+03   0.606E-01 -.621E+01 -.712E+03   0.796E-03 0.643E-02 0.343E+01
   -.223E+02 -.577E+01 -.683E+03   0.223E+02 0.576E+01 0.687E+03   -.247E-01 0.114E-01 -.358E+01
   -.855E-01 -.906E+01 -.688E+03   0.850E-01 0.906E+01 0.691E+03   0.757E-03 0.481E-02 -.356E+01
   -.128E+02 -.891E+01 0.710E+03   0.129E+02 0.891E+01 -.714E+03   -.396E-01 -.612E-02 0.342E+01
   -.701E-01 -.360E+01 0.709E+03   0.695E-01 0.360E+01 -.713E+03   0.794E-03 0.469E-02 0.343E+01
   -.128E+02 -.123E+02 -.688E+03   0.128E+02 0.123E+02 0.692E+03   -.225E-01 -.398E-02 -.355E+01
   -.443E-01 -.707E+01 -.691E+03   0.441E-01 0.708E+01 0.695E+03   0.417E-03 -.507E-02 -.354E+01
   -.686E+01 -.675E+01 0.705E+03   0.687E+01 0.676E+01 -.709E+03   -.221E-01 -.128E-01 0.344E+01
   -.463E-01 -.805E+01 0.706E+03   0.459E-01 0.805E+01 -.710E+03   0.523E-03 -.682E-02 0.344E+01
   -.823E-01 -.259E+01 -.713E+00   0.164E-11 -.104E-11 -.762E-11   0.493E-01 0.259E+01 0.356E+01

 POSITION                                       TOTAL-FORCE (eV/Angst)
      8.46039      8.90641     13.11119        -0.003713      0.120636     -0.127261
      8.46878     10.69052     14.51992        -0.008082      0.138849     -0.197060
      8.47353     12.97033     15.28534        -0.024728     -0.181325     -0.241108
      8.46080     12.56080     13.05418        -0.002861     -0.093224      0.051299
      0.00000      0.00000      9.00000        -0.004149      0.001664      0.529027
      2.11389      2.11389      9.00000        -0.009305     -0.002520      0.530464
      0.00000      2.11389     11.11389        -0.003598      0.001674     -0.476864
      2.11389      0.00000     11.11389        -0.005121      0.002189     -0.475856
      0.00000      4.22777      9.00000        -0.007344     -0.000991      0.530821
      2.11389      6.34166      9.00000        -0.027689     -0.005758      0.538531
      0.00000      6.34166     11.11389        -0.003793      0.001094     -0.471300
      2.11389      4.22777     11.11389        -0.011813      0.001422     -0.469030
      0.00000      8.45554      9.00000        -0.012614     -0.002129      0.534104
      2.11389     10.56943      9.00000        -0.042030     -0.004413      0.544732
      0.00000     10.56943     11.11389        -0.003023     -0.002126     -0.467081
      2.11389      8.45554     11.11389        -0.006124      0.000956     -0.449445
      0.00000     12.68331      9.00000        -0.015167     -0.001161      0.534327
      2.11389     14.79720      9.00000        -0.035274      0.005731      0.538710
      0.00000     14.79720     11.11389        -0.006509     -0.001728     -0.471384
      2.11389     12.68331     11.11389        -0.015890     -0.006095     -0.449685
      0.00000     16.91108      9.00000        -0.009332      0.002579      0.530951
      2.11389     19.02497      9.00000        -0.010804      0.006925      0.530720
      0.00000     19.02497     11.11389        -0.004281      0.001308     -0.476906
      2.11389     16.91108     11.11389        -0.014491      0.001700     -0.468202
      4.22777      0.00000      9.00000        -0.007787      0.003159      0.531724
      6.34166      2.11389      9.00000        -0.007637     -0.019173      0.534473
      4.22777      2.11389     11.11389        -0.007313     -0.005122     -0.470286
      6.34166      0.00000     11.11389        -0.003196      0.001225     -0.470149
      4.22777      4.22777      9.00000        -0.025047     -0.020558      0.533735
      6.34166      6.34166      9.00000        -0.076021     -0.085830      0.513300
      4.22777      6.34166     11.11389        -0.050776      0.012207     -0.425559
      6.34166      4.22777     11.11389        -0.011174     -0.045397     -0.443602
      4.22777      8.45554      9.00000        -0.094392     -0.016010      0.564374
      6.34166     10.56943      9.00000        -0.167832     -0.029694      0.533361
      4.22777     10.56943     11.11389        -0.038421     -0.012341     -0.361693
      6.34166      8.45554     11.11389        -0.616234      0.029547     -0.282835
      4.22777     12.68331      9.00000        -0.117216      0.004607      0.564852
      6.34166     14.79720      9.00000        -0.104106      0.107956      0.509225
      4.22777     14.79720     11.11389        -0.062955     -0.006329     -0.418184
      6.34166     12.68331     11.11389        -0.897643     -0.018916     -0.407178
      4.22777     16.91108      9.00000        -0.031179      0.028294      0.534975
      6.34166     19.02497      9.00000        -0.007792      0.029300      0.537656
      4.22777     19.02497     11.11389        -0.006325      0.010675     -0.468505
      6.34166     16.91108     11.11389         0.002369      0.057386     -0.419026
      8.45554      0.00000      9.00000         0.000324      0.003616      0.533687
     10.56943      2.11389      9.00000         0.008102     -0.019101      0.534474
      8.45554      2.11389     11.11389         0.000307     -0.015461     -0.464114
     10.56943      0.00000     11.11389         0.003664      0.001331     -0.470086
      8.45554      4.22777      9.00000         0.000456     -0.078090      0.542276
     10.56943      6.34166      9.00000         0.076742     -0.085558      0.513537
      8.45554      6.34166     11.11389         0.000869     -0.554051     -0.436904
     10.56943      4.22777     11.11389         0.011773     -0.044937     -0.443450
      8.45554      8.45554      9.00000         0.000739     -0.084689      0.126314
     10.56943     10.56943      9.00000         0.168859     -0.029558      0.534112
      8.45554     10.56943     11.11389         0.001200     -0.148069     -0.222263
     10.56943      8.45554     11.11389         0.620094      0.030262     -0.281291
      8.45554     12.68331      9.00000         0.000918      0.047458     -0.051192
     10.56943     14.79720      9.00000         0.105025      0.107666      0.509838
      8.45554     14.79720     11.11389         0.001547      0.828390     -0.323661
     10.56943     12.68331     11.11389         0.902924     -0.018803     -0.406560
[...]
     19.02497      6.34166     11.11389         0.000359     -0.000578      0.306004
     16.91108      6.34166      9.00000        -0.008327      0.002269     -0.364047
     19.02497      4.22777      9.00000         0.000313      0.000437     -0.361282
     16.91108      8.45554     11.11389        -0.004908      0.000640      0.299430
     19.02497     10.56943     11.11389         0.000416      0.002069      0.303430
     16.91108     10.56943      9.00000        -0.010880      0.002774     -0.366655
     19.02497      8.45554      9.00000         0.000378      0.001852     -0.363521
     16.91108     12.68331     11.11389        -0.006766      0.003166      0.299415
     19.02497     14.79720     11.11389         0.000370      0.001362      0.306026
     16.91108     14.79720      9.00000        -0.010757     -0.001698     -0.364002
     19.02497     12.68331      9.00000         0.000405      0.001295     -0.363491
     16.91108     16.91108     11.11389        -0.006074     -0.001107      0.306353
     19.02497     19.02497     11.11389         0.000303     -0.001396      0.309748
     16.91108     19.02497      9.00000        -0.005953     -0.003503     -0.360833
     19.02497     16.91108      9.00000         0.000289     -0.001885     -0.361265
    total drift:                               -0.033025     -0.001584      2.849866

  FREE ENERGIE OF THE ION-ELECTRON SYSTEM (eV)
  free  energy   TOTEN  =     -1534.01978852 eV

  energy  without entropy=    -1534.01978852  energy(sigma->0) =    -1534.01978852