 vasp.6.3.0 20Jan22 (build Apr  1 2022 16:44:48) complex
 executed on        HPECrayEX_GCC date 2023.02.09  19:23:27

 INCAR:
   SYSTEM = MgO-rocksalt
   ISMEAR = 0
   SIGMA = 0.05
   EDIFF = 1E-5
   ALGO = ALL
   ISTART = 0
   IBRION = -1
   NSW = 0
   ISYM = 2
   DIPOL = 0.5 0.5 0.5
   IDIPOL = 3
   LDIPOL = .TRUE.
   LHFCALC = .TRUE.
   HFSCREEN = 0.2
   GGA = PE
   ENCUT = 520
   PREC = Accurate
   LASPH = .TRUE.
   LREAL = Auto
   ISPIN = 1
   NELM = 200
   NELMIN = 8
   NCORE = 4
   KPAR = 2
   LWAVE = .FALSE.
   LCHARG = .FALSE.

 POTCAR:    PAW_PBE Ag 02Apr2005
 POTCAR:    PAW_PBE Mg_pv 13Apr2007
 POTCAR:    PAW_PBE O 08Apr2002
|           W    W    AA    RRRRR   N    N  II  N    N   GGGG   !!!           |
|           W    W   A  A   R    R  NN   N  II  NN   N  G    G  !!!           |
|           W    W  A    A  R    R  N N  N  II  N N  N  G       !!!           |
|           W WW W  AAAAAA  RRRRR   N  N N  II  N  N N  G  GGG   !            |
|           WW  WW  A    A  R   R   N   NN  II  N   NN  G    G                |
|           W    W  A    A  R    R  N    N  II  N    N   GGGG   !!!           |
|     You have selected ISYM=2 for a HF type calculation. This will           |
|     symmetrize the charge density but not the exchange potential. I         |
|     suggest to use ISYM=3 instead. This uses symmetry to obtain the         |
|     orbitals at all k-points in the Brillouin zone, but does not apply      |
|     symmetry to the Hartree potential directly. The resultant charge        |
|     might have lower symmetry than the crystal but, at least, Hartree       |
|     and exchange are fully compatible.                                      |

   TITEL  = PAW_PBE Ag 02Apr2005
   POMASS =  107.868; ZVAL   =   11.000    mass and valenz
   ENMAX  =  249.844; ENMIN  =  187.383 eV

   TITEL  = PAW_PBE Mg_pv 13Apr2007
   POMASS =   24.305; ZVAL   =    8.000    mass and valenz
   ENMAX  =  403.929; ENMIN  =  302.947 eV

   TITEL  = PAW_PBE O 08Apr2002
   POMASS =   16.000; ZVAL   =    6.000    mass and valenz
   ENMAX  =  400.000; ENMIN  =  300.000 eV

 Optimization of the real space projectors (new method)

 maximal supplied QI-value         = 15.12
 optimisation between [QCUT,QGAM] = [ 11.64, 23.28] = [ 37.95,151.78] Ry
 Optimized for a Real-space Cutoff    1.45 Angstroem

   l    n(q)    QCUT    max X(q) W(low)/X(q) W(high)/X(q)  e(spline)
   2      9    11.641    53.897    0.22E-03    0.42E-04    0.28E-06
   2      9    11.641    52.416    0.23E-03    0.44E-04    0.29E-06
   0     10    11.641   122.045    0.51E-04    0.25E-04    0.16E-06
   0     10    11.641    73.629    0.49E-04    0.24E-04    0.16E-06
   1     10    11.641    15.255    0.99E-04    0.55E-04    0.11E-06
   1     10    11.641     9.562    0.81E-04    0.47E-04    0.95E-07
 Optimization of the real space projectors (new method)

[...]

   l    n(q)    QCUT    max X(q) W(low)/X(q) W(high)/X(q)  e(spline)
   1      8    11.527     2.974    0.44E-04    0.56E-04    0.12E-06
   1      8    11.527     4.279    0.12E-03    0.12E-03    0.26E-06
   0      9    11.527    16.381    0.46E-04    0.64E-04    0.78E-07
   0      9    11.527     5.611    0.26E-04    0.43E-04    0.55E-07
   2      8    11.527     4.652    0.22E-03    0.72E-04    0.47E-07
 Optimization of the real space projectors (new method)

 maximal supplied QI-value         = 24.76
 optimisation between [QCUT,QGAM] = [ 11.64, 23.27] = [ 37.91,151.63] Ry
 Optimized for a Real-space Cutoff    1.14 Angstroem

   l    n(q)    QCUT    max X(q) W(low)/X(q) W(high)/X(q)  e(spline)
   0      8    11.635    20.381    0.10E-03    0.33E-03    0.24E-06
   0      8    11.635    15.268    0.11E-03    0.35E-03    0.26E-06
   1      7    11.635     5.964    0.24E-03    0.31E-03    0.30E-06
   1      7    11.635     5.382    0.22E-03    0.25E-03    0.26E-06
  PAW_PBE Ag 02Apr2005                  :
  PAW_PBE Mg_pv 13Apr2007               :
  PAW_PBE O 08Apr2002                   :

 POSCAR: Ag Mg  O
  positions in direct lattice
 exchange correlation table for  LEXCH =        8
   RHO(1)=    0.500       N(1)  =     2000
   RHO(2)=  100.500       N(2)  =     4000

 ion  position               nearest neighbor table
   1  0.500  0.500  0.720-   2 2.55
   2  0.500  0.500  0.605- 152 2.27   1 2.55
   3  0.000  0.000  0.407- 105 2.11 106 2.11 121 2.11 186 2.11 103 2.11
   4  0.100  0.100  0.407- 105 2.11 106 2.11 110 2.11 125 2.11 104 2.11
   5  0.000  0.100  0.503- 103 2.11 104 2.11 107 2.11 184 2.11 105 2.11
   6  0.100  0.000  0.503- 103 2.11 104 2.11 120 2.11 123 2.11 106 2.11
   7  0.000  0.200  0.407- 109 2.11 105 2.11 110 2.11 190 2.11 107 2.11
   8  0.100  0.300  0.407- 110 2.11 109 2.11 114 2.11 129 2.11 108 2.11
   9  0.000  0.300  0.503- 107 2.11 108 2.11 111 2.11 188 2.11 109 2.11
  10  0.100  0.200  0.503- 108 2.11 107 2.11 104 2.11 127 2.11 110 2.11
  11  0.000  0.400  0.407- 109 2.11 113 2.11 114 2.11 194 2.11 111 2.11
  12  0.100  0.500  0.407- 113 2.11 114 2.11 118 2.11 133 2.11 112 2.11
  13  0.000  0.500  0.503- 111 2.11 112 2.11 115 2.11 192 2.11 113 2.11
  14  0.100  0.400  0.503- 108 2.11 111 2.11 112 2.11 131 2.11 114 2.11
  15  0.000  0.600  0.407- 113 2.11 117 2.11 118 2.11 198 2.11 115 2.11
  16  0.100  0.700  0.407- 122 2.11 118 2.11 117 2.11 137 2.11 116 2.11
  17  0.000  0.700  0.503- 119 2.11 116 2.11 115 2.11 196 2.11 117 2.11
  18  0.100  0.600  0.503- 112 2.11 115 2.11 116 2.11 135 2.11 118 2.11
  19  0.000  0.800  0.407- 117 2.11 121 2.11 122 2.11 202 2.11 119 2.11
  20  0.100  0.900  0.407- 106 2.11 121 2.11 122 2.11 141 2.11 120 2.11
  21  0.000  0.900  0.503- 103 2.11 119 2.11 120 2.11 200 2.11 121 2.11
  22  0.100  0.800  0.503- 116 2.11 119 2.11 120 2.11 139 2.11 122 2.11
  23  0.200  0.000  0.407- 126 2.11 125 2.11 106 2.11 141 2.11 123 2.11
  24  0.300  0.100  0.407- 125 2.11 126 2.11 130 2.11 145 2.11 124 2.11
  25  0.200  0.100  0.503- 124 2.11 123 2.11 104 2.11 127 2.11 125 2.11
  26  0.300  0.000  0.503- 123 2.11 124 2.11 140 2.11 143 2.11 126 2.11
  27  0.200  0.200  0.407- 129 2.11 130 2.11 110 2.11 125 2.11 127 2.11
  28  0.300  0.300  0.407- 129 2.11 130 2.11 134 2.11 149 2.11 128 2.11
  29  0.200  0.300  0.503- 127 2.11 128 2.11 108 2.11 131 2.11 129 2.11
  30  0.300  0.200  0.503- 127 2.11 128 2.11 124 2.11 147 2.11 130 2.11
  31  0.200  0.400  0.407- 134 2.11 129 2.11 133 2.11 114 2.11 131 2.11
  32  0.300  0.500  0.407- 133 2.11 134 2.11 138 2.11 153 2.11 132 2.11
  33  0.200  0.500  0.503- 132 2.11 131 2.11 112 2.11 135 2.11 133 2.11
  34  0.300  0.400  0.503- 131 2.11 128 2.11 132 2.11 151 2.11 134 2.11
  35  0.200  0.600  0.407- 138 2.11 133 2.11 137 2.11 118 2.11 135 2.11
  36  0.300  0.700  0.407- 137 2.11 142 2.11 138 2.11 157 2.11 136 2.11
  37  0.200  0.700  0.503- 136 2.11 139 2.11 116 2.11 135 2.11 137 2.11
  38  0.300  0.600  0.503- 135 2.11 132 2.11 136 2.11 155 2.11 138 2.11
  39  0.200  0.800  0.407- 137 2.11 142 2.11 141 2.11 122 2.11 139 2.11
  40  0.300  0.900  0.407- 141 2.11 126 2.11 142 2.11 161 2.11 140 2.11
  41  0.200  0.900  0.503- 140 2.11 123 2.11 139 2.11 120 2.11 141 2.11
  42  0.300  0.800  0.503- 136 2.11 139 2.11 140 2.11 159 2.11 142 2.11
  43  0.400  0.000  0.407- 126 2.11 145 2.11 146 2.11 161 2.11 143 2.11
  44  0.500  0.100  0.407- 145 2.11 146 2.11 150 2.11 165 2.11 144 2.11
  45  0.400  0.100  0.503- 124 2.11 143 2.11 144 2.11 147 2.11 145 2.11
  46  0.500  0.000  0.503- 143 2.11 144 2.11 160 2.11 163 2.11 146 2.11
  47  0.400  0.200  0.407- 149 2.11 145 2.11 130 2.11 150 2.11 147 2.11
  48  0.500  0.300  0.407- 150 2.11 149 2.11 154 2.11 169 2.11 148 2.11
  49  0.400  0.300  0.503- 147 2.11 128 2.11 148 2.11 151 2.11 149 2.11
  50  0.500  0.200  0.503- 148 2.11 147 2.11 144 2.11 167 2.11 150 2.11
  51  0.400  0.400  0.407- 134 2.11 149 2.11 153 2.11 154 2.11 151 2.11
  52  0.500  0.500  0.407- 153 2.11 154 2.11 158 2.11 173 2.11 152 2.11
  53  0.400  0.500  0.503- 132 2.11 151 2.11 152 2.11 155 2.11 153 2.11
  54  0.500  0.400  0.503- 148 2.11 151 2.11 152 2.11 171 2.11 154 2.11
  55  0.400  0.600  0.407- 138 2.11 153 2.11 157 2.11 158 2.11 155 2.11
  56  0.500  0.700  0.407- 162 2.11 158 2.11 157 2.11 177 2.11 156 2.11
  57  0.400  0.700  0.503- 159 2.11 155 2.11 156 2.11 136 2.11 157 2.11
  58  0.500  0.600  0.503- 152 2.11 155 2.11 156 2.11 175 2.11 158 2.11
  59  0.400  0.800  0.407- 157 2.11 142 2.11 161 2.11 162 2.11 159 2.11
  60  0.500  0.900  0.407- 146 2.11 161 2.11 162 2.11 181 2.11 160 2.11
[...]
 188  0.900  0.300  0.503-  90 2.11  89 2.11   9 2.11  94 2.11  88 2.11
 189  0.800  0.300  0.407-  68 2.11  87 2.11  88 2.11  91 2.11  89 2.11
 190  0.900  0.200  0.407-  88 2.11  84 2.11  87 2.11   7 2.11  90 2.11
 191  0.800  0.400  0.503-  74 2.11  89 2.11  93 2.11  94 2.11  91 2.11
 192  0.900  0.500  0.503-  13 2.11  93 2.11  94 2.11  98 2.11  92 2.11
 193  0.800  0.500  0.407-  72 2.11  91 2.11  92 2.11  95 2.11  93 2.11
 194  0.900  0.400  0.407-  11 2.11  88 2.11  91 2.11  92 2.11  94 2.11
 195  0.800  0.600  0.503-  78 2.11  93 2.11  97 2.11  98 2.11  95 2.11
 196  0.900  0.700  0.503- 102 2.11  97 2.11  98 2.11  17 2.11  96 2.11
 197  0.800  0.700  0.407-  76 2.11  99 2.11  96 2.11  95 2.11  97 2.11
 198  0.900  0.600  0.407-  15 2.11  92 2.11  95 2.11  96 2.11  98 2.11
 199  0.800  0.800  0.503-  82 2.11  97 2.11 101 2.11 102 2.11  99 2.11
 200  0.900  0.900  0.503-  21 2.11  86 2.11 101 2.11 102 2.11 100 2.11
 201  0.800  0.900  0.407-  80 2.11  83 2.11  99 2.11 100 2.11 101 2.11
 202  0.900  0.800  0.407-  96 2.11  19 2.11  99 2.11 100 2.11 102 2.11

  LATTYP: Found a simple tetragonal cell.
 ALAT       =    21.1388521970
 C/A-ratio  =     1.0461251639

  Lattice vectors:

 A1 = (  21.1388521970,   0.0000000000,   0.0000000000)
 A2 = (   0.0000000000,  21.1388521970,   0.0000000000)
 A3 = (   0.0000000000,   0.0000000000,  22.1138852197)

Analysis of symmetry for initial positions (statically):
 Subroutine PRICEL returns:
 Original cell was already a primitive cell.

 Routine SETGRP: Setting up the symmetry group for a
 simple tetragonal supercell.

 Subroutine GETGRP returns: Found  8 space group operations
 (whereof  8 operations were pure point group operations)
 out of a pool of 16 trial point group operations.

The static configuration has the point symmetry C_4v.

Analysis of symmetry for dynamics (positions and initial velocities):
 Subroutine PRICEL returns:
 Original cell was already a primitive cell.

 Routine SETGRP: Setting up the symmetry group for a
 simple tetragonal supercell.

 Subroutine GETGRP returns: Found  8 space group operations
 (whereof  8 operations were pure point group operations)
 out of a pool of 16 trial point group operations.

The dynamic configuration has the point symmetry C_4v.

 Subroutine INISYM returns: Found  8 space group operations
 (whereof  8 operations are pure point group operations),
 and found     1 'primitive' translations

                                     Primitive cell

  volume of cell :    9881.6133

  direct lattice vectors                    reciprocal lattice vectors
    21.138852197  0.000000000  0.000000000     0.047306258  0.000000000  0.000000000
[...]
     22     -46.6687      2.00000
     23     -46.6686      2.00000
     24     -46.6379      2.00000
     25     -46.6378      2.00000
     26     -46.6378      2.00000
     27     -46.6368      2.00000
     28     -46.6365      2.00000
     29     -46.6346      2.00000
     30     -46.6346      2.00000
     31     -46.6339      2.00000
     32     -46.6244      2.00000
     33     -46.6240      2.00000
     34     -46.6238      2.00000
     35     -46.6238      2.00000
     36     -46.6233      2.00000
     37     -46.6221      2.00000
     38     -46.6221      2.00000
     39     -46.6210      2.00000
     40     -46.6183      2.00000
     41     -46.6180      2.00000
     42     -46.6180      2.00000
     43     -46.6180      2.00000
     44     -46.6130      2.00000
     45     -46.6127      2.00000
     46     -46.6127      2.00000
     47     -46.6127      2.00000
     48     -46.6114      2.00000
     49     -46.6113      2.00000
     50     -46.6113      2.00000
     51     -46.6111      2.00000
     52     -46.6015      2.00000
     53     -46.6014      2.00000
     54     -46.6005      2.00000
     55     -46.6002      2.00000
     56     -46.6002      2.00000
     57     -46.5991      2.00000
     58     -46.5988      2.00000
     59     -46.5988      2.00000
     60     -46.5978      2.00000
[...]
   1138       8.4261      0.00000
   1139       8.5276      0.00000
   1140       8.5346      0.00000
   1141       8.5392      0.00000
   1142       8.5596      0.00000
   1143       8.6141      0.00000
   1144       8.7432      0.00000
   1145       8.8375      0.00000
   1146       8.9912      0.00000
   1147       9.0185      0.00000
   1148       9.0233      0.00000
   1149       9.0276      0.00000
   1150       9.0429      0.00000
   1151       9.1661      0.00000
   1152       9.2426      0.00000

 soft charge-density along one line, spin component           1
         0         1         2         3         4         5         6         7         8         9
 total charge-density along one line

------------------------ aborting loop because EDIFF is reached ----------------------------------------

 VOLUME and BASIS-vectors are now :
  energy-cutoff  :      520.00
  volume of cell :     9881.61
      direct lattice vectors                 reciprocal lattice vectors
    21.138852197  0.000000000  0.000000000     0.047306258  0.000000000  0.000000000
     0.000000000 21.138852197  0.000000000     0.000000000  0.047306258  0.000000000
     0.000000000  0.000000000 22.113885220     0.000000000  0.000000000  0.045220457

  length of vectors
    21.138852197 21.138852197 22.113885220     0.047306258  0.047306258  0.045220457

 FORCES acting on ions:
    Electron-Ion                     Ewald-Force                    Non-Local-Force
   -.255E-12 -.109E-11 -.174E+04   0.115E-12 0.211E-13 0.173E+04   0.000E+00 0.000E+00 0.885E+01
   -.792E-13 -.430E-13 -.191E+04   -.289E-13 -.799E-14 0.191E+04   -.529E-22 0.000E+00 -.501E+01
   0.148E-12 0.242E-12 0.931E+03   0.764E-13 0.213E-12 -.923E+03   0.000E+00 0.000E+00 -.718E+01
   0.361E+01 0.361E+01 0.932E+03   -.362E+01 -.362E+01 -.924E+03   0.632E-02 0.632E-02 -.718E+01
   0.152E-12 0.386E+01 -.923E+03   0.103E-12 -.386E+01 0.915E+03   0.000E+00 0.265E-02 0.713E+01
   0.386E+01 0.360E-12 -.923E+03   -.386E+01 0.107E-12 0.915E+03   0.265E-02 -.199E-22 0.713E+01
   0.153E-12 0.528E+01 0.933E+03   0.153E-10 -.529E+01 -.924E+03   0.000E+00 0.723E-02 -.718E+01
   0.706E+01 0.663E+01 0.935E+03   -.709E+01 -.665E+01 -.927E+03   0.231E-01 0.109E-01 -.719E+01
   0.166E-12 0.697E+01 -.921E+03   0.181E-11 -.698E+01 0.912E+03   0.000E+00 0.394E-02 0.713E+01
   0.664E+01 0.791E+01 -.921E+03   -.665E+01 -.792E+01 0.913E+03   0.833E-02 0.579E-02 0.713E+01
   0.161E-12 0.357E+01 0.935E+03   -.174E-10 -.357E+01 -.927E+03   0.596E-22 0.454E-02 -.719E+01
   0.999E+01 -.229E-12 0.938E+03   -.100E+02 0.228E-12 -.929E+03   0.384E-01 0.000E+00 -.719E+01
   0.168E-12 -.280E-12 -.919E+03   0.120E-12 0.126E-12 0.911E+03   0.000E+00 0.000E+00 0.713E+01
   0.134E+02 0.588E+01 -.918E+03   -.134E+02 -.588E+01 0.909E+03   0.182E-01 0.317E-02 0.712E+01
   0.173E-12 -.357E+01 0.935E+03   0.116E-11 0.357E+01 -.927E+03   -.794E-22 -.454E-02 -.719E+01
   0.706E+01 -.663E+01 0.935E+03   -.709E+01 0.665E+01 -.927E+03   0.231E-01 -.109E-01 -.719E+01
   0.176E-12 -.697E+01 -.921E+03   -.785E-12 0.698E+01 0.912E+03   -.132E-22 -.394E-02 0.713E+01
   0.134E+02 -.588E+01 -.918E+03   -.134E+02 0.588E+01 0.909E+03   0.182E-01 -.317E-02 0.712E+01
   0.149E-12 -.528E+01 0.933E+03   0.853E-12 0.529E+01 -.924E+03   0.265E-22 -.723E-02 -.718E+01
   0.361E+01 -.361E+01 0.932E+03   -.362E+01 0.362E+01 -.924E+03   0.632E-02 -.632E-02 -.718E+01
   0.162E-12 -.386E+01 -.923E+03   -.867E-12 0.386E+01 0.915E+03   -.132E-22 -.265E-02 0.713E+01
   0.664E+01 -.791E+01 -.921E+03   -.665E+01 0.792E+01 0.913E+03   0.833E-02 -.579E-02 0.713E+01
   0.528E+01 -.223E-12 0.933E+03   -.529E+01 0.101E-12 -.924E+03   0.723E-02 -.132E-22 -.718E+01
   0.663E+01 0.706E+01 0.935E+03   -.665E+01 -.709E+01 -.927E+03   0.109E-01 0.231E-01 -.719E+01
   0.791E+01 0.664E+01 -.921E+03   -.792E+01 -.665E+01 0.913E+03   0.579E-02 0.833E-02 0.713E+01
   0.697E+01 0.104E-11 -.921E+03   -.698E+01 0.941E-13 0.912E+03   0.394E-02 -.265E-22 0.713E+01
   0.890E+01 0.890E+01 0.936E+03   -.893E+01 -.893E+01 -.927E+03   0.235E-01 0.235E-01 -.719E+01
   0.167E+02 0.167E+02 0.947E+03   -.168E+02 -.168E+02 -.939E+03   0.772E-01 0.772E-01 -.720E+01
   0.200E+02 0.149E+02 -.915E+03   -.201E+02 -.149E+02 0.906E+03   0.383E-01 0.115E-01 0.712E+01
   0.149E+02 0.200E+02 -.915E+03   -.149E+02 -.201E+02 0.906E+03   0.115E-01 0.383E-01 0.712E+01
   0.181E+02 0.714E+01 0.944E+03   -.182E+02 -.716E+01 -.935E+03   0.935E-01 0.181E-01 -.721E+01
   0.294E+02 -.132E-11 0.963E+03   -.299E+02 0.218E-12 -.954E+03   0.302E+00 0.265E-22 -.727E+01
   0.340E+02 -.198E-11 -.908E+03   -.341E+02 0.107E-13 0.899E+03   0.648E-01 -.265E-22 0.710E+01
   0.498E+02 0.255E+02 -.890E+03   -.501E+02 -.255E+02 0.882E+03   0.223E+00 0.148E-01 0.707E+01
   0.181E+02 -.714E+01 0.944E+03   -.182E+02 0.716E+01 -.935E+03   0.935E-01 -.181E-01 -.721E+01
   0.167E+02 -.167E+02 0.947E+03   -.168E+02 0.168E+02 -.939E+03   0.772E-01 -.772E-01 -.720E+01
   0.200E+02 -.149E+02 -.915E+03   -.201E+02 0.149E+02 0.906E+03   0.383E-01 -.115E-01 0.712E+01
   0.498E+02 -.255E+02 -.890E+03   -.501E+02 0.255E+02 0.882E+03   0.223E+00 -.148E-01 0.707E+01
   0.890E+01 -.890E+01 0.936E+03   -.893E+01 0.893E+01 -.927E+03   0.235E-01 -.235E-01 -.719E+01
   0.663E+01 -.706E+01 0.935E+03   -.665E+01 0.709E+01 -.927E+03   0.109E-01 -.231E-01 -.719E+01
   0.791E+01 -.664E+01 -.921E+03   -.792E+01 0.665E+01 0.913E+03   0.579E-02 -.833E-02 0.713E+01
   0.149E+02 -.200E+02 -.915E+03   -.149E+02 0.201E+02 0.906E+03   0.115E-01 -.383E-01 0.712E+01
   0.357E+01 0.226E-12 0.935E+03   -.357E+01 0.449E-13 -.927E+03   0.454E-02 -.529E-22 -.719E+01
   -.249E-12 0.999E+01 0.938E+03   0.387E-11 -.100E+02 -.929E+03   -.159E-21 0.384E-01 -.719E+01
   0.588E+01 0.134E+02 -.918E+03   -.588E+01 -.134E+02 0.909E+03   0.317E-02 0.182E-01 0.712E+01
   -.228E-12 0.710E-12 -.919E+03   0.622E-14 0.933E-13 0.911E+03   0.000E+00 0.132E-22 0.713E+01
   0.714E+01 0.181E+02 0.944E+03   -.716E+01 -.182E+02 -.935E+03   0.181E-01 0.935E-01 -.721E+01
   -.258E-12 0.294E+02 0.963E+03   -.579E-11 -.299E+02 -.954E+03   -.199E-22 0.302E+00 -.727E+01
   0.255E+02 0.498E+02 -.890E+03   -.255E+02 -.501E+02 0.882E+03   0.148E-01 0.223E+00 0.707E+01
   -.209E-12 0.340E+02 -.908E+03   -.193E-10 -.341E+02 0.899E+03   -.529E-22 0.648E-01 0.710E+01
   0.222E+02 0.222E+02 0.979E+03   -.225E+02 -.225E+02 -.970E+03   0.212E+00 0.212E+00 -.716E+01
   -.280E-12 0.193E-11 0.101E+04   -.104E-12 0.214E-12 -.100E+04   0.132E-22 0.000E+00 -.537E+01
   0.104E+03 0.129E-10 -.792E+03   -.106E+03 0.933E-14 0.784E+03   0.166E+01 0.132E-22 0.690E+01
   -.239E-12 0.104E+03 -.792E+03   0.215E-10 -.106E+03 0.784E+03   0.000E+00 0.166E+01 0.690E+01
   0.222E+02 -.222E+02 0.979E+03   -.225E+02 0.225E+02 -.970E+03   0.212E+00 -.212E+00 -.716E+01
   -.255E-12 -.294E+02 0.963E+03   -.183E-10 0.299E+02 -.954E+03   0.000E+00 -.302E+00 -.727E+01
   0.255E+02 -.498E+02 -.890E+03   -.255E+02 0.501E+02 0.882E+03   0.148E-01 -.223E+00 0.707E+01
   -.235E-12 -.104E+03 -.792E+03   0.183E-10 0.106E+03 0.784E+03   0.000E+00 -.166E+01 0.690E+01
   0.714E+01 -.181E+02 0.944E+03   -.716E+01 0.182E+02 -.935E+03   0.181E-01 -.935E-01 -.721E+01
   -.241E-12 -.999E+01 0.938E+03   0.203E-10 0.100E+02 -.929E+03   0.265E-22 -.384E-01 -.719E+01
[...]
   -.100E+02 0.764E+01 0.706E+03   0.100E+02 -.767E+01 -.710E+03   -.491E-01 0.341E-01 0.313E+01
   -.375E+01 0.463E+01 0.701E+03   0.376E+01 -.464E+01 -.705E+03   -.124E-01 0.125E-01 0.314E+01
   -.220E+02 0.831E+01 -.684E+03   0.221E+02 -.832E+01 0.688E+03   -.517E-01 0.128E-01 -.326E+01
   -.112E+02 -.424E-11 -.689E+03   0.112E+02 0.103E-10 0.693E+03   -.195E-01 -.331E-22 -.323E+01
   -.153E+02 0.379E-11 0.710E+03   0.154E+02 -.169E-11 -.714E+03   -.821E-01 -.794E-22 0.312E+01
   -.684E+01 0.327E+01 0.704E+03   0.686E+01 -.328E+01 -.708E+03   -.264E-01 0.915E-02 0.313E+01
   -.220E+02 -.831E+01 -.684E+03   0.221E+02 0.832E+01 0.688E+03   -.517E-01 -.128E-01 -.326E+01
   -.746E+01 -.654E+01 -.691E+03   0.747E+01 0.655E+01 0.695E+03   -.138E-01 -.810E-02 -.321E+01
   -.100E+02 -.764E+01 0.706E+03   0.100E+02 0.767E+01 -.710E+03   -.491E-01 -.341E-01 0.313E+01
   -.684E+01 -.327E+01 0.704E+03   0.686E+01 0.328E+01 -.708E+03   -.264E-01 -.915E-02 0.313E+01
   -.922E+01 -.922E+01 -.690E+03   0.923E+01 0.923E+01 0.694E+03   -.202E-01 -.202E-01 -.322E+01
   -.341E+01 -.341E+01 -.693E+03   0.342E+01 0.342E+01 0.697E+03   -.515E-02 -.515E-02 -.320E+01
   -.463E+01 -.375E+01 0.701E+03   0.464E+01 0.376E+01 -.705E+03   -.125E-01 -.124E-01 0.314E+01
   -.375E+01 -.463E+01 0.701E+03   0.376E+01 0.464E+01 -.705E+03   -.124E-01 -.125E-01 0.314E+01
   0.349E-09 -.610E-10 -.211E+01   0.956E-12 0.302E-12 -.341E-11   0.382E-15 0.572E-16 0.151E+01

 POSITION                                       TOTAL-FORCE (eV/Angst)
     10.56943     10.56943     15.92762         0.000000      0.000000      0.130000
     10.56943     10.56943     13.38041         0.000000      0.000000      0.014034
      0.00000      0.00000      9.00000         0.000000      0.000000      0.565210
      2.11389      2.11389      9.00000        -0.002008     -0.002008      0.565301
      0.00000      2.11389     11.11389         0.000000     -0.000831     -0.550824
      2.11389      0.00000     11.11389        -0.000831      0.000000     -0.550824
      0.00000      4.22777      9.00000         0.000000     -0.002341      0.565719
      2.11389      6.34166      9.00000        -0.007067     -0.003545      0.567129
      0.00000      6.34166     11.11389         0.000000     -0.001248     -0.548548
      2.11389      4.22777     11.11389        -0.002481     -0.001836     -0.548976
      0.00000      8.45554      9.00000         0.000000     -0.001500      0.566874
      2.11389     10.56943      9.00000        -0.011669      0.000000      0.568774
      0.00000     10.56943     11.11389         0.000000      0.000000     -0.546661
      2.11389      8.45554     11.11389        -0.004932     -0.000961     -0.544672
      0.00000     12.68331      9.00000         0.000000      0.001500      0.566874
      2.11389     14.79720      9.00000        -0.007067      0.003545      0.567129
      0.00000     14.79720     11.11389         0.000000      0.001248     -0.548548
      2.11389     12.68331     11.11389        -0.004932      0.000961     -0.544672
      0.00000     16.91108      9.00000         0.000000      0.002341      0.565719
      2.11389     19.02497      9.00000        -0.002008      0.002008      0.565301
      0.00000     19.02497     11.11389         0.000000      0.000831     -0.550824
      2.11389     16.91108     11.11389        -0.002481      0.001836     -0.548976
      4.22777      0.00000      9.00000        -0.002341      0.000000      0.565719
      6.34166      2.11389      9.00000        -0.003545     -0.007067      0.567129
      4.22777      2.11389     11.11389        -0.001836     -0.002481     -0.548976
      6.34166      0.00000     11.11389        -0.001248      0.000000     -0.548548
      4.22777      4.22777      9.00000        -0.007530     -0.007530      0.566928
      6.34166      6.34166      9.00000        -0.025636     -0.025636      0.569930
      4.22777      6.34166     11.11389        -0.010717     -0.003502     -0.540465
      6.34166      4.22777     11.11389        -0.003502     -0.010717     -0.540465
      4.22777      8.45554      9.00000        -0.028403     -0.006039      0.573176
      6.34166     10.56943      9.00000        -0.088991      0.000000      0.586470
      4.22777     10.56943     11.11389        -0.016251      0.000000     -0.530899
      6.34166      8.45554     11.11389        -0.061287     -0.002437     -0.500694
      4.22777     12.68331      9.00000        -0.028403      0.006039      0.573176
      6.34166     14.79720      9.00000        -0.025636      0.025636      0.569930
      4.22777     14.79720     11.11389        -0.010717      0.003502     -0.540465
      6.34166     12.68331     11.11389        -0.061287      0.002437     -0.500694
      4.22777     16.91108      9.00000        -0.007530      0.007530      0.566928
      6.34166     19.02497      9.00000        -0.003545      0.007067      0.567129
      4.22777     19.02497     11.11389        -0.001836      0.002481     -0.548976
      6.34166     16.91108     11.11389        -0.003502      0.010717     -0.540465
      8.45554      0.00000      9.00000        -0.001500      0.000000      0.566874
     10.56943      2.11389      9.00000         0.000000     -0.011669      0.568774
      8.45554      2.11389     11.11389        -0.000961     -0.004932     -0.544672
     10.56943      0.00000     11.11389         0.000000      0.000000     -0.546661
      8.45554      4.22777      9.00000        -0.006039     -0.028403      0.573176
     10.56943      6.34166      9.00000         0.000000     -0.088991      0.586470
      8.45554      6.34166     11.11389        -0.002437     -0.061287     -0.500694
     10.56943      4.22777     11.11389         0.000000     -0.016251     -0.530899
      8.45554      8.45554      9.00000        -0.080095     -0.080095      0.537973
     10.56943     10.56943      9.00000         0.000000      0.000000      0.089625
      8.45554     10.56943     11.11389        -0.681511      0.000000     -0.560964
     10.56943      8.45554     11.11389         0.000000     -0.681511     -0.560964
      8.45554     12.68331      9.00000        -0.080095      0.080095      0.537973
     10.56943     14.79720      9.00000         0.000000      0.088991      0.586470
      8.45554     14.79720     11.11389        -0.002437      0.061287     -0.500694
     10.56943     12.68331     11.11389         0.000000      0.681511     -0.560964
      8.45554     16.91108      9.00000        -0.006039      0.028403      0.573176
     10.56943     19.02497      9.00000         0.000000      0.011669      0.568774
[...]
     19.02497      6.34166     11.11389        -0.004520      0.002684      0.422662
     16.91108      6.34166      9.00000        -0.015990      0.011161     -0.446149
     19.02497      4.22777      9.00000        -0.004031      0.004067     -0.443159
     16.91108      8.45554     11.11389        -0.017225      0.004320      0.408825
     19.02497     10.56943     11.11389        -0.006406      0.000000      0.419099
     16.91108     10.56943      9.00000        -0.026943      0.000000     -0.450237
     19.02497      8.45554      9.00000        -0.008607      0.002981     -0.445253
     16.91108     12.68331     11.11389        -0.017225     -0.004320      0.408825
     19.02497     14.79720     11.11389        -0.004520     -0.002684      0.422662
     16.91108     14.79720      9.00000        -0.015990     -0.011161     -0.446149
     19.02497     12.68331      9.00000        -0.008607     -0.002981     -0.445253
     16.91108     16.91108     11.11389        -0.006569     -0.006569      0.422133
     19.02497     19.02497     11.11389        -0.001682     -0.001682      0.426575
     16.91108     19.02497      9.00000        -0.004067     -0.004031     -0.443159
     19.02497     16.91108      9.00000        -0.004031     -0.004067     -0.443159
    total drift:                                0.000000     -0.000000     -0.604690

  FREE ENERGIE OF THE ION-ELECTRON SYSTEM (eV)
  free  energy   TOTEN  =     -1367.47085078 eV

  energy  without entropy=    -1367.47085078  energy(sigma->0) =    -1367.47085078