 vasp.6.4.0 14Feb23 (build Jul 14 2023 13:46:40) complex

 executed on             LinuxIFC date 2023.07.30  07:21:13

 INCAR:
   SYSTEM = MgO-rocksalt
   ISMEAR = 0
   SIGMA = 0.05
   EDIFF = 1E-6
   ALGO = ALL
   ISTART = 0
   IBRION = -1
   NSW = 0
   ISYM = 2
   DIPOL = 0.5 0.5 0.5
   IDIPOL = 3
   LDIPOL = .TRUE.
   METAGGA = TPSS
   ENCUT = 520
   PREC = Accurate
   LASPH = .TRUE.
   LREAL = Auto
   ISPIN = 1
   NELM = 200
   NELMIN = 8
   NCORE = 16
   KPAR = 1
   LWAVE = .FALSE.
   LCHARG = .FALSE.

 POTCAR:    PAW_PBE Mg_pv 13Apr2007
 POTCAR:    PAW_PBE O 08Apr2002
 POTCAR:    PAW_PBE Mg_pv 13Apr2007
   VRHFIN =Mg: p6s2

   TITEL  = PAW_PBE Mg_pv 13Apr2007
   POMASS =   24.305; ZVAL   =    8.000    mass and valenz
   ENMAX  =  403.929; ENMIN  =  302.947 eV

   TITEL  = PAW_PBE O 08Apr2002
   POMASS =   16.000; ZVAL   =    6.000    mass and valenz
   ENMAX  =  400.000; ENMIN  =  300.000 eV

 Optimization of the real space projectors (new method)

 maximal supplied QI-value         = 18.90
 optimisation between [QCUT,QGAM] = [ 11.53, 23.24] = [ 37.21,151.29] Ry
 Optimized for a Real-space Cutoff    1.28 Angstroem

   l    n(q)    QCUT    max X(q) W(low)/X(q) W(high)/X(q)  e(spline)
   1      8    11.527     2.974    0.44E-04    0.56E-04    0.12E-06
   1      8    11.527     4.279    0.12E-03    0.12E-03    0.26E-06
   0      9    11.527    16.381    0.46E-04    0.64E-04    0.78E-07
   0      9    11.527     5.611    0.26E-04    0.43E-04    0.55E-07
   2      8    11.527     4.652    0.22E-03    0.72E-04    0.47E-07
 Optimization of the real space projectors (new method)

 maximal supplied QI-value         = 24.76
 optimisation between [QCUT,QGAM] = [ 11.64, 23.27] = [ 37.91,151.63] Ry
 Optimized for a Real-space Cutoff    1.14 Angstroem

   l    n(q)    QCUT    max X(q) W(low)/X(q) W(high)/X(q)  e(spline)
   0      8    11.635    20.381    0.10E-03    0.33E-03    0.24E-06
   0      8    11.635    15.268    0.11E-03    0.35E-03    0.26E-06
   1      7    11.635     5.964    0.24E-03    0.31E-03    0.30E-06
   1      7    11.635     5.382    0.22E-03    0.25E-03    0.26E-06
  PAW_PBE Mg_pv 13Apr2007               :
  PAW_PBE O 08Apr2002                   :

 POSCAR: Mg  O
  positions in direct lattice

 METAGGA = TPSS                                        LMAXTAU =  6    LMIXTAU =  F

 ion  position               nearest neighbor table
   1  0.000  0.000  0.407- 103 2.11 104 2.11 119 2.11 184 2.11 101 2.11
   2  0.100  0.100  0.407- 103 2.11 104 2.11 108 2.11 123 2.11 102 2.11
   3  0.000  0.100  0.503- 101 2.11 102 2.11 105 2.11 182 2.11 103 2.11
   4  0.100  0.000  0.503- 101 2.11 102 2.11 118 2.11 121 2.11 104 2.11
   5  0.000  0.200  0.407- 107 2.11 103 2.11 108 2.11 188 2.11 105 2.11
   6  0.100  0.300  0.407- 108 2.11 107 2.11 112 2.11 127 2.11 106 2.11
   7  0.000  0.300  0.503- 105 2.11 106 2.11 109 2.11 186 2.11 107 2.11
   8  0.100  0.200  0.503- 106 2.11 105 2.11 102 2.11 125 2.11 108 2.11
   9  0.000  0.400  0.407- 107 2.11 111 2.11 112 2.11 192 2.11 109 2.11
  10  0.100  0.500  0.407- 111 2.11 112 2.11 116 2.11 131 2.11 110 2.11
  11  0.000  0.500  0.503- 109 2.11 110 2.11 113 2.11 190 2.11 111 2.11
  12  0.100  0.400  0.503- 106 2.11 109 2.11 110 2.11 129 2.11 112 2.11
  13  0.000  0.600  0.407- 111 2.11 115 2.11 116 2.11 196 2.11 113 2.11
  14  0.100  0.700  0.407- 120 2.11 116 2.11 115 2.11 135 2.11 114 2.11
  15  0.000  0.700  0.503- 117 2.11 114 2.11 113 2.11 194 2.11 115 2.11
  16  0.100  0.600  0.503- 110 2.11 113 2.11 114 2.11 133 2.11 116 2.11
  17  0.000  0.800  0.407- 115 2.11 119 2.11 120 2.11 200 2.11 117 2.11
  18  0.100  0.900  0.407- 104 2.11 119 2.11 120 2.11 139 2.11 118 2.11
  19  0.000  0.900  0.503- 101 2.11 117 2.11 118 2.11 198 2.11 119 2.11
  20  0.100  0.800  0.503- 114 2.11 117 2.11 118 2.11 137 2.11 120 2.11
  21  0.200  0.000  0.407- 124 2.11 123 2.11 104 2.11 139 2.11 121 2.11
  22  0.300  0.100  0.407- 123 2.11 124 2.11 128 2.11 143 2.11 122 2.11
  23  0.200  0.100  0.503- 122 2.11 121 2.11 102 2.11 125 2.11 123 2.11
  24  0.300  0.000  0.503- 121 2.11 122 2.11 138 2.11 141 2.11 124 2.11
  25  0.200  0.200  0.407- 127 2.11 128 2.11 108 2.11 123 2.11 125 2.11
  26  0.300  0.300  0.407- 127 2.11 128 2.11 132 2.11 147 2.11 126 2.11
  27  0.200  0.300  0.503- 125 2.11 126 2.11 106 2.11 129 2.11 127 2.11
  28  0.300  0.200  0.503- 125 2.11 126 2.11 122 2.11 145 2.11 128 2.11
  29  0.200  0.400  0.407- 132 2.11 127 2.11 131 2.11 112 2.11 129 2.11
  30  0.300  0.500  0.407- 131 2.11 132 2.11 136 2.11 151 2.11 130 2.11
  31  0.200  0.500  0.503- 130 2.11 129 2.11 110 2.11 133 2.11 131 2.11
  32  0.300  0.400  0.503- 129 2.11 126 2.11 130 2.11 149 2.11 132 2.11
  33  0.200  0.600  0.407- 136 2.11 131 2.11 135 2.11 116 2.11 133 2.11
  34  0.300  0.700  0.407- 135 2.11 140 2.11 136 2.11 155 2.11 134 2.11
  35  0.200  0.700  0.503- 134 2.11 137 2.11 114 2.11 133 2.11 135 2.11
  36  0.300  0.600  0.503- 133 2.11 130 2.11 134 2.11 153 2.11 136 2.11
  37  0.200  0.800  0.407- 135 2.11 140 2.11 139 2.11 120 2.11 137 2.11
  38  0.300  0.900  0.407- 139 2.11 124 2.11 140 2.11 159 2.11 138 2.11
  39  0.200  0.900  0.503- 138 2.11 121 2.11 137 2.11 118 2.11 139 2.11
  40  0.300  0.800  0.503- 134 2.11 137 2.11 138 2.11 157 2.11 140 2.11
  41  0.400  0.000  0.407- 124 2.11 143 2.11 144 2.11 159 2.11 141 2.11
  42  0.500  0.100  0.407- 143 2.11 144 2.11 148 2.11 163 2.11 142 2.11
  43  0.400  0.100  0.503- 122 2.11 141 2.11 142 2.11 145 2.11 143 2.11
  44  0.500  0.000  0.503- 141 2.11 142 2.11 158 2.11 161 2.11 144 2.11
  45  0.400  0.200  0.407- 147 2.11 143 2.11 128 2.11 148 2.11 145 2.11
  46  0.500  0.300  0.407- 148 2.11 147 2.11 152 2.11 167 2.11 146 2.11
  47  0.400  0.300  0.503- 145 2.11 126 2.11 146 2.11 149 2.11 147 2.11
  48  0.500  0.200  0.503- 146 2.11 145 2.11 142 2.11 165 2.11 148 2.11
  49  0.400  0.400  0.407- 132 2.11 147 2.11 151 2.11 152 2.11 149 2.11
  50  0.500  0.500  0.407- 151 2.11 152 2.11 156 2.11 171 2.11 150 2.11
  51  0.400  0.500  0.503- 130 2.11 149 2.11 150 2.11 153 2.11 151 2.11
  52  0.500  0.400  0.503- 146 2.11 149 2.11 150 2.11 169 2.11 152 2.11
  53  0.400  0.600  0.407- 136 2.11 151 2.11 155 2.11 156 2.11 153 2.11
  54  0.500  0.700  0.407- 160 2.11 156 2.11 155 2.11 175 2.11 154 2.11
  55  0.400  0.700  0.503- 157 2.11 153 2.11 154 2.11 134 2.11 155 2.11
  56  0.500  0.600  0.503- 150 2.11 153 2.11 154 2.11 173 2.11 156 2.11
  57  0.400  0.800  0.407- 155 2.11 140 2.11 159 2.11 160 2.11 157 2.11
  58  0.500  0.900  0.407- 144 2.11 159 2.11 160 2.11 179 2.11 158 2.11
  59  0.400  0.900  0.503- 138 2.11 141 2.11 157 2.11 158 2.11 159 2.11
  60  0.500  0.800  0.503- 154 2.11 157 2.11 158 2.11 177 2.11 160 2.11
[...]
 186  0.900  0.300  0.503-  88 2.11  87 2.11   7 2.11  92 2.11  86 2.11
 187  0.800  0.300  0.407-  66 2.11  85 2.11  86 2.11  89 2.11  87 2.11
 188  0.900  0.200  0.407-  86 2.11  82 2.11  85 2.11   5 2.11  88 2.11
 189  0.800  0.400  0.503-  72 2.11  87 2.11  91 2.11  92 2.11  89 2.11
 190  0.900  0.500  0.503-  11 2.11  91 2.11  92 2.11  96 2.11  90 2.11
 191  0.800  0.500  0.407-  70 2.11  89 2.11  90 2.11  93 2.11  91 2.11
 192  0.900  0.400  0.407-   9 2.11  86 2.11  89 2.11  90 2.11  92 2.11
 193  0.800  0.600  0.503-  76 2.11  91 2.11  95 2.11  96 2.11  93 2.11
 194  0.900  0.700  0.503- 100 2.11  95 2.11  96 2.11  15 2.11  94 2.11
 195  0.800  0.700  0.407-  74 2.11  97 2.11  94 2.11  93 2.11  95 2.11
 196  0.900  0.600  0.407-  13 2.11  90 2.11  93 2.11  94 2.11  96 2.11
 197  0.800  0.800  0.503-  80 2.11  95 2.11  99 2.11 100 2.11  97 2.11
 198  0.900  0.900  0.503-  19 2.11  84 2.11  99 2.11 100 2.11  98 2.11
 199  0.800  0.900  0.407-  78 2.11  81 2.11  97 2.11  98 2.11  99 2.11
 200  0.900  0.800  0.407-  94 2.11  17 2.11  97 2.11  98 2.11 100 2.11

  LATTYP: Found a simple tetragonal cell.
 ALAT       =    21.1388521970
 C/A-ratio  =     1.0461251639

  Lattice vectors:

 A1 = (  21.1388521970,   0.0000000000,   0.0000000000)
 A2 = (   0.0000000000,  21.1388521970,   0.0000000000)
 A3 = (   0.0000000000,   0.0000000000,  22.1138852197)

Analysis of symmetry for initial positions (statically):
 Subroutine PRICEL returns following result:

[...]

  50 primitive cells build up your supercell.

 Routine SETGRP: Setting up the symmetry group for a
 simple tetragonal supercell.

 Subroutine GETGRP returns: Found 16 space group operations
 (whereof  8 operations were pure point group operations)
 out of a pool of 16 trial point group operations.

The static configuration has the point symmetry C_4v.
 The point group associated with its full space group is D_4h.

Analysis of symmetry for dynamics (positions and initial velocities):
 Subroutine PRICEL returns following result:

  LATTYP: Found a simple tetragonal cell.
 ALAT       =     2.9894851470
 C/A-ratio  =     7.3972219738

  Lattice vectors:

 A1 = (   2.1138852197,  -2.1138852197,   0.0000000000)
 A2 = (   2.1138852197,   2.1138852197,   0.0000000000)
 A3 = (   0.0000000000,   0.0000000000,  22.1138852197)

  50 primitive cells build up your supercell.

 Routine SETGRP: Setting up the symmetry group for a
 simple tetragonal supercell.

 Subroutine GETGRP returns: Found 16 space group operations
 (whereof  8 operations were pure point group operations)
 out of a pool of 16 trial point group operations.

The dynamic configuration has the point symmetry C_4v.
 The point group associated with its full space group is D_4h.

 Subroutine INISYM returns: Found 16 space group operations
 (whereof  8 operations are pure point group operations),
 and found    50 'primitive' translations

                                     Primitive cell

  volume of cell :     197.6323

  direct lattice vectors                    reciprocal lattice vectors
     2.113885220 -2.113885220  0.000000000     0.236531291 -0.236531291  0.000000000
     2.113885220  2.113885220  0.000000000     0.236531291  0.236531291  0.000000000
     0.000000000  0.000000000 22.113885220     0.000000000  0.000000000  0.045220457

  length of vectors
     2.989485147  2.989485147 22.113885220     0.334505760  0.334505760  0.045220457

  position of ions in fractional coordinates (direct lattice)
     0.000000000  0.000000000  0.406984115
     0.500000000  0.500000000  0.502574971
     0.000000000  0.000000000  0.502574971
     0.500000000  0.500000000  0.406984115

  ion indices of the primitive-cell ions
   primitive index   ion index
                 1           1
                 2           3
                 3         101
                 4         103

 KPOINTS: KPOINTS created by Atomic Simulation Env

Automatic generation of k-mesh.
 Grid dimensions read from file:
 generate k-points for:    1    1    1

 Generating k-lattice:

  Cartesian coordinates                     Fractional coordinates (reciprocal lattice)
     0.047306258  0.000000000  0.000000000     1.000000000  0.000000000  0.000000000
     0.000000000  0.047306258  0.000000000     0.000000000  1.000000000  0.000000000
     0.000000000  0.000000000  0.045220457     0.000000000  0.000000000  1.000000000

  Length of vectors
     0.047306258  0.047306258  0.045220457

[...]
     52     -43.2917      2.00000
     53     -43.2917      2.00000
     54     -43.2916      2.00000
     55     -43.2916      2.00000
     56     -43.2916      2.00000
     57     -43.2916      2.00000
     58     -43.2909      2.00000
     59     -43.2909      2.00000
     60     -43.2909      2.00000
[...]
    850       4.7003      0.00000
    851       4.7030      0.00000
    852       4.7067      0.00000
    853       4.7148      0.00000
    854       4.7400      0.00000
    855       4.7789      0.00000
    856       4.8065      0.00000
    857       4.8203      0.00000
    858       4.8670      0.00000
    859       4.8761      0.00000
    860       4.8815      0.00000
    861       4.8845      0.00000
    862       4.9502      0.00000
    863       5.1694      0.00000
    864       5.2441      0.00000

 soft charge-density along one line, spin component           1
         0         1         2         3         4         5         6         7         8         9
 total charge-density along one line

------------------------ aborting loop because EDIFF is reached ----------------------------------------

  FORCE on cell =-STRESS in cart. coord.  units (eV):
  Direction    XX          YY          ZZ          XY          YZ          ZX
  Alpha Z  1314.62240  1314.62240  1314.62240
  Ewald  475375.07443475375.07443************     0.00000     0.00000    -0.00000
  Hartree503490.73180503490.73180************    -0.00000    -0.00000    -0.00000
  E(xc)   -8079.23566 -8079.23566 -8105.50053     0.00000    -0.00000    -0.00000
  Local  ************************************     0.00000    -0.00000    -0.00000
  n-local -8927.44837 -8927.44837 -9054.34637    -0.00000     0.00000     0.00000
  augment  3775.51489  3775.51489  3719.82211     0.00000    -0.00000     0.00000
  Kinetic 22710.79762 22710.79763 22960.41604     0.00000    -0.00001    -0.00000
  Fock        0.00000     0.00000     0.00000     0.00000     0.00000     0.00000
  Total    -167.64790  -167.64790     7.66488     0.00000    -0.00000     0.00000
  in kB     -27.18196   -27.18196     1.24276     0.00000    -0.00000     0.00000

 VOLUME and BASIS-vectors are now :
  energy-cutoff  :      520.00
  volume of cell :     9881.61
      direct lattice vectors                 reciprocal lattice vectors
    21.138852197  0.000000000  0.000000000     0.047306258  0.000000000  0.000000000
     0.000000000 21.138852197  0.000000000     0.000000000  0.047306258  0.000000000
     0.000000000  0.000000000 22.113885220     0.000000000  0.000000000  0.045220457

  length of vectors
    21.138852197 21.138852197 22.113885220     0.047306258  0.047306258  0.045220457

 FORCES acting on ions:
    Electron-Ion                     Ewald-Force                    Non-Local-Force
   0.140E-12 0.145E-12 0.927E+03   0.941E-13 0.746E-13 -.919E+03   0.122E-23 -.102E-23 -.790E+01
   -.322E-12 -.871E-12 0.927E+03   0.101E-09 0.101E-09 -.919E+03   -.841E-24 0.142E-23 -.790E+01
   0.163E-12 -.106E-11 -.927E+03   0.131E-12 0.101E-09 0.919E+03   0.679E-24 -.252E-23 0.790E+01
   -.253E-12 0.108E-12 -.927E+03   0.101E-09 0.515E-13 0.919E+03   -.259E-25 -.435E-23 0.790E+01
   0.139E-12 -.129E-11 0.927E+03   0.155E-10 -.470E-10 -.919E+03   0.105E-23 -.130E-23 -.790E+01
   -.354E-12 0.973E-12 0.927E+03   0.988E-10 0.268E-10 -.919E+03   0.192E-23 0.259E-23 -.790E+01
   0.142E-12 0.121E-11 -.927E+03   0.207E-11 0.268E-10 0.919E+03   0.140E-23 -.148E-23 0.790E+01
   -.292E-12 -.138E-11 -.927E+03   0.852E-10 -.471E-10 0.919E+03   0.490E-23 0.151E-23 0.790E+01
   0.118E-12 0.871E-12 0.927E+03   -.175E-10 -.803E-10 -.919E+03   0.170E-23 0.161E-23 -.790E+01
   -.341E-12 -.844E-12 0.927E+03   0.101E-09 0.123E-12 -.919E+03   0.231E-23 -.585E-24 -.790E+01
   0.139E-12 -.307E-12 -.927E+03   0.229E-12 0.266E-13 0.919E+03   0.424E-23 0.282E-23 0.790E+01
   -.307E-12 0.126E-11 -.927E+03   0.118E-09 -.804E-10 0.919E+03   0.243E-23 -.233E-23 0.790E+01
   0.133E-12 -.158E-11 0.927E+03   0.114E-11 0.950E-10 -.919E+03   0.442E-23 0.285E-23 -.790E+01
   -.325E-12 -.193E-11 0.927E+03   0.863E-10 -.402E-10 -.919E+03   0.534E-23 -.486E-23 -.790E+01
   0.155E-12 -.171E-11 -.927E+03   -.927E-12 -.402E-10 0.919E+03   0.748E-23 0.128E-23 0.790E+01
   -.267E-12 -.192E-11 -.927E+03   0.115E-09 0.843E-10 0.919E+03   0.258E-23 -.280E-23 0.790E+01
   0.139E-12 0.618E-12 0.927E+03   0.909E-12 0.253E-10 -.919E+03   0.197E-23 0.843E-24 -.790E+01
   -.324E-12 0.506E-12 0.927E+03   0.117E-09 -.800E-10 -.919E+03   -.211E-23 0.904E-24 -.790E+01
   0.168E-12 0.957E-12 -.927E+03   -.899E-12 -.799E-10 0.919E+03   -.260E-23 -.226E-23 0.790E+01
   -.258E-12 0.785E-12 -.927E+03   0.842E-10 0.360E-10 0.919E+03   0.723E-24 -.902E-24 0.790E+01
   -.684E-12 0.124E-12 0.927E+03   -.487E-10 0.293E-13 -.919E+03   0.377E-23 -.219E-23 -.790E+01
   0.415E-12 -.199E-11 0.927E+03   0.267E-10 0.993E-10 -.919E+03   0.347E-23 -.704E-24 -.790E+01
   -.778E-12 -.115E-11 -.927E+03   -.293E-10 0.892E-10 0.919E+03   0.413E-23 0.572E-24 0.790E+01
   0.359E-12 0.113E-12 -.927E+03   0.229E-10 0.528E-13 0.919E+03   -.147E-23 -.225E-23 0.790E+01
   -.716E-12 -.237E-12 0.927E+03   -.527E-10 -.477E-10 -.919E+03   0.531E-23 0.202E-23 -.790E+01
   0.431E-12 0.764E-12 0.927E+03   0.173E-10 0.245E-10 -.919E+03   0.195E-24 -.389E-24 -.790E+01
   -.800E-12 0.430E-12 -.927E+03   -.662E-10 0.274E-10 0.919E+03   0.118E-23 0.218E-23 0.790E+01
   0.377E-12 -.860E-13 -.927E+03   0.382E-11 -.448E-10 0.919E+03   0.282E-23 -.885E-23 0.790E+01
   -.705E-12 0.267E-11 0.927E+03   -.468E-10 -.689E-10 -.919E+03   0.275E-23 -.367E-23 -.790E+01
   0.461E-12 -.129E-11 0.927E+03   0.231E-10 0.426E-13 -.919E+03   -.710E-24 0.300E-23 -.790E+01
   -.766E-12 -.184E-11 -.927E+03   -.488E-10 -.853E-13 0.919E+03   0.471E-24 -.506E-24 0.790E+01
   0.397E-12 0.283E-11 -.927E+03   0.441E-10 -.788E-10 0.919E+03   0.652E-24 -.294E-23 0.790E+01
   -.688E-12 -.667E-12 0.927E+03   -.284E-10 0.833E-10 -.919E+03   0.382E-24 0.507E-24 -.790E+01
   0.457E-12 -.254E-11 0.927E+03   0.476E-11 -.380E-10 -.919E+03   0.997E-25 -.213E-23 -.790E+01
   -.741E-12 -.152E-11 -.927E+03   -.692E-10 -.410E-10 0.919E+03   -.193E-23 -.136E-23 0.790E+01
   0.423E-12 0.409E-12 -.927E+03   0.412E-10 0.828E-10 0.919E+03   -.563E-24 -.867E-24 0.790E+01
   -.675E-12 0.640E-12 0.927E+03   -.671E-10 0.258E-10 -.919E+03   0.567E-24 0.555E-25 -.790E+01
   0.423E-12 0.151E-12 0.927E+03   0.432E-10 -.785E-10 -.919E+03   0.646E-23 0.370E-23 -.790E+01
   -.743E-12 0.156E-12 -.927E+03   -.304E-10 -.686E-10 0.919E+03   0.278E-23 0.998E-24 0.790E+01
   0.390E-12 0.319E-11 -.927E+03   0.265E-11 0.337E-10 0.919E+03   0.729E-23 -.187E-23 0.790E+01
   0.307E-12 0.102E-12 0.927E+03   -.749E-10 0.857E-13 -.919E+03   0.378E-23 0.317E-23 -.790E+01
   -.207E-12 0.382E-12 0.927E+03   0.435E-11 0.991E-10 -.919E+03   0.614E-23 -.580E-24 -.790E+01
   0.413E-12 -.154E-10 -.927E+03   -.545E-10 0.890E-10 0.919E+03   0.635E-23 0.331E-23 0.790E+01
   -.224E-12 0.134E-12 -.927E+03   0.875E-13 0.546E-13 0.919E+03   0.299E-23 0.549E-24 0.790E+01
   0.327E-12 0.958E-11 0.927E+03   -.797E-10 -.471E-10 -.919E+03   0.691E-24 -.648E-24 -.790E+01
   -.207E-12 -.201E-11 0.927E+03   -.558E-11 0.243E-10 -.919E+03   -.258E-23 0.480E-24 -.790E+01
   0.442E-12 0.106E-10 -.927E+03   -.934E-10 0.267E-10 0.919E+03   -.118E-23 0.293E-23 0.790E+01
   -.229E-12 -.257E-11 -.927E+03   -.191E-10 -.447E-10 0.919E+03   0.156E-24 0.443E-23 0.790E+01
   0.321E-12 -.909E-11 0.927E+03   -.720E-10 -.686E-10 -.919E+03   -.516E-23 0.448E-23 -.790E+01
   -.231E-12 0.140E-11 0.927E+03   -.457E-13 0.941E-13 -.919E+03   -.252E-23 0.505E-24 -.790E+01
   0.423E-12 0.161E-10 -.927E+03   -.752E-10 -.200E-13 0.919E+03   -.189E-24 0.243E-24 0.790E+01
   -.243E-12 -.310E-11 -.927E+03   0.216E-10 -.786E-10 0.919E+03   -.182E-23 0.200E-23 0.790E+01
   0.330E-12 -.117E-10 0.927E+03   -.534E-10 0.832E-10 -.919E+03   -.650E-24 -.327E-24 -.790E+01
   -.231E-12 -.169E-11 0.927E+03   -.183E-10 -.378E-10 -.919E+03   -.160E-23 0.105E-23 -.790E+01
   0.429E-12 0.857E-11 -.927E+03   -.966E-10 -.403E-10 0.919E+03   0.189E-23 0.274E-24 0.790E+01
   -.255E-12 -.326E-11 -.927E+03   0.182E-10 0.826E-10 0.919E+03   -.952E-24 -.279E-24 0.790E+01
   0.315E-12 0.120E-10 0.927E+03   -.946E-10 0.252E-10 -.919E+03   -.892E-24 -.933E-24 -.790E+01
   -.211E-12 -.615E-11 0.927E+03   0.205E-10 -.784E-10 -.919E+03   0.189E-23 0.182E-23 -.790E+01
   0.404E-12 -.163E-10 -.927E+03   -.557E-10 -.683E-10 0.919E+03   0.388E-24 -.223E-23 0.790E+01
   -.239E-12 -.468E-12 -.927E+03   -.206E-10 0.335E-10 0.919E+03   0.185E-23 0.140E-24 0.790E+01
[...]
   0.547E-10 0.395E-10 0.696E+03   0.433E-10 0.495E-10 -.700E+03   0.548E-23 -.908E-23 0.354E+01
   0.315E-10 -.495E-10 0.696E+03   0.222E-11 -.613E-10 -.700E+03   0.712E-23 -.336E-22 0.354E+01
   0.548E-10 0.260E-10 -.696E+03   0.507E-10 -.136E-10 0.700E+03   -.216E-23 0.108E-22 -.354E+01
   0.315E-10 -.476E-11 -.696E+03   -.485E-11 0.104E-10 0.700E+03   0.111E-23 -.874E-23 -.354E+01
   0.547E-10 0.287E-10 0.696E+03   0.512E-10 -.166E-11 -.700E+03   -.954E-23 0.107E-22 0.354E+01
   0.315E-10 0.867E-10 0.696E+03   0.168E-11 -.149E-11 -.700E+03   0.195E-22 0.121E-22 0.354E+01
   0.548E-10 -.403E-10 -.696E+03   0.608E-10 0.120E-11 0.700E+03   -.259E-24 -.166E-22 -.354E+01
   0.314E-10 -.560E-10 -.696E+03   -.419E-11 -.488E-10 0.700E+03   -.241E-23 -.189E-24 -.354E+01
   0.547E-10 -.700E-10 0.696E+03   0.409E-10 -.598E-10 -.700E+03   -.149E-23 0.104E-22 0.354E+01
   0.315E-10 -.907E-10 0.696E+03   -.267E-12 0.700E-11 -.700E+03   0.137E-22 0.187E-23 0.354E+01
   0.547E-10 0.245E-10 -.696E+03   0.415E-10 0.415E-10 0.700E+03   0.465E-23 -.688E-23 -.354E+01
   0.315E-10 0.892E-10 -.696E+03   -.306E-11 -.298E-11 0.700E+03   -.323E-23 -.126E-22 -.354E+01
   0.547E-10 0.350E-10 0.696E+03   0.621E-10 0.568E-11 -.700E+03   -.140E-22 0.114E-22 0.354E+01
   0.315E-10 0.514E-10 0.696E+03   0.277E-12 0.562E-10 -.700E+03   0.233E-23 0.102E-23 0.354E+01
   0.123E-10 -.161E-10 -.638E-01   0.439E-11 -.322E-12 0.239E-11   0.132E-21 -.234E-21 0.395E-13

 POSITION                                       TOTAL-FORCE (eV/Angst)
      0.00000      0.00000      9.00000         0.000000     -0.000000      0.401370
      2.11389      2.11389      9.00000         0.000000     -0.000000      0.401370
      0.00000      2.11389     11.11389         0.000000     -0.000000     -0.401370
      2.11389      0.00000     11.11389         0.000000      0.000000     -0.401370
      0.00000      4.22777      9.00000         0.000000      0.000000      0.401370
      2.11389      6.34166      9.00000         0.000000     -0.000000      0.401370
      0.00000      6.34166     11.11389        -0.000000     -0.000000     -0.401370
      2.11389      4.22777     11.11389        -0.000000     -0.000000     -0.401370
      0.00000      8.45554      9.00000         0.000000     -0.000000      0.401370
      2.11389     10.56943      9.00000        -0.000000      0.000000      0.401370
      0.00000     10.56943     11.11389         0.000000      0.000000     -0.401370
      2.11389      8.45554     11.11389        -0.000000      0.000000     -0.401370
      0.00000     12.68331      9.00000         0.000000     -0.000000      0.401370
      2.11389     14.79720      9.00000         0.000000      0.000000      0.401370
      0.00000     14.79720     11.11389         0.000000      0.000000     -0.401370
      2.11389     12.68331     11.11389        -0.000000     -0.000000     -0.401370
      0.00000     16.91108      9.00000        -0.000000     -0.000000      0.401370
      2.11389     19.02497      9.00000        -0.000000     -0.000000      0.401370
      0.00000     19.02497     11.11389         0.000000      0.000000     -0.401370
      2.11389     16.91108     11.11389         0.000000     -0.000000     -0.401370
      4.22777      0.00000      9.00000         0.000000     -0.000000      0.401370
      6.34166      2.11389      9.00000        -0.000000     -0.000000      0.401370
      4.22777      2.11389     11.11389         0.000000     -0.000000     -0.401370
      6.34166      0.00000     11.11389         0.000000      0.000000     -0.401370
      4.22777      4.22777      9.00000        -0.000000     -0.000000      0.401370
      6.34166      6.34166      9.00000        -0.000000     -0.000000      0.401370
      4.22777      6.34166     11.11389         0.000000      0.000000     -0.401370
      6.34166      4.22777     11.11389         0.000000      0.000000     -0.401370
      4.22777      8.45554      9.00000         0.000000      0.000000      0.401370
      6.34166     10.56943      9.00000         0.000000      0.000000      0.401370
      4.22777     10.56943     11.11389        -0.000000     -0.000000     -0.401370
      6.34166      8.45554     11.11389         0.000000     -0.000000     -0.401370
      4.22777     12.68331      9.00000        -0.000000      0.000000      0.401370
      6.34166     14.79720      9.00000         0.000000      0.000000      0.401370
      4.22777     14.79720     11.11389         0.000000      0.000000     -0.401370
      6.34166     12.68331     11.11389        -0.000000      0.000000     -0.401370
      4.22777     16.91108      9.00000         0.000000     -0.000000      0.401370
      6.34166     19.02497      9.00000         0.000000     -0.000000      0.401370
      4.22777     19.02497     11.11389         0.000000     -0.000000     -0.401370
      6.34166     16.91108     11.11389         0.000000     -0.000000     -0.401370
      8.45554      0.00000      9.00000        -0.000000     -0.000000      0.401370
     10.56943      2.11389      9.00000         0.000000     -0.000000      0.401370
      8.45554      2.11389     11.11389         0.000000      0.000000     -0.401370
     10.56943      0.00000     11.11389         0.000000      0.000000     -0.401370
      8.45554      4.22777      9.00000        -0.000000     -0.000000      0.401370
     10.56943      6.34166      9.00000         0.000000      0.000000      0.401370
      8.45554      6.34166     11.11389        -0.000000      0.000000     -0.401370
     10.56943      4.22777     11.11389         0.000000      0.000000     -0.401370
      8.45554      8.45554      9.00000        -0.000000     -0.000000      0.401370
     10.56943     10.56943      9.00000        -0.000000      0.000000      0.401370
      8.45554     10.56943     11.11389         0.000000     -0.000000     -0.401370
     10.56943      8.45554     11.11389        -0.000000      0.000000     -0.401370
      8.45554     12.68331      9.00000        -0.000000     -0.000000      0.401370
     10.56943     14.79720      9.00000         0.000000      0.000000      0.401370
      8.45554     14.79720     11.11389         0.000000     -0.000000     -0.401370
     10.56943     12.68331     11.11389         0.000000     -0.000000     -0.401370
      8.45554     16.91108      9.00000        -0.000000      0.000000      0.401370
     10.56943     19.02497      9.00000         0.000000     -0.000000      0.401370
      8.45554     19.02497     11.11389        -0.000000      0.000000     -0.401370
     10.56943     16.91108     11.11389        -0.000000     -0.000000     -0.401370
[...]
     19.02497      6.34166     11.11389         0.000000      0.000000      0.514484
     16.91108      6.34166      9.00000         0.000000     -0.000000     -0.514484
     19.02497      4.22777      9.00000        -0.000000      0.000000     -0.514484
     16.91108      8.45554     11.11389        -0.000000      0.000000      0.514484
     19.02497     10.56943     11.11389        -0.000000      0.000000      0.514484
     16.91108     10.56943      9.00000        -0.000000      0.000000     -0.514484
     19.02497      8.45554      9.00000         0.000000      0.000000     -0.514484
     16.91108     12.68331     11.11389        -0.000000      0.000000      0.514484
     19.02497     14.79720     11.11389         0.000000      0.000000      0.514484
     16.91108     14.79720      9.00000        -0.000000      0.000000     -0.514484
     19.02497     12.68331      9.00000        -0.000000      0.000000     -0.514484
     16.91108     16.91108     11.11389         0.000000     -0.000000      0.514484
     19.02497     19.02497     11.11389         0.000000     -0.000000      0.514484
     16.91108     19.02497      9.00000         0.000000     -0.000000     -0.514484
     19.02497     16.91108      9.00000        -0.000000      0.000000     -0.514484
    total drift:                                0.000000     -0.000000     -0.063811

  FREE ENERGIE OF THE ION-ELECTRON SYSTEM (eV)
  free  energy   TOTEN  =     -1758.21795624 eV

  energy  without entropy=    -1758.21795624  energy(sigma->0) =    -1758.21795624