 vasp.6.3.0 20Jan22 (build Apr  1 2022 16:44:48) complex
 executed on        HPECrayEX_GCC date 2023.01.09  09:21:12

 INCAR:
   SYSTEM = MgO-rocksalt
   ISMEAR = 0
   SIGMA = 0.05
   EDIFF = 1E-6
   ALGO = ALL
   ISTART = 0
   IBRION = -1
   NSW = 0
   ISYM = 2
   DIPOL = 0.5 0.5 0.5
   IDIPOL = 3
   LDIPOL = .TRUE.
   GGA = PE
   ENCUT = 520
   PREC = Accurate
   LASPH = .TRUE.
   LREAL = Auto
   ISPIN = 1
   NELM = 200
   NELMIN = 8
   NCORE = 4
   KPAR = 2
   LWAVE = .FALSE.
   LCHARG = .FALSE.

 POTCAR:    PAW_PBE Cu 22Jun2005
 POTCAR:    PAW_PBE Mg_pv 13Apr2007
 POTCAR:    PAW_PBE O 08Apr2002
 POTCAR:    PAW_PBE Cu 22Jun2005
   VRHFIN =Cu: d10 p1

   TITEL  = PAW_PBE Cu 22Jun2005
   POMASS =   63.546; ZVAL   =   11.000    mass and valenz
   ENMAX  =  295.446; ENMIN  =  221.585 eV

   TITEL  = PAW_PBE Mg_pv 13Apr2007
   POMASS =   24.305; ZVAL   =    8.000    mass and valenz
   ENMAX  =  403.929; ENMIN  =  302.947 eV

   TITEL  = PAW_PBE O 08Apr2002
   POMASS =   16.000; ZVAL   =    6.000    mass and valenz
   ENMAX  =  400.000; ENMIN  =  300.000 eV

 Optimization of the real space projectors (new method)

 maximal supplied QI-value         = 16.25
 optimisation between [QCUT,QGAM] = [ 11.54, 23.24] = [ 37.28,151.24] Ry
 Optimized for a Real-space Cutoff    1.53 Angstroem

   l    n(q)    QCUT    max X(q) W(low)/X(q) W(high)/X(q)  e(spline)
   2     10    11.539     4.610    0.96E-04    0.13E-03    0.19E-06
   2     10    11.539     8.522    0.16E-03    0.21E-03    0.28E-06
   0     11    11.539    51.609    0.45E-04    0.31E-04    0.11E-06
   0     11    11.539    27.747    0.39E-04    0.29E-04    0.10E-06
   1     10    11.539    20.408    0.70E-05    0.38E-04    0.18E-06
   1     10    11.539    13.425    0.66E-05    0.34E-04    0.17E-06
 Optimization of the real space projectors (new method)

[...]

   l    n(q)    QCUT    max X(q) W(low)/X(q) W(high)/X(q)  e(spline)
   1      8    11.527     2.974    0.44E-04    0.56E-04    0.12E-06
   1      8    11.527     4.279    0.12E-03    0.12E-03    0.26E-06
   0      9    11.527    16.381    0.46E-04    0.64E-04    0.78E-07
   0      9    11.527     5.611    0.26E-04    0.43E-04    0.55E-07
   2      8    11.527     4.652    0.22E-03    0.72E-04    0.47E-07
 Optimization of the real space projectors (new method)

 maximal supplied QI-value         = 24.76
 optimisation between [QCUT,QGAM] = [ 11.64, 23.27] = [ 37.91,151.63] Ry
 Optimized for a Real-space Cutoff    1.14 Angstroem

   l    n(q)    QCUT    max X(q) W(low)/X(q) W(high)/X(q)  e(spline)
   0      8    11.635    20.381    0.10E-03    0.33E-03    0.24E-06
   0      8    11.635    15.268    0.11E-03    0.35E-03    0.26E-06
   1      7    11.635     5.964    0.24E-03    0.31E-03    0.30E-06
   1      7    11.635     5.382    0.22E-03    0.25E-03    0.26E-06
  PAW_PBE Cu 22Jun2005                  :
  PAW_PBE Mg_pv 13Apr2007               :
  PAW_PBE O 08Apr2002                   :

 POSCAR: Cu Mg  O
  positions in direct lattice
  velocities in cartesian coordinates
 exchange correlation table for  LEXCH =        8
   RHO(1)=    0.500       N(1)  =     2000
   RHO(2)=  100.500       N(2)  =     4000

 ion  position               nearest neighbor table
   1  0.400  0.417  0.591- 153 1.98   4 2.26   3 2.42   2 2.42  55 2.62
   2  0.490  0.488  0.600- 154 2.19   4 2.37   1 2.42
   3  0.310  0.488  0.600- 134 2.19   4 2.37   1 2.42
   4  0.400  0.492  0.664-   1 2.26   2 2.37   3 2.37
   5  0.000  0.000  0.407- 107 2.11 108 2.11 123 2.11 188 2.11 105 2.11
   6  0.100  0.100  0.407- 107 2.11 108 2.11 112 2.11 127 2.11 106 2.11
   7  0.000  0.100  0.503- 105 2.11 106 2.11 109 2.11 186 2.11 107 2.11
   8  0.100  0.000  0.503- 105 2.11 106 2.11 122 2.11 125 2.11 108 2.11
   9  0.000  0.200  0.407- 111 2.11 107 2.11 112 2.11 192 2.11 109 2.11
  10  0.100  0.300  0.407- 112 2.11 111 2.11 116 2.11 131 2.11 110 2.11
  11  0.000  0.300  0.503- 109 2.11 110 2.11 113 2.11 190 2.11 111 2.11
  12  0.100  0.200  0.503- 110 2.11 109 2.11 106 2.11 129 2.11 112 2.11
  13  0.000  0.400  0.407- 111 2.11 115 2.11 116 2.11 196 2.11 113 2.11
  14  0.100  0.500  0.407- 115 2.11 116 2.11 120 2.11 135 2.11 114 2.11
  15  0.000  0.500  0.503- 113 2.11 114 2.11 117 2.11 194 2.11 115 2.11
  16  0.100  0.400  0.503- 110 2.11 113 2.11 114 2.11 133 2.11 116 2.11
  17  0.000  0.600  0.407- 115 2.11 119 2.11 120 2.11 200 2.11 117 2.11
  18  0.100  0.700  0.407- 124 2.11 120 2.11 119 2.11 139 2.11 118 2.11
  19  0.000  0.700  0.503- 121 2.11 118 2.11 117 2.11 198 2.11 119 2.11
  20  0.100  0.600  0.503- 114 2.11 117 2.11 118 2.11 137 2.11 120 2.11
  21  0.000  0.800  0.407- 119 2.11 123 2.11 124 2.11 204 2.11 121 2.11
  22  0.100  0.900  0.407- 108 2.11 123 2.11 124 2.11 143 2.11 122 2.11
  23  0.000  0.900  0.503- 105 2.11 121 2.11 122 2.11 202 2.11 123 2.11
  24  0.100  0.800  0.503- 118 2.11 121 2.11 122 2.11 141 2.11 124 2.11
  25  0.200  0.000  0.407- 128 2.11 127 2.11 108 2.11 143 2.11 125 2.11
  26  0.300  0.100  0.407- 127 2.11 128 2.11 132 2.11 147 2.11 126 2.11
  27  0.200  0.100  0.503- 126 2.11 125 2.11 106 2.11 129 2.11 127 2.11
  28  0.300  0.000  0.503- 125 2.11 126 2.11 142 2.11 145 2.11 128 2.11
  29  0.200  0.200  0.407- 131 2.11 132 2.11 112 2.11 127 2.11 129 2.11
  30  0.300  0.300  0.407- 131 2.11 132 2.11 136 2.11 151 2.11 130 2.11
  31  0.200  0.300  0.503- 129 2.11 130 2.11 110 2.11 133 2.11 131 2.11
  32  0.300  0.200  0.503- 129 2.11 130 2.11 126 2.11 149 2.11 132 2.11
  33  0.200  0.400  0.407- 136 2.11 131 2.11 135 2.11 116 2.11 133 2.11
  34  0.300  0.500  0.407- 135 2.11 136 2.11 140 2.11 155 2.11 134 2.11
  35  0.200  0.500  0.503- 134 2.11 133 2.11 114 2.11 137 2.11 135 2.11
  36  0.300  0.400  0.503- 133 2.11 130 2.11 134 2.11 153 2.11 136 2.11
  37  0.200  0.600  0.407- 140 2.11 135 2.11 139 2.11 120 2.11 137 2.11
  38  0.300  0.700  0.407- 139 2.11 144 2.11 140 2.11 159 2.11 138 2.11
  39  0.200  0.700  0.503- 138 2.11 141 2.11 118 2.11 137 2.11 139 2.11
  40  0.300  0.600  0.503- 137 2.11 134 2.11 138 2.11 157 2.11 140 2.11
  41  0.200  0.800  0.407- 139 2.11 144 2.11 143 2.11 124 2.11 141 2.11
  42  0.300  0.900  0.407- 143 2.11 128 2.11 144 2.11 163 2.11 142 2.11
  43  0.200  0.900  0.503- 142 2.11 125 2.11 141 2.11 122 2.11 143 2.11
  44  0.300  0.800  0.503- 138 2.11 141 2.11 142 2.11 161 2.11 144 2.11
  45  0.400  0.000  0.407- 128 2.11 147 2.11 148 2.11 163 2.11 145 2.11
  46  0.500  0.100  0.407- 147 2.11 148 2.11 152 2.11 167 2.11 146 2.11
  47  0.400  0.100  0.503- 126 2.11 145 2.11 146 2.11 149 2.11 147 2.11
  48  0.500  0.000  0.503- 145 2.11 146 2.11 162 2.11 165 2.11 148 2.11
  49  0.400  0.200  0.407- 151 2.11 147 2.11 132 2.11 152 2.11 149 2.11
  50  0.500  0.300  0.407- 152 2.11 151 2.11 156 2.11 171 2.11 150 2.11
  51  0.400  0.300  0.503- 149 2.11 130 2.11 150 2.11 153 2.11 151 2.11
  52  0.500  0.200  0.503- 150 2.11 149 2.11 146 2.11 169 2.11 152 2.11
  53  0.400  0.400  0.407- 136 2.11 151 2.11 155 2.11 156 2.11 153 2.11
  54  0.500  0.500  0.407- 155 2.11 156 2.11 160 2.11 175 2.11 154 2.11
  55  0.400  0.500  0.503- 134 2.11 153 2.11 154 2.11 157 2.11 155 2.11   1 2.62
  56  0.500  0.400  0.503- 150 2.11 153 2.11 154 2.11 173 2.11 156 2.11
  57  0.400  0.600  0.407- 140 2.11 155 2.11 159 2.11 160 2.11 157 2.11
  58  0.500  0.700  0.407- 164 2.11 160 2.11 159 2.11 179 2.11 158 2.11
  59  0.400  0.700  0.503- 161 2.11 157 2.11 158 2.11 138 2.11 159 2.11
  60  0.500  0.600  0.503- 154 2.11 157 2.11 158 2.11 177 2.11 160 2.11
[...]
 190  0.900  0.300  0.503-  92 2.11  91 2.11  11 2.11  96 2.11  90 2.11
 191  0.800  0.300  0.407-  70 2.11  89 2.11  90 2.11  93 2.11  91 2.11
 192  0.900  0.200  0.407-  90 2.11  86 2.11  89 2.11   9 2.11  92 2.11
 193  0.800  0.400  0.503-  76 2.11  91 2.11  95 2.11  96 2.11  93 2.11
 194  0.900  0.500  0.503-  15 2.11  95 2.11  96 2.11 100 2.11  94 2.11
 195  0.800  0.500  0.407-  74 2.11  93 2.11  94 2.11  97 2.11  95 2.11
 196  0.900  0.400  0.407-  13 2.11  90 2.11  93 2.11  94 2.11  96 2.11
 197  0.800  0.600  0.503-  80 2.11  95 2.11  99 2.11 100 2.11  97 2.11
 198  0.900  0.700  0.503- 104 2.11  99 2.11 100 2.11  19 2.11  98 2.11
 199  0.800  0.700  0.407-  78 2.11 101 2.11  98 2.11  97 2.11  99 2.11
 200  0.900  0.600  0.407-  17 2.11  94 2.11  97 2.11  98 2.11 100 2.11
 201  0.800  0.800  0.503-  84 2.11  99 2.11 103 2.11 104 2.11 101 2.11
 202  0.900  0.900  0.503-  23 2.11  88 2.11 103 2.11 104 2.11 102 2.11
 203  0.800  0.900  0.407-  82 2.11  85 2.11 101 2.11 102 2.11 103 2.11
 204  0.900  0.800  0.407-  98 2.11  21 2.11 101 2.11 102 2.11 104 2.11

  LATTYP: Found a simple tetragonal cell.
 ALAT       =    21.1388521970
 C/A-ratio  =     1.0461251639

  Lattice vectors:

 A1 = (  21.1388521970,   0.0000000000,   0.0000000000)
 A2 = (   0.0000000000,  21.1388521970,   0.0000000000)
 A3 = (   0.0000000000,   0.0000000000,  22.1138852197)

Analysis of symmetry for initial positions (statically):
 Subroutine PRICEL returns:
 Original cell was already a primitive cell.

 Routine SETGRP: Setting up the symmetry group for a
 simple tetragonal supercell.

 Subroutine GETGRP returns: Found  2 space group operations
 (whereof  1 operations were pure point group operations)
 out of a pool of 16 trial point group operations.

The static configuration has the point symmetry C_1 .
 The point group associated with its full space group is C_1h.

Analysis of symmetry for dynamics (positions and initial velocities):
 Subroutine PRICEL returns:
 Original cell was already a primitive cell.

[...]

The dynamic configuration has the point symmetry C_1 .
 The point group associated with its full space group is C_1h.

Analysis of constrained symmetry for selective dynamics:
 Subroutine PRICEL returns:
 Original cell was already a primitive cell.

 Routine SETGRP: Setting up the symmetry group for a
 simple tetragonal supercell.

 Subroutine GETGRP returns: Found  2 space group operations
 (whereof  1 operations were pure point group operations)
 out of a pool of 16 trial point group operations.

The constrained configuration has the point symmetry C_1 .
 The point group associated with its full space group is C_1h.

 Subroutine INISYM returns: Found  2 space group operations
 (whereof  1 operations are pure point group operations),
 and found     1 'primitive' translations

                                     Primitive cell

  volume of cell :    9881.6133

  direct lattice vectors                    reciprocal lattice vectors
    21.138852197  0.000000000  0.000000000     0.047306258  0.000000000  0.000000000
     0.000000000 21.138852197  0.000000000     0.000000000  0.047306258  0.000000000
     0.000000000  0.000000000 22.113885220     0.000000000  0.000000000  0.045220457

  length of vectors
    21.138852197 21.138852197 22.113885220     0.047306258  0.047306258  0.045220457

  position of ions in fractional coordinates (direct lattice)
     0.400000448  0.417421820  0.590666055
     0.489930887  0.487828399  0.600479320
     0.310074740  0.487828788  0.600479320
     0.400005179  0.491990244  0.664187608
     0.000000000  0.000000000  0.406984115
     0.100000000  0.100000000  0.406984115
     0.000000000  0.100000000  0.502574971
[...]
     52     -43.0683      2.00000
     53     -43.0683      2.00000
     54     -43.0667      2.00000
     55     -43.0645      2.00000
     56     -43.0616      2.00000
     57     -43.0615      2.00000
     58     -43.0575      2.00000
     59     -43.0572      2.00000
     60     -43.0571      2.00000
[...]
    946       6.1989      0.00000
    947       6.2317      0.00000
    948       6.2686      0.00000
    949       6.3203      0.00000
    950       6.3583      0.00000
    951       6.4210      0.00000
    952       6.4722      0.00000
    953       6.5713      0.00000
    954       6.5996      0.00000
    955       6.6717      0.00000
    956       6.7323      0.00000
    957       6.7624      0.00000
    958       6.8420      0.00000
    959       6.8549      0.00000
    960       6.8962      0.00000

 soft charge-density along one line, spin component           1
         0         1         2         3         4         5         6         7         8         9
 total charge-density along one line

------------------------ aborting loop because EDIFF is reached ----------------------------------------

  FORCE on cell =-STRESS in cart. coord.  units (eV):
  Direction    XX          YY          ZZ          XY          YZ          ZX
  Alpha Z  1394.80054  1394.80054  1394.80054
  Ewald  487008.22575485627.98407************     0.00456   493.91026     0.00668
  Hartree516524.69609515329.16927************     0.00411   374.20040     0.00123
  E(xc)   -7906.22462 -7906.83674 -7937.14897     0.00001     0.27034     0.00001
  Local  ************************************    -0.00924  -861.99348    -0.00688
  n-local -8850.55827 -8853.52449 -8973.36018     0.00063    -0.28697     0.00063
  augment  3658.47999  3658.71506  3600.85381     0.00016    -2.88058    -0.00021
  Kinetic 23043.40160 23042.35892 23291.04256     0.00056    -3.14183    -0.00021
  Fock        0.00000     0.00000     0.00000     0.00000     0.00000     0.00000
  Total    -146.05672  -146.05403    18.76174     0.00000     0.07815     0.00000
  in kB     -23.68123   -23.68080     3.04198     0.00000     0.01267     0.00000

 VOLUME and BASIS-vectors are now :
  energy-cutoff  :      520.00
  volume of cell :     9881.61
      direct lattice vectors                 reciprocal lattice vectors
    21.138852197  0.000000000  0.000000000     0.047306258  0.000000000  0.000000000
     0.000000000 21.138852197  0.000000000     0.000000000  0.047306258  0.000000000
     0.000000000  0.000000000 22.113885220     0.000000000  0.000000000  0.045220457

  length of vectors
    21.138852197 21.138852197 22.113885220     0.047306258  0.047306258  0.045220457

 FORCES acting on ions:
    Electron-Ion                     Ewald-Force                    Non-Local-Force
   0.206E-01 0.599E+03 -.198E+04   -.580E-02 -.593E+03 0.198E+04   0.000E+00 -.638E+01 -.193E+01
   -.601E+03 -.172E+03 -.205E+04   0.595E+03 0.168E+03 0.205E+04   0.615E+01 0.422E+01 -.598E+01
   0.601E+03 -.172E+03 -.205E+04   -.595E+03 0.168E+03 0.205E+04   -.615E+01 0.422E+01 -.598E+01
   -.164E-01 -.264E+03 -.243E+04   0.277E-02 0.258E+03 0.242E+04   0.000E+00 0.626E+01 0.100E+02
   0.683E+01 0.257E+01 0.936E+03   -.683E+01 -.257E+01 -.928E+03   0.156E-01 0.643E-02 -.744E+01
   0.150E+02 0.152E+02 0.941E+03   -.151E+02 -.153E+02 -.933E+03   0.472E-01 0.321E-01 -.744E+01
   0.108E+02 0.133E+02 -.918E+03   -.109E+02 -.133E+02 0.911E+03   0.213E-01 0.170E-02 0.736E+01
   0.140E+02 0.454E+01 -.918E+03   -.140E+02 -.455E+01 0.910E+03   0.224E-01 0.124E-01 0.736E+01
   0.128E+02 0.160E+02 0.942E+03   -.129E+02 -.160E+02 -.934E+03   0.433E-01 0.107E-01 -.745E+01
   0.361E+02 0.255E+02 0.959E+03   -.363E+02 -.255E+02 -.951E+03   0.167E+00 0.355E-01 -.749E+01
   0.262E+02 0.207E+02 -.911E+03   -.262E+02 -.207E+02 0.904E+03   0.291E-01 -.101E-01 0.734E+01
   0.324E+02 0.330E+02 -.910E+03   -.324E+02 -.330E+02 0.902E+03   0.741E-01 -.103E-02 0.734E+01
   0.238E+02 0.841E+01 0.951E+03   -.239E+02 -.842E+01 -.943E+03   0.800E-01 0.187E-02 -.747E+01
   0.515E+02 -.622E+01 0.973E+03   -.519E+02 0.623E+01 -.965E+03   0.301E+00 -.822E-02 -.756E+01
   0.376E+02 -.452E+01 -.906E+03   -.376E+02 0.452E+01 0.899E+03   0.182E-01 0.160E-02 0.733E+01
   0.827E+02 0.251E+02 -.887E+03   -.827E+02 -.251E+02 0.879E+03   0.830E-01 -.227E-01 0.727E+01
   0.211E+02 -.134E+02 0.949E+03   -.211E+02 0.134E+02 -.941E+03   0.736E-01 -.845E-02 -.746E+01
   0.278E+02 -.260E+02 0.953E+03   -.279E+02 0.260E+02 -.945E+03   0.816E-01 -.530E-01 -.746E+01
   0.207E+02 -.217E+02 -.913E+03   -.207E+02 0.217E+02 0.906E+03   0.298E-01 0.519E-02 0.735E+01
   0.683E+02 -.363E+02 -.892E+03   -.685E+02 0.363E+02 0.885E+03   0.157E+00 0.273E-01 0.730E+01
   0.100E+02 -.135E+02 0.939E+03   -.100E+02 0.135E+02 -.932E+03   0.213E-01 -.105E-01 -.744E+01
   0.122E+02 -.856E+01 0.939E+03   -.123E+02 0.856E+01 -.931E+03   0.223E-01 -.654E-02 -.744E+01
   0.888E+01 -.777E+01 -.919E+03   -.888E+01 0.777E+01 0.911E+03   0.103E-01 0.155E-02 0.736E+01
   0.233E+02 -.261E+02 -.913E+03   -.233E+02 0.262E+02 0.906E+03   0.205E-01 -.156E-01 0.735E+01
   0.120E+02 0.515E+01 0.941E+03   -.121E+02 -.519E+01 -.933E+03   0.284E-01 0.317E-01 -.744E+01
   0.110E+02 0.289E+02 0.951E+03   -.111E+02 -.291E+02 -.943E+03   0.386E-01 0.137E+00 -.746E+01
   0.217E+02 0.305E+02 -.912E+03   -.217E+02 -.305E+02 0.904E+03   0.454E-01 0.529E-01 0.735E+01
   0.969E+01 0.905E+01 -.914E+03   -.969E+01 -.911E+01 0.906E+03   0.159E-01 0.434E-01 0.735E+01
   0.276E+02 0.372E+02 0.959E+03   -.277E+02 -.374E+02 -.952E+03   0.128E+00 0.125E+00 -.747E+01
   0.374E+02 0.673E+02 0.102E+04   -.378E+02 -.679E+02 -.101E+04   0.309E+00 0.459E+00 -.751E+01
   0.835E+02 0.800E+02 -.871E+03   -.838E+02 -.800E+02 0.864E+03   0.288E+00 -.916E-02 0.723E+01
   0.325E+02 0.871E+02 -.886E+03   -.326E+02 -.874E+02 0.878E+03   0.758E-01 0.238E+00 0.732E+01
   0.681E+02 0.278E+02 0.101E+04   -.688E+02 -.280E+02 -.100E+04   0.576E+00 0.115E+00 -.768E+01
   0.584E+02 -.240E+02 0.109E+04   -.591E+02 0.244E+02 -.108E+04   0.526E+00 -.278E+00 -.621E+01
   0.182E+03 -.295E+02 -.788E+03   -.184E+03 0.294E+02 0.781E+03   0.131E+01 0.997E-01 0.683E+01
   0.184E+03 0.161E+03 -.639E+03   -.187E+03 -.162E+03 0.634E+03   0.209E+01 0.870E+00 0.510E+01
   0.543E+02 -.416E+02 0.997E+03   -.546E+02 0.418E+02 -.989E+03   0.268E+00 -.196E+00 -.748E+01
   0.231E+02 -.585E+02 0.985E+03   -.231E+02 0.589E+02 -.977E+03   0.542E-01 -.317E+00 -.755E+01
   0.527E+02 -.687E+02 -.888E+03   -.527E+02 0.689E+02 0.881E+03   0.274E-01 -.129E+00 0.730E+01
   0.902E+02 -.176E+03 -.763E+03   -.903E+02 0.177E+03 0.755E+03   0.380E-01 -.129E+01 0.692E+01
   0.193E+02 -.283E+02 0.951E+03   -.193E+02 0.284E+02 -.943E+03   0.350E-01 -.726E-01 -.746E+01
   0.832E+01 -.149E+02 0.946E+03   -.832E+01 0.149E+02 -.938E+03   0.142E-01 -.144E-01 -.745E+01
   0.162E+02 -.161E+02 -.914E+03   -.162E+02 0.161E+02 0.907E+03   0.175E-01 0.218E-02 0.735E+01
   0.182E+02 -.563E+02 -.901E+03   -.182E+02 0.563E+02 0.893E+03   0.125E-01 -.377E-01 0.733E+01
   0.150E-01 0.732E+01 0.945E+03   -.217E-03 -.740E+01 -.937E+03   0.000E+00 0.603E-01 -.745E+01
   -.110E+02 0.289E+02 0.951E+03   0.111E+02 -.291E+02 -.943E+03   -.386E-01 0.137E+00 -.746E+01
   0.152E-01 0.470E+02 -.905E+03   -.391E-03 -.472E+02 0.898E+03   0.000E+00 0.137E+00 0.734E+01
   -.966E+01 0.905E+01 -.914E+03   0.969E+01 -.911E+01 0.906E+03   -.159E-01 0.434E-01 0.735E+01
   0.153E-01 0.590E+02 0.978E+03   -.499E-03 -.596E+02 -.970E+03   0.000E+00 0.448E+00 -.752E+01
   -.374E+02 0.673E+02 0.102E+04   0.378E+02 -.679E+02 -.101E+04   -.309E+00 0.459E+00 -.751E+01
   0.171E-01 0.207E+03 -.777E+03   -.193E-02 -.210E+03 0.769E+03   0.000E+00 0.218E+01 0.732E+01
   -.325E+02 0.871E+02 -.886E+03   0.326E+02 -.874E+02 0.878E+03   -.758E-01 0.238E+00 0.732E+01
   0.162E-01 0.519E+02 0.111E+04   -.142E-02 -.523E+02 -.110E+04   0.000E+00 0.271E+00 -.500E+01
   -.584E+02 -.240E+02 0.109E+04   0.591E+02 0.244E+02 -.108E+04   -.526E+00 -.278E+00 -.621E+01
   0.175E-01 -.151E+03 -.464E+03   -.165E-02 0.154E+03 0.460E+03   0.000E+00 -.201E+01 0.433E+01
   -.184E+03 0.161E+03 -.639E+03   0.187E+03 -.162E+03 0.634E+03   -.209E+01 0.870E+00 0.510E+01
   0.159E-01 -.757E+02 0.105E+04   -.116E-02 0.766E+02 -.105E+04   0.000E+00 -.654E+00 -.767E+01
   -.230E+02 -.585E+02 0.985E+03   0.231E+02 0.589E+02 -.977E+03   -.542E-01 -.317E+00 -.755E+01
   0.160E-01 -.124E+03 -.859E+03   -.126E-02 0.124E+03 0.851E+03   0.000E+00 -.165E+00 0.727E+01
   -.902E+02 -.176E+03 -.763E+03   0.902E+02 0.177E+03 0.755E+03   -.380E-01 -.129E+01 0.692E+01
[...]
   -.139E+02 0.118E+02 0.712E+03   0.140E+02 -.118E+02 -.716E+03   -.507E-01 0.112E-01 0.348E+01
   0.707E-01 0.101E+02 0.706E+03   0.250E-03 -.101E+02 -.710E+03   0.000E+00 0.749E-02 0.349E+01
   -.264E+02 0.872E+01 -.682E+03   0.264E+02 -.872E+01 0.686E+03   -.288E-01 -.788E-02 -.369E+01
   0.702E-01 -.249E+01 -.685E+03   0.726E-03 0.248E+01 0.690E+03   0.000E+00 0.125E-02 -.366E+01
   -.187E+02 -.257E+01 0.716E+03   0.188E+02 0.257E+01 -.720E+03   -.568E-01 -.308E-02 0.346E+01
   0.705E-01 0.499E+01 0.711E+03   0.461E-03 -.499E+01 -.715E+03   0.000E+00 0.611E-03 0.348E+01
   -.230E+02 -.135E+02 -.683E+03   0.231E+02 0.135E+02 0.688E+03   -.306E-01 0.707E-02 -.367E+01
   0.705E-01 -.129E+02 -.688E+03   0.440E-03 0.129E+02 0.693E+03   0.000E+00 0.210E-02 -.363E+01
   -.112E+02 -.126E+02 0.710E+03   0.113E+02 0.126E+02 -.714E+03   -.404E-01 -.208E-01 0.349E+01
   0.705E-01 -.803E+01 0.710E+03   0.431E-03 0.804E+01 -.714E+03   0.000E+00 -.611E-02 0.348E+01
   -.963E+01 -.128E+02 -.689E+03   0.971E+01 0.128E+02 0.694E+03   -.197E-01 -.669E-02 -.363E+01
   0.708E-01 -.497E+01 -.691E+03   0.195E-03 0.496E+01 0.696E+03   0.000E+00 0.114E-02 -.362E+01
   -.537E+01 -.469E+01 0.704E+03   0.545E+01 0.470E+01 -.708E+03   -.165E-01 -.224E-02 0.350E+01
   0.707E-01 -.867E+01 0.705E+03   0.219E-03 0.867E+01 -.709E+03   0.000E+00 -.746E-02 0.350E+01
   0.866E+01 -.861E+01 0.107E+02   0.261E-11 0.227E-12 0.227E-10   0.000E+00 0.861E+01 -.113E+02

 POSITION                                       TOTAL-FORCE (eV/Angst)
      8.45555      8.82382     13.06192         0.000000     -0.080893      0.062147
     10.35658     10.31213     13.27893         0.063462      0.017035      0.041632
      6.55462     10.31214     13.27893        -0.063462      0.017035      0.041632
      8.45565     10.40011     14.68777         0.000000      0.044444      0.128933
      0.00000      0.00000      9.00000        -0.004322     -0.001802      0.334347
      2.11389      2.11389      9.00000        -0.013003     -0.008841      0.335711
      0.00000      2.11389     11.11389        -0.005639     -0.000418     -0.305873
      2.11389      0.00000     11.11389        -0.006197     -0.003295     -0.306227
      0.00000      4.22777      9.00000        -0.011405     -0.002869      0.337360
      2.11389      6.34166      9.00000        -0.043728     -0.009611      0.348184
      0.00000      6.34166     11.11389        -0.006478      0.003247     -0.296450
      2.11389      4.22777     11.11389        -0.018878      0.000806     -0.294652
      0.00000      8.45554      9.00000        -0.021241     -0.000428      0.343078
      2.11389     10.56943      9.00000        -0.076048      0.001831      0.361729
      0.00000     10.56943     11.11389        -0.002431     -0.000724     -0.290047
      2.11389      8.45554     11.11389        -0.014585      0.009445     -0.251355
      0.00000     12.68331      9.00000        -0.019107      0.002250      0.341647
      2.11389     14.79720      9.00000        -0.022803      0.015241      0.339086
      0.00000     14.79720     11.11389        -0.007341     -0.001481     -0.300656
      2.11389     12.68331     11.11389        -0.036152     -0.009982     -0.267999
      0.00000     16.91108      9.00000        -0.005887      0.002925      0.335415
      2.11389     19.02497      9.00000        -0.006240      0.001650      0.335199
      0.00000     19.02497     11.11389        -0.002860     -0.000512     -0.307332
      2.11389     16.91108     11.11389        -0.005658      0.003526     -0.301504
      4.22777      0.00000      9.00000        -0.008029     -0.008512      0.335432
      6.34166      2.11389      9.00000        -0.011314     -0.036317      0.338252
      4.22777      2.11389     11.11389        -0.012720     -0.013174     -0.299524
      6.34166      0.00000     11.11389        -0.004528     -0.011223     -0.303339
      4.22777      4.22777      9.00000        -0.036021     -0.034881      0.339948
      6.34166      6.34166      9.00000        -0.100306     -0.133833      0.328450
      4.22777      6.34166     11.11389        -0.061379      0.017935     -0.217307
      6.34166      4.22777     11.11389        -0.023102     -0.060057     -0.273303
      4.22777      8.45554      9.00000        -0.155023     -0.039097      0.373880
      6.34166     10.56943      9.00000        -0.146290      0.089640      0.036671
      4.22777     10.56943     11.11389        -0.439933     -0.036023     -0.153207
      6.34166      8.45554     11.11389        -0.770793     -0.434124      0.000572
      4.22777     12.68331      9.00000        -0.081731      0.062691      0.332181
      6.34166     14.79720      9.00000        -0.014310      0.080080      0.358661
      4.22777     14.79720     11.11389        -0.005653      0.029764     -0.270404
      6.34166     12.68331     11.11389         0.007184      0.418824     -0.152875
      4.22777     16.91108      9.00000        -0.009783      0.018985      0.339822
      6.34166     19.02497      9.00000        -0.004005      0.003657      0.336846
      4.22777     19.02497     11.11389        -0.004902     -0.001003     -0.303899
      6.34166     16.91108     11.11389        -0.003453      0.007278     -0.292190
      8.45554      0.00000      9.00000         0.000000     -0.015762      0.336332
     10.56943      2.11389      9.00000         0.011314     -0.036317      0.338252
      8.45554      2.11389     11.11389         0.000000     -0.033876     -0.295549
     10.56943      0.00000     11.11389         0.004528     -0.011223     -0.303339
      8.45554      4.22777      9.00000         0.000000     -0.112014      0.349974
     10.56943      6.34166      9.00000         0.100306     -0.133833      0.328450
      8.45554      6.34166     11.11389         0.000000     -0.704075     -0.328016
     10.56943      4.22777     11.11389         0.023102     -0.060057     -0.273303
      8.45554      8.45554      9.00000         0.000000     -0.095013     -0.184720
     10.56943     10.56943      9.00000         0.146290      0.089640      0.036671
      8.45554     10.56943     11.11389         0.000000      0.994924     -0.124574
     10.56943      8.45554     11.11389         0.770793     -0.434124      0.000572
      8.45554     12.68331      9.00000         0.000000      0.187905      0.359953
     10.56943     14.79720      9.00000         0.014310      0.080080      0.358661
      8.45554     14.79720     11.11389         0.000000      0.032331     -0.246214
     10.56943     12.68331     11.11389        -0.007184      0.418824     -0.152875
[...]
     19.02497      6.34166     11.11389         0.000000     -0.002097      0.509424
     16.91108      6.34166      9.00000        -0.014156      0.003107     -0.550619
     19.02497      4.22777      9.00000         0.000000      0.001991     -0.546256
     16.91108      8.45554     11.11389        -0.008345     -0.002103      0.497800
     19.02497     10.56943     11.11389         0.000000      0.000392      0.505789
     16.91108     10.56943      9.00000        -0.016328     -0.000886     -0.555122
     19.02497      8.45554      9.00000         0.000000      0.000079     -0.550061
     16.91108     12.68331     11.11389        -0.008824      0.001959      0.502110
     19.02497     14.79720     11.11389         0.000000      0.000739      0.512175
     16.91108     14.79720      9.00000        -0.011234     -0.005657     -0.547840
     19.02497     12.68331      9.00000         0.000000     -0.001518     -0.548888
     16.91108     16.91108     11.11389        -0.005396     -0.001734      0.514279
     19.02497     19.02497     11.11389         0.000000      0.000367      0.517238
     16.91108     19.02497      9.00000        -0.004528     -0.000585     -0.544451
     19.02497     16.91108      9.00000         0.000000     -0.001965     -0.545067
    total drift:                                8.658437     -0.003865     -0.590563

  FREE ENERGIE OF THE ION-ELECTRON SYSTEM (eV)
  free  energy   TOTEN  =     -1146.82892672 eV

  energy  without entropy=    -1146.82892672  energy(sigma->0) =    -1146.82892672