 vasp.6.4.1 05Apr23 (build May 06 2023 19:47:20) complex

 executed on             LinuxIFC date 2023.07.04  00:56:41

 INCAR:
   SYSTEM = MgO-rocksalt
   ISMEAR = 0
   SIGMA = 0.05
   EDIFF = 1E-6
   ALGO = ALL
   ISTART = 0
   IBRION = -1
   NSW = 0
   ISYM = 2
   DIPOL = 0.5 0.5 0.5
   IDIPOL = 3
   LDIPOL = .TRUE.
   GGA = PE
   IVDW = 11
   ENCUT = 520
   PREC = Accurate
   LASPH = .TRUE.
   LREAL = Auto
   ISPIN = 1
   NELM = 200
   NELMIN = 8
   NCORE = 16
   KPAR = 1
   LWAVE = .FALSE.
   LCHARG = .FALSE.

 POTCAR:    PAW_PBE Ag 02Apr2005
 POTCAR:    PAW_PBE Mg_pv 13Apr2007
 POTCAR:    PAW_PBE O 08Apr2002
 POTCAR:    PAW_PBE Ag 02Apr2005
   VRHFIN =Ag : s1 d10

   TITEL  = PAW_PBE Ag 02Apr2005
   POMASS =  107.868; ZVAL   =   11.000    mass and valenz
   ENMAX  =  249.844; ENMIN  =  187.383 eV

   TITEL  = PAW_PBE Mg_pv 13Apr2007
   POMASS =   24.305; ZVAL   =    8.000    mass and valenz
   ENMAX  =  403.929; ENMIN  =  302.947 eV

   TITEL  = PAW_PBE O 08Apr2002
   POMASS =   16.000; ZVAL   =    6.000    mass and valenz
   ENMAX  =  400.000; ENMIN  =  300.000 eV

 Optimization of the real space projectors (new method)

 maximal supplied QI-value         = 15.12
 optimisation between [QCUT,QGAM] = [ 11.64, 23.28] = [ 37.95,151.78] Ry
 Optimized for a Real-space Cutoff    1.45 Angstroem

   l    n(q)    QCUT    max X(q) W(low)/X(q) W(high)/X(q)  e(spline)
   2      9    11.641    53.897    0.22E-03    0.42E-04    0.28E-06
   2      9    11.641    52.416    0.23E-03    0.44E-04    0.29E-06
   0     10    11.641   122.045    0.51E-04    0.25E-04    0.16E-06
   0     10    11.641    73.629    0.49E-04    0.24E-04    0.16E-06
   1     10    11.641    15.255    0.99E-04    0.55E-04    0.11E-06
   1     10    11.641     9.562    0.81E-04    0.47E-04    0.95E-07
 Optimization of the real space projectors (new method)

[...]

   l    n(q)    QCUT    max X(q) W(low)/X(q) W(high)/X(q)  e(spline)
   1      8    11.527     2.974    0.44E-04    0.56E-04    0.12E-06
   1      8    11.527     4.279    0.12E-03    0.12E-03    0.26E-06
   0      9    11.527    16.381    0.46E-04    0.64E-04    0.78E-07
   0      9    11.527     5.611    0.26E-04    0.43E-04    0.55E-07
   2      8    11.527     4.652    0.22E-03    0.72E-04    0.47E-07
 Optimization of the real space projectors (new method)

 maximal supplied QI-value         = 24.76
 optimisation between [QCUT,QGAM] = [ 11.64, 23.27] = [ 37.91,151.63] Ry
 Optimized for a Real-space Cutoff    1.14 Angstroem

   l    n(q)    QCUT    max X(q) W(low)/X(q) W(high)/X(q)  e(spline)
   0      8    11.635    20.381    0.10E-03    0.33E-03    0.24E-06
   0      8    11.635    15.268    0.11E-03    0.35E-03    0.26E-06
   1      7    11.635     5.964    0.24E-03    0.31E-03    0.30E-06
   1      7    11.635     5.382    0.22E-03    0.25E-03    0.26E-06
  PAW_PBE Ag 02Apr2005                  :
  PAW_PBE Mg_pv 13Apr2007               :
  PAW_PBE O 08Apr2002                   :

 POSCAR: Ag Mg  O
  positions in direct lattice
 exchange correlation table for  LEXCH =        8
   RHO(1)=    0.500       N(1)  =     2000
   RHO(2)=  100.500       N(2)  =     4000

 ion  position               nearest neighbor table
   1  0.543  0.457  0.625-   2 2.59
   2  0.457  0.543  0.625-   1 2.59
   3  0.000  0.000  0.407- 105 2.11 106 2.11 121 2.11 186 2.11 103 2.11
   4  0.100  0.100  0.407- 105 2.11 106 2.11 110 2.11 125 2.11 104 2.11
   5  0.000  0.100  0.503- 103 2.11 104 2.11 107 2.11 184 2.11 105 2.11
   6  0.100  0.000  0.503- 103 2.11 104 2.11 120 2.11 123 2.11 106 2.11
   7  0.000  0.200  0.407- 109 2.11 105 2.11 110 2.11 190 2.11 107 2.11
   8  0.100  0.300  0.407- 110 2.11 109 2.11 114 2.11 129 2.11 108 2.11
   9  0.000  0.300  0.503- 107 2.11 108 2.11 111 2.11 188 2.11 109 2.11
  10  0.100  0.200  0.503- 108 2.11 107 2.11 104 2.11 127 2.11 110 2.11
  11  0.000  0.400  0.407- 109 2.11 113 2.11 114 2.11 194 2.11 111 2.11
  12  0.100  0.500  0.407- 113 2.11 114 2.11 118 2.11 133 2.11 112 2.11
  13  0.000  0.500  0.503- 111 2.11 112 2.11 115 2.11 192 2.11 113 2.11
  14  0.100  0.400  0.503- 108 2.11 111 2.11 112 2.11 131 2.11 114 2.11
  15  0.000  0.600  0.407- 113 2.11 117 2.11 118 2.11 198 2.11 115 2.11
  16  0.100  0.700  0.407- 122 2.11 118 2.11 117 2.11 137 2.11 116 2.11
  17  0.000  0.700  0.503- 119 2.11 116 2.11 115 2.11 196 2.11 117 2.11
  18  0.100  0.600  0.503- 112 2.11 115 2.11 116 2.11 135 2.11 118 2.11
  19  0.000  0.800  0.407- 117 2.11 121 2.11 122 2.11 202 2.11 119 2.11
  20  0.100  0.900  0.407- 106 2.11 121 2.11 122 2.11 141 2.11 120 2.11
  21  0.000  0.900  0.503- 103 2.11 119 2.11 120 2.11 200 2.11 121 2.11
  22  0.100  0.800  0.503- 116 2.11 119 2.11 120 2.11 139 2.11 122 2.11
  23  0.200  0.000  0.407- 126 2.11 125 2.11 106 2.11 141 2.11 123 2.11
  24  0.300  0.100  0.407- 125 2.11 126 2.11 130 2.11 145 2.11 124 2.11
  25  0.200  0.100  0.503- 124 2.11 123 2.11 104 2.11 127 2.11 125 2.11
  26  0.300  0.000  0.503- 123 2.11 124 2.11 140 2.11 143 2.11 126 2.11
  27  0.200  0.200  0.407- 129 2.11 130 2.11 110 2.11 125 2.11 127 2.11
  28  0.300  0.300  0.407- 129 2.11 130 2.11 134 2.11 149 2.11 128 2.11
  29  0.200  0.300  0.503- 127 2.11 128 2.11 108 2.11 131 2.11 129 2.11
  30  0.300  0.200  0.503- 127 2.11 128 2.11 124 2.11 147 2.11 130 2.11
  31  0.200  0.400  0.407- 134 2.11 129 2.11 133 2.11 114 2.11 131 2.11
  32  0.300  0.500  0.407- 133 2.11 134 2.11 138 2.11 153 2.11 132 2.11
  33  0.200  0.500  0.503- 132 2.11 131 2.11 112 2.11 135 2.11 133 2.11
  34  0.300  0.400  0.503- 131 2.11 128 2.11 132 2.11 151 2.11 134 2.11
  35  0.200  0.600  0.407- 138 2.11 133 2.11 137 2.11 118 2.11 135 2.11
  36  0.300  0.700  0.407- 137 2.11 142 2.11 138 2.11 157 2.11 136 2.11
  37  0.200  0.700  0.503- 136 2.11 139 2.11 116 2.11 135 2.11 137 2.11
  38  0.300  0.600  0.503- 135 2.11 132 2.11 136 2.11 155 2.11 138 2.11
  39  0.200  0.800  0.407- 137 2.11 142 2.11 141 2.11 122 2.11 139 2.11
  40  0.300  0.900  0.407- 141 2.11 126 2.11 142 2.11 161 2.11 140 2.11
  41  0.200  0.900  0.503- 140 2.11 123 2.11 139 2.11 120 2.11 141 2.11
  42  0.300  0.800  0.503- 136 2.11 139 2.11 140 2.11 159 2.11 142 2.11
  43  0.400  0.000  0.407- 126 2.11 145 2.11 146 2.11 161 2.11 143 2.11
  44  0.500  0.100  0.407- 145 2.11 146 2.11 150 2.11 165 2.11 144 2.11
  45  0.400  0.100  0.503- 124 2.11 143 2.11 144 2.11 147 2.11 145 2.11
  46  0.500  0.000  0.503- 143 2.11 144 2.11 160 2.11 163 2.11 146 2.11
  47  0.400  0.200  0.407- 149 2.11 145 2.11 130 2.11 150 2.11 147 2.11
  48  0.500  0.300  0.407- 150 2.11 149 2.11 154 2.11 169 2.11 148 2.11
  49  0.400  0.300  0.503- 147 2.11 128 2.11 148 2.11 151 2.11 149 2.11
  50  0.500  0.200  0.503- 148 2.11 147 2.11 144 2.11 167 2.11 150 2.11
  51  0.400  0.400  0.407- 134 2.11 149 2.11 153 2.11 154 2.11 151 2.11
  52  0.500  0.500  0.407- 153 2.11 154 2.11 158 2.11 173 2.11 152 2.11
  53  0.400  0.500  0.503- 132 2.11 151 2.11 152 2.11 155 2.11 153 2.11
  54  0.500  0.400  0.503- 148 2.11 151 2.11 152 2.11 171 2.11 154 2.11
  55  0.400  0.600  0.407- 138 2.11 153 2.11 157 2.11 158 2.11 155 2.11
  56  0.500  0.700  0.407- 162 2.11 158 2.11 157 2.11 177 2.11 156 2.11
  57  0.400  0.700  0.503- 159 2.11 155 2.11 156 2.11 136 2.11 157 2.11
  58  0.500  0.600  0.503- 152 2.11 155 2.11 156 2.11 175 2.11 158 2.11
  59  0.400  0.800  0.407- 157 2.11 142 2.11 161 2.11 162 2.11 159 2.11
  60  0.500  0.900  0.407- 146 2.11 161 2.11 162 2.11 181 2.11 160 2.11
[...]
 188  0.900  0.300  0.503-  90 2.11  89 2.11   9 2.11  94 2.11  88 2.11
 189  0.800  0.300  0.407-  68 2.11  87 2.11  88 2.11  91 2.11  89 2.11
 190  0.900  0.200  0.407-  88 2.11  84 2.11  87 2.11   7 2.11  90 2.11
 191  0.800  0.400  0.503-  74 2.11  89 2.11  93 2.11  94 2.11  91 2.11
 192  0.900  0.500  0.503-  13 2.11  93 2.11  94 2.11  98 2.11  92 2.11
 193  0.800  0.500  0.407-  72 2.11  91 2.11  92 2.11  95 2.11  93 2.11
 194  0.900  0.400  0.407-  11 2.11  88 2.11  91 2.11  92 2.11  94 2.11
 195  0.800  0.600  0.503-  78 2.11  93 2.11  97 2.11  98 2.11  95 2.11
 196  0.900  0.700  0.503- 102 2.11  97 2.11  98 2.11  17 2.11  96 2.11
 197  0.800  0.700  0.407-  76 2.11  99 2.11  96 2.11  95 2.11  97 2.11
 198  0.900  0.600  0.407-  15 2.11  92 2.11  95 2.11  96 2.11  98 2.11
 199  0.800  0.800  0.503-  82 2.11  97 2.11 101 2.11 102 2.11  99 2.11
 200  0.900  0.900  0.503-  21 2.11  86 2.11 101 2.11 102 2.11 100 2.11
 201  0.800  0.900  0.407-  80 2.11  83 2.11  99 2.11 100 2.11 101 2.11
 202  0.900  0.800  0.407-  96 2.11  19 2.11  99 2.11 100 2.11 102 2.11

  LATTYP: Found a simple tetragonal cell.
 ALAT       =    21.1388521970
 C/A-ratio  =     1.0461251639

  Lattice vectors:

 A1 = (  21.1388521970,   0.0000000000,   0.0000000000)
 A2 = (   0.0000000000,  21.1388521970,   0.0000000000)
 A3 = (   0.0000000000,   0.0000000000,  22.1138852197)

Analysis of symmetry for initial positions (statically):
 Subroutine PRICEL returns:
 Original cell was already a primitive cell.

 Routine SETGRP: Setting up the symmetry group for a
 simple tetragonal supercell.

 Subroutine GETGRP returns: Found  4 space group operations
 (whereof  4 operations were pure point group operations)
 out of a pool of 16 trial point group operations.

The static configuration has the point symmetry C_2v.

Analysis of symmetry for dynamics (positions and initial velocities):
 Subroutine PRICEL returns:
 Original cell was already a primitive cell.

 Routine SETGRP: Setting up the symmetry group for a
 simple tetragonal supercell.

 Subroutine GETGRP returns: Found  4 space group operations
 (whereof  4 operations were pure point group operations)
 out of a pool of 16 trial point group operations.

The dynamic configuration has the point symmetry C_2v.

 Subroutine INISYM returns: Found  4 space group operations
 (whereof  4 operations are pure point group operations),
 and found     1 'primitive' translations

                                     Primitive cell

  volume of cell :    9881.6133

  direct lattice vectors                    reciprocal lattice vectors
    21.138852197  0.000000000  0.000000000     0.047306258  0.000000000  0.000000000
     0.000000000 21.138852197  0.000000000     0.000000000  0.047306258  0.000000000
     0.000000000  0.000000000 22.113885220     0.000000000  0.000000000  0.045220457

  length of vectors
    21.138852197 21.138852197 22.113885220     0.047306258  0.047306258  0.045220457

  position of ions in fractional coordinates (direct lattice)
     0.543282734  0.456717266  0.625334806
     0.456717266  0.543282734  0.625334806
     0.000000000  0.000000000  0.406984115
     0.100000000  0.100000000  0.406984115
     0.000000000  0.100000000  0.502574971
     0.100000000  0.000000000  0.502574971
     0.000000000  0.200000000  0.406984115
     0.100000000  0.300000000  0.406984115
     0.000000000  0.300000000  0.502574971
     0.100000000  0.200000000  0.502574971
     0.000000000  0.400000000  0.406984115
     0.100000000  0.500000000  0.406984115
     0.000000000  0.500000000  0.502574971
     0.100000000  0.400000000  0.502574971
     0.000000000  0.600000000  0.406984115
     0.100000000  0.700000000  0.406984115
     0.000000000  0.700000000  0.502574971
[...]
    855       4.5484      0.00000
    856       4.5499      0.00000
    857       4.5959      0.00000
    858       4.6578      0.00000
    859       4.6825      0.00000
    860       4.6855      0.00000
    861       4.6897      0.00000
    862       4.7723      0.00000
    863       4.9718      0.00000
    864       5.0342      0.00000

 soft charge-density along one line, spin component           1
         0         1         2         3         4         5         6         7         8         9
 total charge-density along one line

------------------------ aborting loop because EDIFF is reached ----------------------------------------

         DFTD3 V3.0 Rev 1
 IVDW         = 11
 DF pbe
 parameters
 VDW_S6       =    1.0000
 VDW_S8       =    0.7220
 VDW_SR       =    1.2170
 rs18     =    1.0000
 alpha6   =   14.0000
 alpha8   =   16.0000
 k1-k3    =   16.0000    1.3333   -4.0000
 VDW_RADIUS   =   50.2022 A
 VDW_CNRADIUS =   21.1671 A
 Edisp (eV)  -19.32569

 E6    (eV) :    -8.0435
 E8    (eV) :   -11.2822
 % E8        : 58.38

  FORCE on cell =-STRESS in cart. coord.  units (eV):
  Direction    XX          YY          ZZ          XY          YZ          ZX
  Alpha Z  1357.53553  1357.53553  1357.53553
  Ewald  479361.88727479361.88727************  -323.89554     0.00000     0.00000
  Hartree507982.68871507982.68871************  -243.05133    -0.00000    -0.00000
  E(xc)   -7764.97461 -7764.97461 -7796.75009    -0.36796    -0.00000    -0.00000
  Local  ************************************   563.35942    -0.00000    -0.00000
  n-local -8782.69851 -8782.69851 -8901.76380     1.66768    -0.00000    -0.00000
  augment  3466.72772  3466.72772  3410.53313     0.42696    -0.00000     0.00000
  Kinetic 22951.59115 22951.59111 23209.49614     2.23957     0.00000     0.00000
  Fock        0.00000     0.00000     0.00000     0.00000     0.00000     0.00000
  vdW       -26.08705   -26.08705    -2.96422     0.20025    -0.00000     0.00000
  Total    -175.97378  -175.97378    15.47252     0.57904     0.00000     0.00000
  in kB     -28.53190   -28.53190     2.50867     0.09388     0.00000     0.00000

 VOLUME and BASIS-vectors are now :
  energy-cutoff  :      520.00
  volume of cell :     9881.61
      direct lattice vectors                 reciprocal lattice vectors
    21.138852197  0.000000000  0.000000000     0.047306258  0.000000000  0.000000000
     0.000000000 21.138852197  0.000000000     0.000000000  0.047306258  0.000000000
     0.000000000  0.000000000 22.113885220     0.000000000  0.000000000  0.045220457

  length of vectors
    21.138852197 21.138852197 22.113885220     0.047306258  0.047306258  0.045220457

 FORCES acting on ions:
    Electron-Ion                     Ewald-Force                    Non-Local-Force
   -.187E+03 0.187E+03 -.205E+04   0.183E+03 -.183E+03 0.205E+04   0.461E+01 -.461E+01 -.318E+00
   0.187E+03 -.187E+03 -.205E+04   -.183E+03 0.183E+03 0.205E+04   -.461E+01 0.461E+01 -.318E+00
   -.470E-10 0.822E-09 0.931E+03   0.974E-10 -.170E-08 -.923E+03   -.200E-23 0.240E-23 -.741E+01
   0.379E+01 0.379E+01 0.932E+03   -.378E+01 -.378E+01 -.924E+03   -.406E-02 -.406E-02 -.741E+01
   -.281E+00 0.419E+01 -.923E+03   0.293E+00 -.419E+01 0.915E+03   -.967E-02 0.207E-02 0.738E+01
   0.419E+01 -.281E+00 -.923E+03   -.419E+01 0.293E+00 0.915E+03   0.207E-02 -.967E-02 0.738E+01
   -.369E+00 0.579E+01 0.932E+03   0.390E+00 -.579E+01 -.925E+03   -.164E-01 0.446E-02 -.741E+01
   0.753E+01 0.737E+01 0.935E+03   -.751E+01 -.738E+01 -.928E+03   -.113E-01 0.787E-02 -.741E+01
   -.704E+00 0.763E+01 -.920E+03   0.732E+00 -.764E+01 0.913E+03   -.225E-01 0.308E-02 0.738E+01
   0.679E+01 0.845E+01 -.921E+03   -.677E+01 -.845E+01 0.913E+03   -.145E-01 -.104E-02 0.738E+01
   -.326E+00 0.393E+01 0.935E+03   0.345E+00 -.394E+01 -.928E+03   -.148E-01 0.265E-02 -.741E+01
   0.115E+02 0.415E+00 0.939E+03   -.116E+02 -.432E+00 -.931E+03   0.214E-01 0.131E-01 -.742E+01
   0.145E-09 -.124E-08 -.919E+03   -.299E-09 0.256E-08 0.911E+03   0.219E-23 0.594E-23 0.738E+01
   0.146E+02 0.699E+01 -.917E+03   -.146E+02 -.701E+01 0.910E+03   -.110E-01 0.128E-01 0.738E+01
   0.326E+00 -.393E+01 0.935E+03   -.345E+00 0.394E+01 -.928E+03   0.148E-01 -.265E-02 -.741E+01
   0.857E+01 -.740E+01 0.936E+03   -.862E+01 0.740E+01 -.928E+03   0.385E-01 -.510E-02 -.741E+01
   0.704E+00 -.763E+01 -.920E+03   -.732E+00 0.764E+01 0.913E+03   0.225E-01 -.308E-02 0.738E+01
   0.162E+02 -.615E+01 -.917E+03   -.162E+02 0.614E+01 0.909E+03   0.387E-01 0.809E-02 0.738E+01
   0.369E+00 -.579E+01 0.932E+03   -.390E+00 0.579E+01 -.925E+03   0.164E-01 -.446E-02 -.741E+01
   0.418E+01 -.418E+01 0.932E+03   -.419E+01 0.419E+01 -.924E+03   0.119E-01 -.119E-01 -.741E+01
   0.281E+00 -.419E+01 -.923E+03   -.293E+00 0.419E+01 0.915E+03   0.967E-02 -.207E-02 0.738E+01
   0.806E+01 -.901E+01 -.921E+03   -.810E+01 0.902E+01 0.913E+03   0.282E-01 -.102E-01 0.738E+01
   0.579E+01 -.369E+00 0.932E+03   -.579E+01 0.390E+00 -.925E+03   0.446E-02 -.164E-01 -.741E+01
   0.737E+01 0.753E+01 0.935E+03   -.738E+01 -.751E+01 -.928E+03   0.787E-02 -.113E-01 -.741E+01
   0.845E+01 0.679E+01 -.921E+03   -.845E+01 -.677E+01 0.913E+03   -.104E-02 -.145E-01 0.738E+01
   0.763E+01 -.704E+00 -.920E+03   -.764E+01 0.732E+00 0.913E+03   0.308E-02 -.225E-01 0.738E+01
   0.967E+01 0.967E+01 0.936E+03   -.967E+01 -.967E+01 -.928E+03   -.177E-02 -.177E-02 -.742E+01
   0.188E+02 0.188E+02 0.949E+03   -.189E+02 -.189E+02 -.941E+03   0.174E-01 0.174E-01 -.744E+01
   0.217E+02 0.166E+02 -.915E+03   -.216E+02 -.166E+02 0.907E+03   -.281E-01 0.866E-02 0.737E+01
   0.166E+02 0.217E+02 -.915E+03   -.166E+02 -.216E+02 0.907E+03   0.866E-02 -.281E-01 0.737E+01
   0.204E+02 0.873E+01 0.945E+03   -.204E+02 -.878E+01 -.937E+03   0.349E-02 0.342E-01 -.742E+01
   0.338E+02 0.216E+01 0.968E+03   -.339E+02 -.228E+01 -.961E+03   0.663E-01 0.952E-01 -.742E+01
   0.404E+02 0.239E+01 -.905E+03   -.405E+02 -.244E+01 0.898E+03   0.333E-01 0.428E-01 0.737E+01
   0.554E+02 0.317E+02 -.888E+03   -.553E+02 -.318E+02 0.880E+03   -.905E-01 0.795E-01 0.733E+01
   0.217E+02 -.758E+01 0.946E+03   -.218E+02 0.756E+01 -.939E+03   0.103E+00 0.134E-01 -.742E+01
   0.199E+02 -.199E+02 0.952E+03   -.199E+02 0.199E+02 -.944E+03   0.632E-01 -.632E-01 -.738E+01
   0.249E+02 -.177E+02 -.913E+03   -.250E+02 0.177E+02 0.905E+03   0.900E-01 -.870E-02 0.738E+01
   0.654E+02 -.291E+02 -.877E+03   -.660E+02 0.290E+02 0.869E+03   0.436E+00 0.633E-01 0.741E+01
   0.105E+02 -.105E+02 0.937E+03   -.105E+02 0.105E+02 -.929E+03   0.294E-01 -.294E-01 -.741E+01
   0.740E+01 -.857E+01 0.936E+03   -.740E+01 0.862E+01 -.928E+03   0.510E-02 -.385E-01 -.741E+01
   0.901E+01 -.806E+01 -.921E+03   -.902E+01 0.810E+01 0.913E+03   0.102E-01 -.282E-01 0.738E+01
   0.177E+02 -.249E+02 -.913E+03   -.177E+02 0.250E+02 0.905E+03   0.870E-02 -.900E-01 0.738E+01
   0.393E+01 -.326E+00 0.935E+03   -.394E+01 0.345E+00 -.928E+03   0.265E-02 -.148E-01 -.741E+01
   0.415E+00 0.115E+02 0.939E+03   -.432E+00 -.116E+02 -.931E+03   0.131E-01 0.214E-01 -.742E+01
   0.699E+01 0.146E+02 -.917E+03   -.701E+01 -.146E+02 0.910E+03   0.128E-01 -.110E-01 0.738E+01
   0.145E-09 0.372E-08 -.919E+03   -.299E-09 -.769E-08 0.911E+03   -.627E-23 -.213E-23 0.738E+01
   0.873E+01 0.204E+02 0.945E+03   -.878E+01 -.204E+02 -.937E+03   0.342E-01 0.349E-02 -.742E+01
   0.216E+01 0.338E+02 0.968E+03   -.228E+01 -.339E+02 -.961E+03   0.952E-01 0.663E-01 -.742E+01
   0.317E+02 0.554E+02 -.888E+03   -.318E+02 -.553E+02 0.880E+03   0.795E-01 -.905E-01 0.733E+01
   0.239E+01 0.404E+02 -.905E+03   -.244E+01 -.405E+02 0.898E+03   0.428E-01 0.333E-01 0.737E+01
   0.250E+02 0.250E+02 0.984E+03   -.252E+02 -.252E+02 -.976E+03   0.990E-01 0.990E-01 -.757E+01
   -.973E-09 -.832E-08 0.102E+04   0.201E-08 0.172E-07 -.101E+04   -.170E-24 0.223E-24 -.736E+01
   0.101E+03 0.219E+02 -.765E+03   -.101E+03 -.227E+02 0.759E+03   0.129E+00 0.514E+00 0.656E+01
   0.219E+02 0.101E+03 -.765E+03   -.227E+02 -.101E+03 0.759E+03   0.514E+00 0.129E+00 0.656E+01
   0.237E+02 -.237E+02 0.989E+03   -.237E+02 0.237E+02 -.982E+03   -.254E-01 0.254E-01 -.682E+01
   -.216E+01 -.338E+02 0.968E+03   0.228E+01 0.339E+02 -.961E+03   -.952E-01 -.663E-01 -.742E+01
   0.291E+02 -.654E+02 -.877E+03   -.290E+02 0.660E+02 0.869E+03   -.633E-01 -.436E+00 0.741E+01
   -.219E+02 -.101E+03 -.765E+03   0.227E+02 0.101E+03 0.759E+03   -.514E+00 -.129E+00 0.656E+01
   0.758E+01 -.217E+02 0.946E+03   -.756E+01 0.218E+02 -.939E+03   -.134E-01 -.103E+00 -.742E+01
   -.415E+00 -.115E+02 0.939E+03   0.432E+00 0.116E+02 -.931E+03   -.131E-01 -.214E-01 -.742E+01
[...]
   -.120E+02 0.881E+01 0.708E+03   0.121E+02 -.883E+01 -.712E+03   -.640E-01 0.279E-01 0.354E+01
   -.450E+01 0.525E+01 0.702E+03   0.452E+01 -.526E+01 -.706E+03   -.249E-01 0.150E-01 0.354E+01
   -.275E+02 0.888E+01 -.682E+03   0.276E+02 -.886E+01 0.686E+03   -.721E-01 -.311E-01 -.358E+01
   -.129E+02 -.547E+00 -.689E+03   0.129E+02 0.562E+00 0.693E+03   -.136E-01 -.202E-01 -.358E+01
   -.178E+02 -.804E+00 0.713E+03   0.178E+02 0.843E+00 -.717E+03   -.395E-01 -.536E-01 0.353E+01
   -.818E+01 0.346E+01 0.705E+03   0.820E+01 -.346E+01 -.709E+03   -.318E-01 -.643E-02 0.353E+01
   -.246E+02 -.104E+02 -.684E+03   0.246E+02 0.105E+02 0.688E+03   0.390E-02 -.393E-01 -.360E+01
   -.779E+01 -.722E+01 -.691E+03   0.778E+01 0.723E+01 0.695E+03   0.127E-01 -.568E-02 -.358E+01
   -.110E+02 -.861E+01 0.707E+03   0.110E+02 0.862E+01 -.711E+03   0.690E-02 -.916E-02 0.352E+01
   -.755E+01 -.385E+01 0.705E+03   0.755E+01 0.386E+01 -.709E+03   0.156E-03 -.165E-01 0.353E+01
   -.985E+01 -.985E+01 -.691E+03   0.984E+01 0.984E+01 0.695E+03   0.119E-01 0.119E-01 -.358E+01
   -.352E+01 -.352E+01 -.693E+03   0.351E+01 0.351E+01 0.697E+03   0.570E-02 0.570E-02 -.357E+01
   -.501E+01 -.390E+01 0.701E+03   0.501E+01 0.390E+01 -.706E+03   -.539E-03 0.911E-02 0.353E+01
   -.390E+01 -.501E+01 0.701E+03   0.390E+01 0.501E+01 -.706E+03   0.911E-02 -.539E-03 0.353E+01
   0.862E-08 0.808E-06 0.894E+01   0.353E-11 -.647E-12 -.193E-11   -.307E-15 0.763E-16 -.954E+01

 POSITION                                       TOTAL-FORCE (eV/Angst)
     11.48437      9.65448     13.82858         0.049353     -0.049353      0.044187
      9.65448     11.48437     13.82858        -0.049353      0.049353      0.044187
      0.00000      0.00000      9.00000         0.000000      0.000000      0.331099
      2.11389      2.11389      9.00000         0.001129      0.001129      0.331510
      0.00000      2.11389     11.11389         0.002601     -0.000560     -0.324988
      2.11389      0.00000     11.11389        -0.000560      0.002601     -0.324988
      0.00000      4.22777      9.00000         0.004352     -0.001234      0.331299
      2.11389      6.34166      9.00000         0.002995     -0.002041      0.332182
      0.00000      6.34166     11.11389         0.005968     -0.000808     -0.324100
      2.11389      4.22777     11.11389         0.003996      0.000460     -0.323980
      0.00000      8.45554      9.00000         0.003812     -0.000728      0.331680
      2.11389     10.56943      9.00000        -0.005606     -0.003858      0.332283
      0.00000     10.56943     11.11389         0.000000      0.000000     -0.323406
      2.11389      8.45554     11.11389         0.003434     -0.003470     -0.322078
      0.00000     12.68331      9.00000        -0.003812      0.000728      0.331680
      2.11389     14.79720      9.00000        -0.010086      0.001531      0.331172
      0.00000     14.79720     11.11389        -0.005968      0.000808     -0.324100
      2.11389     12.68331     11.11389        -0.009478     -0.002459     -0.323139
      0.00000     16.91108      9.00000        -0.004352      0.001234      0.331299
      2.11389     19.02497      9.00000        -0.003281      0.003281      0.330830
      0.00000     19.02497     11.11389        -0.002601      0.000560     -0.324988
      2.11389     16.91108     11.11389        -0.007453      0.002869     -0.324674
      4.22777      0.00000      9.00000        -0.001234      0.004352      0.331299
      6.34166      2.11389      9.00000        -0.002041      0.002995      0.332182
      4.22777      2.11389     11.11389         0.000460      0.003996     -0.323980
      6.34166      0.00000     11.11389        -0.000808      0.005968     -0.324100
      4.22777      4.22777      9.00000         0.000773      0.000773      0.333213
      6.34166      6.34166      9.00000        -0.003084     -0.003084      0.341172
      4.22777      6.34166     11.11389         0.008659     -0.001211     -0.319132
      6.34166      4.22777     11.11389        -0.001211      0.008659     -0.319132
      4.22777      8.45554      9.00000        -0.001310     -0.009432      0.334401
      6.34166     10.56943      9.00000        -0.017468     -0.030339      0.332408
      4.22777     10.56943     11.11389        -0.006212     -0.012582     -0.315046
      6.34166      8.45554     11.11389         0.043027     -0.008901     -0.280930
      4.22777     12.68331      9.00000        -0.025310     -0.004075      0.333543
      6.34166     14.79720      9.00000        -0.020705      0.020705      0.319503
      4.22777     14.79720     11.11389        -0.022922      0.002451     -0.323657
      6.34166     12.68331     11.11389        -0.111075     -0.032423     -0.302724
      4.22777     16.91108      9.00000        -0.008359      0.008359      0.329350
      6.34166     19.02497      9.00000        -0.001531      0.010086      0.331172
      4.22777     19.02497     11.11389        -0.002869      0.007453     -0.324674
      6.34166     16.91108     11.11389        -0.002451      0.022922     -0.323657
      8.45554      0.00000      9.00000        -0.000728      0.003812      0.331680
     10.56943      2.11389      9.00000        -0.003858     -0.005606      0.332283
      8.45554      2.11389     11.11389        -0.003470      0.003434     -0.322078
     10.56943      0.00000     11.11389         0.000000      0.000000     -0.323406
      8.45554      4.22777      9.00000        -0.009432     -0.001310      0.334401
     10.56943      6.34166      9.00000        -0.030339     -0.017468      0.332408
      8.45554      6.34166     11.11389        -0.008901      0.043027     -0.280930
     10.56943      4.22777     11.11389        -0.012582     -0.006212     -0.315046
      8.45554      8.45554      9.00000        -0.022289     -0.022289      0.371727
     10.56943     10.56943      9.00000         0.000000      0.000000      0.283732
      8.45554     10.56943     11.11389        -0.093934     -0.266401     -0.290422
     10.56943      8.45554     11.11389        -0.266401     -0.093934     -0.290422
      8.45554     12.68331      9.00000         0.013367     -0.013367      0.201397
     10.56943     14.79720      9.00000         0.030339      0.017468      0.332408
      8.45554     14.79720     11.11389         0.032423      0.111075     -0.302724
     10.56943     12.68331     11.11389         0.266401      0.093934     -0.290422
      8.45554     16.91108      9.00000         0.004075      0.025310      0.333543
     10.56943     19.02497      9.00000         0.003858      0.005606      0.332283
[...]
     19.02497      6.34166     11.11389        -0.009366      0.001798      0.510622
     16.91108      6.34166      9.00000        -0.018088      0.007923     -0.515482
     19.02497      4.22777      9.00000        -0.006918      0.004219     -0.517596
     16.91108      8.45554     11.11389        -0.021648     -0.008131      0.508768
     19.02497     10.56943     11.11389        -0.004007     -0.005602      0.508624
     16.91108     10.56943      9.00000        -0.012468     -0.014545     -0.519657
     19.02497      8.45554      9.00000        -0.008998     -0.001678     -0.518006
     16.91108     12.68331     11.11389         0.000044     -0.011377      0.502785
     19.02497     14.79720     11.11389         0.003418     -0.001629      0.509425
     16.91108     14.79720      9.00000         0.001588     -0.002805     -0.521370
     19.02497     12.68331      9.00000        -0.000093     -0.004649     -0.519433
     16.91108     16.91108     11.11389         0.003133      0.003133      0.508543
     19.02497     19.02497     11.11389         0.001543      0.001543      0.511208
     16.91108     19.02497      9.00000        -0.000213      0.002469     -0.518753
     19.02497     16.91108      9.00000         0.002469     -0.000213     -0.518753
    total drift:                                0.000000      0.000001     -0.599795

  FREE ENERGIE OF THE ION-ELECTRON SYSTEM (eV)
  free  energy   TOTEN  =     -1159.71618937 eV

  energy  without entropy=    -1159.71618937  energy(sigma->0) =    -1159.71618937