 vasp.6.3.0 20Jan22 (build Apr  1 2022 16:44:48) complex
 executed on        HPECrayEX_GCC date 2022.08.15  19:47:44

 INCAR:
   SYSTEM = MgO-rocksalt
   ISMEAR = 0
   SIGMA = 0.05
   EDIFF = 1E-6
   ALGO = ALL
   ISTART = 0
   IBRION = -1
   NSW = 0
   ISYM = 2
   DIPOL = 0.5 0.5 0.5
   IDIPOL = 3
   LDIPOL = .TRUE.
   GGA = RE
   IVDW = 21
   VDW_SR = 0.6
   ENCUT = 520
   PREC = Accurate
   LASPH = .TRUE.
   LREAL = Auto
   ISPIN = 1
   NELM = 200
   NELMIN = 8
   NCORE = 4
   KPAR = 2
   LWAVE = .FALSE.
   LCHARG = .FALSE.

 POTCAR:    PAW_PBE Ag 02Apr2005
 POTCAR:    PAW_PBE Mg_pv 13Apr2007
 POTCAR:    PAW_PBE O 08Apr2002
 POTCAR:    PAW_PBE Ag 02Apr2005
   VRHFIN =Ag : s1 d10

   TITEL  = PAW_PBE Ag 02Apr2005
   POMASS =  107.868; ZVAL   =   11.000    mass and valenz
   ENMAX  =  249.844; ENMIN  =  187.383 eV

   TITEL  = PAW_PBE Mg_pv 13Apr2007
   POMASS =   24.305; ZVAL   =    8.000    mass and valenz
   ENMAX  =  403.929; ENMIN  =  302.947 eV

   TITEL  = PAW_PBE O 08Apr2002
   POMASS =   16.000; ZVAL   =    6.000    mass and valenz
   ENMAX  =  400.000; ENMIN  =  300.000 eV

 Optimization of the real space projectors (new method)

 maximal supplied QI-value         = 15.12
 optimisation between [QCUT,QGAM] = [ 11.64, 23.28] = [ 37.95,151.78] Ry
 Optimized for a Real-space Cutoff    1.45 Angstroem

   l    n(q)    QCUT    max X(q) W(low)/X(q) W(high)/X(q)  e(spline)
   2      9    11.641    53.897    0.22E-03    0.42E-04    0.28E-06
   2      9    11.641    52.416    0.23E-03    0.44E-04    0.29E-06
   0     10    11.641   122.045    0.51E-04    0.25E-04    0.16E-06
   0     10    11.641    73.629    0.49E-04    0.24E-04    0.16E-06
   1     10    11.641    15.255    0.99E-04    0.55E-04    0.11E-06
   1     10    11.641     9.562    0.81E-04    0.47E-04    0.95E-07
 Optimization of the real space projectors (new method)

[...]

   l    n(q)    QCUT    max X(q) W(low)/X(q) W(high)/X(q)  e(spline)
   1      8    11.527     2.974    0.44E-04    0.56E-04    0.12E-06
   1      8    11.527     4.279    0.12E-03    0.12E-03    0.26E-06
   0      9    11.527    16.381    0.46E-04    0.64E-04    0.78E-07
   0      9    11.527     5.611    0.26E-04    0.43E-04    0.55E-07
   2      8    11.527     4.652    0.22E-03    0.72E-04    0.47E-07
 Optimization of the real space projectors (new method)

 maximal supplied QI-value         = 24.76
 optimisation between [QCUT,QGAM] = [ 11.64, 23.27] = [ 37.91,151.63] Ry
 Optimized for a Real-space Cutoff    1.14 Angstroem

   l    n(q)    QCUT    max X(q) W(low)/X(q) W(high)/X(q)  e(spline)
   0      8    11.635    20.381    0.10E-03    0.33E-03    0.24E-06
   0      8    11.635    15.268    0.11E-03    0.35E-03    0.26E-06
   1      7    11.635     5.964    0.24E-03    0.31E-03    0.30E-06
   1      7    11.635     5.382    0.22E-03    0.25E-03    0.26E-06
|               ----> ADVICE to this user running VASP <----                  |
|     You enforced a specific xc type in the INCAR file but a different       |
|     type was found in the POTCAR file.                                      |
|     I HOPE YOU KNOW WHAT YOU ARE DOING!                                     |

  PAW_PBE Ag 02Apr2005                  :
  PAW_PBE Mg_pv 13Apr2007               :
  PAW_PBE O 08Apr2002                   :

 POSCAR: Ag Mg  O
  positions in direct lattice
 exchange correlation table for  LEXCH =       40
   RHO(1)=    0.500       N(1)  =     2000
   RHO(2)=  100.500       N(2)  =     4000

 ion  position               nearest neighbor table
   1  0.500  0.600  0.746-   2 2.56
   2  0.500  0.600  0.630-   1 2.56  58 2.81
   3  0.000  0.000  0.407- 105 2.11 106 2.11 121 2.11 186 2.11 103 2.11
   4  0.100  0.100  0.407- 105 2.11 106 2.11 110 2.11 125 2.11 104 2.11
   5  0.000  0.100  0.503- 103 2.11 104 2.11 107 2.11 184 2.11 105 2.11
   6  0.100  0.000  0.503- 103 2.11 104 2.11 120 2.11 123 2.11 106 2.11
   7  0.000  0.200  0.407- 109 2.11 105 2.11 110 2.11 190 2.11 107 2.11
   8  0.100  0.300  0.407- 110 2.11 109 2.11 114 2.11 129 2.11 108 2.11
   9  0.000  0.300  0.503- 107 2.11 108 2.11 111 2.11 188 2.11 109 2.11
  10  0.100  0.200  0.503- 108 2.11 107 2.11 104 2.11 127 2.11 110 2.11
  11  0.000  0.400  0.407- 109 2.11 113 2.11 114 2.11 194 2.11 111 2.11
  12  0.100  0.500  0.407- 113 2.11 114 2.11 118 2.11 133 2.11 112 2.11
  13  0.000  0.500  0.503- 111 2.11 112 2.11 115 2.11 192 2.11 113 2.11
  14  0.100  0.400  0.503- 108 2.11 111 2.11 112 2.11 131 2.11 114 2.11
  15  0.000  0.600  0.407- 113 2.11 117 2.11 118 2.11 198 2.11 115 2.11
  16  0.100  0.700  0.407- 122 2.11 118 2.11 117 2.11 137 2.11 116 2.11
  17  0.000  0.700  0.503- 119 2.11 116 2.11 115 2.11 196 2.11 117 2.11
  18  0.100  0.600  0.503- 112 2.11 115 2.11 116 2.11 135 2.11 118 2.11
  19  0.000  0.800  0.407- 117 2.11 121 2.11 122 2.11 202 2.11 119 2.11
  20  0.100  0.900  0.407- 106 2.11 121 2.11 122 2.11 141 2.11 120 2.11
  21  0.000  0.900  0.503- 103 2.11 119 2.11 120 2.11 200 2.11 121 2.11
  22  0.100  0.800  0.503- 116 2.11 119 2.11 120 2.11 139 2.11 122 2.11
  23  0.200  0.000  0.407- 126 2.11 125 2.11 106 2.11 141 2.11 123 2.11
  24  0.300  0.100  0.407- 125 2.11 126 2.11 130 2.11 145 2.11 124 2.11
  25  0.200  0.100  0.503- 124 2.11 123 2.11 104 2.11 127 2.11 125 2.11
  26  0.300  0.000  0.503- 123 2.11 124 2.11 140 2.11 143 2.11 126 2.11
  27  0.200  0.200  0.407- 129 2.11 130 2.11 110 2.11 125 2.11 127 2.11
  28  0.300  0.300  0.407- 129 2.11 130 2.11 134 2.11 149 2.11 128 2.11
  29  0.200  0.300  0.503- 127 2.11 128 2.11 108 2.11 131 2.11 129 2.11
  30  0.300  0.200  0.503- 127 2.11 128 2.11 124 2.11 147 2.11 130 2.11
  31  0.200  0.400  0.407- 134 2.11 129 2.11 133 2.11 114 2.11 131 2.11
  32  0.300  0.500  0.407- 133 2.11 134 2.11 138 2.11 153 2.11 132 2.11
  33  0.200  0.500  0.503- 132 2.11 131 2.11 112 2.11 135 2.11 133 2.11
  34  0.300  0.400  0.503- 131 2.11 128 2.11 132 2.11 151 2.11 134 2.11
  35  0.200  0.600  0.407- 138 2.11 133 2.11 137 2.11 118 2.11 135 2.11
  36  0.300  0.700  0.407- 137 2.11 142 2.11 138 2.11 157 2.11 136 2.11
  37  0.200  0.700  0.503- 136 2.11 139 2.11 116 2.11 135 2.11 137 2.11
  38  0.300  0.600  0.503- 135 2.11 132 2.11 136 2.11 155 2.11 138 2.11
  39  0.200  0.800  0.407- 137 2.11 142 2.11 141 2.11 122 2.11 139 2.11
  40  0.300  0.900  0.407- 141 2.11 126 2.11 142 2.11 161 2.11 140 2.11
  41  0.200  0.900  0.503- 140 2.11 123 2.11 139 2.11 120 2.11 141 2.11
  42  0.300  0.800  0.503- 136 2.11 139 2.11 140 2.11 159 2.11 142 2.11
  43  0.400  0.000  0.407- 126 2.11 145 2.11 146 2.11 161 2.11 143 2.11
  44  0.500  0.100  0.407- 145 2.11 146 2.11 150 2.11 165 2.11 144 2.11
  45  0.400  0.100  0.503- 124 2.11 143 2.11 144 2.11 147 2.11 145 2.11
  46  0.500  0.000  0.503- 143 2.11 144 2.11 160 2.11 163 2.11 146 2.11
  47  0.400  0.200  0.407- 149 2.11 145 2.11 130 2.11 150 2.11 147 2.11
  48  0.500  0.300  0.407- 150 2.11 149 2.11 154 2.11 169 2.11 148 2.11
  49  0.400  0.300  0.503- 147 2.11 128 2.11 148 2.11 151 2.11 149 2.11
  50  0.500  0.200  0.503- 148 2.11 147 2.11 144 2.11 167 2.11 150 2.11
  51  0.400  0.400  0.407- 134 2.11 149 2.11 153 2.11 154 2.11 151 2.11
  52  0.500  0.500  0.407- 153 2.11 154 2.11 158 2.11 173 2.11 152 2.11
  53  0.400  0.500  0.503- 132 2.11 151 2.11 152 2.11 155 2.11 153 2.11
  54  0.500  0.400  0.503- 148 2.11 151 2.11 152 2.11 171 2.11 154 2.11
  55  0.400  0.600  0.407- 138 2.11 153 2.11 157 2.11 158 2.11 155 2.11
  56  0.500  0.700  0.407- 162 2.11 158 2.11 157 2.11 177 2.11 156 2.11
  57  0.400  0.700  0.503- 159 2.11 155 2.11 156 2.11 136 2.11 157 2.11
  58  0.500  0.600  0.503- 152 2.11 155 2.11 156 2.11 175 2.11 158 2.11   2 2.81
  59  0.400  0.800  0.407- 157 2.11 142 2.11 161 2.11 162 2.11 159 2.11
  60  0.500  0.900  0.407- 146 2.11 161 2.11 162 2.11 181 2.11 160 2.11
[...]
 188  0.900  0.300  0.503-  90 2.11  89 2.11   9 2.11  94 2.11  88 2.11
 189  0.800  0.300  0.407-  68 2.11  87 2.11  88 2.11  91 2.11  89 2.11
 190  0.900  0.200  0.407-  88 2.11  84 2.11  87 2.11   7 2.11  90 2.11
 191  0.800  0.400  0.503-  74 2.11  89 2.11  93 2.11  94 2.11  91 2.11
 192  0.900  0.500  0.503-  13 2.11  93 2.11  94 2.11  98 2.11  92 2.11
 193  0.800  0.500  0.407-  72 2.11  91 2.11  92 2.11  95 2.11  93 2.11
 194  0.900  0.400  0.407-  11 2.11  88 2.11  91 2.11  92 2.11  94 2.11
 195  0.800  0.600  0.503-  78 2.11  93 2.11  97 2.11  98 2.11  95 2.11
 196  0.900  0.700  0.503- 102 2.11  97 2.11  98 2.11  17 2.11  96 2.11
 197  0.800  0.700  0.407-  76 2.11  99 2.11  96 2.11  95 2.11  97 2.11
 198  0.900  0.600  0.407-  15 2.11  92 2.11  95 2.11  96 2.11  98 2.11
 199  0.800  0.800  0.503-  82 2.11  97 2.11 101 2.11 102 2.11  99 2.11
 200  0.900  0.900  0.503-  21 2.11  86 2.11 101 2.11 102 2.11 100 2.11
 201  0.800  0.900  0.407-  80 2.11  83 2.11  99 2.11 100 2.11 101 2.11
 202  0.900  0.800  0.407-  96 2.11  19 2.11  99 2.11 100 2.11 102 2.11

  LATTYP: Found a simple tetragonal cell.
 ALAT       =    21.1388521970
 C/A-ratio  =     1.0461251639

  Lattice vectors:

 A1 = (  21.1388521970,   0.0000000000,   0.0000000000)
 A2 = (   0.0000000000,  21.1388521970,   0.0000000000)
 A3 = (   0.0000000000,   0.0000000000,  22.1138852197)

Analysis of symmetry for initial positions (statically):
 Subroutine PRICEL returns:
 Original cell was already a primitive cell.

 Routine SETGRP: Setting up the symmetry group for a
 simple tetragonal supercell.

 Subroutine GETGRP returns: Found  8 space group operations
 (whereof  2 operations were pure point group operations)
 out of a pool of 16 trial point group operations.

The static configuration has the point symmetry C_1h.
 The point group associated with its full space group is C_4v.

Analysis of symmetry for dynamics (positions and initial velocities):
 Subroutine PRICEL returns:
 Original cell was already a primitive cell.

 Routine SETGRP: Setting up the symmetry group for a
 simple tetragonal supercell.

 Subroutine GETGRP returns: Found  8 space group operations
 (whereof  2 operations were pure point group operations)
 out of a pool of 16 trial point group operations.

The dynamic configuration has the point symmetry C_1h.
 The point group associated with its full space group is C_4v.

 Subroutine INISYM returns: Found  8 space group operations
 (whereof  2 operations are pure point group operations),
 and found     1 'primitive' translations

                                     Primitive cell

  volume of cell :    9881.6133

  direct lattice vectors                    reciprocal lattice vectors
    21.138852197  0.000000000  0.000000000     0.047306258  0.000000000  0.000000000
     0.000000000 21.138852197  0.000000000     0.000000000  0.047306258  0.000000000
     0.000000000  0.000000000 22.113885220     0.000000000  0.000000000  0.045220457

  length of vectors
    21.138852197 21.138852197 22.113885220     0.047306258  0.047306258  0.045220457

  position of ions in fractional coordinates (direct lattice)
     0.499999974  0.599999938  0.745598720
     0.499999974  0.599999938  0.629641752
     0.000000000  0.000000000  0.406984115
     0.100000000  0.100000000  0.406984115
     0.000000000  0.100000000  0.502574971
     0.100000000  0.000000000  0.502574971
[...]
   O         167.948          4.746         17.718          3.28113415
   O         167.960          4.746         17.719          3.28125198
   O         167.430          4.743         17.691          3.27607156
   O         167.594          4.744         17.699          3.27767732
   O         167.948          4.746         17.718          3.28113416
   O         167.974          4.746         17.719          3.28138209
   O         167.499          4.744         17.694          3.27674754
   O         167.693          4.744         17.705          3.27864145
   O         167.960          4.746         17.719          3.28124725
   O         167.960          4.746         17.719          3.28125198

  vdW correction parametrized for the method         

  IVDW =  21
  VDW_RADIUS =    50.000 A
  VDW_IDAMPF =  0
  VDW_S6 =     1.000
  VDW_SR =     0.600
  VDW_D =    20.000
  LVDW_ONECELL = F F F
  LVDW_SAMETYPE T T T
  LVDW_EWALD = F

  Number of pair interactions contributing to vdW energy: 1096976
  Edisp (eV):  -66.99289

  FORCE on cell =-STRESS in cart. coord.  units (eV):
  Direction    XX          YY          ZZ          XY          YZ          ZX
  Alpha Z  1357.53553  1357.53553  1357.53553
  Ewald  474351.88775474351.88775************     0.00000    -0.00002    -0.00001
  Hartree503133.71396503133.71392************     0.00000    -0.00001    -0.00000
  E(xc)   -7791.92004 -7791.92004 -7840.79391    -0.00000     0.00000     0.00000
  Local  ************************************    -0.00000     0.00003     0.00001
  n-local -8728.70586 -8728.70585 -8853.14339    -0.00000    -0.00000     0.00000
  augment  3463.99947  3463.99946  3402.69469    -0.00000     0.00000     0.00000
  Kinetic 22976.14567 22976.14564 23215.53886     0.00001     0.00000     0.00000
  Fock        0.00000     0.00000     0.00000     0.00000     0.00000     0.00000
  vdW         4.70458     4.70458    15.83649     0.00000    -0.00000    -0.00000
  Total     -99.90255   -99.90255    56.57119     0.00000    -0.00000     0.00000
  in kB     -16.19792   -16.19792     9.17229     0.00000    -0.00000     0.00000

 VOLUME and BASIS-vectors are now :
  energy-cutoff  :      520.00
  volume of cell :     9881.61
      direct lattice vectors                 reciprocal lattice vectors
    21.138852197  0.000000000  0.000000000     0.047306258  0.000000000  0.000000000
     0.000000000 21.138852197  0.000000000     0.000000000  0.047306258  0.000000000
     0.000000000  0.000000000 22.113885220     0.000000000  0.000000000  0.045220457

  length of vectors
    21.138852197 21.138852197 22.113885220     0.047306258  0.047306258  0.045220457

 FORCES acting on ions:
    Electron-Ion                     Ewald-Force                    Non-Local-Force
   0.242E-03 0.144E-07 -.157E+04   -.699E-08 -.165E-07 0.157E+04   0.000E+00 0.000E+00 0.731E+01
   0.245E-03 0.687E-05 -.176E+04   -.266E-05 -.630E-05 0.177E+04   0.000E+00 0.000E+00 -.667E+01
   0.522E-04 -.296E+01 0.931E+03   -.928E-06 0.297E+01 -.923E+03   0.000E+00 -.311E-02 -.752E+01
   0.296E+01 -.321E-03 0.931E+03   -.297E+01 -.220E-05 -.923E+03   0.311E-02 -.508E-20 -.752E+01
   0.517E-04 -.321E-03 -.922E+03   -.101E-05 -.240E-05 0.915E+03   0.000E+00 0.000E+00 0.750E+01
   0.432E+01 -.432E+01 -.922E+03   -.432E+01 0.432E+01 0.914E+03   0.260E-02 -.260E-02 0.750E+01
   0.522E-04 0.296E+01 0.931E+03   -.928E-06 -.297E+01 -.923E+03   0.000E+00 0.311E-02 -.752E+01
   0.459E+01 0.574E+01 0.932E+03   -.460E+01 -.575E+01 -.925E+03   0.761E-02 0.745E-02 -.753E+01
   0.526E-04 0.624E+01 -.921E+03   -.166E-05 -.624E+01 0.913E+03   0.000E+00 0.313E-02 0.749E+01
   0.432E+01 0.432E+01 -.922E+03   -.432E+01 -.432E+01 0.914E+03   0.260E-02 0.260E-02 0.750E+01
   0.530E-04 0.518E+01 0.933E+03   -.171E-05 -.519E+01 -.925E+03   -.339E-20 0.540E-02 -.753E+01
   0.814E+01 0.401E+01 0.936E+03   -.817E+01 -.401E+01 -.928E+03   0.234E-01 0.536E-02 -.753E+01
   0.543E-04 0.430E+01 -.918E+03   -.312E-05 -.430E+01 0.911E+03   0.000E+00 0.207E-02 0.749E+01
   0.919E+01 0.819E+01 -.918E+03   -.921E+01 -.819E+01 0.911E+03   0.893E-02 0.447E-02 0.749E+01
   0.536E-04 -.325E-03 0.935E+03   -.233E-05 0.223E-05 -.927E+03   0.000E+00 0.000E+00 -.753E+01
   0.814E+01 -.401E+01 0.936E+03   -.817E+01 0.401E+01 -.928E+03   0.234E-01 -.536E-02 -.753E+01
   0.543E-04 -.430E+01 -.918E+03   -.312E-05 0.430E+01 0.911E+03   0.000E+00 -.207E-02 0.749E+01
   0.136E+02 -.327E-03 -.916E+03   -.136E+02 0.375E-05 0.908E+03   0.160E-01 -.847E-21 0.749E+01
   0.530E-04 -.518E+01 0.933E+03   -.171E-05 0.519E+01 -.925E+03   0.000E+00 -.540E-02 -.753E+01
   0.459E+01 -.574E+01 0.932E+03   -.460E+01 0.575E+01 -.925E+03   0.761E-02 -.745E-02 -.753E+01
   0.526E-04 -.624E+01 -.921E+03   -.166E-05 0.624E+01 0.913E+03   0.000E+00 -.313E-02 0.749E+01
   0.919E+01 -.819E+01 -.918E+03   -.921E+01 0.819E+01 0.911E+03   0.893E-02 -.447E-02 0.749E+01
   0.574E+01 -.459E+01 0.932E+03   -.575E+01 0.460E+01 -.925E+03   0.745E-02 -.761E-02 -.753E+01
   0.518E+01 -.319E-03 0.933E+03   -.519E+01 -.404E-05 -.925E+03   0.540E-02 -.339E-20 -.753E+01
   0.624E+01 -.319E-03 -.921E+03   -.624E+01 -.394E-05 0.913E+03   0.313E-02 0.254E-20 0.749E+01
   0.819E+01 -.919E+01 -.918E+03   -.819E+01 0.921E+01 0.911E+03   0.447E-02 -.893E-02 0.749E+01
   0.574E+01 0.459E+01 0.932E+03   -.575E+01 -.460E+01 -.925E+03   0.745E-02 0.761E-02 -.753E+01
   0.915E+01 0.119E+02 0.938E+03   -.917E+01 -.119E+02 -.930E+03   0.204E-01 0.300E-01 -.753E+01
   0.114E+02 0.114E+02 -.918E+03   -.114E+02 -.114E+02 0.910E+03   0.919E-02 0.919E-02 0.749E+01
   0.819E+01 0.919E+01 -.918E+03   -.819E+01 -.921E+01 0.911E+03   0.447E-02 0.893E-02 0.749E+01
   0.119E+02 0.915E+01 0.938E+03   -.119E+02 -.917E+01 -.930E+03   0.300E-01 0.204E-01 -.753E+01
   0.210E+02 0.109E+02 0.953E+03   -.211E+02 -.109E+02 -.946E+03   0.966E-01 0.552E-01 -.756E+01
   0.263E+02 0.999E+01 -.909E+03   -.263E+02 -.100E+02 0.901E+03   0.404E-01 0.634E-02 0.748E+01
   0.250E+02 0.250E+02 -.904E+03   -.250E+02 -.250E+02 0.896E+03   0.342E-01 0.342E-01 0.748E+01
   0.176E+02 -.328E-03 0.943E+03   -.177E+02 0.438E-05 -.936E+03   0.928E-01 0.847E-21 -.755E+01
   0.210E+02 -.109E+02 0.953E+03   -.211E+02 0.109E+02 -.946E+03   0.966E-01 -.552E-01 -.756E+01
   0.263E+02 -.999E+01 -.909E+03   -.263E+02 0.100E+02 0.901E+03   0.404E-01 -.634E-02 0.748E+01
   0.528E+02 -.340E-03 -.881E+03   -.531E+02 0.168E-04 0.874E+03   0.285E+00 -.254E-20 0.745E+01
   0.119E+02 -.915E+01 0.938E+03   -.119E+02 0.917E+01 -.930E+03   0.300E-01 -.204E-01 -.753E+01
   0.915E+01 -.119E+02 0.938E+03   -.917E+01 0.119E+02 -.930E+03   0.204E-01 -.300E-01 -.753E+01
   0.114E+02 -.114E+02 -.918E+03   -.114E+02 0.114E+02 0.910E+03   0.919E-02 -.919E-02 0.749E+01
   0.250E+02 -.250E+02 -.904E+03   -.250E+02 0.250E+02 0.896E+03   0.342E-01 -.342E-01 0.748E+01
   0.401E+01 -.814E+01 0.936E+03   -.401E+01 0.817E+01 -.928E+03   0.536E-02 -.234E-01 -.753E+01
   0.518E-04 -.318E-03 0.935E+03   0.943E-06 -.551E-05 -.927E+03   0.000E+00 -.339E-20 -.753E+01
   0.430E+01 -.316E-03 -.918E+03   -.430E+01 -.740E-05 0.911E+03   0.207E-02 -.508E-20 0.749E+01
   0.517E-04 -.136E+02 -.916E+03   0.158E-05 0.136E+02 0.908E+03   0.000E+00 -.160E-01 0.749E+01
   0.401E+01 0.814E+01 0.936E+03   -.401E+01 -.817E+01 -.928E+03   0.536E-02 0.234E-01 -.753E+01
   0.513E-04 0.176E+02 0.943E+03   0.185E-05 -.177E+02 -.936E+03   0.000E+00 0.928E-01 -.755E+01
   0.999E+01 0.263E+02 -.909E+03   -.100E+02 -.263E+02 0.901E+03   0.634E-02 0.404E-01 0.748E+01
   0.517E-04 0.136E+02 -.916E+03   0.158E-05 -.136E+02 0.908E+03   0.000E+00 0.160E-01 0.749E+01
   0.109E+02 0.210E+02 0.953E+03   -.109E+02 -.211E+02 -.946E+03   0.552E-01 0.966E-01 -.756E+01
   0.490E-04 0.214E+02 0.979E+03   0.565E-05 -.215E+02 -.972E+03   0.000E+00 0.490E-01 -.728E+01
   0.480E+02 0.480E+02 -.849E+03   -.483E+02 -.483E+02 0.842E+03   0.231E+00 0.231E+00 0.745E+01
   0.492E-04 0.528E+02 -.881E+03   0.710E-05 -.531E+02 0.874E+03   -.339E-20 0.285E+00 0.745E+01
   0.214E+02 -.336E-03 0.979E+03   -.215E+02 0.134E-04 -.972E+03   0.490E-01 0.424E-20 -.728E+01
   0.490E-04 -.214E+02 0.979E+03   0.565E-05 0.215E+02 -.972E+03   0.000E+00 -.490E-01 -.728E+01
   0.480E+02 -.480E+02 -.849E+03   -.483E+02 0.483E+02 0.842E+03   0.231E+00 -.231E+00 0.745E+01
   0.312E-04 -.409E-03 -.726E+03   0.355E-04 0.842E-04 0.719E+03   0.000E+00 -.339E-20 0.643E+01
   0.109E+02 -.210E+02 0.953E+03   -.109E+02 0.211E+02 -.946E+03   0.552E-01 -.966E-01 -.756E+01
   0.513E-04 -.176E+02 0.943E+03   0.185E-05 0.177E+02 -.936E+03   0.000E+00 -.928E-01 -.755E+01
[...]
   -.609E+01 0.608E+01 0.703E+03   0.610E+01 -.610E+01 -.707E+03   -.160E-01 0.160E-01 0.345E+01
   -.253E+01 0.253E+01 0.700E+03   0.254E+01 -.254E+01 -.704E+03   -.467E-02 0.467E-02 0.345E+01
   -.137E+02 0.102E+02 -.687E+03   0.137E+02 -.102E+02 0.691E+03   -.243E-01 0.192E-01 -.351E+01
   -.919E+01 0.411E+01 -.689E+03   0.920E+01 -.412E+01 0.693E+03   -.134E-01 0.494E-02 -.351E+01
   -.119E+02 0.473E+01 0.708E+03   0.119E+02 -.475E+01 -.712E+03   -.496E-01 0.256E-01 0.344E+01
   -.480E+01 0.459E+01 0.702E+03   0.481E+01 -.460E+01 -.706E+03   -.134E-01 0.108E-01 0.345E+01
   -.227E+02 -.157E-02 -.681E+03   0.227E+02 0.534E-05 0.686E+03   -.471E-01 -.169E-20 -.354E+01
   -.919E+01 -.411E+01 -.689E+03   0.920E+01 0.412E+01 0.693E+03   -.134E-01 -.494E-02 -.351E+01
   -.119E+02 -.473E+01 0.708E+03   0.119E+02 0.475E+01 -.712E+03   -.496E-01 -.256E-01 0.344E+01
   -.668E+01 -.156E-02 0.704E+03   0.669E+01 0.204E-05 -.708E+03   -.213E-01 -.127E-19 0.345E+01
   -.137E+02 -.102E+02 -.687E+03   0.137E+02 0.102E+02 0.691E+03   -.243E-01 -.192E-01 -.351E+01
   -.467E+01 -.561E+01 -.692E+03   0.467E+01 0.561E+01 0.696E+03   -.594E-02 -.638E-02 -.350E+01
   -.609E+01 -.609E+01 0.703E+03   0.610E+01 0.610E+01 -.707E+03   -.160E-01 -.160E-01 0.345E+01
   -.480E+01 -.460E+01 0.702E+03   0.481E+01 0.460E+01 -.706E+03   -.134E-01 -.108E-01 0.345E+01
   -.987E-02 -.191E+00 0.420E+01   0.106E-11 0.129E-11 -.443E-11   -.364E-16 -.123E-15 -.485E+01

 POSITION                                       TOTAL-FORCE (eV/Angst)
     10.56943     12.68331     16.48808        -0.000000     -0.000000      0.025562
     10.56943     12.68331     13.92383        -0.000000     -0.000000     -0.235426
      0.00000      0.00000      9.00000        -0.000000      0.000856      0.295774
      2.11389      2.11389      9.00000        -0.000856     -0.000000      0.295774
      0.00000      2.11389     11.11389        -0.000000     -0.000000     -0.289750
      2.11389      0.00000     11.11389        -0.000601      0.000601     -0.289264
      0.00000      4.22777      9.00000        -0.000000     -0.000856      0.295774
      2.11389      6.34166      9.00000        -0.002062     -0.002062      0.296286
      0.00000      6.34166     11.11389        -0.000000     -0.000765     -0.288952
      2.11389      4.22777     11.11389        -0.000601     -0.000601     -0.289264
      0.00000      8.45554      9.00000        -0.000000     -0.001533      0.296520
      2.11389     10.56943      9.00000        -0.006113     -0.001589      0.297629
      0.00000     10.56943     11.11389        -0.000000     -0.000512     -0.287488
      2.11389      8.45554     11.11389        -0.001840     -0.001058     -0.287188
      0.00000     12.68331      9.00000        -0.000000     -0.000000      0.297053
      2.11389     14.79720      9.00000        -0.006113      0.001589      0.297629
      0.00000     14.79720     11.11389        -0.000000      0.000512     -0.287488
      2.11389     12.68331     11.11389        -0.003223     -0.000000     -0.285454
      0.00000     16.91108      9.00000        -0.000000      0.001533      0.296520
      2.11389     19.02497      9.00000        -0.002062      0.002062      0.296286
      0.00000     19.02497     11.11389        -0.000000      0.000765     -0.288952
      2.11389     16.91108     11.11389        -0.001840      0.001058     -0.287188
      4.22777      0.00000      9.00000        -0.002062      0.002062      0.296286
      6.34166      2.11389      9.00000        -0.001533     -0.000000      0.296520
      4.22777      2.11389     11.11389        -0.000765     -0.000000     -0.288952
      6.34166      0.00000     11.11389        -0.001058      0.001840     -0.287188
      4.22777      4.22777      9.00000        -0.002062     -0.002062      0.296286
      6.34166      6.34166      9.00000        -0.005642     -0.008084      0.298127
      4.22777      6.34166     11.11389        -0.001962     -0.001962     -0.286761
      6.34166      4.22777     11.11389        -0.001058     -0.001840     -0.287188
      4.22777      8.45554      9.00000        -0.008084     -0.005642      0.298127
      6.34166     10.56943      9.00000        -0.027067     -0.017158      0.300818
      4.22777     10.56943     11.11389        -0.009247     -0.001733     -0.280043
      6.34166      8.45554     11.11389        -0.007829     -0.007829     -0.276539
      4.22777     12.68331      9.00000        -0.022759     -0.000000      0.302568
      6.34166     14.79720      9.00000        -0.027067      0.017158      0.300818
      4.22777     14.79720     11.11389        -0.009247      0.001733     -0.280043
      6.34166     12.68331     11.11389        -0.088799     -0.000000     -0.251927
      4.22777     16.91108      9.00000        -0.008084      0.005642      0.298127
      6.34166     19.02497      9.00000        -0.005642      0.008084      0.298127
      4.22777     19.02497     11.11389        -0.001962      0.001962     -0.286761
      6.34166     16.91108     11.11389        -0.007829      0.007829     -0.276539
      8.45554      0.00000      9.00000        -0.001589      0.006113      0.297629
     10.56943      2.11389      9.00000        -0.000000     -0.000000      0.297053
      8.45554      2.11389     11.11389        -0.000512     -0.000000     -0.287488
     10.56943      0.00000     11.11389        -0.000000      0.003223     -0.285454
      8.45554      4.22777      9.00000        -0.001589     -0.006113      0.297629
     10.56943      6.34166      9.00000        -0.000000     -0.022759      0.302568
      8.45554      6.34166     11.11389        -0.001733     -0.009247     -0.280043
     10.56943      4.22777     11.11389        -0.000000     -0.003223     -0.285454
      8.45554      8.45554      9.00000        -0.017158     -0.027067      0.300818
     10.56943     10.56943      9.00000        -0.000000     -0.011591      0.221731
      8.45554     10.56943     11.11389        -0.066947     -0.066947     -0.231421
     10.56943      8.45554     11.11389        -0.000000     -0.088799     -0.251927
      8.45554     12.68331      9.00000        -0.011591     -0.000000      0.221731
     10.56943     14.79720      9.00000        -0.000000      0.011591      0.221731
      8.45554     14.79720     11.11389        -0.066947      0.066947     -0.231421
     10.56943     12.68331     11.11389        -0.000000     -0.000000     -0.707193
      8.45554     16.91108      9.00000        -0.017158      0.027067      0.300818
     10.56943     19.02497      9.00000        -0.000000      0.022759      0.302568
[...]
     19.02497      6.34166     11.11389        -0.001749      0.001878      0.877627
     16.91108      6.34166      9.00000        -0.004542      0.004542     -0.886502
     19.02497      4.22777      9.00000        -0.001301      0.001301     -0.885766
     16.91108      8.45554     11.11389        -0.007109      0.005497      0.872227
     19.02497     10.56943     11.11389        -0.004097      0.001461      0.874529
     16.91108     10.56943      9.00000        -0.014023      0.007310     -0.888848
     19.02497      8.45554      9.00000        -0.003802      0.003055     -0.886475
     16.91108     12.68331     11.11389        -0.014702     -0.000000      0.865933
     19.02497     14.79720     11.11389        -0.004097     -0.001461      0.874529
     16.91108     14.79720      9.00000        -0.014023     -0.007310     -0.888848
     19.02497     12.68331      9.00000        -0.006075     -0.000000     -0.887279
     16.91108     16.91108     11.11389        -0.007109     -0.005497      0.872227
     19.02497     19.02497     11.11389        -0.001749     -0.001878      0.877627
     16.91108     19.02497      9.00000        -0.004542     -0.004542     -0.886502
     19.02497     16.91108      9.00000        -0.003802     -0.003055     -0.886475
    total drift:                               -0.009873     -0.190523     -0.654668

  FREE ENERGIE OF THE ION-ELECTRON SYSTEM (eV)
  free  energy   TOTEN  =     -1155.41016922 eV

  energy  without entropy=    -1155.41016922  energy(sigma->0) =    -1155.41016922