 vasp.6.3.0 20Jan22 (build Apr  1 2022 16:44:48) complex
 executed on        HPECrayEX_GCC date 2023.01.09  18:54:20

 INCAR:
   SYSTEM = MgO-rocksalt
   ISMEAR = 0
   SIGMA = 0.05
   EDIFF = 1E-6
   ALGO = ALL
   ISTART = 0
   IBRION = -1
   NSW = 0
   ISYM = 2
   DIPOL = 0.5 0.5 0.5
   IDIPOL = 3
   LDIPOL = .TRUE.
   GGA = ML
   LUSE_VDW = .TRUE.
   ZAB_VDW = -1.8867
   AGGAC = 0.0000
   ENCUT = 520
   PREC = Accurate
   LASPH = .TRUE.
   LREAL = Auto
   ISPIN = 1
   NELM = 200
   NELMIN = 8
   NCORE = 4
   KPAR = 2
   LWAVE = .FALSE.
   LCHARG = .FALSE.

 POTCAR:    PAW_PBE Au 04Oct2007
 POTCAR:    PAW_PBE Mg_pv 13Apr2007
 POTCAR:    PAW_PBE O 08Apr2002
|               ----> ADVICE to this user running VASP <----                  |
|     You have switched on vdW-DFT.                                           |
|     This routine was written and supplied by Jiri Klimes. We recommend      |
|     that you carefully read and cite the following publications:            |
|       J. Klimes, D.R. Bowler, A. Michelides                                 |
|          J. Phys.: Cond Matt. 22 022201 (2010)                              |
|       J. Klimes, D.R. Bowler, A. Michelides                                 |
|          Phys. Rev. B. 83, 195131 (2011)                                    |
|     and references therein.                                                 |

   TITEL  = PAW_PBE Au 04Oct2007
   POMASS =  196.966; ZVAL   =   11.000    mass and valenz
   ENMAX  =  229.943; ENMIN  =  172.457 eV

   TITEL  = PAW_PBE Mg_pv 13Apr2007
   POMASS =   24.305; ZVAL   =    8.000    mass and valenz
   ENMAX  =  403.929; ENMIN  =  302.947 eV

   TITEL  = PAW_PBE O 08Apr2002
   POMASS =   16.000; ZVAL   =    6.000    mass and valenz
   ENMAX  =  400.000; ENMIN  =  300.000 eV

 Optimization of the real space projectors (new method)

 maximal supplied QI-value         = 15.12
 optimisation between [QCUT,QGAM] = [ 11.64, 23.28] = [ 37.95,151.78] Ry
 Optimized for a Real-space Cutoff    1.49 Angstroem

   l    n(q)    QCUT    max X(q) W(low)/X(q) W(high)/X(q)  e(spline)
   2      9    11.641    60.898    0.24E-03    0.10E-03    0.19E-06
   2      9    11.641    58.894    0.25E-03    0.10E-03    0.19E-06
   0     10    11.641   109.617    0.73E-04    0.33E-04    0.11E-06
   0     10    11.641    75.026    0.71E-04    0.32E-04    0.11E-06
   1     10    11.641    16.344    0.27E-04    0.97E-04    0.16E-06
   1     10    11.641    10.160    0.23E-04    0.77E-04    0.13E-06
 Optimization of the real space projectors (new method)

[...]

   l    n(q)    QCUT    max X(q) W(low)/X(q) W(high)/X(q)  e(spline)
   1      8    11.527     2.974    0.44E-04    0.56E-04    0.12E-06
   1      8    11.527     4.279    0.12E-03    0.12E-03    0.26E-06
   0      9    11.527    16.381    0.46E-04    0.64E-04    0.78E-07
   0      9    11.527     5.611    0.26E-04    0.43E-04    0.55E-07
   2      8    11.527     4.652    0.22E-03    0.72E-04    0.47E-07
 Optimization of the real space projectors (new method)

 maximal supplied QI-value         = 24.76
 optimisation between [QCUT,QGAM] = [ 11.64, 23.27] = [ 37.91,151.63] Ry
 Optimized for a Real-space Cutoff    1.14 Angstroem

   l    n(q)    QCUT    max X(q) W(low)/X(q) W(high)/X(q)  e(spline)
   0      8    11.635    20.381    0.10E-03    0.33E-03    0.24E-06
   0      8    11.635    15.268    0.11E-03    0.35E-03    0.26E-06
   1      7    11.635     5.964    0.24E-03    0.31E-03    0.30E-06
   1      7    11.635     5.382    0.22E-03    0.25E-03    0.26E-06
|               ----> ADVICE to this user running VASP <----                  |
|     You enforced a specific xc type in the INCAR file but a different       |
|     type was found in the POTCAR file.                                      |
|     I HOPE YOU KNOW WHAT YOU ARE DOING!                                     |

  PAW_PBE Au 04Oct2007                  :
  PAW_PBE Mg_pv 13Apr2007               :
  PAW_PBE O 08Apr2002                   :

 POSCAR: Au Mg  O
  positions in direct lattice
  velocities in cartesian coordinates
 exchange correlation table for  LEXCH =       44
   RHO(1)=    0.500       N(1)  =     2000
   RHO(2)=  100.500       N(2)  =     4000

 ion  position               nearest neighbor table
   1  0.404  0.596  0.665-   2 2.57   4 2.74
   2  0.332  0.668  0.602- 138 2.40   1 2.57  59 2.71  40 2.71
   3  0.568  0.432  0.602- 173 2.40   4 2.57  75 2.71  56 2.71
   4  0.496  0.504  0.665-   3 2.57   1 2.74
   5  0.000  0.000  0.407- 107 2.11 108 2.11 123 2.11 188 2.11 105 2.11
   6  0.100  0.100  0.407- 107 2.11 108 2.11 112 2.11 127 2.11 106 2.11
   7  0.000  0.100  0.503- 105 2.11 106 2.11 109 2.11 186 2.11 107 2.11
   8  0.100  0.000  0.503- 105 2.11 106 2.11 122 2.11 125 2.11 108 2.11
   9  0.000  0.200  0.407- 111 2.11 107 2.11 112 2.11 192 2.11 109 2.11
  10  0.100  0.300  0.407- 112 2.11 111 2.11 116 2.11 131 2.11 110 2.11
  11  0.000  0.300  0.503- 109 2.11 110 2.11 113 2.11 190 2.11 111 2.11
  12  0.100  0.200  0.503- 110 2.11 109 2.11 106 2.11 129 2.11 112 2.11
  13  0.000  0.400  0.407- 111 2.11 115 2.11 116 2.11 196 2.11 113 2.11
  14  0.100  0.500  0.407- 115 2.11 116 2.11 120 2.11 135 2.11 114 2.11
  15  0.000  0.500  0.503- 113 2.11 114 2.11 117 2.11 194 2.11 115 2.11
  16  0.100  0.400  0.503- 110 2.11 113 2.11 114 2.11 133 2.11 116 2.11
  17  0.000  0.600  0.407- 115 2.11 119 2.11 120 2.11 200 2.11 117 2.11
  18  0.100  0.700  0.407- 124 2.11 120 2.11 119 2.11 139 2.11 118 2.11
  19  0.000  0.700  0.503- 121 2.11 118 2.11 117 2.11 198 2.11 119 2.11
  20  0.100  0.600  0.503- 114 2.11 117 2.11 118 2.11 137 2.11 120 2.11
  21  0.000  0.800  0.407- 119 2.11 123 2.11 124 2.11 204 2.11 121 2.11
  22  0.100  0.900  0.407- 108 2.11 123 2.11 124 2.11 143 2.11 122 2.11
  23  0.000  0.900  0.503- 105 2.11 121 2.11 122 2.11 202 2.11 123 2.11
  24  0.100  0.800  0.503- 118 2.11 121 2.11 122 2.11 141 2.11 124 2.11
  25  0.200  0.000  0.407- 128 2.11 127 2.11 108 2.11 143 2.11 125 2.11
  26  0.300  0.100  0.407- 127 2.11 128 2.11 132 2.11 147 2.11 126 2.11
  27  0.200  0.100  0.503- 126 2.11 125 2.11 106 2.11 129 2.11 127 2.11
  28  0.300  0.000  0.503- 125 2.11 126 2.11 142 2.11 145 2.11 128 2.11
  29  0.200  0.200  0.407- 131 2.11 132 2.11 112 2.11 127 2.11 129 2.11
  30  0.300  0.300  0.407- 131 2.11 132 2.11 136 2.11 151 2.11 130 2.11
  31  0.200  0.300  0.503- 129 2.11 130 2.11 110 2.11 133 2.11 131 2.11
  32  0.300  0.200  0.503- 129 2.11 130 2.11 126 2.11 149 2.11 132 2.11
  33  0.200  0.400  0.407- 136 2.11 131 2.11 135 2.11 116 2.11 133 2.11
  34  0.300  0.500  0.407- 135 2.11 136 2.11 140 2.11 155 2.11 134 2.11
  35  0.200  0.500  0.503- 134 2.11 133 2.11 114 2.11 137 2.11 135 2.11
  36  0.300  0.400  0.503- 133 2.11 130 2.11 134 2.11 153 2.11 136 2.11
  37  0.200  0.600  0.407- 140 2.11 135 2.11 139 2.11 120 2.11 137 2.11
  38  0.300  0.700  0.407- 139 2.11 144 2.11 140 2.11 159 2.11 138 2.11
  39  0.200  0.700  0.503- 138 2.11 141 2.11 118 2.11 137 2.11 139 2.11
  40  0.300  0.600  0.503- 137 2.11 134 2.11 138 2.11 157 2.11 140 2.11   2 2.71
  41  0.200  0.800  0.407- 139 2.11 144 2.11 143 2.11 124 2.11 141 2.11
  42  0.300  0.900  0.407- 143 2.11 128 2.11 144 2.11 163 2.11 142 2.11
  43  0.200  0.900  0.503- 142 2.11 125 2.11 141 2.11 122 2.11 143 2.11
  44  0.300  0.800  0.503- 138 2.11 141 2.11 142 2.11 161 2.11 144 2.11
  45  0.400  0.000  0.407- 128 2.11 147 2.11 148 2.11 163 2.11 145 2.11
  46  0.500  0.100  0.407- 147 2.11 148 2.11 152 2.11 167 2.11 146 2.11
  47  0.400  0.100  0.503- 126 2.11 145 2.11 146 2.11 149 2.11 147 2.11
  48  0.500  0.000  0.503- 145 2.11 146 2.11 162 2.11 165 2.11 148 2.11
  49  0.400  0.200  0.407- 151 2.11 147 2.11 132 2.11 152 2.11 149 2.11
  50  0.500  0.300  0.407- 152 2.11 151 2.11 156 2.11 171 2.11 150 2.11
  51  0.400  0.300  0.503- 149 2.11 130 2.11 150 2.11 153 2.11 151 2.11
  52  0.500  0.200  0.503- 150 2.11 149 2.11 146 2.11 169 2.11 152 2.11
  53  0.400  0.400  0.407- 136 2.11 151 2.11 155 2.11 156 2.11 153 2.11
  54  0.500  0.500  0.407- 155 2.11 156 2.11 160 2.11 175 2.11 154 2.11
  55  0.400  0.500  0.503- 134 2.11 153 2.11 154 2.11 157 2.11 155 2.11
  56  0.500  0.400  0.503- 150 2.11 153 2.11 154 2.11 173 2.11 156 2.11   3 2.71
  57  0.400  0.600  0.407- 140 2.11 155 2.11 159 2.11 160 2.11 157 2.11
  58  0.500  0.700  0.407- 164 2.11 160 2.11 159 2.11 179 2.11 158 2.11
  59  0.400  0.700  0.503- 161 2.11 157 2.11 158 2.11 138 2.11 159 2.11   2 2.71
  60  0.500  0.600  0.503- 154 2.11 157 2.11 158 2.11 177 2.11 160 2.11
[...]
 190  0.900  0.300  0.503-  92 2.11  91 2.11  11 2.11  96 2.11  90 2.11
 191  0.800  0.300  0.407-  70 2.11  89 2.11  90 2.11  93 2.11  91 2.11
 192  0.900  0.200  0.407-  90 2.11  86 2.11  89 2.11   9 2.11  92 2.11
 193  0.800  0.400  0.503-  76 2.11  91 2.11  95 2.11  96 2.11  93 2.11
 194  0.900  0.500  0.503-  15 2.11  95 2.11  96 2.11 100 2.11  94 2.11
 195  0.800  0.500  0.407-  74 2.11  93 2.11  94 2.11  97 2.11  95 2.11
 196  0.900  0.400  0.407-  13 2.11  90 2.11  93 2.11  94 2.11  96 2.11
 197  0.800  0.600  0.503-  80 2.11  95 2.11  99 2.11 100 2.11  97 2.11
 198  0.900  0.700  0.503- 104 2.11  99 2.11 100 2.11  19 2.11  98 2.11
 199  0.800  0.700  0.407-  78 2.11 101 2.11  98 2.11  97 2.11  99 2.11
 200  0.900  0.600  0.407-  17 2.11  94 2.11  97 2.11  98 2.11 100 2.11
 201  0.800  0.800  0.503-  84 2.11  99 2.11 103 2.11 104 2.11 101 2.11
 202  0.900  0.900  0.503-  23 2.11  88 2.11 103 2.11 104 2.11 102 2.11
 203  0.800  0.900  0.407-  82 2.11  85 2.11 101 2.11 102 2.11 103 2.11
 204  0.900  0.800  0.407-  98 2.11  21 2.11 101 2.11 102 2.11 104 2.11

  LATTYP: Found a simple tetragonal cell.
 ALAT       =    21.1388521970
 C/A-ratio  =     1.0461251639

  Lattice vectors:

 A1 = (  21.1388521970,   0.0000000000,   0.0000000000)
 A2 = (   0.0000000000,  21.1388521970,   0.0000000000)
 A3 = (   0.0000000000,   0.0000000000,  22.1138852197)

Analysis of symmetry for initial positions (statically):
 Subroutine PRICEL returns:
 Original cell was already a primitive cell.

 Routine SETGRP: Setting up the symmetry group for a
 simple tetragonal supercell.

 Subroutine GETGRP returns: Found  2 space group operations
 (whereof  1 operations were pure point group operations)
 out of a pool of 16 trial point group operations.

The static configuration has the point symmetry C_1 .
 The point group associated with its full space group is C_1h.

Analysis of symmetry for dynamics (positions and initial velocities):
 Subroutine PRICEL returns:
 Original cell was already a primitive cell.

[...]

The dynamic configuration has the point symmetry C_1 .
 The point group associated with its full space group is C_1h.

Analysis of constrained symmetry for selective dynamics:
 Subroutine PRICEL returns:
 Original cell was already a primitive cell.

 Routine SETGRP: Setting up the symmetry group for a
 simple tetragonal supercell.

 Subroutine GETGRP returns: Found  2 space group operations
 (whereof  1 operations were pure point group operations)
 out of a pool of 16 trial point group operations.

The constrained configuration has the point symmetry C_1 .
[...]
     52     -44.0325      2.00000
     53     -44.0255      2.00000
     54     -44.0255      2.00000
     55     -44.0244      2.00000
     56     -44.0242      2.00000
     57     -44.0234      2.00000
     58     -44.0234      2.00000
     59     -44.0179      2.00000
     60     -44.0154      2.00000
[...]
    946       5.0713      0.00000
    947       5.0923      0.00000
    948       5.1169      0.00000
    949       5.1351      0.00000
    950       5.1511      0.00000
    951       5.1754      0.00000
    952       5.1870      0.00000
    953       5.2323      0.00000
    954       5.2531      0.00000
    955       5.2619      0.00000
    956       5.2762      0.00000
    957       5.3161      0.00000
    958       5.3731      0.00000
    959       5.4646      0.00000
    960       5.6013      0.00000

 soft charge-density along one line, spin component           1
         0         1         2         3         4         5         6         7         8         9
 total charge-density along one line

------------------------ aborting loop because EDIFF is reached ----------------------------------------

  FORCE on cell =-STRESS in cart. coord.  units (eV):
  Direction    XX          YY          ZZ          XY          YZ          ZX
  Alpha Z  1417.83424  1417.83424  1417.83424
  Ewald  482423.15860482423.15974************ -1155.82133    -0.02915    -0.03097
  Hartree511298.77530511298.77571************  -904.14868    -0.01293    -0.01349
  E(xc)   -8148.32060 -8148.32060 -8156.82027    -0.72658     0.00010     0.00011
  Local  ************************************  2041.55288     0.04103     0.04320
  n-local -8833.79079 -8833.79078 -8938.55549    10.69019    -0.00291    -0.00318
  augment  3705.49906  3705.49906  3651.01707     1.96089     0.00137     0.00139
  Kinetic 23417.21713 23417.21712 23624.43915     5.90551    -0.00026    -0.00014
  Fock        0.00000     0.00000     0.00000     0.00000     0.00000     0.00000
  Total    -120.47719  -120.47719    44.26696    -0.58712    -0.00292    -0.00292
  in kB     -19.53384   -19.53384     7.17732    -0.09519    -0.00047    -0.00047

 VOLUME and BASIS-vectors are now :
  energy-cutoff  :      520.00
  volume of cell :     9881.61
      direct lattice vectors                 reciprocal lattice vectors
    21.138852197  0.000000000  0.000000000     0.047306258  0.000000000  0.000000000
     0.000000000 21.138852197  0.000000000     0.000000000  0.047306258  0.000000000
     0.000000000  0.000000000 22.113885220     0.000000000  0.000000000  0.045220457

  length of vectors
    21.138852197 21.138852197 22.113885220     0.047306258  0.047306258  0.045220457

 FORCES acting on ions:
    Electron-Ion                     Ewald-Force                    Non-Local-Force
   0.494E+02 -.494E+02 -.197E+04   -.510E+02 0.510E+02 0.197E+04   0.177E+01 -.177E+01 0.238E+01
   0.220E+03 -.220E+03 -.203E+04   -.218E+03 0.218E+03 0.203E+04   -.225E+01 0.225E+01 -.218E+01
   -.220E+03 0.220E+03 -.203E+04   0.218E+03 -.218E+03 0.203E+04   0.225E+01 -.225E+01 -.218E+01
   -.494E+02 0.494E+02 -.197E+04   0.510E+02 -.510E+02 0.197E+04   -.177E+01 0.177E+01 0.238E+01
   0.457E+01 -.457E+01 0.936E+03   -.461E+01 0.461E+01 -.929E+03   0.297E-01 -.296E-01 -.619E+01
   0.896E+01 0.202E+01 0.937E+03   -.895E+01 -.195E+01 -.930E+03   -.363E-02 -.547E-01 -.619E+01
   0.330E+01 0.331E+01 -.917E+03   -.328E+01 -.328E+01 0.911E+03   -.195E-01 -.195E-01 0.610E+01
   0.139E+02 -.104E+02 -.914E+03   -.139E+02 0.105E+02 0.908E+03   0.248E-01 -.941E-01 0.610E+01
   0.202E+01 0.896E+01 0.937E+03   -.195E+01 -.895E+01 -.930E+03   -.547E-01 -.363E-02 -.619E+01
   0.143E+02 0.155E+02 0.943E+03   -.142E+02 -.155E+02 -.936E+03   -.479E-01 0.154E-02 -.621E+01
   0.313E+01 0.155E+02 -.913E+03   -.302E+01 -.155E+02 0.907E+03   -.869E-01 -.741E-03 0.609E+01
   0.132E+02 0.132E+02 -.914E+03   -.132E+02 -.132E+02 0.908E+03   -.390E-01 -.390E-01 0.610E+01
   0.486E+01 0.110E+02 0.943E+03   -.477E+01 -.110E+02 -.937E+03   -.743E-01 0.190E-01 -.620E+01
   0.281E+02 0.111E+02 0.955E+03   -.281E+02 -.113E+02 -.949E+03   -.115E-02 0.115E+00 -.621E+01
   0.128E+02 0.788E+01 -.907E+03   -.128E+02 -.792E+01 0.901E+03   -.276E-01 0.258E-01 0.608E+01
   0.305E+02 0.233E+02 -.904E+03   -.304E+02 -.233E+02 0.898E+03   -.982E-01 0.409E-01 0.607E+01
   0.121E+02 -.242E+01 0.947E+03   -.122E+02 0.238E+01 -.941E+03   0.788E-01 0.306E-01 -.621E+01
   0.318E+02 -.129E+02 0.958E+03   -.323E+02 0.128E+02 -.952E+03   0.379E+00 0.455E-01 -.625E+01
   0.203E+02 -.128E+02 -.908E+03   -.205E+02 0.128E+02 0.901E+03   0.143E+00 0.193E-01 0.609E+01
   0.581E+02 0.285E+01 -.891E+03   -.583E+02 -.301E+01 0.885E+03   0.143E+00 0.123E+00 0.605E+01
   0.109E+02 -.130E+02 0.942E+03   -.110E+02 0.130E+02 -.936E+03   0.145E+00 -.164E-01 -.620E+01
   0.158E+02 -.158E+02 0.943E+03   -.159E+02 0.159E+02 -.937E+03   0.107E+00 -.107E+00 -.618E+01
   0.104E+02 -.139E+02 -.914E+03   -.105E+02 0.139E+02 0.908E+03   0.941E-01 -.248E-01 0.610E+01
   0.387E+02 -.287E+02 -.902E+03   -.391E+02 0.288E+02 0.896E+03   0.327E+00 -.300E-01 0.609E+01
   0.130E+02 -.109E+02 0.942E+03   -.130E+02 0.110E+02 -.936E+03   0.164E-01 -.145E+00 -.620E+01
   0.110E+02 0.486E+01 0.943E+03   -.110E+02 -.477E+01 -.937E+03   0.190E-01 -.743E-01 -.620E+01
   0.155E+02 0.314E+01 -.913E+03   -.155E+02 -.302E+01 0.907E+03   -.741E-03 -.869E-01 0.609E+01
   0.128E+02 -.203E+02 -.908E+03   -.128E+02 0.205E+02 0.901E+03   -.193E-01 -.142E+00 0.609E+01
   0.155E+02 0.143E+02 0.943E+03   -.155E+02 -.142E+02 -.936E+03   0.154E-02 -.479E-01 -.621E+01
   0.252E+02 0.322E+02 0.962E+03   -.253E+02 -.321E+02 -.955E+03   0.739E-01 -.364E-01 -.626E+01
   0.329E+02 0.329E+02 -.903E+03   -.328E+02 -.328E+02 0.897E+03   -.556E-01 -.556E-01 0.607E+01
   0.233E+02 0.305E+02 -.904E+03   -.233E+02 -.304E+02 0.898E+03   0.409E-01 -.982E-01 0.607E+01
   0.322E+02 0.252E+02 0.962E+03   -.321E+02 -.253E+02 -.955E+03   -.364E-01 0.739E-01 -.626E+01
   0.426E+02 0.278E+02 0.101E+04   -.426E+02 -.282E+02 -.100E+04   -.313E-02 0.338E+00 -.650E+01
   0.791E+02 0.416E+02 -.867E+03   -.788E+02 -.419E+02 0.862E+03   -.239E+00 0.274E+00 0.597E+01
   0.671E+02 0.671E+02 -.860E+03   -.669E+02 -.669E+02 0.854E+03   -.131E+00 -.131E+00 0.595E+01
   0.499E+02 0.290E+01 0.990E+03   -.501E+02 -.338E+01 -.984E+03   0.144E+00 0.359E+00 -.620E+01
   0.342E+02 -.342E+02 0.102E+04   -.339E+02 0.339E+02 -.102E+04   -.189E+00 0.188E+00 -.388E+01
   0.109E+03 -.430E+02 -.838E+03   -.112E+03 0.427E+02 0.832E+03   0.183E+01 0.181E+00 0.623E+01
   0.120E+03 0.623E+02 -.697E+03   -.120E+03 -.655E+02 0.692E+03   -.287E+00 0.218E+01 0.473E+01
   0.312E+02 -.312E+02 0.968E+03   -.315E+02 0.315E+02 -.962E+03   0.240E+00 -.240E+00 -.608E+01
   0.129E+02 -.318E+02 0.958E+03   -.128E+02 0.323E+02 -.952E+03   -.456E-01 -.379E+00 -.625E+01
   0.287E+02 -.387E+02 -.902E+03   -.288E+02 0.391E+02 0.896E+03   0.300E-01 -.327E+00 0.609E+01
   0.430E+02 -.109E+03 -.838E+03   -.428E+02 0.112E+03 0.832E+03   -.182E+00 -.183E+01 0.623E+01
   0.242E+01 -.121E+02 0.947E+03   -.238E+01 0.122E+02 -.941E+03   -.306E-01 -.787E-01 -.621E+01
   -.242E+01 0.121E+02 0.947E+03   0.238E+01 -.122E+02 -.941E+03   0.306E-01 0.788E-01 -.621E+01
   0.788E+01 0.128E+02 -.907E+03   -.792E+01 -.128E+02 0.901E+03   0.258E-01 -.276E-01 0.608E+01
   -.788E+01 -.129E+02 -.907E+03   0.792E+01 0.128E+02 0.901E+03   -.258E-01 0.277E-01 0.608E+01
   0.111E+02 0.281E+02 0.955E+03   -.113E+02 -.281E+02 -.949E+03   0.115E+00 -.115E-02 -.621E+01
   0.290E+01 0.499E+02 0.990E+03   -.338E+01 -.501E+02 -.984E+03   0.359E+00 0.144E+00 -.620E+01
   0.416E+02 0.791E+02 -.867E+03   -.419E+02 -.788E+02 0.862E+03   0.274E+00 -.239E+00 0.597E+01
   0.284E+01 0.581E+02 -.891E+03   -.301E+01 -.583E+02 0.885E+03   0.123E+00 0.143E+00 0.605E+01
   0.278E+02 0.426E+02 0.101E+04   -.282E+02 -.426E+02 -.100E+04   0.338E+00 -.313E-02 -.650E+01
   -.765E+01 0.768E+01 0.105E+04   0.734E+01 -.737E+01 -.104E+04   0.234E+00 -.234E+00 -.650E+01
   0.665E+02 0.665E+02 -.735E+03   -.667E+02 -.667E+02 0.730E+03   0.121E+00 0.121E+00 0.560E+01
   0.623E+02 0.120E+03 -.697E+03   -.655E+02 -.120E+03 0.692E+03   0.218E+01 -.287E+00 0.473E+01
   0.767E+01 -.765E+01 0.105E+04   -.737E+01 0.734E+01 -.104E+04   -.234E+00 0.234E+00 -.650E+01
   -.278E+02 -.426E+02 0.101E+04   0.282E+02 0.426E+02 -.100E+04   -.338E+00 0.309E-02 -.650E+01
   -.622E+02 -.120E+03 -.697E+03   0.655E+02 0.120E+03 0.692E+03   -.218E+01 0.287E+00 0.473E+01
   -.665E+02 -.665E+02 -.735E+03   0.667E+02 0.667E+02 0.730E+03   -.122E+00 -.122E+00 0.560E+01
[...]
   -.181E+02 0.142E+02 0.716E+03   0.182E+02 -.143E+02 -.720E+03   -.240E+00 0.107E+00 0.361E+01
   -.563E+01 0.800E+01 0.706E+03   0.569E+01 -.802E+01 -.710E+03   -.856E-01 0.446E-01 0.358E+01
   -.423E+02 0.143E+02 -.672E+03   0.424E+02 -.143E+02 0.676E+03   -.272E+00 -.878E-01 -.379E+01
   -.142E+02 0.197E+01 -.682E+03   0.143E+02 -.193E+01 0.687E+03   -.556E-01 -.457E-01 -.375E+01
   -.251E+02 -.149E-01 0.723E+03   0.252E+02 0.151E+00 -.727E+03   -.152E+00 -.179E+00 0.356E+01
   -.984E+01 0.738E+01 0.712E+03   0.992E+01 -.736E+01 -.716E+03   -.120E+00 -.141E-01 0.358E+01
   -.339E+02 -.138E+02 -.675E+03   0.339E+02 0.139E+02 0.680E+03   -.797E-02 -.136E+00 -.379E+01
   -.496E+01 -.108E+02 -.685E+03   0.491E+01 0.108E+02 0.689E+03   0.607E-01 -.122E-01 -.374E+01
   -.155E+02 -.121E+02 0.714E+03   0.154E+02 0.122E+02 -.718E+03   0.409E-01 -.422E-01 0.355E+01
   -.646E+01 -.420E+01 0.712E+03   0.645E+01 0.424E+01 -.716E+03   0.624E-02 -.372E-01 0.357E+01
   -.147E+02 -.156E+02 -.685E+03   0.147E+02 0.156E+02 0.690E+03   0.629E-01 0.216E-01 -.374E+01
   -.171E+01 -.839E+01 -.689E+03   0.166E+01 0.840E+01 0.694E+03   0.522E-01 0.596E-02 -.371E+01
   -.770E+01 -.769E+01 0.707E+03   0.767E+01 0.767E+01 -.711E+03   0.281E-01 0.281E-01 0.357E+01
   -.193E+01 -.909E+01 0.708E+03   0.188E+01 0.910E+01 -.712E+03   0.681E-01 -.690E-02 0.357E+01
   -.738E+00 0.737E+00 0.124E+02   0.199E-11 0.119E-11 0.146E-10   0.248E-02 0.248E-02 -.129E+02

 POSITION                                       TOTAL-FORCE (eV/Angst)
      8.54545     12.59441     14.71338         0.079254     -0.078375      0.471509
      7.02105     14.11881     13.31306        -0.387320      0.386750      0.312807
     12.00492      9.13494     13.31306         0.386750     -0.387320      0.312807
     10.48052     10.65934     14.71338        -0.078375      0.079254      0.471509
      0.00000      0.00000      9.00000        -0.008343      0.008320      0.095202
      2.11389      2.11389      9.00000         0.000932      0.014795      0.096967
      0.00000      2.11389     11.11389         0.005209      0.005209     -0.063170
      2.11389      0.00000     11.11389        -0.007196      0.025189     -0.060861
      0.00000      4.22777      9.00000         0.014795      0.000932      0.096967
      2.11389      6.34166      9.00000         0.013255      0.000209      0.101094
      0.00000      6.34166     11.11389         0.023281      0.000570     -0.059611
      2.11389      4.22777     11.11389         0.010931      0.010931     -0.060635
      0.00000      8.45554      9.00000         0.019493     -0.004971      0.098978
      2.11389     10.56943      9.00000        -0.001478     -0.032387      0.101538
      0.00000     10.56943     11.11389         0.007650     -0.007092     -0.053024
      2.11389      8.45554     11.11389         0.027227     -0.009486     -0.049268
      0.00000     12.68331      9.00000        -0.021290     -0.009207      0.099665
      2.11389     14.79720      9.00000        -0.096702     -0.013696      0.104302
      0.00000     14.79720     11.11389        -0.036384     -0.005908     -0.053947
      2.11389     12.68331     11.11389        -0.037453     -0.037052     -0.034196
      0.00000     16.91108      9.00000        -0.038910      0.004906      0.097169
      2.11389     19.02497      9.00000        -0.031017      0.031006      0.090638
      0.00000     19.02497     11.11389        -0.025216      0.007179     -0.060857
      2.11389     16.91108     11.11389        -0.086394      0.010135     -0.049325
      4.22777      0.00000      9.00000        -0.004926      0.038879      0.097170
      6.34166      2.11389      9.00000        -0.004971      0.019493      0.098978
      4.22777      2.11389     11.11389         0.000570      0.023281     -0.059611
      6.34166      0.00000     11.11389         0.005897      0.036336     -0.053940
      4.22777      4.22777      9.00000         0.000209      0.013255      0.101094
      6.34166      6.34166      9.00000        -0.017608      0.011193      0.115814
      4.22777      6.34166     11.11389         0.017012      0.017012     -0.047256
      6.34166      4.22777     11.11389        -0.009486      0.027227     -0.049268
      4.22777      8.45554      9.00000         0.011193     -0.017608      0.115814
      6.34166     10.56943      9.00000         0.004469     -0.083937      0.171193
      4.22777     10.56943     11.11389         0.074037     -0.065280      0.008041
      6.34166      8.45554     11.11389         0.044191      0.044191      0.015586
      4.22777     12.68331      9.00000        -0.052988     -0.116021      0.079713
      6.34166     14.79720      9.00000         0.063903     -0.063808     -0.445046
      4.22777     14.79720     11.11389        -0.573441     -0.058084     -0.058938
      6.34166     12.68331     11.11389        -0.063542     -1.023256     -0.201491
      4.22777     16.91108      9.00000        -0.082006      0.082020      0.049643
      6.34166     19.02497      9.00000         0.013698      0.096653      0.104306
      4.22777     19.02497     11.11389        -0.010131      0.086373     -0.049319
      6.34166     16.91108     11.11389         0.058115      0.573480     -0.058983
      8.45554      0.00000      9.00000         0.009203      0.021243      0.099665
     10.56943      2.11389      9.00000        -0.009207     -0.021290      0.099665
      8.45554      2.11389     11.11389        -0.007092      0.007650     -0.053024
     10.56943      0.00000     11.11389         0.007080     -0.007704     -0.053022
      8.45554      4.22777      9.00000        -0.032387     -0.001478      0.101538
     10.56943      6.34166      9.00000        -0.116021     -0.052988      0.079713
      8.45554      6.34166     11.11389        -0.065280      0.074037      0.008041
     10.56943      4.22777     11.11389        -0.037052     -0.037453     -0.034196
      8.45554      8.45554      9.00000        -0.083937      0.004469      0.171193
     10.56943     10.56943      9.00000        -0.075839      0.075881      0.132853
      8.45554     10.56943     11.11389        -0.023973     -0.023973      0.236060
     10.56943      8.45554     11.11389        -1.023256     -0.063542     -0.201491
      8.45554     12.68331      9.00000         0.075881     -0.075839      0.132853
     10.56943     14.79720      9.00000         0.083947     -0.004472      0.171261
      8.45554     14.79720     11.11389         1.024351      0.063890     -0.202735
     10.56943     12.68331     11.11389         0.024075      0.024075      0.236258
[...]
     19.02497      6.34166     11.11389        -0.033857      0.004927      0.451070
     16.91108      6.34166      9.00000        -0.067284      0.029627     -0.483837
     19.02497      4.22777      9.00000        -0.024046      0.012471     -0.490250
     16.91108      8.45554     11.11389        -0.079665     -0.024522      0.436694
     19.02497     10.56943     11.11389        -0.015920     -0.013054      0.445457
     16.91108     10.56943      9.00000        -0.042431     -0.049774     -0.496860
     19.02497      8.45554      9.00000        -0.033871     -0.004165     -0.492289
     16.91108     12.68331     11.11389        -0.002757     -0.038692      0.435651
     19.02497     14.79720     11.11389         0.017238     -0.003261      0.449611
     16.91108     14.79720      9.00000         0.011486     -0.011902     -0.498638
     19.02497     12.68331      9.00000         0.001811     -0.010384     -0.494975
     16.91108     16.91108     11.11389         0.017738      0.006142      0.449395
     19.02497     19.02497     11.11389         0.014673      0.001690      0.455645
     16.91108     19.02497      9.00000         0.007886      0.007886     -0.493199
     19.02497     16.91108      9.00000         0.019198     -0.001897     -0.492774
    total drift:                               -0.735639      0.739131     -0.501017

  FREE ENERGIE OF THE ION-ELECTRON SYSTEM (eV)
  free  energy   TOTEN  =      -748.85281153 eV

  energy  without entropy=     -748.85281153  energy(sigma->0) =     -748.85281153