 vasp.6.3.0 20Jan22 (build Apr  1 2022 16:44:48) complex
 executed on        HPECrayEX_GCC date 2023.01.10  00:45:32

 INCAR:
   SYSTEM = MgO-rocksalt
   ISMEAR = 0
   SIGMA = 0.05
   EDIFF = 1E-6
   ALGO = ALL
   ISTART = 0
   IBRION = -1
   NSW = 0
   ISYM = 2
   DIPOL = 0.5 0.5 0.5
   IDIPOL = 3
   LDIPOL = .TRUE.
   METAGGA = R2SCAN
   IVDW = 13
   VDW_S8 = 0.6019
   VDW_A1 = 0.5156
   VDW_A2 = 5.7734
   ENCUT = 520
   PREC = Accurate
   LASPH = .TRUE.
   LREAL = Auto
   ISPIN = 1
   NELM = 200
   NELMIN = 8
   NCORE = 4
   KPAR = 2
   LWAVE = .FALSE.
   LCHARG = .FALSE.

 POTCAR:    PAW_PBE Cu 22Jun2005
 POTCAR:    PAW_PBE Mg_pv 13Apr2007
 POTCAR:    PAW_PBE O 08Apr2002
 POTCAR:    PAW_PBE Cu 22Jun2005
   VRHFIN =Cu: d10 p1

   TITEL  = PAW_PBE Cu 22Jun2005
   POMASS =   63.546; ZVAL   =   11.000    mass and valenz
   ENMAX  =  295.446; ENMIN  =  221.585 eV

   TITEL  = PAW_PBE Mg_pv 13Apr2007
   POMASS =   24.305; ZVAL   =    8.000    mass and valenz
   ENMAX  =  403.929; ENMIN  =  302.947 eV

   TITEL  = PAW_PBE O 08Apr2002
   POMASS =   16.000; ZVAL   =    6.000    mass and valenz
   ENMAX  =  400.000; ENMIN  =  300.000 eV

 Optimization of the real space projectors (new method)

 maximal supplied QI-value         = 16.25
 optimisation between [QCUT,QGAM] = [ 11.54, 23.24] = [ 37.28,151.24] Ry
 Optimized for a Real-space Cutoff    1.53 Angstroem

   l    n(q)    QCUT    max X(q) W(low)/X(q) W(high)/X(q)  e(spline)
   2     10    11.539     4.610    0.96E-04    0.13E-03    0.19E-06
   2     10    11.539     8.522    0.16E-03    0.21E-03    0.28E-06
   0     11    11.539    51.609    0.45E-04    0.31E-04    0.11E-06
   0     11    11.539    27.747    0.39E-04    0.29E-04    0.10E-06
   1     10    11.539    20.408    0.70E-05    0.38E-04    0.18E-06
   1     10    11.539    13.425    0.66E-05    0.34E-04    0.17E-06
 Optimization of the real space projectors (new method)

[...]

   l    n(q)    QCUT    max X(q) W(low)/X(q) W(high)/X(q)  e(spline)
   1      8    11.527     2.974    0.44E-04    0.56E-04    0.12E-06
   1      8    11.527     4.279    0.12E-03    0.12E-03    0.26E-06
   0      9    11.527    16.381    0.46E-04    0.64E-04    0.78E-07
   0      9    11.527     5.611    0.26E-04    0.43E-04    0.55E-07
   2      8    11.527     4.652    0.22E-03    0.72E-04    0.47E-07
 Optimization of the real space projectors (new method)

 maximal supplied QI-value         = 24.76
 optimisation between [QCUT,QGAM] = [ 11.64, 23.27] = [ 37.91,151.63] Ry
 Optimized for a Real-space Cutoff    1.14 Angstroem

   l    n(q)    QCUT    max X(q) W(low)/X(q) W(high)/X(q)  e(spline)
   0      8    11.635    20.381    0.10E-03    0.33E-03    0.24E-06
   0      8    11.635    15.268    0.11E-03    0.35E-03    0.26E-06
   1      7    11.635     5.964    0.24E-03    0.31E-03    0.30E-06
   1      7    11.635     5.382    0.22E-03    0.25E-03    0.26E-06
  PAW_PBE Cu 22Jun2005                  :
  PAW_PBE Mg_pv 13Apr2007               :
  PAW_PBE O 08Apr2002                   :

 POSCAR: Cu Mg  O
  positions in direct lattice
  velocities in cartesian coordinates

 METAGGA = R2SCA    LMAXTAU =  6    LMIXTAU =  F

 WARNING: Using user supplied parameters
     VDW_S8 = 0.602
     VDW_A1 = 0.516
     VDW_A2 = 5.773
     because the xc functional is not supported. Required parameters not
     defined in the INCAR file will be replaced with PBE defaults ones.

 ion  position               nearest neighbor table
   1  0.400  0.421  0.593- 153 2.05   2 2.27  55 2.60
   2  0.401  0.506  0.657-   1 2.27   4 2.38   3 2.40
   3  0.401  0.614  0.691-   4 2.27   2 2.40
   4  0.400  0.594  0.590- 157 1.94   3 2.27   2 2.38
   5  0.000  0.000  0.407- 107 2.11 108 2.11 123 2.11 188 2.11 105 2.11
   6  0.100  0.100  0.407- 107 2.11 108 2.11 112 2.11 127 2.11 106 2.11
   7  0.000  0.100  0.503- 105 2.11 106 2.11 109 2.11 186 2.11 107 2.11
   8  0.100  0.000  0.503- 105 2.11 106 2.11 122 2.11 125 2.11 108 2.11
   9  0.000  0.200  0.407- 111 2.11 107 2.11 112 2.11 192 2.11 109 2.11
  10  0.100  0.300  0.407- 112 2.11 111 2.11 116 2.11 131 2.11 110 2.11
  11  0.000  0.300  0.503- 109 2.11 110 2.11 113 2.11 190 2.11 111 2.11
  12  0.100  0.200  0.503- 110 2.11 109 2.11 106 2.11 129 2.11 112 2.11
  13  0.000  0.400  0.407- 111 2.11 115 2.11 116 2.11 196 2.11 113 2.11
  14  0.100  0.500  0.407- 115 2.11 116 2.11 120 2.11 135 2.11 114 2.11
  15  0.000  0.500  0.503- 113 2.11 114 2.11 117 2.11 194 2.11 115 2.11
  16  0.100  0.400  0.503- 110 2.11 113 2.11 114 2.11 133 2.11 116 2.11
  17  0.000  0.600  0.407- 115 2.11 119 2.11 120 2.11 200 2.11 117 2.11
  18  0.100  0.700  0.407- 124 2.11 120 2.11 119 2.11 139 2.11 118 2.11
  19  0.000  0.700  0.503- 121 2.11 118 2.11 117 2.11 198 2.11 119 2.11
  20  0.100  0.600  0.503- 114 2.11 117 2.11 118 2.11 137 2.11 120 2.11
  21  0.000  0.800  0.407- 119 2.11 123 2.11 124 2.11 204 2.11 121 2.11
  22  0.100  0.900  0.407- 108 2.11 123 2.11 124 2.11 143 2.11 122 2.11
  23  0.000  0.900  0.503- 105 2.11 121 2.11 122 2.11 202 2.11 123 2.11
  24  0.100  0.800  0.503- 118 2.11 121 2.11 122 2.11 141 2.11 124 2.11
  25  0.200  0.000  0.407- 128 2.11 127 2.11 108 2.11 143 2.11 125 2.11
  26  0.300  0.100  0.407- 127 2.11 128 2.11 132 2.11 147 2.11 126 2.11
  27  0.200  0.100  0.503- 126 2.11 125 2.11 106 2.11 129 2.11 127 2.11
  28  0.300  0.000  0.503- 125 2.11 126 2.11 142 2.11 145 2.11 128 2.11
  29  0.200  0.200  0.407- 131 2.11 132 2.11 112 2.11 127 2.11 129 2.11
  30  0.300  0.300  0.407- 131 2.11 132 2.11 136 2.11 151 2.11 130 2.11
  31  0.200  0.300  0.503- 129 2.11 130 2.11 110 2.11 133 2.11 131 2.11
  32  0.300  0.200  0.503- 129 2.11 130 2.11 126 2.11 149 2.11 132 2.11
  33  0.200  0.400  0.407- 136 2.11 131 2.11 135 2.11 116 2.11 133 2.11
  34  0.300  0.500  0.407- 135 2.11 136 2.11 140 2.11 155 2.11 134 2.11
  35  0.200  0.500  0.503- 134 2.11 133 2.11 114 2.11 137 2.11 135 2.11
  36  0.300  0.400  0.503- 133 2.11 130 2.11 134 2.11 153 2.11 136 2.11
  37  0.200  0.600  0.407- 140 2.11 135 2.11 139 2.11 120 2.11 137 2.11
  38  0.300  0.700  0.407- 139 2.11 144 2.11 140 2.11 159 2.11 138 2.11
  39  0.200  0.700  0.503- 138 2.11 141 2.11 118 2.11 137 2.11 139 2.11
  40  0.300  0.600  0.503- 137 2.11 134 2.11 138 2.11 157 2.11 140 2.11
  41  0.200  0.800  0.407- 139 2.11 144 2.11 143 2.11 124 2.11 141 2.11
  42  0.300  0.900  0.407- 143 2.11 128 2.11 144 2.11 163 2.11 142 2.11
  43  0.200  0.900  0.503- 142 2.11 125 2.11 141 2.11 122 2.11 143 2.11
  44  0.300  0.800  0.503- 138 2.11 141 2.11 142 2.11 161 2.11 144 2.11
  45  0.400  0.000  0.407- 128 2.11 147 2.11 148 2.11 163 2.11 145 2.11
  46  0.500  0.100  0.407- 147 2.11 148 2.11 152 2.11 167 2.11 146 2.11
  47  0.400  0.100  0.503- 126 2.11 145 2.11 146 2.11 149 2.11 147 2.11
  48  0.500  0.000  0.503- 145 2.11 146 2.11 162 2.11 165 2.11 148 2.11
  49  0.400  0.200  0.407- 151 2.11 147 2.11 132 2.11 152 2.11 149 2.11
  50  0.500  0.300  0.407- 152 2.11 151 2.11 156 2.11 171 2.11 150 2.11
  51  0.400  0.300  0.503- 149 2.11 130 2.11 150 2.11 153 2.11 151 2.11
  52  0.500  0.200  0.503- 150 2.11 149 2.11 146 2.11 169 2.11 152 2.11
  53  0.400  0.400  0.407- 136 2.11 151 2.11 155 2.11 156 2.11 153 2.11
  54  0.500  0.500  0.407- 155 2.11 156 2.11 160 2.11 175 2.11 154 2.11
  55  0.400  0.500  0.503- 134 2.11 153 2.11 154 2.11 157 2.11 155 2.11   1 2.60
  56  0.500  0.400  0.503- 150 2.11 153 2.11 154 2.11 173 2.11 156 2.11
  57  0.400  0.600  0.407- 140 2.11 155 2.11 159 2.11 160 2.11 157 2.11
  58  0.500  0.700  0.407- 164 2.11 160 2.11 159 2.11 179 2.11 158 2.11
  59  0.400  0.700  0.503- 161 2.11 157 2.11 158 2.11 138 2.11 159 2.11
  60  0.500  0.600  0.503- 154 2.11 157 2.11 158 2.11 177 2.11 160 2.11
[...]
 190  0.900  0.300  0.503-  92 2.11  91 2.11  11 2.11  96 2.11  90 2.11
 191  0.800  0.300  0.407-  70 2.11  89 2.11  90 2.11  93 2.11  91 2.11
 192  0.900  0.200  0.407-  90 2.11  86 2.11  89 2.11   9 2.11  92 2.11
 193  0.800  0.400  0.503-  76 2.11  91 2.11  95 2.11  96 2.11  93 2.11
 194  0.900  0.500  0.503-  15 2.11  95 2.11  96 2.11 100 2.11  94 2.11
 195  0.800  0.500  0.407-  74 2.11  93 2.11  94 2.11  97 2.11  95 2.11
 196  0.900  0.400  0.407-  13 2.11  90 2.11  93 2.11  94 2.11  96 2.11
 197  0.800  0.600  0.503-  80 2.11  95 2.11  99 2.11 100 2.11  97 2.11
 198  0.900  0.700  0.503- 104 2.11  99 2.11 100 2.11  19 2.11  98 2.11
 199  0.800  0.700  0.407-  78 2.11 101 2.11  98 2.11  97 2.11  99 2.11
 200  0.900  0.600  0.407-  17 2.11  94 2.11  97 2.11  98 2.11 100 2.11
 201  0.800  0.800  0.503-  84 2.11  99 2.11 103 2.11 104 2.11 101 2.11
 202  0.900  0.900  0.503-  23 2.11  88 2.11 103 2.11 104 2.11 102 2.11
 203  0.800  0.900  0.407-  82 2.11  85 2.11 101 2.11 102 2.11 103 2.11
 204  0.900  0.800  0.407-  98 2.11  21 2.11 101 2.11 102 2.11 104 2.11

  LATTYP: Found a simple tetragonal cell.
 ALAT       =    21.1388521970
 C/A-ratio  =     1.0461251639

  Lattice vectors:

 A1 = (  21.1388521970,   0.0000000000,   0.0000000000)
 A2 = (   0.0000000000,  21.1388521970,   0.0000000000)
 A3 = (   0.0000000000,   0.0000000000,  22.1138852197)

Analysis of symmetry for initial positions (statically):
 Subroutine PRICEL returns:
 Original cell was already a primitive cell.

 Routine SETGRP: Setting up the symmetry group for a
 simple tetragonal supercell.

 Subroutine GETGRP returns: Found  1 space group operations
 (whereof  1 operations were pure point group operations)
 out of a pool of 16 trial point group operations.

The static configuration has the point symmetry C_1 .

Analysis of symmetry for dynamics (positions and initial velocities):
 Subroutine PRICEL returns:
 Original cell was already a primitive cell.

[...]

The dynamic configuration has the point symmetry C_1 .

Analysis of constrained symmetry for selective dynamics:
 Subroutine PRICEL returns:
 Original cell was already a primitive cell.

 Routine SETGRP: Setting up the symmetry group for a
 simple tetragonal supercell.

 Subroutine GETGRP returns: Found  1 space group operations
 (whereof  1 operations were pure point group operations)
 out of a pool of 16 trial point group operations.

The constrained configuration has the point symmetry C_1 .

 Subroutine INISYM returns: Found  1 space group operations
 (whereof  1 operations are pure point group operations),
 and found     1 'primitive' translations

                                     Primitive cell

  volume of cell :    9881.6133

  direct lattice vectors                    reciprocal lattice vectors
    21.138852197  0.000000000  0.000000000     0.047306258  0.000000000  0.000000000
     0.000000000 21.138852197  0.000000000     0.000000000  0.047306258  0.000000000
     0.000000000  0.000000000 22.113885220     0.000000000  0.000000000  0.045220457

  length of vectors
    21.138852197 21.138852197 22.113885220     0.047306258  0.047306258  0.045220457

  position of ions in fractional coordinates (direct lattice)
     0.400229282  0.421328702  0.592894010
     0.400626265  0.505728649  0.656597495
     0.400850837  0.613577871  0.691210184
     0.400248991  0.594204282  0.590315895
     0.000000000  0.000000000  0.406984115
     0.100000000  0.100000000  0.406984115
[...]
     54     -44.4657      2.00000
     55     -44.4646      2.00000
     56     -44.4642      2.00000
     57     -44.4636      2.00000
     58     -44.4604      2.00000
     59     -44.4600      2.00000
     60     -44.4598      2.00000
[...]
    946       6.9134      0.00000
    947       6.9192      0.00000
    948       6.9972      0.00000
    949       7.0787      0.00000
    950       7.1033      0.00000
    951       7.1889      0.00000
    952       7.2291      0.00000
    953       7.3292      0.00000
    954       7.3777      0.00000
    955       7.3785      0.00000
    956       7.4735      0.00000
    957       7.5447      0.00000
    958       7.5894      0.00000
    959       7.6504      0.00000
    960       7.7018      0.00000

 soft charge-density along one line, spin component           1
         0         1         2         3         4         5         6         7         8         9
 total charge-density along one line

------------------------ aborting loop because EDIFF is reached ----------------------------------------

  FORCE on cell =-STRESS in cart. coord.  units (eV):
  Direction    XX          YY          ZZ          XY          YZ          ZX
  Alpha Z  1394.80054  1394.80054  1394.80054
  Ewald  481518.80809483945.56047************     3.30592   512.32742     8.74192
  Hartree511659.14023513683.95406************     2.75048   418.11414     6.63646
  E(xc)   -8555.52931 -8555.07867 -8555.46721     0.00124     0.17996     0.00255
  Local  ************************************    -6.04823  -927.80078   -15.27258
  n-local -8771.07108 -8770.16540 -8896.04979     0.00151     0.10097    -0.00718
  augment  4090.74828  4084.18049  4022.25421    -0.00631    -1.74532    -0.05022
  Kinetic 23105.10696 23098.83656 23319.09449    -0.00241    -1.40339    -0.07161
  Fock        0.00000     0.00000     0.00000     0.00000     0.00000     0.00000
  vdW        -8.04781    -8.05362    -2.06426    -0.00001    -0.00135     0.00003
  Total    -227.57630  -228.79636   -20.22846     0.00218    -0.22835    -0.02063
  in kB     -36.89859   -37.09641    -3.27979     0.00035    -0.03702    -0.00335

 VOLUME and BASIS-vectors are now :
  energy-cutoff  :      520.00
  volume of cell :     9881.61
      direct lattice vectors                 reciprocal lattice vectors
    21.138852197  0.000000000  0.000000000     0.047306258  0.000000000  0.000000000
     0.000000000 21.138852197  0.000000000     0.000000000  0.047306258  0.000000000
     0.000000000  0.000000000 22.113885220     0.000000000  0.000000000  0.045220457

  length of vectors
    21.138852197 21.138852197 22.113885220     0.047306258  0.047306258  0.045220457

 FORCES acting on ions:
    Electron-Ion                     Ewald-Force                    Non-Local-Force
   0.145E+01 0.464E+03 -.201E+04   -.141E+01 -.456E+03 0.201E+04   -.463E-01 -.755E+01 -.788E+01
   -.175E+01 0.259E+03 -.217E+04   0.169E+01 -.262E+03 0.216E+04   0.537E-01 0.263E+01 0.767E+01
   -.278E+01 -.420E+03 -.212E+04   0.270E+01 0.413E+03 0.211E+04   0.470E-01 0.686E+01 0.126E+02
   0.287E+01 -.306E+03 -.175E+04   -.282E+01 0.306E+03 0.176E+04   -.535E-01 0.390E-01 -.676E+01
   0.744E+01 -.228E+01 0.937E+03   -.746E+01 0.229E+01 -.928E+03   0.158E-01 -.600E-02 -.756E+01
   0.138E+02 0.747E+01 0.940E+03   -.138E+02 -.748E+01 -.932E+03   0.337E-01 0.876E-02 -.756E+01
   0.982E+01 0.630E+01 -.919E+03   -.984E+01 -.629E+01 0.911E+03   0.141E-01 -.545E-02 0.754E+01
   0.159E+02 -.428E+01 -.917E+03   -.160E+02 0.429E+01 0.909E+03   0.191E-01 -.787E-02 0.754E+01
   0.105E+02 0.110E+02 0.939E+03   -.105E+02 -.110E+02 -.931E+03   0.278E-01 0.384E-02 -.756E+01
   0.281E+02 0.202E+02 0.951E+03   -.282E+02 -.203E+02 -.943E+03   0.104E+00 0.211E-01 -.759E+01
   0.198E+02 0.167E+02 -.914E+03   -.198E+02 -.167E+02 0.906E+03   0.172E-01 -.290E-02 0.753E+01
   0.257E+02 0.221E+02 -.913E+03   -.257E+02 -.221E+02 0.905E+03   0.467E-01 -.395E-02 0.752E+01
   0.188E+02 0.100E+02 0.946E+03   -.189E+02 -.100E+02 -.938E+03   0.472E-01 0.799E-02 -.757E+01
   0.436E+02 0.414E+01 0.964E+03   -.438E+02 -.416E+01 -.956E+03   0.154E+00 0.145E-01 -.761E+01
   0.305E+02 0.365E+01 -.909E+03   -.306E+02 -.366E+01 0.901E+03   0.161E-01 0.752E-02 0.752E+01
   0.589E+02 0.237E+02 -.898E+03   -.590E+02 -.237E+02 0.890E+03   0.381E-01 0.253E-03 0.749E+01
   0.204E+02 -.594E+01 0.948E+03   -.205E+02 0.593E+01 -.940E+03   0.575E-01 0.338E-02 -.757E+01
   0.332E+02 -.189E+02 0.956E+03   -.334E+02 0.189E+02 -.948E+03   0.132E+00 -.198E-01 -.759E+01
   0.238E+02 -.153E+02 -.911E+03   -.239E+02 0.153E+02 0.904E+03   0.273E-01 0.561E-02 0.753E+01
   0.666E+02 -.144E+02 -.893E+03   -.667E+02 0.144E+02 0.885E+03   0.765E-01 0.185E-01 0.749E+01
   0.125E+02 -.128E+02 0.941E+03   -.126E+02 0.128E+02 -.933E+03   0.350E-01 -.916E-02 -.756E+01
   0.160E+02 -.130E+02 0.942E+03   -.160E+02 0.130E+02 -.934E+03   0.390E-01 -.246E-01 -.756E+01
   0.116E+02 -.114E+02 -.918E+03   -.116E+02 0.114E+02 0.910E+03   0.167E-01 -.486E-02 0.754E+01
   0.332E+02 -.271E+02 -.908E+03   -.333E+02 0.271E+02 0.900E+03   0.573E-01 -.680E-02 0.752E+01
   0.137E+02 -.439E+01 0.943E+03   -.138E+02 0.441E+01 -.935E+03   0.278E-01 -.117E-01 -.757E+01
   0.102E+02 0.154E+02 0.949E+03   -.102E+02 -.155E+02 -.940E+03   0.264E-01 0.706E-01 -.758E+01
   0.197E+02 0.157E+02 -.913E+03   -.198E+02 -.157E+02 0.905E+03   0.267E-01 0.211E-01 0.753E+01
   0.118E+02 -.866E+01 -.910E+03   -.118E+02 0.867E+01 0.902E+03   0.121E-01 -.546E-02 0.753E+01
   0.226E+02 0.256E+02 0.952E+03   -.228E+02 -.257E+02 -.944E+03   0.870E-01 0.704E-01 -.758E+01
   0.308E+02 0.526E+02 0.992E+03   -.312E+02 -.530E+02 -.984E+03   0.229E+00 0.269E+00 -.757E+01
   0.624E+02 0.559E+02 -.888E+03   -.627E+02 -.559E+02 0.880E+03   0.214E+00 -.251E-01 0.746E+01
   0.267E+02 0.610E+02 -.895E+03   -.268E+02 -.612E+02 0.887E+03   0.406E-01 0.181E+00 0.749E+01
   0.539E+02 0.279E+02 0.987E+03   -.543E+02 -.279E+02 -.979E+03   0.364E+00 0.612E-01 -.772E+01
   0.605E+02 0.107E+02 0.106E+04   -.612E+02 -.108E+02 -.105E+04   0.496E+00 0.898E-01 -.778E+01
   0.129E+03 0.134E+02 -.844E+03   -.129E+03 -.135E+02 0.837E+03   0.204E+00 0.352E-01 0.737E+01
   0.157E+03 0.107E+03 -.748E+03   -.160E+03 -.107E+03 0.741E+03   0.168E+01 -.188E-01 0.673E+01
   0.600E+02 -.181E+02 0.995E+03   -.605E+02 0.181E+02 -.987E+03   0.461E+00 -.213E-01 -.772E+01
   0.385E+02 -.528E+02 0.101E+04   -.389E+02 0.532E+02 -.100E+04   0.314E+00 -.329E+00 -.758E+01
   0.818E+02 -.570E+02 -.871E+03   -.822E+02 0.570E+02 0.863E+03   0.267E+00 0.103E-01 0.745E+01
   0.186E+03 -.721E+02 -.705E+03   -.189E+03 0.720E+02 0.698E+03   0.246E+01 0.412E-01 0.699E+01
   0.285E+02 -.310E+02 0.960E+03   -.286E+02 0.311E+02 -.952E+03   0.109E+00 -.978E-01 -.758E+01
   0.124E+02 -.263E+02 0.954E+03   -.124E+02 0.264E+02 -.946E+03   0.276E-01 -.110E+00 -.759E+01
   0.248E+02 -.284E+02 -.908E+03   -.248E+02 0.284E+02 0.900E+03   0.235E-01 -.427E-01 0.752E+01
   0.387E+02 -.816E+02 -.875E+03   -.387E+02 0.819E+02 0.867E+03   0.670E-02 -.252E+00 0.745E+01
   0.453E-01 -.620E+01 0.948E+03   -.449E-01 0.622E+01 -.940E+03   -.329E-03 -.130E-01 -.757E+01
   -.101E+02 0.154E+02 0.949E+03   0.102E+02 -.155E+02 -.941E+03   -.270E-01 0.703E-01 -.758E+01
   0.639E-01 0.261E+02 -.907E+03   -.634E-01 -.262E+02 0.899E+03   -.504E-03 0.652E-01 0.752E+01
   -.117E+02 -.869E+01 -.910E+03   0.117E+02 0.870E+01 0.902E+03   -.126E-01 -.534E-02 0.753E+01
   0.735E-01 0.422E+02 0.967E+03   -.727E-01 -.426E+02 -.959E+03   -.584E-03 0.303E+00 -.763E+01
   -.307E+02 0.528E+02 0.993E+03   0.310E+02 -.531E+02 -.985E+03   -.230E+00 0.268E+00 -.757E+01
   0.338E+00 0.159E+03 -.811E+03   -.335E+00 -.161E+03 0.803E+03   -.224E-02 0.168E+01 0.741E+01
   -.266E+02 0.611E+02 -.894E+03   0.266E+02 -.613E+02 0.887E+03   -.417E-01 0.179E+00 0.749E+01
   0.238E+00 0.550E+02 0.107E+04   -.235E+00 -.555E+02 -.106E+04   -.189E-02 0.370E+00 -.578E+01
   -.602E+02 0.108E+02 0.106E+04   0.609E+02 -.109E+02 -.105E+04   -.499E+00 0.893E-01 -.779E+01
   0.128E+01 0.259E+02 -.514E+03   -.127E+01 -.271E+02 0.509E+03   -.714E-02 0.971E+00 0.422E+01
   -.157E+03 0.108E+03 -.747E+03   0.160E+03 -.108E+03 0.740E+03   -.169E+01 -.229E-01 0.672E+01
   0.296E+00 -.378E+02 0.109E+04   -.293E+00 0.380E+02 -.108E+04   -.257E-02 -.219E+00 -.492E+01
   -.383E+02 -.529E+02 0.101E+04   0.387E+02 0.534E+02 -.100E+04   -.316E+00 -.328E+00 -.758E+01
   0.621E+00 -.187E+03 -.741E+03   -.616E+00 0.190E+03 0.734E+03   -.425E-02 -.238E+01 0.689E+01
   -.186E+03 -.725E+02 -.704E+03   0.189E+03 0.724E+02 0.696E+03   -.246E+01 0.424E-01 0.697E+01
[...]
   -.110E+02 0.981E+01 0.709E+03   0.110E+02 -.982E+01 -.712E+03   -.310E-01 0.813E-02 0.340E+01
   -.347E-01 0.694E+01 0.705E+03   0.344E-01 -.694E+01 -.709E+03   0.431E-03 0.170E-02 0.341E+01
   -.201E+02 0.992E+01 -.685E+03   0.201E+02 -.992E+01 0.689E+03   -.184E-01 0.209E-02 -.356E+01
   -.101E+00 0.216E+01 -.686E+03   0.100E+00 -.216E+01 0.690E+03   0.951E-03 0.728E-02 -.355E+01
   -.161E+02 0.200E+01 0.713E+03   0.161E+02 -.201E+01 -.717E+03   -.403E-01 0.985E-02 0.339E+01
   -.612E-01 0.621E+01 0.709E+03   0.606E-01 -.621E+01 -.712E+03   0.802E-03 0.636E-02 0.340E+01
   -.223E+02 -.577E+01 -.683E+03   0.223E+02 0.576E+01 0.687E+03   -.251E-01 0.113E-01 -.356E+01
   -.855E-01 -.906E+01 -.688E+03   0.850E-01 0.906E+01 0.691E+03   0.751E-03 0.477E-02 -.354E+01
   -.128E+02 -.891E+01 0.710E+03   0.129E+02 0.891E+01 -.714E+03   -.398E-01 -.627E-02 0.340E+01
   -.701E-01 -.360E+01 0.709E+03   0.695E-01 0.360E+01 -.713E+03   0.818E-03 0.450E-02 0.340E+01
   -.128E+02 -.123E+02 -.688E+03   0.128E+02 0.123E+02 0.692E+03   -.227E-01 -.402E-02 -.353E+01
   -.444E-01 -.707E+01 -.691E+03   0.441E-01 0.708E+01 0.695E+03   0.429E-03 -.491E-02 -.352E+01
   -.686E+01 -.675E+01 0.705E+03   0.687E+01 0.676E+01 -.709E+03   -.223E-01 -.127E-01 0.341E+01
   -.463E-01 -.805E+01 0.706E+03   0.459E-01 0.805E+01 -.710E+03   0.559E-03 -.685E-02 0.341E+01
   -.828E-01 -.258E+01 -.485E+00   0.165E-11 0.682E-12 0.364E-11   0.491E-01 0.257E+01 0.328E+01

 POSITION                                       TOTAL-FORCE (eV/Angst)
      8.46039      8.90641     13.11119        -0.003827      0.118084     -0.103687
      8.46878     10.69052     14.51992        -0.008759      0.125295     -0.186357
      8.47353     12.97033     15.28534        -0.024327     -0.170016     -0.228048
      8.46080     12.56080     13.05418        -0.002948     -0.086106      0.062009
      0.00000      0.00000      9.00000        -0.004321      0.001669      0.536548
      2.11389      2.11389      9.00000        -0.009357     -0.002678      0.538002
      0.00000      2.11389     11.11389        -0.003658      0.001560     -0.484623
      2.11389      0.00000     11.11389        -0.005206      0.002140     -0.483499
      0.00000      4.22777      9.00000        -0.007471     -0.001025      0.538405
      2.11389      6.34166      9.00000        -0.028004     -0.005729      0.546222
      0.00000      6.34166     11.11389        -0.003900      0.001095     -0.479202
      2.11389      4.22777     11.11389        -0.011989      0.001395     -0.476928
      0.00000      8.45554      9.00000        -0.012764     -0.002086      0.541748
      2.11389     10.56943      9.00000        -0.042346     -0.004308      0.552726
      0.00000     10.56943     11.11389        -0.002898     -0.002215     -0.475076
      2.11389      8.45554     11.11389        -0.005938      0.001096     -0.457389
      0.00000     12.68331      9.00000        -0.015317     -0.001128      0.542009
      2.11389     14.79720      9.00000        -0.035619      0.005709      0.546503
      0.00000     14.79720     11.11389        -0.006528     -0.001752     -0.479234
      2.11389     12.68331     11.11389        -0.015292     -0.006044     -0.457738
      0.00000     16.91108      9.00000        -0.009421      0.002584      0.538504
      2.11389     19.02497      9.00000        -0.010922      0.007009      0.538220
      0.00000     19.02497     11.11389        -0.004345      0.001307     -0.484549
      2.11389     16.91108     11.11389        -0.014596      0.001609     -0.476060
      4.22777      0.00000      9.00000        -0.007812      0.003090      0.539259
      6.34166      2.11389      9.00000        -0.007746     -0.019455      0.542075
      4.22777      2.11389     11.11389        -0.007422     -0.005237     -0.478076
      6.34166      0.00000     11.11389        -0.003308      0.001159     -0.477980
      4.22777      4.22777      9.00000        -0.025327     -0.020729      0.541405
      6.34166      6.34166      9.00000        -0.076780     -0.086284      0.521612
      4.22777      6.34166     11.11389        -0.051314      0.012365     -0.434194
      6.34166      4.22777     11.11389        -0.011317     -0.045887     -0.452065
      4.22777      8.45554      9.00000        -0.095080     -0.015913      0.573349
      6.34166     10.56943      9.00000        -0.168914     -0.029694      0.542303
      4.22777     10.56943     11.11389        -0.038782     -0.011941     -0.370804
      6.34166      8.45554     11.11389        -0.622266      0.029433     -0.293552
      4.22777     12.68331      9.00000        -0.117955      0.004644      0.573863
      6.34166     14.79720      9.00000        -0.104831      0.108594      0.517729
      4.22777     14.79720     11.11389        -0.063425     -0.006771     -0.426726
      6.34166     12.68331     11.11389        -0.905358     -0.018507     -0.419145
      4.22777     16.91108      9.00000        -0.031414      0.028430      0.542794
      6.34166     19.02497      9.00000        -0.007841      0.029517      0.545358
      4.22777     19.02497     11.11389        -0.006385      0.010646     -0.476265
      6.34166     16.91108     11.11389         0.002443      0.057605     -0.427564
      8.45554      0.00000      9.00000         0.000255      0.003507      0.541294
     10.56943      2.11389      9.00000         0.008243     -0.019312      0.542012
      8.45554      2.11389     11.11389         0.000228     -0.015545     -0.472107
     10.56943      0.00000     11.11389         0.003734      0.001143     -0.477962
      8.45554      4.22777      9.00000         0.000387     -0.078931      0.550511
     10.56943      6.34166      9.00000         0.077482     -0.086051      0.521885
      8.45554      6.34166     11.11389         0.000805     -0.559075     -0.447622
     10.56943      4.22777     11.11389         0.011963     -0.045427     -0.451904
      8.45554      8.45554      9.00000         0.000828     -0.084819      0.130331
     10.56943     10.56943      9.00000         0.169954     -0.029593      0.543123
      8.45554     10.56943     11.11389         0.001230     -0.150518     -0.231599
     10.56943      8.45554     11.11389         0.626012      0.030214     -0.292005
      8.45554     12.68331      9.00000         0.000854      0.047736     -0.048752
     10.56943     14.79720      9.00000         0.105668      0.108364      0.518379
      8.45554     14.79720     11.11389         0.001527      0.835050     -0.335417
     10.56943     12.68331     11.11389         0.910734     -0.018452     -0.418382
[...]
     19.02497      6.34166     11.11389         0.000351     -0.000569      0.322522
     16.91108      6.34166      9.00000        -0.008430      0.002254     -0.380646
     19.02497      4.22777      9.00000         0.000310      0.000476     -0.377912
     16.91108      8.45554     11.11389        -0.005008      0.000626      0.316033
     19.02497     10.56943     11.11389         0.000430      0.002012      0.319973
     16.91108     10.56943      9.00000        -0.011016      0.002714     -0.383302
     19.02497      8.45554      9.00000         0.000386      0.001779     -0.380163
     16.91108     12.68331     11.11389        -0.006870      0.003120      0.315940
     19.02497     14.79720     11.11389         0.000382      0.001315      0.322552
     16.91108     14.79720      9.00000        -0.010849     -0.001721     -0.380640
     19.02497     12.68331      9.00000         0.000397      0.001262     -0.380163
     16.91108     16.91108     11.11389        -0.006156     -0.001117      0.322870
     19.02497     19.02497     11.11389         0.000276     -0.001375      0.326299
     16.91108     19.02497      9.00000        -0.005983     -0.003499     -0.377500
     19.02497     16.91108      9.00000         0.000304     -0.001908     -0.377905
    total drift:                               -0.033738     -0.001600      2.790766

  FREE ENERGIE OF THE ION-ELECTRON SYSTEM (eV)
  free  energy   TOTEN  =     -1593.43122930 eV

  energy  without entropy=    -1593.43122930  energy(sigma->0) =    -1593.43122930