 vasp.6.3.0 20Jan22 (build Apr  1 2022 16:44:48) complex
 executed on        HPECrayEX_GCC date 2022.11.20  06:43:29

 INCAR:
   SYSTEM = MgO-rocksalt
   ISMEAR = 0
   SIGMA = 0.05
   EDIFF = 1E-6
   ALGO = ALL
   ISTART = 0
   IBRION = -1
   NSW = 0
   ISYM = 2
   DIPOL = 0.5 0.5 0.5
   IDIPOL = 3
   LDIPOL = .TRUE.
   LHFCALC = .TRUE.
   GGA = PE
   IVDW = 21
   VDW_SR = 0.96
   ENCUT = 520
   PREC = Accurate
   LASPH = .TRUE.
   LREAL = Auto
   ISPIN = 1
   NELM = 200
   NELMIN = 8
   NCORE = 4
   KPAR = 2
   LWAVE = .FALSE.
   LCHARG = .FALSE.

 POTCAR:    PAW_PBE Cu 22Jun2005
 POTCAR:    PAW_PBE Mg_pv 13Apr2007
 POTCAR:    PAW_PBE O 08Apr2002
|           W    W    AA    RRRRR   N    N  II  N    N   GGGG   !!!           |
|           W    W   A  A   R    R  NN   N  II  NN   N  G    G  !!!           |
|           W    W  A    A  R    R  N N  N  II  N N  N  G       !!!           |
|           W WW W  AAAAAA  RRRRR   N  N N  II  N  N N  G  GGG   !            |
|           WW  WW  A    A  R   R   N   NN  II  N   NN  G    G                |
|           W    W  A    A  R    R  N    N  II  N    N   GGGG   !!!           |
|     You have selected ISYM=2 for a HF type calculation. This will           |
|     symmetrize the charge density but not the exchange potential. I         |
|     suggest to use ISYM=3 instead. This uses symmetry to obtain the         |
|     orbitals at all k-points in the Brillouin zone, but does not apply      |
|     symmetry to the Hartree potential directly. The resultant charge        |
|     might have lower symmetry than the crystal but, at least, Hartree       |
|     and exchange are fully compatible.                                      |

   TITEL  = PAW_PBE Cu 22Jun2005
   POMASS =   63.546; ZVAL   =   11.000    mass and valenz
   ENMAX  =  295.446; ENMIN  =  221.585 eV

   TITEL  = PAW_PBE Mg_pv 13Apr2007
   POMASS =   24.305; ZVAL   =    8.000    mass and valenz
   ENMAX  =  403.929; ENMIN  =  302.947 eV

   TITEL  = PAW_PBE O 08Apr2002
   POMASS =   16.000; ZVAL   =    6.000    mass and valenz
   ENMAX  =  400.000; ENMIN  =  300.000 eV

 Optimization of the real space projectors (new method)

 maximal supplied QI-value         = 16.25
 optimisation between [QCUT,QGAM] = [ 11.54, 23.24] = [ 37.28,151.24] Ry
 Optimized for a Real-space Cutoff    1.53 Angstroem

   l    n(q)    QCUT    max X(q) W(low)/X(q) W(high)/X(q)  e(spline)
   2     10    11.539     4.610    0.96E-04    0.13E-03    0.19E-06
   2     10    11.539     8.522    0.16E-03    0.21E-03    0.28E-06
   0     11    11.539    51.609    0.45E-04    0.31E-04    0.11E-06
   0     11    11.539    27.747    0.39E-04    0.29E-04    0.10E-06
   1     10    11.539    20.408    0.70E-05    0.38E-04    0.18E-06
   1     10    11.539    13.425    0.66E-05    0.34E-04    0.17E-06
 Optimization of the real space projectors (new method)

[...]

   l    n(q)    QCUT    max X(q) W(low)/X(q) W(high)/X(q)  e(spline)
   1      8    11.527     2.974    0.44E-04    0.56E-04    0.12E-06
   1      8    11.527     4.279    0.12E-03    0.12E-03    0.26E-06
   0      9    11.527    16.381    0.46E-04    0.64E-04    0.78E-07
   0      9    11.527     5.611    0.26E-04    0.43E-04    0.55E-07
   2      8    11.527     4.652    0.22E-03    0.72E-04    0.47E-07
 Optimization of the real space projectors (new method)

 maximal supplied QI-value         = 24.76
 optimisation between [QCUT,QGAM] = [ 11.64, 23.27] = [ 37.91,151.63] Ry
 Optimized for a Real-space Cutoff    1.14 Angstroem

   l    n(q)    QCUT    max X(q) W(low)/X(q) W(high)/X(q)  e(spline)
   0      8    11.635    20.381    0.10E-03    0.33E-03    0.24E-06
   0      8    11.635    15.268    0.11E-03    0.35E-03    0.26E-06
   1      7    11.635     5.964    0.24E-03    0.31E-03    0.30E-06
   1      7    11.635     5.382    0.22E-03    0.25E-03    0.26E-06
  PAW_PBE Cu 22Jun2005                  :
  PAW_PBE Mg_pv 13Apr2007               :
  PAW_PBE O 08Apr2002                   :

 POSCAR: Cu Mg  O
  positions in direct lattice
 exchange correlation table for  LEXCH =        8
   RHO(1)=    0.500       N(1)  =     2000
   RHO(2)=  100.500       N(2)  =     4000

 ion  position               nearest neighbor table
   1  0.538  0.562  0.615-   2 2.24
   2  0.462  0.638  0.615-   1 2.24
   3  0.000  0.000  0.407- 105 2.11 106 2.11 121 2.11 186 2.11 103 2.11
   4  0.100  0.100  0.407- 105 2.11 106 2.11 110 2.11 125 2.11 104 2.11
   5  0.000  0.100  0.503- 103 2.11 104 2.11 107 2.11 184 2.11 105 2.11
   6  0.100  0.000  0.503- 103 2.11 104 2.11 120 2.11 123 2.11 106 2.11
   7  0.000  0.200  0.407- 109 2.11 105 2.11 110 2.11 190 2.11 107 2.11
   8  0.100  0.300  0.407- 110 2.11 109 2.11 114 2.11 129 2.11 108 2.11
   9  0.000  0.300  0.503- 107 2.11 108 2.11 111 2.11 188 2.11 109 2.11
  10  0.100  0.200  0.503- 108 2.11 107 2.11 104 2.11 127 2.11 110 2.11
  11  0.000  0.400  0.407- 109 2.11 113 2.11 114 2.11 194 2.11 111 2.11
  12  0.100  0.500  0.407- 113 2.11 114 2.11 118 2.11 133 2.11 112 2.11
  13  0.000  0.500  0.503- 111 2.11 112 2.11 115 2.11 192 2.11 113 2.11
  14  0.100  0.400  0.503- 108 2.11 111 2.11 112 2.11 131 2.11 114 2.11
  15  0.000  0.600  0.407- 113 2.11 117 2.11 118 2.11 198 2.11 115 2.11
  16  0.100  0.700  0.407- 122 2.11 118 2.11 117 2.11 137 2.11 116 2.11
  17  0.000  0.700  0.503- 119 2.11 116 2.11 115 2.11 196 2.11 117 2.11
  18  0.100  0.600  0.503- 112 2.11 115 2.11 116 2.11 135 2.11 118 2.11
  19  0.000  0.800  0.407- 117 2.11 121 2.11 122 2.11 202 2.11 119 2.11
  20  0.100  0.900  0.407- 106 2.11 121 2.11 122 2.11 141 2.11 120 2.11
  21  0.000  0.900  0.503- 103 2.11 119 2.11 120 2.11 200 2.11 121 2.11
  22  0.100  0.800  0.503- 116 2.11 119 2.11 120 2.11 139 2.11 122 2.11
  23  0.200  0.000  0.407- 126 2.11 125 2.11 106 2.11 141 2.11 123 2.11
  24  0.300  0.100  0.407- 125 2.11 126 2.11 130 2.11 145 2.11 124 2.11
  25  0.200  0.100  0.503- 124 2.11 123 2.11 104 2.11 127 2.11 125 2.11
  26  0.300  0.000  0.503- 123 2.11 124 2.11 140 2.11 143 2.11 126 2.11
  27  0.200  0.200  0.407- 129 2.11 130 2.11 110 2.11 125 2.11 127 2.11
  28  0.300  0.300  0.407- 129 2.11 130 2.11 134 2.11 149 2.11 128 2.11
  29  0.200  0.300  0.503- 127 2.11 128 2.11 108 2.11 131 2.11 129 2.11
  30  0.300  0.200  0.503- 127 2.11 128 2.11 124 2.11 147 2.11 130 2.11
  31  0.200  0.400  0.407- 134 2.11 129 2.11 133 2.11 114 2.11 131 2.11
  32  0.300  0.500  0.407- 133 2.11 134 2.11 138 2.11 153 2.11 132 2.11
  33  0.200  0.500  0.503- 132 2.11 131 2.11 112 2.11 135 2.11 133 2.11
  34  0.300  0.400  0.503- 131 2.11 128 2.11 132 2.11 151 2.11 134 2.11
  35  0.200  0.600  0.407- 138 2.11 133 2.11 137 2.11 118 2.11 135 2.11
  36  0.300  0.700  0.407- 137 2.11 142 2.11 138 2.11 157 2.11 136 2.11
  37  0.200  0.700  0.503- 136 2.11 139 2.11 116 2.11 135 2.11 137 2.11
  38  0.300  0.600  0.503- 135 2.11 132 2.11 136 2.11 155 2.11 138 2.11
  39  0.200  0.800  0.407- 137 2.11 142 2.11 141 2.11 122 2.11 139 2.11
  40  0.300  0.900  0.407- 141 2.11 126 2.11 142 2.11 161 2.11 140 2.11
  41  0.200  0.900  0.503- 140 2.11 123 2.11 139 2.11 120 2.11 141 2.11
  42  0.300  0.800  0.503- 136 2.11 139 2.11 140 2.11 159 2.11 142 2.11
  43  0.400  0.000  0.407- 126 2.11 145 2.11 146 2.11 161 2.11 143 2.11
  44  0.500  0.100  0.407- 145 2.11 146 2.11 150 2.11 165 2.11 144 2.11
  45  0.400  0.100  0.503- 124 2.11 143 2.11 144 2.11 147 2.11 145 2.11
  46  0.500  0.000  0.503- 143 2.11 144 2.11 160 2.11 163 2.11 146 2.11
  47  0.400  0.200  0.407- 149 2.11 145 2.11 130 2.11 150 2.11 147 2.11
  48  0.500  0.300  0.407- 150 2.11 149 2.11 154 2.11 169 2.11 148 2.11
  49  0.400  0.300  0.503- 147 2.11 128 2.11 148 2.11 151 2.11 149 2.11
  50  0.500  0.200  0.503- 148 2.11 147 2.11 144 2.11 167 2.11 150 2.11
  51  0.400  0.400  0.407- 134 2.11 149 2.11 153 2.11 154 2.11 151 2.11
  52  0.500  0.500  0.407- 153 2.11 154 2.11 158 2.11 173 2.11 152 2.11
  53  0.400  0.500  0.503- 132 2.11 151 2.11 152 2.11 155 2.11 153 2.11
  54  0.500  0.400  0.503- 148 2.11 151 2.11 152 2.11 171 2.11 154 2.11
  55  0.400  0.600  0.407- 138 2.11 153 2.11 157 2.11 158 2.11 155 2.11
  56  0.500  0.700  0.407- 162 2.11 158 2.11 157 2.11 177 2.11 156 2.11
  57  0.400  0.700  0.503- 159 2.11 155 2.11 156 2.11 136 2.11 157 2.11
  58  0.500  0.600  0.503- 152 2.11 155 2.11 156 2.11 175 2.11 158 2.11
  59  0.400  0.800  0.407- 157 2.11 142 2.11 161 2.11 162 2.11 159 2.11
  60  0.500  0.900  0.407- 146 2.11 161 2.11 162 2.11 181 2.11 160 2.11
[...]
 188  0.900  0.300  0.503-  90 2.11  89 2.11   9 2.11  94 2.11  88 2.11
 189  0.800  0.300  0.407-  68 2.11  87 2.11  88 2.11  91 2.11  89 2.11
 190  0.900  0.200  0.407-  88 2.11  84 2.11  87 2.11   7 2.11  90 2.11
 191  0.800  0.400  0.503-  74 2.11  89 2.11  93 2.11  94 2.11  91 2.11
 192  0.900  0.500  0.503-  13 2.11  93 2.11  94 2.11  98 2.11  92 2.11
 193  0.800  0.500  0.407-  72 2.11  91 2.11  92 2.11  95 2.11  93 2.11
 194  0.900  0.400  0.407-  11 2.11  88 2.11  91 2.11  92 2.11  94 2.11
 195  0.800  0.600  0.503-  78 2.11  93 2.11  97 2.11  98 2.11  95 2.11
 196  0.900  0.700  0.503- 102 2.11  97 2.11  98 2.11  17 2.11  96 2.11
 197  0.800  0.700  0.407-  76 2.11  99 2.11  96 2.11  95 2.11  97 2.11
 198  0.900  0.600  0.407-  15 2.11  92 2.11  95 2.11  96 2.11  98 2.11
 199  0.800  0.800  0.503-  82 2.11  97 2.11 101 2.11 102 2.11  99 2.11
 200  0.900  0.900  0.503-  21 2.11  86 2.11 101 2.11 102 2.11 100 2.11
 201  0.800  0.900  0.407-  80 2.11  83 2.11  99 2.11 100 2.11 101 2.11
 202  0.900  0.800  0.407-  96 2.11  19 2.11  99 2.11 100 2.11 102 2.11

  LATTYP: Found a simple tetragonal cell.
 ALAT       =    21.1388521970
 C/A-ratio  =     1.0461251639

  Lattice vectors:

 A1 = (  21.1388521970,   0.0000000000,   0.0000000000)
 A2 = (   0.0000000000,  21.1388521970,   0.0000000000)
 A3 = (   0.0000000000,   0.0000000000,  22.1138852197)

Analysis of symmetry for initial positions (statically):
 Subroutine PRICEL returns:
 Original cell was already a primitive cell.

 Routine SETGRP: Setting up the symmetry group for a
 simple tetragonal supercell.

 Subroutine GETGRP returns: Found  4 space group operations
 (whereof  1 operations were pure point group operations)
 out of a pool of 16 trial point group operations.

The static configuration has the point symmetry C_1 .
 The point group associated with its full space group is C_2v.

Analysis of symmetry for dynamics (positions and initial velocities):
 Subroutine PRICEL returns:
 Original cell was already a primitive cell.

 Routine SETGRP: Setting up the symmetry group for a
 simple tetragonal supercell.

 Subroutine GETGRP returns: Found  4 space group operations
 (whereof  1 operations were pure point group operations)
 out of a pool of 16 trial point group operations.

The dynamic configuration has the point symmetry C_1 .
 The point group associated with its full space group is C_2v.

 Subroutine INISYM returns: Found  4 space group operations
 (whereof  1 operations are pure point group operations),
 and found     1 'primitive' translations

                                     Primitive cell

  volume of cell :    9881.6133

  direct lattice vectors                    reciprocal lattice vectors
[...]
   Mg          1.378          1.540          3.328          0.04687673
   Mg          1.376          1.540          3.326          0.04685168
   Mg          1.371          1.539          3.320          0.04675719
   Mg          1.377          1.540          3.328          0.04687099
   Mg          1.376          1.540          3.326          0.04685168
   Mg          1.376          1.540          3.326          0.04685168
   Mg          1.381          1.541          3.332          0.04693437
   Mg          1.397          1.543          3.352          0.04720589
   Mg          1.377          1.540          3.328          0.04687075
   Mg          1.378          1.540          3.328          0.04687239
[...]
   O         199.613          4.884         19.316          3.57710161
   O         199.592          4.884         19.315          3.57690860
   O         199.615          4.884         19.316          3.57711920
   O         199.710          4.885         19.321          3.57796999
   O         199.602          4.884         19.316          3.57699555
   O         199.544          4.884         19.313          3.57648328
   O         199.600          4.884         19.316          3.57697910
   O         199.993          4.886         19.335          3.58049936
   O         199.534          4.884         19.312          3.57638567
   O         199.657          4.884         19.318          3.57749287
   O         199.611          4.884         19.316          3.57707674
   O         199.496          4.884         19.311          3.57604942
   O         199.588          4.884         19.315          3.57687432
   O         199.625          4.884         19.317          3.57720469
   O         199.623          4.884         19.317          3.57718630

  vdW correction parametrized for the method         

  IVDW =  21
  VDW_RADIUS =    50.000 A
  VDW_IDAMPF =  0
  VDW_S6 =     1.000
  VDW_SR =     0.960
  VDW_D =    20.000
  LVDW_ONECELL = F F F
  LVDW_SAMETYPE T T T
  LVDW_EWALD = F

  Number of pair interactions contributing to vdW energy: 1097091
  Edisp (eV):   -7.07709

 VOLUME and BASIS-vectors are now :
  energy-cutoff  :      520.00
  volume of cell :     9881.61
      direct lattice vectors                 reciprocal lattice vectors
    21.138852197  0.000000000  0.000000000     0.047306258  0.000000000  0.000000000
     0.000000000 21.138852197  0.000000000     0.000000000  0.047306258  0.000000000
     0.000000000  0.000000000 22.113885220     0.000000000  0.000000000  0.045220457

  length of vectors
    21.138852197 21.138852197 22.113885220     0.047306258  0.047306258  0.045220457

 FORCES acting on ions:
    Electron-Ion                     Ewald-Force                    Non-Local-Force
   -.255E+03 0.255E+03 -.212E+04   0.246E+03 -.246E+03 0.212E+04   0.921E+01 -.921E+01 -.401E+00
   0.255E+03 -.255E+03 -.212E+04   -.246E+03 0.246E+03 0.212E+04   -.921E+01 0.921E+01 -.401E+00
   0.158E+00 -.352E+01 0.932E+03   -.162E+00 0.353E+01 -.923E+03   0.303E-02 -.251E-02 -.709E+01
   0.352E+01 -.158E+00 0.932E+03   -.353E+01 0.162E+00 -.923E+03   0.251E-02 -.303E-02 -.709E+01
   0.136E-07 -.185E-03 -.924E+03   0.784E-07 -.160E-05 0.915E+03   0.000E+00 0.000E+00 0.707E+01
   0.530E+01 -.530E+01 -.923E+03   -.531E+01 0.531E+01 0.915E+03   0.657E-02 -.657E-02 0.707E+01
   -.158E+00 0.352E+01 0.932E+03   0.162E+00 -.353E+01 -.923E+03   -.303E-02 0.251E-02 -.709E+01
   0.549E+01 0.692E+01 0.934E+03   -.549E+01 -.692E+01 -.925E+03   0.818E-04 0.368E-02 -.710E+01
   -.435E+00 0.725E+01 -.923E+03   0.446E+00 -.725E+01 0.914E+03   -.777E-02 0.338E-02 0.707E+01
   0.484E+01 0.483E+01 -.923E+03   -.483E+01 -.483E+01 0.915E+03   -.108E-02 -.108E-02 0.707E+01
   -.367E+00 0.628E+01 0.935E+03   0.378E+00 -.628E+01 -.926E+03   -.745E-02 0.440E-02 -.709E+01
   0.107E+02 0.528E+01 0.938E+03   -.107E+02 -.529E+01 -.930E+03   0.794E-02 0.769E-02 -.710E+01
   -.419E+00 0.508E+01 -.921E+03   0.430E+00 -.508E+01 0.912E+03   -.750E-02 0.220E-02 0.706E+01
   0.109E+02 0.984E+01 -.920E+03   -.109E+02 -.985E+01 0.912E+03   -.367E-02 0.534E-02 0.706E+01
   0.212E-06 -.188E-03 0.937E+03   -.118E-06 0.158E-05 -.928E+03   0.000E+00 0.000E+00 -.710E+01
   0.114E+02 -.486E+01 0.939E+03   -.114E+02 0.486E+01 -.930E+03   0.230E-01 -.509E-03 -.710E+01
   0.419E+00 -.508E+01 -.921E+03   -.430E+00 0.508E+01 0.912E+03   0.750E-02 -.220E-02 0.706E+01
   0.178E+02 0.579E+00 -.918E+03   -.178E+02 -.589E+00 0.909E+03   0.157E-01 0.688E-02 0.706E+01
   0.367E+00 -.628E+01 0.935E+03   -.378E+00 0.628E+01 -.926E+03   0.745E-02 -.440E-02 -.709E+01
   0.613E+01 -.719E+01 0.934E+03   -.615E+01 0.720E+01 -.926E+03   0.116E-01 -.782E-02 -.709E+01
   0.435E+00 -.725E+01 -.923E+03   -.446E+00 0.725E+01 0.914E+03   0.777E-02 -.338E-02 0.707E+01
   0.123E+02 -.995E+01 -.920E+03   -.124E+02 0.996E+01 0.912E+03   0.221E-01 -.457E-02 0.707E+01
   0.719E+01 -.613E+01 0.934E+03   -.720E+01 0.615E+01 -.926E+03   0.782E-02 -.116E-01 -.709E+01
   0.628E+01 -.367E+00 0.935E+03   -.628E+01 0.378E+00 -.926E+03   0.440E-02 -.745E-02 -.709E+01
   0.725E+01 -.435E+00 -.923E+03   -.725E+01 0.446E+00 0.914E+03   0.338E-02 -.777E-02 0.707E+01
   0.995E+01 -.123E+02 -.920E+03   -.996E+01 0.124E+02 0.912E+03   0.457E-02 -.221E-01 0.707E+01
   0.692E+01 0.549E+01 0.934E+03   -.692E+01 -.549E+01 -.925E+03   0.368E-02 0.818E-04 -.710E+01
   0.121E+02 0.156E+02 0.941E+03   -.121E+02 -.156E+02 -.932E+03   0.124E-01 0.140E-01 -.710E+01
   0.136E+02 0.136E+02 -.920E+03   -.136E+02 -.136E+02 0.912E+03   0.984E-03 0.984E-03 0.706E+01
   0.984E+01 0.109E+02 -.920E+03   -.985E+01 -.109E+02 0.912E+03   0.534E-02 -.367E-02 0.706E+01
   0.156E+02 0.121E+02 0.941E+03   -.156E+02 -.121E+02 -.932E+03   0.140E-01 0.124E-01 -.710E+01
   0.310E+02 0.170E+02 0.963E+03   -.311E+02 -.171E+02 -.954E+03   0.710E-01 0.378E-01 -.712E+01
   0.346E+02 0.142E+02 -.911E+03   -.346E+02 -.142E+02 0.902E+03   0.925E-02 0.203E-01 0.706E+01
   0.334E+02 0.334E+02 -.906E+03   -.334E+02 -.334E+02 0.898E+03   0.134E-01 0.134E-01 0.704E+01
   0.254E+02 0.913E+00 0.949E+03   -.254E+02 -.933E+00 -.940E+03   0.447E-01 0.136E-01 -.710E+01
   0.327E+02 -.156E+02 0.966E+03   -.327E+02 0.156E+02 -.958E+03   0.458E-01 -.150E-01 -.705E+01
   0.378E+02 -.126E+02 -.909E+03   -.379E+02 0.126E+02 0.901E+03   0.712E-01 0.469E-02 0.707E+01
   0.841E+02 0.683E+01 -.872E+03   -.843E+02 -.693E+01 0.864E+03   0.150E+00 0.668E-01 0.708E+01
   0.168E+02 -.123E+02 0.942E+03   -.168E+02 0.124E+02 -.934E+03   0.283E-01 -.145E-01 -.709E+01
   0.123E+02 -.168E+02 0.942E+03   -.124E+02 0.168E+02 -.934E+03   0.145E-01 -.283E-01 -.709E+01
   0.149E+02 -.149E+02 -.919E+03   -.149E+02 0.149E+02 0.911E+03   0.184E-01 -.184E-01 0.707E+01
   0.374E+02 -.374E+02 -.902E+03   -.375E+02 0.375E+02 0.893E+03   0.553E-01 -.553E-01 0.708E+01
   0.486E+01 -.114E+02 0.939E+03   -.486E+01 0.114E+02 -.930E+03   0.509E-03 -.230E-01 -.710E+01
   0.207E-06 -.182E-03 0.937E+03   -.110E-06 -.428E-05 -.928E+03   0.000E+00 0.000E+00 -.710E+01
   0.508E+01 -.419E+00 -.921E+03   -.508E+01 0.430E+00 0.912E+03   0.220E-02 -.750E-02 0.706E+01
   -.579E+00 -.178E+02 -.918E+03   0.589E+00 0.178E+02 0.909E+03   -.688E-02 -.157E-01 0.706E+01
   0.528E+01 0.107E+02 0.938E+03   -.529E+01 -.107E+02 -.930E+03   0.769E-02 0.794E-02 -.710E+01
   0.913E+00 0.254E+02 0.949E+03   -.933E+00 -.254E+02 -.940E+03   0.136E-01 0.447E-01 -.710E+01
   0.142E+02 0.346E+02 -.911E+03   -.142E+02 -.346E+02 0.902E+03   0.203E-01 0.925E-02 0.706E+01
   0.579E+00 0.178E+02 -.918E+03   -.589E+00 -.178E+02 0.909E+03   0.688E-02 0.157E-01 0.706E+01
   0.170E+02 0.310E+02 0.963E+03   -.171E+02 -.311E+02 -.954E+03   0.378E-01 0.710E-01 -.712E+01
   0.279E+01 0.347E+02 0.101E+04   -.275E+01 -.348E+02 -.100E+04   -.241E-01 0.535E-01 -.691E+01
   0.784E+02 0.784E+02 -.834E+03   -.787E+02 -.787E+02 0.826E+03   0.171E+00 0.171E+00 0.687E+01
   0.683E+01 0.841E+02 -.872E+03   -.693E+01 -.843E+02 0.864E+03   0.668E-01 0.150E+00 0.708E+01
   0.347E+02 0.278E+01 0.101E+04   -.348E+02 -.275E+01 -.100E+04   0.535E-01 -.241E-01 -.691E+01
   -.279E+01 -.347E+02 0.101E+04   0.275E+01 0.348E+02 -.100E+04   0.241E-01 -.535E-01 -.691E+01
   0.866E+02 -.866E+02 -.796E+03   -.868E+02 0.868E+02 0.787E+03   0.875E-01 -.875E-01 0.698E+01
   -.238E-04 -.259E-03 -.614E+03   0.242E-04 0.699E-04 0.610E+03   0.000E+00 0.000E+00 0.368E+01
   0.156E+02 -.327E+02 0.966E+03   -.156E+02 0.327E+02 -.958E+03   0.150E-01 -.458E-01 -.705E+01
   -.913E+00 -.254E+02 0.949E+03   0.933E+00 0.254E+02 -.940E+03   -.136E-01 -.447E-01 -.710E+01
[...]
   -.813E+01 0.813E+01 0.704E+03   0.814E+01 -.814E+01 -.708E+03   -.168E-01 0.168E-01 0.309E+01
   -.319E+01 0.319E+01 0.701E+03   0.320E+01 -.320E+01 -.705E+03   -.652E-02 0.652E-02 0.309E+01
   -.191E+02 0.136E+02 -.687E+03   0.191E+02 -.136E+02 0.691E+03   -.371E-01 0.226E-01 -.312E+01
   -.124E+02 0.480E+01 -.690E+03   0.124E+02 -.480E+01 0.694E+03   -.193E-01 -.937E-03 -.313E+01
   -.173E+02 0.613E+01 0.711E+03   0.173E+02 -.614E+01 -.715E+03   -.428E-01 0.344E-02 0.310E+01
   -.664E+01 0.574E+01 0.703E+03   0.666E+01 -.575E+01 -.707E+03   -.171E-01 0.781E-02 0.309E+01
   -.318E+02 -.145E+01 -.682E+03   0.318E+02 0.148E+01 0.686E+03   -.371E-01 -.292E-01 -.314E+01
   -.114E+02 -.530E+01 -.690E+03   0.114E+02 0.530E+01 0.694E+03   -.459E-02 -.990E-02 -.313E+01
   -.164E+02 -.686E+01 0.711E+03   0.164E+02 0.688E+01 -.715E+03   -.197E-01 -.194E-01 0.308E+01
   -.912E+01 -.257E+00 0.706E+03   0.914E+01 0.262E+00 -.710E+03   -.144E-01 -.654E-02 0.309E+01
   -.170E+02 -.129E+02 -.688E+03   0.170E+02 0.130E+02 0.692E+03   -.446E-02 -.895E-02 -.314E+01
   -.530E+01 -.650E+01 -.693E+03   0.530E+01 0.650E+01 0.697E+03   0.211E-02 -.220E-02 -.313E+01
   -.762E+01 -.762E+01 0.703E+03   0.763E+01 0.763E+01 -.707E+03   -.628E-02 -.628E-02 0.309E+01
   -.599E+01 -.573E+01 0.703E+03   0.599E+01 0.573E+01 -.707E+03   -.183E-02 -.712E-02 0.309E+01
   -.137E-04 -.110E+00 0.835E+01   0.166E-11 0.583E-12 -.105E-10   0.178E-14 -.945E-16 -.804E+01

 POSITION                                       TOTAL-FORCE (eV/Angst)
     11.36279     11.88995     13.59669         0.102879     -0.102879      0.064703
      9.77606     13.47667     13.59669        -0.102879      0.102879      0.064703
      0.00000      0.00000      9.00000        -0.000972      0.000802      0.568411
      2.11389      2.11389      9.00000        -0.000802      0.000972      0.568411
      0.00000      2.11389     11.11389         0.000000     -0.000000     -0.561292
      2.11389      0.00000     11.11389        -0.002098      0.002098     -0.561199
      0.00000      4.22777      9.00000         0.000972     -0.000802      0.568411
      2.11389      6.34166      9.00000        -0.000002     -0.001148      0.568946
      0.00000      6.34166     11.11389         0.002465     -0.001079     -0.560808
      2.11389      4.22777     11.11389         0.000370      0.000370     -0.560771
      0.00000      8.45554      9.00000         0.002303     -0.001432      0.568596
      2.11389     10.56943      9.00000        -0.002537     -0.002558      0.569146
      0.00000     10.56943     11.11389         0.002332     -0.000714     -0.559955
      2.11389      8.45554     11.11389         0.001338     -0.001618     -0.559123
      0.00000     12.68331      9.00000         0.000000     -0.000000      0.568751
      2.11389     14.79720      9.00000        -0.006996      0.000162      0.568442
      0.00000     14.79720     11.11389        -0.002332      0.000714     -0.559955
      2.11389     12.68331     11.11389        -0.004528     -0.002382     -0.558974
      0.00000     16.91108      9.00000        -0.002303      0.001432      0.568596
      2.11389     19.02497      9.00000        -0.003687      0.002562      0.568027
      0.00000     19.02497     11.11389        -0.002465      0.001079     -0.560808
      2.11389     16.91108     11.11389        -0.006856      0.001536     -0.560621
      4.22777      0.00000      9.00000        -0.002562      0.003687      0.568027
      6.34166      2.11389      9.00000        -0.001432      0.002303      0.568596
      4.22777      2.11389     11.11389        -0.001079      0.002465     -0.560808
      6.34166      0.00000     11.11389        -0.001536      0.006856     -0.560621
      4.22777      4.22777      9.00000        -0.001148     -0.000002      0.568946
      6.34166      6.34166      9.00000        -0.003920     -0.004318      0.570624
      4.22777      6.34166     11.11389        -0.000075     -0.000075     -0.558270
      6.34166      4.22777     11.11389        -0.001618      0.001338     -0.559123
      4.22777      8.45554      9.00000        -0.004318     -0.003920      0.570624
      6.34166     10.56943      9.00000        -0.023509     -0.013831      0.573576
      4.22777     10.56943     11.11389        -0.001540     -0.006516     -0.553757
      6.34166      8.45554     11.11389        -0.002098     -0.002098     -0.545773
      4.22777     12.68331      9.00000        -0.014225     -0.004863      0.568686
      6.34166     14.79720      9.00000        -0.015451      0.005829      0.552973
      4.22777     14.79720     11.11389        -0.023031     -0.001635     -0.559668
      6.34166     12.68331     11.11389        -0.062274     -0.024812     -0.550121
      4.22777     16.91108      9.00000        -0.009253      0.005109      0.566154
      6.34166     19.02497      9.00000        -0.005109      0.009253      0.566154
      4.22777     19.02497     11.11389        -0.005870      0.005870     -0.561141
      6.34166     16.91108     11.11389        -0.018468      0.018468     -0.564883
      8.45554      0.00000      9.00000        -0.000162      0.006996      0.568442
     10.56943      2.11389      9.00000         0.000000     -0.000000      0.568751
      8.45554      2.11389     11.11389        -0.000714      0.002332     -0.559955
     10.56943      0.00000     11.11389         0.002382      0.004528     -0.558974
      8.45554      4.22777      9.00000        -0.002558     -0.002537      0.569146
     10.56943      6.34166      9.00000        -0.004863     -0.014225      0.568686
      8.45554      6.34166     11.11389        -0.006516     -0.001540     -0.553757
     10.56943      4.22777     11.11389        -0.002382     -0.004528     -0.558974
      8.45554      8.45554      9.00000        -0.013831     -0.023509      0.573576
     10.56943     10.56943      9.00000         0.011548     -0.015755      0.501223
      8.45554     10.56943     11.11389        -0.022378     -0.022378     -0.400070
     10.56943      8.45554     11.11389        -0.024812     -0.062274     -0.550121
      8.45554     12.68331      9.00000        -0.015755      0.011548      0.501223
     10.56943     14.79720      9.00000        -0.011548      0.015755      0.501223
      8.45554     14.79720     11.11389        -0.083147      0.083147     -0.726977
     10.56943     12.68331     11.11389         0.000000     -0.000000     -0.428341
      8.45554     16.91108      9.00000        -0.005829      0.015451      0.552973
     10.56943     19.02497      9.00000         0.004863      0.014225      0.568686
[...]
     19.02497      6.34166     11.11389        -0.004404      0.003242      0.419389
     16.91108      6.34166      9.00000        -0.005587      0.005587     -0.425842
     19.02497      4.22777      9.00000        -0.002184      0.002184     -0.426722
     16.91108      8.45554     11.11389        -0.013415      0.008210      0.420395
     19.02497     10.56943     11.11389        -0.006902     -0.000192      0.418194
     16.91108     10.56943      9.00000        -0.014632      0.001090     -0.422636
     19.02497      8.45554      9.00000        -0.005725      0.002615     -0.426347
     16.91108     12.68331     11.11389        -0.015349     -0.009878      0.415307
     19.02497     14.79720     11.11389        -0.001937     -0.003421      0.416729
     16.91108     14.79720      9.00000        -0.006614     -0.006383     -0.429550
     19.02497     12.68331      9.00000        -0.004931     -0.002134     -0.427054
     16.91108     16.91108     11.11389        -0.002304     -0.003530      0.413624
     19.02497     19.02497     11.11389         0.000622     -0.000814      0.418261
     16.91108     19.02497      9.00000        -0.002154     -0.002154     -0.428177
     19.02497     16.91108      9.00000        -0.000667     -0.002418     -0.427722
    total drift:                               -0.000014     -0.109529     -0.528908

  FREE ENERGIE OF THE ION-ELECTRON SYSTEM (eV)
  free  energy   TOTEN  =     -1430.31448560 eV

  energy  without entropy=    -1430.31448560  energy(sigma->0) =    -1430.31448560