 vasp.6.3.0 20Jan22 (build Apr  1 2022 16:44:48) complex
 executed on        HPECrayEX_GCC date 2022.08.15  19:40:59

 INCAR:
   SYSTEM = MgO-rocksalt
   ISMEAR = 0
   SIGMA = 0.05
   EDIFF = 1E-6
   ALGO = ALL
   ISTART = 0
   IBRION = -1
   NSW = 0
   ISYM = 2
   DIPOL = 0.5 0.5 0.5
   IDIPOL = 3
   LDIPOL = .TRUE.
   GGA = RE
   IVDW = 12
   VDW_A1 = 0.5238
   VDW_S8 = 2.3550
   VDW_A2 = 3.5016
   ENCUT = 520
   PREC = Accurate
   LASPH = .TRUE.
   LREAL = Auto
   ISPIN = 1
   NELM = 200
   NELMIN = 8
   NCORE = 4
   KPAR = 2
   LWAVE = .FALSE.
   LCHARG = .FALSE.

 POTCAR:    PAW_PBE Au 04Oct2007
 POTCAR:    PAW_PBE Mg_pv 13Apr2007
 POTCAR:    PAW_PBE O 08Apr2002
 POTCAR:    PAW_PBE Au 04Oct2007
   VRHFIN =Au: s1d10

   TITEL  = PAW_PBE Au 04Oct2007
   POMASS =  196.966; ZVAL   =   11.000    mass and valenz
   ENMAX  =  229.943; ENMIN  =  172.457 eV

   TITEL  = PAW_PBE Mg_pv 13Apr2007
   POMASS =   24.305; ZVAL   =    8.000    mass and valenz
   ENMAX  =  403.929; ENMIN  =  302.947 eV

   TITEL  = PAW_PBE O 08Apr2002
   POMASS =   16.000; ZVAL   =    6.000    mass and valenz
   ENMAX  =  400.000; ENMIN  =  300.000 eV

 Optimization of the real space projectors (new method)

 maximal supplied QI-value         = 15.12
 optimisation between [QCUT,QGAM] = [ 11.64, 23.28] = [ 37.95,151.78] Ry
 Optimized for a Real-space Cutoff    1.49 Angstroem

   l    n(q)    QCUT    max X(q) W(low)/X(q) W(high)/X(q)  e(spline)
   2      9    11.641    60.898    0.24E-03    0.10E-03    0.19E-06
   2      9    11.641    58.894    0.25E-03    0.10E-03    0.19E-06
   0     10    11.641   109.617    0.73E-04    0.33E-04    0.11E-06
   0     10    11.641    75.026    0.71E-04    0.32E-04    0.11E-06
   1     10    11.641    16.344    0.27E-04    0.97E-04    0.16E-06
   1     10    11.641    10.160    0.23E-04    0.77E-04    0.13E-06
 Optimization of the real space projectors (new method)

[...]

   l    n(q)    QCUT    max X(q) W(low)/X(q) W(high)/X(q)  e(spline)
   1      8    11.527     2.974    0.44E-04    0.56E-04    0.12E-06
   1      8    11.527     4.279    0.12E-03    0.12E-03    0.26E-06
   0      9    11.527    16.381    0.46E-04    0.64E-04    0.78E-07
   0      9    11.527     5.611    0.26E-04    0.43E-04    0.55E-07
   2      8    11.527     4.652    0.22E-03    0.72E-04    0.47E-07
 Optimization of the real space projectors (new method)

 maximal supplied QI-value         = 24.76
 optimisation between [QCUT,QGAM] = [ 11.64, 23.27] = [ 37.91,151.63] Ry
 Optimized for a Real-space Cutoff    1.14 Angstroem

   l    n(q)    QCUT    max X(q) W(low)/X(q) W(high)/X(q)  e(spline)
   0      8    11.635    20.381    0.10E-03    0.33E-03    0.24E-06
   0      8    11.635    15.268    0.11E-03    0.35E-03    0.26E-06
   1      7    11.635     5.964    0.24E-03    0.31E-03    0.30E-06
   1      7    11.635     5.382    0.22E-03    0.25E-03    0.26E-06
|               ----> ADVICE to this user running VASP <----                  |
|     You enforced a specific xc type in the INCAR file but a different       |
|     type was found in the POTCAR file.                                      |
|     I HOPE YOU KNOW WHAT YOU ARE DOING!                                     |

  PAW_PBE Au 04Oct2007                  :
  PAW_PBE Mg_pv 13Apr2007               :
  PAW_PBE O 08Apr2002                   :

 POSCAR: Au Mg  O
  positions in direct lattice
 exchange correlation table for  LEXCH =       40
   RHO(1)=    0.500       N(1)  =     2000
   RHO(2)=  100.500       N(2)  =     4000

 ion  position               nearest neighbor table
   1  0.543  0.557  0.621-   2 2.56  58 2.91
   2  0.457  0.643  0.621-   1 2.56  58 2.91
   3  0.000  0.000  0.407- 105 2.11 106 2.11 121 2.11 186 2.11 103 2.11
   4  0.100  0.100  0.407- 105 2.11 106 2.11 110 2.11 125 2.11 104 2.11
   5  0.000  0.100  0.503- 103 2.11 104 2.11 107 2.11 184 2.11 105 2.11
   6  0.100  0.000  0.503- 103 2.11 104 2.11 120 2.11 123 2.11 106 2.11
   7  0.000  0.200  0.407- 109 2.11 105 2.11 110 2.11 190 2.11 107 2.11
   8  0.100  0.300  0.407- 110 2.11 109 2.11 114 2.11 129 2.11 108 2.11
   9  0.000  0.300  0.503- 107 2.11 108 2.11 111 2.11 188 2.11 109 2.11
  10  0.100  0.200  0.503- 108 2.11 107 2.11 104 2.11 127 2.11 110 2.11
  11  0.000  0.400  0.407- 109 2.11 113 2.11 114 2.11 194 2.11 111 2.11
  12  0.100  0.500  0.407- 113 2.11 114 2.11 118 2.11 133 2.11 112 2.11
  13  0.000  0.500  0.503- 111 2.11 112 2.11 115 2.11 192 2.11 113 2.11
  14  0.100  0.400  0.503- 108 2.11 111 2.11 112 2.11 131 2.11 114 2.11
  15  0.000  0.600  0.407- 113 2.11 117 2.11 118 2.11 198 2.11 115 2.11
  16  0.100  0.700  0.407- 122 2.11 118 2.11 117 2.11 137 2.11 116 2.11
  17  0.000  0.700  0.503- 119 2.11 116 2.11 115 2.11 196 2.11 117 2.11
  18  0.100  0.600  0.503- 112 2.11 115 2.11 116 2.11 135 2.11 118 2.11
  19  0.000  0.800  0.407- 117 2.11 121 2.11 122 2.11 202 2.11 119 2.11
  20  0.100  0.900  0.407- 106 2.11 121 2.11 122 2.11 141 2.11 120 2.11
  21  0.000  0.900  0.503- 103 2.11 119 2.11 120 2.11 200 2.11 121 2.11
  22  0.100  0.800  0.503- 116 2.11 119 2.11 120 2.11 139 2.11 122 2.11
  23  0.200  0.000  0.407- 126 2.11 125 2.11 106 2.11 141 2.11 123 2.11
  24  0.300  0.100  0.407- 125 2.11 126 2.11 130 2.11 145 2.11 124 2.11
  25  0.200  0.100  0.503- 124 2.11 123 2.11 104 2.11 127 2.11 125 2.11
  26  0.300  0.000  0.503- 123 2.11 124 2.11 140 2.11 143 2.11 126 2.11
  27  0.200  0.200  0.407- 129 2.11 130 2.11 110 2.11 125 2.11 127 2.11
  28  0.300  0.300  0.407- 129 2.11 130 2.11 134 2.11 149 2.11 128 2.11
  29  0.200  0.300  0.503- 127 2.11 128 2.11 108 2.11 131 2.11 129 2.11
  30  0.300  0.200  0.503- 127 2.11 128 2.11 124 2.11 147 2.11 130 2.11
  31  0.200  0.400  0.407- 134 2.11 129 2.11 133 2.11 114 2.11 131 2.11
  32  0.300  0.500  0.407- 133 2.11 134 2.11 138 2.11 153 2.11 132 2.11
  33  0.200  0.500  0.503- 132 2.11 131 2.11 112 2.11 135 2.11 133 2.11
  34  0.300  0.400  0.503- 131 2.11 128 2.11 132 2.11 151 2.11 134 2.11
  35  0.200  0.600  0.407- 138 2.11 133 2.11 137 2.11 118 2.11 135 2.11
  36  0.300  0.700  0.407- 137 2.11 142 2.11 138 2.11 157 2.11 136 2.11
  37  0.200  0.700  0.503- 136 2.11 139 2.11 116 2.11 135 2.11 137 2.11
  38  0.300  0.600  0.503- 135 2.11 132 2.11 136 2.11 155 2.11 138 2.11
  39  0.200  0.800  0.407- 137 2.11 142 2.11 141 2.11 122 2.11 139 2.11
  40  0.300  0.900  0.407- 141 2.11 126 2.11 142 2.11 161 2.11 140 2.11
  41  0.200  0.900  0.503- 140 2.11 123 2.11 139 2.11 120 2.11 141 2.11
  42  0.300  0.800  0.503- 136 2.11 139 2.11 140 2.11 159 2.11 142 2.11
  43  0.400  0.000  0.407- 126 2.11 145 2.11 146 2.11 161 2.11 143 2.11
  44  0.500  0.100  0.407- 145 2.11 146 2.11 150 2.11 165 2.11 144 2.11
  45  0.400  0.100  0.503- 124 2.11 143 2.11 144 2.11 147 2.11 145 2.11
  46  0.500  0.000  0.503- 143 2.11 144 2.11 160 2.11 163 2.11 146 2.11
  47  0.400  0.200  0.407- 149 2.11 145 2.11 130 2.11 150 2.11 147 2.11
  48  0.500  0.300  0.407- 150 2.11 149 2.11 154 2.11 169 2.11 148 2.11
  49  0.400  0.300  0.503- 147 2.11 128 2.11 148 2.11 151 2.11 149 2.11
  50  0.500  0.200  0.503- 148 2.11 147 2.11 144 2.11 167 2.11 150 2.11
  51  0.400  0.400  0.407- 134 2.11 149 2.11 153 2.11 154 2.11 151 2.11
  52  0.500  0.500  0.407- 153 2.11 154 2.11 158 2.11 173 2.11 152 2.11
  53  0.400  0.500  0.503- 132 2.11 151 2.11 152 2.11 155 2.11 153 2.11
  54  0.500  0.400  0.503- 148 2.11 151 2.11 152 2.11 171 2.11 154 2.11
  55  0.400  0.600  0.407- 138 2.11 153 2.11 157 2.11 158 2.11 155 2.11
  56  0.500  0.700  0.407- 162 2.11 158 2.11 157 2.11 177 2.11 156 2.11
  57  0.400  0.700  0.503- 159 2.11 155 2.11 156 2.11 136 2.11 157 2.11
  58  0.500  0.600  0.503- 152 2.11 155 2.11 156 2.11 175 2.11 158 2.11   2 2.91   1 2.91
  59  0.400  0.800  0.407- 157 2.11 142 2.11 161 2.11 162 2.11 159 2.11
  60  0.500  0.900  0.407- 146 2.11 161 2.11 162 2.11 181 2.11 160 2.11
[...]
 188  0.900  0.300  0.503-  90 2.11  89 2.11   9 2.11  94 2.11  88 2.11
 189  0.800  0.300  0.407-  68 2.11  87 2.11  88 2.11  91 2.11  89 2.11
 190  0.900  0.200  0.407-  88 2.11  84 2.11  87 2.11   7 2.11  90 2.11
 191  0.800  0.400  0.503-  74 2.11  89 2.11  93 2.11  94 2.11  91 2.11
 192  0.900  0.500  0.503-  13 2.11  93 2.11  94 2.11  98 2.11  92 2.11
 193  0.800  0.500  0.407-  72 2.11  91 2.11  92 2.11  95 2.11  93 2.11
 194  0.900  0.400  0.407-  11 2.11  88 2.11  91 2.11  92 2.11  94 2.11
 195  0.800  0.600  0.503-  78 2.11  93 2.11  97 2.11  98 2.11  95 2.11
 196  0.900  0.700  0.503- 102 2.11  97 2.11  98 2.11  17 2.11  96 2.11
 197  0.800  0.700  0.407-  76 2.11  99 2.11  96 2.11  95 2.11  97 2.11
 198  0.900  0.600  0.407-  15 2.11  92 2.11  95 2.11  96 2.11  98 2.11
 199  0.800  0.800  0.503-  82 2.11  97 2.11 101 2.11 102 2.11  99 2.11
 200  0.900  0.900  0.503-  21 2.11  86 2.11 101 2.11 102 2.11 100 2.11
 201  0.800  0.900  0.407-  80 2.11  83 2.11  99 2.11 100 2.11 101 2.11
 202  0.900  0.800  0.407-  96 2.11  19 2.11  99 2.11 100 2.11 102 2.11

  LATTYP: Found a simple tetragonal cell.
 ALAT       =    21.1388521970
 C/A-ratio  =     1.0461251639

  Lattice vectors:

 A1 = (  21.1388521970,   0.0000000000,   0.0000000000)
 A2 = (   0.0000000000,  21.1388521970,   0.0000000000)
 A3 = (   0.0000000000,   0.0000000000,  22.1138852197)

Analysis of symmetry for initial positions (statically):
 Subroutine PRICEL returns:
 Original cell was already a primitive cell.

 Routine SETGRP: Setting up the symmetry group for a
 simple tetragonal supercell.

 Subroutine GETGRP returns: Found  4 space group operations
 (whereof  1 operations were pure point group operations)
 out of a pool of 16 trial point group operations.

The static configuration has the point symmetry C_1 .
 The point group associated with its full space group is C_2v.

Analysis of symmetry for dynamics (positions and initial velocities):
 Subroutine PRICEL returns:
 Original cell was already a primitive cell.

 Routine SETGRP: Setting up the symmetry group for a
 simple tetragonal supercell.

 Subroutine GETGRP returns: Found  4 space group operations
 (whereof  1 operations were pure point group operations)
 out of a pool of 16 trial point group operations.

The dynamic configuration has the point symmetry C_1 .
 The point group associated with its full space group is C_2v.

 Subroutine INISYM returns: Found  4 space group operations
 (whereof  1 operations are pure point group operations),
 and found     1 'primitive' translations

                                     Primitive cell

  volume of cell :    9881.6133

  direct lattice vectors                    reciprocal lattice vectors
    21.138852197  0.000000000  0.000000000     0.047306258  0.000000000  0.000000000
     0.000000000 21.138852197  0.000000000     0.000000000  0.047306258  0.000000000
     0.000000000  0.000000000 22.113885220     0.000000000  0.000000000  0.045220457

  length of vectors
    21.138852197 21.138852197 22.113885220     0.047306258  0.047306258  0.045220457

  position of ions in fractional coordinates (direct lattice)
     0.542815811  0.557184154  0.620909636
     0.457184189  0.642815775  0.620909636
     0.000000000  0.000000000  0.406984115
     0.100000000  0.100000000  0.406984115
[...]
|           WW  WW  A    A  R   R   N   NN  II  N   NN  G    G                |
|           W    W  A    A  R    R  N    N  II  N    N   GGGG   !!!           |
|     Specifying the vdW parameters                                           |
|     VDW_A1 = 0.524                                                          |
|     VDW_A2 = 3.502                                                          |
|     VDW_S8 = 2.355                                                          |
|     in the INCAR file will overwrite the defaults for revpbe. Please        |
|     make sure that is what you intended.                                    |

         DFTD3 V3.0 Rev 1
 IVDW         = 12
 DF revpbe
 parameters
 VDW_S6       =    1.0000
 VDW_S8       =    2.3550
 VDW_A1       =    0.5238
 VDW_A2       =    3.5016
 k1-k3        =   16.0000    1.3333   -4.0000
 VDW_RADIUS   =   50.2022 A
 VDW_CNRADIUS =   21.1671 A
 Edisp (eV)  -64.93415

 E6    (eV) :   -20.5132
 E8    (eV) :   -44.4210
 % E8        : 68.41

  FORCE on cell =-STRESS in cart. coord.  units (eV):
  Direction    XX          YY          ZZ          XY          YZ          ZX
  Alpha Z  1365.75682  1365.75682  1365.75682
  Ewald  479770.72537479770.72537************  -347.00501     0.00001    -0.00001
  Hartree508365.41429508365.41429************  -233.83548     0.00000    -0.00002
  E(xc)   -7774.44474 -7774.44474 -7824.18705    -0.56268     0.00000     0.00000
  Local  ************************************   568.92065    -0.00001     0.00003
  n-local -8715.95174 -8715.95174 -8832.73855     5.60488    -0.00001     0.00000
  augment  3414.30512  3414.30511  3356.33529     1.64738    -0.00000    -0.00000
  Kinetic 23010.35441 23010.35440 23256.43050     4.81496    -0.00001    -0.00001
  Fock        0.00000     0.00000     0.00000     0.00000     0.00000     0.00000
  vdW       -66.67904   -66.67904   -21.65629     0.01911     0.00000     0.00000
  Total    -169.73881  -169.73881    19.38810    -0.39620     0.00000     0.00000
  in kB     -27.52098   -27.52098     3.14353    -0.06424     0.00000     0.00000

 VOLUME and BASIS-vectors are now :
  energy-cutoff  :      520.00
  volume of cell :     9881.61
      direct lattice vectors                 reciprocal lattice vectors
    21.138852197  0.000000000  0.000000000     0.047306258  0.000000000  0.000000000
     0.000000000 21.138852197  0.000000000     0.000000000  0.047306258  0.000000000
     0.000000000  0.000000000 22.113885220     0.000000000  0.000000000  0.045220457

  length of vectors
    21.138852197 21.138852197 22.113885220     0.047306258  0.047306258  0.045220457

 FORCES acting on ions:
    Electron-Ion                     Ewald-Force                    Non-Local-Force
   -.192E+03 0.192E+03 -.208E+04   0.188E+03 -.188E+03 0.208E+04   0.409E+01 -.409E+01 0.933E-01
   0.192E+03 -.192E+03 -.208E+04   -.188E+03 0.188E+03 0.208E+04   -.409E+01 0.409E+01 0.933E-01
   0.203E+00 -.347E+01 0.931E+03   -.205E+00 0.348E+01 -.923E+03   0.195E-02 -.452E-02 -.753E+01
   0.347E+01 -.203E+00 0.931E+03   -.348E+01 0.205E+00 -.923E+03   0.452E-02 -.195E-02 -.753E+01
   -.119E-07 -.185E-03 -.923E+03   0.101E-06 -.159E-05 0.915E+03   0.000E+00 0.000E+00 0.749E+01
   0.533E+01 -.533E+01 -.922E+03   -.533E+01 0.533E+01 0.914E+03   0.666E-02 -.666E-02 0.749E+01
   -.203E+00 0.347E+01 0.931E+03   0.205E+00 -.348E+01 -.923E+03   -.195E-02 0.452E-02 -.753E+01
   0.527E+01 0.675E+01 0.933E+03   -.528E+01 -.676E+01 -.925E+03   0.702E-02 0.925E-02 -.753E+01
   -.565E+00 0.719E+01 -.922E+03   0.571E+00 -.720E+01 0.914E+03   -.468E-02 0.536E-02 0.749E+01
   0.472E+01 0.472E+01 -.922E+03   -.473E+01 -.473E+01 0.915E+03   0.207E-02 0.207E-02 0.749E+01
   -.470E+00 0.617E+01 0.934E+03   0.476E+00 -.618E+01 -.926E+03   -.497E-02 0.773E-02 -.753E+01
   0.102E+02 0.522E+01 0.937E+03   -.103E+02 -.523E+01 -.930E+03   0.261E-01 0.983E-02 -.754E+01
   -.543E+00 0.503E+01 -.919E+03   0.548E+00 -.503E+01 0.912E+03   -.436E-02 0.343E-02 0.749E+01
   0.105E+02 0.972E+01 -.919E+03   -.105E+02 -.973E+01 0.912E+03   0.662E-02 0.773E-02 0.749E+01
   0.239E-06 -.189E-03 0.936E+03   -.146E-06 0.155E-05 -.928E+03   0.000E+00 0.000E+00 -.754E+01
   0.111E+02 -.468E+01 0.938E+03   -.112E+02 0.469E+01 -.930E+03   0.385E-01 -.504E-02 -.754E+01
   0.543E+00 -.503E+01 -.919E+03   -.548E+00 0.503E+01 0.912E+03   0.436E-02 -.343E-02 0.749E+01
   0.175E+02 0.742E+00 -.916E+03   -.175E+02 -.747E+00 0.909E+03   0.224E-01 0.396E-02 0.748E+01
   0.470E+00 -.617E+01 0.934E+03   -.476E+00 0.618E+01 -.926E+03   0.497E-02 -.773E-02 -.753E+01
   0.610E+01 -.709E+01 0.934E+03   -.612E+01 0.710E+01 -.926E+03   0.144E-01 -.121E-01 -.753E+01
   0.565E+00 -.719E+01 -.922E+03   -.571E+00 0.720E+01 0.914E+03   0.468E-02 -.536E-02 0.749E+01
   0.124E+02 -.985E+01 -.919E+03   -.124E+02 0.986E+01 0.911E+03   0.211E-01 -.712E-02 0.749E+01
   0.709E+01 -.610E+01 0.934E+03   -.710E+01 0.612E+01 -.926E+03   0.121E-01 -.144E-01 -.753E+01
   0.617E+01 -.470E+00 0.934E+03   -.618E+01 0.476E+00 -.926E+03   0.773E-02 -.497E-02 -.753E+01
   0.719E+01 -.565E+00 -.922E+03   -.720E+01 0.571E+00 0.914E+03   0.536E-02 -.468E-02 0.749E+01
   0.985E+01 -.124E+02 -.919E+03   -.986E+01 0.124E+02 0.911E+03   0.712E-02 -.211E-01 0.749E+01
   0.675E+01 0.527E+01 0.933E+03   -.676E+01 -.528E+01 -.925E+03   0.925E-02 0.702E-02 -.753E+01
   0.117E+02 0.149E+02 0.940E+03   -.117E+02 -.150E+02 -.932E+03   0.265E-01 0.367E-01 -.754E+01
   0.133E+02 0.133E+02 -.919E+03   -.133E+02 -.133E+02 0.911E+03   0.989E-02 0.989E-02 0.748E+01
   0.972E+01 0.105E+02 -.919E+03   -.973E+01 -.105E+02 0.912E+03   0.773E-02 0.662E-02 0.749E+01
   0.149E+02 0.117E+02 0.940E+03   -.150E+02 -.117E+02 -.932E+03   0.367E-01 0.265E-01 -.754E+01
   0.290E+02 0.162E+02 0.961E+03   -.292E+02 -.163E+02 -.953E+03   0.157E+00 0.764E-01 -.758E+01
   0.333E+02 0.141E+02 -.910E+03   -.334E+02 -.142E+02 0.902E+03   0.408E-01 0.163E-01 0.747E+01
   0.320E+02 0.320E+02 -.905E+03   -.321E+02 -.321E+02 0.898E+03   0.365E-01 0.365E-01 0.746E+01
   0.243E+02 0.113E+01 0.948E+03   -.244E+02 -.115E+01 -.940E+03   0.109E+00 0.909E-02 -.756E+01
   0.309E+02 -.144E+02 0.965E+03   -.310E+02 0.145E+02 -.957E+03   0.105E+00 -.594E-01 -.752E+01
   0.374E+02 -.120E+02 -.907E+03   -.375E+02 0.120E+02 0.900E+03   0.735E-01 -.264E-02 0.748E+01
   0.793E+02 0.827E+01 -.871E+03   -.797E+02 -.832E+01 0.863E+03   0.297E+00 0.384E-01 0.747E+01
   0.164E+02 -.120E+02 0.942E+03   -.165E+02 0.120E+02 -.934E+03   0.456E-01 -.286E-01 -.754E+01
   0.120E+02 -.164E+02 0.942E+03   -.120E+02 0.165E+02 -.934E+03   0.286E-01 -.456E-01 -.754E+01
   0.149E+02 -.149E+02 -.918E+03   -.149E+02 0.149E+02 0.910E+03   0.193E-01 -.193E-01 0.749E+01
   0.369E+02 -.369E+02 -.899E+03   -.370E+02 0.370E+02 0.892E+03   0.624E-01 -.624E-01 0.748E+01
   0.468E+01 -.111E+02 0.938E+03   -.469E+01 0.112E+02 -.930E+03   0.504E-02 -.385E-01 -.754E+01
   0.235E-06 -.183E-03 0.936E+03   -.139E-06 -.416E-05 -.928E+03   0.000E+00 0.000E+00 -.754E+01
   0.503E+01 -.543E+00 -.919E+03   -.503E+01 0.548E+00 0.912E+03   0.343E-02 -.436E-02 0.749E+01
   -.742E+00 -.175E+02 -.916E+03   0.747E+00 0.175E+02 0.909E+03   -.396E-02 -.224E-01 0.748E+01
   0.522E+01 0.102E+02 0.937E+03   -.523E+01 -.103E+02 -.930E+03   0.983E-02 0.261E-01 -.754E+01
   0.113E+01 0.243E+02 0.948E+03   -.115E+01 -.244E+02 -.940E+03   0.909E-02 0.109E+00 -.756E+01
   0.141E+02 0.333E+02 -.910E+03   -.142E+02 -.334E+02 0.902E+03   0.163E-01 0.408E-01 0.747E+01
   0.742E+00 0.175E+02 -.916E+03   -.747E+00 -.175E+02 0.909E+03   0.396E-02 0.224E-01 0.748E+01
   0.162E+02 0.290E+02 0.961E+03   -.163E+02 -.292E+02 -.953E+03   0.764E-01 0.157E+00 -.758E+01
   0.317E+01 0.312E+02 0.100E+04   -.309E+01 -.313E+02 -.995E+03   -.571E-01 0.123E+00 -.719E+01
   0.710E+02 0.710E+02 -.837E+03   -.714E+02 -.714E+02 0.830E+03   0.313E+00 0.313E+00 0.733E+01
   0.827E+01 0.793E+02 -.871E+03   -.832E+01 -.797E+02 0.863E+03   0.384E-01 0.297E+00 0.747E+01
   0.312E+02 0.317E+01 0.100E+04   -.313E+02 -.309E+01 -.995E+03   0.123E+00 -.571E-01 -.719E+01
   -.317E+01 -.312E+02 0.100E+04   0.309E+01 0.313E+02 -.995E+03   0.571E-01 -.123E+00 -.719E+01
   0.782E+02 -.782E+02 -.793E+03   -.784E+02 0.784E+02 0.786E+03   0.135E+00 -.135E+00 0.676E+01
   -.225E-04 -.244E-03 -.657E+03   0.225E-04 0.543E-04 0.653E+03   0.000E+00 0.000E+00 0.437E+01
   0.144E+02 -.309E+02 0.965E+03   -.145E+02 0.310E+02 -.957E+03   0.594E-01 -.105E+00 -.752E+01
   -.113E+01 -.243E+02 0.948E+03   0.115E+01 0.244E+02 -.940E+03   -.909E-02 -.109E+00 -.756E+01
[...]
   -.800E+01 0.799E+01 0.704E+03   0.801E+01 -.801E+01 -.708E+03   -.257E-01 0.257E-01 0.344E+01
   -.318E+01 0.317E+01 0.700E+03   0.318E+01 -.318E+01 -.705E+03   -.859E-02 0.859E-02 0.345E+01
   -.190E+02 0.134E+02 -.686E+03   0.191E+02 -.135E+02 0.691E+03   -.423E-01 0.290E-01 -.352E+01
   -.123E+02 0.466E+01 -.689E+03   0.123E+02 -.466E+01 0.694E+03   -.238E-01 0.376E-02 -.352E+01
   -.167E+02 0.580E+01 0.711E+03   0.168E+02 -.581E+01 -.716E+03   -.743E-01 0.239E-01 0.344E+01
   -.657E+01 0.562E+01 0.703E+03   0.658E+01 -.564E+01 -.708E+03   -.236E-01 0.156E-01 0.344E+01
   -.309E+02 -.184E+01 -.681E+03   0.310E+02 0.185E+01 0.685E+03   -.611E-01 -.162E-01 -.356E+01
   -.111E+02 -.530E+01 -.690E+03   0.111E+02 0.531E+01 0.694E+03   -.153E-01 -.102E-01 -.352E+01
   -.156E+02 -.671E+01 0.710E+03   0.157E+02 0.673E+01 -.714E+03   -.573E-01 -.350E-01 0.343E+01
   -.883E+01 -.324E+00 0.706E+03   0.885E+01 0.327E+00 -.710E+03   -.284E-01 -.506E-02 0.344E+01
   -.165E+02 -.126E+02 -.688E+03   0.165E+02 0.127E+02 0.692E+03   -.250E-01 -.227E-01 -.353E+01
   -.513E+01 -.639E+01 -.693E+03   0.514E+01 0.639E+01 0.697E+03   -.458E-02 -.769E-02 -.351E+01
   -.736E+01 -.736E+01 0.703E+03   0.738E+01 0.738E+01 -.707E+03   -.189E-01 -.189E-01 0.344E+01
   -.573E+01 -.561E+01 0.703E+03   0.574E+01 0.562E+01 -.707E+03   -.135E-01 -.145E-01 0.344E+01
   -.147E-04 -.110E+00 0.121E+02   0.189E-11 0.696E-12 -.557E-11   -.803E-15 -.168E-14 -.128E+02

 POSITION                                       TOTAL-FORCE (eV/Angst)
     11.47450     11.77823     13.73072         0.130623     -0.130623     -0.008877
      9.66435     13.58839     13.73072        -0.130623      0.130623     -0.008877
      0.00000      0.00000      9.00000        -0.000531      0.001218      0.356589
      2.11389      2.11389      9.00000        -0.001218      0.000531      0.356589
      0.00000      2.11389     11.11389        -0.000000     -0.000000     -0.346066
      2.11389      0.00000     11.11389        -0.001755      0.001755     -0.345654
      0.00000      4.22777      9.00000         0.000531     -0.001218      0.356589
      2.11389      6.34166      9.00000        -0.001828     -0.002484      0.357207
      0.00000      6.34166     11.11389         0.001267     -0.001408     -0.345227
      2.11389      4.22777     11.11389        -0.000490     -0.000490     -0.345477
      0.00000      8.45554      9.00000         0.001315     -0.002116      0.357231
      2.11389     10.56943      9.00000        -0.006686     -0.002704      0.358414
      0.00000     10.56943     11.11389         0.001141     -0.000891     -0.343563
      2.11389      8.45554     11.11389        -0.001275     -0.001918     -0.342942
      0.00000     12.68331      9.00000        -0.000000     -0.000000      0.357734
      2.11389     14.79720      9.00000        -0.009674      0.001368      0.358514
      0.00000     14.79720     11.11389        -0.001141      0.000891     -0.343563
      2.11389     12.68331     11.11389        -0.004386     -0.001126     -0.341176
      0.00000     16.91108      9.00000        -0.001315      0.002116      0.357231
      2.11389     19.02497      9.00000        -0.003824      0.003272      0.356821
      0.00000     19.02497     11.11389        -0.001267      0.001408     -0.345227
      2.11389     16.91108     11.11389        -0.005105      0.001789     -0.343492
      4.22777      0.00000      9.00000        -0.003272      0.003824      0.356821
      6.34166      2.11389      9.00000        -0.002116      0.001315      0.357231
      4.22777      2.11389     11.11389        -0.001408      0.001267     -0.345227
      6.34166      0.00000     11.11389        -0.001789      0.005105     -0.343492
      4.22777      4.22777      9.00000        -0.002484     -0.001828      0.357207
      6.34166      6.34166      9.00000        -0.006954     -0.009392      0.359561
      4.22777      6.34166     11.11389        -0.002137     -0.002137     -0.342195
      6.34166      4.22777     11.11389        -0.001918     -0.001275     -0.342942
      4.22777      8.45554      9.00000        -0.009392     -0.006954      0.359561
      6.34166     10.56943      9.00000        -0.039410     -0.021933      0.370585
      4.22777     10.56943     11.11389        -0.005222     -0.002945     -0.332950
      6.34166      8.45554     11.11389        -0.003444     -0.003444     -0.325166
      4.22777     12.68331      9.00000        -0.027140     -0.002565      0.364213
      6.34166     14.79720      9.00000        -0.023537      0.016439      0.357358
      4.22777     14.79720     11.11389        -0.015071     -0.000837     -0.333417
      6.34166     12.68331     11.11389        -0.063341     -0.003200     -0.278878
      4.22777     16.91108      9.00000        -0.011815      0.007758      0.358197
      6.34166     19.02497      9.00000        -0.007758      0.011815      0.358197
      4.22777     19.02497     11.11389        -0.004633      0.004633     -0.343362
      6.34166     16.91108     11.11389        -0.005478      0.005478     -0.327343
      8.45554      0.00000      9.00000        -0.001368      0.009674      0.358514
     10.56943      2.11389      9.00000        -0.000000     -0.000000      0.357734
      8.45554      2.11389     11.11389        -0.000891      0.001141     -0.343563
     10.56943      0.00000     11.11389         0.001126      0.004386     -0.341176
      8.45554      4.22777      9.00000        -0.002704     -0.006686      0.358414
     10.56943      6.34166      9.00000        -0.002565     -0.027140      0.364213
      8.45554      6.34166     11.11389        -0.002945     -0.005222     -0.332950
     10.56943      4.22777     11.11389        -0.001126     -0.004386     -0.341176
      8.45554      8.45554      9.00000        -0.021933     -0.039410      0.370585
     10.56943     10.56943      9.00000         0.024131     -0.021558      0.283178
      8.45554     10.56943     11.11389        -0.042581     -0.042581     -0.160204
     10.56943      8.45554     11.11389        -0.003200     -0.063341     -0.278878
      8.45554     12.68331      9.00000        -0.021558      0.024131      0.283178
     10.56943     14.79720      9.00000        -0.024131      0.021558      0.283178
      8.45554     14.79720     11.11389        -0.068764      0.068764     -0.313422
     10.56943     12.68331     11.11389        -0.000000     -0.000000     -0.025261
      8.45554     16.91108      9.00000        -0.016439      0.023537      0.357358
     10.56943     19.02497      9.00000         0.002565      0.027140      0.364213
[...]
     19.02497      6.34166     11.11389        -0.003728      0.003316      0.580659
     16.91108      6.34166      9.00000        -0.007151      0.007151     -0.593469
     19.02497      4.22777      9.00000        -0.002380      0.002380     -0.592890
     16.91108      8.45554     11.11389        -0.012378      0.008565      0.577106
     19.02497     10.56943     11.11389        -0.006784      0.001086      0.577607
     16.91108     10.56943      9.00000        -0.020736      0.006582     -0.593253
     19.02497      8.45554      9.00000        -0.006562      0.004410     -0.593599
     16.91108     12.68331     11.11389        -0.018831     -0.004740      0.568396
     19.02497     14.79720     11.11389        -0.004360     -0.002869      0.577035
     16.91108     14.79720      9.00000        -0.016448     -0.009905     -0.597759
     19.02497     12.68331      9.00000        -0.007947     -0.001404     -0.594745
     16.91108     16.91108     11.11389        -0.007329     -0.006503      0.573999
     19.02497     19.02497     11.11389        -0.001274     -0.002164      0.580198
     16.91108     19.02497      9.00000        -0.005263     -0.005263     -0.594342
     19.02497     16.91108      9.00000        -0.003763     -0.004054     -0.594061
    total drift:                               -0.000015     -0.110248     -0.665918

  FREE ENERGIE OF THE ION-ELECTRON SYSTEM (eV)
  free  energy   TOTEN  =     -1153.94102253 eV

  energy  without entropy=    -1153.94102253  energy(sigma->0) =    -1153.94102253