 vasp.6.3.0 20Jan22 (build Apr  1 2022 16:44:48) complex
 executed on        HPECrayEX_GCC date 2023.01.09  20:40:12

 INCAR:
   SYSTEM = MgO-rocksalt
   ISMEAR = 0
   SIGMA = 0.05
   EDIFF = 1E-6
   ALGO = ALL
   ISTART = 0
   IBRION = -1
   NSW = 0
   ISYM = 2
   DIPOL = 0.5 0.5 0.5
   IDIPOL = 3
   LDIPOL = .TRUE.
   GGA = RE
   IVDW = 13
   VDW_S8 = 1.7468
   VDW_A1 = 0.5363
   VDW_A2 = 3.0726
   ENCUT = 520
   PREC = Accurate
   LASPH = .TRUE.
   LREAL = Auto
   ISPIN = 1
   NELM = 200
   NELMIN = 8
   NCORE = 4
   KPAR = 2
   LWAVE = .FALSE.
   LCHARG = .FALSE.

 POTCAR:    PAW_PBE Au 04Oct2007
 POTCAR:    PAW_PBE Mg_pv 13Apr2007
 POTCAR:    PAW_PBE O 08Apr2002
 POTCAR:    PAW_PBE Au 04Oct2007
   VRHFIN =Au: s1d10

   TITEL  = PAW_PBE Au 04Oct2007
   POMASS =  196.966; ZVAL   =   11.000    mass and valenz
   ENMAX  =  229.943; ENMIN  =  172.457 eV

   TITEL  = PAW_PBE Mg_pv 13Apr2007
   POMASS =   24.305; ZVAL   =    8.000    mass and valenz
   ENMAX  =  403.929; ENMIN  =  302.947 eV

   TITEL  = PAW_PBE O 08Apr2002
   POMASS =   16.000; ZVAL   =    6.000    mass and valenz
   ENMAX  =  400.000; ENMIN  =  300.000 eV

 Optimization of the real space projectors (new method)

 maximal supplied QI-value         = 15.12
 optimisation between [QCUT,QGAM] = [ 11.64, 23.28] = [ 37.95,151.78] Ry
 Optimized for a Real-space Cutoff    1.49 Angstroem

   l    n(q)    QCUT    max X(q) W(low)/X(q) W(high)/X(q)  e(spline)
   2      9    11.641    60.898    0.24E-03    0.10E-03    0.19E-06
   2      9    11.641    58.894    0.25E-03    0.10E-03    0.19E-06
   0     10    11.641   109.617    0.73E-04    0.33E-04    0.11E-06
   0     10    11.641    75.026    0.71E-04    0.32E-04    0.11E-06
   1     10    11.641    16.344    0.27E-04    0.97E-04    0.16E-06
   1     10    11.641    10.160    0.23E-04    0.77E-04    0.13E-06
 Optimization of the real space projectors (new method)

[...]

   l    n(q)    QCUT    max X(q) W(low)/X(q) W(high)/X(q)  e(spline)
   1      8    11.527     2.974    0.44E-04    0.56E-04    0.12E-06
   1      8    11.527     4.279    0.12E-03    0.12E-03    0.26E-06
   0      9    11.527    16.381    0.46E-04    0.64E-04    0.78E-07
   0      9    11.527     5.611    0.26E-04    0.43E-04    0.55E-07
   2      8    11.527     4.652    0.22E-03    0.72E-04    0.47E-07
 Optimization of the real space projectors (new method)

 maximal supplied QI-value         = 24.76
 optimisation between [QCUT,QGAM] = [ 11.64, 23.27] = [ 37.91,151.63] Ry
 Optimized for a Real-space Cutoff    1.14 Angstroem

   l    n(q)    QCUT    max X(q) W(low)/X(q) W(high)/X(q)  e(spline)
   0      8    11.635    20.381    0.10E-03    0.33E-03    0.24E-06
   0      8    11.635    15.268    0.11E-03    0.35E-03    0.26E-06
   1      7    11.635     5.964    0.24E-03    0.31E-03    0.30E-06
   1      7    11.635     5.382    0.22E-03    0.25E-03    0.26E-06
|               ----> ADVICE to this user running VASP <----                  |
|     You enforced a specific xc type in the INCAR file but a different       |
|     type was found in the POTCAR file.                                      |
|     I HOPE YOU KNOW WHAT YOU ARE DOING!                                     |

  PAW_PBE Au 04Oct2007                  :
  PAW_PBE Mg_pv 13Apr2007               :
  PAW_PBE O 08Apr2002                   :

 POSCAR: Au Mg  O
  positions in direct lattice
  velocities in cartesian coordinates
|           W    W    AA    RRRRR   N    N  II  N    N   GGGG   !!!           |
|           W    W   A  A   R    R  NN   N  II  NN   N  G    G  !!!           |
|           W    W  A    A  R    R  N N  N  II  N N  N  G       !!!           |
|           W WW W  AAAAAA  RRRRR   N  N N  II  N  N N  G  GGG   !            |
|           WW  WW  A    A  R   R   N   NN  II  N   NN  G    G                |
|           W    W  A    A  R    R  N    N  II  N    N   GGGG   !!!           |
|     Specifying the vdW parameters                                           |
|     VDW_S8 = 1.747                                                          |
|     VDW_A1 = 0.536                                                          |
|     VDW_A2 = 3.073                                                          |
|     in the INCAR file will overwrite the defaults for revpbe. Please        |
|     make sure that is what you intended.                                    |

 ion  position               nearest neighbor table
   1  0.400  0.565  0.604- 157 2.36   3 2.61  55 2.63   4 2.77
   2  0.400  0.500  0.818-   3 2.52
   3  0.400  0.500  0.704-   2 2.52   4 2.61   1 2.61
   4  0.400  0.434  0.604- 153 2.35   3 2.61  55 2.64   1 2.77
   5  0.000  0.000  0.407- 107 2.11 108 2.11 123 2.11 188 2.11 105 2.11
   6  0.100  0.100  0.407- 107 2.11 108 2.11 112 2.11 127 2.11 106 2.11
   7  0.000  0.100  0.503- 105 2.11 106 2.11 109 2.11 186 2.11 107 2.11
   8  0.100  0.000  0.503- 105 2.11 106 2.11 122 2.11 125 2.11 108 2.11
   9  0.000  0.200  0.407- 111 2.11 107 2.11 112 2.11 192 2.11 109 2.11
  10  0.100  0.300  0.407- 112 2.11 111 2.11 116 2.11 131 2.11 110 2.11
  11  0.000  0.300  0.503- 109 2.11 110 2.11 113 2.11 190 2.11 111 2.11
  12  0.100  0.200  0.503- 110 2.11 109 2.11 106 2.11 129 2.11 112 2.11
  13  0.000  0.400  0.407- 111 2.11 115 2.11 116 2.11 196 2.11 113 2.11
  14  0.100  0.500  0.407- 115 2.11 116 2.11 120 2.11 135 2.11 114 2.11
  15  0.000  0.500  0.503- 113 2.11 114 2.11 117 2.11 194 2.11 115 2.11
  16  0.100  0.400  0.503- 110 2.11 113 2.11 114 2.11 133 2.11 116 2.11
  17  0.000  0.600  0.407- 115 2.11 119 2.11 120 2.11 200 2.11 117 2.11
  18  0.100  0.700  0.407- 124 2.11 120 2.11 119 2.11 139 2.11 118 2.11
  19  0.000  0.700  0.503- 121 2.11 118 2.11 117 2.11 198 2.11 119 2.11
  20  0.100  0.600  0.503- 114 2.11 117 2.11 118 2.11 137 2.11 120 2.11
  21  0.000  0.800  0.407- 119 2.11 123 2.11 124 2.11 204 2.11 121 2.11
  22  0.100  0.900  0.407- 108 2.11 123 2.11 124 2.11 143 2.11 122 2.11
  23  0.000  0.900  0.503- 105 2.11 121 2.11 122 2.11 202 2.11 123 2.11
  24  0.100  0.800  0.503- 118 2.11 121 2.11 122 2.11 141 2.11 124 2.11
  25  0.200  0.000  0.407- 128 2.11 127 2.11 108 2.11 143 2.11 125 2.11
  26  0.300  0.100  0.407- 127 2.11 128 2.11 132 2.11 147 2.11 126 2.11
  27  0.200  0.100  0.503- 126 2.11 125 2.11 106 2.11 129 2.11 127 2.11
  28  0.300  0.000  0.503- 125 2.11 126 2.11 142 2.11 145 2.11 128 2.11
  29  0.200  0.200  0.407- 131 2.11 132 2.11 112 2.11 127 2.11 129 2.11
  30  0.300  0.300  0.407- 131 2.11 132 2.11 136 2.11 151 2.11 130 2.11
  31  0.200  0.300  0.503- 129 2.11 130 2.11 110 2.11 133 2.11 131 2.11
  32  0.300  0.200  0.503- 129 2.11 130 2.11 126 2.11 149 2.11 132 2.11
  33  0.200  0.400  0.407- 136 2.11 131 2.11 135 2.11 116 2.11 133 2.11
  34  0.300  0.500  0.407- 135 2.11 136 2.11 140 2.11 155 2.11 134 2.11
  35  0.200  0.500  0.503- 134 2.11 133 2.11 114 2.11 137 2.11 135 2.11
  36  0.300  0.400  0.503- 133 2.11 130 2.11 134 2.11 153 2.11 136 2.11
  37  0.200  0.600  0.407- 140 2.11 135 2.11 139 2.11 120 2.11 137 2.11
  38  0.300  0.700  0.407- 139 2.11 144 2.11 140 2.11 159 2.11 138 2.11
  39  0.200  0.700  0.503- 138 2.11 141 2.11 118 2.11 137 2.11 139 2.11
  40  0.300  0.600  0.503- 137 2.11 134 2.11 138 2.11 157 2.11 140 2.11
  41  0.200  0.800  0.407- 139 2.11 144 2.11 143 2.11 124 2.11 141 2.11
  42  0.300  0.900  0.407- 143 2.11 128 2.11 144 2.11 163 2.11 142 2.11
  43  0.200  0.900  0.503- 142 2.11 125 2.11 141 2.11 122 2.11 143 2.11
  44  0.300  0.800  0.503- 138 2.11 141 2.11 142 2.11 161 2.11 144 2.11
  45  0.400  0.000  0.407- 128 2.11 147 2.11 148 2.11 163 2.11 145 2.11
  46  0.500  0.100  0.407- 147 2.11 148 2.11 152 2.11 167 2.11 146 2.11
  47  0.400  0.100  0.503- 126 2.11 145 2.11 146 2.11 149 2.11 147 2.11
  48  0.500  0.000  0.503- 145 2.11 146 2.11 162 2.11 165 2.11 148 2.11
  49  0.400  0.200  0.407- 151 2.11 147 2.11 132 2.11 152 2.11 149 2.11
  50  0.500  0.300  0.407- 152 2.11 151 2.11 156 2.11 171 2.11 150 2.11
  51  0.400  0.300  0.503- 149 2.11 130 2.11 150 2.11 153 2.11 151 2.11
  52  0.500  0.200  0.503- 150 2.11 149 2.11 146 2.11 169 2.11 152 2.11
  53  0.400  0.400  0.407- 136 2.11 151 2.11 155 2.11 156 2.11 153 2.11
  54  0.500  0.500  0.407- 155 2.11 156 2.11 160 2.11 175 2.11 154 2.11
  55  0.400  0.500  0.503- 134 2.11 153 2.11 154 2.11 157 2.11 155 2.11   1 2.63   4 2.64
  56  0.500  0.400  0.503- 150 2.11 153 2.11 154 2.11 173 2.11 156 2.11
  57  0.400  0.600  0.407- 140 2.11 155 2.11 159 2.11 160 2.11 157 2.11
  58  0.500  0.700  0.407- 164 2.11 160 2.11 159 2.11 179 2.11 158 2.11
  59  0.400  0.700  0.503- 161 2.11 157 2.11 158 2.11 138 2.11 159 2.11
  60  0.500  0.600  0.503- 154 2.11 157 2.11 158 2.11 177 2.11 160 2.11
[...]
 190  0.900  0.300  0.503-  92 2.11  91 2.11  11 2.11  96 2.11  90 2.11
 191  0.800  0.300  0.407-  70 2.11  89 2.11  90 2.11  93 2.11  91 2.11
 192  0.900  0.200  0.407-  90 2.11  86 2.11  89 2.11   9 2.11  92 2.11
 193  0.800  0.400  0.503-  76 2.11  91 2.11  95 2.11  96 2.11  93 2.11
 194  0.900  0.500  0.503-  15 2.11  95 2.11  96 2.11 100 2.11  94 2.11
 195  0.800  0.500  0.407-  74 2.11  93 2.11  94 2.11  97 2.11  95 2.11
 196  0.900  0.400  0.407-  13 2.11  90 2.11  93 2.11  94 2.11  96 2.11
 197  0.800  0.600  0.503-  80 2.11  95 2.11  99 2.11 100 2.11  97 2.11
 198  0.900  0.700  0.503- 104 2.11  99 2.11 100 2.11  19 2.11  98 2.11
 199  0.800  0.700  0.407-  78 2.11 101 2.11  98 2.11  97 2.11  99 2.11
 200  0.900  0.600  0.407-  17 2.11  94 2.11  97 2.11  98 2.11 100 2.11
 201  0.800  0.800  0.503-  84 2.11  99 2.11 103 2.11 104 2.11 101 2.11
 202  0.900  0.900  0.503-  23 2.11  88 2.11 103 2.11 104 2.11 102 2.11
 203  0.800  0.900  0.407-  82 2.11  85 2.11 101 2.11 102 2.11 103 2.11
 204  0.900  0.800  0.407-  98 2.11  21 2.11 101 2.11 102 2.11 104 2.11

  LATTYP: Found a simple tetragonal cell.
 ALAT       =    21.1388521970
 C/A-ratio  =     1.0461251639

  Lattice vectors:

 A1 = (  21.1388521970,   0.0000000000,   0.0000000000)
 A2 = (   0.0000000000,  21.1388521970,   0.0000000000)
 A3 = (   0.0000000000,   0.0000000000,  22.1138852197)

Analysis of symmetry for initial positions (statically):
 Subroutine PRICEL returns:
 Original cell was already a primitive cell.

 Routine SETGRP: Setting up the symmetry group for a
 simple tetragonal supercell.

 Subroutine GETGRP returns: Found  1 space group operations
 (whereof  1 operations were pure point group operations)
 out of a pool of 16 trial point group operations.

The static configuration has the point symmetry C_1 .

Analysis of symmetry for dynamics (positions and initial velocities):
 Subroutine PRICEL returns:
 Original cell was already a primitive cell.

[...]

The dynamic configuration has the point symmetry C_1 .

Analysis of constrained symmetry for selective dynamics:
 Subroutine PRICEL returns:
 Original cell was already a primitive cell.

 Routine SETGRP: Setting up the symmetry group for a
 simple tetragonal supercell.

 Subroutine GETGRP returns: Found  1 space group operations
 (whereof  1 operations were pure point group operations)
 out of a pool of 16 trial point group operations.

The constrained configuration has the point symmetry C_1 .

[...]
     54     -43.0373      2.00000
     55     -43.0372      2.00000
     56     -43.0291      2.00000
     57     -43.0289      2.00000
     58     -43.0273      2.00000
     59     -43.0270      2.00000
     60     -43.0269      2.00000
[...]
    946       6.2106      0.00000
    947       6.2277      0.00000
    948       6.2643      0.00000
    949       6.3184      0.00000
    950       6.3651      0.00000
    951       6.4261      0.00000
    952       6.4688      0.00000
    953       6.5145      0.00000
    954       6.6740      0.00000
    955       6.6877      0.00000
    956       6.7965      0.00000
    957       6.8118      0.00000
    958       6.8974      0.00000
    959       6.9558      0.00000
    960       6.9752      0.00000

 soft charge-density along one line, spin component           1
         0         1         2         3         4         5         6         7         8         9
 total charge-density along one line

------------------------ aborting loop because EDIFF is reached ----------------------------------------

  FORCE on cell =-STRESS in cart. coord.  units (eV):
  Direction    XX          YY          ZZ          XY          YZ          ZX
  Alpha Z  1417.83424  1417.83424  1417.83424
  Ewald  475017.55858476123.61356************     0.15895     0.50430    -0.54556
  Hartree504467.98967505265.41232************     0.11379     0.17927    -0.38612
  E(xc)   -7875.68201 -7874.05284 -7921.14647     0.00021     0.00075    -0.00104
  Local  ************************************    -0.26865    -0.67088     0.91251
  n-local -8695.76087 -8704.89619 -8837.36396    -0.00089     0.01868     0.00710
  augment  3551.86149  3546.93600  3483.38719    -0.00100    -0.00807     0.00273
  Kinetic 23330.15137 23317.99789 23545.84241    -0.00224     0.00550     0.01321
  Fock        0.00000     0.00000     0.00000     0.00000     0.00000     0.00000
  vdW       -54.68030   -54.72703   -26.21867    -0.00003    -0.00064    -0.00006
  Total    -156.49107  -156.18551    16.79364     0.00015     0.02890     0.00277
  in kB     -25.37303   -25.32348     2.72287     0.00002     0.00469     0.00045

 VOLUME and BASIS-vectors are now :
  energy-cutoff  :      520.00
  volume of cell :     9881.61
      direct lattice vectors                 reciprocal lattice vectors
    21.138852197  0.000000000  0.000000000     0.047306258  0.000000000  0.000000000
     0.000000000 21.138852197  0.000000000     0.000000000  0.047306258  0.000000000
     0.000000000  0.000000000 22.113885220     0.000000000  0.000000000  0.045220457

  length of vectors
    21.138852197 21.138852197 22.113885220     0.047306258  0.047306258  0.045220457

 FORCES acting on ions:
    Electron-Ion                     Ewald-Force                    Non-Local-Force
   -.145E+00 -.383E+03 -.190E+04   0.143E+00 0.380E+03 0.191E+04   0.289E-02 0.356E+01 -.288E+01
   0.316E-01 -.106E+00 -.126E+04   -.320E-01 0.987E-01 0.126E+04   0.377E-03 0.650E-02 0.682E+01
   0.161E+00 0.644E+00 -.172E+04   -.160E+00 -.643E+00 0.172E+04   -.107E-02 0.255E-02 0.190E+01
   -.298E-01 0.383E+03 -.190E+04   0.285E-01 -.379E+03 0.191E+04   0.245E-02 -.351E+01 -.288E+01
   0.633E+01 0.232E-01 0.935E+03   -.637E+01 -.232E-01 -.927E+03   0.281E-01 0.311E-04 -.757E+01
   0.124E+02 0.940E+01 0.938E+03   -.125E+02 -.943E+01 -.930E+03   0.621E-01 0.254E-01 -.758E+01
   0.906E+01 0.847E+01 -.918E+03   -.910E+01 -.848E+01 0.910E+03   0.317E-01 0.366E-02 0.745E+01
   0.132E+02 0.415E-01 -.917E+03   -.133E+02 -.416E-01 0.909E+03   0.430E-01 0.493E-04 0.745E+01
   0.980E+01 0.114E+02 0.938E+03   -.986E+01 -.114E+02 -.930E+03   0.505E-01 0.125E-01 -.758E+01
   0.257E+02 0.184E+02 0.949E+03   -.259E+02 -.184E+02 -.941E+03   0.168E+00 0.327E-01 -.760E+01
   0.189E+02 0.157E+02 -.912E+03   -.189E+02 -.157E+02 0.904E+03   0.530E-01 0.161E-02 0.744E+01
   0.243E+02 0.227E+02 -.911E+03   -.244E+02 -.227E+02 0.903E+03   0.102E+00 0.181E-01 0.744E+01
   0.171E+02 0.780E+01 0.944E+03   -.172E+02 -.781E+01 -.936E+03   0.807E-01 0.569E-02 -.759E+01
   0.374E+02 -.460E-01 0.959E+03   -.377E+02 0.461E-01 -.951E+03   0.212E+00 -.112E-03 -.762E+01
   0.272E+02 -.374E-01 -.907E+03   -.272E+02 0.374E-01 0.900E+03   0.543E-01 -.642E-05 0.743E+01
   0.540E+02 0.187E+02 -.895E+03   -.541E+02 -.187E+02 0.887E+03   0.142E+00 0.535E-03 0.741E+01
   0.170E+02 -.785E+01 0.944E+03   -.171E+02 0.785E+01 -.936E+03   0.806E-01 -.574E-02 -.759E+01
   0.256E+02 -.184E+02 0.949E+03   -.258E+02 0.184E+02 -.941E+03   0.167E+00 -.327E-01 -.760E+01
   0.188E+02 -.157E+02 -.912E+03   -.189E+02 0.157E+02 0.904E+03   0.529E-01 -.162E-02 0.744E+01
   0.539E+02 -.188E+02 -.895E+03   -.541E+02 0.188E+02 0.887E+03   0.142E+00 -.589E-03 0.741E+01
   0.978E+01 -.114E+02 0.938E+03   -.984E+01 0.114E+02 -.930E+03   0.504E-01 -.125E-01 -.758E+01
   0.124E+02 -.934E+01 0.938E+03   -.125E+02 0.938E+01 -.930E+03   0.620E-01 -.253E-01 -.758E+01
   0.905E+01 -.842E+01 -.918E+03   -.909E+01 0.843E+01 0.910E+03   0.316E-01 -.365E-02 0.745E+01
   0.242E+02 -.226E+02 -.911E+03   -.243E+02 0.227E+02 0.903E+03   0.101E+00 -.181E-01 0.744E+01
   0.113E+02 0.447E-01 0.940E+03   -.114E+02 -.449E-01 -.932E+03   0.511E-01 0.139E-03 -.758E+01
   0.897E+01 0.176E+02 0.946E+03   -.903E+01 -.178E+02 -.938E+03   0.472E-01 0.123E+00 -.759E+01
   0.178E+02 0.191E+02 -.911E+03   -.179E+02 -.191E+02 0.904E+03   0.612E-01 0.608E-01 0.744E+01
   0.935E+01 0.818E-01 -.911E+03   -.939E+01 -.820E-01 0.904E+03   0.299E-01 0.116E-03 0.744E+01
   0.205E+02 0.249E+02 0.950E+03   -.207E+02 -.251E+02 -.942E+03   0.144E+00 0.111E+00 -.758E+01
   0.263E+02 0.456E+02 0.985E+03   -.267E+02 -.460E+02 -.977E+03   0.324E+00 0.327E+00 -.753E+01
   0.564E+02 0.507E+02 -.884E+03   -.569E+02 -.507E+02 0.876E+03   0.360E+00 0.250E-01 0.741E+01
   0.238E+02 0.576E+02 -.891E+03   -.239E+02 -.580E+02 0.884E+03   0.877E-01 0.314E+00 0.743E+01
   0.468E+02 0.217E+02 0.981E+03   -.474E+02 -.217E+02 -.973E+03   0.490E+00 0.565E-01 -.771E+01
   0.497E+02 -.146E+00 0.104E+04   -.504E+02 0.149E+00 -.103E+04   0.518E+00 -.167E-02 -.774E+01
   0.110E+03 -.160E+00 -.847E+03   -.111E+03 0.160E+00 0.839E+03   0.315E+00 -.134E-04 0.735E+01
   0.128E+03 0.923E+02 -.759E+03   -.131E+03 -.922E+02 0.752E+03   0.195E+01 -.321E-01 0.700E+01
   0.467E+02 -.218E+02 0.981E+03   -.474E+02 0.218E+02 -.973E+03   0.489E+00 -.570E-01 -.771E+01
   0.262E+02 -.455E+02 0.985E+03   -.266E+02 0.460E+02 -.977E+03   0.323E+00 -.326E+00 -.753E+01
   0.562E+02 -.507E+02 -.884E+03   -.567E+02 0.507E+02 0.876E+03   0.358E+00 -.252E-01 0.741E+01
   0.128E+03 -.927E+02 -.760E+03   -.130E+03 0.926E+02 0.753E+03   0.194E+01 0.308E-01 0.700E+01
   0.204E+02 -.249E+02 0.950E+03   -.206E+02 0.250E+02 -.942E+03   0.144E+00 -.111E+00 -.758E+01
   0.895E+01 -.175E+02 0.946E+03   -.901E+01 0.176E+02 -.938E+03   0.472E-01 -.123E+00 -.759E+01
   0.178E+02 -.189E+02 -.911E+03   -.178E+02 0.190E+02 0.904E+03   0.612E-01 -.605E-01 0.744E+01
   0.237E+02 -.574E+02 -.892E+03   -.238E+02 0.578E+02 0.884E+03   0.877E-01 -.312E+00 0.743E+01
   -.638E-02 0.628E-01 0.943E+03   0.633E-02 -.631E-01 -.935E+03   0.417E-04 0.231E-03 -.759E+01
   -.898E+01 0.176E+02 0.946E+03   0.904E+01 -.178E+02 -.938E+03   -.472E-01 0.123E+00 -.759E+01
   -.111E-01 0.296E+02 -.906E+03   0.110E-01 -.298E+02 0.898E+03   0.595E-04 0.139E+00 0.744E+01
   -.936E+01 0.814E-01 -.911E+03   0.940E+01 -.815E-01 0.904E+03   -.299E-01 0.118E-03 0.744E+01
   -.134E-01 0.390E+02 0.963E+03   0.133E-01 -.396E+02 -.955E+03   0.734E-04 0.448E+00 -.764E+01
   -.263E+02 0.455E+02 0.985E+03   0.268E+02 -.460E+02 -.977E+03   -.324E+00 0.327E+00 -.753E+01
   -.633E-01 0.130E+03 -.820E+03   0.629E-01 -.132E+03 0.812E+03   0.270E-03 0.196E+01 0.751E+01
   -.238E+02 0.576E+02 -.891E+03   0.239E+02 -.580E+02 0.884E+03   -.876E-01 0.314E+00 0.743E+01
   -.418E-01 0.441E+02 0.104E+04   0.411E-01 -.444E+02 -.104E+04   0.533E-03 0.250E+00 -.515E+01
   -.497E+02 -.143E+00 0.104E+04   0.504E+02 0.146E+00 -.103E+04   -.518E+00 -.173E-02 -.774E+01
   -.224E+00 -.540E+00 -.530E+03   0.224E+00 0.562E+00 0.527E+03   0.113E-02 -.203E-01 0.298E+01
   -.128E+03 0.922E+02 -.759E+03   0.131E+03 -.921E+02 0.752E+03   -.195E+01 -.316E-01 0.700E+01
   -.384E-01 -.443E+02 0.104E+04   0.379E-01 0.446E+02 -.104E+04   0.383E-03 -.251E+00 -.517E+01
   -.262E+02 -.455E+02 0.985E+03   0.267E+02 0.459E+02 -.977E+03   -.323E+00 -.326E+00 -.753E+01
   -.543E-01 -.129E+03 -.821E+03   0.540E-01 0.132E+03 0.813E+03   0.252E-03 -.194E+01 0.751E+01
   -.128E+03 -.926E+02 -.760E+03   0.130E+03 0.925E+02 0.753E+03   -.194E+01 0.304E-01 0.701E+01
[...]
   -.102E+02 0.905E+01 0.708E+03   0.102E+02 -.906E+01 -.712E+03   -.609E-01 0.149E-01 0.338E+01
   0.618E-02 0.733E+01 0.704E+03   -.613E-02 -.734E+01 -.708E+03   -.668E-04 0.980E-02 0.339E+01
   -.185E+02 0.775E+01 -.683E+03   0.185E+02 -.775E+01 0.687E+03   -.561E-01 0.656E-03 -.363E+01
   0.157E-01 -.216E-01 -.685E+03   -.156E-01 0.217E-01 0.689E+03   -.127E-03 -.712E-05 -.361E+01
   -.139E+02 -.208E-01 0.711E+03   0.140E+02 0.209E-01 -.715E+03   -.709E-01 -.518E-04 0.338E+01
   0.102E-01 0.484E+01 0.707E+03   -.101E-01 -.484E+01 -.711E+03   -.107E-03 0.394E-02 0.338E+01
   -.185E+02 -.779E+01 -.683E+03   0.185E+02 0.779E+01 0.687E+03   -.561E-01 -.692E-03 -.363E+01
   0.110E-01 -.949E+01 -.687E+03   -.110E-01 0.949E+01 0.692E+03   -.952E-04 -.213E-02 -.360E+01
   -.101E+02 -.905E+01 0.708E+03   0.102E+02 0.907E+01 -.712E+03   -.608E-01 -.149E-01 0.338E+01
   0.100E-01 -.487E+01 0.707E+03   -.994E-02 0.487E+01 -.711E+03   -.106E-03 -.398E-02 0.338E+01
   -.969E+01 -.109E+02 -.688E+03   0.972E+01 0.109E+02 0.692E+03   -.425E-01 -.103E-01 -.360E+01
   0.564E-02 -.535E+01 -.690E+03   -.560E-02 0.535E+01 0.695E+03   -.516E-04 -.379E-02 -.358E+01
   -.541E+01 -.504E+01 0.703E+03   0.543E+01 0.505E+01 -.707E+03   -.366E-01 -.122E-01 0.339E+01
   0.596E-02 -.732E+01 0.704E+03   -.591E-02 0.733E+01 -.708E+03   -.662E-04 -.978E-02 0.339E+01
   0.611E-02 -.377E-01 0.604E+01   0.152E-11 0.136E-11 0.200E-10   -.534E-02 0.366E-01 -.671E+01

 POSITION                                       TOTAL-FORCE (eV/Angst)
      8.45440     11.94847     13.35506         0.000778      0.181083     -0.023246
      8.45328     10.56231     18.09008        -0.000012     -0.001023      0.234543
      8.45334     10.56083     15.56737         0.000253      0.002761      0.013093
      8.45399      9.17859     13.35199         0.001088     -0.170059     -0.023290
      0.00000      0.00000      9.00000        -0.007736      0.000002      0.329652
      2.11389      2.11389      9.00000        -0.017166     -0.007099      0.329784
      0.00000      2.11389     11.11389        -0.008453     -0.000992     -0.282320
      2.11389      0.00000     11.11389        -0.011852     -0.000003     -0.281286
      0.00000      4.22777      9.00000        -0.013418     -0.003474      0.331005
      2.11389      6.34166      9.00000        -0.043867     -0.008927      0.335509
      0.00000      6.34166     11.11389        -0.013253     -0.000135     -0.276541
      2.11389      4.22777     11.11389        -0.026311     -0.004804     -0.275119
      0.00000      8.45554      9.00000        -0.021103     -0.001432      0.333643
      2.11389     10.56943      9.00000        -0.056468      0.000039      0.340261
      0.00000     10.56943     11.11389        -0.012825      0.000005     -0.271848
      2.11389      8.45554     11.11389        -0.032124      0.001043     -0.257874
      0.00000     12.68331      9.00000        -0.021077      0.001460      0.333635
      2.11389     14.79720      9.00000        -0.043738      0.008947      0.335468
      0.00000     14.79720     11.11389        -0.013240      0.000149     -0.276568
      2.11389     12.68331     11.11389        -0.032117     -0.001020     -0.257932
      0.00000     16.91108      9.00000        -0.013391      0.003479      0.330992
      2.11389     19.02497      9.00000        -0.017128      0.007069      0.329776
      0.00000     19.02497     11.11389        -0.008444      0.000995     -0.282334
      2.11389     16.91108     11.11389        -0.026252      0.004817     -0.275169
      4.22777      0.00000      9.00000        -0.014401     -0.000033      0.330225
      6.34166      2.11389      9.00000        -0.013693     -0.032354      0.331548
      4.22777      2.11389     11.11389        -0.017027     -0.015472     -0.276211
      6.34166      0.00000     11.11389        -0.008486     -0.000020     -0.276885
      4.22777      4.22777      9.00000        -0.040553     -0.031369      0.328420
      6.34166      6.34166      9.00000        -0.103808     -0.101186      0.299884
      4.22777      6.34166     11.11389        -0.085924     -0.001179     -0.244447
      6.34166      4.22777     11.11389        -0.024390     -0.076434     -0.257644
      4.22777      8.45554      9.00000        -0.121913     -0.013221      0.357448
      6.34166     10.56943      9.00000        -0.162946      0.000558      0.337624
      4.22777     10.56943     11.11389        -0.057177     -0.000014     -0.190904
      6.34166      8.45554     11.11389        -0.641641      0.038142     -0.144138
      4.22777     12.68331      9.00000        -0.121510      0.013379      0.357307
      6.34166     14.79720      9.00000        -0.103491      0.100850      0.300098
      4.22777     14.79720     11.11389        -0.085615      0.001304     -0.244711
      6.34166     12.68331     11.11389        -0.635811     -0.038212     -0.143885
      4.22777     16.91108      9.00000        -0.040433      0.031270      0.328413
      6.34166     19.02497      9.00000        -0.013674      0.032217      0.331519
      4.22777     19.02497     11.11389        -0.017013      0.015420     -0.276255
      6.34166     16.91108     11.11389        -0.024434      0.076153     -0.257886
      8.45554      0.00000      9.00000        -0.000014     -0.000055      0.331139
     10.56943      2.11389      9.00000         0.013661     -0.032363      0.331543
      8.45554      2.11389     11.11389        -0.000018     -0.033785     -0.271716
     10.56943      0.00000     11.11389         0.008453     -0.000019     -0.276888
      8.45554      4.22777      9.00000        -0.000027     -0.111684      0.339430
     10.56943      6.34166      9.00000         0.103746     -0.101266      0.299854
      8.45554      6.34166     11.11389        -0.000110     -0.587978     -0.239719
     10.56943      4.22777     11.11389         0.024340     -0.076492     -0.257669
      8.45554      8.45554      9.00000        -0.000188     -0.039619     -0.192328
     10.56943     10.56943      9.00000         0.162854      0.000585      0.337599
      8.45554     10.56943     11.11389         0.000625      0.000865     -0.924389
     10.56943      8.45554     11.11389         0.640913      0.038274     -0.143973
      8.45554     12.68331      9.00000        -0.000134      0.039566     -0.189005
     10.56943     14.79720      9.00000         0.103433      0.100907      0.300063
      8.45554     14.79720     11.11389        -0.000094      0.583566     -0.239677
     10.56943     12.68331     11.11389         0.635285     -0.038296     -0.143880
[...]
     19.02497      6.34166     11.11389        -0.000032      0.000612      0.471881
     16.91108      6.34166      9.00000        -0.016884      0.004171     -0.526012
     19.02497      4.22777      9.00000        -0.000022      0.002738     -0.524466
     16.91108      8.45554     11.11389        -0.015786      0.000190      0.465343
     19.02497     10.56943     11.11389        -0.000042      0.000005      0.468665
     16.91108     10.56943      9.00000        -0.019720     -0.000007     -0.528027
     19.02497      8.45554      9.00000        -0.000035      0.001108     -0.526100
     16.91108     12.68331     11.11389        -0.015772     -0.000195      0.465369
     19.02497     14.79720     11.11389        -0.000032     -0.000604      0.471900
     16.91108     14.79720      9.00000        -0.016849     -0.004167     -0.525999
     19.02497     12.68331      9.00000        -0.000038     -0.001105     -0.526097
     16.91108     16.91108     11.11389        -0.011792     -0.002869      0.472889
     19.02497     19.02497     11.11389        -0.000018     -0.001064      0.476421
     16.91108     19.02497      9.00000        -0.010124     -0.003361     -0.523954
     19.02497     16.91108      9.00000        -0.000021     -0.002720     -0.524463
    total drift:                                0.000776     -0.001177     -0.663900

  FREE ENERGIE OF THE ION-ELECTRON SYSTEM (eV)
  free  energy   TOTEN  =     -1136.39517141 eV

  energy  without entropy=    -1136.39517141  energy(sigma->0) =    -1136.39517141