 vasp.6.3.0 20Jan22 (build Apr  1 2022 16:44:48) complex
 executed on        HPECrayEX_GCC date 2022.10.18  08:31:34

 INCAR:
   SYSTEM = MgO-rocksalt
   ISMEAR = 0
   SIGMA = 0.05
   EDIFF = 1E-6
   ALGO = ALL
   ISTART = 0
   IBRION = -1
   NSW = 0
   ISYM = 2
   DIPOL = 0.5 0.5 0.5
   IDIPOL = 3
   LDIPOL = .TRUE.
   LHFCALC = .TRUE.
   GGA = B5
   AEXX = 0.2
   AGGAX = 0.72
   AGGAC = 0.81
   ALDAC = 0.19
   IVDW = 12
   VDW_S8 = 1.9889
   VDW_A1 = 0.3981
   VDW_A2 = 4.4211
   ENCUT = 520
   PREC = Accurate
   LASPH = .TRUE.
   LREAL = Auto
   ISPIN = 1
   NELM = 200
   NELMIN = 8
   NCORE = 4
   KPAR = 2
   LWAVE = .FALSE.
   LCHARG = .FALSE.

 POTCAR:    PAW_PBE Au 04Oct2007
 POTCAR:    PAW_PBE Mg_pv 13Apr2007
 POTCAR:    PAW_PBE O 08Apr2002
|           W    W    AA    RRRRR   N    N  II  N    N   GGGG   !!!           |
|           W    W   A  A   R    R  NN   N  II  NN   N  G    G  !!!           |
|           W    W  A    A  R    R  N N  N  II  N N  N  G       !!!           |
|           W WW W  AAAAAA  RRRRR   N  N N  II  N  N N  G  GGG   !            |
|           WW  WW  A    A  R   R   N   NN  II  N   NN  G    G                |
|           W    W  A    A  R    R  N    N  II  N    N   GGGG   !!!           |
|     You have selected ISYM=2 for a HF type calculation. This will           |
|     symmetrize the charge density but not the exchange potential. I         |
|     suggest to use ISYM=3 instead. This uses symmetry to obtain the         |
|     orbitals at all k-points in the Brillouin zone, but does not apply      |
|     symmetry to the Hartree potential directly. The resultant charge        |
|     might have lower symmetry than the crystal but, at least, Hartree       |
|     and exchange are fully compatible.                                      |

   TITEL  = PAW_PBE Au 04Oct2007
   POMASS =  196.966; ZVAL   =   11.000    mass and valenz
   ENMAX  =  229.943; ENMIN  =  172.457 eV

   TITEL  = PAW_PBE Mg_pv 13Apr2007
   POMASS =   24.305; ZVAL   =    8.000    mass and valenz
   ENMAX  =  403.929; ENMIN  =  302.947 eV

   TITEL  = PAW_PBE O 08Apr2002
   POMASS =   16.000; ZVAL   =    6.000    mass and valenz
   ENMAX  =  400.000; ENMIN  =  300.000 eV

 Optimization of the real space projectors (new method)

 maximal supplied QI-value         = 15.12
 optimisation between [QCUT,QGAM] = [ 11.64, 23.28] = [ 37.95,151.78] Ry
 Optimized for a Real-space Cutoff    1.49 Angstroem

   l    n(q)    QCUT    max X(q) W(low)/X(q) W(high)/X(q)  e(spline)
   2      9    11.641    60.898    0.24E-03    0.10E-03    0.19E-06
   2      9    11.641    58.894    0.25E-03    0.10E-03    0.19E-06
   0     10    11.641   109.617    0.73E-04    0.33E-04    0.11E-06
   0     10    11.641    75.026    0.71E-04    0.32E-04    0.11E-06
   1     10    11.641    16.344    0.27E-04    0.97E-04    0.16E-06
   1     10    11.641    10.160    0.23E-04    0.77E-04    0.13E-06
 Optimization of the real space projectors (new method)

[...]

   l    n(q)    QCUT    max X(q) W(low)/X(q) W(high)/X(q)  e(spline)
   1      8    11.527     2.974    0.44E-04    0.56E-04    0.12E-06
   1      8    11.527     4.279    0.12E-03    0.12E-03    0.26E-06
   0      9    11.527    16.381    0.46E-04    0.64E-04    0.78E-07
   0      9    11.527     5.611    0.26E-04    0.43E-04    0.55E-07
   2      8    11.527     4.652    0.22E-03    0.72E-04    0.47E-07
 Optimization of the real space projectors (new method)

 maximal supplied QI-value         = 24.76
 optimisation between [QCUT,QGAM] = [ 11.64, 23.27] = [ 37.91,151.63] Ry
 Optimized for a Real-space Cutoff    1.14 Angstroem

   l    n(q)    QCUT    max X(q) W(low)/X(q) W(high)/X(q)  e(spline)
   0      8    11.635    20.381    0.10E-03    0.33E-03    0.24E-06
   0      8    11.635    15.268    0.11E-03    0.35E-03    0.26E-06
   1      7    11.635     5.964    0.24E-03    0.31E-03    0.30E-06
   1      7    11.635     5.382    0.22E-03    0.25E-03    0.26E-06
|               ----> ADVICE to this user running VASP <----                  |
|     You enforced a specific xc type in the INCAR file but a different       |
|     type was found in the POTCAR file.                                      |
|     I HOPE YOU KNOW WHAT YOU ARE DOING!                                     |

  PAW_PBE Au 04Oct2007                  :
  PAW_PBE Mg_pv 13Apr2007               :
  PAW_PBE O 08Apr2002                   :

 POSCAR: Au Mg  O
  positions in direct lattice
 exchange correlation table for  LEXCH =       12
   RHO(1)=    0.500       N(1)  =     2000
   RHO(2)=  100.500       N(2)  =     4000

 ion  position               nearest neighbor table
   1  0.560  0.500  0.629-   2 2.54  73 2.92
   2  0.440  0.500  0.629-   1 2.54  53 2.92
   3  0.000  0.000  0.407- 105 2.11 106 2.11 121 2.11 186 2.11 103 2.11
   4  0.100  0.100  0.407- 105 2.11 106 2.11 110 2.11 125 2.11 104 2.11
   5  0.000  0.100  0.503- 103 2.11 104 2.11 107 2.11 184 2.11 105 2.11
   6  0.100  0.000  0.503- 103 2.11 104 2.11 120 2.11 123 2.11 106 2.11
   7  0.000  0.200  0.407- 109 2.11 105 2.11 110 2.11 190 2.11 107 2.11
   8  0.100  0.300  0.407- 110 2.11 109 2.11 114 2.11 129 2.11 108 2.11
   9  0.000  0.300  0.503- 107 2.11 108 2.11 111 2.11 188 2.11 109 2.11
  10  0.100  0.200  0.503- 108 2.11 107 2.11 104 2.11 127 2.11 110 2.11
  11  0.000  0.400  0.407- 109 2.11 113 2.11 114 2.11 194 2.11 111 2.11
  12  0.100  0.500  0.407- 113 2.11 114 2.11 118 2.11 133 2.11 112 2.11
  13  0.000  0.500  0.503- 111 2.11 112 2.11 115 2.11 192 2.11 113 2.11
  14  0.100  0.400  0.503- 108 2.11 111 2.11 112 2.11 131 2.11 114 2.11
  15  0.000  0.600  0.407- 113 2.11 117 2.11 118 2.11 198 2.11 115 2.11
  16  0.100  0.700  0.407- 122 2.11 118 2.11 117 2.11 137 2.11 116 2.11
  17  0.000  0.700  0.503- 119 2.11 116 2.11 115 2.11 196 2.11 117 2.11
  18  0.100  0.600  0.503- 112 2.11 115 2.11 116 2.11 135 2.11 118 2.11
  19  0.000  0.800  0.407- 117 2.11 121 2.11 122 2.11 202 2.11 119 2.11
  20  0.100  0.900  0.407- 106 2.11 121 2.11 122 2.11 141 2.11 120 2.11
  21  0.000  0.900  0.503- 103 2.11 119 2.11 120 2.11 200 2.11 121 2.11
  22  0.100  0.800  0.503- 116 2.11 119 2.11 120 2.11 139 2.11 122 2.11
  23  0.200  0.000  0.407- 126 2.11 125 2.11 106 2.11 141 2.11 123 2.11
  24  0.300  0.100  0.407- 125 2.11 126 2.11 130 2.11 145 2.11 124 2.11
  25  0.200  0.100  0.503- 124 2.11 123 2.11 104 2.11 127 2.11 125 2.11
  26  0.300  0.000  0.503- 123 2.11 124 2.11 140 2.11 143 2.11 126 2.11
  27  0.200  0.200  0.407- 129 2.11 130 2.11 110 2.11 125 2.11 127 2.11
  28  0.300  0.300  0.407- 129 2.11 130 2.11 134 2.11 149 2.11 128 2.11
  29  0.200  0.300  0.503- 127 2.11 128 2.11 108 2.11 131 2.11 129 2.11
  30  0.300  0.200  0.503- 127 2.11 128 2.11 124 2.11 147 2.11 130 2.11
  31  0.200  0.400  0.407- 134 2.11 129 2.11 133 2.11 114 2.11 131 2.11
  32  0.300  0.500  0.407- 133 2.11 134 2.11 138 2.11 153 2.11 132 2.11
  33  0.200  0.500  0.503- 132 2.11 131 2.11 112 2.11 135 2.11 133 2.11
  34  0.300  0.400  0.503- 131 2.11 128 2.11 132 2.11 151 2.11 134 2.11
  35  0.200  0.600  0.407- 138 2.11 133 2.11 137 2.11 118 2.11 135 2.11
  36  0.300  0.700  0.407- 137 2.11 142 2.11 138 2.11 157 2.11 136 2.11
  37  0.200  0.700  0.503- 136 2.11 139 2.11 116 2.11 135 2.11 137 2.11
  38  0.300  0.600  0.503- 135 2.11 132 2.11 136 2.11 155 2.11 138 2.11
  39  0.200  0.800  0.407- 137 2.11 142 2.11 141 2.11 122 2.11 139 2.11
  40  0.300  0.900  0.407- 141 2.11 126 2.11 142 2.11 161 2.11 140 2.11
  41  0.200  0.900  0.503- 140 2.11 123 2.11 139 2.11 120 2.11 141 2.11
  42  0.300  0.800  0.503- 136 2.11 139 2.11 140 2.11 159 2.11 142 2.11
  43  0.400  0.000  0.407- 126 2.11 145 2.11 146 2.11 161 2.11 143 2.11
  44  0.500  0.100  0.407- 145 2.11 146 2.11 150 2.11 165 2.11 144 2.11
  45  0.400  0.100  0.503- 124 2.11 143 2.11 144 2.11 147 2.11 145 2.11
  46  0.500  0.000  0.503- 143 2.11 144 2.11 160 2.11 163 2.11 146 2.11
  47  0.400  0.200  0.407- 149 2.11 145 2.11 130 2.11 150 2.11 147 2.11
  48  0.500  0.300  0.407- 150 2.11 149 2.11 154 2.11 169 2.11 148 2.11
  49  0.400  0.300  0.503- 147 2.11 128 2.11 148 2.11 151 2.11 149 2.11
  50  0.500  0.200  0.503- 148 2.11 147 2.11 144 2.11 167 2.11 150 2.11
  51  0.400  0.400  0.407- 134 2.11 149 2.11 153 2.11 154 2.11 151 2.11
  52  0.500  0.500  0.407- 153 2.11 154 2.11 158 2.11 173 2.11 152 2.11
  53  0.400  0.500  0.503- 132 2.11 151 2.11 152 2.11 155 2.11 153 2.11   2 2.92
  54  0.500  0.400  0.503- 148 2.11 151 2.11 152 2.11 171 2.11 154 2.11
  55  0.400  0.600  0.407- 138 2.11 153 2.11 157 2.11 158 2.11 155 2.11
  56  0.500  0.700  0.407- 162 2.11 158 2.11 157 2.11 177 2.11 156 2.11
  57  0.400  0.700  0.503- 159 2.11 155 2.11 156 2.11 136 2.11 157 2.11
  58  0.500  0.600  0.503- 152 2.11 155 2.11 156 2.11 175 2.11 158 2.11
  59  0.400  0.800  0.407- 157 2.11 142 2.11 161 2.11 162 2.11 159 2.11
  60  0.500  0.900  0.407- 146 2.11 161 2.11 162 2.11 181 2.11 160 2.11
[...]
 188  0.900  0.300  0.503-  90 2.11  89 2.11   9 2.11  94 2.11  88 2.11
 189  0.800  0.300  0.407-  68 2.11  87 2.11  88 2.11  91 2.11  89 2.11
 190  0.900  0.200  0.407-  88 2.11  84 2.11  87 2.11   7 2.11  90 2.11
 191  0.800  0.400  0.503-  74 2.11  89 2.11  93 2.11  94 2.11  91 2.11
 192  0.900  0.500  0.503-  13 2.11  93 2.11  94 2.11  98 2.11  92 2.11
 193  0.800  0.500  0.407-  72 2.11  91 2.11  92 2.11  95 2.11  93 2.11
 194  0.900  0.400  0.407-  11 2.11  88 2.11  91 2.11  92 2.11  94 2.11
 195  0.800  0.600  0.503-  78 2.11  93 2.11  97 2.11  98 2.11  95 2.11
 196  0.900  0.700  0.503- 102 2.11  97 2.11  98 2.11  17 2.11  96 2.11
 197  0.800  0.700  0.407-  76 2.11  99 2.11  96 2.11  95 2.11  97 2.11
 198  0.900  0.600  0.407-  15 2.11  92 2.11  95 2.11  96 2.11  98 2.11
 199  0.800  0.800  0.503-  82 2.11  97 2.11 101 2.11 102 2.11  99 2.11
 200  0.900  0.900  0.503-  21 2.11  86 2.11 101 2.11 102 2.11 100 2.11
 201  0.800  0.900  0.407-  80 2.11  83 2.11  99 2.11 100 2.11 101 2.11
 202  0.900  0.800  0.407-  96 2.11  19 2.11  99 2.11 100 2.11 102 2.11

  LATTYP: Found a simple tetragonal cell.
 ALAT       =    21.1388521970
 C/A-ratio  =     1.0461251639

  Lattice vectors:

 A1 = (  21.1388521970,   0.0000000000,   0.0000000000)
 A2 = (   0.0000000000,  21.1388521970,   0.0000000000)
 A3 = (   0.0000000000,   0.0000000000,  22.1138852197)

Analysis of symmetry for initial positions (statically):
 Subroutine PRICEL returns:
 Original cell was already a primitive cell.

 Routine SETGRP: Setting up the symmetry group for a
 simple tetragonal supercell.

 Subroutine GETGRP returns: Found  4 space group operations
 (whereof  4 operations were pure point group operations)
 out of a pool of 16 trial point group operations.

The static configuration has the point symmetry C_2v.

Analysis of symmetry for dynamics (positions and initial velocities):
 Subroutine PRICEL returns:
 Original cell was already a primitive cell.

 Routine SETGRP: Setting up the symmetry group for a
 simple tetragonal supercell.

 Subroutine GETGRP returns: Found  4 space group operations
 (whereof  4 operations were pure point group operations)
 out of a pool of 16 trial point group operations.

The dynamic configuration has the point symmetry C_2v.

[...]
     40     -46.3432      2.00000
     41     -46.3423      2.00000
     42     -46.3419      2.00000
     43     -46.3411      2.00000
     44     -46.3410      2.00000
     45     -46.3406      2.00000
     46     -46.3405      2.00000
     47     -46.3402      2.00000
     48     -46.3395      2.00000
     49     -46.3389      2.00000
     50     -46.3388      2.00000
     51     -46.3383      2.00000
     52     -46.3383      2.00000
     53     -46.3380      2.00000
     54     -46.3373      2.00000
     55     -46.3370      2.00000
     56     -46.3367      2.00000
     57     -46.3361      2.00000
     58     -46.3357      2.00000
     59     -46.3354      2.00000
     60     -46.3351      2.00000
[...]
    946       6.6213      0.00000
    947       6.6677      0.00000
    948       6.6998      0.00000
    949       6.7572      0.00000
    950       6.7928      0.00000
    951       6.8350      0.00000
    952       6.9126      0.00000
    953       6.9588      0.00000
    954       7.0586      0.00000
    955       7.1578      0.00000
    956       7.1657      0.00000
    957       7.3103      0.00000
    958       7.3287      0.00000
    959       7.4825      0.00000
    960       7.7155      0.00000

 soft charge-density along one line, spin component           1
         0         1         2         3         4         5         6         7         8         9
 total charge-density along one line

------------------------ aborting loop because EDIFF is reached ----------------------------------------

 WARNING: Using user supplied parameters
     VDW_A1 = 0.398
     VDW_A2 = 4.421
     VDW_S8 = 1.989
     because the xc functional is not supported. Required parameters not
     defined in the INCAR file will be replaced with PBE defaults ones.

         DFTD3 V3.0 Rev 1
 IVDW         = 12
 DF unknown
 parameters
 VDW_S6       =    1.0000
 VDW_S8       =    1.9889
 VDW_A1       =    0.3981
 VDW_A2       =    4.4211
 k1-k3        =   16.0000    1.3333   -4.0000
 VDW_RADIUS   =   50.2022 A
 VDW_CNRADIUS =   21.1671 A
 Edisp (eV)  -61.34572

 E6    (eV) :   -20.9642
 E8    (eV) :   -40.3815
 % E8        : 65.83

 VOLUME and BASIS-vectors are now :
  energy-cutoff  :      520.00
  volume of cell :     9881.61
      direct lattice vectors                 reciprocal lattice vectors
    21.138852197  0.000000000  0.000000000     0.047306258  0.000000000  0.000000000
     0.000000000 21.138852197  0.000000000     0.000000000  0.047306258  0.000000000
     0.000000000  0.000000000 22.113885220     0.000000000  0.000000000  0.045220457

  length of vectors
    21.138852197 21.138852197 22.113885220     0.047306258  0.047306258  0.045220457

 FORCES acting on ions:
    Electron-Ion                     Ewald-Force                    Non-Local-Force
   -.273E+03 -.244E-05 -.203E+04   0.267E+03 0.118E-07 0.203E+04   0.641E+01 0.000E+00 0.126E+00
   0.273E+03 -.244E-05 -.203E+04   -.267E+03 0.118E-07 0.203E+04   -.641E+01 0.000E+00 0.126E+00
   0.960E-13 -.265E-08 0.931E+03   0.764E-13 0.711E-08 -.923E+03   0.000E+00 0.000E+00 -.670E+01
   0.375E+01 0.413E+01 0.932E+03   -.375E+01 -.414E+01 -.924E+03   -.133E-02 0.681E-02 -.670E+01
   0.136E-12 0.441E+01 -.922E+03   0.103E-12 -.442E+01 0.915E+03   0.662E-23 0.641E-02 0.668E+01
   0.392E+01 -.378E-08 -.923E+03   -.392E+01 0.101E-07 0.915E+03   -.261E-02 0.000E+00 0.667E+01
   0.951E-13 0.610E+01 0.932E+03   0.153E-10 -.611E+01 -.925E+03   0.000E+00 0.110E-01 -.669E+01
   0.787E+01 0.783E+01 0.936E+03   -.787E+01 -.786E+01 -.928E+03   0.496E-02 0.159E-01 -.669E+01
   0.125E-12 0.822E+01 -.920E+03   0.181E-11 -.824E+01 0.912E+03   0.662E-23 0.131E-01 0.668E+01
   0.714E+01 0.921E+01 -.921E+03   -.714E+01 -.923E+01 0.913E+03   -.908E-03 0.140E-01 0.667E+01
   0.103E-12 0.423E+01 0.936E+03   -.174E-10 -.424E+01 -.928E+03   0.000E+00 0.832E-02 -.669E+01
   0.116E+02 0.409E-08 0.939E+03   -.116E+02 -.109E-07 -.932E+03   0.241E-01 0.000E+00 -.669E+01
   0.131E-12 0.421E-08 -.918E+03   0.120E-12 -.113E-07 0.910E+03   0.000E+00 0.000E+00 0.668E+01
   0.158E+02 0.726E+01 -.916E+03   -.158E+02 -.727E+01 0.909E+03   0.199E-01 0.127E-01 0.668E+01
   0.897E-13 -.423E+01 0.936E+03   0.116E-11 0.424E+01 -.928E+03   0.000E+00 -.832E-02 -.669E+01
   0.787E+01 -.783E+01 0.936E+03   -.787E+01 0.786E+01 -.928E+03   0.496E-02 -.159E-01 -.669E+01
   0.133E-12 -.822E+01 -.920E+03   -.785E-12 0.824E+01 0.912E+03   0.000E+00 -.131E-01 0.668E+01
   0.158E+02 -.726E+01 -.916E+03   -.158E+02 0.727E+01 0.909E+03   0.199E-01 -.127E-01 0.668E+01
   0.100E-12 -.610E+01 0.932E+03   0.853E-12 0.611E+01 -.925E+03   0.000E+00 -.110E-01 -.669E+01
   0.375E+01 -.413E+01 0.932E+03   -.375E+01 0.414E+01 -.924E+03   -.133E-02 -.681E-02 -.670E+01
   0.136E-12 -.441E+01 -.922E+03   -.867E-12 0.442E+01 0.915E+03   0.000E+00 -.641E-02 0.668E+01
   0.714E+01 -.921E+01 -.921E+03   -.714E+01 0.923E+01 0.913E+03   -.908E-03 -.140E-01 0.667E+01
   0.538E+01 -.411E-08 0.932E+03   -.537E+01 0.110E-07 -.925E+03   -.331E-02 -.165E-23 -.670E+01
   0.678E+01 0.798E+01 0.935E+03   -.677E+01 -.799E+01 -.927E+03   -.406E-02 0.102E-01 -.670E+01
   0.811E+01 0.755E+01 -.921E+03   -.811E+01 -.756E+01 0.913E+03   -.527E-02 0.839E-02 0.667E+01
   0.697E+01 -.769E-08 -.921E+03   -.696E+01 0.206E-07 0.913E+03   -.574E-02 -.265E-22 0.667E+01
   0.948E+01 0.103E+02 0.936E+03   -.948E+01 -.104E+02 -.928E+03   -.230E-03 0.176E-01 -.670E+01
   0.179E+02 0.199E+02 0.950E+03   -.180E+02 -.200E+02 -.942E+03   0.699E-02 0.394E-01 -.670E+01
   0.226E+02 0.184E+02 -.913E+03   -.226E+02 -.184E+02 0.905E+03   0.391E-02 0.338E-01 0.668E+01
   0.155E+02 0.232E+02 -.914E+03   -.155E+02 -.232E+02 0.906E+03   -.115E-01 0.242E-01 0.667E+01
   0.207E+02 0.882E+01 0.946E+03   -.208E+02 -.885E+01 -.939E+03   0.227E-01 0.246E-01 -.669E+01
   0.328E+02 0.136E-07 0.970E+03   -.328E+02 -.363E-07 -.963E+03   0.258E-02 0.000E+00 -.659E+01
   0.422E+02 0.123E-07 -.903E+03   -.423E+02 -.330E-07 0.895E+03   0.902E-01 0.000E+00 0.669E+01
   0.589E+02 0.353E+02 -.879E+03   -.589E+02 -.355E+02 0.871E+03   0.434E-01 0.104E+00 0.670E+01
   0.207E+02 -.882E+01 0.946E+03   -.208E+02 0.885E+01 -.939E+03   0.227E-01 -.246E-01 -.669E+01
   0.179E+02 -.199E+02 0.950E+03   -.180E+02 0.200E+02 -.942E+03   0.699E-02 -.394E-01 -.670E+01
   0.226E+02 -.184E+02 -.913E+03   -.226E+02 0.184E+02 0.905E+03   0.391E-02 -.338E-01 0.668E+01
   0.589E+02 -.353E+02 -.879E+03   -.589E+02 0.355E+02 0.871E+03   0.434E-01 -.104E+00 0.670E+01
   0.948E+01 -.103E+02 0.936E+03   -.948E+01 0.104E+02 -.928E+03   -.230E-03 -.176E-01 -.670E+01
   0.678E+01 -.798E+01 0.935E+03   -.677E+01 0.799E+01 -.927E+03   -.406E-02 -.102E-01 -.670E+01
   0.811E+01 -.755E+01 -.921E+03   -.811E+01 0.756E+01 0.913E+03   -.527E-02 -.839E-02 0.667E+01
   0.155E+02 -.232E+02 -.914E+03   -.155E+02 0.232E+02 0.906E+03   -.115E-01 -.242E-01 0.667E+01
   0.358E+01 -.707E-08 0.935E+03   -.358E+01 0.189E-07 -.927E+03   -.279E-02 -.132E-22 -.670E+01
   -.253E-12 0.111E+02 0.938E+03   0.387E-11 -.111E+02 -.930E+03   0.000E+00 0.809E-02 -.670E+01
   0.584E+01 0.147E+02 -.917E+03   -.583E+01 -.147E+02 0.910E+03   -.534E-02 0.302E-02 0.667E+01
   -.230E-12 -.108E-07 -.919E+03   0.622E-14 0.291E-07 0.911E+03   0.000E+00 0.000E+00 0.667E+01
   0.726E+01 0.205E+02 0.944E+03   -.726E+01 -.205E+02 -.937E+03   -.395E-02 0.315E-01 -.671E+01
   -.246E-12 0.329E+02 0.965E+03   -.579E-11 -.329E+02 -.957E+03   -.132E-22 0.372E-01 -.673E+01
   0.249E+02 0.582E+02 -.886E+03   -.248E+02 -.583E+02 0.879E+03   -.330E-01 0.834E-01 0.665E+01
   -.227E-12 0.375E+02 -.907E+03   -.193E-10 -.375E+02 0.900E+03   0.000E+00 -.649E-02 0.666E+01
   0.217E+02 0.255E+02 0.985E+03   -.217E+02 -.256E+02 -.977E+03   0.183E-02 0.222E-01 -.661E+01
   -.248E-12 0.274E-07 0.102E+04   -.104E-12 -.735E-07 -.101E+04   0.000E+00 0.000E+00 -.677E+01
   0.912E+02 0.958E-07 -.744E+03   -.911E+02 -.257E-06 0.737E+03   -.126E+00 0.000E+00 0.565E+01
   -.224E-12 0.101E+03 -.792E+03   0.215E-10 -.101E+03 0.784E+03   0.000E+00 0.100E+00 0.650E+01
   0.217E+02 -.255E+02 0.985E+03   -.217E+02 0.256E+02 -.977E+03   0.183E-02 -.222E-01 -.661E+01
   -.236E-12 -.329E+02 0.965E+03   -.183E-10 0.329E+02 -.957E+03   0.662E-23 -.372E-01 -.673E+01
   0.249E+02 -.582E+02 -.886E+03   -.248E+02 0.583E+02 0.879E+03   -.330E-01 -.834E-01 0.665E+01
   -.231E-12 -.101E+03 -.792E+03   0.183E-10 0.101E+03 0.784E+03   0.000E+00 -.100E+00 0.650E+01
   0.726E+01 -.205E+02 0.944E+03   -.726E+01 0.205E+02 -.937E+03   -.395E-02 -.315E-01 -.671E+01
   -.239E-12 -.111E+02 0.938E+03   0.203E-10 0.111E+02 -.930E+03   0.000E+00 -.809E-02 -.670E+01
[...]
   -.111E+02 0.916E+01 0.707E+03   0.111E+02 -.918E+01 -.711E+03   -.815E-02 0.271E-01 0.319E+01
   -.402E+01 0.537E+01 0.702E+03   0.402E+01 -.538E+01 -.706E+03   -.101E-02 0.134E-01 0.318E+01
   -.265E+02 0.109E+02 -.682E+03   0.265E+02 -.110E+02 0.686E+03   -.378E-01 0.433E-01 -.320E+01
   -.134E+02 0.429E-08 -.688E+03   0.134E+02 -.115E-07 0.692E+03   -.214E-01 0.000E+00 -.321E+01
   -.177E+02 0.533E-08 0.714E+03   0.178E+02 -.143E-07 -.718E+03   -.453E-01 0.000E+00 0.322E+01
   -.784E+01 0.394E+01 0.705E+03   0.786E+01 -.395E+01 -.709E+03   -.142E-01 0.150E-01 0.319E+01
   -.265E+02 -.109E+02 -.682E+03   0.265E+02 0.110E+02 0.686E+03   -.378E-01 -.433E-01 -.320E+01
   -.841E+01 -.784E+01 -.691E+03   0.842E+01 0.785E+01 0.695E+03   -.748E-02 -.205E-01 -.321E+01
   -.111E+02 -.916E+01 0.707E+03   0.111E+02 0.918E+01 -.711E+03   -.815E-02 -.271E-01 0.319E+01
   -.784E+01 -.394E+01 0.705E+03   0.786E+01 0.395E+01 -.709E+03   -.142E-01 -.150E-01 0.319E+01
   -.983E+01 -.108E+02 -.690E+03   0.983E+01 0.108E+02 0.694E+03   0.130E-02 -.178E-01 -.321E+01
   -.352E+01 -.390E+01 -.693E+03   0.352E+01 0.390E+01 0.697E+03   0.170E-02 -.690E-02 -.321E+01
   -.478E+01 -.427E+01 0.702E+03   0.477E+01 0.428E+01 -.706E+03   0.256E-02 -.803E-02 0.318E+01
   -.402E+01 -.537E+01 0.702E+03   0.402E+01 0.538E+01 -.706E+03   -.101E-02 -.134E-01 0.318E+01
   0.757E-11 -.493E-05 0.729E+01   0.810E-12 0.973E-12 0.148E-10   0.435E-15 -.278E-16 -.675E+01

 POSITION                                       TOTAL-FORCE (eV/Angst)
     11.83780     10.56943     13.91372         0.265635      0.000000      0.030051
      9.30105     10.56943     13.91372        -0.265635      0.000000      0.030051
      0.00000      0.00000      9.00000         0.000000      0.000000      0.528453
      2.11389      2.11389      9.00000         0.000426     -0.002085      0.528490
      0.00000      2.11389     11.11389         0.000000     -0.001961     -0.521710
      2.11389      0.00000     11.11389         0.000846      0.000000     -0.521668
      0.00000      4.22777      9.00000         0.000000     -0.003464      0.528231
      2.11389      6.34166      9.00000        -0.001519     -0.005026      0.527801
      0.00000      6.34166     11.11389         0.000000     -0.004153     -0.521655
      2.11389      4.22777     11.11389         0.000387     -0.004258     -0.521481
      0.00000      8.45554      9.00000         0.000000     -0.002729      0.527704
      2.11389     10.56943      9.00000        -0.006764      0.000000      0.527811
      0.00000     10.56943     11.11389         0.000000      0.000000     -0.522155
      2.11389      8.45554     11.11389        -0.005415     -0.004048     -0.522109
      0.00000     12.68331      9.00000         0.000000      0.002729      0.527704
      2.11389     14.79720      9.00000        -0.001519      0.005026      0.527801
      0.00000     14.79720     11.11389         0.000000      0.004153     -0.521655
      2.11389     12.68331     11.11389        -0.005415      0.004048     -0.522109
      0.00000     16.91108      9.00000         0.000000      0.003464      0.528231
      2.11389     19.02497      9.00000         0.000426      0.002085      0.528490
      0.00000     19.02497     11.11389         0.000000      0.001961     -0.521710
      2.11389     16.91108     11.11389         0.000387      0.004258     -0.521481
      4.22777      0.00000      9.00000         0.001075      0.000000      0.528854
      6.34166      2.11389      9.00000         0.001389     -0.002943      0.529471
      4.22777      2.11389     11.11389         0.001761     -0.002426     -0.520967
      6.34166      0.00000     11.11389         0.001935      0.000000     -0.520472
      4.22777      4.22777      9.00000         0.000166     -0.005289      0.528680
      6.34166      6.34166      9.00000        -0.001676     -0.011285      0.530011
      4.22777      6.34166     11.11389         0.000191     -0.009555     -0.520566
      6.34166      4.22777     11.11389         0.004478     -0.005792     -0.517733
      4.22777      8.45554      9.00000        -0.006581     -0.008034      0.525798
      6.34166     10.56943      9.00000         0.005137      0.000000      0.505645
      4.22777     10.56943     11.11389        -0.025354      0.000000     -0.522651
      6.34166      8.45554     11.11389         0.008512     -0.019216     -0.509162
      4.22777     12.68331      9.00000        -0.006581      0.008034      0.525798
      6.34166     14.79720      9.00000        -0.001676      0.011285      0.530011
      4.22777     14.79720     11.11389         0.000191      0.009555     -0.520566
      6.34166     12.68331     11.11389         0.008512      0.019216     -0.509162
      4.22777     16.91108      9.00000         0.000166      0.005289      0.528680
      6.34166     19.02497      9.00000         0.001389      0.002943      0.529471
      4.22777     19.02497     11.11389         0.001761      0.002426     -0.520967
      6.34166     16.91108     11.11389         0.004478      0.005792     -0.517733
      8.45554      0.00000      9.00000         0.000940      0.000000      0.529600
     10.56943      2.11389      9.00000         0.000000     -0.002334      0.530290
      8.45554      2.11389     11.11389         0.001938     -0.000189     -0.518555
     10.56943      0.00000     11.11389         0.000000      0.000000     -0.519642
      8.45554      4.22777      9.00000         0.001715     -0.008520      0.532890
     10.56943      6.34166      9.00000         0.000000     -0.009565      0.542445
      8.45554      6.34166     11.11389         0.020556     -0.010314     -0.486495
     10.56943      4.22777     11.11389         0.000000      0.006966     -0.510274
      8.45554      8.45554      9.00000         0.004795      0.001918      0.515494
     10.56943     10.56943      9.00000         0.000000      0.000000      0.537860
      8.45554     10.56943     11.11389         0.002726      0.000000     -0.560566
     10.56943      8.45554     11.11389         0.000000      0.009931     -0.349424
      8.45554     12.68331      9.00000         0.004795     -0.001918      0.515494
     10.56943     14.79720      9.00000         0.000000      0.009565      0.542445
      8.45554     14.79720     11.11389         0.020556      0.010314     -0.486495
     10.56943     12.68331     11.11389         0.000000     -0.009931     -0.349424
      8.45554     16.91108      9.00000         0.001715      0.008520      0.532890
     10.56943     19.02497      9.00000         0.000000      0.002334      0.530290
[...]
     19.02497      6.34166     11.11389        -0.002489      0.006666      0.400193
     16.91108      6.34166      9.00000        -0.002728      0.008844     -0.406180
     19.02497      4.22777      9.00000        -0.000340      0.004361     -0.407002
     16.91108      8.45554     11.11389        -0.013478      0.014481      0.404313
     19.02497     10.56943     11.11389        -0.007125      0.000000      0.401164
     16.91108     10.56943      9.00000        -0.015651      0.000000     -0.396274
     19.02497      8.45554      9.00000        -0.004644      0.004889     -0.405540
     16.91108     12.68331     11.11389        -0.013478     -0.014481      0.404313
     19.02497     14.79720     11.11389        -0.002489     -0.006666      0.400193
     16.91108     14.79720      9.00000        -0.002728     -0.008844     -0.406180
     19.02497     12.68331      9.00000        -0.004644     -0.004889     -0.405540
     16.91108     16.91108     11.11389         0.000337     -0.005826      0.399062
     19.02497     19.02497     11.11389         0.000558     -0.002239      0.400030
     16.91108     19.02497      9.00000         0.000822     -0.002603     -0.407509
     19.02497     16.91108      9.00000        -0.000340     -0.004361     -0.407002
    total drift:                                0.000000     -0.000005     -0.276432

  FREE ENERGIE OF THE ION-ELECTRON SYSTEM (eV)
  free  energy   TOTEN  =     -1393.64738025 eV

  energy  without entropy=    -1393.64738025  energy(sigma->0) =    -1393.64738025