 vasp.6.3.0 20Jan22 (build Apr  1 2022 16:44:48) complex
 executed on        HPECrayEX_GCC date 2023.01.09  19:02:13

 INCAR:
   SYSTEM = MgO-rocksalt
   ISMEAR = 0
   SIGMA = 0.05
   EDIFF = 1E-6
   ALGO = ALL
   ISTART = 0
   IBRION = -1
   NSW = 0
   ISYM = 2
   DIPOL = 0.5 0.5 0.5
   IDIPOL = 3
   LDIPOL = .TRUE.
   GGA = ML
   LUSE_VDW = .TRUE.
   ZAB_VDW = -1.8867
   AGGAC = 0.0000
   ENCUT = 520
   PREC = Accurate
   LASPH = .TRUE.
   LREAL = Auto
   ISPIN = 1
   NELM = 200
   NELMIN = 8
   NCORE = 4
   KPAR = 2
   LWAVE = .FALSE.
   LCHARG = .FALSE.

 POTCAR:    PAW_PBE Ag 02Apr2005
 POTCAR:    PAW_PBE Mg_pv 13Apr2007
 POTCAR:    PAW_PBE O 08Apr2002
|               ----> ADVICE to this user running VASP <----                  |
|     You have switched on vdW-DFT.                                           |
|     This routine was written and supplied by Jiri Klimes. We recommend      |
|     that you carefully read and cite the following publications:            |
|       J. Klimes, D.R. Bowler, A. Michelides                                 |
|          J. Phys.: Cond Matt. 22 022201 (2010)                              |
|       J. Klimes, D.R. Bowler, A. Michelides                                 |
|          Phys. Rev. B. 83, 195131 (2011)                                    |
|     and references therein.                                                 |

   TITEL  = PAW_PBE Ag 02Apr2005
   POMASS =  107.868; ZVAL   =   11.000    mass and valenz
   ENMAX  =  249.844; ENMIN  =  187.383 eV

   TITEL  = PAW_PBE Mg_pv 13Apr2007
   POMASS =   24.305; ZVAL   =    8.000    mass and valenz
   ENMAX  =  403.929; ENMIN  =  302.947 eV

   TITEL  = PAW_PBE O 08Apr2002
   POMASS =   16.000; ZVAL   =    6.000    mass and valenz
   ENMAX  =  400.000; ENMIN  =  300.000 eV

 Optimization of the real space projectors (new method)

 maximal supplied QI-value         = 15.12
 optimisation between [QCUT,QGAM] = [ 11.64, 23.28] = [ 37.95,151.78] Ry
 Optimized for a Real-space Cutoff    1.45 Angstroem

   l    n(q)    QCUT    max X(q) W(low)/X(q) W(high)/X(q)  e(spline)
   2      9    11.641    53.897    0.22E-03    0.42E-04    0.28E-06
   2      9    11.641    52.416    0.23E-03    0.44E-04    0.29E-06
   0     10    11.641   122.045    0.51E-04    0.25E-04    0.16E-06
   0     10    11.641    73.629    0.49E-04    0.24E-04    0.16E-06
   1     10    11.641    15.255    0.99E-04    0.55E-04    0.11E-06
   1     10    11.641     9.562    0.81E-04    0.47E-04    0.95E-07
 Optimization of the real space projectors (new method)

[...]

   l    n(q)    QCUT    max X(q) W(low)/X(q) W(high)/X(q)  e(spline)
   1      8    11.527     2.974    0.44E-04    0.56E-04    0.12E-06
   1      8    11.527     4.279    0.12E-03    0.12E-03    0.26E-06
   0      9    11.527    16.381    0.46E-04    0.64E-04    0.78E-07
   0      9    11.527     5.611    0.26E-04    0.43E-04    0.55E-07
   2      8    11.527     4.652    0.22E-03    0.72E-04    0.47E-07
 Optimization of the real space projectors (new method)

 maximal supplied QI-value         = 24.76
 optimisation between [QCUT,QGAM] = [ 11.64, 23.27] = [ 37.91,151.63] Ry
 Optimized for a Real-space Cutoff    1.14 Angstroem

   l    n(q)    QCUT    max X(q) W(low)/X(q) W(high)/X(q)  e(spline)
   0      8    11.635    20.381    0.10E-03    0.33E-03    0.24E-06
   0      8    11.635    15.268    0.11E-03    0.35E-03    0.26E-06
   1      7    11.635     5.964    0.24E-03    0.31E-03    0.30E-06
   1      7    11.635     5.382    0.22E-03    0.25E-03    0.26E-06
|               ----> ADVICE to this user running VASP <----                  |
|     You enforced a specific xc type in the INCAR file but a different       |
|     type was found in the POTCAR file.                                      |
|     I HOPE YOU KNOW WHAT YOU ARE DOING!                                     |

  PAW_PBE Ag 02Apr2005                  :
  PAW_PBE Mg_pv 13Apr2007               :
  PAW_PBE O 08Apr2002                   :

 POSCAR: Ag Mg  O
  positions in direct lattice
  velocities in cartesian coordinates
 exchange correlation table for  LEXCH =       44
   RHO(1)=    0.500       N(1)  =     2000
   RHO(2)=  100.500       N(2)  =     4000

 ion  position               nearest neighbor table
   1  0.404  0.596  0.628-   2 2.63   4 2.74 157 2.77
   2  0.317  0.683  0.613- 138 2.50   1 2.63  59 3.04  40 3.04
   3  0.583  0.417  0.613- 173 2.50   4 2.63  75 3.04  56 3.04
   4  0.496  0.504  0.628-   3 2.63   1 2.74 154 2.77
   5  0.000  0.000  0.407- 107 2.11 108 2.11 123 2.11 188 2.11 105 2.11
   6  0.100  0.100  0.407- 107 2.11 108 2.11 112 2.11 127 2.11 106 2.11
   7  0.000  0.100  0.503- 105 2.11 106 2.11 109 2.11 186 2.11 107 2.11
   8  0.100  0.000  0.503- 105 2.11 106 2.11 122 2.11 125 2.11 108 2.11
   9  0.000  0.200  0.407- 111 2.11 107 2.11 112 2.11 192 2.11 109 2.11
  10  0.100  0.300  0.407- 112 2.11 111 2.11 116 2.11 131 2.11 110 2.11
  11  0.000  0.300  0.503- 109 2.11 110 2.11 113 2.11 190 2.11 111 2.11
  12  0.100  0.200  0.503- 110 2.11 109 2.11 106 2.11 129 2.11 112 2.11
  13  0.000  0.400  0.407- 111 2.11 115 2.11 116 2.11 196 2.11 113 2.11
  14  0.100  0.500  0.407- 115 2.11 116 2.11 120 2.11 135 2.11 114 2.11
  15  0.000  0.500  0.503- 113 2.11 114 2.11 117 2.11 194 2.11 115 2.11
  16  0.100  0.400  0.503- 110 2.11 113 2.11 114 2.11 133 2.11 116 2.11
  17  0.000  0.600  0.407- 115 2.11 119 2.11 120 2.11 200 2.11 117 2.11
  18  0.100  0.700  0.407- 124 2.11 120 2.11 119 2.11 139 2.11 118 2.11
  19  0.000  0.700  0.503- 121 2.11 118 2.11 117 2.11 198 2.11 119 2.11
  20  0.100  0.600  0.503- 114 2.11 117 2.11 118 2.11 137 2.11 120 2.11
  21  0.000  0.800  0.407- 119 2.11 123 2.11 124 2.11 204 2.11 121 2.11
  22  0.100  0.900  0.407- 108 2.11 123 2.11 124 2.11 143 2.11 122 2.11
  23  0.000  0.900  0.503- 105 2.11 121 2.11 122 2.11 202 2.11 123 2.11
  24  0.100  0.800  0.503- 118 2.11 121 2.11 122 2.11 141 2.11 124 2.11
  25  0.200  0.000  0.407- 128 2.11 127 2.11 108 2.11 143 2.11 125 2.11
  26  0.300  0.100  0.407- 127 2.11 128 2.11 132 2.11 147 2.11 126 2.11
  27  0.200  0.100  0.503- 126 2.11 125 2.11 106 2.11 129 2.11 127 2.11
  28  0.300  0.000  0.503- 125 2.11 126 2.11 142 2.11 145 2.11 128 2.11
  29  0.200  0.200  0.407- 131 2.11 132 2.11 112 2.11 127 2.11 129 2.11
  30  0.300  0.300  0.407- 131 2.11 132 2.11 136 2.11 151 2.11 130 2.11
  31  0.200  0.300  0.503- 129 2.11 130 2.11 110 2.11 133 2.11 131 2.11
  32  0.300  0.200  0.503- 129 2.11 130 2.11 126 2.11 149 2.11 132 2.11
  33  0.200  0.400  0.407- 136 2.11 131 2.11 135 2.11 116 2.11 133 2.11
  34  0.300  0.500  0.407- 135 2.11 136 2.11 140 2.11 155 2.11 134 2.11
  35  0.200  0.500  0.503- 134 2.11 133 2.11 114 2.11 137 2.11 135 2.11
  36  0.300  0.400  0.503- 133 2.11 130 2.11 134 2.11 153 2.11 136 2.11
  37  0.200  0.600  0.407- 140 2.11 135 2.11 139 2.11 120 2.11 137 2.11
  38  0.300  0.700  0.407- 139 2.11 144 2.11 140 2.11 159 2.11 138 2.11
  39  0.200  0.700  0.503- 138 2.11 141 2.11 118 2.11 137 2.11 139 2.11
  40  0.300  0.600  0.503- 137 2.11 134 2.11 138 2.11 157 2.11 140 2.11   2 3.04
  41  0.200  0.800  0.407- 139 2.11 144 2.11 143 2.11 124 2.11 141 2.11
  42  0.300  0.900  0.407- 143 2.11 128 2.11 144 2.11 163 2.11 142 2.11
  43  0.200  0.900  0.503- 142 2.11 125 2.11 141 2.11 122 2.11 143 2.11
  44  0.300  0.800  0.503- 138 2.11 141 2.11 142 2.11 161 2.11 144 2.11
  45  0.400  0.000  0.407- 128 2.11 147 2.11 148 2.11 163 2.11 145 2.11
  46  0.500  0.100  0.407- 147 2.11 148 2.11 152 2.11 167 2.11 146 2.11
  47  0.400  0.100  0.503- 126 2.11 145 2.11 146 2.11 149 2.11 147 2.11
  48  0.500  0.000  0.503- 145 2.11 146 2.11 162 2.11 165 2.11 148 2.11
  49  0.400  0.200  0.407- 151 2.11 147 2.11 132 2.11 152 2.11 149 2.11
  50  0.500  0.300  0.407- 152 2.11 151 2.11 156 2.11 171 2.11 150 2.11
  51  0.400  0.300  0.503- 149 2.11 130 2.11 150 2.11 153 2.11 151 2.11
  52  0.500  0.200  0.503- 150 2.11 149 2.11 146 2.11 169 2.11 152 2.11
  53  0.400  0.400  0.407- 136 2.11 151 2.11 155 2.11 156 2.11 153 2.11
  54  0.500  0.500  0.407- 155 2.11 156 2.11 160 2.11 175 2.11 154 2.11
  55  0.400  0.500  0.503- 134 2.11 153 2.11 154 2.11 157 2.11 155 2.11
  56  0.500  0.400  0.503- 150 2.11 153 2.11 154 2.11 173 2.11 156 2.11   3 3.04
  57  0.400  0.600  0.407- 140 2.11 155 2.11 159 2.11 160 2.11 157 2.11
  58  0.500  0.700  0.407- 164 2.11 160 2.11 159 2.11 179 2.11 158 2.11
  59  0.400  0.700  0.503- 161 2.11 157 2.11 158 2.11 138 2.11 159 2.11   2 3.04
  60  0.500  0.600  0.503- 154 2.11 157 2.11 158 2.11 177 2.11 160 2.11
[...]
 190  0.900  0.300  0.503-  92 2.11  91 2.11  11 2.11  96 2.11  90 2.11
 191  0.800  0.300  0.407-  70 2.11  89 2.11  90 2.11  93 2.11  91 2.11
 192  0.900  0.200  0.407-  90 2.11  86 2.11  89 2.11   9 2.11  92 2.11
 193  0.800  0.400  0.503-  76 2.11  91 2.11  95 2.11  96 2.11  93 2.11
 194  0.900  0.500  0.503-  15 2.11  95 2.11  96 2.11 100 2.11  94 2.11
 195  0.800  0.500  0.407-  74 2.11  93 2.11  94 2.11  97 2.11  95 2.11
 196  0.900  0.400  0.407-  13 2.11  90 2.11  93 2.11  94 2.11  96 2.11
 197  0.800  0.600  0.503-  80 2.11  95 2.11  99 2.11 100 2.11  97 2.11
 198  0.900  0.700  0.503- 104 2.11  99 2.11 100 2.11  19 2.11  98 2.11
 199  0.800  0.700  0.407-  78 2.11 101 2.11  98 2.11  97 2.11  99 2.11
 200  0.900  0.600  0.407-  17 2.11  94 2.11  97 2.11  98 2.11 100 2.11
 201  0.800  0.800  0.503-  84 2.11  99 2.11 103 2.11 104 2.11 101 2.11
 202  0.900  0.900  0.503-  23 2.11  88 2.11 103 2.11 104 2.11 102 2.11
 203  0.800  0.900  0.407-  82 2.11  85 2.11 101 2.11 102 2.11 103 2.11
 204  0.900  0.800  0.407-  98 2.11  21 2.11 101 2.11 102 2.11 104 2.11

  LATTYP: Found a simple tetragonal cell.
 ALAT       =    21.1388521970
 C/A-ratio  =     1.0461251639

  Lattice vectors:

 A1 = (  21.1388521970,   0.0000000000,   0.0000000000)
 A2 = (   0.0000000000,  21.1388521970,   0.0000000000)
 A3 = (   0.0000000000,   0.0000000000,  22.1138852197)

Analysis of symmetry for initial positions (statically):
 Subroutine PRICEL returns:
 Original cell was already a primitive cell.

 Routine SETGRP: Setting up the symmetry group for a
 simple tetragonal supercell.

 Subroutine GETGRP returns: Found  2 space group operations
 (whereof  1 operations were pure point group operations)
 out of a pool of 16 trial point group operations.

The static configuration has the point symmetry C_1 .
 The point group associated with its full space group is C_1h.

Analysis of symmetry for dynamics (positions and initial velocities):
 Subroutine PRICEL returns:
 Original cell was already a primitive cell.

[...]

The dynamic configuration has the point symmetry C_1 .
 The point group associated with its full space group is C_1h.

Analysis of constrained symmetry for selective dynamics:
 Subroutine PRICEL returns:
 Original cell was already a primitive cell.

 Routine SETGRP: Setting up the symmetry group for a
 simple tetragonal supercell.

 Subroutine GETGRP returns: Found  2 space group operations
 (whereof  1 operations were pure point group operations)
 out of a pool of 16 trial point group operations.

The constrained configuration has the point symmetry C_1 .
[...]
     52     -44.0059      2.00000
     53     -44.0052      2.00000
     54     -44.0051      2.00000
     55     -44.0007      2.00000
     56     -44.0006      2.00000
     57     -43.9996      2.00000
     58     -43.9996      2.00000
     59     -43.9962      2.00000
     60     -43.9961      2.00000
[...]
    946       5.1012      0.00000
    947       5.1205      0.00000
    948       5.1729      0.00000
    949       5.1829      0.00000
    950       5.2110      0.00000
    951       5.2347      0.00000
    952       5.2359      0.00000
    953       5.2946      0.00000
    954       5.3200      0.00000
    955       5.3225      0.00000
    956       5.3450      0.00000
    957       5.3509      0.00000
    958       5.4285      0.00000
    959       5.5218      0.00000
    960       5.6569      0.00000

 soft charge-density along one line, spin component           1
         0         1         2         3         4         5         6         7         8         9
 total charge-density along one line

------------------------ aborting loop because EDIFF is reached ----------------------------------------

  FORCE on cell =-STRESS in cart. coord.  units (eV):
  Direction    XX          YY          ZZ          XY          YZ          ZX
  Alpha Z  1401.13727  1401.13727  1401.13727
  Ewald  484692.10145484692.10210************ -1322.16574    -0.00388    -0.00457
  Hartree513689.91420513689.91454************ -1064.20732     0.00147     0.00153
  E(xc)   -8183.26917 -8183.26917 -8191.99088    -0.46182     0.00016     0.00016
  Local  ************************************  2377.37699     0.00049     0.00096
  n-local -8877.31459 -8877.31461 -8982.94244     1.35951    -0.00028    -0.00040
  augment  3806.77031  3806.77031  3755.64619     1.84211     0.00119     0.00122
  Kinetic 23347.49210 23347.49215 23563.50085     4.93919     0.00086     0.00084
  Fock        0.00000     0.00000     0.00000     0.00000     0.00000     0.00000
  Total    -121.26380  -121.26380    43.28061    -1.31708    -0.00013    -0.00013
  in kB     -19.66138   -19.66138     7.01740    -0.21355    -0.00002    -0.00002

 VOLUME and BASIS-vectors are now :
  energy-cutoff  :      520.00
  volume of cell :     9881.61
      direct lattice vectors                 reciprocal lattice vectors
    21.138852197  0.000000000  0.000000000     0.047306258  0.000000000  0.000000000
     0.000000000 21.138852197  0.000000000     0.000000000  0.047306258  0.000000000
     0.000000000  0.000000000 22.113885220     0.000000000  0.000000000  0.045220457

  length of vectors
    21.138852197 21.138852197 22.113885220     0.047306258  0.047306258  0.045220457

 FORCES acting on ions:
    Electron-Ion                     Ewald-Force                    Non-Local-Force
   0.258E+02 -.258E+02 -.207E+04   -.273E+02 0.273E+02 0.207E+04   0.158E+01 -.158E+01 -.373E+00
   0.233E+03 -.233E+03 -.209E+04   -.231E+03 0.231E+03 0.209E+04   -.325E+01 0.325E+01 -.744E+00
   -.233E+03 0.233E+03 -.209E+04   0.231E+03 -.231E+03 0.209E+04   0.325E+01 -.325E+01 -.744E+00
   -.258E+02 0.258E+02 -.207E+04   0.273E+02 -.273E+02 0.207E+04   -.158E+01 0.158E+01 -.373E+00
   0.489E+01 -.489E+01 0.936E+03   -.492E+01 0.492E+01 -.930E+03   0.194E-01 -.194E-01 -.618E+01
   0.905E+01 0.160E+01 0.937E+03   -.905E+01 -.156E+01 -.931E+03   -.330E-03 -.332E-01 -.618E+01
   0.313E+01 0.313E+01 -.917E+03   -.312E+01 -.312E+01 0.911E+03   -.121E-01 -.121E-01 0.611E+01
   0.146E+02 -.117E+02 -.914E+03   -.146E+02 0.118E+02 0.908E+03   0.182E-01 -.640E-01 0.611E+01
   0.160E+01 0.905E+01 0.937E+03   -.156E+01 -.905E+01 -.931E+03   -.332E-01 -.330E-03 -.618E+01
   0.143E+02 0.157E+02 0.943E+03   -.142E+02 -.157E+02 -.937E+03   -.224E-01 0.603E-02 -.619E+01
   0.210E+01 0.156E+02 -.913E+03   -.203E+01 -.156E+02 0.907E+03   -.546E-01 0.807E-03 0.611E+01
   0.129E+02 0.130E+02 -.914E+03   -.129E+02 -.129E+02 0.908E+03   -.221E-01 -.221E-01 0.611E+01
   0.443E+01 0.112E+02 0.944E+03   -.438E+01 -.112E+02 -.938E+03   -.420E-01 0.131E-01 -.619E+01
   0.288E+02 0.120E+02 0.956E+03   -.289E+02 -.121E+02 -.950E+03   0.211E-01 0.705E-01 -.620E+01
   0.127E+02 0.836E+01 -.907E+03   -.127E+02 -.838E+01 0.901E+03   -.134E-01 0.173E-01 0.610E+01
   0.305E+02 0.240E+02 -.905E+03   -.304E+02 -.241E+02 0.899E+03   -.477E-01 0.289E-01 0.609E+01
   0.128E+02 -.212E+01 0.948E+03   -.129E+02 0.210E+01 -.942E+03   0.513E-01 0.190E-01 -.619E+01
   0.337E+02 -.125E+02 0.961E+03   -.340E+02 0.125E+02 -.955E+03   0.216E+00 0.255E-01 -.619E+01
   0.225E+02 -.126E+02 -.907E+03   -.226E+02 0.125E+02 0.901E+03   0.100E+00 0.122E-01 0.610E+01
   0.606E+02 0.530E+01 -.890E+03   -.608E+02 -.541E+01 0.884E+03   0.122E+00 0.840E-01 0.608E+01
   0.120E+02 -.133E+02 0.943E+03   -.121E+02 0.133E+02 -.937E+03   0.924E-01 -.124E-01 -.618E+01
   0.168E+02 -.168E+02 0.944E+03   -.169E+02 0.169E+02 -.938E+03   0.689E-01 -.689E-01 -.617E+01
   0.117E+02 -.146E+02 -.914E+03   -.118E+02 0.146E+02 0.908E+03   0.640E-01 -.182E-01 0.611E+01
   0.428E+02 -.304E+02 -.899E+03   -.431E+02 0.304E+02 0.893E+03   0.238E+00 -.269E-01 0.611E+01
   0.133E+02 -.120E+02 0.943E+03   -.133E+02 0.122E+02 -.937E+03   0.124E-01 -.924E-01 -.618E+01
   0.112E+02 0.444E+01 0.944E+03   -.112E+02 -.438E+01 -.938E+03   0.131E-01 -.420E-01 -.619E+01
   0.156E+02 0.210E+01 -.913E+03   -.156E+02 -.203E+01 0.907E+03   0.807E-03 -.546E-01 0.611E+01
   0.126E+02 -.225E+02 -.907E+03   -.125E+02 0.226E+02 0.901E+03   -.122E-01 -.100E+00 0.610E+01
   0.157E+02 0.143E+02 0.943E+03   -.157E+02 -.142E+02 -.937E+03   0.603E-02 -.224E-01 -.619E+01
   0.264E+02 0.335E+02 0.962E+03   -.264E+02 -.335E+02 -.956E+03   0.609E-01 0.326E-02 -.622E+01
   0.333E+02 0.333E+02 -.904E+03   -.333E+02 -.333E+02 0.898E+03   -.226E-01 -.226E-01 0.609E+01
   0.240E+02 0.305E+02 -.905E+03   -.241E+02 -.304E+02 0.899E+03   0.289E-01 -.477E-01 0.609E+01
   0.335E+02 0.264E+02 0.962E+03   -.335E+02 -.264E+02 -.956E+03   0.326E-02 0.609E-01 -.622E+01
   0.466E+02 0.293E+02 0.101E+04   -.467E+02 -.296E+02 -.101E+04   0.789E-01 0.249E+00 -.636E+01
   0.815E+02 0.439E+02 -.869E+03   -.814E+02 -.441E+02 0.863E+03   -.791E-01 0.189E+00 0.602E+01
   0.719E+02 0.719E+02 -.862E+03   -.718E+02 -.718E+02 0.856E+03   -.223E-01 -.223E-01 0.601E+01
   0.513E+02 0.402E+01 0.992E+03   -.516E+02 -.427E+01 -.986E+03   0.163E+00 0.194E+00 -.617E+01
   0.340E+02 -.339E+02 0.103E+04   -.340E+02 0.339E+02 -.102E+04   -.401E-02 0.387E-02 -.489E+01
   0.116E+03 -.392E+02 -.825E+03   -.117E+03 0.391E+02 0.819E+03   0.117E+01 0.118E+00 0.628E+01
   0.123E+03 0.487E+02 -.708E+03   -.123E+03 -.506E+02 0.703E+03   0.301E+00 0.137E+01 0.567E+01
   0.324E+02 -.324E+02 0.972E+03   -.326E+02 0.326E+02 -.966E+03   0.138E+00 -.138E+00 -.606E+01
   0.125E+02 -.337E+02 0.961E+03   -.125E+02 0.340E+02 -.955E+03   -.256E-01 -.216E+00 -.619E+01
   0.304E+02 -.428E+02 -.899E+03   -.304E+02 0.431E+02 0.893E+03   0.268E-01 -.238E+00 0.611E+01
   0.393E+02 -.116E+03 -.825E+03   -.391E+02 0.117E+03 0.819E+03   -.118E+00 -.117E+01 0.628E+01
   0.212E+01 -.128E+02 0.948E+03   -.210E+01 0.129E+02 -.942E+03   -.190E-01 -.512E-01 -.619E+01
   -.212E+01 0.128E+02 0.948E+03   0.210E+01 -.129E+02 -.942E+03   0.190E-01 0.513E-01 -.619E+01
   0.836E+01 0.127E+02 -.907E+03   -.838E+01 -.127E+02 0.901E+03   0.173E-01 -.134E-01 0.610E+01
   -.836E+01 -.128E+02 -.907E+03   0.838E+01 0.127E+02 0.901E+03   -.173E-01 0.135E-01 0.610E+01
   0.120E+02 0.288E+02 0.956E+03   -.121E+02 -.289E+02 -.950E+03   0.705E-01 0.211E-01 -.620E+01
   0.401E+01 0.514E+02 0.992E+03   -.427E+01 -.516E+02 -.986E+03   0.194E+00 0.163E+00 -.617E+01
   0.439E+02 0.815E+02 -.869E+03   -.441E+02 -.814E+02 0.863E+03   0.189E+00 -.791E-01 0.602E+01
   0.530E+01 0.606E+02 -.890E+03   -.541E+01 -.608E+02 0.884E+03   0.840E-01 0.122E+00 0.608E+01
   0.293E+02 0.466E+02 0.101E+04   -.296E+02 -.467E+02 -.101E+04   0.249E+00 0.789E-01 -.636E+01
   -.111E+02 0.111E+02 0.106E+04   0.109E+02 -.109E+02 -.105E+04   0.133E+00 -.133E+00 -.596E+01
   0.856E+02 0.856E+02 -.703E+03   -.863E+02 -.863E+02 0.697E+03   0.522E+00 0.522E+00 0.593E+01
   0.487E+02 0.123E+03 -.708E+03   -.506E+02 -.123E+03 0.703E+03   0.137E+01 0.301E+00 0.567E+01
   0.111E+02 -.111E+02 0.106E+04   -.109E+02 0.109E+02 -.105E+04   -.133E+00 0.133E+00 -.596E+01
   -.293E+02 -.466E+02 0.101E+04   0.296E+02 0.467E+02 -.101E+04   -.249E+00 -.789E-01 -.636E+01
   -.487E+02 -.123E+03 -.708E+03   0.506E+02 0.123E+03 0.703E+03   -.137E+01 -.301E+00 0.567E+01
   -.856E+02 -.856E+02 -.703E+03   0.863E+02 0.863E+02 0.697E+03   -.522E+00 -.522E+00 0.593E+01
[...]
   -.193E+02 0.147E+02 0.717E+03   0.194E+02 -.148E+02 -.722E+03   -.152E+00 0.608E-01 0.363E+01
   -.622E+01 0.833E+01 0.707E+03   0.625E+01 -.834E+01 -.711E+03   -.550E-01 0.296E-01 0.360E+01
   -.458E+02 0.136E+02 -.670E+03   0.460E+02 -.135E+02 0.674E+03   -.186E+00 -.571E-01 -.373E+01
   -.151E+02 0.147E+01 -.682E+03   0.151E+02 -.144E+01 0.686E+03   -.401E-01 -.303E-01 -.372E+01
   -.261E+02 -.717E+00 0.724E+03   0.261E+02 0.794E+00 -.728E+03   -.975E-01 -.981E-01 0.359E+01
   -.107E+02 0.733E+01 0.713E+03   0.107E+02 -.732E+01 -.717E+03   -.771E-01 -.808E-02 0.359E+01
   -.344E+02 -.150E+02 -.676E+03   0.345E+02 0.151E+02 0.680E+03   -.212E-01 -.880E-01 -.375E+01
   -.431E+01 -.110E+02 -.685E+03   0.428E+01 0.110E+02 0.690E+03   0.361E-01 -.881E-02 -.371E+01
   -.157E+02 -.126E+02 0.715E+03   0.157E+02 0.126E+02 -.719E+03   0.134E-01 -.314E-01 0.358E+01
   -.649E+01 -.442E+01 0.713E+03   0.649E+01 0.444E+01 -.717E+03   0.129E-02 -.224E-01 0.358E+01
   -.144E+02 -.157E+02 -.686E+03   0.144E+02 0.157E+02 0.690E+03   0.324E-01 0.797E-02 -.371E+01
   -.118E+01 -.845E+01 -.690E+03   0.115E+01 0.845E+01 0.694E+03   0.326E-01 0.159E-02 -.369E+01
   -.765E+01 -.764E+01 0.707E+03   0.763E+01 0.763E+01 -.711E+03   0.138E-01 0.138E-01 0.359E+01
   -.152E+01 -.923E+01 0.708E+03   0.148E+01 0.924E+01 -.712E+03   0.409E-01 -.691E-02 0.359E+01
   -.737E+00 0.737E+00 0.995E+01   0.193E-11 0.134E-11 0.728E-11   -.827E-03 -.827E-03 -.105E+02

 POSITION                                       TOTAL-FORCE (eV/Angst)
      8.54453     12.59533     13.88470         0.081266     -0.081660      0.335233
      6.69899     14.44084     13.56395        -0.261785      0.261285      0.372104
     12.32695      8.81289     13.56395         0.261285     -0.261785      0.372104
     10.48144     10.65841     13.88470        -0.081660      0.081266      0.335233
      0.00000      0.00000      9.00000        -0.005481      0.005479      0.091864
      2.11389      2.11389      9.00000         0.000028      0.008979      0.093149
      0.00000      2.11389     11.11389         0.003235      0.003235     -0.068262
      2.11389      0.00000     11.11389        -0.005275      0.017194     -0.067035
      0.00000      4.22777      9.00000         0.008979      0.000028      0.093149
      2.11389      6.34166      9.00000         0.006183     -0.001342      0.095946
      0.00000      6.34166     11.11389         0.014660      0.000030     -0.065513
      2.11389      4.22777     11.11389         0.006215      0.006215     -0.066086
      0.00000      8.45554      9.00000         0.011017     -0.003472      0.094633
      2.11389     10.56943      9.00000        -0.007078     -0.020167      0.096130
      0.00000     10.56943     11.11389         0.003925     -0.004682     -0.060633
      2.11389      8.45554     11.11389         0.013588     -0.006788     -0.057192
      0.00000     12.68331      9.00000        -0.014029     -0.005749      0.094646
      2.11389     14.79720      9.00000        -0.056786     -0.007725      0.092000
      0.00000     14.79720     11.11389        -0.025948     -0.003824     -0.062085
      2.11389     12.68331     11.11389        -0.032008     -0.025280     -0.048186
      0.00000     16.91108      9.00000        -0.024752      0.003717      0.092806
      2.11389     19.02497      9.00000        -0.020315      0.020320      0.087755
      0.00000     19.02497     11.11389        -0.017195      0.005281     -0.067032
      2.11389     16.91108     11.11389        -0.064794      0.008737     -0.062204
      4.22777      0.00000      9.00000        -0.003705      0.024750      0.092806
      6.34166      2.11389      9.00000        -0.003472      0.011017      0.094633
      4.22777      2.11389     11.11389         0.000030      0.014660     -0.065513
      6.34166      0.00000     11.11389         0.003842      0.025940     -0.062082
      4.22777      4.22777      9.00000        -0.001342      0.006183      0.095946
      6.34166      6.34166      9.00000        -0.015566     -0.000617      0.104582
      4.22777      6.34166     11.11389         0.007474      0.007474     -0.055774
      6.34166      4.22777     11.11389        -0.006788      0.013588     -0.057192
      4.22777      8.45554      9.00000        -0.000617     -0.015566      0.104582
      6.34166     10.56943      9.00000        -0.022269     -0.067446      0.127172
      4.22777     10.56943     11.11389         0.028402     -0.046293     -0.013371
      6.34166      8.45554     11.11389         0.011959      0.011959     -0.011570
      4.22777     12.68331      9.00000        -0.052504     -0.062849      0.076213
      6.34166     14.79720      9.00000         0.001263     -0.001207     -0.227613
      4.22777     14.79720     11.11389        -0.389150     -0.037535     -0.138423
      6.34166     12.68331     11.11389        -0.110106     -0.517575     -0.025356
      4.22777     16.91108      9.00000        -0.046799      0.046818      0.050266
      6.34166     19.02497      9.00000         0.007748      0.056782      0.092004
      4.22777     19.02497     11.11389        -0.008723      0.064797     -0.062198
      6.34166     16.91108     11.11389         0.037546      0.389242     -0.138505
      8.45554      0.00000      9.00000         0.005760      0.014022      0.094652
     10.56943      2.11389      9.00000        -0.005749     -0.014029      0.094646
      8.45554      2.11389     11.11389        -0.004682      0.003925     -0.060633
     10.56943      0.00000     11.11389         0.004688     -0.003951     -0.060628
      8.45554      4.22777      9.00000        -0.020167     -0.007078      0.096130
     10.56943      6.34166      9.00000        -0.062849     -0.052504      0.076213
      8.45554      6.34166     11.11389        -0.046293      0.028402     -0.013371
     10.56943      4.22777     11.11389        -0.025280     -0.032008     -0.048186
      8.45554      8.45554      9.00000        -0.067446     -0.022269      0.127172
     10.56943     10.56943      9.00000        -0.044264      0.044310     -0.001288
      8.45554     10.56943     11.11389        -0.179547     -0.179547     -0.009926
     10.56943      8.45554     11.11389        -0.517575     -0.110106     -0.025356
      8.45554     12.68331      9.00000         0.044310     -0.044264     -0.001288
     10.56943     14.79720      9.00000         0.067472      0.022284      0.127224
      8.45554     14.79720     11.11389         0.517922      0.110167     -0.025506
     10.56943     12.68331     11.11389         0.179689      0.179689     -0.009926
[...]
     19.02497      6.34166     11.11389        -0.023094      0.004025      0.458847
     16.91108      6.34166      9.00000        -0.044039      0.017378     -0.477438
     19.02497      4.22777      9.00000        -0.015503      0.008368     -0.486185
     16.91108      8.45554     11.11389        -0.057221     -0.015611      0.454235
     19.02497     10.56943     11.11389        -0.011659     -0.008658      0.454074
     16.91108     10.56943      9.00000        -0.030152     -0.027805     -0.488158
     19.02497      8.45554      9.00000        -0.022118     -0.002320     -0.486932
     16.91108     12.68331     11.11389        -0.007131     -0.025589      0.446323
     19.02497     14.79720     11.11389         0.010206     -0.002406      0.456452
     16.91108     14.79720      9.00000         0.003491     -0.009076     -0.492035
     19.02497     12.68331      9.00000         0.000249     -0.006295     -0.489599
     16.91108     16.91108     11.11389         0.009030      0.002166      0.456061
     19.02497     19.02497     11.11389         0.009149      0.000413      0.460959
     16.91108     19.02497      9.00000         0.003812      0.003812     -0.488622
     19.02497     16.91108      9.00000         0.011503     -0.001971     -0.488203
    total drift:                               -0.737781      0.736376     -0.512415

  FREE ENERGIE OF THE ION-ELECTRON SYSTEM (eV)
  free  energy   TOTEN  =      -745.74599141 eV

  energy  without entropy=     -745.74599141  energy(sigma->0) =     -745.74599141