 vasp.6.4.0 14Feb23 (build Dec 05 2023 14:15:48) complex

 executed on             LinuxIFC date 2023.12.12  10:10:26

 INCAR:
   SYSTEM = MgO-rocksalt
   ISMEAR = 0
   SIGMA = 0.05
   EDIFF = 1E-6
   ALGO = ALL
   ISTART = 2
   IBRION = -1
   NSW = 0
   ISYM = 0
   DIPOL = 0.5 0.5 0.5
   IDIPOL = 3
   LDIPOL = .TRUE.
   METAGGA = M06L
   ENCUT = 520
   PREC = Accurate
   LASPH = .TRUE.
   LREAL = Auto
   ISPIN = 1
   NELM = 20000
   NELMIN = 8
   NCORE = 16
   LWAVE = .FALSE.
   LCHARG = .FALSE.

 POTCAR:    PAW_PBE Au 04Oct2007
 POTCAR:    PAW_PBE Mg_pv 13Apr2007
 POTCAR:    PAW_PBE O 08Apr2002
 POTCAR:    PAW_PBE Au 04Oct2007
   VRHFIN =Au: s1d10

   TITEL  = PAW_PBE Au 04Oct2007
   POMASS =  196.966; ZVAL   =   11.000    mass and valenz
   ENMAX  =  229.943; ENMIN  =  172.457 eV

   TITEL  = PAW_PBE Mg_pv 13Apr2007
   POMASS =   24.305; ZVAL   =    8.000    mass and valenz
   ENMAX  =  403.929; ENMIN  =  302.947 eV

   TITEL  = PAW_PBE O 08Apr2002
   POMASS =   16.000; ZVAL   =    6.000    mass and valenz
   ENMAX  =  400.000; ENMIN  =  300.000 eV

 Optimization of the real space projectors (new method)

 maximal supplied QI-value         = 15.12
 optimisation between [QCUT,QGAM] = [ 11.64, 23.28] = [ 37.95,151.78] Ry
 Optimized for a Real-space Cutoff    1.49 Angstroem

   l    n(q)    QCUT    max X(q) W(low)/X(q) W(high)/X(q)  e(spline)
   2      9    11.641    60.898    0.24E-03    0.10E-03    0.19E-06
   2      9    11.641    58.894    0.25E-03    0.10E-03    0.19E-06
   0     10    11.641   109.617    0.73E-04    0.33E-04    0.11E-06
   0     10    11.641    75.026    0.71E-04    0.32E-04    0.11E-06
   1     10    11.641    16.344    0.27E-04    0.97E-04    0.16E-06
   1     10    11.641    10.160    0.23E-04    0.77E-04    0.13E-06
 Optimization of the real space projectors (new method)

[...]

   l    n(q)    QCUT    max X(q) W(low)/X(q) W(high)/X(q)  e(spline)
   1      8    11.527     2.974    0.44E-04    0.56E-04    0.12E-06
   1      8    11.527     4.279    0.12E-03    0.12E-03    0.26E-06
   0      9    11.527    16.381    0.46E-04    0.64E-04    0.78E-07
   0      9    11.527     5.611    0.26E-04    0.43E-04    0.55E-07
   2      8    11.527     4.652    0.22E-03    0.72E-04    0.47E-07
 Optimization of the real space projectors (new method)

 maximal supplied QI-value         = 24.76
 optimisation between [QCUT,QGAM] = [ 11.64, 23.27] = [ 37.91,151.63] Ry
 Optimized for a Real-space Cutoff    1.14 Angstroem

   l    n(q)    QCUT    max X(q) W(low)/X(q) W(high)/X(q)  e(spline)
   0      8    11.635    20.381    0.10E-03    0.33E-03    0.24E-06
   0      8    11.635    15.268    0.11E-03    0.35E-03    0.26E-06
   1      7    11.635     5.964    0.24E-03    0.31E-03    0.30E-06
   1      7    11.635     5.382    0.22E-03    0.25E-03    0.26E-06
  PAW_PBE Au 04Oct2007                  :
  PAW_PBE Mg_pv 13Apr2007               :
  PAW_PBE O 08Apr2002                   :

 POSCAR: Au Mg  O
  positions in direct lattice

 METAGGA = M06L                                        LMAXTAU =  6    LMIXTAU =  F

 ion  position               nearest neighbor table
   1  0.492  0.408  0.630-   2 2.53  54 2.82
   2  0.408  0.492  0.630-   1 2.53  53 2.82
   3  0.000  0.000  0.407- 105 2.11 106 2.11 121 2.11 186 2.11 103 2.11
   4  0.100  0.100  0.407- 105 2.11 106 2.11 110 2.11 125 2.11 104 2.11
   5  0.000  0.100  0.503- 103 2.11 104 2.11 107 2.11 184 2.11 105 2.11
   6  0.100  0.000  0.503- 103 2.11 104 2.11 120 2.11 123 2.11 106 2.11
   7  0.000  0.200  0.407- 109 2.11 105 2.11 110 2.11 190 2.11 107 2.11
   8  0.100  0.300  0.407- 110 2.11 109 2.11 114 2.11 129 2.11 108 2.11
   9  0.000  0.300  0.503- 107 2.11 108 2.11 111 2.11 188 2.11 109 2.11
  10  0.100  0.200  0.503- 108 2.11 107 2.11 104 2.11 127 2.11 110 2.11
  11  0.000  0.400  0.407- 109 2.11 113 2.11 114 2.11 194 2.11 111 2.11
  12  0.100  0.500  0.407- 113 2.11 114 2.11 118 2.11 133 2.11 112 2.11
  13  0.000  0.500  0.503- 111 2.11 112 2.11 115 2.11 192 2.11 113 2.11
  14  0.100  0.400  0.503- 108 2.11 111 2.11 112 2.11 131 2.11 114 2.11
  15  0.000  0.600  0.407- 113 2.11 117 2.11 118 2.11 198 2.11 115 2.11
  16  0.100  0.700  0.407- 122 2.11 118 2.11 117 2.11 137 2.11 116 2.11
  17  0.000  0.700  0.503- 119 2.11 116 2.11 115 2.11 196 2.11 117 2.11
  18  0.100  0.600  0.503- 112 2.11 115 2.11 116 2.11 135 2.11 118 2.11
  19  0.000  0.800  0.407- 117 2.11 121 2.11 122 2.11 202 2.11 119 2.11
  20  0.100  0.900  0.407- 106 2.11 121 2.11 122 2.11 141 2.11 120 2.11
  21  0.000  0.900  0.503- 103 2.11 119 2.11 120 2.11 200 2.11 121 2.11
  22  0.100  0.800  0.503- 116 2.11 119 2.11 120 2.11 139 2.11 122 2.11
  23  0.200  0.000  0.407- 126 2.11 125 2.11 106 2.11 141 2.11 123 2.11
  24  0.300  0.100  0.407- 125 2.11 126 2.11 130 2.11 145 2.11 124 2.11
  25  0.200  0.100  0.503- 124 2.11 123 2.11 104 2.11 127 2.11 125 2.11
  26  0.300  0.000  0.503- 123 2.11 124 2.11 140 2.11 143 2.11 126 2.11
  27  0.200  0.200  0.407- 129 2.11 130 2.11 110 2.11 125 2.11 127 2.11
  28  0.300  0.300  0.407- 129 2.11 130 2.11 134 2.11 149 2.11 128 2.11
  29  0.200  0.300  0.503- 127 2.11 128 2.11 108 2.11 131 2.11 129 2.11
  30  0.300  0.200  0.503- 127 2.11 128 2.11 124 2.11 147 2.11 130 2.11
  31  0.200  0.400  0.407- 134 2.11 129 2.11 133 2.11 114 2.11 131 2.11
  32  0.300  0.500  0.407- 133 2.11 134 2.11 138 2.11 153 2.11 132 2.11
  33  0.200  0.500  0.503- 132 2.11 131 2.11 112 2.11 135 2.11 133 2.11
  34  0.300  0.400  0.503- 131 2.11 128 2.11 132 2.11 151 2.11 134 2.11
  35  0.200  0.600  0.407- 138 2.11 133 2.11 137 2.11 118 2.11 135 2.11
  36  0.300  0.700  0.407- 137 2.11 142 2.11 138 2.11 157 2.11 136 2.11
  37  0.200  0.700  0.503- 136 2.11 139 2.11 116 2.11 135 2.11 137 2.11
  38  0.300  0.600  0.503- 135 2.11 132 2.11 136 2.11 155 2.11 138 2.11
  39  0.200  0.800  0.407- 137 2.11 142 2.11 141 2.11 122 2.11 139 2.11
  40  0.300  0.900  0.407- 141 2.11 126 2.11 142 2.11 161 2.11 140 2.11
  41  0.200  0.900  0.503- 140 2.11 123 2.11 139 2.11 120 2.11 141 2.11
  42  0.300  0.800  0.503- 136 2.11 139 2.11 140 2.11 159 2.11 142 2.11
  43  0.400  0.000  0.407- 126 2.11 145 2.11 146 2.11 161 2.11 143 2.11
  44  0.500  0.100  0.407- 145 2.11 146 2.11 150 2.11 165 2.11 144 2.11
  45  0.400  0.100  0.503- 124 2.11 143 2.11 144 2.11 147 2.11 145 2.11
  46  0.500  0.000  0.503- 143 2.11 144 2.11 160 2.11 163 2.11 146 2.11
  47  0.400  0.200  0.407- 149 2.11 145 2.11 130 2.11 150 2.11 147 2.11
  48  0.500  0.300  0.407- 150 2.11 149 2.11 154 2.11 169 2.11 148 2.11
  49  0.400  0.300  0.503- 147 2.11 128 2.11 148 2.11 151 2.11 149 2.11
  50  0.500  0.200  0.503- 148 2.11 147 2.11 144 2.11 167 2.11 150 2.11
  51  0.400  0.400  0.407- 134 2.11 149 2.11 153 2.11 154 2.11 151 2.11
  52  0.500  0.500  0.407- 153 2.11 154 2.11 158 2.11 173 2.11 152 2.11
  53  0.400  0.500  0.503- 132 2.11 151 2.11 152 2.11 155 2.11 153 2.11   2 2.82
  54  0.500  0.400  0.503- 148 2.11 151 2.11 152 2.11 171 2.11 154 2.11   1 2.82
  55  0.400  0.600  0.407- 138 2.11 153 2.11 157 2.11 158 2.11 155 2.11
  56  0.500  0.700  0.407- 162 2.11 158 2.11 157 2.11 177 2.11 156 2.11
  57  0.400  0.700  0.503- 159 2.11 155 2.11 156 2.11 136 2.11 157 2.11
  58  0.500  0.600  0.503- 152 2.11 155 2.11 156 2.11 175 2.11 158 2.11
  59  0.400  0.800  0.407- 157 2.11 142 2.11 161 2.11 162 2.11 159 2.11
  60  0.500  0.900  0.407- 146 2.11 161 2.11 162 2.11 181 2.11 160 2.11
[...]
 188  0.900  0.300  0.503-  90 2.11  89 2.11   9 2.11  94 2.11  88 2.11
 189  0.800  0.300  0.407-  68 2.11  87 2.11  88 2.11  91 2.11  89 2.11
 190  0.900  0.200  0.407-  88 2.11  84 2.11  87 2.11   7 2.11  90 2.11
 191  0.800  0.400  0.503-  74 2.11  89 2.11  93 2.11  94 2.11  91 2.11
 192  0.900  0.500  0.503-  13 2.11  93 2.11  94 2.11  98 2.11  92 2.11
 193  0.800  0.500  0.407-  72 2.11  91 2.11  92 2.11  95 2.11  93 2.11
 194  0.900  0.400  0.407-  11 2.11  88 2.11  91 2.11  92 2.11  94 2.11
 195  0.800  0.600  0.503-  78 2.11  93 2.11  97 2.11  98 2.11  95 2.11
 196  0.900  0.700  0.503- 102 2.11  97 2.11  98 2.11  17 2.11  96 2.11
 197  0.800  0.700  0.407-  76 2.11  99 2.11  96 2.11  95 2.11  97 2.11
 198  0.900  0.600  0.407-  15 2.11  92 2.11  95 2.11  96 2.11  98 2.11
 199  0.800  0.800  0.503-  82 2.11  97 2.11 101 2.11 102 2.11  99 2.11
 200  0.900  0.900  0.503-  21 2.11  86 2.11 101 2.11 102 2.11 100 2.11
 201  0.800  0.900  0.407-  80 2.11  83 2.11  99 2.11 100 2.11 101 2.11
 202  0.900  0.800  0.407-  96 2.11  19 2.11  99 2.11 100 2.11 102 2.11

IMPORTANT INFORMATION: All symmetrisations will be switched off!
NOSYMM: (Re-)initialisation of all symmetry stuff for point group C_1.

                                     Primitive cell

  volume of cell :    9881.6133

  direct lattice vectors                    reciprocal lattice vectors
    21.138852197  0.000000000  0.000000000     0.047306258  0.000000000  0.000000000
     0.000000000 21.138852197  0.000000000     0.000000000  0.047306258  0.000000000
     0.000000000  0.000000000 22.113885220     0.000000000  0.000000000  0.045220457

  length of vectors
    21.138852197 21.138852197 22.113885220     0.047306258  0.047306258  0.045220457

  position of ions in fractional coordinates (direct lattice)
     0.492280992  0.407719014  0.629662437
     0.407718984  0.492281023  0.629662437
     0.000000000  0.000000000  0.406984115
     0.100000000  0.100000000  0.406984115
     0.000000000  0.100000000  0.502574971
     0.100000000  0.000000000  0.502574971
     0.000000000  0.200000000  0.406984115
     0.100000000  0.300000000  0.406984115
     0.000000000  0.300000000  0.502574971
     0.100000000  0.200000000  0.502574971
     0.000000000  0.400000000  0.406984115
     0.100000000  0.500000000  0.406984115
     0.000000000  0.500000000  0.502574971
     0.100000000  0.400000000  0.502574971
     0.000000000  0.600000000  0.406984115
     0.100000000  0.700000000  0.406984115
     0.000000000  0.700000000  0.502574971
     0.100000000  0.600000000  0.502574971
     0.000000000  0.800000000  0.406984115
     0.100000000  0.900000000  0.406984115
     0.000000000  0.900000000  0.502574971
     0.100000000  0.800000000  0.502574971
     0.200000000  0.000000000  0.406984115
     0.300000000  0.100000000  0.406984115
     0.200000000  0.100000000  0.502574971
     0.300000000  0.000000000  0.502574971
     0.200000000  0.200000000  0.406984115
     0.300000000  0.300000000  0.406984115
     0.200000000  0.300000000  0.502574971
     0.300000000  0.200000000  0.502574971
     0.200000000  0.400000000  0.406984115
     0.300000000  0.500000000  0.406984115
     0.200000000  0.500000000  0.502574971
     0.300000000  0.400000000  0.502574971
     0.200000000  0.600000000  0.406984115
     0.300000000  0.700000000  0.406984115
     0.200000000  0.700000000  0.502574971
     0.300000000  0.600000000  0.502574971
     0.200000000  0.800000000  0.406984115
     0.300000000  0.900000000  0.406984115
     0.200000000  0.900000000  0.502574971
     0.300000000  0.800000000  0.502574971
     0.400000000  0.000000000  0.406984115
     0.500000000  0.100000000  0.406984115
     0.400000000  0.100000000  0.502574971
     0.500000000  0.000000000  0.502574971
[...]
     52     -44.6208      2.00000
     53     -44.6204      2.00000
     54     -44.6202      2.00000
     55     -44.6200      2.00000
     56     -44.6195      2.00000
     57     -44.6184      2.00000
     58     -44.6183      2.00000
     59     -44.6180      2.00000
     60     -44.6175      2.00000
[...]
    850      19.9699      0.00000
    851      19.9954      0.00000
    852      20.5423      0.00000
    853      21.0890      0.00000
    854      21.9016      0.00000
    855      22.0840      0.00000
    856      22.4960      0.00000
    857      22.7168      0.00000
    858      22.8455      0.00000
    859      23.1150      0.00000
    860      23.7882      0.00000
    861      23.7990      0.00000
    862      23.8151      0.00000
    863      25.4659      0.00000
    864      25.6408      0.00000

 soft charge-density along one line, spin component           1
         0         1         2         3         4         5         6         7         8         9
 total charge-density along one line

------------------------ aborting loop because EDIFF is reached ----------------------------------------

  FORCE on cell =-STRESS in cart. coord.  units (eV):
  Direction    XX          YY          ZZ          XY          YZ          ZX
  Alpha Z  1365.75682  1365.75682  1365.75682
  Ewald  478966.19865478966.19865************  -341.35603     0.00001    -0.00001
  Hartree507882.75492507882.63836************  -228.99681    -0.01693     0.00808
  E(xc)   -8827.70050 -8827.62487 -8825.27433    -0.28361    -0.14050    -0.02009
  Local  ************************************   555.74282     0.01352     0.01017
  n-local -8682.10156 -8682.09355 -8811.09408     7.76713     0.00629     0.00711
  augment  4258.75019  4258.72306  4237.60243     1.54478     0.20314     0.24743
  Kinetic 23160.73475 23160.66999 23369.04316     5.27475    -0.00649    -0.04962
  Fock        0.00000     0.00000     0.00000     0.00000     0.00000     0.00000
  Total    -232.61244  -232.56693     7.82506    -0.30697     0.05904     0.20307
  in kB     -37.71513   -37.70776     1.26873    -0.04977     0.00957     0.03293

 VOLUME and BASIS-vectors are now :
  energy-cutoff  :      520.00
  volume of cell :     9881.61
      direct lattice vectors                 reciprocal lattice vectors
    21.138852197  0.000000000  0.000000000     0.047306258  0.000000000  0.000000000
     0.000000000 21.138852197  0.000000000     0.000000000  0.047306258  0.000000000
     0.000000000  0.000000000 22.113885220     0.000000000  0.000000000  0.045220457

  length of vectors
    21.138852197 21.138852197 22.113885220     0.047306258  0.047306258  0.045220457

 FORCES acting on ions:
    Electron-Ion                     Ewald-Force                    Non-Local-Force
   -.195E+03 0.195E+03 -.203E+04   0.191E+03 -.191E+03 0.203E+04   0.451E+01 -.457E+01 0.605E+00
   0.195E+03 -.195E+03 -.203E+04   -.191E+03 0.191E+03 0.203E+04   -.458E+01 0.459E+01 0.640E+00
   0.174E+01 0.174E+01 0.932E+03   -.174E+01 -.174E+01 -.923E+03   -.128E-03 -.574E-02 -.731E+01
   0.627E+01 0.627E+01 0.934E+03   -.627E+01 -.627E+01 -.925E+03   -.263E-02 -.102E-01 -.706E+01
   0.261E+01 0.600E+01 -.923E+03   -.261E+01 -.602E+01 0.914E+03   0.487E-02 0.108E-01 0.950E+01
   0.600E+01 0.262E+01 -.923E+03   -.602E+01 -.261E+01 0.914E+03   0.143E-01 -.184E-02 0.995E+01
   0.295E+01 0.643E+01 0.935E+03   -.295E+01 -.643E+01 -.926E+03   -.950E-02 -.297E-03 -.738E+01
   0.131E+02 0.814E+01 0.940E+03   -.131E+02 -.817E+01 -.931E+03   0.355E-03 0.226E-01 -.742E+01
   0.580E+01 0.717E+01 -.921E+03   -.580E+01 -.719E+01 0.912E+03   -.186E-02 0.160E-02 0.927E+01
   0.127E+02 0.117E+02 -.920E+03   -.127E+02 -.117E+02 0.911E+03   -.179E-01 0.344E-02 0.932E+01
   0.528E+01 0.235E+01 0.938E+03   -.529E+01 -.236E+01 -.929E+03   0.383E-02 0.110E-01 -.788E+01
   0.169E+02 -.269E+01 0.943E+03   -.170E+02 0.268E+01 -.934E+03   0.686E-01 0.179E-01 -.749E+01
   0.826E+01 -.257E+01 -.919E+03   -.829E+01 0.257E+01 0.910E+03   0.231E-01 -.992E-03 0.958E+01
   0.256E+02 0.587E+01 -.914E+03   -.256E+02 -.591E+01 0.905E+03   0.187E-01 0.184E-01 0.953E+01
   0.500E+01 -.547E+01 0.937E+03   -.503E+01 0.548E+01 -.928E+03   0.294E-01 -.640E-02 -.765E+01
   0.102E+02 -.907E+01 0.938E+03   -.102E+02 0.910E+01 -.929E+03   0.362E-01 -.254E-01 -.717E+01
   0.521E+01 -.822E+01 -.922E+03   -.525E+01 0.824E+01 0.913E+03   0.292E-01 -.184E-01 0.947E+01
   0.218E+02 -.112E+02 -.916E+03   -.219E+02 0.112E+02 0.907E+03   0.729E-01 -.154E-01 0.954E+01
   0.264E+01 -.505E+01 0.933E+03   -.266E+01 0.505E+01 -.924E+03   0.123E-01 -.963E-03 -.685E+01
   0.505E+01 -.264E+01 0.933E+03   -.505E+01 0.266E+01 -.924E+03   -.269E-02 -.150E-01 -.739E+01
   0.239E+01 -.239E+01 -.924E+03   -.239E+01 0.239E+01 0.915E+03   0.242E-02 -.341E-02 0.934E+01
   0.902E+01 -.902E+01 -.922E+03   -.905E+01 0.905E+01 0.913E+03   0.241E-01 -.208E-01 0.897E+01
   0.642E+01 0.295E+01 0.935E+03   -.643E+01 -.295E+01 -.926E+03   0.183E-02 -.477E-02 -.737E+01
   0.814E+01 0.131E+02 0.940E+03   -.817E+01 -.131E+02 -.931E+03   0.192E-01 -.805E-03 -.754E+01
   0.117E+02 0.127E+02 -.920E+03   -.117E+02 -.127E+02 0.911E+03   0.148E-01 -.108E-01 0.919E+01
   0.718E+01 0.581E+01 -.921E+03   -.719E+01 -.580E+01 0.912E+03   0.638E-02 -.448E-02 0.908E+01
   0.136E+02 0.136E+02 0.942E+03   -.136E+02 -.136E+02 -.933E+03   0.487E-02 0.597E-02 -.739E+01
   0.229E+02 0.228E+02 0.963E+03   -.229E+02 -.229E+02 -.954E+03   0.504E-01 0.546E-01 -.704E+01
   0.345E+02 0.229E+02 -.907E+03   -.344E+02 -.229E+02 0.898E+03   -.542E-01 0.325E-01 0.944E+01
   0.229E+02 0.345E+02 -.907E+03   -.229E+02 -.344E+02 0.898E+03   0.349E-01 -.366E-01 0.917E+01
   0.271E+02 0.713E+01 0.956E+03   -.272E+02 -.722E+01 -.947E+03   0.378E-01 0.723E-01 -.720E+01
   0.323E+02 -.881E+01 0.982E+03   -.323E+02 0.876E+01 -.974E+03   -.138E-01 0.464E-01 -.684E+01
   0.545E+02 -.779E+01 -.894E+03   -.548E+02 0.775E+01 0.885E+03   0.232E+00 0.439E-01 0.961E+01
   0.807E+02 0.359E+02 -.849E+03   -.806E+02 -.362E+02 0.840E+03   -.136E+00 0.279E+00 0.903E+01
   0.222E+02 -.135E+02 0.951E+03   -.223E+02 0.136E+02 -.942E+03   0.747E-01 -.310E-01 -.727E+01
   0.135E+02 -.222E+02 0.951E+03   -.136E+02 0.223E+02 -.942E+03   0.304E-01 -.756E-01 -.709E+01
   0.226E+02 -.226E+02 -.913E+03   -.227E+02 0.227E+02 0.904E+03   0.647E-01 -.615E-01 0.918E+01
   0.532E+02 -.531E+02 -.871E+03   -.534E+02 0.534E+02 0.862E+03   0.163E+00 -.173E+00 0.929E+01
   0.908E+01 -.102E+02 0.938E+03   -.910E+01 0.102E+02 -.929E+03   0.198E-01 -.372E-01 -.695E+01
   0.546E+01 -.500E+01 0.937E+03   -.548E+01 0.503E+01 -.928E+03   0.501E-02 -.199E-01 -.693E+01
   0.822E+01 -.523E+01 -.922E+03   -.824E+01 0.525E+01 0.913E+03   0.573E-02 -.207E-01 0.954E+01
   0.112E+02 -.218E+02 -.916E+03   -.112E+02 0.219E+02 0.907E+03   0.203E-01 -.758E-01 0.985E+01
   0.235E+01 0.528E+01 0.938E+03   -.236E+01 -.529E+01 -.929E+03   0.122E-01 0.117E-01 -.688E+01
   -.269E+01 0.169E+02 0.943E+03   0.268E+01 -.170E+02 -.934E+03   0.154E-01 0.778E-01 -.756E+01
   0.588E+01 0.256E+02 -.914E+03   -.591E+01 -.256E+02 0.905E+03   0.303E-01 0.802E-02 0.963E+01
   -.257E+01 0.826E+01 -.919E+03   0.257E+01 -.829E+01 0.910E+03   0.817E-02 0.316E-01 0.931E+01
   0.713E+01 0.272E+02 0.956E+03   -.722E+01 -.272E+02 -.947E+03   0.725E-01 0.329E-01 -.754E+01
   -.880E+01 0.323E+02 0.982E+03   0.876E+01 -.323E+02 -.974E+03   0.373E-01 -.353E-02 -.690E+01
   0.359E+02 0.807E+02 -.849E+03   -.362E+02 -.806E+02 0.840E+03   0.261E+00 -.139E+00 0.888E+01
   -.780E+01 0.545E+02 -.894E+03   0.775E+01 -.548E+02 0.885E+03   0.410E-01 0.192E+00 0.959E+01
   0.170E+02 0.169E+02 0.101E+04   -.170E+02 -.170E+02 -.997E+03   0.422E-01 0.464E-01 -.783E+01
   -.170E+02 -.170E+02 0.101E+04   0.170E+02 0.170E+02 -.997E+03   -.473E-01 -.368E-01 -.727E+01
   0.491E+02 -.491E+02 -.710E+03   -.486E+02 0.486E+02 0.704E+03   -.421E+00 0.421E+00 0.615E+01
   -.491E+02 0.491E+02 -.710E+03   0.486E+02 -.486E+02 0.704E+03   0.405E+00 -.410E+00 0.623E+01
   0.881E+01 -.323E+02 0.982E+03   -.876E+01 0.323E+02 -.974E+03   -.419E-01 0.782E-02 -.702E+01
   -.713E+01 -.272E+02 0.956E+03   0.722E+01 0.272E+02 -.947E+03   -.711E-01 -.413E-01 -.687E+01
   0.781E+01 -.545E+02 -.894E+03   -.775E+01 0.548E+02 0.885E+03   -.382E-01 -.222E+00 0.953E+01
   -.359E+02 -.807E+02 -.849E+03   0.362E+02 0.806E+02 0.840E+03   -.277E+00 0.138E+00 0.902E+01
   0.270E+01 -.169E+02 0.943E+03   -.268E+01 0.170E+02 -.934E+03   -.182E-01 -.690E-01 -.665E+01
   -.235E+01 -.529E+01 0.938E+03   0.236E+01 0.529E+01 -.929E+03   -.121E-01 0.110E-02 -.707E+01
[...]
   -.107E+02 0.587E+01 0.707E+03   0.107E+02 -.588E+01 -.710E+03   -.382E-01 0.136E-01 0.333E+01
   -.285E+01 0.488E+01 0.702E+03   0.286E+01 -.489E+01 -.706E+03   -.201E-01 0.164E-02 0.340E+01
   -.202E+02 0.277E+01 -.687E+03   0.203E+02 -.277E+01 0.690E+03   -.416E-01 -.196E-01 -.292E+01
   -.576E+01 -.233E+01 -.691E+03   0.573E+01 0.234E+01 0.694E+03   0.294E-01 -.146E-01 -.298E+01
   -.123E+02 -.288E+01 0.708E+03   0.123E+02 0.290E+01 -.712E+03   -.134E-01 -.358E-01 0.364E+01
   -.425E+01 0.152E+01 0.705E+03   0.425E+01 -.152E+01 -.708E+03   -.142E-01 -.321E-02 0.355E+01
   -.145E+02 -.865E+01 -.689E+03   0.145E+02 0.866E+01 0.693E+03   0.145E-01 -.160E-01 -.299E+01
   -.293E+01 -.605E+01 -.693E+03   0.292E+01 0.606E+01 0.696E+03   0.222E-01 0.670E-02 -.295E+01
   -.688E+01 -.654E+01 0.704E+03   0.689E+01 0.655E+01 -.707E+03   0.119E-01 -.411E-02 0.355E+01
   -.311E+01 -.418E+01 0.704E+03   0.313E+01 0.420E+01 -.707E+03   -.592E-02 -.752E-02 0.356E+01
   -.606E+01 -.606E+01 -.693E+03   0.607E+01 0.607E+01 0.696E+03   -.148E-01 0.112E-03 -.294E+01
   -.158E+01 -.157E+01 -.694E+03   0.159E+01 0.159E+01 0.698E+03   -.337E-02 -.331E-02 -.296E+01
   -.364E+01 -.157E+01 0.701E+03   0.366E+01 0.156E+01 -.705E+03   0.736E-02 0.766E-02 0.366E+01
   -.156E+01 -.364E+01 0.701E+03   0.156E+01 0.366E+01 -.705E+03   0.113E-01 -.501E-02 0.343E+01
   -.209E-01 0.430E-01 -.678E+02   0.312E-11 -.803E-12 -.239E-11   0.508E-01 -.587E-01 0.127E+03

 POSITION                                       TOTAL-FORCE (eV/Angst)
     10.40626      8.61871     13.92428         0.286428     -0.293589     -0.288818
      8.61871     10.40626     13.92428        -0.246010      0.206458     -0.319663
      0.00000      0.00000      9.00000        -0.001271      0.001450      1.189444
      2.11389      2.11389      9.00000        -0.008150      0.000113      1.594362
      0.00000      2.11389     11.11389         0.002202     -0.009841     -2.108146
      2.11389      0.00000     11.11389        -0.000867     -0.024264     -1.697023
      0.00000      4.22777      9.00000        -0.006145     -0.001066      1.154092
      2.11389      6.34166      9.00000        -0.021264     -0.017554      1.198637
      0.00000      6.34166     11.11389         0.001051     -0.021770     -1.890070
      2.11389      4.22777     11.11389        -0.020515      0.002023     -0.250126
      0.00000      8.45554      9.00000        -0.001808     -0.005763      0.732172
      2.11389     10.56943      9.00000        -0.028970     -0.006457      1.201697
      0.00000     10.56943     11.11389        -0.000740      0.007144     -1.562535
      2.11389      8.45554     11.11389        -0.010266     -0.027914     -0.698432
      0.00000     12.68331      9.00000        -0.006816      0.007644      0.724140
      2.11389     14.79720      9.00000        -0.015525     -0.003407      1.286507
      0.00000     14.79720     11.11389        -0.018416      0.003076     -2.374070
      2.11389     12.68331     11.11389        -0.015451      0.053990     -1.693158
      0.00000     16.91108      9.00000        -0.017239      0.007544      1.656398
      2.11389     19.02497      9.00000        -0.008602      0.001385      0.857408
      0.00000     19.02497     11.11389        -0.008938     -0.003876     -1.838294
      2.11389     16.91108     11.11389        -0.007111      0.012406     -0.376341
      4.22777      0.00000      9.00000        -0.001003      0.003414      1.156692
      6.34166      2.11389      9.00000        -0.001850     -0.007465      0.839379
      4.22777      2.11389     11.11389        -0.002575      0.009646     -0.741916
      6.34166      0.00000     11.11389        -0.004405      0.003494     -0.269869
      4.22777      4.22777      9.00000        -0.017641     -0.010065      1.284310
      6.34166      6.34166      9.00000        -0.027966     -0.040439      1.346553
      4.22777      6.34166     11.11389        -0.001042     -0.003925     -1.143707
      6.34166      4.22777     11.11389        -0.016581     -0.003125     -1.304486
      4.22777      8.45554      9.00000        -0.045661     -0.023180      1.455569
      6.34166     10.56943      9.00000        -0.023398     -0.001068      1.256198
      4.22777     10.56943     11.11389        -0.096926     -0.024393     -1.169630
      6.34166      8.45554     11.11389         0.016975     -0.072525     -0.806946
      4.22777     12.68331      9.00000        -0.040922      0.011977      1.051200
      6.34166     14.79720      9.00000        -0.022667      0.047373      1.427763
      4.22777     14.79720     11.11389        -0.025538      0.022379     -0.204397
      6.34166     12.68331     11.11389        -0.074196      0.067761     -0.650950
      4.22777     16.91108      9.00000         0.001290      0.018049      1.423626
      6.34166     19.02497      9.00000        -0.004042      0.006753      1.493812
      4.22777     19.02497     11.11389         0.005915      0.004308     -0.417227
      6.34166     16.91108     11.11389         0.017820      0.017184     -1.845813
      8.45554      0.00000      9.00000         0.009454      0.003868      1.748754
     10.56943      2.11389      9.00000         0.000221     -0.017106      0.913199
      8.45554      2.11389     11.11389        -0.005776     -0.007652     -2.095581
     10.56943      0.00000     11.11389         0.009181      0.017794     -2.029622
      8.45554      4.22777      9.00000        -0.018061     -0.034889      1.125667
     10.56943      6.34166      9.00000         0.004177     -0.024681      1.368794
      8.45554      6.34166     11.11389        -0.065787     -0.008904     -0.304228
     10.56943      4.22777     11.11389        -0.006445     -0.106909     -1.206720
      8.45554      8.45554      9.00000        -0.016793     -0.032793      0.832980
     10.56943     10.56943      9.00000         0.024694      0.019093      1.439660
      8.45554     10.56943     11.11389         0.098391     -0.096250     -0.504036
     10.56943      8.45554     11.11389        -0.071551      0.092699     -0.537201
      8.45554     12.68331      9.00000         0.000131      0.035664      1.207218
     10.56943     14.79720      9.00000         0.009512      0.074803      1.606975
      8.45554     14.79720     11.11389        -0.001675      0.061774     -0.511034
     10.56943     12.68331     11.11389         0.070350     -0.005942     -0.914855
      8.45554     16.91108      9.00000        -0.000073      0.030184      1.557813
     10.56943     19.02497      9.00000         0.001353      0.016546      1.530945
[...]
     19.02497      6.34166     11.11389        -0.004896     -0.012271      0.126215
     16.91108      6.34166      9.00000        -0.025026      0.003304     -0.485461
     19.02497      4.22777      9.00000        -0.017377     -0.003893     -0.270061
     16.91108      8.45554     11.11389        -0.015555     -0.019927      0.131776
     19.02497     10.56943     11.11389         0.009220     -0.004934      0.111620
     16.91108     10.56943      9.00000         0.009075     -0.022756     -0.241599
     19.02497      8.45554      9.00000        -0.015591     -0.001857     -0.194080
     16.91108     12.68331     11.11389         0.023815     -0.005890      0.078688
     19.02497     14.79720     11.11389         0.018492      0.010798      0.166476
     16.91108     14.79720      9.00000         0.025233      0.008270     -0.278984
     19.02497     12.68331      9.00000         0.004292      0.007352     -0.234544
     16.91108     16.91108     11.11389         0.001484      0.013405      0.120923
     19.02497     19.02497     11.11389         0.001705      0.007769      0.135226
     16.91108     19.02497      9.00000         0.029823     -0.000060     -0.230936
     19.02497     16.91108      9.00000         0.017778      0.009912     -0.304972
    total drift:                                0.029968     -0.015636     59.182838

  FREE ENERGIE OF THE ION-ELECTRON SYSTEM (eV)
  free  energy   TOTEN  =     -1736.65328319 eV

  energy  without entropy=    -1736.65011209  energy(sigma->0) =    -1736.65169764