 vasp.6.3.0 20Jan22 (build Apr  1 2022 16:44:48) complex
 executed on        HPECrayEX_GCC date 2022.12.11  09:31:04

 INCAR:
   SYSTEM = MgO-rocksalt
   ISMEAR = 0
   SIGMA = 0.05
   EDIFF = 1E-6
   ALGO = ALL
   ISTART = 0
   IBRION = -1
   NSW = 0
   ISYM = 2
   DIPOL = 0.5 0.5 0.5
   IDIPOL = 3
   LDIPOL = .TRUE.
   METAGGA = M06L
   ENCUT = 520
   PREC = Accurate
   LASPH = .TRUE.
   LREAL = Auto
   ISPIN = 1
   NELM = 200
   NELMIN = 8
   NCORE = 4
   KPAR = 2
   LWAVE = .FALSE.
   LCHARG = .FALSE.

 POTCAR:    PAW_PBE Au 04Oct2007
 POTCAR:    PAW_PBE Mg_pv 13Apr2007
 POTCAR:    PAW_PBE O 08Apr2002
 POTCAR:    PAW_PBE Au 04Oct2007
   VRHFIN =Au: s1d10

   TITEL  = PAW_PBE Au 04Oct2007
   POMASS =  196.966; ZVAL   =   11.000    mass and valenz
   ENMAX  =  229.943; ENMIN  =  172.457 eV

   TITEL  = PAW_PBE Mg_pv 13Apr2007
   POMASS =   24.305; ZVAL   =    8.000    mass and valenz
   ENMAX  =  403.929; ENMIN  =  302.947 eV

   TITEL  = PAW_PBE O 08Apr2002
   POMASS =   16.000; ZVAL   =    6.000    mass and valenz
   ENMAX  =  400.000; ENMIN  =  300.000 eV

 Optimization of the real space projectors (new method)

 maximal supplied QI-value         = 15.12
 optimisation between [QCUT,QGAM] = [ 11.64, 23.28] = [ 37.95,151.78] Ry
 Optimized for a Real-space Cutoff    1.49 Angstroem

   l    n(q)    QCUT    max X(q) W(low)/X(q) W(high)/X(q)  e(spline)
   2      9    11.641    60.898    0.24E-03    0.10E-03    0.19E-06
   2      9    11.641    58.894    0.25E-03    0.10E-03    0.19E-06
   0     10    11.641   109.617    0.73E-04    0.33E-04    0.11E-06
   0     10    11.641    75.026    0.71E-04    0.32E-04    0.11E-06
   1     10    11.641    16.344    0.27E-04    0.97E-04    0.16E-06
   1     10    11.641    10.160    0.23E-04    0.77E-04    0.13E-06
 Optimization of the real space projectors (new method)

[...]

   l    n(q)    QCUT    max X(q) W(low)/X(q) W(high)/X(q)  e(spline)
   1      8    11.527     2.974    0.44E-04    0.56E-04    0.12E-06
   1      8    11.527     4.279    0.12E-03    0.12E-03    0.26E-06
   0      9    11.527    16.381    0.46E-04    0.64E-04    0.78E-07
   0      9    11.527     5.611    0.26E-04    0.43E-04    0.55E-07
   2      8    11.527     4.652    0.22E-03    0.72E-04    0.47E-07
 Optimization of the real space projectors (new method)

 maximal supplied QI-value         = 24.76
 optimisation between [QCUT,QGAM] = [ 11.64, 23.27] = [ 37.91,151.63] Ry
 Optimized for a Real-space Cutoff    1.14 Angstroem

   l    n(q)    QCUT    max X(q) W(low)/X(q) W(high)/X(q)  e(spline)
   0      8    11.635    20.381    0.10E-03    0.33E-03    0.24E-06
   0      8    11.635    15.268    0.11E-03    0.35E-03    0.26E-06
   1      7    11.635     5.964    0.24E-03    0.31E-03    0.30E-06
   1      7    11.635     5.382    0.22E-03    0.25E-03    0.26E-06
  PAW_PBE Au 04Oct2007                  :
  PAW_PBE Mg_pv 13Apr2007               :
  PAW_PBE O 08Apr2002                   :

 POSCAR: Au Mg  O
  positions in direct lattice

 METAGGA = M06L     LMAXTAU =  6    LMIXTAU =  F

 ion  position               nearest neighbor table
   1  0.492  0.408  0.630-   2 2.53  54 2.82
   2  0.408  0.492  0.630-   1 2.53  53 2.82
   3  0.000  0.000  0.407- 105 2.11 106 2.11 121 2.11 186 2.11 103 2.11
   4  0.100  0.100  0.407- 105 2.11 106 2.11 110 2.11 125 2.11 104 2.11
   5  0.000  0.100  0.503- 103 2.11 104 2.11 107 2.11 184 2.11 105 2.11
   6  0.100  0.000  0.503- 103 2.11 104 2.11 120 2.11 123 2.11 106 2.11
   7  0.000  0.200  0.407- 109 2.11 105 2.11 110 2.11 190 2.11 107 2.11
   8  0.100  0.300  0.407- 110 2.11 109 2.11 114 2.11 129 2.11 108 2.11
   9  0.000  0.300  0.503- 107 2.11 108 2.11 111 2.11 188 2.11 109 2.11
  10  0.100  0.200  0.503- 108 2.11 107 2.11 104 2.11 127 2.11 110 2.11
  11  0.000  0.400  0.407- 109 2.11 113 2.11 114 2.11 194 2.11 111 2.11
  12  0.100  0.500  0.407- 113 2.11 114 2.11 118 2.11 133 2.11 112 2.11
  13  0.000  0.500  0.503- 111 2.11 112 2.11 115 2.11 192 2.11 113 2.11
  14  0.100  0.400  0.503- 108 2.11 111 2.11 112 2.11 131 2.11 114 2.11
  15  0.000  0.600  0.407- 113 2.11 117 2.11 118 2.11 198 2.11 115 2.11
  16  0.100  0.700  0.407- 122 2.11 118 2.11 117 2.11 137 2.11 116 2.11
  17  0.000  0.700  0.503- 119 2.11 116 2.11 115 2.11 196 2.11 117 2.11
  18  0.100  0.600  0.503- 112 2.11 115 2.11 116 2.11 135 2.11 118 2.11
  19  0.000  0.800  0.407- 117 2.11 121 2.11 122 2.11 202 2.11 119 2.11
  20  0.100  0.900  0.407- 106 2.11 121 2.11 122 2.11 141 2.11 120 2.11
  21  0.000  0.900  0.503- 103 2.11 119 2.11 120 2.11 200 2.11 121 2.11
  22  0.100  0.800  0.503- 116 2.11 119 2.11 120 2.11 139 2.11 122 2.11
  23  0.200  0.000  0.407- 126 2.11 125 2.11 106 2.11 141 2.11 123 2.11
  24  0.300  0.100  0.407- 125 2.11 126 2.11 130 2.11 145 2.11 124 2.11
  25  0.200  0.100  0.503- 124 2.11 123 2.11 104 2.11 127 2.11 125 2.11
  26  0.300  0.000  0.503- 123 2.11 124 2.11 140 2.11 143 2.11 126 2.11
  27  0.200  0.200  0.407- 129 2.11 130 2.11 110 2.11 125 2.11 127 2.11
  28  0.300  0.300  0.407- 129 2.11 130 2.11 134 2.11 149 2.11 128 2.11
  29  0.200  0.300  0.503- 127 2.11 128 2.11 108 2.11 131 2.11 129 2.11
  30  0.300  0.200  0.503- 127 2.11 128 2.11 124 2.11 147 2.11 130 2.11
  31  0.200  0.400  0.407- 134 2.11 129 2.11 133 2.11 114 2.11 131 2.11
  32  0.300  0.500  0.407- 133 2.11 134 2.11 138 2.11 153 2.11 132 2.11
  33  0.200  0.500  0.503- 132 2.11 131 2.11 112 2.11 135 2.11 133 2.11
  34  0.300  0.400  0.503- 131 2.11 128 2.11 132 2.11 151 2.11 134 2.11
  35  0.200  0.600  0.407- 138 2.11 133 2.11 137 2.11 118 2.11 135 2.11
  36  0.300  0.700  0.407- 137 2.11 142 2.11 138 2.11 157 2.11 136 2.11
  37  0.200  0.700  0.503- 136 2.11 139 2.11 116 2.11 135 2.11 137 2.11
  38  0.300  0.600  0.503- 135 2.11 132 2.11 136 2.11 155 2.11 138 2.11
  39  0.200  0.800  0.407- 137 2.11 142 2.11 141 2.11 122 2.11 139 2.11
  40  0.300  0.900  0.407- 141 2.11 126 2.11 142 2.11 161 2.11 140 2.11
  41  0.200  0.900  0.503- 140 2.11 123 2.11 139 2.11 120 2.11 141 2.11
  42  0.300  0.800  0.503- 136 2.11 139 2.11 140 2.11 159 2.11 142 2.11
  43  0.400  0.000  0.407- 126 2.11 145 2.11 146 2.11 161 2.11 143 2.11
  44  0.500  0.100  0.407- 145 2.11 146 2.11 150 2.11 165 2.11 144 2.11
  45  0.400  0.100  0.503- 124 2.11 143 2.11 144 2.11 147 2.11 145 2.11
  46  0.500  0.000  0.503- 143 2.11 144 2.11 160 2.11 163 2.11 146 2.11
  47  0.400  0.200  0.407- 149 2.11 145 2.11 130 2.11 150 2.11 147 2.11
  48  0.500  0.300  0.407- 150 2.11 149 2.11 154 2.11 169 2.11 148 2.11
  49  0.400  0.300  0.503- 147 2.11 128 2.11 148 2.11 151 2.11 149 2.11
  50  0.500  0.200  0.503- 148 2.11 147 2.11 144 2.11 167 2.11 150 2.11
  51  0.400  0.400  0.407- 134 2.11 149 2.11 153 2.11 154 2.11 151 2.11
  52  0.500  0.500  0.407- 153 2.11 154 2.11 158 2.11 173 2.11 152 2.11
  53  0.400  0.500  0.503- 132 2.11 151 2.11 152 2.11 155 2.11 153 2.11   2 2.82
  54  0.500  0.400  0.503- 148 2.11 151 2.11 152 2.11 171 2.11 154 2.11   1 2.82
  55  0.400  0.600  0.407- 138 2.11 153 2.11 157 2.11 158 2.11 155 2.11
  56  0.500  0.700  0.407- 162 2.11 158 2.11 157 2.11 177 2.11 156 2.11
  57  0.400  0.700  0.503- 159 2.11 155 2.11 156 2.11 136 2.11 157 2.11
  58  0.500  0.600  0.503- 152 2.11 155 2.11 156 2.11 175 2.11 158 2.11
  59  0.400  0.800  0.407- 157 2.11 142 2.11 161 2.11 162 2.11 159 2.11
  60  0.500  0.900  0.407- 146 2.11 161 2.11 162 2.11 181 2.11 160 2.11
[...]
 188  0.900  0.300  0.503-  90 2.11  89 2.11   9 2.11  94 2.11  88 2.11
 189  0.800  0.300  0.407-  68 2.11  87 2.11  88 2.11  91 2.11  89 2.11
 190  0.900  0.200  0.407-  88 2.11  84 2.11  87 2.11   7 2.11  90 2.11
 191  0.800  0.400  0.503-  74 2.11  89 2.11  93 2.11  94 2.11  91 2.11
 192  0.900  0.500  0.503-  13 2.11  93 2.11  94 2.11  98 2.11  92 2.11
 193  0.800  0.500  0.407-  72 2.11  91 2.11  92 2.11  95 2.11  93 2.11
 194  0.900  0.400  0.407-  11 2.11  88 2.11  91 2.11  92 2.11  94 2.11
 195  0.800  0.600  0.503-  78 2.11  93 2.11  97 2.11  98 2.11  95 2.11
 196  0.900  0.700  0.503- 102 2.11  97 2.11  98 2.11  17 2.11  96 2.11
 197  0.800  0.700  0.407-  76 2.11  99 2.11  96 2.11  95 2.11  97 2.11
 198  0.900  0.600  0.407-  15 2.11  92 2.11  95 2.11  96 2.11  98 2.11
 199  0.800  0.800  0.503-  82 2.11  97 2.11 101 2.11 102 2.11  99 2.11
 200  0.900  0.900  0.503-  21 2.11  86 2.11 101 2.11 102 2.11 100 2.11
 201  0.800  0.900  0.407-  80 2.11  83 2.11  99 2.11 100 2.11 101 2.11
 202  0.900  0.800  0.407-  96 2.11  19 2.11  99 2.11 100 2.11 102 2.11

  LATTYP: Found a simple tetragonal cell.
 ALAT       =    21.1388521970
 C/A-ratio  =     1.0461251639

  Lattice vectors:

 A1 = (  21.1388521970,   0.0000000000,   0.0000000000)
 A2 = (   0.0000000000,  21.1388521970,   0.0000000000)
 A3 = (   0.0000000000,   0.0000000000,  22.1138852197)

Analysis of symmetry for initial positions (statically):
 Subroutine PRICEL returns:
 Original cell was already a primitive cell.

 Routine SETGRP: Setting up the symmetry group for a
 simple tetragonal supercell.

 Subroutine GETGRP returns: Found  4 space group operations
 (whereof  2 operations were pure point group operations)
 out of a pool of 16 trial point group operations.

The static configuration has the point symmetry C_1h.
 The point group associated with its full space group is C_2v.

Analysis of symmetry for dynamics (positions and initial velocities):
 Subroutine PRICEL returns:
 Original cell was already a primitive cell.

 Routine SETGRP: Setting up the symmetry group for a
 simple tetragonal supercell.

 Subroutine GETGRP returns: Found  4 space group operations
 (whereof  2 operations were pure point group operations)
 out of a pool of 16 trial point group operations.

The dynamic configuration has the point symmetry C_1h.
 The point group associated with its full space group is C_2v.

 Subroutine INISYM returns: Found  4 space group operations
 (whereof  2 operations are pure point group operations),
 and found     1 'primitive' translations

                                     Primitive cell

  volume of cell :    9881.6133

  direct lattice vectors                    reciprocal lattice vectors
    21.138852197  0.000000000  0.000000000     0.047306258  0.000000000  0.000000000
     0.000000000 21.138852197  0.000000000     0.000000000  0.047306258  0.000000000
     0.000000000  0.000000000 22.113885220     0.000000000  0.000000000  0.045220457

  length of vectors
    21.138852197 21.138852197 22.113885220     0.047306258  0.047306258  0.045220457

  position of ions in fractional coordinates (direct lattice)
     0.492280992  0.407719014  0.629662437
     0.407718984  0.492281023  0.629662437
     0.000000000  0.000000000  0.406984115
     0.100000000  0.100000000  0.406984115
     0.000000000  0.100000000  0.502574971
     0.100000000  0.000000000  0.502574971
     0.000000000  0.200000000  0.406984115
     0.100000000  0.300000000  0.406984115
     0.000000000  0.300000000  0.502574971
     0.100000000  0.200000000  0.502574971
     0.000000000  0.400000000  0.406984115
     0.100000000  0.500000000  0.406984115
     0.000000000  0.500000000  0.502574971
     0.100000000  0.400000000  0.502574971
     0.000000000  0.600000000  0.406984115
[...]
     52     -44.5247      2.00000
     53     -44.5246      2.00000
     54     -44.5245      2.00000
     55     -44.5239      2.00000
     56     -44.5236      2.00000
     57     -44.5233      2.00000
     58     -44.5226      2.00000
     59     -44.5212      2.00000
     60     -44.5205      2.00000
[...]
    882       7.7807      0.00000
    883       7.8168      0.00000
    884       7.8552      0.00000
    885       7.8853      0.00000
    886       7.8875      0.00000
    887       7.9601      0.00000
    888       7.9626      0.00000
    889       7.9782      0.00000
    890       7.9808      0.00000
    891       8.0323      0.00000
    892       8.0466      0.00000
    893       8.0498      0.00000
    894       8.0649      0.00000
    895       8.5544      0.00000
    896       8.5750      0.00000

 soft charge-density along one line, spin component           1
         0         1         2         3         4         5         6         7         8         9
 total charge-density along one line

------------------------ aborting loop EDIFF was not reached (unconverged)  ----------------------------

  FORCE on cell =-STRESS in cart. coord.  units (eV):
  Direction    XX          YY          ZZ          XY          YZ          ZX
  Alpha Z  1365.75682  1365.75682  1365.75682
  Ewald  478966.19865478966.19865************  -341.35603     0.00001    -0.00001
  Hartree507967.58655507967.58656************  -228.97316     0.00001    -0.00000
  E(xc)   -8828.87260 -8828.00650 -8820.18607    -0.16079     0.01064    -0.01387
  Local  ************************************   555.86159    -0.00001     0.00001
  n-local -8666.70999 -8666.76132 -8770.55175     7.61126    -0.01515    -0.00471
  augment  4247.34786  4247.39921  4227.80426     1.52253     0.00190    -0.01366
  Kinetic 23172.67877 23172.75819 23407.54915     4.87138     0.04225    -0.02166
  Fock        0.00000     0.00000     0.00000     0.00000     0.00000     0.00000
  Total    -126.31001  -126.31001   160.85386    -0.62320     0.00000     0.00000
  in kB     -20.47955   -20.47955    26.08040    -0.10104     0.00000     0.00000

 VOLUME and BASIS-vectors are now :
  energy-cutoff  :      520.00
  volume of cell :     9881.61
      direct lattice vectors                 reciprocal lattice vectors
    21.138852197  0.000000000  0.000000000     0.047306258  0.000000000  0.000000000
     0.000000000 21.138852197  0.000000000     0.000000000  0.047306258  0.000000000
     0.000000000  0.000000000 22.113885220     0.000000000  0.000000000  0.045220457

  length of vectors
    21.138852197 21.138852197 22.113885220     0.047306258  0.047306258  0.045220457

 FORCES acting on ions:
    Electron-Ion                     Ewald-Force                    Non-Local-Force
   -.196E+03 0.196E+03 -.203E+04   0.191E+03 -.191E+03 0.203E+04   0.568E+01 -.568E+01 0.107E+01
   0.196E+03 -.196E+03 -.203E+04   -.191E+03 0.191E+03 0.203E+04   -.568E+01 0.568E+01 0.107E+01
   0.172E+01 0.172E+01 0.933E+03   -.174E+01 -.174E+01 -.923E+03   -.851E-02 -.851E-02 -.542E+01
   0.626E+01 0.626E+01 0.935E+03   -.627E+01 -.627E+01 -.925E+03   0.416E-02 0.416E-02 -.538E+01
   0.260E+01 0.603E+01 -.924E+03   -.261E+01 -.602E+01 0.914E+03   -.784E-02 0.153E-01 0.884E+01
   0.603E+01 0.260E+01 -.924E+03   -.602E+01 -.261E+01 0.914E+03   0.153E-01 -.784E-02 0.884E+01
   0.295E+01 0.636E+01 0.935E+03   -.295E+01 -.643E+01 -.926E+03   -.307E-02 0.281E-02 -.526E+01
   0.131E+02 0.809E+01 0.941E+03   -.131E+02 -.817E+01 -.931E+03   -.173E-02 0.183E-01 -.566E+01
   0.581E+01 0.715E+01 -.921E+03   -.580E+01 -.719E+01 0.912E+03   -.515E-02 0.907E-02 0.926E+01
   0.127E+02 0.117E+02 -.921E+03   -.127E+02 -.117E+02 0.911E+03   -.275E-01 0.290E-01 0.841E+01
   0.525E+01 0.232E+01 0.938E+03   -.529E+01 -.236E+01 -.929E+03   -.226E-02 0.605E-02 -.578E+01
   0.169E+02 -.266E+01 0.944E+03   -.170E+02 0.268E+01 -.934E+03   0.104E+00 0.149E-01 -.533E+01
   0.828E+01 -.259E+01 -.920E+03   -.829E+01 0.257E+01 0.910E+03   0.205E-01 0.477E-02 0.856E+01
   0.256E+02 0.587E+01 -.915E+03   -.256E+02 -.591E+01 0.905E+03   0.304E-01 0.206E-01 0.886E+01
   0.497E+01 -.544E+01 0.937E+03   -.503E+01 0.548E+01 -.928E+03   0.340E-01 0.144E-01 -.585E+01
   0.101E+02 -.907E+01 0.938E+03   -.102E+02 0.910E+01 -.929E+03   0.247E-01 -.257E-01 -.509E+01
   0.523E+01 -.820E+01 -.923E+03   -.525E+01 0.824E+01 0.913E+03   0.262E-01 -.168E-01 0.836E+01
   0.218E+02 -.112E+02 -.916E+03   -.219E+02 0.112E+02 0.907E+03   0.694E-01 0.766E-02 0.806E+01
   0.263E+01 -.500E+01 0.934E+03   -.266E+01 0.505E+01 -.924E+03   -.651E-02 0.112E-01 -.531E+01
   0.500E+01 -.263E+01 0.934E+03   -.505E+01 0.266E+01 -.924E+03   -.112E-01 0.651E-02 -.531E+01
   0.237E+01 -.237E+01 -.925E+03   -.239E+01 0.239E+01 0.915E+03   0.320E-01 -.320E-01 0.900E+01
   0.900E+01 -.900E+01 -.923E+03   -.905E+01 0.905E+01 0.913E+03   0.314E-01 -.314E-01 0.806E+01
   0.636E+01 0.295E+01 0.935E+03   -.643E+01 -.295E+01 -.926E+03   0.281E-02 -.307E-02 -.526E+01
   0.809E+01 0.131E+02 0.941E+03   -.817E+01 -.131E+02 -.931E+03   0.183E-01 -.173E-02 -.566E+01
   0.117E+02 0.127E+02 -.921E+03   -.117E+02 -.127E+02 0.911E+03   0.290E-01 -.275E-01 0.841E+01
   0.715E+01 0.581E+01 -.921E+03   -.719E+01 -.580E+01 0.912E+03   0.907E-02 -.515E-02 0.926E+01
   0.136E+02 0.136E+02 0.942E+03   -.136E+02 -.136E+02 -.933E+03   0.159E-01 0.159E-01 -.567E+01
   0.228E+02 0.228E+02 0.964E+03   -.229E+02 -.229E+02 -.954E+03   0.848E-01 0.848E-01 -.589E+01
   0.344E+02 0.228E+02 -.908E+03   -.344E+02 -.229E+02 0.898E+03   0.346E-01 0.390E-01 0.878E+01
   0.228E+02 0.344E+02 -.908E+03   -.229E+02 -.344E+02 0.898E+03   0.390E-01 0.346E-01 0.878E+01
   0.271E+02 0.710E+01 0.956E+03   -.272E+02 -.722E+01 -.947E+03   0.852E-01 0.613E-01 -.515E+01
   0.323E+02 -.878E+01 0.983E+03   -.323E+02 0.876E+01 -.974E+03   0.409E-01 0.507E-01 -.532E+01
   0.544E+02 -.780E+01 -.895E+03   -.548E+02 0.775E+01 0.885E+03   0.285E+00 0.490E-01 0.827E+01
   0.807E+02 0.358E+02 -.849E+03   -.806E+02 -.362E+02 0.840E+03   -.319E-01 0.288E+00 0.798E+01
   0.222E+02 -.135E+02 0.952E+03   -.223E+02 0.136E+02 -.942E+03   0.962E-01 -.590E-01 -.630E+01
   0.135E+02 -.222E+02 0.952E+03   -.136E+02 0.223E+02 -.942E+03   0.590E-01 -.962E-01 -.630E+01
   0.226E+02 -.226E+02 -.914E+03   -.227E+02 0.227E+02 0.904E+03   0.455E-01 -.455E-01 0.892E+01
   0.531E+02 -.531E+02 -.871E+03   -.534E+02 0.534E+02 0.862E+03   0.202E+00 -.202E+00 0.845E+01
   0.907E+01 -.101E+02 0.938E+03   -.910E+01 0.102E+02 -.929E+03   0.257E-01 -.247E-01 -.509E+01
   0.544E+01 -.497E+01 0.937E+03   -.548E+01 0.503E+01 -.928E+03   -.144E-01 -.340E-01 -.585E+01
   0.820E+01 -.523E+01 -.923E+03   -.824E+01 0.525E+01 0.913E+03   0.168E-01 -.262E-01 0.836E+01
   0.112E+02 -.218E+02 -.916E+03   -.112E+02 0.219E+02 0.907E+03   -.766E-02 -.694E-01 0.806E+01
   0.232E+01 0.525E+01 0.938E+03   -.236E+01 -.529E+01 -.929E+03   0.605E-02 -.226E-02 -.578E+01
   -.266E+01 0.169E+02 0.944E+03   0.268E+01 -.170E+02 -.934E+03   0.149E-01 0.104E+00 -.533E+01
   0.587E+01 0.256E+02 -.915E+03   -.591E+01 -.256E+02 0.905E+03   0.206E-01 0.304E-01 0.886E+01
   -.259E+01 0.828E+01 -.920E+03   0.257E+01 -.829E+01 0.910E+03   0.477E-02 0.205E-01 0.856E+01
   0.710E+01 0.271E+02 0.956E+03   -.722E+01 -.272E+02 -.947E+03   0.613E-01 0.852E-01 -.515E+01
   -.878E+01 0.323E+02 0.983E+03   0.876E+01 -.323E+02 -.974E+03   0.507E-01 0.409E-01 -.532E+01
   0.358E+02 0.807E+02 -.849E+03   -.362E+02 -.806E+02 0.840E+03   0.288E+00 -.319E-01 0.798E+01
   -.780E+01 0.544E+02 -.895E+03   0.775E+01 -.548E+02 0.885E+03   0.490E-01 0.285E+00 0.827E+01
   0.169E+02 0.169E+02 0.101E+04   -.170E+02 -.170E+02 -.997E+03   0.484E-01 0.484E-01 -.574E+01
   -.169E+02 -.169E+02 0.101E+04   0.170E+02 0.170E+02 -.997E+03   -.484E-01 -.484E-01 -.574E+01
   0.492E+02 -.492E+02 -.711E+03   -.486E+02 0.486E+02 0.704E+03   -.336E+00 0.336E+00 0.569E+01
   -.492E+02 0.492E+02 -.711E+03   0.486E+02 -.486E+02 0.704E+03   0.336E+00 -.336E+00 0.569E+01
   0.878E+01 -.323E+02 0.983E+03   -.876E+01 0.323E+02 -.974E+03   -.507E-01 -.409E-01 -.532E+01
   -.710E+01 -.271E+02 0.956E+03   0.722E+01 0.272E+02 -.947E+03   -.613E-01 -.852E-01 -.515E+01
   0.780E+01 -.544E+02 -.895E+03   -.775E+01 0.548E+02 0.885E+03   -.490E-01 -.285E+00 0.827E+01
   -.358E+02 -.807E+02 -.849E+03   0.362E+02 0.806E+02 0.840E+03   -.288E+00 0.319E-01 0.798E+01
   0.266E+01 -.169E+02 0.944E+03   -.268E+01 0.170E+02 -.934E+03   -.149E-01 -.104E+00 -.533E+01
   -.232E+01 -.526E+01 0.938E+03   0.236E+01 0.529E+01 -.929E+03   -.605E-02 0.226E-02 -.578E+01
[...]
   -.107E+02 0.586E+01 0.708E+03   0.107E+02 -.588E+01 -.710E+03   -.731E-01 0.127E-01 0.341E+01
   -.275E+01 0.488E+01 0.703E+03   0.286E+01 -.489E+01 -.706E+03   -.116E-01 0.155E-01 0.354E+01
   -.202E+02 0.274E+01 -.687E+03   0.203E+02 -.277E+01 0.690E+03   -.614E-01 -.244E-01 -.289E+01
   -.573E+01 -.234E+01 -.692E+03   0.573E+01 0.234E+01 0.694E+03   -.138E-01 -.136E-01 -.296E+01
   -.122E+02 -.290E+01 0.709E+03   0.123E+02 0.290E+01 -.712E+03   -.239E-01 -.447E-01 0.376E+01
   -.418E+01 0.148E+01 0.705E+03   0.425E+01 -.152E+01 -.708E+03   -.109E-01 -.214E-01 0.368E+01
   -.145E+02 -.858E+01 -.690E+03   0.145E+02 0.866E+01 0.693E+03   -.219E-01 -.724E-02 -.292E+01
   -.289E+01 -.615E+01 -.694E+03   0.292E+01 0.606E+01 0.696E+03   0.148E-01 -.299E-01 -.288E+01
   -.692E+01 -.658E+01 0.705E+03   0.689E+01 0.655E+01 -.707E+03   -.156E-01 -.366E-01 0.362E+01
   -.307E+01 -.417E+01 0.704E+03   0.313E+01 0.420E+01 -.707E+03   0.837E-02 -.720E-02 0.384E+01
   -.607E+01 -.607E+01 -.694E+03   0.607E+01 0.607E+01 0.696E+03   0.719E-02 0.719E-02 -.289E+01
   -.149E+01 -.149E+01 -.695E+03   0.159E+01 0.159E+01 0.698E+03   0.155E-01 0.155E-01 -.292E+01
   -.375E+01 -.155E+01 0.702E+03   0.366E+01 0.156E+01 -.705E+03   -.359E-01 0.367E-02 0.369E+01
   -.155E+01 -.375E+01 0.702E+03   0.156E+01 0.366E+01 -.705E+03   0.367E-02 -.359E-01 0.369E+01
   -.208E-01 0.463E-01 -.345E+02   0.155E-11 0.117E-11 0.117E-10   0.485E-15 0.486E-15 0.180E+03

 POSITION                                       TOTAL-FORCE (eV/Angst)
     10.40626      8.61871     13.92428        -0.158864      0.158864     -0.467162
      8.61871     10.40626     13.92428         0.158864     -0.158864     -0.467162
      0.00000      0.00000      9.00000        -0.006464     -0.006464      3.253785
      2.11389      2.11389      9.00000        -0.018025     -0.018025      3.257377
      0.00000      2.11389     11.11389        -0.050229      0.062516     -2.458599
      2.11389      0.00000     11.11389         0.062516     -0.050229     -2.458599
      0.00000      4.22777      9.00000        -0.007084     -0.058668      3.334710
      2.11389      6.34166      9.00000        -0.053124     -0.068879      2.878431
      0.00000      6.34166     11.11389         0.007343     -0.005298     -3.043110
      2.11389      4.22777     11.11389        -0.011154      0.008015     -2.317905
      0.00000      8.45554      9.00000        -0.034218     -0.042314      3.037313
      2.11389     10.56943      9.00000        -0.052333      0.037549      3.411998
      0.00000     10.56943     11.11389         0.008100     -0.029725     -2.286431
      2.11389      8.45554     11.11389        -0.032020     -0.025137     -3.386763
      0.00000     12.68331      9.00000        -0.035096      0.055780      2.950508
      2.11389     14.79720      9.00000        -0.092659     -0.004381      3.706317
      0.00000     14.79720     11.11389         0.006940      0.017663     -2.866719
      2.11389     12.68331     11.11389        -0.088292      0.036479     -2.479447
      0.00000     16.91108      9.00000        -0.043368      0.053964      3.454114
      2.11389     19.02497      9.00000        -0.053964      0.043368      3.454114
      0.00000     19.02497     11.11389         0.014181     -0.014181     -2.990059
      2.11389     16.91108     11.11389        -0.016534      0.016534     -2.379773
      4.22777      0.00000      9.00000        -0.058668     -0.007084      3.334710
      6.34166      2.11389      9.00000        -0.068879     -0.053124      2.878431
      4.22777      2.11389     11.11389         0.008015     -0.011154     -2.317905
      6.34166      0.00000     11.11389        -0.005298      0.007343     -3.043110
      4.22777      4.22777      9.00000        -0.044173     -0.044173      3.005680
      6.34166      6.34166      9.00000        -0.060567     -0.060567      2.999226
      4.22777      6.34166     11.11389         0.072060     -0.084675     -2.837836
      6.34166      4.22777     11.11389        -0.084675      0.072060     -2.837836
      4.22777      8.45554      9.00000        -0.014991     -0.061595      3.669904
      6.34166     10.56943      9.00000        -0.000593      0.028464      3.139438
      4.22777     10.56943     11.11389        -0.093148     -0.002374     -2.695626
      6.34166      8.45554     11.11389         0.126591     -0.092619     -2.147064
      4.22777     12.68331      9.00000        -0.061036      0.037311      2.327542
      6.34166     14.79720      9.00000        -0.037311      0.061036      2.327542
      4.22777     14.79720     11.11389        -0.031637      0.031637     -2.663289
      6.34166     12.68331     11.11389        -0.062891      0.062891     -2.620361
      4.22777     16.91108      9.00000         0.004381      0.092659      3.706317
      6.34166     19.02497      9.00000        -0.055780      0.035096      2.950508
      4.22777     19.02497     11.11389        -0.017663     -0.006940     -2.866719
      6.34166     16.91108     11.11389        -0.036479      0.088292     -2.479447
      8.45554      0.00000      9.00000        -0.042314     -0.034218      3.037313
     10.56943      2.11389      9.00000         0.037549     -0.052333      3.411998
      8.45554      2.11389     11.11389        -0.025137     -0.032020     -3.386763
     10.56943      0.00000     11.11389        -0.029725      0.008100     -2.286431
      8.45554      4.22777      9.00000        -0.061595     -0.014991      3.669904
     10.56943      6.34166      9.00000         0.028464     -0.000593      3.139438
      8.45554      6.34166     11.11389        -0.092619      0.126591     -2.147064
     10.56943      4.22777     11.11389        -0.002374     -0.093148     -2.695626
      8.45554      8.45554      9.00000        -0.035564     -0.035564      3.249852
     10.56943     10.56943      9.00000         0.035564      0.035564      3.249852
      8.45554     10.56943     11.11389         0.260634     -0.260634     -1.712508
     10.56943      8.45554     11.11389        -0.260634      0.260634     -1.712508
      8.45554     12.68331      9.00000        -0.028464      0.000593      3.139438
     10.56943     14.79720      9.00000         0.061595      0.014991      3.669904
      8.45554     14.79720     11.11389         0.002374      0.093148     -2.695626
     10.56943     12.68331     11.11389         0.092619     -0.126591     -2.147064
      8.45554     16.91108      9.00000        -0.037549      0.052333      3.411998
     10.56943     19.02497      9.00000         0.042314      0.034218      3.037313
[...]
     19.02497      6.34166     11.11389        -0.018514      0.024936     -0.975711
     16.91108      6.34166      9.00000        -0.035850     -0.006009      0.065669
     19.02497      4.22777      9.00000         0.106497      0.011033      0.300902
     16.91108      8.45554     11.11389         0.010375     -0.059043     -0.780969
     19.02497     10.56943     11.11389        -0.008370     -0.004493     -0.890051
     16.91108     10.56943      9.00000         0.124425     -0.044335      0.479477
     19.02497      8.45554      9.00000         0.058582     -0.063301      0.156164
     16.91108     12.68331     11.11389        -0.024556      0.078133     -0.795430
     19.02497     14.79720     11.11389         0.050605     -0.125352     -0.888986
     16.91108     14.79720      9.00000        -0.041828     -0.067966      0.281488
     19.02497     12.68331      9.00000         0.066001      0.021626      0.466251
     16.91108     16.91108     11.11389         0.009032      0.009032     -0.843106
     19.02497     19.02497     11.11389         0.116552      0.116552     -0.758403
     16.91108     19.02497      9.00000        -0.110709      0.019024      0.169568
     19.02497     16.91108      9.00000         0.019024     -0.110709      0.169568
    total drift:                               -0.020826      0.046290    145.626155

  FREE ENERGIE OF THE ION-ELECTRON SYSTEM (eV)
  free  energy   TOTEN  =     -1735.38126309 eV

  energy  without entropy=    -1735.38034272  energy(sigma->0) =    -1735.38080290