 vasp.6.3.0 20Jan22 (build Apr  1 2022 16:44:48) complex
 executed on        HPECrayEX_GCC date 2022.12.11  05:45:15

 INCAR:
   SYSTEM = MgO-rocksalt
   ISMEAR = 0
   SIGMA = 0.05
   EDIFF = 1E-6
   ALGO = ALL
   ISTART = 0
   IBRION = -1
   NSW = 0
   ISYM = 2
   DIPOL = 0.5 0.5 0.5
   IDIPOL = 3
   LDIPOL = .TRUE.
   GGA = PS
   ENCUT = 520
   PREC = Accurate
   LASPH = .TRUE.
   LREAL = Auto
   ISPIN = 1
   NELM = 200
   NELMIN = 8
   NCORE = 4
   KPAR = 2
   LWAVE = .FALSE.
   LCHARG = .FALSE.

 POTCAR:    PAW_PBE Ag 02Apr2005
 POTCAR:    PAW_PBE Mg_pv 13Apr2007
 POTCAR:    PAW_PBE O 08Apr2002
 POTCAR:    PAW_PBE Ag 02Apr2005
   VRHFIN =Ag : s1 d10

   TITEL  = PAW_PBE Ag 02Apr2005
   POMASS =  107.868; ZVAL   =   11.000    mass and valenz
   ENMAX  =  249.844; ENMIN  =  187.383 eV

   TITEL  = PAW_PBE Mg_pv 13Apr2007
   POMASS =   24.305; ZVAL   =    8.000    mass and valenz
   ENMAX  =  403.929; ENMIN  =  302.947 eV

   TITEL  = PAW_PBE O 08Apr2002
   POMASS =   16.000; ZVAL   =    6.000    mass and valenz
   ENMAX  =  400.000; ENMIN  =  300.000 eV

 Optimization of the real space projectors (new method)

 maximal supplied QI-value         = 15.12
 optimisation between [QCUT,QGAM] = [ 11.64, 23.28] = [ 37.95,151.78] Ry
 Optimized for a Real-space Cutoff    1.45 Angstroem

   l    n(q)    QCUT    max X(q) W(low)/X(q) W(high)/X(q)  e(spline)
   2      9    11.641    53.897    0.22E-03    0.42E-04    0.28E-06
   2      9    11.641    52.416    0.23E-03    0.44E-04    0.29E-06
   0     10    11.641   122.045    0.51E-04    0.25E-04    0.16E-06
   0     10    11.641    73.629    0.49E-04    0.24E-04    0.16E-06
   1     10    11.641    15.255    0.99E-04    0.55E-04    0.11E-06
   1     10    11.641     9.562    0.81E-04    0.47E-04    0.95E-07
 Optimization of the real space projectors (new method)

[...]

   l    n(q)    QCUT    max X(q) W(low)/X(q) W(high)/X(q)  e(spline)
   1      8    11.527     2.974    0.44E-04    0.56E-04    0.12E-06
   1      8    11.527     4.279    0.12E-03    0.12E-03    0.26E-06
   0      9    11.527    16.381    0.46E-04    0.64E-04    0.78E-07
   0      9    11.527     5.611    0.26E-04    0.43E-04    0.55E-07
   2      8    11.527     4.652    0.22E-03    0.72E-04    0.47E-07
 Optimization of the real space projectors (new method)

 maximal supplied QI-value         = 24.76
 optimisation between [QCUT,QGAM] = [ 11.64, 23.27] = [ 37.91,151.63] Ry
 Optimized for a Real-space Cutoff    1.14 Angstroem

   l    n(q)    QCUT    max X(q) W(low)/X(q) W(high)/X(q)  e(spline)
   0      8    11.635    20.381    0.10E-03    0.33E-03    0.24E-06
   0      8    11.635    15.268    0.11E-03    0.35E-03    0.26E-06
   1      7    11.635     5.964    0.24E-03    0.31E-03    0.30E-06
   1      7    11.635     5.382    0.22E-03    0.25E-03    0.26E-06
|               ----> ADVICE to this user running VASP <----                  |
|     You enforced a specific xc type in the INCAR file but a different       |
|     type was found in the POTCAR file.                                      |
|     I HOPE YOU KNOW WHAT YOU ARE DOING!                                     |

  PAW_PBE Ag 02Apr2005                  :
  PAW_PBE Mg_pv 13Apr2007               :
  PAW_PBE O 08Apr2002                   :

 POSCAR: Ag Mg  O
  positions in direct lattice
 exchange correlation table for  LEXCH =       14
   RHO(1)=    0.500       N(1)  =     2000
   RHO(2)=  100.500       N(2)  =     4000

 ion  position               nearest neighbor table
   1  0.450  0.450  0.726-   2 2.56
   2  0.450  0.450  0.610-   1 2.56  53 2.81  54 2.81
   3  0.000  0.000  0.407- 105 2.11 106 2.11 121 2.11 186 2.11 103 2.11
   4  0.100  0.100  0.407- 105 2.11 106 2.11 110 2.11 125 2.11 104 2.11
   5  0.000  0.100  0.503- 103 2.11 104 2.11 107 2.11 184 2.11 105 2.11
   6  0.100  0.000  0.503- 103 2.11 104 2.11 120 2.11 123 2.11 106 2.11
   7  0.000  0.200  0.407- 109 2.11 105 2.11 110 2.11 190 2.11 107 2.11
   8  0.100  0.300  0.407- 110 2.11 109 2.11 114 2.11 129 2.11 108 2.11
   9  0.000  0.300  0.503- 107 2.11 108 2.11 111 2.11 188 2.11 109 2.11
  10  0.100  0.200  0.503- 108 2.11 107 2.11 104 2.11 127 2.11 110 2.11
  11  0.000  0.400  0.407- 109 2.11 113 2.11 114 2.11 194 2.11 111 2.11
  12  0.100  0.500  0.407- 113 2.11 114 2.11 118 2.11 133 2.11 112 2.11
  13  0.000  0.500  0.503- 111 2.11 112 2.11 115 2.11 192 2.11 113 2.11
  14  0.100  0.400  0.503- 108 2.11 111 2.11 112 2.11 131 2.11 114 2.11
  15  0.000  0.600  0.407- 113 2.11 117 2.11 118 2.11 198 2.11 115 2.11
  16  0.100  0.700  0.407- 122 2.11 118 2.11 117 2.11 137 2.11 116 2.11
  17  0.000  0.700  0.503- 119 2.11 116 2.11 115 2.11 196 2.11 117 2.11
  18  0.100  0.600  0.503- 112 2.11 115 2.11 116 2.11 135 2.11 118 2.11
  19  0.000  0.800  0.407- 117 2.11 121 2.11 122 2.11 202 2.11 119 2.11
  20  0.100  0.900  0.407- 106 2.11 121 2.11 122 2.11 141 2.11 120 2.11
  21  0.000  0.900  0.503- 103 2.11 119 2.11 120 2.11 200 2.11 121 2.11
  22  0.100  0.800  0.503- 116 2.11 119 2.11 120 2.11 139 2.11 122 2.11
  23  0.200  0.000  0.407- 126 2.11 125 2.11 106 2.11 141 2.11 123 2.11
  24  0.300  0.100  0.407- 125 2.11 126 2.11 130 2.11 145 2.11 124 2.11
  25  0.200  0.100  0.503- 124 2.11 123 2.11 104 2.11 127 2.11 125 2.11
  26  0.300  0.000  0.503- 123 2.11 124 2.11 140 2.11 143 2.11 126 2.11
  27  0.200  0.200  0.407- 129 2.11 130 2.11 110 2.11 125 2.11 127 2.11
  28  0.300  0.300  0.407- 129 2.11 130 2.11 134 2.11 149 2.11 128 2.11
  29  0.200  0.300  0.503- 127 2.11 128 2.11 108 2.11 131 2.11 129 2.11
  30  0.300  0.200  0.503- 127 2.11 128 2.11 124 2.11 147 2.11 130 2.11
  31  0.200  0.400  0.407- 134 2.11 129 2.11 133 2.11 114 2.11 131 2.11
  32  0.300  0.500  0.407- 133 2.11 134 2.11 138 2.11 153 2.11 132 2.11
  33  0.200  0.500  0.503- 132 2.11 131 2.11 112 2.11 135 2.11 133 2.11
  34  0.300  0.400  0.503- 131 2.11 128 2.11 132 2.11 151 2.11 134 2.11
  35  0.200  0.600  0.407- 138 2.11 133 2.11 137 2.11 118 2.11 135 2.11
  36  0.300  0.700  0.407- 137 2.11 142 2.11 138 2.11 157 2.11 136 2.11
  37  0.200  0.700  0.503- 136 2.11 139 2.11 116 2.11 135 2.11 137 2.11
  38  0.300  0.600  0.503- 135 2.11 132 2.11 136 2.11 155 2.11 138 2.11
  39  0.200  0.800  0.407- 137 2.11 142 2.11 141 2.11 122 2.11 139 2.11
  40  0.300  0.900  0.407- 141 2.11 126 2.11 142 2.11 161 2.11 140 2.11
  41  0.200  0.900  0.503- 140 2.11 123 2.11 139 2.11 120 2.11 141 2.11
  42  0.300  0.800  0.503- 136 2.11 139 2.11 140 2.11 159 2.11 142 2.11
  43  0.400  0.000  0.407- 126 2.11 145 2.11 146 2.11 161 2.11 143 2.11
  44  0.500  0.100  0.407- 145 2.11 146 2.11 150 2.11 165 2.11 144 2.11
  45  0.400  0.100  0.503- 124 2.11 143 2.11 144 2.11 147 2.11 145 2.11
  46  0.500  0.000  0.503- 143 2.11 144 2.11 160 2.11 163 2.11 146 2.11
  47  0.400  0.200  0.407- 149 2.11 145 2.11 130 2.11 150 2.11 147 2.11
  48  0.500  0.300  0.407- 150 2.11 149 2.11 154 2.11 169 2.11 148 2.11
  49  0.400  0.300  0.503- 147 2.11 128 2.11 148 2.11 151 2.11 149 2.11
  50  0.500  0.200  0.503- 148 2.11 147 2.11 144 2.11 167 2.11 150 2.11
  51  0.400  0.400  0.407- 134 2.11 149 2.11 153 2.11 154 2.11 151 2.11
  52  0.500  0.500  0.407- 153 2.11 154 2.11 158 2.11 173 2.11 152 2.11
  53  0.400  0.500  0.503- 132 2.11 151 2.11 152 2.11 155 2.11 153 2.11   2 2.81
  54  0.500  0.400  0.503- 148 2.11 151 2.11 152 2.11 171 2.11 154 2.11   2 2.81
  55  0.400  0.600  0.407- 138 2.11 153 2.11 157 2.11 158 2.11 155 2.11
  56  0.500  0.700  0.407- 162 2.11 158 2.11 157 2.11 177 2.11 156 2.11
  57  0.400  0.700  0.503- 159 2.11 155 2.11 156 2.11 136 2.11 157 2.11
  58  0.500  0.600  0.503- 152 2.11 155 2.11 156 2.11 175 2.11 158 2.11
  59  0.400  0.800  0.407- 157 2.11 142 2.11 161 2.11 162 2.11 159 2.11
  60  0.500  0.900  0.407- 146 2.11 161 2.11 162 2.11 181 2.11 160 2.11
[...]
 188  0.900  0.300  0.503-  90 2.11  89 2.11   9 2.11  94 2.11  88 2.11
 189  0.800  0.300  0.407-  68 2.11  87 2.11  88 2.11  91 2.11  89 2.11
 190  0.900  0.200  0.407-  88 2.11  84 2.11  87 2.11   7 2.11  90 2.11
 191  0.800  0.400  0.503-  74 2.11  89 2.11  93 2.11  94 2.11  91 2.11
 192  0.900  0.500  0.503-  13 2.11  93 2.11  94 2.11  98 2.11  92 2.11
 193  0.800  0.500  0.407-  72 2.11  91 2.11  92 2.11  95 2.11  93 2.11
 194  0.900  0.400  0.407-  11 2.11  88 2.11  91 2.11  92 2.11  94 2.11
 195  0.800  0.600  0.503-  78 2.11  93 2.11  97 2.11  98 2.11  95 2.11
 196  0.900  0.700  0.503- 102 2.11  97 2.11  98 2.11  17 2.11  96 2.11
 197  0.800  0.700  0.407-  76 2.11  99 2.11  96 2.11  95 2.11  97 2.11
 198  0.900  0.600  0.407-  15 2.11  92 2.11  95 2.11  96 2.11  98 2.11
 199  0.800  0.800  0.503-  82 2.11  97 2.11 101 2.11 102 2.11  99 2.11
 200  0.900  0.900  0.503-  21 2.11  86 2.11 101 2.11 102 2.11 100 2.11
 201  0.800  0.900  0.407-  80 2.11  83 2.11  99 2.11 100 2.11 101 2.11
 202  0.900  0.800  0.407-  96 2.11  19 2.11  99 2.11 100 2.11 102 2.11

  LATTYP: Found a simple tetragonal cell.
 ALAT       =    21.1388521970
 C/A-ratio  =     1.0461251639

  Lattice vectors:

 A1 = (  21.1388521970,   0.0000000000,   0.0000000000)
 A2 = (   0.0000000000,  21.1388521970,   0.0000000000)
 A3 = (   0.0000000000,   0.0000000000,  22.1138852197)

Analysis of symmetry for initial positions (statically):
 Subroutine PRICEL returns:
 Original cell was already a primitive cell.

 Routine SETGRP: Setting up the symmetry group for a
 simple tetragonal supercell.

 Subroutine GETGRP returns: Found  4 space group operations
 (whereof  2 operations were pure point group operations)
 out of a pool of 16 trial point group operations.

The static configuration has the point symmetry C_1h.
 The point group associated with its full space group is C_2v.

Analysis of symmetry for dynamics (positions and initial velocities):
 Subroutine PRICEL returns:
 Original cell was already a primitive cell.

 Routine SETGRP: Setting up the symmetry group for a
 simple tetragonal supercell.

 Subroutine GETGRP returns: Found  4 space group operations
 (whereof  2 operations were pure point group operations)
 out of a pool of 16 trial point group operations.

The dynamic configuration has the point symmetry C_1h.
 The point group associated with its full space group is C_2v.

 Subroutine INISYM returns: Found  4 space group operations
 (whereof  2 operations are pure point group operations),
 and found     1 'primitive' translations

                                     Primitive cell

  volume of cell :    9881.6133

  direct lattice vectors                    reciprocal lattice vectors
    21.138852197  0.000000000  0.000000000     0.047306258  0.000000000  0.000000000
     0.000000000 21.138852197  0.000000000     0.000000000  0.047306258  0.000000000
     0.000000000  0.000000000 22.113885220     0.000000000  0.000000000  0.045220457

  length of vectors
    21.138852197 21.138852197 22.113885220     0.047306258  0.047306258  0.045220457

  position of ions in fractional coordinates (direct lattice)
     0.449999988  0.450000018  0.725800575
     0.449999988  0.450000018  0.610040178
     0.000000000  0.000000000  0.406984115
     0.100000000  0.100000000  0.406984115
     0.000000000  0.100000000  0.502574971
     0.100000000  0.000000000  0.502574971
[...]
     52     -42.8304      2.00000
     53     -42.8301      2.00000
     54     -42.8296      2.00000
     55     -42.8295      2.00000
     56     -42.8289      2.00000
     57     -42.8284      2.00000
     58     -42.8279      2.00000
     59     -42.8273      2.00000
     60     -42.8271      2.00000
[...]
    882       5.1474      0.00000
    883       5.2000      0.00000
    884       5.2908      0.00000
    885       5.3143      0.00000
    886       5.3826      0.00000
    887       5.4620      0.00000
    888       5.4807      0.00000
    889       5.5472      0.00000
    890       5.5691      0.00000
    891       5.5867      0.00000
    892       5.5967      0.00000
    893       5.6039      0.00000
    894       5.6054      0.00000
    895       5.6166      0.00000
    896       5.6182      0.00000

 soft charge-density along one line, spin component           1
         0         1         2         3         4         5         6         7         8         9
 total charge-density along one line

------------------------ aborting loop because EDIFF is reached ----------------------------------------

  FORCE on cell =-STRESS in cart. coord.  units (eV):
  Direction    XX          YY          ZZ          XY          YZ          ZX
  Alpha Z  1357.53553  1357.53553  1357.53553
  Ewald  475865.30748475865.30748************    -8.48416    -0.00001     0.00001
  Hartree504532.16570504532.16567************    -2.04122    -0.00000     0.00001
  E(xc)   -7611.22764 -7611.22763 -7628.82675     0.00067     0.00000    -0.00000
  Local  ************************************     9.15449     0.00001    -0.00001
  n-local -8818.51819 -8818.51818 -8941.63399    -0.49983     0.00000     0.00001
  augment  3401.34787  3401.34786  3338.69021     0.71040     0.00000     0.00000
  Kinetic 22905.58757 22905.58758 23168.31138     0.36761    -0.00001    -0.00002
  Fock        0.00000     0.00000     0.00000     0.00000     0.00000     0.00000
  Total    -197.68289  -197.68289    -9.21274    -0.79204    -0.00000     0.00000
  in kB     -32.05175   -32.05175    -1.49373    -0.12842    -0.00000     0.00000

 VOLUME and BASIS-vectors are now :
  energy-cutoff  :      520.00
  volume of cell :     9881.61
      direct lattice vectors                 reciprocal lattice vectors
    21.138852197  0.000000000  0.000000000     0.047306258  0.000000000  0.000000000
     0.000000000 21.138852197  0.000000000     0.000000000  0.047306258  0.000000000
     0.000000000  0.000000000 22.113885220     0.000000000  0.000000000  0.045220457

  length of vectors
    21.138852197 21.138852197 22.113885220     0.047306258  0.047306258  0.045220457

 FORCES acting on ions:
    Electron-Ion                     Ewald-Force                    Non-Local-Force
   0.312E-04 -.137E-03 -.170E+04   0.119E-07 -.862E-08 0.169E+04   0.000E+00 -.529E-22 0.786E+01
   0.275E-04 -.133E-03 -.187E+04   0.417E-05 -.431E-05 0.188E+04   0.000E+00 0.000E+00 -.600E+01
   0.167E+01 0.167E+01 0.931E+03   -.168E+01 -.168E+01 -.923E+03   0.364E-02 0.364E-02 -.769E+01
   0.586E+01 0.586E+01 0.933E+03   -.588E+01 -.588E+01 -.925E+03   0.151E-01 0.151E-01 -.769E+01
   0.274E+01 0.562E+01 -.922E+03   -.275E+01 -.563E+01 0.914E+03   0.746E-02 0.453E-02 0.766E+01
   0.562E+01 0.274E+01 -.922E+03   -.563E+01 -.275E+01 0.914E+03   0.453E-02 0.746E-02 0.766E+01
   0.297E+01 0.586E+01 0.933E+03   -.299E+01 -.587E+01 -.925E+03   0.143E-01 0.767E-02 -.769E+01
   0.118E+02 0.706E+01 0.938E+03   -.119E+02 -.708E+01 -.930E+03   0.552E-01 0.100E-01 -.770E+01
   0.569E+01 0.644E+01 -.919E+03   -.570E+01 -.644E+01 0.911E+03   0.138E-01 0.224E-02 0.765E+01
   0.119E+02 0.107E+02 -.919E+03   -.120E+02 -.108E+02 0.911E+03   0.272E-01 0.857E-02 0.765E+01
   0.474E+01 0.198E+01 0.936E+03   -.476E+01 -.198E+01 -.928E+03   0.185E-01 0.447E-03 -.770E+01
   0.144E+02 -.287E+01 0.940E+03   -.144E+02 0.289E+01 -.932E+03   0.553E-01 -.120E-01 -.771E+01
   0.692E+01 -.257E+01 -.918E+03   -.693E+01 0.257E+01 0.910E+03   0.441E-02 -.313E-02 0.765E+01
   0.224E+02 0.420E+01 -.913E+03   -.225E+02 -.420E+01 0.905E+03   0.376E-01 -.539E-02 0.764E+01
   0.401E+01 -.499E+01 0.935E+03   -.402E+01 0.500E+01 -.926E+03   0.525E-02 -.693E-02 -.770E+01
   0.851E+01 -.792E+01 0.935E+03   -.853E+01 0.794E+01 -.927E+03   0.144E-01 -.135E-01 -.770E+01
   0.406E+01 -.742E+01 -.921E+03   -.406E+01 0.743E+01 0.913E+03   -.261E-02 -.379E-02 0.766E+01
   0.178E+02 -.998E+01 -.916E+03   -.178E+02 0.999E+01 0.908E+03   0.105E-01 -.840E-02 0.765E+01
   0.214E+01 -.452E+01 0.932E+03   -.213E+01 0.452E+01 -.924E+03   -.408E-03 -.483E-02 -.769E+01
   0.451E+01 -.214E+01 0.932E+03   -.452E+01 0.213E+01 -.924E+03   0.483E-02 0.408E-03 -.769E+01
   0.207E+01 -.207E+01 -.923E+03   -.207E+01 0.207E+01 0.915E+03   -.140E-03 0.140E-03 0.766E+01
   0.770E+01 -.770E+01 -.921E+03   -.770E+01 0.770E+01 0.913E+03   0.226E-02 -.226E-02 0.766E+01
   0.586E+01 0.297E+01 0.933E+03   -.587E+01 -.299E+01 -.925E+03   0.767E-02 0.143E-01 -.769E+01
   0.706E+01 0.118E+02 0.938E+03   -.708E+01 -.119E+02 -.930E+03   0.100E-01 0.552E-01 -.770E+01
   0.107E+02 0.119E+02 -.919E+03   -.108E+02 -.120E+02 0.911E+03   0.857E-02 0.272E-01 0.765E+01
   0.644E+01 0.569E+01 -.919E+03   -.644E+01 -.570E+01 0.911E+03   0.224E-02 0.138E-01 0.765E+01
   0.122E+02 0.122E+02 0.940E+03   -.123E+02 -.123E+02 -.931E+03   0.455E-01 0.455E-01 -.770E+01
   0.200E+02 0.200E+02 0.959E+03   -.201E+02 -.201E+02 -.950E+03   0.134E+00 0.134E+00 -.770E+01
   0.310E+02 0.196E+02 -.906E+03   -.311E+02 -.196E+02 0.898E+03   0.114E+00 0.363E-02 0.764E+01
   0.196E+02 0.310E+02 -.906E+03   -.196E+02 -.311E+02 0.898E+03   0.363E-02 0.114E+00 0.764E+01
   0.236E+02 0.518E+01 0.951E+03   -.239E+02 -.518E+01 -.943E+03   0.197E+00 -.420E-03 -.775E+01
   0.284E+02 -.954E+01 0.972E+03   -.287E+02 0.970E+01 -.964E+03   0.202E+00 -.120E+00 -.776E+01
   0.436E+02 -.919E+01 -.898E+03   -.437E+02 0.922E+01 0.891E+03   0.788E-01 -.223E-01 0.762E+01
   0.729E+02 0.249E+02 -.857E+03   -.739E+02 -.248E+02 0.849E+03   0.799E+00 -.606E-01 0.756E+01
   0.185E+02 -.119E+02 0.946E+03   -.185E+02 0.119E+02 -.938E+03   0.633E-01 -.451E-01 -.772E+01
   0.119E+02 -.185E+02 0.946E+03   -.119E+02 0.185E+02 -.938E+03   0.451E-01 -.633E-01 -.772E+01
   0.184E+02 -.184E+02 -.914E+03   -.184E+02 0.184E+02 0.906E+03   0.117E-01 -.117E-01 0.764E+01
   0.411E+02 -.411E+02 -.885E+03   -.412E+02 0.412E+02 0.878E+03   0.690E-01 -.690E-01 0.759E+01
   0.792E+01 -.851E+01 0.935E+03   -.794E+01 0.853E+01 -.927E+03   0.135E-01 -.144E-01 -.770E+01
   0.499E+01 -.402E+01 0.935E+03   -.500E+01 0.402E+01 -.926E+03   0.693E-02 -.525E-02 -.770E+01
   0.742E+01 -.406E+01 -.921E+03   -.743E+01 0.406E+01 0.913E+03   0.379E-02 0.261E-02 0.766E+01
   0.998E+01 -.178E+02 -.916E+03   -.999E+01 0.178E+02 0.908E+03   0.840E-02 -.105E-01 0.765E+01
   0.198E+01 0.474E+01 0.936E+03   -.198E+01 -.476E+01 -.928E+03   0.447E-03 0.185E-01 -.770E+01
   -.287E+01 0.144E+02 0.940E+03   0.289E+01 -.144E+02 -.932E+03   -.120E-01 0.553E-01 -.771E+01
   0.420E+01 0.224E+02 -.913E+03   -.420E+01 -.225E+02 0.905E+03   -.539E-02 0.376E-01 0.764E+01
   -.257E+01 0.692E+01 -.918E+03   0.257E+01 -.693E+01 0.910E+03   -.313E-02 0.441E-02 0.765E+01
   0.518E+01 0.236E+02 0.951E+03   -.518E+01 -.239E+02 -.943E+03   -.420E-03 0.197E+00 -.775E+01
   -.954E+01 0.284E+02 0.972E+03   0.970E+01 -.287E+02 -.964E+03   -.120E+00 0.202E+00 -.776E+01
   0.249E+02 0.729E+02 -.857E+03   -.248E+02 -.739E+02 0.849E+03   -.606E-01 0.799E+00 0.756E+01
   -.919E+01 0.436E+02 -.898E+03   0.922E+01 -.437E+02 0.891E+03   -.223E-01 0.788E-01 0.762E+01
   0.154E+02 0.154E+02 0.996E+03   -.154E+02 -.154E+02 -.989E+03   0.153E-01 0.153E-01 -.684E+01
   -.154E+02 -.154E+02 0.996E+03   0.154E+02 0.154E+02 -.989E+03   -.153E-01 -.153E-01 -.684E+01
   0.682E+02 -.682E+02 -.748E+03   -.692E+02 0.692E+02 0.741E+03   0.641E+00 -.641E+00 0.652E+01
   -.682E+02 0.682E+02 -.748E+03   0.692E+02 -.692E+02 0.741E+03   -.641E+00 0.641E+00 0.652E+01
   0.954E+01 -.284E+02 0.972E+03   -.970E+01 0.287E+02 -.964E+03   0.120E+00 -.202E+00 -.776E+01
   -.518E+01 -.236E+02 0.951E+03   0.518E+01 0.239E+02 -.943E+03   0.420E-03 -.197E+00 -.775E+01
   0.919E+01 -.436E+02 -.898E+03   -.922E+01 0.437E+02 0.891E+03   0.223E-01 -.788E-01 0.762E+01
   -.249E+02 -.729E+02 -.857E+03   0.248E+02 0.739E+02 0.849E+03   0.606E-01 -.799E+00 0.756E+01
   0.287E+01 -.144E+02 0.940E+03   -.289E+01 0.144E+02 -.932E+03   0.120E-01 -.553E-01 -.771E+01
   -.198E+01 -.474E+01 0.936E+03   0.198E+01 0.476E+01 -.928E+03   -.447E-03 -.185E-01 -.770E+01
[...]
   -.890E+01 0.529E+01 0.705E+03   0.892E+01 -.531E+01 -.709E+03   -.270E-01 0.217E-01 0.354E+01
   -.224E+01 0.440E+01 0.701E+03   0.224E+01 -.440E+01 -.705E+03   -.122E-02 0.908E-02 0.355E+01
   -.168E+02 0.314E+01 -.686E+03   0.169E+02 -.315E+01 0.690E+03   -.266E-01 0.141E-01 -.364E+01
   -.519E+01 -.193E+01 -.690E+03   0.519E+01 0.193E+01 0.694E+03   -.106E-01 0.804E-03 -.362E+01
   -.108E+02 -.217E+01 0.706E+03   0.108E+02 0.217E+01 -.710E+03   -.500E-01 0.125E-02 0.354E+01
   -.356E+01 0.148E+01 0.703E+03   0.357E+01 -.148E+01 -.707E+03   -.962E-02 0.572E-02 0.355E+01
   -.133E+02 -.748E+01 -.688E+03   0.133E+02 0.749E+01 0.692E+03   -.352E-01 -.675E-02 -.363E+01
   -.304E+01 -.556E+01 -.692E+03   0.304E+01 0.557E+01 0.696E+03   -.111E-01 -.678E-02 -.361E+01
   -.637E+01 -.594E+01 0.703E+03   0.639E+01 0.595E+01 -.707E+03   -.321E-01 -.223E-01 0.355E+01
   -.301E+01 -.375E+01 0.702E+03   0.302E+01 0.375E+01 -.706E+03   -.154E-01 -.730E-02 0.355E+01
   -.576E+01 -.576E+01 -.692E+03   0.578E+01 0.578E+01 0.696E+03   -.155E-01 -.155E-01 -.361E+01
   -.155E+01 -.155E+01 -.694E+03   0.155E+01 0.155E+01 0.698E+03   -.362E-02 -.362E-02 -.361E+01
   -.338E+01 -.159E+01 0.700E+03   0.339E+01 0.160E+01 -.704E+03   -.876E-02 -.848E-02 0.356E+01
   -.160E+01 -.338E+01 0.700E+03   0.160E+01 0.339E+01 -.704E+03   -.848E-02 -.876E-02 0.356E+01
   -.300E-01 0.149E-01 0.412E+01   0.122E-11 0.185E-11 0.239E-10   0.552E-15 0.520E-16 -.456E+01

 POSITION                                       TOTAL-FORCE (eV/Angst)
      9.51248      9.51248     16.05027        -0.000000      0.000000     -0.220974
      9.51248      9.51248     13.49036        -0.000000      0.000000      0.071646
      0.00000      0.00000      9.00000        -0.001007     -0.001007      0.443654
      2.11389      2.11389      9.00000        -0.004188     -0.004188      0.444054
      0.00000      2.11389     11.11389        -0.001965     -0.001238     -0.432558
      2.11389      0.00000     11.11389        -0.001238     -0.001965     -0.432558
      0.00000      4.22777      9.00000        -0.003793     -0.002157      0.444436
      2.11389      6.34166      9.00000        -0.014520     -0.002919      0.446584
      0.00000      6.34166     11.11389        -0.003436     -0.000597     -0.430415
      2.11389      4.22777     11.11389        -0.006907     -0.002391     -0.429560
      0.00000      8.45554      9.00000        -0.004840     -0.000110      0.445503
      2.11389     10.56943      9.00000        -0.014530      0.003530      0.448116
      0.00000     10.56943     11.11389        -0.000888      0.000880     -0.429588
      2.11389      8.45554     11.11389        -0.008302      0.001664     -0.424456
      0.00000     12.68331      9.00000        -0.001409      0.001941      0.445113
      2.11389     14.79720      9.00000        -0.003845      0.003644      0.445484
      0.00000     14.79720     11.11389         0.000765      0.000996     -0.431541
      2.11389     12.68331     11.11389        -0.002007      0.002195     -0.426511
      0.00000     16.91108      9.00000         0.000100      0.001334      0.443998
      2.11389     19.02497      9.00000        -0.001334     -0.000100      0.443998
      0.00000     19.02497     11.11389         0.000041     -0.000041     -0.433117
      2.11389     16.91108     11.11389        -0.000510      0.000510     -0.431572
      4.22777      0.00000      9.00000        -0.002157     -0.003793      0.444436
      6.34166      2.11389      9.00000        -0.002919     -0.014520      0.446584
      4.22777      2.11389     11.11389        -0.002391     -0.006907     -0.429560
      6.34166      0.00000     11.11389        -0.000597     -0.003436     -0.430415
      4.22777      4.22777      9.00000        -0.012922     -0.012922      0.444837
      6.34166      6.34166      9.00000        -0.044302     -0.044302      0.437928
      4.22777      6.34166     11.11389        -0.027478     -0.000963     -0.416499
      6.34166      4.22777     11.11389        -0.000963     -0.027478     -0.416499
      4.22777      8.45554      9.00000        -0.049216      0.000208      0.457048
      6.34166     10.56943      9.00000        -0.056825      0.039298      0.450891
      4.22777     10.56943     11.11389        -0.018305      0.006344     -0.403736
      6.34166      8.45554     11.11389        -0.226007      0.027896     -0.338329
      4.22777     12.68331      9.00000        -0.017236      0.012632      0.450710
      6.34166     14.79720      9.00000        -0.012632      0.017236      0.450710
      4.22777     14.79720     11.11389        -0.002335      0.002335     -0.424360
      6.34166     12.68331     11.11389        -0.009094      0.009094     -0.378395
      4.22777     16.91108      9.00000        -0.003644      0.003845      0.445484
      6.34166     19.02497      9.00000        -0.001941      0.001409      0.445113
      4.22777     19.02497     11.11389        -0.000996     -0.000765     -0.431541
      6.34166     16.91108     11.11389        -0.002195      0.002007     -0.426511
      8.45554      0.00000      9.00000        -0.000110     -0.004840      0.445503
     10.56943      2.11389      9.00000         0.003530     -0.014530      0.448116
      8.45554      2.11389     11.11389         0.001664     -0.008302     -0.424456
     10.56943      0.00000     11.11389         0.000880     -0.000888     -0.429588
      8.45554      4.22777      9.00000         0.000208     -0.049216      0.457048
     10.56943      6.34166      9.00000         0.039298     -0.056825      0.450891
      8.45554      6.34166     11.11389         0.027896     -0.226007     -0.338329
     10.56943      4.22777     11.11389         0.006344     -0.018305     -0.403736
      8.45554      8.45554      9.00000        -0.002269     -0.002269      0.225530
     10.56943     10.56943      9.00000         0.002269      0.002269      0.225530
      8.45554     10.56943     11.11389        -0.402705      0.402705     -0.606175
     10.56943      8.45554     11.11389         0.402705     -0.402705     -0.606175
      8.45554     12.68331      9.00000        -0.039298      0.056825      0.450891
     10.56943     14.79720      9.00000        -0.000208      0.049216      0.457048
      8.45554     14.79720     11.11389        -0.006344      0.018305     -0.403736
     10.56943     12.68331     11.11389        -0.027896      0.226007     -0.338329
      8.45554     16.91108      9.00000        -0.003530      0.014530      0.448116
     10.56943     19.02497      9.00000         0.000110      0.004840      0.445503
[...]
     19.02497      6.34166     11.11389        -0.000371      0.001596      0.397523
     16.91108      6.34166      9.00000        -0.007402      0.005983     -0.415133
     19.02497      4.22777      9.00000        -0.000319      0.002486     -0.412549
     16.91108      8.45554     11.11389        -0.007376      0.003907      0.390600
     19.02497     10.56943     11.11389        -0.002931      0.000225      0.396513
     16.91108     10.56943      9.00000        -0.013818      0.000314     -0.415889
     19.02497      8.45554      9.00000        -0.002654      0.001584     -0.413637
     16.91108     12.68331     11.11389        -0.009697     -0.001875      0.393576
     19.02497     14.79720     11.11389        -0.003032     -0.001855      0.398913
     16.91108     14.79720      9.00000        -0.008777     -0.006102     -0.412934
     19.02497     12.68331      9.00000        -0.004239     -0.002019     -0.413053
     16.91108     16.91108     11.11389        -0.004214     -0.004214      0.399104
     19.02497     19.02497     11.11389        -0.000984     -0.000984      0.400665
     16.91108     19.02497      9.00000        -0.002388     -0.002314     -0.411943
     19.02497     16.91108      9.00000        -0.002314     -0.002388     -0.411943
    total drift:                               -0.030008      0.014923     -0.442656

  FREE ENERGIE OF THE ION-ELECTRON SYSTEM (eV)
  free  energy   TOTEN  =     -1190.86016366 eV

  energy  without entropy=    -1190.86016366  energy(sigma->0) =    -1190.86016366