 vasp.6.4.0 14Feb23 (build Jul 14 2023 13:46:40) complex

 executed on             LinuxIFC date 2023.08.22  18:22:19

 INCAR:
   SYSTEM = MgO-rocksalt
   ISMEAR = 0
   SIGMA = 0.05
   EDIFF = 1E-4
   ALGO = ALL
   ISTART = 0
   IBRION = -1
   NSW = 0
   ISYM = 3
   DIPOL = 0.5 0.5 0.5
   IDIPOL = 3
   LDIPOL = .TRUE.
   LHFCALC = .TRUE.
   GGA = PE
   IVDW = 21
   VDW_SR = 0.96
   ENCUT = 520
   PREC = Normal
   LASPH = .TRUE.
   LREAL = Auto
   ISPIN = 1
   NELM = 200
   NELMIN = 8
   NCORE = 16
   KPAR = 1
   LWAVE = .FALSE.
   LCHARG = .FALSE.

 POTCAR:    PAW_PBE Au 04Oct2007
 POTCAR:    PAW_PBE Mg_pv 13Apr2007
 POTCAR:    PAW_PBE O 08Apr2002
 POTCAR:    PAW_PBE Au 04Oct2007
   VRHFIN =Au: s1d10

   TITEL  = PAW_PBE Au 04Oct2007
   POMASS =  196.966; ZVAL   =   11.000    mass and valenz
   ENMAX  =  229.943; ENMIN  =  172.457 eV

   TITEL  = PAW_PBE Mg_pv 13Apr2007
   POMASS =   24.305; ZVAL   =    8.000    mass and valenz
   ENMAX  =  403.929; ENMIN  =  302.947 eV

   TITEL  = PAW_PBE O 08Apr2002
   POMASS =   16.000; ZVAL   =    6.000    mass and valenz
   ENMAX  =  400.000; ENMIN  =  300.000 eV

 Optimization of the real space projectors (new method)

 maximal supplied QI-value         = 15.12
 optimisation between [QCUT,QGAM] = [ 11.64, 23.28] = [ 37.95,151.78] Ry
 Optimized for a Real-space Cutoff    1.36 Angstroem

   l    n(q)    QCUT    max X(q) W(low)/X(q) W(high)/X(q)  e(spline)
   2      9    11.641    60.898    0.44E-03    0.10E-02    0.32E-06
   2      9    11.641    58.894    0.45E-03    0.11E-02    0.32E-06
   0      9    11.641   109.617    0.19E-03    0.78E-04    0.11E-06
   0      9    11.641    75.026    0.19E-03    0.76E-04    0.10E-06
   1      9    11.641    16.344    0.43E-03    0.28E-03    0.32E-06
   1      9    11.641    10.160    0.36E-03    0.22E-03    0.26E-06
 Optimization of the real space projectors (new method)

[...]

   l    n(q)    QCUT    max X(q) W(low)/X(q) W(high)/X(q)  e(spline)
   1      8    11.527     2.974    0.16E-03    0.13E-03    0.98E-07
   1      8    11.527     4.279    0.42E-03    0.30E-03    0.22E-06
   0      8    11.527    16.381    0.13E-03    0.20E-03    0.72E-07
   0      8    11.527     5.611    0.88E-04    0.13E-03    0.50E-07
   2      7    11.527     4.652    0.25E-03    0.73E-04    0.51E-07
 Optimization of the real space projectors (new method)

 maximal supplied QI-value         = 24.76
 optimisation between [QCUT,QGAM] = [ 11.64, 23.27] = [ 37.91,151.63] Ry
 Optimized for a Real-space Cutoff    1.04 Angstroem

   l    n(q)    QCUT    max X(q) W(low)/X(q) W(high)/X(q)  e(spline)
   0      7    11.635    20.381    0.14E-03    0.49E-03    0.18E-06
   0      7    11.635    15.268    0.16E-03    0.52E-03    0.19E-06
   1      7    11.635     5.964    0.30E-03    0.44E-03    0.22E-06
   1      7    11.635     5.382    0.27E-03    0.34E-03    0.19E-06
  PAW_PBE Au 04Oct2007                  :
  PAW_PBE Mg_pv 13Apr2007               :
  PAW_PBE O 08Apr2002                   :

 POSCAR: Mg  O
  positions in direct lattice
  velocities in cartesian coordinates
 exchange correlation table for  LEXCH =        8
   RHO(1)=    0.500       N(1)  =     2000
   RHO(2)=  100.500       N(2)  =     4000

 ion  position               nearest neighbor table
   1  0.432  0.228  0.581- 265 2.49   2 2.72   5 2.73  11 2.73  68 2.93  67 3.00
   2  0.560  0.237  0.588-   3 2.63   1 2.72  12 2.77  11 2.82   6 2.86   5 2.94  68 3.07
   3  0.683  0.251  0.592-   2 2.63   4 2.65  12 2.77   6 2.81  13 2.86   7 2.91  88 3.01
   4  0.808  0.260  0.595-   3 2.65   7 2.70  13 2.75 107 3.00
   5  0.477  0.349  0.586-   8 2.68   1 2.73  14 2.74  11 2.80   6 2.85  72 2.89   2 2.94
   6  0.611  0.363  0.589-   3 2.81   9 2.82   5 2.85   8 2.85   2 2.86   7 2.92  15 2.94  14 2.97
                            12 3.02  87 3.06
   7  0.748  0.373  0.591-   9 2.65   4 2.70  15 2.79  13 2.85   3 2.91   6 2.92  92 3.00
   8  0.524  0.466  0.584-   5 2.68 270 2.70  14 2.75  10 2.75  16 2.83   6 2.85  72 2.98   9 3.28

   9  0.679  0.477  0.585-   7 2.65 290 2.66  10 2.72  15 2.76   6 2.82  16 2.88   8 3.28
  10  0.595  0.574  0.578- 293 2.36  16 2.67   9 2.72   8 2.75  91 2.88
  11  0.480  0.269  0.660-  17 2.68   1 2.73   5 2.80   2 2.82  12 2.82  14 2.92
  12  0.613  0.274  0.669-  17 2.74  18 2.75   2 2.77   3 2.77  11 2.82  13 2.83   6 3.02  14 3.27
                            15 3.30
  13  0.745  0.298  0.670-  18 2.65   4 2.75  15 2.81  12 2.83   7 2.85   3 2.86
  14  0.524  0.400  0.663-   5 2.74  19 2.74  17 2.75   8 2.75  16 2.86  11 2.92   6 2.97  12 3.27
                            15 3.34
  15  0.681  0.414  0.666-   9 2.76  19 2.76  18 2.77   7 2.79  16 2.80  13 2.81   6 2.94  12 3.30
                            14 3.34
  16  0.595  0.515  0.656-  10 2.67  19 2.68  15 2.80   8 2.83  14 2.86   9 2.88
  17  0.533  0.318  0.733-  11 2.68  20 2.68  12 2.74  14 2.75  18 2.98  19 3.02
  18  0.673  0.334  0.738-  13 2.65  20 2.66  12 2.75  15 2.77  19 2.91  17 2.98
  19  0.595  0.447  0.731-  16 2.68  20 2.71  14 2.74  15 2.76  18 2.91  17 3.02
  20  0.595  0.369  0.803-  18 2.66  17 2.68  19 2.71
  21  1.000  1.000  0.429- 321 2.09 221 2.11 304 2.11 223 2.11 239 2.11 224 2.12
  22  0.100  0.100  0.429- 322 2.09 222 2.11 223 2.11 224 2.11 228 2.11 243 2.12
  23  1.000  0.100  0.498- 223 2.07 302 2.11 225 2.11 221 2.12 222 2.12
  24  0.100  1.000  0.498- 224 2.07 221 2.11 222 2.11 238 2.11 241 2.12
  25  1.000  0.200  0.429- 325 2.09 225 2.11 223 2.11 308 2.11 227 2.11 228 2.12
  26  0.100  0.300  0.429- 326 2.09 226 2.11 232 2.11 228 2.11 227 2.11 247 2.12
  27  0.000  0.300  0.498- 227 2.07 306 2.11 225 2.12 229 2.12 226 2.12
  28  0.100  0.200  0.498- 228 2.07 225 2.11 226 2.11 222 2.11 245 2.12
  29  1.000  0.400  0.429- 329 2.09 229 2.11 227 2.11 231 2.11 232 2.11 312 2.12
  30  0.100  0.500  0.429- 330 2.09 230 2.11 236 2.11 232 2.11 231 2.12 251 2.12
  31  0.000  0.500  0.498- 231 2.07 229 2.11 310 2.11 230 2.12 233 2.12
  32  0.100  0.400  0.498- 232 2.07 229 2.11 226 2.11 230 2.11 249 2.12
  33  0.000  0.600  0.429- 333 2.09 233 2.11 231 2.11 235 2.11 236 2.11 316 2.12
  34  0.100  0.700  0.429- 334 2.09 234 2.11 240 2.11 236 2.11 235 2.11 255 2.12
  35  0.000  0.700  0.498- 235 2.07 233 2.11 237 2.11 234 2.11 314 2.12
  36  0.100  0.600  0.498- 236 2.07 230 2.11 233 2.11 234 2.11 253 2.12
  37  0.000  0.800  0.429- 337 2.09 237 2.11 239 2.11 235 2.11 240 2.11 320 2.12
  38  0.100  0.900  0.429- 338 2.09 238 2.11 239 2.11 240 2.11 224 2.11 259 2.12
  39  0.000  0.900  0.498- 239 2.07 221 2.11 318 2.11 237 2.11 238 2.12
  40  0.100  0.800  0.498- 240 2.07 234 2.11 238 2.11 237 2.11 257 2.12
  41  0.200  1.000  0.429- 341 2.09 241 2.11 224 2.11 259 2.11 243 2.12 244 2.12
  42  0.300  0.100  0.429- 342 2.09 243 2.11 263 2.11 244 2.11 248 2.11 242 2.12
  43  0.200  0.100  0.498- 243 2.07 222 2.11 241 2.11 245 2.12 242 2.12
  44  0.300  1.000  0.498- 244 2.07 241 2.11 258 2.11 261 2.11 242 2.12
  45  0.200  0.200  0.429- 345 2.09 245 2.11 228 2.11 247 2.11 243 2.11 248 2.13
  46  0.300  0.300  0.429- 346 2.09 267 2.11 247 2.11 246 2.11 252 2.11 248 2.11
  47  0.200  0.300  0.498- 247 2.07 226 2.11 249 2.11 245 2.12 246 2.12
  48  0.299  0.200  0.499- 248 2.09 245 2.09 242 2.11 246 2.11 265 2.13
  49  0.200  0.400  0.429- 349 2.09 249 2.10 232 2.11 251 2.11 252 2.12 247 2.12
  50  0.300  0.500  0.429- 350 2.09 250 2.10 251 2.11 256 2.11 252 2.11 271 2.12
  51  0.200  0.500  0.498- 251 2.07 230 2.11 249 2.11 250 2.11 253 2.11
  52  0.300  0.400  0.498- 252 2.08 269 2.11 249 2.11 250 2.11 246 2.11
  53  0.200  0.600  0.429- 353 2.09 253 2.11 236 2.11 255 2.11 251 2.11 256 2.12
  54  0.300  0.700  0.429- 354 2.09 254 2.11 255 2.11 260 2.11 256 2.11 275 2.12
  55  0.200  0.700  0.498- 255 2.07 234 2.11 253 2.11 257 2.11 254 2.12
  56  0.300  0.600  0.498- 256 2.07 253 2.11 273 2.11 250 2.11 254 2.11
  57  0.200  0.800  0.429- 357 2.09 257 2.11 240 2.11 255 2.11 259 2.11 260 2.12
  58  0.300  0.900  0.429- 358 2.09 258 2.11 259 2.11 260 2.11 279 2.11 244 2.12
  59  0.200  0.900  0.498- 259 2.07 238 2.11 257 2.11 241 2.12 258 2.12
  60  0.300  0.800  0.498- 260 2.07 257 2.11 258 2.11 254 2.11 277 2.12
  61  0.400  1.000  0.429- 361 2.09 264 2.11 261 2.11 244 2.11 279 2.11 263 2.13
  62  0.500  0.100  0.429- 362 2.09 262 2.10 268 2.11 283 2.11 264 2.11 263 2.12
  63  0.400  0.099  0.499- 263 2.09 261 2.09 262 2.11 242 2.11 265 2.14
  64  0.500  1.000  0.498- 264 2.07 262 2.11 281 2.11 278 2.12 261 2.12
  65  0.400  0.200  0.429- 365 2.08 268 2.09 248 2.10 263 2.10 267 2.10 265 2.25
  66  0.500  0.300  0.429- 266 2.05 366 2.08 287 2.11 268 2.12 267 2.12 272 2.13
  67  0.400  0.303  0.499- 269 2.08 267 2.10 246 2.11 266 2.12 265 2.17   1 3.00
  68  0.501  0.200  0.499- 285 2.08 268 2.09 262 2.11 266 2.13 265 2.15   1 2.93   2 3.07
  69  0.400  0.400  0.429- 369 2.09 269 2.09 252 2.11 272 2.11 271 2.12 267 2.12
  70  0.500  0.500  0.428- 370 2.08 272 2.10 271 2.11 270 2.11 276 2.11 291 2.12
  71  0.399  0.500  0.498- 271 2.08 269 2.10 250 2.10 273 2.12 270 2.12
  72  0.500  0.400  0.498- 272 2.08 266 2.11 289 2.12 269 2.13 270 2.14   5 2.89   8 2.98
  73  0.400  0.600  0.429- 373 2.09 256 2.11 271 2.11 273 2.11 275 2.11 276 2.13
  74  0.500  0.700  0.429- 374 2.09 275 2.11 280 2.11 274 2.11 295 2.11 276 2.12
  75  0.400  0.700  0.498- 275 2.07 254 2.11 277 2.11 273 2.12 274 2.12
[...]
 406  0.900  0.300  0.359- 106 2.09 208 2.11 207 2.11 127 2.11 212 2.11 206 2.11
 407  0.800  0.300  0.289- 186 2.11 205 2.11 206 2.11 209 2.11 207 2.11
 408  0.900  0.200  0.289- 206 2.11 202 2.11 205 2.11 125 2.11 208 2.11
 409  0.800  0.400  0.359- 109 2.09 192 2.11 207 2.11 211 2.11 212 2.11 209 2.11
 410  0.900  0.500  0.359- 110 2.09 131 2.11 211 2.11 212 2.11 216 2.11 210 2.11
 411  0.800  0.500  0.289- 190 2.11 209 2.11 210 2.11 213 2.11 211 2.11
 412  0.900  0.400  0.289- 129 2.11 206 2.11 209 2.11 210 2.11 212 2.11
 413  0.800  0.600  0.359- 113 2.09 196 2.11 211 2.11 215 2.11 216 2.11 213 2.11
 414  0.900  0.700  0.359- 114 2.09 220 2.11 215 2.11 216 2.11 135 2.11 214 2.11
 415  0.800  0.700  0.289- 194 2.11 217 2.11 214 2.11 213 2.11 215 2.11
 416  0.900  0.600  0.289- 133 2.11 210 2.11 213 2.11 214 2.11 216 2.11
 417  0.800  0.800  0.359- 117 2.09 200 2.11 215 2.11 219 2.11 220 2.11 217 2.11
 418  0.900  0.900  0.359- 118 2.09 139 2.11 204 2.11 219 2.11 220 2.11 218 2.11
 419  0.800  0.900  0.289- 198 2.11 201 2.11 217 2.11 218 2.11 219 2.11
 420  0.900  0.800  0.289- 214 2.11 137 2.11 217 2.11 218 2.11 220 2.11

  LATTYP: Found a simple tetragonal cell.
 ALAT       =    21.1388521970
 C/A-ratio  =     1.4191877459

  Lattice vectors:

 A1 = (  21.1388521970,   0.0000000000,   0.0000000000)
 A2 = (   0.0000000000,  21.1388521970,   0.0000000000)
 A3 = (   0.0000000000,   0.0000000000,  30.0000000000)

Analysis of symmetry for initial positions (statically):
 Subroutine PRICEL returns:
 Original cell was already a primitive cell.

 Routine SETGRP: Setting up the symmetry group for a
 simple tetragonal supercell.

 Subroutine GETGRP returns: Found  1 space group operations
 (whereof  1 operations were pure point group operations)
[...]
   Mg          1.376          1.539          3.325          0.04683781
   Mg          1.368          1.538          3.316          0.04670812
   Mg          1.320          1.529          3.258          0.04588909
   Mg          1.321          1.529          3.258          0.04589241
   Mg          1.376          1.540          3.326          0.04684441
   Mg          1.373          1.539          3.322          0.04678810
   Mg          1.320          1.529          3.258          0.04588893
   Mg          1.320          1.529          3.258          0.04588582
   Mg          1.376          1.540          3.326          0.04684622
   Mg          1.376          1.540          3.326          0.04684412
[...]
   O         233.771          5.015         20.904          3.87107425
   O         197.278          4.875         19.203          3.55610968
   O         197.411          4.875         19.209          3.55731153
   O         235.069          5.019         20.962          3.88180442
   O         233.796          5.015         20.905          3.87128412
   O         197.197          4.874         19.199          3.55538217
   O         197.268          4.875         19.203          3.55602510
   O         234.680          5.018         20.944          3.87859195
   O         233.310          5.013         20.883          3.86725638
   O         197.210          4.874         19.200          3.55550174
   O         197.240          4.875         19.201          3.55577319
   O         233.427          5.013         20.888          3.86822853
   O         233.224          5.013         20.879          3.86654651
   O         197.312          4.875         19.205          3.55642195
   O         197.325          4.875         19.205          3.55654008

  vdW correction parametrized for the method        

  IVDW =  21
  VDW_RADIUS =    50.000 A
  VDW_IDAMPF =  0
  VDW_S6 =     1.000
  VDW_SR =     0.960
  VDW_D =    20.000
  LVDW_ONECELL = F F F
  LVDW_SAMETYPE T T T
  LVDW_EWALD = F

  Number of pair interactions contributing to vdW energy: 3518093
  Edisp (eV):  -27.53309

 VOLUME and BASIS-vectors are now :
  energy-cutoff  :      520.00
  volume of cell :    13405.53
      direct lattice vectors                 reciprocal lattice vectors
    21.138852197  0.000000000  0.000000000     0.047306258  0.000000000  0.000000000
     0.000000000 21.138852197  0.000000000     0.000000000  0.047306258  0.000000000
     0.000000000  0.000000000 30.000000000     0.000000000  0.000000000  0.033333333

  length of vectors
    21.138852197 21.138852197 30.000000000     0.047306258  0.047306258  0.033333333

 FORCES acting on ions:
    Electron-Ion                     Ewald-Force                    Non-Local-Force
   0.808E+03 0.622E+03 -.342E+04   -.803E+03 -.618E+03 0.343E+04   -.525E+01 -.394E+01 -.334E+01
   0.166E+03 0.930E+03 -.313E+04   -.163E+03 -.929E+03 0.313E+04   -.231E+01 -.148E+01 -.126E+01
   -.386E+03 0.866E+03 -.311E+04   0.383E+03 -.866E+03 0.311E+04   0.296E+01 0.746E-01 -.602E+00
   -.958E+03 0.512E+03 -.336E+04   0.953E+03 -.508E+03 0.336E+04   0.587E+01 -.388E+01 -.147E+01
   0.917E+03 -.846E+02 -.312E+04   -.915E+03 0.874E+02 0.313E+04   -.178E+01 -.266E+01 -.139E+01
   -.249E+02 -.956E+01 -.291E+04   0.250E+02 0.883E+01 0.291E+04   -.197E+00 0.798E+00 -.116E+00
   -.949E+03 -.245E+03 -.314E+04   0.947E+03 0.247E+03 0.314E+04   0.277E+01 -.167E+01 -.843E+00
   0.696E+03 -.637E+03 -.315E+04   -.696E+03 0.634E+03 0.315E+04   -.442E-01 0.383E+01 -.203E+01
   -.608E+03 -.729E+03 -.316E+04   0.609E+03 0.726E+03 0.316E+04   -.406E+00 0.370E+01 -.218E+01
   0.627E+02 -.101E+04 -.342E+04   -.625E+02 0.100E+04 0.342E+04   -.255E+00 0.582E+01 -.408E+01
   0.893E+03 0.641E+03 -.329E+04   -.892E+03 -.640E+03 0.329E+04   -.146E+01 -.120E+01 -.326E+00
   -.663E+02 0.875E+03 -.319E+04   0.663E+02 -.875E+03 0.319E+04   0.852E-01 -.108E+00 0.508E-01
   -.968E+03 0.454E+03 -.327E+04   0.966E+03 -.453E+03 0.327E+04   0.281E+01 -.142E+01 -.154E+01
   0.831E+03 -.393E+03 -.319E+04   -.831E+03 0.393E+03 0.319E+04   -.373E+00 -.174E-01 0.480E+00
   -.721E+03 -.530E+03 -.320E+04   0.721E+03 0.530E+03 0.320E+04   0.252E+00 0.105E+00 0.537E+00
   0.978E+02 -.109E+04 -.330E+04   -.976E+02 0.109E+04 0.330E+04   -.260E+00 0.127E+01 0.394E+00
   0.659E+03 0.391E+03 -.293E+04   -.660E+03 -.392E+03 0.292E+04   0.185E+00 0.814E+00 0.412E+01
   -.624E+03 0.265E+03 -.293E+04   0.625E+03 -.266E+03 0.293E+04   -.653E+00 0.552E+00 0.324E+01
   0.102E+03 -.783E+03 -.293E+04   -.102E+03 0.784E+03 0.293E+04   -.238E+00 -.446E+00 0.436E+01
   0.720E+02 -.463E+02 -.236E+04   -.712E+02 0.457E+02 0.236E+04   -.904E+00 0.542E+00 0.677E+01
   -.344E+02 0.429E+02 -.712E+03   0.343E+02 -.429E+02 0.713E+03   0.434E-01 -.636E-02 -.315E+00
   -.378E+01 0.477E+02 -.703E+03   0.364E+01 -.477E+02 0.703E+03   0.122E+00 0.118E-01 -.323E+00
   -.785E+02 0.871E+02 -.233E+04   0.783E+02 -.871E+02 0.232E+04   0.110E+00 -.112E-01 0.630E+01
   -.234E+01 0.515E+02 -.236E+04   0.224E+01 -.515E+02 0.236E+04   0.886E-01 0.691E-02 0.630E+01
   -.669E+02 0.485E+02 -.663E+03   0.668E+02 -.485E+02 0.664E+03   0.666E-01 0.477E-02 -.322E+00
   -.632E+01 0.141E+02 -.675E+03   0.624E+01 -.141E+02 0.675E+03   0.741E-01 -.102E-01 -.337E+00
   -.144E+03 0.232E+02 -.228E+04   0.144E+03 -.232E+02 0.227E+04   0.103E+00 -.311E-02 0.627E+01
   -.850E+01 0.554E+02 -.233E+04   0.834E+01 -.554E+02 0.232E+04   0.135E+00 -.404E-02 0.628E+01
   -.778E+02 -.206E+02 -.651E+03   0.778E+02 0.206E+02 0.651E+03   -.280E-02 0.126E-01 -.356E+00
   -.431E+01 -.391E+02 -.690E+03   0.431E+01 0.391E+02 0.690E+03   0.105E-02 -.169E-01 -.332E+00
   -.111E+03 -.727E+02 -.231E+04   0.111E+03 0.727E+02 0.230E+04   -.435E-02 0.324E-01 0.628E+01
   -.116E+02 -.259E+02 -.232E+04   0.115E+02 0.259E+02 0.231E+04   0.656E-01 -.110E-01 0.630E+01
   -.506E+02 -.542E+02 -.693E+03   0.507E+02 0.542E+02 0.693E+03   -.752E-01 0.269E-02 -.340E+00
   -.191E+01 -.359E+02 -.722E+03   0.190E+01 0.359E+02 0.722E+03   0.887E-02 0.667E-03 -.315E+00
   -.538E+02 -.594E+02 -.236E+04   0.538E+02 0.593E+02 0.235E+04   -.486E-01 0.542E-02 0.630E+01
   -.553E+01 -.630E+02 -.235E+04   0.551E+01 0.630E+02 0.234E+04   0.247E-01 0.856E-02 0.630E+01
   -.286E+02 -.164E+02 -.725E+03   0.287E+02 0.165E+02 0.725E+03   -.295E-01 -.172E-01 -.311E+00
   -.128E+01 0.133E+02 -.730E+03   0.124E+01 -.133E+02 0.730E+03   0.389E-01 0.141E-01 -.307E+00
   -.374E+02 0.214E+02 -.237E+04   0.373E+02 -.214E+02 0.236E+04   0.162E-01 -.325E-01 0.631E+01
   -.191E+01 -.180E+02 -.237E+04   0.188E+01 0.180E+02 0.237E+04   0.282E-01 0.741E-02 0.631E+01
   0.313E+02 0.406E+02 -.713E+03   -.314E+02 -.407E+02 0.713E+03   0.949E-01 0.700E-01 -.326E+00
   0.785E+02 0.747E+02 -.659E+03   -.785E+02 -.747E+02 0.660E+03   -.275E-01 0.744E-03 -.264E+00
   0.716E+02 0.806E+02 -.233E+04   -.718E+02 -.807E+02 0.232E+04   0.175E+00 0.113E+00 0.625E+01
   0.839E+02 0.880E+02 -.233E+04   -.841E+02 -.882E+02 0.233E+04   0.108E+00 0.124E+00 0.625E+01
   0.550E+02 0.453E+02 -.669E+03   -.554E+02 -.453E+02 0.670E+03   0.328E+00 -.121E-01 -.278E+00
   0.131E+03 0.266E+02 -.592E+03   -.131E+03 -.266E+02 0.593E+03   -.109E+00 -.159E-01 -.320E+00
   0.118E+03 0.191E+02 -.229E+04   -.119E+03 -.189E+02 0.229E+04   0.137E+00 -.108E+00 0.626E+01
   0.213E+03 0.113E+03 -.222E+04   -.214E+03 -.113E+03 0.221E+04   0.982E+00 0.231E-01 0.617E+01
   0.680E+02 -.182E+02 -.659E+03   -.680E+02 0.183E+02 0.660E+03   0.459E-01 -.682E-01 -.339E+00
   0.113E+03 -.626E+02 -.625E+03   -.113E+03 0.626E+02 0.626E+03   0.171E+00 -.180E-01 -.347E+00
   0.934E+02 -.657E+02 -.232E+04   -.935E+02 0.657E+02 0.231E+04   0.626E-01 -.639E-02 0.630E+01
   0.247E+03 -.564E+02 -.221E+04   -.248E+03 0.565E+02 0.220E+04   0.118E+00 -.852E-01 0.631E+01
   0.458E+02 -.517E+02 -.697E+03   -.459E+02 0.517E+02 0.697E+03   0.784E-01 -.415E-02 -.324E+00
   0.617E+02 -.560E+02 -.693E+03   -.618E+02 0.560E+02 0.694E+03   0.152E+00 -.151E-01 -.319E+00
   0.482E+02 -.558E+02 -.236E+04   -.483E+02 0.558E+02 0.235E+04   0.899E-01 0.723E-02 0.631E+01
   0.141E+03 -.112E+03 -.230E+04   -.141E+03 0.112E+03 0.229E+04   0.165E+00 0.142E-01 0.629E+01
   0.267E+02 -.158E+02 -.726E+03   -.267E+02 0.158E+02 0.726E+03   0.579E-01 0.148E-01 -.312E+00
   0.444E+02 0.175E+02 -.711E+03   -.444E+02 -.175E+02 0.712E+03   0.477E-01 0.574E-01 -.323E+00
   0.354E+02 0.213E+02 -.237E+04   -.354E+02 -.213E+02 0.236E+04   0.617E-01 0.291E-01 0.630E+01
   0.655E+02 -.322E+02 -.236E+04   -.656E+02 0.322E+02 0.235E+04   0.105E+00 -.202E-01 0.630E+01
[...]
   -.275E+02 0.917E+01 0.195E+04   0.275E+02 -.919E+01 -.195E+04   -.206E-01 0.274E-01 0.300E+01
   -.242E+02 0.172E+02 0.193E+04   0.242E+02 -.172E+02 -.193E+04   0.553E-02 0.512E-02 0.300E+01
   -.548E+02 -.133E+02 0.786E+03   0.549E+02 0.132E+02 -.786E+03   -.292E-01 0.764E-01 -.380E-01
   -.462E+02 -.281E+02 0.736E+03   0.462E+02 0.281E+02 -.736E+03   -.800E-01 0.204E-01 0.286E-02
   -.261E+02 -.195E+02 0.194E+04   0.261E+02 0.195E+02 -.195E+04   -.468E-01 0.305E-01 0.304E+01
   -.276E+02 -.583E+01 0.193E+04   0.276E+02 0.581E+01 -.194E+04   -.148E-01 0.240E-01 0.301E+01
   -.394E+02 -.436E+02 0.741E+03   0.396E+02 0.436E+02 -.742E+03   -.164E+00 -.210E-01 0.760E-01
   -.290E+02 -.268E+02 0.702E+03   0.290E+02 0.268E+02 -.702E+03   -.620E-01 -.253E-01 0.635E-02
   -.182E+02 -.199E+02 0.192E+04   0.182E+02 0.199E+02 -.192E+04   -.436E-01 -.253E-01 0.304E+01
   -.217E+02 -.200E+02 0.192E+04   0.217E+02 0.200E+02 -.192E+04   -.408E-01 0.670E-03 0.303E+01
   -.242E+02 -.148E+02 0.703E+03   0.242E+02 0.148E+02 -.703E+03   -.537E-01 -.622E-01 0.182E-01
   -.225E+02 0.840E+01 0.691E+03   0.225E+02 -.838E+01 -.691E+03   -.131E-01 -.252E-01 -.116E-01
   -.148E+02 0.574E+01 0.191E+04   0.149E+02 -.571E+01 -.191E+04   -.189E-01 -.281E-01 0.301E+01
   -.153E+02 -.682E+01 0.190E+04   0.154E+02 0.683E+01 -.191E+04   -.222E-01 -.196E-01 0.301E+01
   -.120E+01 -.487E+00 0.116E+03   0.615E-11 -.103E-11 -.185E-09   0.900E+00 0.647E+00 -.984E+02

 POSITION                                       TOTAL-FORCE (eV/Angst)
      9.13028      4.81144     17.42554        -0.187764     -0.152294     -0.057321
     11.83263      5.00826     17.64957        -0.012890     -0.040158     -0.024064
     14.44263      5.31367     17.76307         0.023170     -0.023954     -0.023374
     17.08928      5.50141     17.85302         0.205711     -0.180228      0.023340
     10.07723      7.36827     17.56951        -0.049874     -0.022947     -0.093157
     12.90783      7.66304     17.68141        -0.032801      0.017097     -0.070681
     15.81940      7.88026     17.74175         0.046052      0.008251     -0.043891
     11.08327      9.84805     17.51083         0.031146      0.064220     -0.089947
     14.35065     10.08345     17.55160        -0.002476      0.073899     -0.070004
     12.58638     12.14350     17.33039        -0.007216      0.166356     -0.139403
     10.15018      5.68973     19.80464        -0.009383     -0.050210      0.006770
     12.95982      5.79215     20.05764         0.019619      0.030594     -0.050184
     15.74068      6.29476     20.11465         0.054481     -0.064376      0.025563
     11.06922      8.45565     19.87891        -0.036149     -0.004671     -0.023614
     14.39339      8.76102     19.96954         0.044388      0.017635      0.031340
     12.58037     10.88107     19.67907        -0.049235      0.065898      0.045672
     11.27068      6.72696     22.00237        -0.067663      0.012339      0.077376
     14.22403      7.05681     22.15284         0.087049      0.018202      0.057669
     12.58384      9.44558     21.94149        -0.012471      0.134094      0.054916
     12.56773      7.79860     24.09216        -0.111128     -0.006799      0.218680
     21.13870     21.13879     12.86175        -0.001381      0.000192      0.029753
      2.11345      2.11383     12.86198        -0.002430      0.000981      0.030715
     21.13875      2.11357     14.92801         0.002871     -0.008018     -0.034017
      2.11369     21.13866     14.92766        -0.000538     -0.004116     -0.031957
     21.13857      4.22777     12.86218        -0.004762      0.002419      0.029977
      2.11355      6.34171     12.86210        -0.003659      0.001445      0.030585
      0.00093      6.34170     14.92974         0.017103      0.003397     -0.026171
      2.11311      4.22777     14.92855        -0.008432      0.000259     -0.026725
     21.13884      8.45549     12.86246        -0.005740     -0.000251      0.032137
      2.11385     10.56949     12.86183        -0.000869      0.000689      0.030306
      0.00047     10.56948     14.92894         0.007320      0.004666     -0.024500
      2.11372      8.45580     14.92795        -0.000262      0.006719     -0.031707
      0.00035     12.68327     12.86199         0.001168     -0.001389      0.031340
      2.11390     14.79717     12.86169         0.000100     -0.000655      0.030596
      0.00034     14.79727     14.92767         0.004603      0.001656     -0.031084
      2.11390     12.68339     14.92765         0.001426      0.002509     -0.031456
      0.00015     16.91110     12.86168         0.001188     -0.000816      0.030447
      2.11380     19.02485     12.86168         0.000325     -0.000918      0.030475
      0.00003     19.02494     14.92763         0.001362     -0.002124     -0.032449
      2.11391     16.91099     14.92758         0.001474     -0.001769     -0.032041
      4.22756     21.13862     12.86190         0.000948     -0.000184      0.030110
      6.34233      2.11452     12.86547         0.015405      0.015397      0.081152
      4.22651      2.11256     14.92930        -0.015235     -0.021123     -0.020819
      6.34025     21.13731     14.92926        -0.022246     -0.022158     -0.020955
      4.22730      4.22789     12.86335         0.008867      0.002911      0.044537
      6.34244      6.34151     12.86474         0.017141     -0.003784      0.066859
      4.22628      6.34341     14.92917        -0.019322      0.030555     -0.023657
      6.31909      4.22970     14.96182        -0.046428      0.008869     -0.132766
      4.22743      8.45581     12.86150         0.000107      0.002392      0.026412
      6.34045     10.56966     12.86160        -0.006440      0.001229      0.026658
      4.22721     10.56980     14.92782        -0.006853      0.007910     -0.031417
      6.33696      8.45824     14.92881        -0.063741      0.039585     -0.031457
      4.22732     12.68337     12.86163        -0.002716      0.000153      0.029587
      6.34071     14.79733     12.86160        -0.007209      0.000356      0.028672
      4.22745     14.79725     14.92760        -0.002464      0.001004     -0.031195
      6.33925     12.68379     14.92825        -0.037550      0.009042     -0.028718
      4.22757     16.91095     12.86165        -0.000650     -0.001332      0.030342
      6.34151     19.02465     12.86187         0.000161     -0.002128      0.030796
      4.22764     19.02469     14.92761        -0.000547     -0.004735     -0.031724
      6.34101     16.91132     14.92761        -0.008213      0.003458     -0.031537
[...]
     19.02497      6.34166     10.77222         0.002676      0.009214     -0.130643
     16.91108      6.34166      8.65833        -0.007264      0.009438     -0.426149
     19.02497      4.22777      8.65833         0.001667      0.002051     -0.427430
     16.91108      8.45554     10.77222        -0.009858      0.028361     -0.121382
     19.02497     10.56943     10.77222        -0.030008      0.006832     -0.110762
     16.91108     10.56943      8.65833        -0.016097      0.010188     -0.414674
     19.02497      8.45554      8.65833        -0.005232      0.008097     -0.424656
     16.91108     12.68331     10.77222        -0.061159     -0.007799     -0.081780
     19.02497     14.79720     10.77222        -0.023153     -0.009714     -0.121285
     16.91108     14.79720      8.65833        -0.014757     -0.008724     -0.415740
     19.02497     12.68331      8.65833        -0.013858     -0.000028     -0.419698
     16.91108     16.91108     10.77222        -0.019643     -0.022984     -0.119162
     19.02497     19.02497     10.77222        -0.004660     -0.008861     -0.129520
     16.91108     19.02497      8.65833        -0.006231     -0.009246     -0.424832
     19.02497     16.91108      8.65833        -0.007354     -0.006479     -0.424707
    total drift:                               -0.069133     -0.043039     -0.695702

  FREE ENERGIE OF THE ION-ELECTRON SYSTEM (eV)
  free  energy   TOTEN  =     -2983.75238012 eV

  energy  without entropy=    -2983.75238012  energy(sigma->0) =    -2983.75238012