 vasp.6.3.0 20Jan22 (build Apr  1 2022 16:44:48) complex
 executed on        HPECrayEX_GCC date 2023.01.09  19:27:54

 INCAR:
   SYSTEM = MgO-rocksalt
   ISMEAR = 0
   SIGMA = 0.05
   EDIFF = 1E-6
   ALGO = ALL
   ISTART = 0
   IBRION = -1
   NSW = 0
   ISYM = 2
   DIPOL = 0.5 0.5 0.5
   IDIPOL = 3
   LDIPOL = .TRUE.
   GGA = PS
   IVDW = 13
   VDW_S8 = 1.71885698
   VDW_A1 = 0.47901421
   VDW_A2 = 5.96771589
   ENCUT = 520
   PREC = Accurate
   LASPH = .TRUE.
   LREAL = Auto
   ISPIN = 1
   NELM = 200
   NELMIN = 8
   NCORE = 4
   KPAR = 2
   LWAVE = .FALSE.
   LCHARG = .FALSE.

 POTCAR:    PAW_PBE Ag 02Apr2005
 POTCAR:    PAW_PBE Mg_pv 13Apr2007
 POTCAR:    PAW_PBE O 08Apr2002
 POTCAR:    PAW_PBE Ag 02Apr2005
   VRHFIN =Ag : s1 d10

   TITEL  = PAW_PBE Ag 02Apr2005
   POMASS =  107.868; ZVAL   =   11.000    mass and valenz
   ENMAX  =  249.844; ENMIN  =  187.383 eV

   TITEL  = PAW_PBE Mg_pv 13Apr2007
   POMASS =   24.305; ZVAL   =    8.000    mass and valenz
   ENMAX  =  403.929; ENMIN  =  302.947 eV

   TITEL  = PAW_PBE O 08Apr2002
   POMASS =   16.000; ZVAL   =    6.000    mass and valenz
   ENMAX  =  400.000; ENMIN  =  300.000 eV

 Optimization of the real space projectors (new method)

 maximal supplied QI-value         = 15.12
 optimisation between [QCUT,QGAM] = [ 11.64, 23.28] = [ 37.95,151.78] Ry
 Optimized for a Real-space Cutoff    1.45 Angstroem

   l    n(q)    QCUT    max X(q) W(low)/X(q) W(high)/X(q)  e(spline)
   2      9    11.641    53.897    0.22E-03    0.42E-04    0.28E-06
   2      9    11.641    52.416    0.23E-03    0.44E-04    0.29E-06
   0     10    11.641   122.045    0.51E-04    0.25E-04    0.16E-06
   0     10    11.641    73.629    0.49E-04    0.24E-04    0.16E-06
   1     10    11.641    15.255    0.99E-04    0.55E-04    0.11E-06
   1     10    11.641     9.562    0.81E-04    0.47E-04    0.95E-07
 Optimization of the real space projectors (new method)

[...]

   l    n(q)    QCUT    max X(q) W(low)/X(q) W(high)/X(q)  e(spline)
   1      8    11.527     2.974    0.44E-04    0.56E-04    0.12E-06
   1      8    11.527     4.279    0.12E-03    0.12E-03    0.26E-06
   0      9    11.527    16.381    0.46E-04    0.64E-04    0.78E-07
   0      9    11.527     5.611    0.26E-04    0.43E-04    0.55E-07
   2      8    11.527     4.652    0.22E-03    0.72E-04    0.47E-07
 Optimization of the real space projectors (new method)

 maximal supplied QI-value         = 24.76
 optimisation between [QCUT,QGAM] = [ 11.64, 23.27] = [ 37.91,151.63] Ry
 Optimized for a Real-space Cutoff    1.14 Angstroem

   l    n(q)    QCUT    max X(q) W(low)/X(q) W(high)/X(q)  e(spline)
   0      8    11.635    20.381    0.10E-03    0.33E-03    0.24E-06
   0      8    11.635    15.268    0.11E-03    0.35E-03    0.26E-06
   1      7    11.635     5.964    0.24E-03    0.31E-03    0.30E-06
   1      7    11.635     5.382    0.22E-03    0.25E-03    0.26E-06
|               ----> ADVICE to this user running VASP <----                  |
|     You enforced a specific xc type in the INCAR file but a different       |
|     type was found in the POTCAR file.                                      |
|     I HOPE YOU KNOW WHAT YOU ARE DOING!                                     |

  PAW_PBE Ag 02Apr2005                  :
  PAW_PBE Mg_pv 13Apr2007               :
  PAW_PBE O 08Apr2002                   :

 POSCAR: Ag Mg  O
  positions in direct lattice
  velocities in cartesian coordinates
|           W    W    AA    RRRRR   N    N  II  N    N   GGGG   !!!           |
|           W    W   A  A   R    R  NN   N  II  NN   N  G    G  !!!           |
|           W    W  A    A  R    R  N N  N  II  N N  N  G       !!!           |
|           W WW W  AAAAAA  RRRRR   N  N N  II  N  N N  G  GGG   !            |
|           WW  WW  A    A  R   R   N   NN  II  N   NN  G    G                |
|           W    W  A    A  R    R  N    N  II  N    N   GGGG   !!!           |
|     Specifying the vdW parameters                                           |
|     VDW_S8 = 1.719                                                          |
|     VDW_A1 = 0.479                                                          |
|     VDW_A2 = 5.968                                                          |
|     in the INCAR file will overwrite the defaults for pbesol. Please        |
|     make sure that is what you intended.                                    |

 ion  position               nearest neighbor table
   1  0.400  0.429  0.610- 153 2.46   2 2.60  55 2.82   4 3.42
   2  0.400  0.512  0.697-   1 2.60   4 2.64   3 2.77
   3  0.401  0.641  0.713-   4 2.63   2 2.77
   4  0.400  0.590  0.604- 157 2.26   3 2.63   2 2.64  55 2.95   1 3.42
   5  0.000  0.000  0.407- 107 2.11 108 2.11 123 2.11 188 2.11 105 2.11
   6  0.100  0.100  0.407- 107 2.11 108 2.11 112 2.11 127 2.11 106 2.11
   7  0.000  0.100  0.503- 105 2.11 106 2.11 109 2.11 186 2.11 107 2.11
   8  0.100  0.000  0.503- 105 2.11 106 2.11 122 2.11 125 2.11 108 2.11
   9  0.000  0.200  0.407- 111 2.11 107 2.11 112 2.11 192 2.11 109 2.11
  10  0.100  0.300  0.407- 112 2.11 111 2.11 116 2.11 131 2.11 110 2.11
  11  0.000  0.300  0.503- 109 2.11 110 2.11 113 2.11 190 2.11 111 2.11
  12  0.100  0.200  0.503- 110 2.11 109 2.11 106 2.11 129 2.11 112 2.11
  13  0.000  0.400  0.407- 111 2.11 115 2.11 116 2.11 196 2.11 113 2.11
  14  0.100  0.500  0.407- 115 2.11 116 2.11 120 2.11 135 2.11 114 2.11
  15  0.000  0.500  0.503- 113 2.11 114 2.11 117 2.11 194 2.11 115 2.11
  16  0.100  0.400  0.503- 110 2.11 113 2.11 114 2.11 133 2.11 116 2.11
  17  0.000  0.600  0.407- 115 2.11 119 2.11 120 2.11 200 2.11 117 2.11
  18  0.100  0.700  0.407- 124 2.11 120 2.11 119 2.11 139 2.11 118 2.11
  19  0.000  0.700  0.503- 121 2.11 118 2.11 117 2.11 198 2.11 119 2.11
  20  0.100  0.600  0.503- 114 2.11 117 2.11 118 2.11 137 2.11 120 2.11
  21  0.000  0.800  0.407- 119 2.11 123 2.11 124 2.11 204 2.11 121 2.11
  22  0.100  0.900  0.407- 108 2.11 123 2.11 124 2.11 143 2.11 122 2.11
  23  0.000  0.900  0.503- 105 2.11 121 2.11 122 2.11 202 2.11 123 2.11
  24  0.100  0.800  0.503- 118 2.11 121 2.11 122 2.11 141 2.11 124 2.11
  25  0.200  0.000  0.407- 128 2.11 127 2.11 108 2.11 143 2.11 125 2.11
  26  0.300  0.100  0.407- 127 2.11 128 2.11 132 2.11 147 2.11 126 2.11
  27  0.200  0.100  0.503- 126 2.11 125 2.11 106 2.11 129 2.11 127 2.11
  28  0.300  0.000  0.503- 125 2.11 126 2.11 142 2.11 145 2.11 128 2.11
  29  0.200  0.200  0.407- 131 2.11 132 2.11 112 2.11 127 2.11 129 2.11
  30  0.300  0.300  0.407- 131 2.11 132 2.11 136 2.11 151 2.11 130 2.11
  31  0.200  0.300  0.503- 129 2.11 130 2.11 110 2.11 133 2.11 131 2.11
  32  0.300  0.200  0.503- 129 2.11 130 2.11 126 2.11 149 2.11 132 2.11
  33  0.200  0.400  0.407- 136 2.11 131 2.11 135 2.11 116 2.11 133 2.11
  34  0.300  0.500  0.407- 135 2.11 136 2.11 140 2.11 155 2.11 134 2.11
  35  0.200  0.500  0.503- 134 2.11 133 2.11 114 2.11 137 2.11 135 2.11
  36  0.300  0.400  0.503- 133 2.11 130 2.11 134 2.11 153 2.11 136 2.11
  37  0.200  0.600  0.407- 140 2.11 135 2.11 139 2.11 120 2.11 137 2.11
  38  0.300  0.700  0.407- 139 2.11 144 2.11 140 2.11 159 2.11 138 2.11
  39  0.200  0.700  0.503- 138 2.11 141 2.11 118 2.11 137 2.11 139 2.11
  40  0.300  0.600  0.503- 137 2.11 134 2.11 138 2.11 157 2.11 140 2.11
  41  0.200  0.800  0.407- 139 2.11 144 2.11 143 2.11 124 2.11 141 2.11
  42  0.300  0.900  0.407- 143 2.11 128 2.11 144 2.11 163 2.11 142 2.11
  43  0.200  0.900  0.503- 142 2.11 125 2.11 141 2.11 122 2.11 143 2.11
  44  0.300  0.800  0.503- 138 2.11 141 2.11 142 2.11 161 2.11 144 2.11
  45  0.400  0.000  0.407- 128 2.11 147 2.11 148 2.11 163 2.11 145 2.11
  46  0.500  0.100  0.407- 147 2.11 148 2.11 152 2.11 167 2.11 146 2.11
  47  0.400  0.100  0.503- 126 2.11 145 2.11 146 2.11 149 2.11 147 2.11
  48  0.500  0.000  0.503- 145 2.11 146 2.11 162 2.11 165 2.11 148 2.11
  49  0.400  0.200  0.407- 151 2.11 147 2.11 132 2.11 152 2.11 149 2.11
  50  0.500  0.300  0.407- 152 2.11 151 2.11 156 2.11 171 2.11 150 2.11
  51  0.400  0.300  0.503- 149 2.11 130 2.11 150 2.11 153 2.11 151 2.11
  52  0.500  0.200  0.503- 150 2.11 149 2.11 146 2.11 169 2.11 152 2.11
  53  0.400  0.400  0.407- 136 2.11 151 2.11 155 2.11 156 2.11 153 2.11
  54  0.500  0.500  0.407- 155 2.11 156 2.11 160 2.11 175 2.11 154 2.11
  55  0.400  0.500  0.503- 134 2.11 153 2.11 154 2.11 157 2.11 155 2.11   1 2.82   4 2.95
  56  0.500  0.400  0.503- 150 2.11 153 2.11 154 2.11 173 2.11 156 2.11
  57  0.400  0.600  0.407- 140 2.11 155 2.11 159 2.11 160 2.11 157 2.11
  58  0.500  0.700  0.407- 164 2.11 160 2.11 159 2.11 179 2.11 158 2.11
  59  0.400  0.700  0.503- 161 2.11 157 2.11 158 2.11 138 2.11 159 2.11
  60  0.500  0.600  0.503- 154 2.11 157 2.11 158 2.11 177 2.11 160 2.11
[...]
 190  0.900  0.300  0.503-  92 2.11  91 2.11  11 2.11  96 2.11  90 2.11
 191  0.800  0.300  0.407-  70 2.11  89 2.11  90 2.11  93 2.11  91 2.11
 192  0.900  0.200  0.407-  90 2.11  86 2.11  89 2.11   9 2.11  92 2.11
 193  0.800  0.400  0.503-  76 2.11  91 2.11  95 2.11  96 2.11  93 2.11
 194  0.900  0.500  0.503-  15 2.11  95 2.11  96 2.11 100 2.11  94 2.11
 195  0.800  0.500  0.407-  74 2.11  93 2.11  94 2.11  97 2.11  95 2.11
 196  0.900  0.400  0.407-  13 2.11  90 2.11  93 2.11  94 2.11  96 2.11
 197  0.800  0.600  0.503-  80 2.11  95 2.11  99 2.11 100 2.11  97 2.11
 198  0.900  0.700  0.503- 104 2.11  99 2.11 100 2.11  19 2.11  98 2.11
 199  0.800  0.700  0.407-  78 2.11 101 2.11  98 2.11  97 2.11  99 2.11
 200  0.900  0.600  0.407-  17 2.11  94 2.11  97 2.11  98 2.11 100 2.11
 201  0.800  0.800  0.503-  84 2.11  99 2.11 103 2.11 104 2.11 101 2.11
 202  0.900  0.900  0.503-  23 2.11  88 2.11 103 2.11 104 2.11 102 2.11
 203  0.800  0.900  0.407-  82 2.11  85 2.11 101 2.11 102 2.11 103 2.11
 204  0.900  0.800  0.407-  98 2.11  21 2.11 101 2.11 102 2.11 104 2.11

  LATTYP: Found a simple tetragonal cell.
 ALAT       =    21.1388521970
 C/A-ratio  =     1.0461251639

  Lattice vectors:

 A1 = (  21.1388521970,   0.0000000000,   0.0000000000)
 A2 = (   0.0000000000,  21.1388521970,   0.0000000000)
 A3 = (   0.0000000000,   0.0000000000,  22.1138852197)

Analysis of symmetry for initial positions (statically):
 Subroutine PRICEL returns:
 Original cell was already a primitive cell.

 Routine SETGRP: Setting up the symmetry group for a
 simple tetragonal supercell.

 Subroutine GETGRP returns: Found  1 space group operations
 (whereof  1 operations were pure point group operations)
 out of a pool of 16 trial point group operations.

The static configuration has the point symmetry C_1 .

Analysis of symmetry for dynamics (positions and initial velocities):
 Subroutine PRICEL returns:
 Original cell was already a primitive cell.

[...]

The dynamic configuration has the point symmetry C_1 .

Analysis of constrained symmetry for selective dynamics:
 Subroutine PRICEL returns:
 Original cell was already a primitive cell.

 Routine SETGRP: Setting up the symmetry group for a
 simple tetragonal supercell.

 Subroutine GETGRP returns: Found  1 space group operations
 (whereof  1 operations were pure point group operations)
 out of a pool of 16 trial point group operations.

[...]
     54     -42.8387      2.00000
     55     -42.8384      2.00000
     56     -42.8382      2.00000
     57     -42.8373      2.00000
     58     -42.8367      2.00000
     59     -42.8367      2.00000
     60     -42.8365      2.00000
[...]
    946       6.1883      0.00000
    947       6.2190      0.00000
    948       6.2524      0.00000
    949       6.2777      0.00000
    950       6.3103      0.00000
    951       6.3840      0.00000
    952       6.4775      0.00000
    953       6.4913      0.00000
    954       6.5376      0.00000
    955       6.5681      0.00000
    956       6.6328      0.00000
    957       6.6902      0.00000
    958       6.7230      0.00000
    959       6.7740      0.00000
    960       6.8082      0.00000

 soft charge-density along one line, spin component           1
         0         1         2         3         4         5         6         7         8         9
 total charge-density along one line

------------------------ aborting loop because EDIFF is reached ----------------------------------------

  FORCE on cell =-STRESS in cart. coord.  units (eV):
  Direction    XX          YY          ZZ          XY          YZ          ZX
  Alpha Z  1401.13727  1401.13727  1401.13727
  Ewald  477666.07547479799.93693************     3.84227   439.22239     3.11972
  Hartree507250.63733508987.54003************     3.08530   356.13486     2.36130
  E(xc)   -7726.42153 -7725.58877 -7743.23518     0.00161     0.20472     0.00204
  Local  ************************************    -6.91059  -794.02410    -5.45092
  n-local -8836.71644 -8837.86842 -8960.22250    -0.00045    -0.06157    -0.00779
  augment  3585.94609  3583.16064  3521.89940    -0.00597    -0.51385    -0.00590
  Kinetic 23184.67545 23177.53972 23439.59850    -0.01202    -1.18290    -0.02655
  Fock        0.00000     0.00000     0.00000     0.00000     0.00000     0.00000
  vdW       -11.45629   -11.47550    -3.06289    -0.00004    -0.00850    -0.00004
  Total    -207.63097  -209.14548   -13.00422     0.00012    -0.22896    -0.00815
  in kB     -33.66471   -33.91027    -2.10847     0.00002    -0.03712    -0.00132

 VOLUME and BASIS-vectors are now :
  energy-cutoff  :      520.00
  volume of cell :     9881.61
      direct lattice vectors                 reciprocal lattice vectors
    21.138852197  0.000000000  0.000000000     0.047306258  0.000000000  0.000000000
     0.000000000 21.138852197  0.000000000     0.000000000  0.047306258  0.000000000
     0.000000000  0.000000000 22.113885220     0.000000000  0.000000000  0.045220457

  length of vectors
    21.138852197 21.138852197 22.113885220     0.047306258  0.047306258  0.045220457

 FORCES acting on ions:
    Electron-Ion                     Ewald-Force                    Non-Local-Force
   0.593E+00 0.381E+03 -.193E+04   -.587E+00 -.376E+03 0.193E+04   -.616E-02 -.449E+01 -.389E+01
   0.162E+00 0.207E+03 -.197E+04   -.167E+00 -.207E+03 0.196E+04   0.628E-02 0.680E-01 0.683E+01
   -.148E+01 -.389E+03 -.180E+04   0.146E+01 0.384E+03 0.179E+04   0.261E-01 0.490E+01 0.513E+01
   0.688E+00 -.198E+03 -.175E+04   -.677E+00 0.199E+03 0.176E+04   -.124E-01 -.400E+00 -.397E+01
   0.711E+01 -.266E+01 0.937E+03   -.712E+01 0.267E+01 -.929E+03   0.117E-01 -.655E-02 -.770E+01
   0.128E+02 0.613E+01 0.940E+03   -.128E+02 -.614E+01 -.932E+03   0.229E-01 0.677E-02 -.771E+01
   0.932E+01 0.530E+01 -.918E+03   -.933E+01 -.530E+01 0.910E+03   0.919E-02 -.249E-02 0.764E+01
   0.155E+02 -.503E+01 -.916E+03   -.155E+02 0.504E+01 0.908E+03   0.124E-01 -.889E-02 0.764E+01
   0.955E+01 0.984E+01 0.939E+03   -.957E+01 -.985E+01 -.931E+03   0.198E-01 0.678E-02 -.771E+01
   0.248E+02 0.183E+02 0.950E+03   -.249E+02 -.183E+02 -.942E+03   0.765E-01 0.264E-01 -.773E+01
   0.181E+02 0.157E+02 -.913E+03   -.181E+02 -.157E+02 0.905E+03   0.139E-01 0.369E-02 0.764E+01
   0.235E+02 0.199E+02 -.912E+03   -.235E+02 -.199E+02 0.904E+03   0.303E-01 0.326E-02 0.764E+01
   0.168E+02 0.959E+01 0.945E+03   -.169E+02 -.960E+01 -.937E+03   0.405E-01 0.115E-01 -.772E+01
   0.383E+02 0.457E+01 0.962E+03   -.385E+02 -.459E+01 -.954E+03   0.144E+00 0.178E-01 -.775E+01
   0.281E+02 0.417E+01 -.908E+03   -.281E+02 -.417E+01 0.900E+03   0.216E-01 0.698E-02 0.763E+01
   0.527E+02 0.223E+02 -.897E+03   -.527E+02 -.223E+02 0.889E+03   0.396E-01 0.107E-01 0.761E+01
   0.186E+02 -.489E+01 0.947E+03   -.186E+02 0.489E+01 -.939E+03   0.549E-01 0.877E-03 -.772E+01
   0.302E+02 -.166E+02 0.955E+03   -.304E+02 0.166E+02 -.947E+03   0.122E+00 -.243E-01 -.774E+01
   0.226E+02 -.140E+02 -.910E+03   -.226E+02 0.140E+02 0.902E+03   0.270E-01 -.940E-03 0.764E+01
   0.607E+02 -.119E+02 -.892E+03   -.608E+02 0.119E+02 0.884E+03   0.879E-01 0.906E-02 0.761E+01
   0.118E+02 -.119E+02 0.941E+03   -.118E+02 0.119E+02 -.933E+03   0.311E-01 -.126E-01 -.771E+01
   0.152E+02 -.124E+02 0.942E+03   -.152E+02 0.124E+02 -.934E+03   0.322E-01 -.268E-01 -.771E+01
   0.114E+02 -.112E+02 -.916E+03   -.114E+02 0.112E+02 0.908E+03   0.133E-01 -.724E-02 0.764E+01
   0.319E+02 -.252E+02 -.906E+03   -.319E+02 0.253E+02 0.898E+03   0.504E-01 -.141E-01 0.763E+01
   0.130E+02 -.502E+01 0.943E+03   -.130E+02 0.505E+01 -.935E+03   0.196E-01 -.165E-01 -.771E+01
   0.925E+01 0.123E+02 0.948E+03   -.927E+01 -.124E+02 -.940E+03   0.171E-01 0.485E-01 -.772E+01
   0.184E+02 0.130E+02 -.912E+03   -.184E+02 -.130E+02 0.904E+03   0.159E-01 0.147E-01 0.764E+01
   0.114E+02 -.101E+02 -.908E+03   -.114E+02 0.101E+02 0.900E+03   0.720E-02 -.915E-02 0.763E+01
   0.199E+02 0.221E+02 0.951E+03   -.200E+02 -.222E+02 -.943E+03   0.589E-01 0.575E-01 -.772E+01
   0.252E+02 0.442E+02 0.984E+03   -.254E+02 -.445E+02 -.976E+03   0.152E+00 0.214E+00 -.773E+01
   0.539E+02 0.495E+02 -.887E+03   -.541E+02 -.495E+02 0.879E+03   0.135E+00 0.532E-02 0.759E+01
   0.231E+02 0.522E+02 -.894E+03   -.231E+02 -.523E+02 0.886E+03   0.214E-01 0.122E+00 0.761E+01
   0.454E+02 0.249E+02 0.981E+03   -.457E+02 -.250E+02 -.973E+03   0.270E+00 0.780E-01 -.782E+01
   0.487E+02 0.112E+02 0.104E+04   -.492E+02 -.113E+02 -.103E+04   0.362E+00 0.116E+00 -.778E+01
   0.110E+03 0.140E+02 -.846E+03   -.111E+03 -.141E+02 0.838E+03   0.254E+00 0.407E-01 0.753E+01
   0.119E+03 0.916E+02 -.770E+03   -.120E+03 -.917E+02 0.763E+03   0.967E+00 0.113E+00 0.703E+01
   0.514E+02 -.143E+02 0.990E+03   -.519E+02 0.144E+02 -.981E+03   0.398E+00 -.222E-01 -.784E+01
   0.327E+02 -.435E+02 0.100E+04   -.330E+02 0.439E+02 -.996E+03   0.258E+00 -.277E+00 -.771E+01
   0.739E+02 -.493E+02 -.869E+03   -.742E+02 0.493E+02 0.861E+03   0.249E+00 -.163E-01 0.758E+01
   0.146E+03 -.566E+02 -.728E+03   -.149E+03 0.566E+02 0.720E+03   0.188E+01 -.232E-01 0.728E+01
   0.261E+02 -.276E+02 0.959E+03   -.262E+02 0.278E+02 -.951E+03   0.954E-01 -.962E-01 -.773E+01
   0.116E+02 -.244E+02 0.954E+03   -.116E+02 0.245E+02 -.946E+03   0.218E-01 -.109E+00 -.774E+01
   0.242E+02 -.275E+02 -.906E+03   -.242E+02 0.276E+02 0.898E+03   0.145E-01 -.453E-01 0.763E+01
   0.359E+02 -.731E+02 -.871E+03   -.359E+02 0.734E+02 0.863E+03   -.346E-02 -.251E+00 0.757E+01
   0.248E-01 -.703E+01 0.948E+03   -.247E-01 0.705E+01 -.940E+03   -.111E-03 -.220E-01 -.772E+01
   -.921E+01 0.123E+02 0.948E+03   0.924E+01 -.124E+02 -.940E+03   -.172E-01 0.485E-01 -.772E+01
   0.304E-01 0.213E+02 -.906E+03   -.303E-01 -.214E+02 0.898E+03   -.103E-03 0.392E-01 0.763E+01
   -.114E+02 -.102E+02 -.908E+03   0.114E+02 0.102E+02 0.900E+03   -.738E-02 -.902E-02 0.763E+01
   0.300E-01 0.351E+02 0.963E+03   -.299E-01 -.354E+02 -.955E+03   -.118E-03 0.222E+00 -.777E+01
   -.251E+02 0.443E+02 0.984E+03   0.253E+02 -.446E+02 -.976E+03   -.152E+00 0.214E+00 -.773E+01
   0.107E+00 0.125E+03 -.825E+03   -.107E+00 -.126E+03 0.817E+03   -.388E-03 0.101E+01 0.751E+01
   -.230E+02 0.522E+02 -.894E+03   0.230E+02 -.524E+02 0.886E+03   -.216E-01 0.122E+00 0.761E+01
   0.862E-01 0.467E+02 0.104E+04   -.858E-01 -.471E+02 -.103E+04   -.292E-03 0.327E+00 -.656E+01
   -.486E+02 0.112E+02 0.104E+04   0.490E+02 -.114E+02 -.103E+04   -.362E+00 0.115E+00 -.778E+01
   0.464E+00 0.320E+02 -.582E+03   -.463E+00 -.334E+02 0.577E+03   -.945E-03 0.109E+01 0.501E+01
   -.119E+03 0.918E+02 -.769E+03   0.120E+03 -.919E+02 0.762E+03   -.967E+00 0.113E+00 0.702E+01
   0.139E+00 -.290E+02 0.106E+04   -.137E+00 0.291E+02 -.106E+04   -.111E-02 -.129E+00 -.548E+01
   -.326E+02 -.436E+02 0.100E+04   0.329E+02 0.440E+02 -.996E+03   -.258E+00 -.277E+00 -.771E+01
   0.331E+00 -.146E+03 -.755E+03   -.328E+00 0.148E+03 0.748E+03   -.179E-02 -.186E+01 0.715E+01
   -.146E+03 -.567E+02 -.727E+03   0.149E+03 0.567E+02 0.719E+03   -.188E+01 -.244E-01 0.727E+01
[...]
   -.986E+01 0.905E+01 0.708E+03   0.988E+01 -.906E+01 -.712E+03   -.253E-01 0.136E-01 0.353E+01
   -.162E-01 0.628E+01 0.704E+03   0.161E-01 -.628E+01 -.708E+03   0.108E-03 0.529E-02 0.354E+01
   -.183E+02 0.959E+01 -.684E+03   0.183E+02 -.960E+01 0.688E+03   -.203E-01 0.888E-02 -.366E+01
   -.495E-01 0.250E+01 -.685E+03   0.493E-01 -.250E+01 0.689E+03   0.273E-03 0.695E-02 -.365E+01
   -.144E+02 0.228E+01 0.712E+03   0.144E+02 -.228E+01 -.716E+03   -.391E-01 0.112E-01 0.352E+01
   -.282E-01 0.600E+01 0.708E+03   0.281E-01 -.601E+01 -.712E+03   0.196E-03 0.101E-01 0.353E+01
   -.207E+02 -.480E+01 -.682E+03   0.207E+02 0.480E+01 0.686E+03   -.285E-01 0.498E-02 -.367E+01
   -.472E-01 -.830E+01 -.686E+03   0.470E-01 0.830E+01 0.690E+03   0.269E-03 -.165E-02 -.365E+01
   -.118E+02 -.796E+01 0.710E+03   0.118E+02 0.797E+01 -.714E+03   -.376E-01 -.115E-01 0.353E+01
   -.356E-01 -.299E+01 0.709E+03   0.354E-01 0.299E+01 -.713E+03   0.262E-03 0.151E-02 0.353E+01
   -.123E+02 -.116E+02 -.687E+03   0.123E+02 0.116E+02 0.691E+03   -.212E-01 -.102E-01 -.365E+01
   -.260E-01 -.701E+01 -.690E+03   0.259E-01 0.702E+01 0.694E+03   0.157E-03 -.751E-02 -.363E+01
   -.654E+01 -.655E+01 0.705E+03   0.655E+01 0.656E+01 -.709E+03   -.190E-01 -.151E-01 0.354E+01
   -.259E-01 -.754E+01 0.706E+03   0.257E-01 0.755E+01 -.710E+03   0.189E-03 -.108E-01 0.354E+01
   -.264E-01 -.163E+00 0.222E+01   0.702E-12 0.682E-12 0.200E-10   0.302E-01 0.163E+00 -.267E+01

 POSITION                                       TOTAL-FORCE (eV/Angst)
      8.45714      9.05883     13.49759        -0.000131      0.164134     -0.096044
      8.46060     10.81262     15.42040         0.001330      0.132249     -0.271529
      8.46768     13.55697     15.76553         0.000196     -0.220502     -0.195542
      8.45984     12.47141     13.36585        -0.000389     -0.073740      0.007202
      0.00000      0.00000      9.00000        -0.003220      0.001802      0.458233
      2.11389      2.11389      9.00000        -0.006304     -0.001903      0.459151
      0.00000      2.11389     11.11389        -0.002400      0.000702     -0.435812
      2.11389      0.00000     11.11389        -0.003373      0.002303     -0.434370
      0.00000      4.22777      9.00000        -0.005225     -0.001846      0.459334
      2.11389      6.34166      9.00000        -0.019881     -0.007037      0.464556
      0.00000      6.34166     11.11389        -0.003098     -0.000808     -0.432003
      2.11389      4.22777     11.11389        -0.007352     -0.000524     -0.430268
      0.00000      8.45554      9.00000        -0.010670     -0.003153      0.461671
      2.11389     10.56943      9.00000        -0.037547     -0.005221      0.470075
      0.00000     10.56943     11.11389        -0.004406     -0.001999     -0.428452
      2.11389      8.45554     11.11389        -0.006182     -0.002152     -0.415666
      0.00000     12.68331      9.00000        -0.014214     -0.000336      0.462182
      2.11389     14.79720      9.00000        -0.031565      0.006850      0.465927
      0.00000     14.79720     11.11389        -0.006289      0.000148     -0.430784
      2.11389     12.68331     11.11389        -0.017537     -0.003088     -0.413651
      0.00000     16.91108      9.00000        -0.008227      0.003526      0.459736
      2.11389     19.02497      9.00000        -0.008884      0.007356      0.459488
      0.00000     19.02497     11.11389        -0.003435      0.001969     -0.435131
      2.11389     16.91108     11.11389        -0.011968      0.003476     -0.427180
      4.22777      0.00000      9.00000        -0.005446      0.004314      0.460378
      6.34166      2.11389      9.00000        -0.004916     -0.012656      0.462332
      4.22777      2.11389     11.11389        -0.004265     -0.003302     -0.430655
      6.34166      0.00000     11.11389        -0.001900      0.001919     -0.429338
      4.22777      4.22777      9.00000        -0.016571     -0.015988      0.461937
      6.34166      6.34166      9.00000        -0.049674     -0.064019      0.455025
      4.22777      6.34166     11.11389        -0.028899      0.004631     -0.397905
      6.34166      4.22777     11.11389        -0.004984     -0.028002     -0.410809
      4.22777      8.45554      9.00000        -0.068326     -0.021027      0.484236
      6.34166     10.56943      9.00000        -0.118561     -0.037847      0.442116
      4.22777     10.56943     11.11389        -0.053071     -0.013367     -0.348376
      6.34166      8.45554     11.11389        -0.338446     -0.009268     -0.250599
      4.22777     12.68331      9.00000        -0.098133      0.005169      0.486676
      6.34166     14.79720      9.00000        -0.083970      0.088384      0.440675
      4.22777     14.79720     11.11389        -0.055963      0.000480     -0.384800
      6.34166     12.68331     11.11389        -0.669454      0.007504     -0.403886
      4.22777     16.91108      9.00000        -0.027043      0.027094      0.463194
      6.34166     19.02497      9.00000        -0.006095      0.027966      0.466517
      4.22777     19.02497     11.11389        -0.003648      0.010557     -0.426839
      6.34166     16.91108     11.11389         0.006630      0.054102     -0.378498
      8.45554      0.00000      9.00000         0.000010      0.005768      0.462246
     10.56943      2.11389      9.00000         0.004923     -0.012660      0.462333
      8.45554      2.11389     11.11389         0.000015     -0.008339     -0.425952
     10.56943      0.00000     11.11389         0.001915      0.001881     -0.429329
      8.45554      4.22777      9.00000         0.000014     -0.055163      0.471182
     10.56943      6.34166      9.00000         0.049712     -0.063982      0.455077
      8.45554      6.34166     11.11389         0.000109     -0.317061     -0.364303
     10.56943      4.22777     11.11389         0.005011     -0.027937     -0.410776
      8.45554      8.45554      9.00000         0.000078     -0.070805      0.199033
     10.56943     10.56943      9.00000         0.118660     -0.037676      0.442029
      8.45554     10.56943     11.11389        -0.000323     -0.287850     -0.322384
     10.56943      8.45554     11.11389         0.338949     -0.009349     -0.250238
      8.45554     12.68331      9.00000         0.000341      0.023434     -0.021185
     10.56943     14.79720      9.00000         0.084103      0.088248      0.440891
      8.45554     14.79720     11.11389         0.000582      0.615690     -0.275588
     10.56943     12.68331     11.11389         0.671956      0.008327     -0.404630
[...]
     19.02497      6.34166     11.11389         0.000023      0.001175      0.379161
     16.91108      6.34166      9.00000        -0.007015      0.003762     -0.406659
     19.02497      4.22777      9.00000         0.000014      0.001485     -0.404780
     16.91108      8.45554     11.11389        -0.005679      0.002414      0.374128
     19.02497     10.56943     11.11389         0.000061      0.001882      0.376720
     16.91108     10.56943      9.00000        -0.010808      0.003028     -0.408678
     19.02497      8.45554      9.00000         0.000034      0.002759     -0.406353
     16.91108     12.68331     11.11389        -0.007960      0.001331      0.373118
     19.02497     14.79720     11.11389         0.000049     -0.000456      0.378231
     16.91108     14.79720      9.00000        -0.010341     -0.003194     -0.407115
     19.02497     12.68331      9.00000         0.000054      0.000382     -0.406512
     16.91108     16.91108     11.11389        -0.005848     -0.002787      0.378195
     19.02497     19.02497     11.11389         0.000022     -0.002049      0.381391
     16.91108     19.02497      9.00000        -0.005203     -0.004113     -0.404746
     19.02497     16.91108      9.00000         0.000031     -0.002959     -0.405042
    total drift:                                0.003844     -0.000343     -0.446193

  FREE ENERGIE OF THE ION-ELECTRON SYSTEM (eV)
  free  energy   TOTEN  =     -1205.34043693 eV

  energy  without entropy=    -1205.34043693  energy(sigma->0) =    -1205.34043693