 vasp.6.3.0 20Jan22 (build Apr  1 2022 16:44:48) complex
 executed on        HPECrayEX_GCC date 2023.01.17  00:23:38

 INCAR:
   SYSTEM = MgO-rocksalt
   ISMEAR = 0
   SIGMA = 0.05
   EDIFF = 1E-6
   ALGO = ALL
   ISTART = 0
   IBRION = -1
   NSW = 0
   ISYM = 2
   DIPOL = 0.5 0.5 0.5
   IDIPOL = 3
   LDIPOL = .TRUE.
   LHFCALC = .TRUE.
   GGA = PE
   IVDW = 12
   VDW_S8 = 1.2177
   VDW_A1 = 0.4145
   VDW_A2 = 4.8593
   ENCUT = 520
   PREC = Accurate
   LASPH = .TRUE.
   LREAL = Auto
   ISPIN = 1
   NELM = 200
   NELMIN = 8
   NCORE = 4
   KPAR = 2
   LWAVE = .FALSE.
   LCHARG = .FALSE.

 POTCAR:    PAW_PBE Ag 02Apr2005
 POTCAR:    PAW_PBE Mg_pv 13Apr2007
 POTCAR:    PAW_PBE O 08Apr2002
|           W    W    AA    RRRRR   N    N  II  N    N   GGGG   !!!           |
|           W    W   A  A   R    R  NN   N  II  NN   N  G    G  !!!           |
|           W    W  A    A  R    R  N N  N  II  N N  N  G       !!!           |
|           W WW W  AAAAAA  RRRRR   N  N N  II  N  N N  G  GGG   !            |
|           WW  WW  A    A  R   R   N   NN  II  N   NN  G    G                |
|           W    W  A    A  R    R  N    N  II  N    N   GGGG   !!!           |
|     You have selected ISYM=2 for a HF type calculation. This will           |
|     symmetrize the charge density but not the exchange potential. I         |
|     suggest to use ISYM=3 instead. This uses symmetry to obtain the         |
|     orbitals at all k-points in the Brillouin zone, but does not apply      |
|     symmetry to the Hartree potential directly. The resultant charge        |
|     might have lower symmetry than the crystal but, at least, Hartree       |
|     and exchange are fully compatible.                                      |

   TITEL  = PAW_PBE Ag 02Apr2005
   POMASS =  107.868; ZVAL   =   11.000    mass and valenz
   ENMAX  =  249.844; ENMIN  =  187.383 eV

   TITEL  = PAW_PBE Mg_pv 13Apr2007
   POMASS =   24.305; ZVAL   =    8.000    mass and valenz
   ENMAX  =  403.929; ENMIN  =  302.947 eV

   TITEL  = PAW_PBE O 08Apr2002
   POMASS =   16.000; ZVAL   =    6.000    mass and valenz
   ENMAX  =  400.000; ENMIN  =  300.000 eV

 Optimization of the real space projectors (new method)

 maximal supplied QI-value         = 15.12
 optimisation between [QCUT,QGAM] = [ 11.64, 23.28] = [ 37.95,151.78] Ry
 Optimized for a Real-space Cutoff    1.45 Angstroem

   l    n(q)    QCUT    max X(q) W(low)/X(q) W(high)/X(q)  e(spline)
   2      9    11.641    53.897    0.22E-03    0.42E-04    0.28E-06
   2      9    11.641    52.416    0.23E-03    0.44E-04    0.29E-06
   0     10    11.641   122.045    0.51E-04    0.25E-04    0.16E-06
   0     10    11.641    73.629    0.49E-04    0.24E-04    0.16E-06
   1     10    11.641    15.255    0.99E-04    0.55E-04    0.11E-06
   1     10    11.641     9.562    0.81E-04    0.47E-04    0.95E-07
 Optimization of the real space projectors (new method)

[...]

   l    n(q)    QCUT    max X(q) W(low)/X(q) W(high)/X(q)  e(spline)
   1      8    11.527     2.974    0.44E-04    0.56E-04    0.12E-06
   1      8    11.527     4.279    0.12E-03    0.12E-03    0.26E-06
   0      9    11.527    16.381    0.46E-04    0.64E-04    0.78E-07
   0      9    11.527     5.611    0.26E-04    0.43E-04    0.55E-07
   2      8    11.527     4.652    0.22E-03    0.72E-04    0.47E-07
 Optimization of the real space projectors (new method)

 maximal supplied QI-value         = 24.76
 optimisation between [QCUT,QGAM] = [ 11.64, 23.27] = [ 37.91,151.63] Ry
 Optimized for a Real-space Cutoff    1.14 Angstroem

   l    n(q)    QCUT    max X(q) W(low)/X(q) W(high)/X(q)  e(spline)
   0      8    11.635    20.381    0.10E-03    0.33E-03    0.24E-06
   0      8    11.635    15.268    0.11E-03    0.35E-03    0.26E-06
   1      7    11.635     5.964    0.24E-03    0.31E-03    0.30E-06
   1      7    11.635     5.382    0.22E-03    0.25E-03    0.26E-06
  PAW_PBE Ag 02Apr2005                  :
  PAW_PBE Mg_pv 13Apr2007               :
  PAW_PBE O 08Apr2002                   :

 POSCAR: Ag Mg  O
  positions in direct lattice
  velocities in cartesian coordinates
 exchange correlation table for  LEXCH =        8
   RHO(1)=    0.500       N(1)  =     2000
   RHO(2)=  100.500       N(2)  =     4000

 ion  position               nearest neighbor table
   1  0.404  0.596  0.628-   2 2.63   4 2.74 157 2.77
   2  0.317  0.683  0.613- 138 2.50   1 2.63  59 3.04  40 3.04
   3  0.583  0.417  0.613- 173 2.50   4 2.63  75 3.04  56 3.04
   4  0.496  0.504  0.628-   3 2.63   1 2.74 154 2.77
   5  0.000  0.000  0.407- 107 2.11 108 2.11 123 2.11 188 2.11 105 2.11
   6  0.100  0.100  0.407- 107 2.11 108 2.11 112 2.11 127 2.11 106 2.11
   7  0.000  0.100  0.503- 105 2.11 106 2.11 109 2.11 186 2.11 107 2.11
   8  0.100  0.000  0.503- 105 2.11 106 2.11 122 2.11 125 2.11 108 2.11
   9  0.000  0.200  0.407- 111 2.11 107 2.11 112 2.11 192 2.11 109 2.11
  10  0.100  0.300  0.407- 112 2.11 111 2.11 116 2.11 131 2.11 110 2.11
  11  0.000  0.300  0.503- 109 2.11 110 2.11 113 2.11 190 2.11 111 2.11
  12  0.100  0.200  0.503- 110 2.11 109 2.11 106 2.11 129 2.11 112 2.11
  13  0.000  0.400  0.407- 111 2.11 115 2.11 116 2.11 196 2.11 113 2.11
  14  0.100  0.500  0.407- 115 2.11 116 2.11 120 2.11 135 2.11 114 2.11
  15  0.000  0.500  0.503- 113 2.11 114 2.11 117 2.11 194 2.11 115 2.11
  16  0.100  0.400  0.503- 110 2.11 113 2.11 114 2.11 133 2.11 116 2.11
  17  0.000  0.600  0.407- 115 2.11 119 2.11 120 2.11 200 2.11 117 2.11
  18  0.100  0.700  0.407- 124 2.11 120 2.11 119 2.11 139 2.11 118 2.11
  19  0.000  0.700  0.503- 121 2.11 118 2.11 117 2.11 198 2.11 119 2.11
  20  0.100  0.600  0.503- 114 2.11 117 2.11 118 2.11 137 2.11 120 2.11
  21  0.000  0.800  0.407- 119 2.11 123 2.11 124 2.11 204 2.11 121 2.11
  22  0.100  0.900  0.407- 108 2.11 123 2.11 124 2.11 143 2.11 122 2.11
  23  0.000  0.900  0.503- 105 2.11 121 2.11 122 2.11 202 2.11 123 2.11
  24  0.100  0.800  0.503- 118 2.11 121 2.11 122 2.11 141 2.11 124 2.11
  25  0.200  0.000  0.407- 128 2.11 127 2.11 108 2.11 143 2.11 125 2.11
  26  0.300  0.100  0.407- 127 2.11 128 2.11 132 2.11 147 2.11 126 2.11
  27  0.200  0.100  0.503- 126 2.11 125 2.11 106 2.11 129 2.11 127 2.11
  28  0.300  0.000  0.503- 125 2.11 126 2.11 142 2.11 145 2.11 128 2.11
  29  0.200  0.200  0.407- 131 2.11 132 2.11 112 2.11 127 2.11 129 2.11
  30  0.300  0.300  0.407- 131 2.11 132 2.11 136 2.11 151 2.11 130 2.11
  31  0.200  0.300  0.503- 129 2.11 130 2.11 110 2.11 133 2.11 131 2.11
  32  0.300  0.200  0.503- 129 2.11 130 2.11 126 2.11 149 2.11 132 2.11
  33  0.200  0.400  0.407- 136 2.11 131 2.11 135 2.11 116 2.11 133 2.11
  34  0.300  0.500  0.407- 135 2.11 136 2.11 140 2.11 155 2.11 134 2.11
  35  0.200  0.500  0.503- 134 2.11 133 2.11 114 2.11 137 2.11 135 2.11
  36  0.300  0.400  0.503- 133 2.11 130 2.11 134 2.11 153 2.11 136 2.11
  37  0.200  0.600  0.407- 140 2.11 135 2.11 139 2.11 120 2.11 137 2.11
  38  0.300  0.700  0.407- 139 2.11 144 2.11 140 2.11 159 2.11 138 2.11
  39  0.200  0.700  0.503- 138 2.11 141 2.11 118 2.11 137 2.11 139 2.11
  40  0.300  0.600  0.503- 137 2.11 134 2.11 138 2.11 157 2.11 140 2.11   2 3.04
  41  0.200  0.800  0.407- 139 2.11 144 2.11 143 2.11 124 2.11 141 2.11
  42  0.300  0.900  0.407- 143 2.11 128 2.11 144 2.11 163 2.11 142 2.11
  43  0.200  0.900  0.503- 142 2.11 125 2.11 141 2.11 122 2.11 143 2.11
  44  0.300  0.800  0.503- 138 2.11 141 2.11 142 2.11 161 2.11 144 2.11
  45  0.400  0.000  0.407- 128 2.11 147 2.11 148 2.11 163 2.11 145 2.11
  46  0.500  0.100  0.407- 147 2.11 148 2.11 152 2.11 167 2.11 146 2.11
  47  0.400  0.100  0.503- 126 2.11 145 2.11 146 2.11 149 2.11 147 2.11
  48  0.500  0.000  0.503- 145 2.11 146 2.11 162 2.11 165 2.11 148 2.11
  49  0.400  0.200  0.407- 151 2.11 147 2.11 132 2.11 152 2.11 149 2.11
  50  0.500  0.300  0.407- 152 2.11 151 2.11 156 2.11 171 2.11 150 2.11
  51  0.400  0.300  0.503- 149 2.11 130 2.11 150 2.11 153 2.11 151 2.11
  52  0.500  0.200  0.503- 150 2.11 149 2.11 146 2.11 169 2.11 152 2.11
  53  0.400  0.400  0.407- 136 2.11 151 2.11 155 2.11 156 2.11 153 2.11
  54  0.500  0.500  0.407- 155 2.11 156 2.11 160 2.11 175 2.11 154 2.11
  55  0.400  0.500  0.503- 134 2.11 153 2.11 154 2.11 157 2.11 155 2.11
  56  0.500  0.400  0.503- 150 2.11 153 2.11 154 2.11 173 2.11 156 2.11   3 3.04
  57  0.400  0.600  0.407- 140 2.11 155 2.11 159 2.11 160 2.11 157 2.11
  58  0.500  0.700  0.407- 164 2.11 160 2.11 159 2.11 179 2.11 158 2.11
  59  0.400  0.700  0.503- 161 2.11 157 2.11 158 2.11 138 2.11 159 2.11   2 3.04
  60  0.500  0.600  0.503- 154 2.11 157 2.11 158 2.11 177 2.11 160 2.11
[...]
 190  0.900  0.300  0.503-  92 2.11  91 2.11  11 2.11  96 2.11  90 2.11
 191  0.800  0.300  0.407-  70 2.11  89 2.11  90 2.11  93 2.11  91 2.11
 192  0.900  0.200  0.407-  90 2.11  86 2.11  89 2.11   9 2.11  92 2.11
 193  0.800  0.400  0.503-  76 2.11  91 2.11  95 2.11  96 2.11  93 2.11
 194  0.900  0.500  0.503-  15 2.11  95 2.11  96 2.11 100 2.11  94 2.11
 195  0.800  0.500  0.407-  74 2.11  93 2.11  94 2.11  97 2.11  95 2.11
 196  0.900  0.400  0.407-  13 2.11  90 2.11  93 2.11  94 2.11  96 2.11
 197  0.800  0.600  0.503-  80 2.11  95 2.11  99 2.11 100 2.11  97 2.11
 198  0.900  0.700  0.503- 104 2.11  99 2.11 100 2.11  19 2.11  98 2.11
 199  0.800  0.700  0.407-  78 2.11 101 2.11  98 2.11  97 2.11  99 2.11
 200  0.900  0.600  0.407-  17 2.11  94 2.11  97 2.11  98 2.11 100 2.11
 201  0.800  0.800  0.503-  84 2.11  99 2.11 103 2.11 104 2.11 101 2.11
 202  0.900  0.900  0.503-  23 2.11  88 2.11 103 2.11 104 2.11 102 2.11
 203  0.800  0.900  0.407-  82 2.11  85 2.11 101 2.11 102 2.11 103 2.11
 204  0.900  0.800  0.407-  98 2.11  21 2.11 101 2.11 102 2.11 104 2.11

  LATTYP: Found a simple tetragonal cell.
 ALAT       =    21.1388521970
 C/A-ratio  =     1.0461251639

  Lattice vectors:

 A1 = (  21.1388521970,   0.0000000000,   0.0000000000)
 A2 = (   0.0000000000,  21.1388521970,   0.0000000000)
 A3 = (   0.0000000000,   0.0000000000,  22.1138852197)

Analysis of symmetry for initial positions (statically):
 Subroutine PRICEL returns:
 Original cell was already a primitive cell.

 Routine SETGRP: Setting up the symmetry group for a
 simple tetragonal supercell.

 Subroutine GETGRP returns: Found  2 space group operations
 (whereof  1 operations were pure point group operations)
 out of a pool of 16 trial point group operations.

The static configuration has the point symmetry C_1 .
 The point group associated with its full space group is C_1h.

Analysis of symmetry for dynamics (positions and initial velocities):
 Subroutine PRICEL returns:
 Original cell was already a primitive cell.

[...]

The dynamic configuration has the point symmetry C_1 .
 The point group associated with its full space group is C_1h.

Analysis of constrained symmetry for selective dynamics:
 Subroutine PRICEL returns:
 Original cell was already a primitive cell.

 Routine SETGRP: Setting up the symmetry group for a
 simple tetragonal supercell.

 Subroutine GETGRP returns: Found  2 space group operations
 (whereof  1 operations were pure point group operations)
 out of a pool of 16 trial point group operations.

The constrained configuration has the point symmetry C_1 .
[...]
[...]
   1010       7.4087      0.00000
   1011       7.4275      0.00000
   1012       7.5598      0.00000
   1013       7.5643      0.00000
   1014       7.5898      0.00000
   1015       7.8219      0.00000
   1016       7.8846      0.00000
   1017       7.9416      0.00000
   1018       7.9797      0.00000
   1019       8.0182      0.00000
   1020       8.0496      0.00000
   1021       8.1656      0.00000
   1022       8.2659      0.00000
   1023       8.3148      0.00000
   1024       8.3433      0.00000

 soft charge-density along one line, spin component           1
         0         1         2         3         4         5         6         7         8         9
 total charge-density along one line

------------------------ aborting loop because EDIFF is reached ----------------------------------------

|           W    W    AA    RRRRR   N    N  II  N    N   GGGG   !!!           |
|           W    W   A  A   R    R  NN   N  II  NN   N  G    G  !!!           |
|           W    W  A    A  R    R  N N  N  II  N N  N  G       !!!           |
|           W WW W  AAAAAA  RRRRR   N  N N  II  N  N N  G  GGG   !            |
|           WW  WW  A    A  R   R   N   NN  II  N   NN  G    G                |
|           W    W  A    A  R    R  N    N  II  N    N   GGGG   !!!           |
|     Specifying the vdW parameters                                           |
|     VDW_A1 = 0.414                                                          |
|     VDW_A2 = 4.859                                                          |
|     VDW_S8 = 1.218                                                          |
|     in the INCAR file will overwrite the defaults for pbe0. Please make     |
|     sure that is what you intended.                                         |

         DFTD3 V3.0 Rev 1
 IVDW         = 12
 DF pbe0
 parameters
 VDW_S6       =    1.0000
 VDW_S8       =    1.2177
 VDW_A1       =    0.4145
 VDW_A2       =    4.8593
 k1-k3        =   16.0000    1.3333   -4.0000
 VDW_RADIUS   =   50.2022 A
 VDW_CNRADIUS =   21.1671 A
 Edisp (eV)  -33.32524

 E6    (eV) :   -16.4585
 E8    (eV) :   -16.8668
 % E8        : 50.61

 VOLUME and BASIS-vectors are now :
  energy-cutoff  :      520.00
  volume of cell :     9881.61
      direct lattice vectors                 reciprocal lattice vectors
    21.138852197  0.000000000  0.000000000     0.047306258  0.000000000  0.000000000
     0.000000000 21.138852197  0.000000000     0.000000000  0.047306258  0.000000000
     0.000000000  0.000000000 22.113885220     0.000000000  0.000000000  0.045220457

  length of vectors
    21.138852197 21.138852197 22.113885220     0.047306258  0.047306258  0.045220457

 FORCES acting on ions:
    Electron-Ion                     Ewald-Force                    Non-Local-Force
   0.245E+02 -.245E+02 -.207E+04   -.273E+02 0.273E+02 0.207E+04   0.250E+01 -.250E+01 -.258E-01
   0.235E+03 -.235E+03 -.209E+04   -.231E+03 0.231E+03 0.209E+04   -.447E+01 0.447E+01 -.448E+00
   -.235E+03 0.235E+03 -.209E+04   0.231E+03 -.231E+03 0.209E+04   0.447E+01 -.447E+01 -.448E+00
   -.245E+02 0.245E+02 -.207E+04   0.273E+02 -.273E+02 0.207E+04   -.250E+01 0.250E+01 -.258E-01
   0.489E+01 -.489E+01 0.939E+03   -.492E+01 0.492E+01 -.930E+03   0.188E-01 -.188E-01 -.711E+01
   0.905E+01 0.161E+01 0.940E+03   -.905E+01 -.156E+01 -.931E+03   -.297E-02 -.353E-01 -.711E+01
   0.313E+01 0.314E+01 -.919E+03   -.312E+01 -.312E+01 0.911E+03   -.135E-01 -.135E-01 0.705E+01
   0.146E+02 -.117E+02 -.916E+03   -.146E+02 0.118E+02 0.908E+03   0.184E-01 -.669E-01 0.705E+01
   0.161E+01 0.905E+01 0.940E+03   -.156E+01 -.905E+01 -.931E+03   -.353E-01 -.297E-02 -.711E+01
   0.143E+02 0.157E+02 0.945E+03   -.142E+02 -.157E+02 -.937E+03   -.296E-01 0.437E-03 -.712E+01
   0.212E+01 0.156E+02 -.916E+03   -.203E+01 -.156E+02 0.907E+03   -.612E-01 -.223E-02 0.704E+01
   0.130E+02 0.130E+02 -.917E+03   -.129E+02 -.129E+02 0.908E+03   -.270E-01 -.270E-01 0.704E+01
   0.445E+01 0.112E+02 0.946E+03   -.438E+01 -.112E+02 -.938E+03   -.464E-01 0.977E-02 -.712E+01
   0.289E+02 0.120E+02 0.959E+03   -.289E+02 -.121E+02 -.950E+03   0.798E-02 0.672E-01 -.713E+01
   0.127E+02 0.835E+01 -.910E+03   -.127E+02 -.838E+01 0.901E+03   -.211E-01 0.180E-01 0.704E+01
   0.305E+02 0.240E+02 -.908E+03   -.304E+02 -.241E+02 0.899E+03   -.616E-01 0.242E-01 0.703E+01
   0.128E+02 -.213E+01 0.951E+03   -.129E+02 0.210E+01 -.942E+03   0.458E-01 0.210E-01 -.712E+01
   0.337E+02 -.125E+02 0.963E+03   -.340E+02 0.125E+02 -.955E+03   0.191E+00 0.321E-01 -.711E+01
   0.225E+02 -.126E+02 -.909E+03   -.226E+02 0.125E+02 0.901E+03   0.105E+00 0.161E-01 0.704E+01
   0.606E+02 0.527E+01 -.892E+03   -.608E+02 -.541E+01 0.884E+03   0.102E+00 0.953E-01 0.703E+01
   0.120E+02 -.133E+02 0.945E+03   -.121E+02 0.133E+02 -.937E+03   0.899E-01 -.896E-02 -.711E+01
   0.168E+02 -.168E+02 0.947E+03   -.169E+02 0.169E+02 -.938E+03   0.644E-01 -.644E-01 -.710E+01
   0.117E+02 -.146E+02 -.916E+03   -.118E+02 0.146E+02 0.908E+03   0.669E-01 -.183E-01 0.705E+01
   0.428E+02 -.304E+02 -.902E+03   -.431E+02 0.304E+02 0.893E+03   0.238E+00 -.255E-01 0.706E+01
   0.133E+02 -.120E+02 0.945E+03   -.133E+02 0.122E+02 -.937E+03   0.896E-02 -.898E-01 -.711E+01
   0.112E+02 0.445E+01 0.946E+03   -.112E+02 -.438E+01 -.938E+03   0.977E-02 -.464E-01 -.712E+01
   0.156E+02 0.212E+01 -.916E+03   -.156E+02 -.203E+01 0.907E+03   -.223E-02 -.612E-01 0.704E+01
   0.126E+02 -.225E+02 -.909E+03   -.125E+02 0.226E+02 0.901E+03   -.161E-01 -.105E+00 0.704E+01
   0.157E+02 0.143E+02 0.945E+03   -.157E+02 -.142E+02 -.937E+03   0.437E-03 -.296E-01 -.712E+01
   0.264E+02 0.335E+02 0.965E+03   -.264E+02 -.335E+02 -.956E+03   0.515E-01 -.107E-01 -.716E+01
   0.333E+02 0.333E+02 -.906E+03   -.333E+02 -.333E+02 0.898E+03   -.342E-01 -.342E-01 0.702E+01
   0.240E+02 0.305E+02 -.908E+03   -.241E+02 -.304E+02 0.899E+03   0.242E-01 -.616E-01 0.703E+01
   0.335E+02 0.264E+02 0.965E+03   -.335E+02 -.264E+02 -.956E+03   -.107E-01 0.515E-01 -.716E+01
   0.466E+02 0.293E+02 0.101E+04   -.467E+02 -.296E+02 -.101E+04   0.509E-01 0.223E+00 -.729E+01
   0.816E+02 0.439E+02 -.871E+03   -.814E+02 -.441E+02 0.863E+03   -.114E+00 0.185E+00 0.696E+01
   0.719E+02 0.719E+02 -.864E+03   -.718E+02 -.718E+02 0.856E+03   -.495E-01 -.495E-01 0.695E+01
   0.514E+02 0.399E+01 0.995E+03   -.516E+02 -.427E+01 -.986E+03   0.126E+00 0.184E+00 -.710E+01
   0.340E+02 -.340E+02 0.103E+04   -.340E+02 0.339E+02 -.102E+04   -.212E-01 0.210E-01 -.594E+01
   0.116E+03 -.393E+02 -.828E+03   -.117E+03 0.391E+02 0.819E+03   0.996E+00 0.154E+00 0.716E+01
   0.123E+03 0.488E+02 -.710E+03   -.123E+03 -.506E+02 0.703E+03   0.868E-01 0.115E+01 0.607E+01
   0.324E+02 -.324E+02 0.974E+03   -.326E+02 0.326E+02 -.966E+03   0.116E+00 -.116E+00 -.698E+01
   0.126E+02 -.337E+02 0.963E+03   -.125E+02 0.340E+02 -.955E+03   -.321E-01 -.191E+00 -.711E+01
   0.304E+02 -.428E+02 -.902E+03   -.304E+02 0.431E+02 0.893E+03   0.255E-01 -.238E+00 0.706E+01
   0.393E+02 -.116E+03 -.828E+03   -.391E+02 0.117E+03 0.819E+03   -.154E+00 -.996E+00 0.716E+01
   0.213E+01 -.128E+02 0.951E+03   -.210E+01 0.129E+02 -.942E+03   -.210E-01 -.458E-01 -.712E+01
   -.213E+01 0.128E+02 0.951E+03   0.210E+01 -.129E+02 -.942E+03   0.210E-01 0.458E-01 -.712E+01
   0.835E+01 0.128E+02 -.910E+03   -.838E+01 -.127E+02 0.901E+03   0.180E-01 -.211E-01 0.704E+01
   -.835E+01 -.128E+02 -.910E+03   0.838E+01 0.127E+02 0.901E+03   -.180E-01 0.212E-01 0.704E+01
   0.120E+02 0.289E+02 0.959E+03   -.121E+02 -.289E+02 -.950E+03   0.672E-01 0.798E-02 -.713E+01
   0.399E+01 0.514E+02 0.995E+03   -.427E+01 -.516E+02 -.986E+03   0.184E+00 0.126E+00 -.710E+01
   0.439E+02 0.816E+02 -.871E+03   -.441E+02 -.814E+02 0.863E+03   0.185E+00 -.114E+00 0.696E+01
   0.527E+01 0.606E+02 -.892E+03   -.541E+01 -.608E+02 0.884E+03   0.953E-01 0.102E+00 0.703E+01
   0.293E+02 0.466E+02 0.101E+04   -.296E+02 -.467E+02 -.101E+04   0.223E+00 0.509E-01 -.729E+01
   -.111E+02 0.111E+02 0.106E+04   0.109E+02 -.109E+02 -.105E+04   0.132E+00 -.132E+00 -.696E+01
   0.857E+02 0.857E+02 -.705E+03   -.863E+02 -.863E+02 0.697E+03   0.373E+00 0.373E+00 0.652E+01
   0.488E+02 0.123E+03 -.710E+03   -.506E+02 -.123E+03 0.703E+03   0.115E+01 0.868E-01 0.607E+01
   0.111E+02 -.111E+02 0.106E+04   -.109E+02 0.109E+02 -.105E+04   -.132E+00 0.132E+00 -.696E+01
   -.293E+02 -.466E+02 0.101E+04   0.296E+02 0.467E+02 -.101E+04   -.223E+00 -.509E-01 -.729E+01
   -.487E+02 -.123E+03 -.710E+03   0.506E+02 0.123E+03 0.703E+03   -.115E+01 -.869E-01 0.606E+01
   -.857E+02 -.857E+02 -.705E+03   0.863E+02 0.863E+02 0.697E+03   -.373E+00 -.373E+00 0.652E+01
[...]
   -.193E+02 0.147E+02 0.718E+03   0.194E+02 -.148E+02 -.722E+03   -.141E+00 0.501E-01 0.311E+01
   -.621E+01 0.833E+01 0.707E+03   0.625E+01 -.834E+01 -.711E+03   -.532E-01 0.261E-01 0.307E+01
   -.458E+02 0.136E+02 -.670E+03   0.460E+02 -.135E+02 0.674E+03   -.177E+00 -.691E-01 -.317E+01
   -.151E+02 0.148E+01 -.682E+03   0.151E+02 -.144E+01 0.686E+03   -.378E-01 -.342E-01 -.318E+01
   -.261E+02 -.707E+00 0.724E+03   0.261E+02 0.794E+00 -.728E+03   -.822E-01 -.955E-01 0.307E+01
   -.107E+02 0.734E+01 0.713E+03   0.107E+02 -.732E+01 -.717E+03   -.743E-01 -.121E-01 0.307E+01
   -.345E+02 -.150E+02 -.676E+03   0.345E+02 0.151E+02 0.680E+03   -.277E-02 -.836E-01 -.321E+01
   -.432E+01 -.110E+02 -.686E+03   0.428E+01 0.110E+02 0.690E+03   0.425E-01 -.422E-02 -.317E+01
   -.157E+02 -.126E+02 0.715E+03   0.157E+02 0.126E+02 -.719E+03   0.232E-01 -.256E-01 0.305E+01
   -.650E+01 -.442E+01 0.713E+03   0.649E+01 0.444E+01 -.717E+03   0.667E-02 -.201E-01 0.306E+01
   -.145E+02 -.157E+02 -.686E+03   0.144E+02 0.157E+02 0.690E+03   0.404E-01 0.145E-01 -.318E+01
   -.119E+01 -.845E+01 -.690E+03   0.115E+01 0.845E+01 0.694E+03   0.355E-01 0.407E-02 -.316E+01
   -.765E+01 -.764E+01 0.707E+03   0.763E+01 0.763E+01 -.711E+03   0.180E-01 0.180E-01 0.306E+01
   -.153E+01 -.923E+01 0.708E+03   0.148E+01 0.924E+01 -.712E+03   0.438E-01 -.281E-02 0.307E+01
   -.725E+00 0.725E+00 0.127E+02   0.193E-11 0.134E-11 0.728E-11   -.159E-02 -.159E-02 -.116E+02

 POSITION                                       TOTAL-FORCE (eV/Angst)
      8.54453     12.59533     13.88470        -0.091314      0.090944     -0.002684
      6.69899     14.44084     13.56395        -0.014274      0.013661     -0.026977
     12.32695      8.81289     13.56395         0.013661     -0.014274     -0.026977
     10.48144     10.65841     13.88470         0.090944     -0.091314     -0.002684
      0.00000      0.00000      9.00000        -0.006084      0.006084      0.608701
      2.11389      2.11389      9.00000         0.000930      0.011046      0.610258
      0.00000      2.11389     11.11389         0.004190      0.004190     -0.585300
      2.11389      0.00000     11.11389        -0.005956      0.020566     -0.584652
      0.00000      4.22777      9.00000         0.011046      0.000930      0.610258
      2.11389      6.34166      9.00000         0.009593      0.000454      0.614219
      0.00000      6.34166     11.11389         0.018966      0.001091     -0.582468
      2.11389      4.22777     11.11389         0.008827      0.008827     -0.582653
      0.00000      8.45554      9.00000         0.014135     -0.002803      0.612008
      2.11389     10.56943      9.00000        -0.002826     -0.021542      0.615208
      0.00000     10.56943     11.11389         0.007262     -0.005382     -0.577637
      2.11389      8.45554     11.11389         0.020857     -0.005627     -0.573086
      0.00000     12.68331      9.00000        -0.013987     -0.007230      0.611536
      2.11389     14.79720      9.00000        -0.055536     -0.011431      0.607127
      0.00000     14.79720     11.11389        -0.030357     -0.005833     -0.580293
      2.11389     12.68331     11.11389        -0.024437     -0.030589     -0.564474
      0.00000     16.91108      9.00000        -0.027432      0.003017      0.608991
      2.11389     19.02497      9.00000        -0.021522      0.021527      0.602882
      0.00000     19.02497     11.11389        -0.020568      0.005960     -0.584655
      2.11389     16.91108     11.11389        -0.070894      0.007187     -0.583953
      4.22777      0.00000      9.00000        -0.003012      0.027427      0.608981
      6.34166      2.11389      9.00000        -0.002803      0.014135      0.612008
      4.22777      2.11389     11.11389         0.001091      0.018966     -0.582468
      6.34166      0.00000     11.11389         0.005847      0.030344     -0.580289
      4.22777      4.22777      9.00000         0.000454      0.009593      0.614219
      6.34166      6.34166      9.00000        -0.013721      0.005125      0.626851
      4.22777      6.34166     11.11389         0.013143      0.013143     -0.571295
      6.34166      4.22777     11.11389        -0.005627      0.020857     -0.573086
      4.22777      8.45554      9.00000         0.005125     -0.013721      0.626851
      6.34166     10.56943      9.00000        -0.010833     -0.064158      0.664351
      4.22777     10.56943     11.11389         0.057366     -0.039920     -0.512393
      6.34166      8.45554     11.11389         0.033340      0.033340     -0.511590
      4.22777     12.68331      9.00000        -0.042061     -0.065932      0.600035
      6.34166     14.79720      9.00000         0.010458     -0.010396      0.292314
      4.22777     14.79720     11.11389        -0.379193     -0.060791     -0.670990
      6.34166     12.68331     11.11389        -0.030167     -0.524077     -0.385811
      4.22777     16.91108      9.00000        -0.042357      0.042378      0.562579
      6.34166     19.02497      9.00000         0.011448      0.055529      0.607132
      4.22777     19.02497     11.11389        -0.007173      0.070894     -0.583956
      6.34166     16.91108     11.11389         0.060814      0.379279     -0.671104
      8.45554      0.00000      9.00000         0.007245      0.013974      0.611538
     10.56943      2.11389      9.00000        -0.007230     -0.013987      0.611536
      8.45554      2.11389     11.11389        -0.005382      0.007262     -0.577637
     10.56943      0.00000     11.11389         0.005394     -0.007286     -0.577633
      8.45554      4.22777      9.00000        -0.021542     -0.002826      0.615208
     10.56943      6.34166      9.00000        -0.065932     -0.042061      0.600035
      8.45554      6.34166     11.11389        -0.039920      0.057366     -0.512393
     10.56943      4.22777     11.11389        -0.030589     -0.024437     -0.564474
      8.45554      8.45554      9.00000        -0.064158     -0.010833      0.664351
     10.56943     10.56943      9.00000        -0.049621      0.049682      0.544098
      8.45554     10.56943     11.11389        -0.154936     -0.154936     -0.425167
     10.56943      8.45554     11.11389        -0.524077     -0.030167     -0.385811
      8.45554     12.68331      9.00000         0.049682     -0.049621      0.544098
     10.56943     14.79720      9.00000         0.064189      0.010851      0.664441
      8.45554     14.79720     11.11389         0.524483      0.030225     -0.385940
     10.56943     12.68331     11.11389         0.155105      0.155105     -0.425133
[...]
     19.02497      6.34166     11.11389        -0.027938      0.003782      0.395381
     16.91108      6.34166      9.00000        -0.047985      0.016824     -0.407791
     19.02497      4.22777      9.00000        -0.017737      0.008689     -0.420218
     16.91108      8.45554     11.11389        -0.063139     -0.022221      0.395894
     19.02497     10.56943     11.11389        -0.012950     -0.011395      0.389629
     16.91108     10.56943      9.00000        -0.029418     -0.031866     -0.421345
     19.02497      8.45554      9.00000        -0.024997     -0.004011     -0.420459
     16.91108     12.68331     11.11389        -0.002359     -0.028574      0.379064
     19.02497     14.79720     11.11389         0.014080     -0.001429      0.391258
     16.91108     14.79720      9.00000         0.007542     -0.008691     -0.428262
     19.02497     12.68331      9.00000         0.002156     -0.006679     -0.424579
     16.91108     16.91108     11.11389         0.013257      0.004647      0.390068
     19.02497     19.02497     11.11389         0.011753      0.001314      0.395894
     16.91108     19.02497      9.00000         0.005945      0.005945     -0.423898
     19.02497     16.91108      9.00000         0.014574     -0.000960     -0.423056
    total drift:                               -0.725691      0.724417     -0.532974

  FREE ENERGIE OF THE ION-ELECTRON SYSTEM (eV)
  free  energy   TOTEN  =     -1459.58845827 eV

  energy  without entropy=    -1459.58845827  energy(sigma->0) =    -1459.58845827