 vasp.6.3.0 20Jan22 (build Apr  1 2022 16:44:48) complex
 executed on        HPECrayEX_GCC date 2023.02.09  22:44:25

 INCAR:
   SYSTEM = MgO-rocksalt
   ISMEAR = 0
   SIGMA = 0.05
   EDIFF = 1E-6
   ALGO = ALL
   ISTART = 0
   IBRION = -1
   NSW = 0
   ISYM = 2
   DIPOL = 0.5 0.5 0.5
   IDIPOL = 3
   LDIPOL = .TRUE.
   LHFCALC = .TRUE.
   HFSCREEN = 0.2
   GGA = PE
   ENCUT = 520
   PREC = Accurate
   LASPH = .TRUE.
   LREAL = Auto
   ISPIN = 1
   NELM = 200
   NELMIN = 8
   NCORE = 4
   KPAR = 2
   LWAVE = .FALSE.
   LCHARG = .FALSE.

 POTCAR:    PAW_PBE Ag 02Apr2005
 POTCAR:    PAW_PBE Mg_pv 13Apr2007
 POTCAR:    PAW_PBE O 08Apr2002
|           W    W    AA    RRRRR   N    N  II  N    N   GGGG   !!!           |
|           W    W   A  A   R    R  NN   N  II  NN   N  G    G  !!!           |
|           W    W  A    A  R    R  N N  N  II  N N  N  G       !!!           |
|           W WW W  AAAAAA  RRRRR   N  N N  II  N  N N  G  GGG   !            |
|           WW  WW  A    A  R   R   N   NN  II  N   NN  G    G                |
|           W    W  A    A  R    R  N    N  II  N    N   GGGG   !!!           |
|     You have selected ISYM=2 for a HF type calculation. This will           |
|     symmetrize the charge density but not the exchange potential. I         |
|     suggest to use ISYM=3 instead. This uses symmetry to obtain the         |
|     orbitals at all k-points in the Brillouin zone, but does not apply      |
|     symmetry to the Hartree potential directly. The resultant charge        |
|     might have lower symmetry than the crystal but, at least, Hartree       |
|     and exchange are fully compatible.                                      |

   TITEL  = PAW_PBE Ag 02Apr2005
   POMASS =  107.868; ZVAL   =   11.000    mass and valenz
   ENMAX  =  249.844; ENMIN  =  187.383 eV

   TITEL  = PAW_PBE Mg_pv 13Apr2007
   POMASS =   24.305; ZVAL   =    8.000    mass and valenz
   ENMAX  =  403.929; ENMIN  =  302.947 eV

   TITEL  = PAW_PBE O 08Apr2002
   POMASS =   16.000; ZVAL   =    6.000    mass and valenz
   ENMAX  =  400.000; ENMIN  =  300.000 eV

 Optimization of the real space projectors (new method)

 maximal supplied QI-value         = 15.12
 optimisation between [QCUT,QGAM] = [ 11.64, 23.28] = [ 37.95,151.78] Ry
 Optimized for a Real-space Cutoff    1.45 Angstroem

   l    n(q)    QCUT    max X(q) W(low)/X(q) W(high)/X(q)  e(spline)
   2      9    11.641    53.897    0.22E-03    0.42E-04    0.28E-06
   2      9    11.641    52.416    0.23E-03    0.44E-04    0.29E-06
   0     10    11.641   122.045    0.51E-04    0.25E-04    0.16E-06
   0     10    11.641    73.629    0.49E-04    0.24E-04    0.16E-06
   1     10    11.641    15.255    0.99E-04    0.55E-04    0.11E-06
   1     10    11.641     9.562    0.81E-04    0.47E-04    0.95E-07
 Optimization of the real space projectors (new method)

[...]

   l    n(q)    QCUT    max X(q) W(low)/X(q) W(high)/X(q)  e(spline)
   1      8    11.527     2.974    0.44E-04    0.56E-04    0.12E-06
   1      8    11.527     4.279    0.12E-03    0.12E-03    0.26E-06
   0      9    11.527    16.381    0.46E-04    0.64E-04    0.78E-07
   0      9    11.527     5.611    0.26E-04    0.43E-04    0.55E-07
   2      8    11.527     4.652    0.22E-03    0.72E-04    0.47E-07
 Optimization of the real space projectors (new method)

 maximal supplied QI-value         = 24.76
 optimisation between [QCUT,QGAM] = [ 11.64, 23.27] = [ 37.91,151.63] Ry
 Optimized for a Real-space Cutoff    1.14 Angstroem

   l    n(q)    QCUT    max X(q) W(low)/X(q) W(high)/X(q)  e(spline)
   0      8    11.635    20.381    0.10E-03    0.33E-03    0.24E-06
   0      8    11.635    15.268    0.11E-03    0.35E-03    0.26E-06
   1      7    11.635     5.964    0.24E-03    0.31E-03    0.30E-06
   1      7    11.635     5.382    0.22E-03    0.25E-03    0.26E-06
  PAW_PBE Ag 02Apr2005                  :
  PAW_PBE Mg_pv 13Apr2007               :
  PAW_PBE O 08Apr2002                   :

 POSCAR: Ag Mg  O
  positions in direct lattice
 exchange correlation table for  LEXCH =        8
   RHO(1)=    0.500       N(1)  =     2000
   RHO(2)=  100.500       N(2)  =     4000

 ion  position               nearest neighbor table
   1  0.543  0.557  0.623-   2 2.59  58 2.97
   2  0.457  0.643  0.623-   1 2.59  58 2.97
   3  0.000  0.000  0.407- 105 2.11 106 2.11 121 2.11 186 2.11 103 2.11
   4  0.100  0.100  0.407- 105 2.11 106 2.11 110 2.11 125 2.11 104 2.11
   5  0.000  0.100  0.503- 103 2.11 104 2.11 107 2.11 184 2.11 105 2.11
   6  0.100  0.000  0.503- 103 2.11 104 2.11 120 2.11 123 2.11 106 2.11
   7  0.000  0.200  0.407- 109 2.11 105 2.11 110 2.11 190 2.11 107 2.11
   8  0.100  0.300  0.407- 110 2.11 109 2.11 114 2.11 129 2.11 108 2.11
   9  0.000  0.300  0.503- 107 2.11 108 2.11 111 2.11 188 2.11 109 2.11
  10  0.100  0.200  0.503- 108 2.11 107 2.11 104 2.11 127 2.11 110 2.11
  11  0.000  0.400  0.407- 109 2.11 113 2.11 114 2.11 194 2.11 111 2.11
  12  0.100  0.500  0.407- 113 2.11 114 2.11 118 2.11 133 2.11 112 2.11
  13  0.000  0.500  0.503- 111 2.11 112 2.11 115 2.11 192 2.11 113 2.11
  14  0.100  0.400  0.503- 108 2.11 111 2.11 112 2.11 131 2.11 114 2.11
  15  0.000  0.600  0.407- 113 2.11 117 2.11 118 2.11 198 2.11 115 2.11
  16  0.100  0.700  0.407- 122 2.11 118 2.11 117 2.11 137 2.11 116 2.11
  17  0.000  0.700  0.503- 119 2.11 116 2.11 115 2.11 196 2.11 117 2.11
  18  0.100  0.600  0.503- 112 2.11 115 2.11 116 2.11 135 2.11 118 2.11
  19  0.000  0.800  0.407- 117 2.11 121 2.11 122 2.11 202 2.11 119 2.11
  20  0.100  0.900  0.407- 106 2.11 121 2.11 122 2.11 141 2.11 120 2.11
  21  0.000  0.900  0.503- 103 2.11 119 2.11 120 2.11 200 2.11 121 2.11
  22  0.100  0.800  0.503- 116 2.11 119 2.11 120 2.11 139 2.11 122 2.11
  23  0.200  0.000  0.407- 126 2.11 125 2.11 106 2.11 141 2.11 123 2.11
  24  0.300  0.100  0.407- 125 2.11 126 2.11 130 2.11 145 2.11 124 2.11
  25  0.200  0.100  0.503- 124 2.11 123 2.11 104 2.11 127 2.11 125 2.11
  26  0.300  0.000  0.503- 123 2.11 124 2.11 140 2.11 143 2.11 126 2.11
  27  0.200  0.200  0.407- 129 2.11 130 2.11 110 2.11 125 2.11 127 2.11
  28  0.300  0.300  0.407- 129 2.11 130 2.11 134 2.11 149 2.11 128 2.11
  29  0.200  0.300  0.503- 127 2.11 128 2.11 108 2.11 131 2.11 129 2.11
  30  0.300  0.200  0.503- 127 2.11 128 2.11 124 2.11 147 2.11 130 2.11
  31  0.200  0.400  0.407- 134 2.11 129 2.11 133 2.11 114 2.11 131 2.11
  32  0.300  0.500  0.407- 133 2.11 134 2.11 138 2.11 153 2.11 132 2.11
  33  0.200  0.500  0.503- 132 2.11 131 2.11 112 2.11 135 2.11 133 2.11
  34  0.300  0.400  0.503- 131 2.11 128 2.11 132 2.11 151 2.11 134 2.11
  35  0.200  0.600  0.407- 138 2.11 133 2.11 137 2.11 118 2.11 135 2.11
  36  0.300  0.700  0.407- 137 2.11 142 2.11 138 2.11 157 2.11 136 2.11
  37  0.200  0.700  0.503- 136 2.11 139 2.11 116 2.11 135 2.11 137 2.11
  38  0.300  0.600  0.503- 135 2.11 132 2.11 136 2.11 155 2.11 138 2.11
  39  0.200  0.800  0.407- 137 2.11 142 2.11 141 2.11 122 2.11 139 2.11
  40  0.300  0.900  0.407- 141 2.11 126 2.11 142 2.11 161 2.11 140 2.11
  41  0.200  0.900  0.503- 140 2.11 123 2.11 139 2.11 120 2.11 141 2.11
  42  0.300  0.800  0.503- 136 2.11 139 2.11 140 2.11 159 2.11 142 2.11
  43  0.400  0.000  0.407- 126 2.11 145 2.11 146 2.11 161 2.11 143 2.11
  44  0.500  0.100  0.407- 145 2.11 146 2.11 150 2.11 165 2.11 144 2.11
  45  0.400  0.100  0.503- 124 2.11 143 2.11 144 2.11 147 2.11 145 2.11
  46  0.500  0.000  0.503- 143 2.11 144 2.11 160 2.11 163 2.11 146 2.11
  47  0.400  0.200  0.407- 149 2.11 145 2.11 130 2.11 150 2.11 147 2.11
  48  0.500  0.300  0.407- 150 2.11 149 2.11 154 2.11 169 2.11 148 2.11
  49  0.400  0.300  0.503- 147 2.11 128 2.11 148 2.11 151 2.11 149 2.11
  50  0.500  0.200  0.503- 148 2.11 147 2.11 144 2.11 167 2.11 150 2.11
  51  0.400  0.400  0.407- 134 2.11 149 2.11 153 2.11 154 2.11 151 2.11
  52  0.500  0.500  0.407- 153 2.11 154 2.11 158 2.11 173 2.11 152 2.11
  53  0.400  0.500  0.503- 132 2.11 151 2.11 152 2.11 155 2.11 153 2.11
  54  0.500  0.400  0.503- 148 2.11 151 2.11 152 2.11 171 2.11 154 2.11
  55  0.400  0.600  0.407- 138 2.11 153 2.11 157 2.11 158 2.11 155 2.11
  56  0.500  0.700  0.407- 162 2.11 158 2.11 157 2.11 177 2.11 156 2.11
  57  0.400  0.700  0.503- 159 2.11 155 2.11 156 2.11 136 2.11 157 2.11
  58  0.500  0.600  0.503- 152 2.11 155 2.11 156 2.11 175 2.11 158 2.11   2 2.97   1 2.97
  59  0.400  0.800  0.407- 157 2.11 142 2.11 161 2.11 162 2.11 159 2.11
  60  0.500  0.900  0.407- 146 2.11 161 2.11 162 2.11 181 2.11 160 2.11
[...]
 188  0.900  0.300  0.503-  90 2.11  89 2.11   9 2.11  94 2.11  88 2.11
 189  0.800  0.300  0.407-  68 2.11  87 2.11  88 2.11  91 2.11  89 2.11
 190  0.900  0.200  0.407-  88 2.11  84 2.11  87 2.11   7 2.11  90 2.11
 191  0.800  0.400  0.503-  74 2.11  89 2.11  93 2.11  94 2.11  91 2.11
 192  0.900  0.500  0.503-  13 2.11  93 2.11  94 2.11  98 2.11  92 2.11
 193  0.800  0.500  0.407-  72 2.11  91 2.11  92 2.11  95 2.11  93 2.11
 194  0.900  0.400  0.407-  11 2.11  88 2.11  91 2.11  92 2.11  94 2.11
 195  0.800  0.600  0.503-  78 2.11  93 2.11  97 2.11  98 2.11  95 2.11
 196  0.900  0.700  0.503- 102 2.11  97 2.11  98 2.11  17 2.11  96 2.11
 197  0.800  0.700  0.407-  76 2.11  99 2.11  96 2.11  95 2.11  97 2.11
 198  0.900  0.600  0.407-  15 2.11  92 2.11  95 2.11  96 2.11  98 2.11
 199  0.800  0.800  0.503-  82 2.11  97 2.11 101 2.11 102 2.11  99 2.11
 200  0.900  0.900  0.503-  21 2.11  86 2.11 101 2.11 102 2.11 100 2.11
 201  0.800  0.900  0.407-  80 2.11  83 2.11  99 2.11 100 2.11 101 2.11
 202  0.900  0.800  0.407-  96 2.11  19 2.11  99 2.11 100 2.11 102 2.11

  LATTYP: Found a simple tetragonal cell.
 ALAT       =    21.1388521970
 C/A-ratio  =     1.0461251639

  Lattice vectors:

 A1 = (  21.1388521970,   0.0000000000,   0.0000000000)
 A2 = (   0.0000000000,  21.1388521970,   0.0000000000)
 A3 = (   0.0000000000,   0.0000000000,  22.1138852197)

Analysis of symmetry for initial positions (statically):
 Subroutine PRICEL returns:
 Original cell was already a primitive cell.

 Routine SETGRP: Setting up the symmetry group for a
 simple tetragonal supercell.

 Subroutine GETGRP returns: Found  4 space group operations
 (whereof  1 operations were pure point group operations)
 out of a pool of 16 trial point group operations.

The static configuration has the point symmetry C_1 .
 The point group associated with its full space group is C_2v.

Analysis of symmetry for dynamics (positions and initial velocities):
 Subroutine PRICEL returns:
 Original cell was already a primitive cell.

 Routine SETGRP: Setting up the symmetry group for a
 simple tetragonal supercell.

 Subroutine GETGRP returns: Found  4 space group operations
 (whereof  1 operations were pure point group operations)
 out of a pool of 16 trial point group operations.

The dynamic configuration has the point symmetry C_1 .
 The point group associated with its full space group is C_2v.

 Subroutine INISYM returns: Found  4 space group operations
 (whereof  1 operations are pure point group operations),
 and found     1 'primitive' translations

                                     Primitive cell

  volume of cell :    9881.6133

[...]
     22     -46.5913      2.00000
     23     -46.5886      2.00000
     24     -46.5884      2.00000
     25     -46.5875      2.00000
     26     -46.5869      2.00000
     27     -46.5864      2.00000
     28     -46.5860      2.00000
     29     -46.5851      2.00000
     30     -46.5850      2.00000
     31     -46.5848      2.00000
     32     -46.5838      2.00000
     33     -46.5824      2.00000
     34     -46.5822      2.00000
     35     -46.5821      2.00000
     36     -46.5818      2.00000
     37     -46.5809      2.00000
     38     -46.5803      2.00000
     39     -46.5798      2.00000
     40     -46.5797      2.00000
     41     -46.5791      2.00000
     42     -46.5786      2.00000
     43     -46.5781      2.00000
     44     -46.5773      2.00000
     45     -46.5772      2.00000
     46     -46.5770      2.00000
     47     -46.5770      2.00000
     48     -46.5761      2.00000
     49     -46.5755      2.00000
     50     -46.5746      2.00000
     51     -46.5740      2.00000
     52     -46.5735      2.00000
     53     -46.5734      2.00000
     54     -46.5733      2.00000
     55     -46.5730      2.00000
     56     -46.5718      2.00000
     57     -46.5715      2.00000
     58     -46.5714      2.00000
     59     -46.5711      2.00000
     60     -46.5703      2.00000
[...]
   1138       8.3054      0.00000
   1139       8.3928      0.00000
   1140       8.4883      0.00000
   1141       8.5359      0.00000
   1142       8.5458      0.00000
   1143       8.5472      0.00000
   1144       8.5663      0.00000
   1145       8.6845      0.00000
   1146       8.9183      0.00000
   1147       9.0443      0.00000
   1148       9.0485      0.00000
   1149       9.0538      0.00000
   1150       9.0596      0.00000
   1151       9.0746      0.00000
   1152       9.1421      0.00000

 soft charge-density along one line, spin component           1
         0         1         2         3         4         5         6         7         8         9
 total charge-density along one line

------------------------ aborting loop because EDIFF is reached ----------------------------------------

 VOLUME and BASIS-vectors are now :
  energy-cutoff  :      520.00
  volume of cell :     9881.61
      direct lattice vectors                 reciprocal lattice vectors
    21.138852197  0.000000000  0.000000000     0.047306258  0.000000000  0.000000000
     0.000000000 21.138852197  0.000000000     0.000000000  0.047306258  0.000000000
     0.000000000  0.000000000 22.113885220     0.000000000  0.000000000  0.045220457

  length of vectors
    21.138852197 21.138852197 22.113885220     0.047306258  0.047306258  0.045220457

 FORCES acting on ions:
    Electron-Ion                     Ewald-Force                    Non-Local-Force
   -.189E+03 0.189E+03 -.206E+04   0.184E+03 -.184E+03 0.206E+04   0.547E+01 -.547E+01 0.336E-01
   0.189E+03 -.189E+03 -.206E+04   -.184E+03 0.184E+03 0.206E+04   -.547E+01 0.547E+01 0.336E-01
   0.202E+00 -.345E+01 0.932E+03   -.207E+00 0.346E+01 -.923E+03   0.346E-02 -.244E-02 -.717E+01
   0.345E+01 -.203E+00 0.932E+03   -.346E+01 0.207E+00 -.923E+03   0.244E-02 -.346E-02 -.717E+01
   -.116E-07 -.185E-03 -.924E+03   0.103E-06 -.158E-05 0.915E+03   0.000E+00 0.000E+00 0.714E+01
   0.531E+01 -.531E+01 -.923E+03   -.532E+01 0.532E+01 0.914E+03   0.708E-02 -.708E-02 0.714E+01
   -.202E+00 0.345E+01 0.932E+03   0.207E+00 -.346E+01 -.923E+03   -.346E-02 0.244E-02 -.717E+01
   0.523E+01 0.671E+01 0.934E+03   -.523E+01 -.671E+01 -.925E+03   -.899E-03 0.325E-02 -.717E+01
   -.566E+00 0.716E+01 -.923E+03   0.579E+00 -.717E+01 0.914E+03   -.879E-02 0.337E-02 0.714E+01
   0.470E+01 0.470E+01 -.923E+03   -.470E+01 -.470E+01 0.915E+03   -.158E-02 -.158E-02 0.714E+01
   -.467E+00 0.613E+01 0.935E+03   0.479E+00 -.613E+01 -.926E+03   -.843E-02 0.426E-02 -.717E+01
   0.101E+02 0.518E+01 0.938E+03   -.102E+02 -.519E+01 -.930E+03   0.635E-02 0.798E-02 -.717E+01
   -.543E+00 0.501E+01 -.920E+03   0.555E+00 -.501E+01 0.912E+03   -.847E-02 0.215E-02 0.714E+01
   0.104E+02 0.967E+01 -.920E+03   -.104E+02 -.968E+01 0.912E+03   -.518E-02 0.534E-02 0.714E+01
   0.241E-06 -.188E-03 0.937E+03   -.147E-06 0.154E-05 -.928E+03   0.000E+00 0.000E+00 -.717E+01
   0.110E+02 -.464E+01 0.939E+03   -.110E+02 0.464E+01 -.930E+03   0.234E-01 0.130E-03 -.717E+01
   0.543E+00 -.501E+01 -.920E+03   -.555E+00 0.501E+01 0.912E+03   0.847E-02 -.215E-02 0.714E+01
   0.173E+02 0.743E+00 -.917E+03   -.174E+02 -.755E+00 0.909E+03   0.154E-01 0.778E-02 0.714E+01
   0.467E+00 -.613E+01 0.935E+03   -.479E+00 0.613E+01 -.926E+03   0.843E-02 -.426E-02 -.717E+01
   0.605E+01 -.704E+01 0.934E+03   -.607E+01 0.705E+01 -.926E+03   0.122E-01 -.790E-02 -.717E+01
   0.566E+00 -.716E+01 -.923E+03   -.579E+00 0.717E+01 0.914E+03   0.879E-02 -.337E-02 0.714E+01
   0.123E+02 -.980E+01 -.920E+03   -.124E+02 0.981E+01 0.911E+03   0.237E-01 -.445E-02 0.714E+01
   0.704E+01 -.605E+01 0.934E+03   -.705E+01 0.607E+01 -.926E+03   0.790E-02 -.122E-01 -.717E+01
   0.613E+01 -.467E+00 0.935E+03   -.613E+01 0.479E+00 -.926E+03   0.426E-02 -.843E-02 -.717E+01
   0.716E+01 -.566E+00 -.923E+03   -.717E+01 0.579E+00 0.914E+03   0.337E-02 -.879E-02 0.714E+01
   0.980E+01 -.123E+02 -.920E+03   -.981E+01 0.124E+02 0.911E+03   0.445E-02 -.237E-01 0.714E+01
   0.671E+01 0.523E+01 0.934E+03   -.671E+01 -.523E+01 -.925E+03   0.325E-02 -.899E-03 -.717E+01
   0.116E+02 0.148E+02 0.941E+03   -.116E+02 -.148E+02 -.932E+03   0.117E-01 0.118E-01 -.718E+01
   0.132E+02 0.132E+02 -.920E+03   -.132E+02 -.132E+02 0.911E+03   -.113E-04 -.113E-04 0.714E+01
   0.967E+01 0.104E+02 -.920E+03   -.968E+01 -.104E+02 0.912E+03   0.534E-02 -.518E-02 0.714E+01
   0.148E+02 0.116E+02 0.941E+03   -.148E+02 -.116E+02 -.932E+03   0.118E-01 0.117E-01 -.718E+01
   0.285E+02 0.160E+02 0.961E+03   -.286E+02 -.160E+02 -.953E+03   0.635E-01 0.365E-01 -.720E+01
   0.330E+02 0.140E+02 -.910E+03   -.330E+02 -.140E+02 0.902E+03   0.631E-02 0.216E-01 0.713E+01
   0.317E+02 0.317E+02 -.906E+03   -.317E+02 -.317E+02 0.897E+03   0.117E-01 0.117E-01 0.712E+01
   0.240E+02 0.112E+01 0.949E+03   -.240E+02 -.114E+01 -.940E+03   0.406E-01 0.153E-01 -.717E+01
   0.303E+02 -.142E+02 0.965E+03   -.304E+02 0.142E+02 -.957E+03   0.414E-01 -.103E-01 -.712E+01
   0.370E+02 -.119E+02 -.908E+03   -.371E+02 0.119E+02 0.900E+03   0.738E-01 0.647E-02 0.715E+01
   0.779E+02 0.812E+01 -.871E+03   -.781E+02 -.823E+01 0.863E+03   0.139E+00 0.744E-01 0.715E+01
   0.162E+02 -.119E+02 0.942E+03   -.163E+02 0.119E+02 -.934E+03   0.287E-01 -.140E-01 -.717E+01
   0.119E+02 -.162E+02 0.942E+03   -.119E+02 0.163E+02 -.934E+03   0.140E-01 -.287E-01 -.717E+01
   0.148E+02 -.148E+02 -.919E+03   -.148E+02 0.148E+02 0.910E+03   0.194E-01 -.194E-01 0.714E+01
   0.365E+02 -.365E+02 -.900E+03   -.366E+02 0.366E+02 0.891E+03   0.570E-01 -.570E-01 0.716E+01
   0.464E+01 -.110E+02 0.939E+03   -.464E+01 0.110E+02 -.930E+03   -.130E-03 -.234E-01 -.717E+01
   0.237E-06 -.182E-03 0.937E+03   -.140E-06 -.411E-05 -.928E+03   0.000E+00 0.000E+00 -.717E+01
   0.501E+01 -.543E+00 -.920E+03   -.501E+01 0.555E+00 0.912E+03   0.215E-02 -.847E-02 0.714E+01
   -.743E+00 -.173E+02 -.917E+03   0.755E+00 0.174E+02 0.909E+03   -.778E-02 -.154E-01 0.714E+01
   0.518E+01 0.101E+02 0.938E+03   -.519E+01 -.102E+02 -.930E+03   0.798E-02 0.635E-02 -.717E+01
   0.112E+01 0.239E+02 0.949E+03   -.114E+01 -.240E+02 -.940E+03   0.153E-01 0.406E-01 -.717E+01
   0.140E+02 0.330E+02 -.910E+03   -.140E+02 -.330E+02 0.902E+03   0.216E-01 0.631E-02 0.713E+01
   0.743E+00 0.173E+02 -.917E+03   -.755E+00 -.174E+02 0.909E+03   0.778E-02 0.154E-01 0.714E+01
   0.160E+02 0.285E+02 0.961E+03   -.160E+02 -.286E+02 -.953E+03   0.365E-01 0.635E-01 -.720E+01
   0.303E+01 0.303E+02 0.100E+04   -.301E+01 -.303E+02 -.994E+03   -.151E-01 0.551E-01 -.701E+01
   0.692E+02 0.692E+02 -.838E+03   -.694E+02 -.694E+02 0.830E+03   0.162E+00 0.162E+00 0.697E+01
   0.812E+01 0.779E+02 -.871E+03   -.823E+01 -.781E+02 0.863E+03   0.744E-01 0.139E+00 0.715E+01
   0.303E+02 0.303E+01 0.100E+04   -.303E+02 -.301E+01 -.994E+03   0.551E-01 -.151E-01 -.701E+01
   -.303E+01 -.303E+02 0.100E+04   0.301E+01 0.303E+02 -.994E+03   0.151E-01 -.551E-01 -.701E+01
   0.754E+02 -.754E+02 -.796E+03   -.756E+02 0.756E+02 0.788E+03   0.673E-01 -.673E-01 0.698E+01
   -.206E-04 -.240E-03 -.668E+03   0.210E-04 0.517E-04 0.662E+03   0.000E+00 0.000E+00 0.476E+01
   0.142E+02 -.303E+02 0.965E+03   -.142E+02 0.304E+02 -.957E+03   0.103E-01 -.414E-01 -.712E+01
   -.112E+01 -.240E+02 0.949E+03   0.114E+01 0.240E+02 -.940E+03   -.153E-01 -.406E-01 -.717E+01
[...]
   -.793E+01 0.792E+01 0.704E+03   0.794E+01 -.794E+01 -.708E+03   -.172E-01 0.172E-01 0.316E+01
   -.316E+01 0.316E+01 0.701E+03   0.316E+01 -.316E+01 -.705E+03   -.684E-02 0.684E-02 0.315E+01
   -.189E+02 0.133E+02 -.686E+03   0.189E+02 -.134E+02 0.690E+03   -.387E-01 0.228E-01 -.318E+01
   -.122E+02 0.463E+01 -.689E+03   0.123E+02 -.463E+01 0.693E+03   -.201E-01 -.178E-02 -.319E+01
   -.165E+02 0.573E+01 0.712E+03   0.166E+02 -.573E+01 -.716E+03   -.425E-01 0.998E-03 0.317E+01
   -.651E+01 0.558E+01 0.704E+03   0.652E+01 -.559E+01 -.708E+03   -.179E-01 0.757E-02 0.316E+01
   -.306E+02 -.183E+01 -.681E+03   0.306E+02 0.186E+01 0.685E+03   -.354E-01 -.321E-01 -.320E+01
   -.110E+02 -.527E+01 -.690E+03   0.110E+02 0.528E+01 0.694E+03   -.353E-02 -.104E-01 -.319E+01
   -.154E+02 -.664E+01 0.710E+03   0.155E+02 0.665E+01 -.714E+03   -.168E-01 -.195E-01 0.315E+01
   -.874E+01 -.323E+00 0.706E+03   0.875E+01 0.328E+00 -.710E+03   -.138E-01 -.744E-02 0.315E+01
   -.163E+02 -.126E+02 -.688E+03   0.163E+02 0.126E+02 0.692E+03   -.238E-02 -.804E-02 -.320E+01
   -.510E+01 -.636E+01 -.693E+03   0.510E+01 0.636E+01 0.697E+03   0.310E-02 -.172E-02 -.319E+01
   -.730E+01 -.730E+01 0.703E+03   0.730E+01 0.730E+01 -.707E+03   -.510E-02 -.510E-02 0.315E+01
   -.568E+01 -.557E+01 0.703E+03   0.568E+01 0.557E+01 -.707E+03   -.538E-03 -.683E-02 0.315E+01
   -.145E-04 -.110E+00 0.681E+01   0.753E-12 0.270E-12 0.830E-11   0.260E-15 -.100E-14 -.665E+01

 POSITION                                       TOTAL-FORCE (eV/Angst)
     11.48398     11.76876     13.78517         0.021877     -0.021877      0.141984
      9.65487     13.59787     13.78517        -0.021877      0.021877      0.141984
      0.00000      0.00000      9.00000        -0.001087      0.000772      0.560028
      2.11389      2.11389      9.00000        -0.000772      0.001087      0.560028
      0.00000      2.11389     11.11389        -0.000000     -0.000000     -0.553999
      2.11389      0.00000     11.11389        -0.002237      0.002237     -0.553857
      0.00000      4.22777      9.00000         0.001087     -0.000772      0.560028
      2.11389      6.34166      9.00000         0.000306     -0.000991      0.560574
      0.00000      6.34166     11.11389         0.002760     -0.001050     -0.553519
      2.11389      4.22777     11.11389         0.000524      0.000524     -0.553543
      0.00000      8.45554      9.00000         0.002574     -0.001352      0.560044
      2.11389     10.56943      9.00000        -0.002026     -0.002609      0.560566
      0.00000     10.56943     11.11389         0.002600     -0.000690     -0.552719
      2.11389      8.45554     11.11389         0.001789     -0.001585     -0.551868
      0.00000     12.68331      9.00000        -0.000000     -0.000000      0.560150
      2.11389     14.79720      9.00000        -0.007040     -0.000058      0.559786
      0.00000     14.79720     11.11389        -0.002600      0.000690     -0.552719
      2.11389     12.68331     11.11389        -0.004461     -0.002666     -0.551842
      0.00000     16.91108      9.00000        -0.002574      0.001352      0.560044
      2.11389     19.02497      9.00000        -0.003825      0.002560      0.559444
      0.00000     19.02497     11.11389        -0.002760      0.001050     -0.553519
      2.11389     16.91108     11.11389        -0.007323      0.001493     -0.553488
      4.22777      0.00000      9.00000        -0.002560      0.003825      0.559444
      6.34166      2.11389      9.00000        -0.001352      0.002574      0.560044
      4.22777      2.11389     11.11389        -0.001050      0.002760     -0.553519
      6.34166      0.00000     11.11389        -0.001493      0.007323     -0.553488
      4.22777      4.22777      9.00000        -0.000991      0.000306      0.560574
      6.34166      6.34166      9.00000        -0.003631     -0.003561      0.562141
      4.22777      6.34166     11.11389         0.000238      0.000238     -0.551073
      6.34166      4.22777     11.11389        -0.001585      0.001789     -0.551868
      4.22777      8.45554      9.00000        -0.003561     -0.003631      0.562141
      6.34166     10.56943      9.00000        -0.020681     -0.012838      0.565086
      4.22777     10.56943     11.11389        -0.000845     -0.006915     -0.546673
      6.34166      8.45554     11.11389        -0.001806     -0.001806     -0.538936
      4.22777     12.68331      9.00000        -0.012919     -0.005365      0.559737
      6.34166     14.79720      9.00000        -0.013601      0.003956      0.542539
      4.22777     14.79720     11.11389        -0.024312     -0.002200     -0.553224
      6.34166     12.68331     11.11389        -0.057282     -0.027256     -0.546348
      4.22777     16.91108      9.00000        -0.009224      0.004880      0.557289
      6.34166     19.02497      9.00000        -0.004880      0.009224      0.557289
      4.22777     19.02497     11.11389        -0.006194      0.006194     -0.554071
      6.34166     16.91108     11.11389        -0.019109      0.019109     -0.559168
      8.45554      0.00000      9.00000         0.000058      0.007040      0.559786
     10.56943      2.11389      9.00000        -0.000000     -0.000000      0.560150
      8.45554      2.11389     11.11389        -0.000690      0.002600     -0.552719
     10.56943      0.00000     11.11389         0.002666      0.004461     -0.551842
      8.45554      4.22777      9.00000        -0.002609     -0.002026      0.560566
     10.56943      6.34166      9.00000        -0.005365     -0.012919      0.559737
      8.45554      6.34166     11.11389        -0.006915     -0.000845     -0.546673
     10.56943      4.22777     11.11389        -0.002666     -0.004461     -0.551842
      8.45554      8.45554      9.00000        -0.012838     -0.020681      0.565086
     10.56943     10.56943      9.00000         0.008265     -0.016940      0.497662
      8.45554     10.56943     11.11389        -0.031610     -0.031610     -0.419339
     10.56943      8.45554     11.11389        -0.027256     -0.057282     -0.546348
      8.45554     12.68331      9.00000        -0.016940      0.008265      0.497662
     10.56943     14.79720      9.00000        -0.008265      0.016940      0.497662
      8.45554     14.79720     11.11389        -0.080760      0.080760     -0.724309
     10.56943     12.68331     11.11389        -0.000000     -0.000000     -0.323208
      8.45554     16.91108      9.00000        -0.003956      0.013601      0.542539
     10.56943     19.02497      9.00000         0.005365      0.012919      0.559737
[...]
     19.02497      6.34166     11.11389        -0.004563      0.003253      0.432072
     16.91108      6.34166      9.00000        -0.005678      0.005678     -0.437049
     19.02497      4.22777      9.00000        -0.002244      0.002244     -0.438150
     16.91108      8.45554     11.11389        -0.012898      0.007656      0.433453
     19.02497     10.56943     11.11389        -0.006632     -0.000543      0.430985
     16.91108     10.56943      9.00000        -0.014706      0.000501     -0.433414
     19.02497      8.45554      9.00000        -0.005890      0.002498     -0.437645
     16.91108     12.68331     11.11389        -0.012225     -0.010511      0.427694
     19.02497     14.79720     11.11389        -0.001224     -0.003426      0.429368
     16.91108     14.79720      9.00000        -0.005971     -0.006580     -0.440694
     19.02497     12.68331      9.00000        -0.004609     -0.002407     -0.438415
     16.91108     16.91108     11.11389        -0.001021     -0.002770      0.426155
     19.02497     19.02497     11.11389         0.000989     -0.000602      0.430824
     16.91108     19.02497      9.00000        -0.001718     -0.001718     -0.439644
     19.02497     16.91108      9.00000        -0.000216     -0.002264     -0.439173
    total drift:                               -0.000014     -0.109504     -0.637691

  FREE ENERGIE OF THE ION-ELECTRON SYSTEM (eV)
  free  energy   TOTEN  =     -1367.06812381 eV

  energy  without entropy=    -1367.06812381  energy(sigma->0) =    -1367.06812381