 vasp.6.3.0 20Jan22 (build Apr  1 2022 16:44:48) complex
 executed on        HPECrayEX_GCC date 2023.02.08  15:50:58

 INCAR:
   SYSTEM = MgO-rocksalt
   ISMEAR = 0
   SIGMA = 0.05
   EDIFF = 1E-6
   ALGO = ALL
   ISTART = 0
   IBRION = -1
   NSW = 0
   ISYM = 2
   DIPOL = 0.5 0.5 0.5
   IDIPOL = 3
   LDIPOL = .TRUE.
   METAGGA = R2SCAN
   IVDW = 13
   VDW_S8 = 0.6019
   VDW_A1 = 0.5156
   VDW_A2 = 5.7734
   ENCUT = 520
   PREC = Accurate
   LASPH = .TRUE.
   LREAL = Auto
   ISPIN = 1
   NELM = 200
   NELMIN = 8
   NCORE = 4
   KPAR = 2
   LWAVE = .FALSE.
   LCHARG = .FALSE.

 POTCAR:    PAW_PBE Au 04Oct2007
 POTCAR:    PAW_PBE Mg_pv 13Apr2007
 POTCAR:    PAW_PBE O 08Apr2002
 POTCAR:    PAW_PBE Au 04Oct2007
   VRHFIN =Au: s1d10

   TITEL  = PAW_PBE Au 04Oct2007
   POMASS =  196.966; ZVAL   =   11.000    mass and valenz
   ENMAX  =  229.943; ENMIN  =  172.457 eV

   TITEL  = PAW_PBE Mg_pv 13Apr2007
   POMASS =   24.305; ZVAL   =    8.000    mass and valenz
   ENMAX  =  403.929; ENMIN  =  302.947 eV

   TITEL  = PAW_PBE O 08Apr2002
   POMASS =   16.000; ZVAL   =    6.000    mass and valenz
   ENMAX  =  400.000; ENMIN  =  300.000 eV

 Optimization of the real space projectors (new method)

 maximal supplied QI-value         = 15.12
 optimisation between [QCUT,QGAM] = [ 11.64, 23.28] = [ 37.95,151.78] Ry
 Optimized for a Real-space Cutoff    1.49 Angstroem

   l    n(q)    QCUT    max X(q) W(low)/X(q) W(high)/X(q)  e(spline)
   2      9    11.641    60.898    0.24E-03    0.10E-03    0.19E-06
   2      9    11.641    58.894    0.25E-03    0.10E-03    0.19E-06
   0     10    11.641   109.617    0.73E-04    0.33E-04    0.11E-06
   0     10    11.641    75.026    0.71E-04    0.32E-04    0.11E-06
   1     10    11.641    16.344    0.27E-04    0.97E-04    0.16E-06
   1     10    11.641    10.160    0.23E-04    0.77E-04    0.13E-06
 Optimization of the real space projectors (new method)

[...]

   l    n(q)    QCUT    max X(q) W(low)/X(q) W(high)/X(q)  e(spline)
   1      8    11.527     2.974    0.44E-04    0.56E-04    0.12E-06
   1      8    11.527     4.279    0.12E-03    0.12E-03    0.26E-06
   0      9    11.527    16.381    0.46E-04    0.64E-04    0.78E-07
   0      9    11.527     5.611    0.26E-04    0.43E-04    0.55E-07
   2      8    11.527     4.652    0.22E-03    0.72E-04    0.47E-07
 Optimization of the real space projectors (new method)

 maximal supplied QI-value         = 24.76
 optimisation between [QCUT,QGAM] = [ 11.64, 23.27] = [ 37.91,151.63] Ry
 Optimized for a Real-space Cutoff    1.14 Angstroem

   l    n(q)    QCUT    max X(q) W(low)/X(q) W(high)/X(q)  e(spline)
   0      8    11.635    20.381    0.10E-03    0.33E-03    0.24E-06
   0      8    11.635    15.268    0.11E-03    0.35E-03    0.26E-06
   1      7    11.635     5.964    0.24E-03    0.31E-03    0.30E-06
   1      7    11.635     5.382    0.22E-03    0.25E-03    0.26E-06
  PAW_PBE Au 04Oct2007                  :
  PAW_PBE Mg_pv 13Apr2007               :
  PAW_PBE O 08Apr2002                   :

 POSCAR: Au Mg  O
  positions in direct lattice
  velocities in cartesian coordinates

 METAGGA = R2SCA    LMAXTAU =  6    LMIXTAU =  F

 WARNING: Using user supplied parameters
     VDW_S8 = 0.602
     VDW_A1 = 0.516
     VDW_A2 = 5.773
     because the xc functional is not supported. Required parameters not
     defined in the INCAR file will be replaced with PBE defaults ones.

 ion  position               nearest neighbor table
   1  0.404  0.596  0.665-   2 2.57   4 2.74
   2  0.332  0.668  0.602- 138 2.40   1 2.57  59 2.71  40 2.71
   3  0.568  0.432  0.602- 173 2.40   4 2.57  75 2.71  56 2.71
   4  0.496  0.504  0.665-   3 2.57   1 2.74
   5  0.000  0.000  0.407- 107 2.11 108 2.11 123 2.11 188 2.11 105 2.11
   6  0.100  0.100  0.407- 107 2.11 108 2.11 112 2.11 127 2.11 106 2.11
   7  0.000  0.100  0.503- 105 2.11 106 2.11 109 2.11 186 2.11 107 2.11
   8  0.100  0.000  0.503- 105 2.11 106 2.11 122 2.11 125 2.11 108 2.11
   9  0.000  0.200  0.407- 111 2.11 107 2.11 112 2.11 192 2.11 109 2.11
  10  0.100  0.300  0.407- 112 2.11 111 2.11 116 2.11 131 2.11 110 2.11
  11  0.000  0.300  0.503- 109 2.11 110 2.11 113 2.11 190 2.11 111 2.11
  12  0.100  0.200  0.503- 110 2.11 109 2.11 106 2.11 129 2.11 112 2.11
  13  0.000  0.400  0.407- 111 2.11 115 2.11 116 2.11 196 2.11 113 2.11
  14  0.100  0.500  0.407- 115 2.11 116 2.11 120 2.11 135 2.11 114 2.11
  15  0.000  0.500  0.503- 113 2.11 114 2.11 117 2.11 194 2.11 115 2.11
  16  0.100  0.400  0.503- 110 2.11 113 2.11 114 2.11 133 2.11 116 2.11
  17  0.000  0.600  0.407- 115 2.11 119 2.11 120 2.11 200 2.11 117 2.11
  18  0.100  0.700  0.407- 124 2.11 120 2.11 119 2.11 139 2.11 118 2.11
  19  0.000  0.700  0.503- 121 2.11 118 2.11 117 2.11 198 2.11 119 2.11
  20  0.100  0.600  0.503- 114 2.11 117 2.11 118 2.11 137 2.11 120 2.11
  21  0.000  0.800  0.407- 119 2.11 123 2.11 124 2.11 204 2.11 121 2.11
  22  0.100  0.900  0.407- 108 2.11 123 2.11 124 2.11 143 2.11 122 2.11
  23  0.000  0.900  0.503- 105 2.11 121 2.11 122 2.11 202 2.11 123 2.11
  24  0.100  0.800  0.503- 118 2.11 121 2.11 122 2.11 141 2.11 124 2.11
  25  0.200  0.000  0.407- 128 2.11 127 2.11 108 2.11 143 2.11 125 2.11
  26  0.300  0.100  0.407- 127 2.11 128 2.11 132 2.11 147 2.11 126 2.11
  27  0.200  0.100  0.503- 126 2.11 125 2.11 106 2.11 129 2.11 127 2.11
  28  0.300  0.000  0.503- 125 2.11 126 2.11 142 2.11 145 2.11 128 2.11
  29  0.200  0.200  0.407- 131 2.11 132 2.11 112 2.11 127 2.11 129 2.11
  30  0.300  0.300  0.407- 131 2.11 132 2.11 136 2.11 151 2.11 130 2.11
  31  0.200  0.300  0.503- 129 2.11 130 2.11 110 2.11 133 2.11 131 2.11
  32  0.300  0.200  0.503- 129 2.11 130 2.11 126 2.11 149 2.11 132 2.11
  33  0.200  0.400  0.407- 136 2.11 131 2.11 135 2.11 116 2.11 133 2.11
  34  0.300  0.500  0.407- 135 2.11 136 2.11 140 2.11 155 2.11 134 2.11
  35  0.200  0.500  0.503- 134 2.11 133 2.11 114 2.11 137 2.11 135 2.11
  36  0.300  0.400  0.503- 133 2.11 130 2.11 134 2.11 153 2.11 136 2.11
  37  0.200  0.600  0.407- 140 2.11 135 2.11 139 2.11 120 2.11 137 2.11
  38  0.300  0.700  0.407- 139 2.11 144 2.11 140 2.11 159 2.11 138 2.11
  39  0.200  0.700  0.503- 138 2.11 141 2.11 118 2.11 137 2.11 139 2.11
  40  0.300  0.600  0.503- 137 2.11 134 2.11 138 2.11 157 2.11 140 2.11   2 2.71
  41  0.200  0.800  0.407- 139 2.11 144 2.11 143 2.11 124 2.11 141 2.11
  42  0.300  0.900  0.407- 143 2.11 128 2.11 144 2.11 163 2.11 142 2.11
  43  0.200  0.900  0.503- 142 2.11 125 2.11 141 2.11 122 2.11 143 2.11
  44  0.300  0.800  0.503- 138 2.11 141 2.11 142 2.11 161 2.11 144 2.11
  45  0.400  0.000  0.407- 128 2.11 147 2.11 148 2.11 163 2.11 145 2.11
  46  0.500  0.100  0.407- 147 2.11 148 2.11 152 2.11 167 2.11 146 2.11
  47  0.400  0.100  0.503- 126 2.11 145 2.11 146 2.11 149 2.11 147 2.11
  48  0.500  0.000  0.503- 145 2.11 146 2.11 162 2.11 165 2.11 148 2.11
  49  0.400  0.200  0.407- 151 2.11 147 2.11 132 2.11 152 2.11 149 2.11
  50  0.500  0.300  0.407- 152 2.11 151 2.11 156 2.11 171 2.11 150 2.11
  51  0.400  0.300  0.503- 149 2.11 130 2.11 150 2.11 153 2.11 151 2.11
  52  0.500  0.200  0.503- 150 2.11 149 2.11 146 2.11 169 2.11 152 2.11
  53  0.400  0.400  0.407- 136 2.11 151 2.11 155 2.11 156 2.11 153 2.11
  54  0.500  0.500  0.407- 155 2.11 156 2.11 160 2.11 175 2.11 154 2.11
  55  0.400  0.500  0.503- 134 2.11 153 2.11 154 2.11 157 2.11 155 2.11
  56  0.500  0.400  0.503- 150 2.11 153 2.11 154 2.11 173 2.11 156 2.11   3 2.71
  57  0.400  0.600  0.407- 140 2.11 155 2.11 159 2.11 160 2.11 157 2.11
  58  0.500  0.700  0.407- 164 2.11 160 2.11 159 2.11 179 2.11 158 2.11
  59  0.400  0.700  0.503- 161 2.11 157 2.11 158 2.11 138 2.11 159 2.11   2 2.71
  60  0.500  0.600  0.503- 154 2.11 157 2.11 158 2.11 177 2.11 160 2.11
[...]
 190  0.900  0.300  0.503-  92 2.11  91 2.11  11 2.11  96 2.11  90 2.11
 191  0.800  0.300  0.407-  70 2.11  89 2.11  90 2.11  93 2.11  91 2.11
 192  0.900  0.200  0.407-  90 2.11  86 2.11  89 2.11   9 2.11  92 2.11
 193  0.800  0.400  0.503-  76 2.11  91 2.11  95 2.11  96 2.11  93 2.11
 194  0.900  0.500  0.503-  15 2.11  95 2.11  96 2.11 100 2.11  94 2.11
 195  0.800  0.500  0.407-  74 2.11  93 2.11  94 2.11  97 2.11  95 2.11
 196  0.900  0.400  0.407-  13 2.11  90 2.11  93 2.11  94 2.11  96 2.11
 197  0.800  0.600  0.503-  80 2.11  95 2.11  99 2.11 100 2.11  97 2.11
 198  0.900  0.700  0.503- 104 2.11  99 2.11 100 2.11  19 2.11  98 2.11
 199  0.800  0.700  0.407-  78 2.11 101 2.11  98 2.11  97 2.11  99 2.11
 200  0.900  0.600  0.407-  17 2.11  94 2.11  97 2.11  98 2.11 100 2.11
 201  0.800  0.800  0.503-  84 2.11  99 2.11 103 2.11 104 2.11 101 2.11
 202  0.900  0.900  0.503-  23 2.11  88 2.11 103 2.11 104 2.11 102 2.11
 203  0.800  0.900  0.407-  82 2.11  85 2.11 101 2.11 102 2.11 103 2.11
 204  0.900  0.800  0.407-  98 2.11  21 2.11 101 2.11 102 2.11 104 2.11

  LATTYP: Found a simple tetragonal cell.
 ALAT       =    21.1388521970
 C/A-ratio  =     1.0461251639

  Lattice vectors:

 A1 = (  21.1388521970,   0.0000000000,   0.0000000000)
 A2 = (   0.0000000000,  21.1388521970,   0.0000000000)
 A3 = (   0.0000000000,   0.0000000000,  22.1138852197)

Analysis of symmetry for initial positions (statically):
 Subroutine PRICEL returns:
 Original cell was already a primitive cell.

 Routine SETGRP: Setting up the symmetry group for a
 simple tetragonal supercell.

 Subroutine GETGRP returns: Found  2 space group operations
 (whereof  1 operations were pure point group operations)
 out of a pool of 16 trial point group operations.

The static configuration has the point symmetry C_1 .
 The point group associated with its full space group is C_1h.

Analysis of symmetry for dynamics (positions and initial velocities):
 Subroutine PRICEL returns:
 Original cell was already a primitive cell.

[...]

The dynamic configuration has the point symmetry C_1 .
 The point group associated with its full space group is C_1h.

Analysis of constrained symmetry for selective dynamics:
 Subroutine PRICEL returns:
 Original cell was already a primitive cell.

 Routine SETGRP: Setting up the symmetry group for a
 simple tetragonal supercell.

 Subroutine GETGRP returns: Found  2 space group operations
 (whereof  1 operations were pure point group operations)
 out of a pool of 16 trial point group operations.

The constrained configuration has the point symmetry C_1 .
 The point group associated with its full space group is C_1h.

 Subroutine INISYM returns: Found  2 space group operations
 (whereof  1 operations are pure point group operations),
 and found     1 'primitive' translations

                                     Primitive cell

  volume of cell :    9881.6133

  direct lattice vectors                    reciprocal lattice vectors
    21.138852197  0.000000000  0.000000000     0.047306258  0.000000000  0.000000000
     0.000000000 21.138852197  0.000000000     0.000000000  0.047306258  0.000000000
     0.000000000  0.000000000 22.113885220     0.000000000  0.000000000  0.045220457

  length of vectors
    21.138852197 21.138852197 22.113885220     0.047306258  0.047306258  0.045220457

  position of ions in fractional coordinates (direct lattice)
     0.404253373  0.595794633  0.665345618
[...]
     54     -44.4589      2.00000
     55     -44.4587      2.00000
     56     -44.4586      2.00000
     57     -44.4583      2.00000
     58     -44.4556      2.00000
     59     -44.4549      2.00000
     60     -44.4548      2.00000
[...]
    946       6.7372      0.00000
    947       6.7638      0.00000
    948       6.8592      0.00000
    949       6.9067      0.00000
    950       6.9681      0.00000
    951       7.0834      0.00000
    952       7.1040      0.00000
    953       7.2167      0.00000
    954       7.2917      0.00000
    955       7.2940      0.00000
    956       7.3691      0.00000
    957       7.4848      0.00000
    958       7.5210      0.00000
    959       7.5448      0.00000
    960       7.6014      0.00000

 soft charge-density along one line, spin component           1
         0         1         2         3         4         5         6         7         8         9
 total charge-density along one line

------------------------ aborting loop because EDIFF is reached ----------------------------------------

  FORCE on cell =-STRESS in cart. coord.  units (eV):
  Direction    XX          YY          ZZ          XY          YZ          ZX
  Alpha Z  1417.83424  1417.83424  1417.83424
  Ewald  482423.15860482423.15974************ -1155.82133    -0.02915    -0.03097
  Hartree511788.30665511788.30706************  -910.73539    -0.01297    -0.01354
  E(xc)   -8481.49262 -8481.49261 -8482.15114    -0.57172     0.00013     0.00014
  Local  ************************************  2048.97554     0.04093     0.04310
  n-local -8691.79093 -8691.79091 -8815.65368    12.30295    -0.00306    -0.00334
  augment  3969.08873  3969.08874  3911.41927     1.36782     0.00148     0.00149
  Kinetic 23358.18308 23358.18326 23581.57002     6.65381    -0.00042    -0.00020
  Fock        0.00000     0.00000     0.00000     0.00000     0.00000     0.00000
  vdW        -8.17125    -8.17125    -2.21024     0.01617    -0.00000    -0.00000
  Total    -229.78061  -229.78061   -19.61705     2.18785    -0.00319    -0.00319
  in kB     -37.25599   -37.25599    -3.18065     0.35473    -0.00052    -0.00052

 VOLUME and BASIS-vectors are now :
  energy-cutoff  :      520.00
  volume of cell :     9881.61
      direct lattice vectors                 reciprocal lattice vectors
    21.138852197  0.000000000  0.000000000     0.047306258  0.000000000  0.000000000
     0.000000000 21.138852197  0.000000000     0.000000000  0.047306258  0.000000000
     0.000000000  0.000000000 22.113885220     0.000000000  0.000000000  0.045220457

  length of vectors
    21.138852197 21.138852197 22.113885220     0.047306258  0.047306258  0.045220457

 FORCES acting on ions:
    Electron-Ion                     Ewald-Force                    Non-Local-Force
   0.487E+02 -.487E+02 -.197E+04   -.510E+02 0.510E+02 0.197E+04   0.229E+01 -.228E+01 0.287E+01
   0.221E+03 -.221E+03 -.203E+04   -.218E+03 0.218E+03 0.203E+04   -.275E+01 0.274E+01 -.249E+01
   -.221E+03 0.221E+03 -.203E+04   0.218E+03 -.218E+03 0.203E+04   0.274E+01 -.275E+01 -.249E+01
   -.487E+02 0.487E+02 -.197E+04   0.510E+02 -.510E+02 0.197E+04   -.228E+01 0.229E+01 0.287E+01
   0.457E+01 -.457E+01 0.937E+03   -.461E+01 0.461E+01 -.929E+03   0.311E-01 -.311E-01 -.756E+01
   0.896E+01 0.203E+01 0.939E+03   -.895E+01 -.195E+01 -.930E+03   -.439E-02 -.582E-01 -.757E+01
   0.331E+01 0.331E+01 -.919E+03   -.328E+01 -.328E+01 0.911E+03   -.207E-01 -.207E-01 0.753E+01
   0.139E+02 -.104E+02 -.916E+03   -.139E+02 0.105E+02 0.908E+03   0.262E-01 -.995E-01 0.753E+01
   0.202E+01 0.896E+01 0.939E+03   -.195E+01 -.895E+01 -.930E+03   -.582E-01 -.439E-02 -.757E+01
   0.143E+02 0.155E+02 0.944E+03   -.142E+02 -.155E+02 -.936E+03   -.526E-01 0.294E-03 -.758E+01
   0.314E+01 0.155E+02 -.915E+03   -.302E+01 -.155E+02 0.907E+03   -.933E-01 -.142E-02 0.752E+01
   0.132E+02 0.132E+02 -.916E+03   -.132E+02 -.132E+02 0.908E+03   -.423E-01 -.423E-01 0.753E+01
   0.487E+01 0.110E+02 0.945E+03   -.477E+01 -.110E+02 -.937E+03   -.802E-01 0.194E-01 -.758E+01
   0.281E+02 0.111E+02 0.957E+03   -.281E+02 -.113E+02 -.949E+03   -.290E-02 0.122E+00 -.759E+01
   0.128E+02 0.788E+01 -.909E+03   -.128E+02 -.792E+01 0.901E+03   -.313E-01 0.274E-01 0.751E+01
   0.306E+02 0.233E+02 -.906E+03   -.304E+02 -.233E+02 0.898E+03   -.109E+00 0.424E-01 0.750E+01
   0.121E+02 -.242E+01 0.949E+03   -.122E+02 0.238E+01 -.941E+03   0.840E-01 0.329E-01 -.759E+01
   0.318E+02 -.129E+02 0.960E+03   -.323E+02 0.128E+02 -.952E+03   0.404E+00 0.484E-01 -.763E+01
   0.203E+02 -.128E+02 -.909E+03   -.205E+02 0.128E+02 0.901E+03   0.151E+00 0.209E-01 0.752E+01
   0.581E+02 0.284E+01 -.893E+03   -.583E+02 -.301E+01 0.885E+03   0.156E+00 0.130E+00 0.749E+01
   0.108E+02 -.130E+02 0.944E+03   -.110E+02 0.130E+02 -.936E+03   0.154E+00 -.169E-01 -.758E+01
   0.158E+02 -.158E+02 0.945E+03   -.159E+02 0.159E+02 -.937E+03   0.113E+00 -.113E+00 -.756E+01
   0.104E+02 -.139E+02 -.916E+03   -.105E+02 0.139E+02 0.908E+03   0.995E-01 -.262E-01 0.753E+01
   0.387E+02 -.287E+02 -.903E+03   -.391E+02 0.288E+02 0.896E+03   0.348E+00 -.303E-01 0.752E+01
   0.130E+02 -.108E+02 0.944E+03   -.130E+02 0.110E+02 -.936E+03   0.169E-01 -.154E+00 -.758E+01
   0.110E+02 0.487E+01 0.945E+03   -.110E+02 -.477E+01 -.937E+03   0.194E-01 -.802E-01 -.758E+01
   0.155E+02 0.314E+01 -.915E+03   -.155E+02 -.302E+01 0.907E+03   -.142E-02 -.933E-01 0.752E+01
   0.128E+02 -.203E+02 -.909E+03   -.128E+02 0.205E+02 0.901E+03   -.209E-01 -.151E+00 0.752E+01
   0.155E+02 0.143E+02 0.944E+03   -.155E+02 -.142E+02 -.936E+03   0.294E-03 -.526E-01 -.758E+01
   0.252E+02 0.322E+02 0.964E+03   -.253E+02 -.321E+02 -.955E+03   0.783E-01 -.403E-01 -.764E+01
   0.329E+02 0.329E+02 -.904E+03   -.328E+02 -.328E+02 0.897E+03   -.625E-01 -.625E-01 0.750E+01
   0.233E+02 0.306E+02 -.906E+03   -.233E+02 -.304E+02 0.898E+03   0.424E-01 -.109E+00 0.750E+01
   0.322E+02 0.252E+02 0.964E+03   -.321E+02 -.253E+02 -.955E+03   -.403E-01 0.783E-01 -.764E+01
   0.426E+02 0.277E+02 0.101E+04   -.426E+02 -.282E+02 -.100E+04   -.314E-02 0.360E+00 -.790E+01
   0.791E+02 0.416E+02 -.869E+03   -.788E+02 -.419E+02 0.862E+03   -.264E+00 0.298E+00 0.740E+01
   0.671E+02 0.671E+02 -.862E+03   -.669E+02 -.669E+02 0.854E+03   -.142E+00 -.142E+00 0.737E+01
   0.499E+02 0.287E+01 0.992E+03   -.501E+02 -.338E+01 -.984E+03   0.150E+00 0.383E+00 -.757E+01
   0.342E+02 -.342E+02 0.102E+04   -.339E+02 0.339E+02 -.102E+04   -.202E+00 0.201E+00 -.510E+01
   0.109E+03 -.430E+02 -.840E+03   -.112E+03 0.427E+02 0.832E+03   0.190E+01 0.215E+00 0.756E+01
   0.120E+03 0.624E+02 -.698E+03   -.120E+03 -.655E+02 0.692E+03   -.430E+00 0.209E+01 0.562E+01
   0.312E+02 -.312E+02 0.970E+03   -.315E+02 0.315E+02 -.962E+03   0.256E+00 -.256E+00 -.745E+01
   0.129E+02 -.318E+02 0.960E+03   -.128E+02 0.323E+02 -.952E+03   -.484E-01 -.404E+00 -.763E+01
   0.287E+02 -.387E+02 -.903E+03   -.288E+02 0.391E+02 0.896E+03   0.302E-01 -.348E+00 0.752E+01
   0.431E+02 -.109E+03 -.840E+03   -.428E+02 0.112E+03 0.832E+03   -.215E+00 -.190E+01 0.756E+01
   0.242E+01 -.121E+02 0.949E+03   -.238E+01 0.122E+02 -.941E+03   -.329E-01 -.839E-01 -.759E+01
   -.242E+01 0.121E+02 0.949E+03   0.238E+01 -.122E+02 -.941E+03   0.329E-01 0.840E-01 -.759E+01
   0.788E+01 0.128E+02 -.909E+03   -.792E+01 -.128E+02 0.901E+03   0.274E-01 -.313E-01 0.751E+01
   -.788E+01 -.129E+02 -.909E+03   0.792E+01 0.128E+02 0.901E+03   -.274E-01 0.315E-01 0.751E+01
   0.111E+02 0.281E+02 0.957E+03   -.113E+02 -.281E+02 -.949E+03   0.122E+00 -.290E-02 -.759E+01
   0.287E+01 0.499E+02 0.992E+03   -.338E+01 -.501E+02 -.984E+03   0.383E+00 0.150E+00 -.757E+01
   0.416E+02 0.792E+02 -.869E+03   -.419E+02 -.788E+02 0.862E+03   0.298E+00 -.264E+00 0.740E+01
   0.283E+01 0.581E+02 -.893E+03   -.301E+01 -.583E+02 0.885E+03   0.130E+00 0.156E+00 0.749E+01
   0.277E+02 0.426E+02 0.101E+04   -.282E+02 -.426E+02 -.100E+04   0.360E+00 -.314E-02 -.790E+01
   -.767E+01 0.770E+01 0.105E+04   0.734E+01 -.737E+01 -.104E+04   0.248E+00 -.249E+00 -.788E+01
   0.665E+02 0.666E+02 -.736E+03   -.667E+02 -.667E+02 0.730E+03   0.122E+00 0.122E+00 0.680E+01
   0.624E+02 0.120E+03 -.698E+03   -.655E+02 -.120E+03 0.692E+03   0.209E+01 -.430E+00 0.562E+01
   0.769E+01 -.767E+01 0.105E+04   -.737E+01 0.734E+01 -.104E+04   -.249E+00 0.248E+00 -.788E+01
   -.277E+02 -.426E+02 0.101E+04   0.282E+02 0.426E+02 -.100E+04   -.360E+00 0.311E-02 -.791E+01
   -.624E+02 -.120E+03 -.698E+03   0.655E+02 0.120E+03 0.692E+03   -.209E+01 0.430E+00 0.562E+01
   -.665E+02 -.665E+02 -.736E+03   0.667E+02 0.667E+02 0.730E+03   -.123E+00 -.123E+00 0.680E+01
[...]
   -.181E+02 0.142E+02 0.716E+03   0.182E+02 -.143E+02 -.720E+03   -.259E+00 0.114E+00 0.344E+01
   -.563E+01 0.799E+01 0.707E+03   0.569E+01 -.802E+01 -.710E+03   -.916E-01 0.471E-01 0.341E+01
   -.422E+02 0.143E+02 -.672E+03   0.424E+02 -.143E+02 0.676E+03   -.289E+00 -.966E-01 -.364E+01
   -.142E+02 0.197E+01 -.683E+03   0.143E+02 -.193E+01 0.687E+03   -.599E-01 -.501E-01 -.359E+01
   -.251E+02 -.463E-02 0.723E+03   0.252E+02 0.151E+00 -.727E+03   -.167E+00 -.193E+00 0.339E+01
   -.984E+01 0.738E+01 0.712E+03   0.992E+01 -.736E+01 -.716E+03   -.130E+00 -.159E-01 0.340E+01
   -.339E+02 -.138E+02 -.676E+03   0.339E+02 0.139E+02 0.680E+03   -.388E-02 -.147E+00 -.363E+01
   -.496E+01 -.108E+02 -.685E+03   0.491E+01 0.108E+02 0.689E+03   0.676E-01 -.118E-01 -.357E+01
   -.155E+02 -.121E+02 0.715E+03   0.154E+02 0.122E+02 -.718E+03   0.468E-01 -.446E-01 0.337E+01
   -.646E+01 -.420E+01 0.713E+03   0.645E+01 0.424E+01 -.716E+03   0.835E-02 -.397E-01 0.339E+01
   -.147E+02 -.156E+02 -.686E+03   0.147E+02 0.156E+02 0.690E+03   0.705E-01 0.254E-01 -.357E+01
   -.171E+01 -.840E+01 -.690E+03   0.166E+01 0.840E+01 0.694E+03   0.568E-01 0.710E-02 -.355E+01
   -.770E+01 -.769E+01 0.707E+03   0.767E+01 0.767E+01 -.711E+03   0.313E-01 0.313E-01 0.340E+01
   -.194E+01 -.909E+01 0.708E+03   0.188E+01 0.910E+01 -.712E+03   0.744E-01 -.644E-02 0.340E+01
   -.727E+00 0.726E+00 0.162E+02   0.199E-11 0.119E-11 0.146E-10   0.252E-02 0.252E-02 -.135E+02

 POSITION                                       TOTAL-FORCE (eV/Angst)
      8.54545     12.59441     14.71338        -0.067836      0.068697     -0.141384
      7.02105     14.11881     13.31306         0.117990     -0.118730     -0.022844
     12.00492      9.13494     13.31306        -0.118730      0.117990     -0.022844
     10.48052     10.65934     14.71338         0.068697     -0.067836     -0.141384
      0.00000      0.00000      9.00000        -0.008926      0.008910      0.532751
      2.11389      2.11389      9.00000         0.001113      0.016023      0.534626
      0.00000      2.11389     11.11389         0.005680      0.005680     -0.475137
      2.11389      0.00000     11.11389        -0.007775      0.027364     -0.472986
      0.00000      4.22777      9.00000         0.016023      0.001113      0.534626
      2.11389      6.34166      9.00000         0.014729      0.000546      0.539269
      0.00000      6.34166     11.11389         0.025597      0.000745     -0.471548
      2.11389      4.22777     11.11389         0.012107      0.012107     -0.472507
      0.00000      8.45554      9.00000         0.021373     -0.005275      0.536954
      2.11389     10.56943      9.00000        -0.001138     -0.035127      0.540606
      0.00000     10.56943     11.11389         0.008868     -0.007677     -0.464908
      2.11389      8.45554     11.11389         0.030945     -0.009978     -0.460922
      0.00000     12.68331      9.00000        -0.022983     -0.010031      0.537909
      2.11389     14.79720      9.00000        -0.104202     -0.014635      0.542833
      0.00000     14.79720     11.11389        -0.039563     -0.006527     -0.466083
      2.11389     12.68331     11.11389        -0.041306     -0.039425     -0.444045
      0.00000     16.91108      9.00000        -0.041869      0.005195      0.535074
      2.11389     19.02497      9.00000        -0.033215      0.033181      0.528224
      0.00000     19.02497     11.11389        -0.027379      0.007760     -0.472998
      2.11389     16.91108     11.11389        -0.093912      0.009929     -0.461501
      4.22777      0.00000      9.00000        -0.005204      0.041841      0.535096
      6.34166      2.11389      9.00000        -0.005275      0.021373      0.536954
      4.22777      2.11389     11.11389         0.000745      0.025597     -0.471548
      6.34166      0.00000     11.11389         0.006518      0.039517     -0.466087
      4.22777      4.22777      9.00000         0.000546      0.014729      0.539269
      6.34166      6.34166      9.00000        -0.018897      0.012453      0.556577
      4.22777      6.34166     11.11389         0.019527      0.019527     -0.458760
      6.34166      4.22777     11.11389        -0.009978      0.030945     -0.460922
      4.22777      8.45554      9.00000         0.012453     -0.018897      0.556577
      6.34166     10.56943      9.00000         0.005369     -0.090015      0.615823
      4.22777     10.56943     11.11389         0.086357     -0.070552     -0.395200
      6.34166      8.45554     11.11389         0.050272      0.050272     -0.388758
      4.22777     12.68331      9.00000        -0.054732     -0.124592      0.514482
      6.34166     14.79720      9.00000         0.068988     -0.068875     -0.058494
      4.22777     14.79720     11.11389        -0.596766     -0.074136     -0.435620
      6.34166     12.68331     11.11389         0.008561     -0.976354     -0.462689
      4.22777     16.91108      9.00000        -0.087502      0.087510      0.484446
      6.34166     19.02497      9.00000         0.014630      0.104154      0.542824
      4.22777     19.02497     11.11389        -0.009929      0.093880     -0.461483
      6.34166     16.91108     11.11389         0.074189      0.596781     -0.435627
      8.45554      0.00000      9.00000         0.010027      0.022933      0.537928
     10.56943      2.11389      9.00000        -0.010031     -0.022983      0.537909
      8.45554      2.11389     11.11389        -0.007677      0.008868     -0.464908
     10.56943      0.00000     11.11389         0.007656     -0.008940     -0.464894
      8.45554      4.22777      9.00000        -0.035127     -0.001138      0.540606
     10.56943      6.34166      9.00000        -0.124592     -0.054732      0.514482
      8.45554      6.34166     11.11389        -0.070552      0.086357     -0.395200
     10.56943      4.22777     11.11389        -0.039425     -0.041306     -0.444045
      8.45554      8.45554      9.00000        -0.090015      0.005369      0.615823
     10.56943     10.56943      9.00000        -0.080696      0.080768      0.568479
      8.45554     10.56943     11.11389        -0.018073     -0.018073     -0.078356
     10.56943      8.45554     11.11389        -0.976354      0.008561     -0.462689
      8.45554     12.68331      9.00000         0.080768     -0.080696      0.568479
     10.56943     14.79720      9.00000         0.090010     -0.005394      0.615892
      8.45554     14.79720     11.11389         0.977365     -0.008224     -0.463747
     10.56943     12.68331     11.11389         0.018203      0.018203     -0.078078
[...]
     19.02497      6.34166     11.11389        -0.036229      0.005050      0.315306
     16.91108      6.34166      9.00000        -0.071781      0.030939     -0.370706
     19.02497      4.22777      9.00000        -0.025392      0.012990     -0.378071
     16.91108      8.45554     11.11389        -0.083910     -0.026382      0.298602
     19.02497     10.56943     11.11389        -0.016993     -0.014007      0.309305
     16.91108     10.56943      9.00000        -0.046100     -0.052753     -0.383865
     19.02497      8.45554      9.00000        -0.036126     -0.004515     -0.380358
     16.91108     12.68331     11.11389        -0.002034     -0.041603      0.298028
     19.02497     14.79720     11.11389         0.018857     -0.003184      0.313630
     16.91108     14.79720      9.00000         0.013040     -0.012393     -0.387479
     19.02497     12.68331      9.00000         0.002374     -0.010949     -0.383332
     16.91108     16.91108     11.11389         0.019518      0.007013      0.313309
     19.02497     19.02497     11.11389         0.015759      0.001951      0.319888
     16.91108     19.02497      9.00000         0.008685      0.008685     -0.381341
     19.02497     16.91108      9.00000         0.020653     -0.001764     -0.380814
    total drift:                               -0.724840      0.728142      2.716484

  FREE ENERGIE OF THE ION-ELECTRON SYSTEM (eV)
  free  energy   TOTEN  =     -1753.42493645 eV

  energy  without entropy=    -1753.42493645  energy(sigma->0) =    -1753.42493645