 vasp.6.3.0 20Jan22 (build Apr  1 2022 16:44:48) complex
 executed on        HPECrayEX_GCC date 2023.01.09  11:10:55

 INCAR:
   SYSTEM = MgO-rocksalt
   ISMEAR = 0
   SIGMA = 0.05
   EDIFF = 1E-6
   ALGO = ALL
   ISTART = 0
   IBRION = -1
   NSW = 0
   ISYM = 2
   DIPOL = 0.5 0.5 0.5
   IDIPOL = 3
   LDIPOL = .TRUE.
   GGA = PE
   IVDW = 212
   LVDWEXPANSION = .TRUE.
   ENCUT = 520
   PREC = Accurate
   LASPH = .TRUE.
   LREAL = Auto
   ISPIN = 1
   NELM = 200
   NELMIN = 8
   NCORE = 4
   KPAR = 2
   LWAVE = .FALSE.
   LCHARG = .FALSE.

 POTCAR:    PAW_PBE Ag 02Apr2005
 POTCAR:    PAW_PBE Mg_pv 13Apr2007
 POTCAR:    PAW_PBE O 08Apr2002
 POTCAR:    PAW_PBE Ag 02Apr2005
   VRHFIN =Ag : s1 d10

   TITEL  = PAW_PBE Ag 02Apr2005
   POMASS =  107.868; ZVAL   =   11.000    mass and valenz
   ENMAX  =  249.844; ENMIN  =  187.383 eV

   TITEL  = PAW_PBE Mg_pv 13Apr2007
   POMASS =   24.305; ZVAL   =    8.000    mass and valenz
   ENMAX  =  403.929; ENMIN  =  302.947 eV

   TITEL  = PAW_PBE O 08Apr2002
   POMASS =   16.000; ZVAL   =    6.000    mass and valenz
   ENMAX  =  400.000; ENMIN  =  300.000 eV

 Optimization of the real space projectors (new method)

 maximal supplied QI-value         = 15.12
 optimisation between [QCUT,QGAM] = [ 11.64, 23.28] = [ 37.95,151.78] Ry
 Optimized for a Real-space Cutoff    1.45 Angstroem

   l    n(q)    QCUT    max X(q) W(low)/X(q) W(high)/X(q)  e(spline)
   2      9    11.641    53.897    0.22E-03    0.42E-04    0.28E-06
   2      9    11.641    52.416    0.23E-03    0.44E-04    0.29E-06
   0     10    11.641   122.045    0.51E-04    0.25E-04    0.16E-06
   0     10    11.641    73.629    0.49E-04    0.24E-04    0.16E-06
   1     10    11.641    15.255    0.99E-04    0.55E-04    0.11E-06
   1     10    11.641     9.562    0.81E-04    0.47E-04    0.95E-07
 Optimization of the real space projectors (new method)

[...]

   l    n(q)    QCUT    max X(q) W(low)/X(q) W(high)/X(q)  e(spline)
   1      8    11.527     2.974    0.44E-04    0.56E-04    0.12E-06
   1      8    11.527     4.279    0.12E-03    0.12E-03    0.26E-06
   0      9    11.527    16.381    0.46E-04    0.64E-04    0.78E-07
   0      9    11.527     5.611    0.26E-04    0.43E-04    0.55E-07
   2      8    11.527     4.652    0.22E-03    0.72E-04    0.47E-07
 Optimization of the real space projectors (new method)

 maximal supplied QI-value         = 24.76
 optimisation between [QCUT,QGAM] = [ 11.64, 23.27] = [ 37.91,151.63] Ry
 Optimized for a Real-space Cutoff    1.14 Angstroem

   l    n(q)    QCUT    max X(q) W(low)/X(q) W(high)/X(q)  e(spline)
   0      8    11.635    20.381    0.10E-03    0.33E-03    0.24E-06
   0      8    11.635    15.268    0.11E-03    0.35E-03    0.26E-06
   1      7    11.635     5.964    0.24E-03    0.31E-03    0.30E-06
   1      7    11.635     5.382    0.22E-03    0.25E-03    0.26E-06
  PAW_PBE Ag 02Apr2005                  :
  PAW_PBE Mg_pv 13Apr2007               :
  PAW_PBE O 08Apr2002                   :

 POSCAR: Ag Mg  O
  positions in direct lattice
  velocities in cartesian coordinates
 exchange correlation table for  LEXCH =        8
   RHO(1)=    0.500       N(1)  =     2000
   RHO(2)=  100.500       N(2)  =     4000

 ion  position               nearest neighbor table
   1  0.400  0.563  0.612- 157 2.54   4 2.67   3 2.71  55 2.75
   2  0.400  0.500  0.835-   3 2.58
   3  0.400  0.499  0.718-   2 2.58   1 2.71   4 2.71
   4  0.400  0.436  0.612- 153 2.53   1 2.67   3 2.71  55 2.76
   5  0.000  0.000  0.407- 107 2.11 108 2.11 123 2.11 188 2.11 105 2.11
   6  0.100  0.100  0.407- 107 2.11 108 2.11 112 2.11 127 2.11 106 2.11
   7  0.000  0.100  0.503- 105 2.11 106 2.11 109 2.11 186 2.11 107 2.11
   8  0.100  0.000  0.503- 105 2.11 106 2.11 122 2.11 125 2.11 108 2.11
   9  0.000  0.200  0.407- 111 2.11 107 2.11 112 2.11 192 2.11 109 2.11
  10  0.100  0.300  0.407- 112 2.11 111 2.11 116 2.11 131 2.11 110 2.11
  11  0.000  0.300  0.503- 109 2.11 110 2.11 113 2.11 190 2.11 111 2.11
  12  0.100  0.200  0.503- 110 2.11 109 2.11 106 2.11 129 2.11 112 2.11
  13  0.000  0.400  0.407- 111 2.11 115 2.11 116 2.11 196 2.11 113 2.11
  14  0.100  0.500  0.407- 115 2.11 116 2.11 120 2.11 135 2.11 114 2.11
  15  0.000  0.500  0.503- 113 2.11 114 2.11 117 2.11 194 2.11 115 2.11
  16  0.100  0.400  0.503- 110 2.11 113 2.11 114 2.11 133 2.11 116 2.11
  17  0.000  0.600  0.407- 115 2.11 119 2.11 120 2.11 200 2.11 117 2.11
  18  0.100  0.700  0.407- 124 2.11 120 2.11 119 2.11 139 2.11 118 2.11
  19  0.000  0.700  0.503- 121 2.11 118 2.11 117 2.11 198 2.11 119 2.11
  20  0.100  0.600  0.503- 114 2.11 117 2.11 118 2.11 137 2.11 120 2.11
  21  0.000  0.800  0.407- 119 2.11 123 2.11 124 2.11 204 2.11 121 2.11
  22  0.100  0.900  0.407- 108 2.11 123 2.11 124 2.11 143 2.11 122 2.11
  23  0.000  0.900  0.503- 105 2.11 121 2.11 122 2.11 202 2.11 123 2.11
  24  0.100  0.800  0.503- 118 2.11 121 2.11 122 2.11 141 2.11 124 2.11
  25  0.200  0.000  0.407- 128 2.11 127 2.11 108 2.11 143 2.11 125 2.11
  26  0.300  0.100  0.407- 127 2.11 128 2.11 132 2.11 147 2.11 126 2.11
  27  0.200  0.100  0.503- 126 2.11 125 2.11 106 2.11 129 2.11 127 2.11
  28  0.300  0.000  0.503- 125 2.11 126 2.11 142 2.11 145 2.11 128 2.11
  29  0.200  0.200  0.407- 131 2.11 132 2.11 112 2.11 127 2.11 129 2.11
  30  0.300  0.300  0.407- 131 2.11 132 2.11 136 2.11 151 2.11 130 2.11
  31  0.200  0.300  0.503- 129 2.11 130 2.11 110 2.11 133 2.11 131 2.11
  32  0.300  0.200  0.503- 129 2.11 130 2.11 126 2.11 149 2.11 132 2.11
  33  0.200  0.400  0.407- 136 2.11 131 2.11 135 2.11 116 2.11 133 2.11
  34  0.300  0.500  0.407- 135 2.11 136 2.11 140 2.11 155 2.11 134 2.11
  35  0.200  0.500  0.503- 134 2.11 133 2.11 114 2.11 137 2.11 135 2.11
  36  0.300  0.400  0.503- 133 2.11 130 2.11 134 2.11 153 2.11 136 2.11
  37  0.200  0.600  0.407- 140 2.11 135 2.11 139 2.11 120 2.11 137 2.11
  38  0.300  0.700  0.407- 139 2.11 144 2.11 140 2.11 159 2.11 138 2.11
  39  0.200  0.700  0.503- 138 2.11 141 2.11 118 2.11 137 2.11 139 2.11
  40  0.300  0.600  0.503- 137 2.11 134 2.11 138 2.11 157 2.11 140 2.11
  41  0.200  0.800  0.407- 139 2.11 144 2.11 143 2.11 124 2.11 141 2.11
  42  0.300  0.900  0.407- 143 2.11 128 2.11 144 2.11 163 2.11 142 2.11
  43  0.200  0.900  0.503- 142 2.11 125 2.11 141 2.11 122 2.11 143 2.11
  44  0.300  0.800  0.503- 138 2.11 141 2.11 142 2.11 161 2.11 144 2.11
  45  0.400  0.000  0.407- 128 2.11 147 2.11 148 2.11 163 2.11 145 2.11
  46  0.500  0.100  0.407- 147 2.11 148 2.11 152 2.11 167 2.11 146 2.11
  47  0.400  0.100  0.503- 126 2.11 145 2.11 146 2.11 149 2.11 147 2.11
  48  0.500  0.000  0.503- 145 2.11 146 2.11 162 2.11 165 2.11 148 2.11
  49  0.400  0.200  0.407- 151 2.11 147 2.11 132 2.11 152 2.11 149 2.11
  50  0.500  0.300  0.407- 152 2.11 151 2.11 156 2.11 171 2.11 150 2.11
  51  0.400  0.300  0.503- 149 2.11 130 2.11 150 2.11 153 2.11 151 2.11
  52  0.500  0.200  0.503- 150 2.11 149 2.11 146 2.11 169 2.11 152 2.11
  53  0.400  0.400  0.407- 136 2.11 151 2.11 155 2.11 156 2.11 153 2.11
  54  0.500  0.500  0.407- 155 2.11 156 2.11 160 2.11 175 2.11 154 2.11
  55  0.400  0.500  0.503- 134 2.11 153 2.11 154 2.11 157 2.11 155 2.11   1 2.75   4 2.76
  56  0.500  0.400  0.503- 150 2.11 153 2.11 154 2.11 173 2.11 156 2.11
  57  0.400  0.600  0.407- 140 2.11 155 2.11 159 2.11 160 2.11 157 2.11
  58  0.500  0.700  0.407- 164 2.11 160 2.11 159 2.11 179 2.11 158 2.11
  59  0.400  0.700  0.503- 161 2.11 157 2.11 158 2.11 138 2.11 159 2.11
  60  0.500  0.600  0.503- 154 2.11 157 2.11 158 2.11 177 2.11 160 2.11
[...]
 190  0.900  0.300  0.503-  92 2.11  91 2.11  11 2.11  96 2.11  90 2.11
 191  0.800  0.300  0.407-  70 2.11  89 2.11  90 2.11  93 2.11  91 2.11
 192  0.900  0.200  0.407-  90 2.11  86 2.11  89 2.11   9 2.11  92 2.11
 193  0.800  0.400  0.503-  76 2.11  91 2.11  95 2.11  96 2.11  93 2.11
 194  0.900  0.500  0.503-  15 2.11  95 2.11  96 2.11 100 2.11  94 2.11
 195  0.800  0.500  0.407-  74 2.11  93 2.11  94 2.11  97 2.11  95 2.11
 196  0.900  0.400  0.407-  13 2.11  90 2.11  93 2.11  94 2.11  96 2.11
 197  0.800  0.600  0.503-  80 2.11  95 2.11  99 2.11 100 2.11  97 2.11
 198  0.900  0.700  0.503- 104 2.11  99 2.11 100 2.11  19 2.11  98 2.11
 199  0.800  0.700  0.407-  78 2.11 101 2.11  98 2.11  97 2.11  99 2.11
 200  0.900  0.600  0.407-  17 2.11  94 2.11  97 2.11  98 2.11 100 2.11
 201  0.800  0.800  0.503-  84 2.11  99 2.11 103 2.11 104 2.11 101 2.11
 202  0.900  0.900  0.503-  23 2.11  88 2.11 103 2.11 104 2.11 102 2.11
 203  0.800  0.900  0.407-  82 2.11  85 2.11 101 2.11 102 2.11 103 2.11
 204  0.900  0.800  0.407-  98 2.11  21 2.11 101 2.11 102 2.11 104 2.11

  LATTYP: Found a simple tetragonal cell.
 ALAT       =    21.1388521970
 C/A-ratio  =     1.0461251639

  Lattice vectors:

 A1 = (  21.1388521970,   0.0000000000,   0.0000000000)
 A2 = (   0.0000000000,  21.1388521970,   0.0000000000)
 A3 = (   0.0000000000,   0.0000000000,  22.1138852197)

Analysis of symmetry for initial positions (statically):
 Subroutine PRICEL returns:
 Original cell was already a primitive cell.

 Routine SETGRP: Setting up the symmetry group for a
 simple tetragonal supercell.

 Subroutine GETGRP returns: Found  1 space group operations
 (whereof  1 operations were pure point group operations)
 out of a pool of 16 trial point group operations.

The static configuration has the point symmetry C_1 .

Analysis of symmetry for dynamics (positions and initial velocities):
 Subroutine PRICEL returns:
 Original cell was already a primitive cell.

[...]

The dynamic configuration has the point symmetry C_1 .

Analysis of constrained symmetry for selective dynamics:
 Subroutine PRICEL returns:
 Original cell was already a primitive cell.

 Routine SETGRP: Setting up the symmetry group for a
 simple tetragonal supercell.

 Subroutine GETGRP returns: Found  1 space group operations
 (whereof  1 operations were pure point group operations)
 out of a pool of 16 trial point group operations.

The constrained configuration has the point symmetry C_1 .

 Subroutine INISYM returns: Found  1 space group operations
 (whereof  1 operations are pure point group operations),
 and found     1 'primitive' translations

                                     Primitive cell

  volume of cell :    9881.6133

  direct lattice vectors                    reciprocal lattice vectors
    21.138852197  0.000000000  0.000000000     0.047306258  0.000000000  0.000000000
     0.000000000 21.138852197  0.000000000     0.000000000  0.047306258  0.000000000
     0.000000000  0.000000000 22.113885220     0.000000000  0.000000000  0.045220457

  length of vectors
    21.138852197 21.138852197 22.113885220     0.047306258  0.047306258  0.045220457

  position of ions in fractional coordinates (direct lattice)
     0.400262498  0.562644202  0.611757253
     0.400180406  0.499857897  0.835303009
     0.400101799  0.499467099  0.718499130
     0.400198249  0.436299472  0.611663944
     0.000000000  0.000000000  0.406984115
     0.100000000  0.100000000  0.406984115
     0.000000000  0.100000000  0.502574971
     0.100000000  0.000000000  0.502574971
     0.000000000  0.200000000  0.406984115
     0.100000000  0.300000000  0.406984115
[...]
   O         167.526          4.744         17.696          4.744         17.703          3.277
   O         167.718          4.745         17.706          4.745         17.714          3.279
   O         169.034          4.751         17.775          4.754         17.807          3.292
   O         169.049          4.751         17.776          4.753         17.803          3.292
   O         167.755          4.745         17.708          4.745         17.715          3.279
   O         167.856          4.745         17.713          4.746         17.722          3.280
   O         169.056          4.751         17.776          4.753         17.803          3.292
   O         169.063          4.751         17.777          4.753         17.803          3.292

  vdW correction parametrized for the method pbe

  IVDW = 212
  VDW_RADIUS =    50.000 A
  VDW_SR =     0.820
  VDW_D =     6.000
  SCSRAD =   120.000 A
  LVDWSCS = T
  LSCSGRAD = T
  LSCALER0 = T
  ITIM = -1
  Edisp (eV):   -9.84786

  FORCE on cell =-STRESS in cart. coord.  units (eV):
  Direction    XX          YY          ZZ          XY          YZ          ZX
  Alpha Z  1401.13727  1401.13727  1401.13727
  Ewald  473476.01013474520.77188************     0.52185     3.38727    -0.69588
  Hartree502967.16064503755.62661************     0.38723     2.58976    -0.59482
  E(xc)   -7882.20831 -7881.23792 -7911.54924     0.00043     0.00242     0.00012
  Local  ************************************    -0.90169    -5.94634     1.29591
  n-local -8798.98225 -8801.16616 -8921.66335    -0.00021     0.00688    -0.00509
  augment  3652.89496  3650.06190  3591.41160    -0.00230    -0.01418     0.00323
  Kinetic 23233.35654 23225.93122 23475.46932    -0.00438     0.00091    -0.01079
  Fock        0.00000     0.00000     0.00000     0.00000     0.00000     0.00000
  vdW       -10.01678    -9.99934    -3.24605    -0.00007     0.00018     0.00005
  Total    -158.83454  -158.90019    15.94061     0.00087     0.02689    -0.00728
  in kB     -25.75299   -25.76364     2.58457     0.00014     0.00436    -0.00118

 VOLUME and BASIS-vectors are now :
  energy-cutoff  :      520.00
  volume of cell :     9881.61
      direct lattice vectors                 reciprocal lattice vectors
    21.138852197  0.000000000  0.000000000     0.047306258  0.000000000  0.000000000
     0.000000000 21.138852197  0.000000000     0.000000000  0.047306258  0.000000000
     0.000000000  0.000000000 22.113885220     0.000000000  0.000000000  0.045220457

  length of vectors
    21.138852197 21.138852197 22.113885220     0.047306258  0.047306258  0.045220457

 FORCES acting on ions:
    Electron-Ion                     Ewald-Force                    Non-Local-Force
   -.474E+00 -.382E+03 -.187E+04   0.464E+00 0.376E+03 0.187E+04   0.704E-02 0.675E+01 -.175E+01
   -.148E+00 -.990E+00 -.113E+04   0.141E+00 0.967E+00 0.113E+04   0.577E-02 0.237E-01 0.699E+01
   0.647E+00 0.109E+01 -.162E+04   -.637E+00 -.107E+01 0.162E+04   -.873E-02 -.217E-01 -.130E+01
   -.792E-01 0.382E+03 -.187E+04   0.760E-01 -.376E+03 0.187E+04   0.907E-03 -.673E+01 -.174E+01
   0.615E+01 0.323E-01 0.934E+03   -.618E+01 -.325E-01 -.927E+03   0.243E-01 0.152E-03 -.745E+01
   0.120E+02 0.911E+01 0.938E+03   -.121E+02 -.914E+01 -.930E+03   0.527E-01 0.207E-01 -.745E+01
   0.880E+01 0.829E+01 -.918E+03   -.884E+01 -.829E+01 0.910E+03   0.288E-01 0.385E-02 0.734E+01
   0.129E+02 0.589E-01 -.916E+03   -.129E+02 -.592E-01 0.909E+03   0.397E-01 0.271E-03 0.734E+01
   0.945E+01 0.111E+02 0.938E+03   -.950E+01 -.111E+02 -.930E+03   0.423E-01 0.103E-01 -.745E+01
   0.245E+02 0.176E+02 0.948E+03   -.247E+02 -.177E+02 -.941E+03   0.134E+00 0.264E-01 -.747E+01
   0.182E+02 0.153E+02 -.912E+03   -.182E+02 -.153E+02 0.904E+03   0.501E-01 0.208E-02 0.734E+01
   0.234E+02 0.220E+02 -.910E+03   -.235E+02 -.220E+02 0.903E+03   0.918E-01 0.192E-01 0.734E+01
   0.163E+02 0.757E+01 0.944E+03   -.164E+02 -.757E+01 -.936E+03   0.666E-01 0.446E-02 -.746E+01
   0.355E+02 -.656E-01 0.957E+03   -.357E+02 0.660E-01 -.950E+03   0.164E+00 -.326E-03 -.748E+01
   0.261E+02 -.528E-01 -.907E+03   -.262E+02 0.530E-01 0.900E+03   0.527E-01 -.143E-03 0.733E+01
   0.515E+02 0.180E+02 -.895E+03   -.517E+02 -.180E+02 0.887E+03   0.141E+00 0.236E-02 0.732E+01
   0.163E+02 -.763E+01 0.944E+03   -.164E+02 0.763E+01 -.936E+03   0.663E-01 -.471E-02 -.746E+01
   0.244E+02 -.177E+02 0.948E+03   -.246E+02 0.177E+02 -.940E+03   0.133E+00 -.266E-01 -.747E+01
   0.181E+02 -.153E+02 -.912E+03   -.182E+02 0.153E+02 0.904E+03   0.498E-01 -.217E-02 0.734E+01
   0.514E+02 -.181E+02 -.895E+03   -.516E+02 0.181E+02 0.887E+03   0.141E+00 -.280E-02 0.732E+01
   0.942E+01 -.111E+02 0.937E+03   -.947E+01 0.111E+02 -.930E+03   0.421E-01 -.102E-01 -.745E+01
   0.120E+02 -.903E+01 0.938E+03   -.121E+02 0.905E+01 -.930E+03   0.524E-01 -.202E-01 -.745E+01
   0.878E+01 -.822E+01 -.918E+03   -.882E+01 0.822E+01 0.910E+03   0.287E-01 -.361E-02 0.734E+01
   0.233E+02 -.219E+02 -.910E+03   -.234E+02 0.219E+02 0.903E+03   0.911E-01 -.190E-01 0.734E+01
   0.109E+02 0.637E-01 0.939E+03   -.110E+02 -.642E-01 -.931E+03   0.446E-01 0.433E-03 -.745E+01
   0.865E+01 0.168E+02 0.945E+03   -.870E+01 -.170E+02 -.937E+03   0.406E-01 0.946E-01 -.746E+01
   0.172E+02 0.184E+02 -.911E+03   -.173E+02 -.185E+02 0.903E+03   0.575E-01 0.549E-01 0.734E+01
   0.908E+01 0.118E+00 -.911E+03   -.912E+01 -.119E+00 0.904E+03   0.279E-01 0.648E-03 0.734E+01
   0.196E+02 0.239E+02 0.949E+03   -.197E+02 -.240E+02 -.941E+03   0.114E+00 0.856E-01 -.745E+01
   0.246E+02 0.427E+02 0.982E+03   -.248E+02 -.430E+02 -.974E+03   0.213E+00 0.217E+00 -.733E+01
   0.534E+02 0.482E+02 -.884E+03   -.538E+02 -.483E+02 0.876E+03   0.317E+00 0.401E-01 0.733E+01
   0.226E+02 0.547E+02 -.892E+03   -.227E+02 -.551E+02 0.884E+03   0.895E-01 0.278E+00 0.735E+01
   0.439E+02 0.205E+02 0.978E+03   -.444E+02 -.205E+02 -.970E+03   0.336E+00 0.399E-01 -.751E+01
   0.455E+02 -.205E+00 0.103E+04   -.460E+02 0.208E+00 -.102E+04   0.346E+00 -.211E-02 -.746E+01
   0.104E+03 -.235E+00 -.848E+03   -.104E+03 0.236E+00 0.841E+03   0.295E+00 -.589E-03 0.729E+01
   0.115E+03 0.852E+02 -.768E+03   -.117E+03 -.852E+02 0.760E+03   0.130E+01 0.398E-02 0.721E+01
   0.438E+02 -.206E+02 0.978E+03   -.442E+02 0.207E+02 -.970E+03   0.334E+00 -.410E-01 -.751E+01
   0.244E+02 -.426E+02 0.981E+03   -.247E+02 0.429E+02 -.974E+03   0.212E+00 -.216E+00 -.734E+01
   0.531E+02 -.482E+02 -.884E+03   -.535E+02 0.482E+02 0.877E+03   0.313E+00 -.406E-01 0.733E+01
   0.114E+03 -.858E+02 -.769E+03   -.116E+03 0.858E+02 0.761E+03   0.129E+01 -.793E-02 0.721E+01
   0.195E+02 -.238E+02 0.949E+03   -.197E+02 0.239E+02 -.941E+03   0.114E+00 -.849E-01 -.745E+01
   0.862E+01 -.167E+02 0.945E+03   -.867E+01 0.168E+02 -.937E+03   0.403E-01 -.933E-01 -.746E+01
   0.172E+02 -.182E+02 -.911E+03   -.172E+02 0.183E+02 0.904E+03   0.572E-01 -.539E-01 0.734E+01
   0.224E+02 -.544E+02 -.892E+03   -.225E+02 0.547E+02 0.884E+03   0.887E-01 -.274E+00 0.735E+01
   0.151E-01 0.898E-01 0.942E+03   -.152E-01 -.907E-01 -.935E+03   0.218E-04 0.689E-03 -.746E+01
   -.862E+01 0.169E+02 0.945E+03   0.868E+01 -.170E+02 -.937E+03   -.405E-01 0.947E-01 -.746E+01
   0.251E-01 0.284E+02 -.905E+03   -.251E-01 -.285E+02 0.898E+03   0.240E-04 0.129E+00 0.734E+01
   -.906E+01 0.117E+00 -.911E+03   0.909E+01 -.118E+00 0.904E+03   -.278E-01 0.628E-03 0.734E+01
   0.307E-01 0.370E+02 0.961E+03   -.309E-01 -.373E+02 -.953E+03   0.808E-04 0.291E+00 -.746E+01
   -.245E+02 0.427E+02 0.982E+03   0.248E+02 -.430E+02 -.974E+03   -.213E+00 0.217E+00 -.733E+01
   0.144E+00 0.119E+03 -.824E+03   -.144E+00 -.121E+03 0.816E+03   0.364E-03 0.127E+01 0.752E+01
   -.225E+02 0.548E+02 -.891E+03   0.227E+02 -.551E+02 0.884E+03   -.894E-01 0.278E+00 0.735E+01
   0.101E+00 0.406E+02 0.104E+04   -.101E+00 -.408E+02 -.103E+04   -.220E-03 0.182E+00 -.594E+01
   -.454E+02 -.198E+00 0.103E+04   0.459E+02 0.201E+00 -.102E+04   -.346E+00 -.222E-02 -.746E+01
   0.616E+00 -.669E+00 -.563E+03   -.618E+00 0.681E+00 0.558E+03   0.311E-03 -.148E-01 0.423E+01
   -.115E+03 0.855E+02 -.767E+03   0.117E+03 -.855E+02 0.760E+03   -.130E+01 0.514E-02 0.720E+01
   0.109E+00 -.409E+02 0.104E+04   -.109E+00 0.411E+02 -.103E+04   -.411E-03 -.183E+00 -.596E+01
   -.244E+02 -.427E+02 0.981E+03   0.246E+02 0.430E+02 -.974E+03   -.212E+00 -.216E+00 -.734E+01
   0.166E+00 -.119E+03 -.825E+03   -.167E+00 0.120E+03 0.818E+03   0.573E-03 -.126E+01 0.752E+01
   -.114E+03 -.861E+02 -.768E+03   0.116E+03 0.861E+02 0.761E+03   -.129E+01 -.876E-02 0.721E+01
[...]
   -.979E+01 0.881E+01 0.707E+03   0.983E+01 -.882E+01 -.711E+03   -.519E-01 0.120E-01 0.348E+01
   -.140E-01 0.717E+01 0.704E+03   0.140E-01 -.718E+01 -.708E+03   -.105E-04 0.815E-02 0.348E+01
   -.179E+02 0.755E+01 -.683E+03   0.179E+02 -.755E+01 0.687E+03   -.518E-01 0.102E-02 -.368E+01
   -.369E-01 -.301E-01 -.685E+03   0.369E-01 0.302E-01 0.689E+03   -.203E-05 -.131E-03 -.367E+01
   -.134E+02 -.289E-01 0.710E+03   0.134E+02 0.291E-01 -.714E+03   -.599E-01 -.187E-03 0.348E+01
   -.240E-01 0.472E+01 0.707E+03   0.240E-01 -.472E+01 -.711E+03   -.102E-04 0.299E-02 0.348E+01
   -.178E+02 -.761E+01 -.683E+03   0.179E+02 0.761E+01 0.687E+03   -.517E-01 -.130E-02 -.368E+01
   -.269E-01 -.930E+01 -.687E+03   0.269E-01 0.930E+01 0.692E+03   -.150E-04 -.240E-02 -.366E+01
   -.977E+01 -.882E+01 0.707E+03   0.980E+01 0.883E+01 -.711E+03   -.517E-01 -.121E-01 0.348E+01
   -.245E-01 -.476E+01 0.707E+03   0.245E-01 0.476E+01 -.711E+03   -.197E-04 -.322E-02 0.348E+01
   -.941E+01 -.106E+02 -.688E+03   0.944E+01 0.106E+02 0.692E+03   -.386E-01 -.100E-01 -.366E+01
   -.135E-01 -.523E+01 -.690E+03   0.135E-01 0.524E+01 0.695E+03   -.154E-04 -.358E-02 -.365E+01
   -.526E+01 -.491E+01 0.703E+03   0.529E+01 0.492E+01 -.707E+03   -.315E-01 -.986E-02 0.348E+01
   -.147E-01 -.716E+01 0.704E+03   0.147E-01 0.716E+01 -.708E+03   -.207E-04 -.806E-02 0.348E+01
   -.234E-01 -.503E-02 0.526E+01   0.232E-11 0.119E-11 0.182E-11   0.210E-01 0.648E-02 -.587E+01

 POSITION                                       TOTAL-FORCE (eV/Angst)
      8.46109     11.89365     13.52833        -0.003455      0.102630     -0.028105
      8.45935     10.56642     18.47179        -0.001177      0.000150      0.067734
      8.45769     10.55816     15.88881         0.001070     -0.000945      0.026438
      8.45973      9.22287     13.52627        -0.002097     -0.086271     -0.033510
      0.00000      0.00000      9.00000        -0.006680     -0.000049      0.349033
      2.11389      2.11389      9.00000        -0.014627     -0.005849      0.348552
      0.00000      2.11389     11.11389        -0.007740     -0.001062     -0.309214
      2.11389      0.00000     11.11389        -0.010960     -0.000080     -0.308749
      0.00000      4.22777      9.00000        -0.011322     -0.002909      0.349783
      2.11389      6.34166      9.00000        -0.035480     -0.007443      0.351273
      0.00000      6.34166     11.11389        -0.012855     -0.000346     -0.304813
      2.11389      4.22777     11.11389        -0.024337     -0.005297     -0.304812
      0.00000      8.45554      9.00000        -0.017599     -0.001155      0.351409
      2.11389     10.56943      9.00000        -0.044637      0.000088      0.353702
      0.00000     10.56943     11.11389        -0.013122      0.000032     -0.301012
      2.11389      8.45554     11.11389        -0.035424      0.000344     -0.292504
      0.00000     12.68331      9.00000        -0.017539      0.001211      0.351405
      2.11389     14.79720      9.00000        -0.035233      0.007469      0.351257
      0.00000     14.79720     11.11389        -0.012778      0.000357     -0.304834
      2.11389     12.68331     11.11389        -0.035309     -0.000236     -0.292553
      0.00000     16.91108      9.00000        -0.011247      0.002864      0.349782
      2.11389     19.02497      9.00000        -0.014550      0.005706      0.348565
      0.00000     19.02497     11.11389        -0.007697      0.000984     -0.309225
      2.11389     16.91108     11.11389        -0.024133      0.005235     -0.304843
      4.22777      0.00000      9.00000        -0.012577     -0.000124      0.348568
      6.34166      2.11389      9.00000        -0.011818     -0.025129      0.347917
      4.22777      2.11389     11.11389        -0.016114     -0.014427     -0.306099
      6.34166      0.00000     11.11389        -0.007944     -0.000178     -0.306457
      4.22777      4.22777      9.00000        -0.032750     -0.024840      0.344436
      6.34166      6.34166      9.00000        -0.068716     -0.068358      0.303506
      4.22777      6.34166     11.11389        -0.084585     -0.010133     -0.292116
      6.34166      4.22777     11.11389        -0.026512     -0.075081     -0.302245
      4.22777      8.45554      9.00000        -0.087401     -0.010168      0.354188
      6.34166     10.56943      9.00000        -0.112869      0.000675      0.308437
      4.22777     10.56943     11.11389        -0.080251      0.000127     -0.254844
      6.34166      8.45554     11.11389        -0.441382      0.014077     -0.306420
      4.22777     12.68331      9.00000        -0.086940      0.010476      0.354142
      6.34166     14.79720      9.00000        -0.068438      0.068149      0.304303
      4.22777     14.79720     11.11389        -0.083662      0.010281     -0.292261
      6.34166     12.68331     11.11389        -0.436288     -0.012816     -0.305961
      4.22777     16.91108      9.00000        -0.032501      0.024609      0.344519
      6.34166     19.02497      9.00000        -0.011749      0.024749      0.347937
      4.22777     19.02497     11.11389        -0.016016      0.014146     -0.306111
      6.34166     16.91108     11.11389        -0.026294      0.074163     -0.302246
      8.45554      0.00000      9.00000         0.000006     -0.000191      0.348646
     10.56943      2.11389      9.00000         0.011831     -0.025145      0.347920
      8.45554      2.11389     11.11389         0.000005     -0.033460     -0.304681
     10.56943      0.00000     11.11389         0.007957     -0.000174     -0.306457
      8.45554      4.22777      9.00000        -0.000013     -0.075360      0.342688
     10.56943      6.34166      9.00000         0.068708     -0.068332      0.303385
      8.45554      6.34166     11.11389        -0.000104     -0.408825     -0.374253
     10.56943      4.22777     11.11389         0.026516     -0.075196     -0.302235
      8.45554      8.45554      9.00000         0.000096     -0.039060     -0.003711
     10.56943     10.56943      9.00000         0.112825      0.000715      0.307817
      8.45554     10.56943     11.11389        -0.002052     -0.002629     -0.562140
     10.56943      8.45554     11.11389         0.442355      0.013317     -0.307454
      8.45554     12.68331      9.00000         0.000167      0.039056     -0.000742
     10.56943     14.79720      9.00000         0.068415      0.068081      0.304116
      8.45554     14.79720     11.11389        -0.000172      0.404624     -0.371689
     10.56943     12.68331     11.11389         0.437587     -0.011986     -0.307677
[...]
     19.02497      6.34166     11.11389         0.000011      0.000671      0.490757
     16.91108      6.34166      9.00000        -0.014411      0.003359     -0.535281
     19.02497      4.22777      9.00000         0.000008      0.002257     -0.534737
     16.91108      8.45554     11.11389        -0.014668      0.000355      0.486077
     19.02497     10.56943     11.11389         0.000012     -0.000043      0.488108
     16.91108     10.56943      9.00000        -0.016721     -0.000059     -0.536511
     19.02497      8.45554      9.00000         0.000009      0.000828     -0.535669
     16.91108     12.68331     11.11389        -0.014630     -0.000449      0.486098
     19.02497     14.79720     11.11389         0.000009     -0.000708      0.490776
     16.91108     14.79720      9.00000        -0.014345     -0.003404     -0.535282
     19.02497     12.68331      9.00000         0.000007     -0.000907     -0.535669
     16.91108     16.91108     11.11389        -0.010715     -0.002857      0.491885
     19.02497     19.02497     11.11389         0.000007     -0.001016      0.494387
     16.91108     19.02497      9.00000        -0.008663     -0.002734     -0.534345
     19.02497     16.91108      9.00000         0.000006     -0.002247     -0.534739
    total drift:                               -0.002402      0.001454     -0.605033

  FREE ENERGIE OF THE ION-ELECTRON SYSTEM (eV)
  free  energy   TOTEN  =     -1153.77777328 eV

  energy  without entropy=    -1153.77777328  energy(sigma->0) =    -1153.77777328