 vasp.6.4.0 14Feb23 (build Jul 14 2023 13:46:40) complex

 executed on             LinuxIFC date 2023.07.30  08:19:03

 INCAR:
   SYSTEM = MgO-rocksalt
   ISMEAR = 0
   SIGMA = 0.05
   EDIFF = 1E-6
   ALGO = ALL
   ISTART = 0
   IBRION = -1
   NSW = 0
   ISYM = 2
   DIPOL = 0.5 0.5 0.5
   IDIPOL = 3
   LDIPOL = .TRUE.
   METAGGA = R2SCAN
   LUSE_VDW = .TRUE.
   BPARAM = 11.95
   CPARAM = 0.0093
   ENCUT = 520
   PREC = Accurate
   LASPH = .TRUE.
   LREAL = Auto
   ISPIN = 1
   NELM = 200
   NELMIN = 8
   NCORE = 16
   KPAR = 1
   LWAVE = .FALSE.
   LCHARG = .FALSE.

 POTCAR:    PAW_PBE Au 04Oct2007
 POTCAR:    PAW_PBE Mg_pv 13Apr2007
 POTCAR:    PAW_PBE O 08Apr2002
|               ----> ADVICE to this user running VASP <----                  |
|     You have switched on vdW-DFT.                                           |
|     This routine was written and supplied by Jiri Klimes. We recommend      |
|     that you carefully read and cite the following publications:            |
|       J. Klimes, D.R. Bowler, A. Michelides                                 |
|          J. Phys.: Cond Matt. 22 022201 (2010)                              |
|       J. Klimes, D.R. Bowler, A. Michelides                                 |
|          Phys. Rev. B. 83, 195131 (2011)                                    |
|     and references therein.                                                 |

   TITEL  = PAW_PBE Au 04Oct2007
   POMASS =  196.966; ZVAL   =   11.000    mass and valenz
   ENMAX  =  229.943; ENMIN  =  172.457 eV

   TITEL  = PAW_PBE Mg_pv 13Apr2007
   POMASS =   24.305; ZVAL   =    8.000    mass and valenz
   ENMAX  =  403.929; ENMIN  =  302.947 eV

   TITEL  = PAW_PBE O 08Apr2002
   POMASS =   16.000; ZVAL   =    6.000    mass and valenz
   ENMAX  =  400.000; ENMIN  =  300.000 eV

 Optimization of the real space projectors (new method)

 maximal supplied QI-value         = 15.12
 optimisation between [QCUT,QGAM] = [ 11.64, 23.28] = [ 37.95,151.78] Ry
 Optimized for a Real-space Cutoff    1.49 Angstroem

   l    n(q)    QCUT    max X(q) W(low)/X(q) W(high)/X(q)  e(spline)
   2      9    11.641    60.898    0.24E-03    0.10E-03    0.19E-06
   2      9    11.641    58.894    0.25E-03    0.10E-03    0.19E-06
   0     10    11.641   109.617    0.73E-04    0.33E-04    0.11E-06
   0     10    11.641    75.026    0.71E-04    0.32E-04    0.11E-06
   1     10    11.641    16.344    0.27E-04    0.97E-04    0.16E-06
   1     10    11.641    10.160    0.23E-04    0.77E-04    0.13E-06
 Optimization of the real space projectors (new method)

[...]

   l    n(q)    QCUT    max X(q) W(low)/X(q) W(high)/X(q)  e(spline)
   1      8    11.527     2.974    0.44E-04    0.56E-04    0.12E-06
   1      8    11.527     4.279    0.12E-03    0.12E-03    0.26E-06
   0      9    11.527    16.381    0.46E-04    0.64E-04    0.78E-07
   0      9    11.527     5.611    0.26E-04    0.43E-04    0.55E-07
   2      8    11.527     4.652    0.22E-03    0.72E-04    0.47E-07
 Optimization of the real space projectors (new method)

 maximal supplied QI-value         = 24.76
 optimisation between [QCUT,QGAM] = [ 11.64, 23.27] = [ 37.91,151.63] Ry
 Optimized for a Real-space Cutoff    1.14 Angstroem

   l    n(q)    QCUT    max X(q) W(low)/X(q) W(high)/X(q)  e(spline)
   0      8    11.635    20.381    0.10E-03    0.33E-03    0.24E-06
   0      8    11.635    15.268    0.11E-03    0.35E-03    0.26E-06
   1      7    11.635     5.964    0.24E-03    0.31E-03    0.30E-06
   1      7    11.635     5.382    0.22E-03    0.25E-03    0.26E-06
  PAW_PBE Au 04Oct2007                  :
  PAW_PBE Mg_pv 13Apr2007               :
  PAW_PBE O 08Apr2002                   :

 POSCAR: Au Mg  O
  positions in direct lattice

 METAGGA = R2SCAN                                      LMAXTAU =  6    LMIXTAU =  F

 ion  position               nearest neighbor table
   1  0.492  0.408  0.630-   2 2.53  54 2.82
   2  0.408  0.492  0.630-   1 2.53  53 2.82
   3  0.000  0.000  0.407- 105 2.11 106 2.11 121 2.11 186 2.11 103 2.11
   4  0.100  0.100  0.407- 105 2.11 106 2.11 110 2.11 125 2.11 104 2.11
   5  0.000  0.100  0.503- 103 2.11 104 2.11 107 2.11 184 2.11 105 2.11
   6  0.100  0.000  0.503- 103 2.11 104 2.11 120 2.11 123 2.11 106 2.11
   7  0.000  0.200  0.407- 109 2.11 105 2.11 110 2.11 190 2.11 107 2.11
   8  0.100  0.300  0.407- 110 2.11 109 2.11 114 2.11 129 2.11 108 2.11
   9  0.000  0.300  0.503- 107 2.11 108 2.11 111 2.11 188 2.11 109 2.11
  10  0.100  0.200  0.503- 108 2.11 107 2.11 104 2.11 127 2.11 110 2.11
  11  0.000  0.400  0.407- 109 2.11 113 2.11 114 2.11 194 2.11 111 2.11
  12  0.100  0.500  0.407- 113 2.11 114 2.11 118 2.11 133 2.11 112 2.11
  13  0.000  0.500  0.503- 111 2.11 112 2.11 115 2.11 192 2.11 113 2.11
  14  0.100  0.400  0.503- 108 2.11 111 2.11 112 2.11 131 2.11 114 2.11
  15  0.000  0.600  0.407- 113 2.11 117 2.11 118 2.11 198 2.11 115 2.11
  16  0.100  0.700  0.407- 122 2.11 118 2.11 117 2.11 137 2.11 116 2.11
  17  0.000  0.700  0.503- 119 2.11 116 2.11 115 2.11 196 2.11 117 2.11
  18  0.100  0.600  0.503- 112 2.11 115 2.11 116 2.11 135 2.11 118 2.11
  19  0.000  0.800  0.407- 117 2.11 121 2.11 122 2.11 202 2.11 119 2.11
  20  0.100  0.900  0.407- 106 2.11 121 2.11 122 2.11 141 2.11 120 2.11
  21  0.000  0.900  0.503- 103 2.11 119 2.11 120 2.11 200 2.11 121 2.11
  22  0.100  0.800  0.503- 116 2.11 119 2.11 120 2.11 139 2.11 122 2.11
  23  0.200  0.000  0.407- 126 2.11 125 2.11 106 2.11 141 2.11 123 2.11
  24  0.300  0.100  0.407- 125 2.11 126 2.11 130 2.11 145 2.11 124 2.11
  25  0.200  0.100  0.503- 124 2.11 123 2.11 104 2.11 127 2.11 125 2.11
  26  0.300  0.000  0.503- 123 2.11 124 2.11 140 2.11 143 2.11 126 2.11
  27  0.200  0.200  0.407- 129 2.11 130 2.11 110 2.11 125 2.11 127 2.11
  28  0.300  0.300  0.407- 129 2.11 130 2.11 134 2.11 149 2.11 128 2.11
  29  0.200  0.300  0.503- 127 2.11 128 2.11 108 2.11 131 2.11 129 2.11
  30  0.300  0.200  0.503- 127 2.11 128 2.11 124 2.11 147 2.11 130 2.11
  31  0.200  0.400  0.407- 134 2.11 129 2.11 133 2.11 114 2.11 131 2.11
  32  0.300  0.500  0.407- 133 2.11 134 2.11 138 2.11 153 2.11 132 2.11
  33  0.200  0.500  0.503- 132 2.11 131 2.11 112 2.11 135 2.11 133 2.11
  34  0.300  0.400  0.503- 131 2.11 128 2.11 132 2.11 151 2.11 134 2.11
  35  0.200  0.600  0.407- 138 2.11 133 2.11 137 2.11 118 2.11 135 2.11
  36  0.300  0.700  0.407- 137 2.11 142 2.11 138 2.11 157 2.11 136 2.11
  37  0.200  0.700  0.503- 136 2.11 139 2.11 116 2.11 135 2.11 137 2.11
  38  0.300  0.600  0.503- 135 2.11 132 2.11 136 2.11 155 2.11 138 2.11
  39  0.200  0.800  0.407- 137 2.11 142 2.11 141 2.11 122 2.11 139 2.11
  40  0.300  0.900  0.407- 141 2.11 126 2.11 142 2.11 161 2.11 140 2.11
  41  0.200  0.900  0.503- 140 2.11 123 2.11 139 2.11 120 2.11 141 2.11
  42  0.300  0.800  0.503- 136 2.11 139 2.11 140 2.11 159 2.11 142 2.11
  43  0.400  0.000  0.407- 126 2.11 145 2.11 146 2.11 161 2.11 143 2.11
  44  0.500  0.100  0.407- 145 2.11 146 2.11 150 2.11 165 2.11 144 2.11
  45  0.400  0.100  0.503- 124 2.11 143 2.11 144 2.11 147 2.11 145 2.11
  46  0.500  0.000  0.503- 143 2.11 144 2.11 160 2.11 163 2.11 146 2.11
  47  0.400  0.200  0.407- 149 2.11 145 2.11 130 2.11 150 2.11 147 2.11
  48  0.500  0.300  0.407- 150 2.11 149 2.11 154 2.11 169 2.11 148 2.11
  49  0.400  0.300  0.503- 147 2.11 128 2.11 148 2.11 151 2.11 149 2.11
  50  0.500  0.200  0.503- 148 2.11 147 2.11 144 2.11 167 2.11 150 2.11
  51  0.400  0.400  0.407- 134 2.11 149 2.11 153 2.11 154 2.11 151 2.11
  52  0.500  0.500  0.407- 153 2.11 154 2.11 158 2.11 173 2.11 152 2.11
  53  0.400  0.500  0.503- 132 2.11 151 2.11 152 2.11 155 2.11 153 2.11   2 2.82
  54  0.500  0.400  0.503- 148 2.11 151 2.11 152 2.11 171 2.11 154 2.11   1 2.82
  55  0.400  0.600  0.407- 138 2.11 153 2.11 157 2.11 158 2.11 155 2.11
  56  0.500  0.700  0.407- 162 2.11 158 2.11 157 2.11 177 2.11 156 2.11
  57  0.400  0.700  0.503- 159 2.11 155 2.11 156 2.11 136 2.11 157 2.11
  58  0.500  0.600  0.503- 152 2.11 155 2.11 156 2.11 175 2.11 158 2.11
  59  0.400  0.800  0.407- 157 2.11 142 2.11 161 2.11 162 2.11 159 2.11
  60  0.500  0.900  0.407- 146 2.11 161 2.11 162 2.11 181 2.11 160 2.11
[...]
 188  0.900  0.300  0.503-  90 2.11  89 2.11   9 2.11  94 2.11  88 2.11
 189  0.800  0.300  0.407-  68 2.11  87 2.11  88 2.11  91 2.11  89 2.11
 190  0.900  0.200  0.407-  88 2.11  84 2.11  87 2.11   7 2.11  90 2.11
 191  0.800  0.400  0.503-  74 2.11  89 2.11  93 2.11  94 2.11  91 2.11
 192  0.900  0.500  0.503-  13 2.11  93 2.11  94 2.11  98 2.11  92 2.11
 193  0.800  0.500  0.407-  72 2.11  91 2.11  92 2.11  95 2.11  93 2.11
 194  0.900  0.400  0.407-  11 2.11  88 2.11  91 2.11  92 2.11  94 2.11
 195  0.800  0.600  0.503-  78 2.11  93 2.11  97 2.11  98 2.11  95 2.11
 196  0.900  0.700  0.503- 102 2.11  97 2.11  98 2.11  17 2.11  96 2.11
 197  0.800  0.700  0.407-  76 2.11  99 2.11  96 2.11  95 2.11  97 2.11
 198  0.900  0.600  0.407-  15 2.11  92 2.11  95 2.11  96 2.11  98 2.11
 199  0.800  0.800  0.503-  82 2.11  97 2.11 101 2.11 102 2.11  99 2.11
 200  0.900  0.900  0.503-  21 2.11  86 2.11 101 2.11 102 2.11 100 2.11
 201  0.800  0.900  0.407-  80 2.11  83 2.11  99 2.11 100 2.11 101 2.11
 202  0.900  0.800  0.407-  96 2.11  19 2.11  99 2.11 100 2.11 102 2.11

  LATTYP: Found a simple tetragonal cell.
 ALAT       =    21.1388521970
 C/A-ratio  =     1.0461251639

  Lattice vectors:

 A1 = (  21.1388521970,   0.0000000000,   0.0000000000)
 A2 = (   0.0000000000,  21.1388521970,   0.0000000000)
 A3 = (   0.0000000000,   0.0000000000,  22.1138852197)

Analysis of symmetry for initial positions (statically):
 Subroutine PRICEL returns:
 Original cell was already a primitive cell.

 Routine SETGRP: Setting up the symmetry group for a
 simple tetragonal supercell.

 Subroutine GETGRP returns: Found  4 space group operations
 (whereof  2 operations were pure point group operations)
 out of a pool of 16 trial point group operations.

The static configuration has the point symmetry C_1h.
 The point group associated with its full space group is C_2v.

Analysis of symmetry for dynamics (positions and initial velocities):
 Subroutine PRICEL returns:
 Original cell was already a primitive cell.

 Routine SETGRP: Setting up the symmetry group for a
 simple tetragonal supercell.

 Subroutine GETGRP returns: Found  4 space group operations
 (whereof  2 operations were pure point group operations)
 out of a pool of 16 trial point group operations.

The dynamic configuration has the point symmetry C_1h.
 The point group associated with its full space group is C_2v.

 Subroutine INISYM returns: Found  4 space group operations
 (whereof  2 operations are pure point group operations),
 and found     1 'primitive' translations

                                     Primitive cell

  volume of cell :    9881.6133

  direct lattice vectors                    reciprocal lattice vectors
    21.138852197  0.000000000  0.000000000     0.047306258  0.000000000  0.000000000
     0.000000000 21.138852197  0.000000000     0.000000000  0.047306258  0.000000000
     0.000000000  0.000000000 22.113885220     0.000000000  0.000000000  0.045220457

  length of vectors
[...]
     52     -44.3701      2.00000
     53     -44.3700      2.00000
     54     -44.3696      2.00000
     55     -44.3692      2.00000
     56     -44.3682      2.00000
     57     -44.3669      2.00000
     58     -44.3663      2.00000
     59     -44.3661      2.00000
     60     -44.3657      2.00000
[...]
    850       4.8537      0.00000
    851       4.8721      0.00000
    852       4.8728      0.00000
    853       4.8778      0.00000
    854       4.8872      0.00000
    855       4.9179      0.00000
    856       5.0581      0.00000
    857       5.1135      0.00000
    858       5.1229      0.00000
    859       5.1300      0.00000
    860       5.1308      0.00000
    861       5.1958      0.00000
    862       5.2937      0.00000
    863       5.4802      0.00000
    864       5.7400      0.00000

 soft charge-density along one line, spin component           1
         0         1         2         3         4         5         6         7         8         9
 total charge-density along one line

------------------------ aborting loop because EDIFF is reached ----------------------------------------

  FORCE on cell =-STRESS in cart. coord.  units (eV):
  Direction    XX          YY          ZZ          XY          YZ          ZX
  Alpha Z  1365.75682  1365.75682  1365.75682
  Ewald  478966.19865478966.19865************  -341.35603     0.00001    -0.00001
  Hartree507735.62723507735.62725************  -228.90801     0.00001    -0.00000
  E(xc)   -8374.79770 -8374.79771 -8366.23988    -0.18952     0.00000     0.00000
  Local  ************************************   554.78910    -0.00001     0.00001
  n-local -8693.69975 -8693.69966 -8805.75183     8.97985    -0.00003    -0.00003
  augment  3830.00862  3830.00956  3771.40714     1.78757     0.00001     0.00001
  Kinetic 23040.88021 23040.87993 23265.15290     5.36540     0.00004     0.00011
  Fock        0.00000     0.00000     0.00000     0.00000     0.00000     0.00000
  Total    -232.32589  -232.32589   -20.23144     0.46836    -0.00000     0.00000
  in kB     -37.66867   -37.66867    -3.28027     0.07594    -0.00000     0.00000

 VOLUME and BASIS-vectors are now :
  energy-cutoff  :      520.00
  volume of cell :     9881.61
      direct lattice vectors                 reciprocal lattice vectors
    21.138852197  0.000000000  0.000000000     0.047306258  0.000000000  0.000000000
     0.000000000 21.138852197  0.000000000     0.000000000  0.047306258  0.000000000
     0.000000000  0.000000000 22.113885220     0.000000000  0.000000000  0.045220457

  length of vectors
    21.138852197 21.138852197 22.113885220     0.047306258  0.047306258  0.045220457

 FORCES acting on ions:
    Electron-Ion                     Ewald-Force                    Non-Local-Force
   -.196E+03 0.196E+03 -.203E+04   0.191E+03 -.191E+03 0.203E+04   0.518E+01 -.518E+01 0.521E+00
   0.196E+03 -.196E+03 -.203E+04   -.191E+03 0.191E+03 0.203E+04   -.518E+01 0.518E+01 0.521E+00
   0.174E+01 0.174E+01 0.931E+03   -.174E+01 -.174E+01 -.923E+03   -.241E-02 -.241E-02 -.749E+01
   0.628E+01 0.628E+01 0.933E+03   -.627E+01 -.627E+01 -.925E+03   -.512E-02 -.512E-02 -.749E+01
   0.263E+01 0.602E+01 -.922E+03   -.261E+01 -.602E+01 0.914E+03   -.117E-01 -.609E-03 0.753E+01
   0.602E+01 0.263E+01 -.922E+03   -.602E+01 -.261E+01 0.914E+03   -.609E-03 -.117E-01 0.753E+01
   0.297E+01 0.642E+01 0.934E+03   -.295E+01 -.643E+01 -.926E+03   -.147E-01 0.395E-02 -.749E+01
   0.131E+02 0.814E+01 0.939E+03   -.131E+02 -.817E+01 -.931E+03   -.129E-01 0.170E-01 -.750E+01
   0.582E+01 0.718E+01 -.920E+03   -.580E+01 -.719E+01 0.912E+03   -.176E-01 0.584E-02 0.753E+01
   0.127E+02 0.117E+02 -.919E+03   -.127E+02 -.117E+02 0.911E+03   -.215E-01 0.461E-03 0.752E+01
   0.529E+01 0.235E+01 0.937E+03   -.529E+01 -.236E+01 -.929E+03   -.159E-03 0.692E-02 -.749E+01
   0.170E+02 -.270E+01 0.942E+03   -.170E+02 0.268E+01 -.934E+03   0.561E-01 0.151E-01 -.750E+01
   0.827E+01 -.258E+01 -.918E+03   -.829E+01 0.257E+01 0.910E+03   0.154E-01 0.476E-02 0.753E+01
   0.256E+02 0.587E+01 -.913E+03   -.256E+02 -.591E+01 0.905E+03   -.339E-02 0.249E-01 0.752E+01
   0.500E+01 -.548E+01 0.936E+03   -.503E+01 0.548E+01 -.928E+03   0.245E-01 -.183E-02 -.749E+01
   0.102E+02 -.908E+01 0.937E+03   -.102E+02 0.910E+01 -.929E+03   0.280E-01 -.145E-01 -.749E+01
   0.522E+01 -.823E+01 -.921E+03   -.525E+01 0.824E+01 0.913E+03   0.233E-01 -.480E-02 0.753E+01
   0.219E+02 -.112E+02 -.915E+03   -.219E+02 0.112E+02 0.907E+03   0.546E-01 0.312E-02 0.753E+01
   0.264E+01 -.504E+01 0.932E+03   -.266E+01 0.505E+01 -.924E+03   0.127E-01 -.663E-02 -.749E+01
   0.504E+01 -.264E+01 0.932E+03   -.505E+01 0.266E+01 -.924E+03   0.663E-02 -.127E-01 -.749E+01
   0.239E+01 -.239E+01 -.923E+03   -.239E+01 0.239E+01 0.915E+03   0.520E-02 -.520E-02 0.753E+01
   0.903E+01 -.903E+01 -.921E+03   -.905E+01 0.905E+01 0.913E+03   0.169E-01 -.169E-01 0.753E+01
   0.642E+01 0.297E+01 0.934E+03   -.643E+01 -.295E+01 -.926E+03   0.395E-02 -.147E-01 -.749E+01
   0.814E+01 0.131E+02 0.939E+03   -.817E+01 -.131E+02 -.931E+03   0.170E-01 -.129E-01 -.750E+01
   0.117E+02 0.127E+02 -.919E+03   -.117E+02 -.127E+02 0.911E+03   0.461E-03 -.215E-01 0.752E+01
   0.718E+01 0.583E+01 -.920E+03   -.719E+01 -.580E+01 0.912E+03   0.584E-02 -.176E-01 0.753E+01
   0.136E+02 0.136E+02 0.941E+03   -.136E+02 -.136E+02 -.933E+03   -.204E-02 -.204E-02 -.751E+01
   0.229E+02 0.229E+02 0.962E+03   -.229E+02 -.229E+02 -.954E+03   0.236E-01 0.236E-01 -.757E+01
   0.345E+02 0.229E+02 -.906E+03   -.344E+02 -.229E+02 0.898E+03   -.666E-01 0.278E-01 0.751E+01
   0.229E+02 0.345E+02 -.906E+03   -.229E+02 -.344E+02 0.898E+03   0.278E-01 -.666E-01 0.751E+01
   0.272E+02 0.713E+01 0.955E+03   -.272E+02 -.722E+01 -.947E+03   -.832E-02 0.671E-01 -.750E+01
   0.324E+02 -.885E+01 0.981E+03   -.323E+02 0.876E+01 -.974E+03   -.625E-01 0.647E-01 -.722E+01
   0.546E+02 -.782E+01 -.893E+03   -.548E+02 0.775E+01 0.885E+03   0.166E+00 0.579E-01 0.752E+01
   0.809E+02 0.359E+02 -.848E+03   -.806E+02 -.362E+02 0.840E+03   -.263E+00 0.250E+00 0.736E+01
   0.222E+02 -.136E+02 0.950E+03   -.223E+02 0.136E+02 -.942E+03   0.554E-01 -.212E-01 -.748E+01
   0.136E+02 -.222E+02 0.950E+03   -.136E+02 0.223E+02 -.942E+03   0.212E-01 -.554E-01 -.748E+01
   0.227E+02 -.227E+02 -.912E+03   -.227E+02 0.227E+02 0.904E+03   0.408E-01 -.408E-01 0.753E+01
   0.532E+02 -.532E+02 -.870E+03   -.534E+02 0.534E+02 0.862E+03   0.124E+00 -.124E+00 0.756E+01
   0.908E+01 -.102E+02 0.937E+03   -.910E+01 0.102E+02 -.929E+03   0.145E-01 -.280E-01 -.749E+01
   0.548E+01 -.500E+01 0.936E+03   -.548E+01 0.503E+01 -.928E+03   0.183E-02 -.245E-01 -.749E+01
   0.823E+01 -.522E+01 -.921E+03   -.824E+01 0.525E+01 0.913E+03   0.480E-02 -.233E-01 0.753E+01
   0.112E+02 -.219E+02 -.915E+03   -.112E+02 0.219E+02 0.907E+03   -.312E-02 -.546E-01 0.753E+01
   0.235E+01 0.529E+01 0.937E+03   -.236E+01 -.529E+01 -.929E+03   0.692E-02 -.159E-03 -.749E+01
   -.270E+01 0.170E+02 0.942E+03   0.268E+01 -.170E+02 -.934E+03   0.151E-01 0.561E-01 -.750E+01
   0.587E+01 0.256E+02 -.913E+03   -.591E+01 -.256E+02 0.905E+03   0.249E-01 -.339E-02 0.752E+01
   -.258E+01 0.827E+01 -.918E+03   0.257E+01 -.829E+01 0.910E+03   0.476E-02 0.154E-01 0.753E+01
   0.713E+01 0.272E+02 0.955E+03   -.722E+01 -.272E+02 -.947E+03   0.671E-01 -.832E-02 -.750E+01
   -.885E+01 0.324E+02 0.981E+03   0.876E+01 -.323E+02 -.974E+03   0.647E-01 -.625E-01 -.722E+01
   0.359E+02 0.809E+02 -.848E+03   -.362E+02 -.806E+02 0.840E+03   0.250E+00 -.263E+00 0.736E+01
   -.782E+01 0.546E+02 -.893E+03   0.775E+01 -.548E+02 0.885E+03   0.579E-01 0.166E+00 0.752E+01
   0.170E+02 0.170E+02 0.101E+04   -.170E+02 -.170E+02 -.997E+03   0.183E-01 0.183E-01 -.778E+01
   -.170E+02 -.170E+02 0.101E+04   0.170E+02 0.170E+02 -.997E+03   -.183E-01 -.183E-01 -.778E+01
   0.492E+02 -.492E+02 -.710E+03   -.486E+02 0.486E+02 0.704E+03   -.468E+00 0.468E+00 0.522E+01
   -.492E+02 0.492E+02 -.710E+03   0.486E+02 -.486E+02 0.704E+03   0.468E+00 -.468E+00 0.522E+01
   0.885E+01 -.324E+02 0.981E+03   -.876E+01 0.323E+02 -.974E+03   -.647E-01 0.625E-01 -.722E+01
   -.713E+01 -.272E+02 0.955E+03   0.722E+01 0.272E+02 -.947E+03   -.671E-01 0.832E-02 -.750E+01
   0.782E+01 -.546E+02 -.893E+03   -.775E+01 0.548E+02 0.885E+03   -.579E-01 -.166E+00 0.752E+01
   -.359E+02 -.809E+02 -.848E+03   0.362E+02 0.806E+02 0.840E+03   -.250E+00 0.263E+00 0.736E+01
   0.270E+01 -.170E+02 0.942E+03   -.268E+01 0.170E+02 -.934E+03   -.151E-01 -.561E-01 -.750E+01
   -.235E+01 -.529E+01 0.937E+03   0.236E+01 0.529E+01 -.929E+03   -.692E-02 0.159E-03 -.749E+01
[...]
   -.107E+02 0.587E+01 0.707E+03   0.107E+02 -.588E+01 -.710E+03   -.426E-01 0.860E-02 0.348E+01
   -.285E+01 0.488E+01 0.702E+03   0.286E+01 -.489E+01 -.706E+03   -.194E-01 0.808E-02 0.347E+01
   -.202E+02 0.279E+01 -.686E+03   0.203E+02 -.277E+01 0.690E+03   -.330E-01 -.280E-01 -.350E+01
   -.574E+01 -.234E+01 -.691E+03   0.573E+01 0.234E+01 0.694E+03   0.188E-02 -.961E-02 -.350E+01
   -.123E+02 -.288E+01 0.708E+03   0.123E+02 0.290E+01 -.712E+03   -.112E-01 -.349E-01 0.347E+01
   -.424E+01 0.152E+01 0.704E+03   0.425E+01 -.152E+01 -.708E+03   -.136E-01 -.446E-02 0.347E+01
   -.145E+02 -.865E+01 -.689E+03   0.145E+02 0.866E+01 0.693E+03   0.144E-01 -.160E-01 -.351E+01
   -.293E+01 -.605E+01 -.693E+03   0.292E+01 0.606E+01 0.696E+03   0.148E-01 -.276E-02 -.350E+01
   -.690E+01 -.655E+01 0.704E+03   0.689E+01 0.655E+01 -.707E+03   0.116E-01 -.632E-03 0.347E+01
   -.313E+01 -.419E+01 0.703E+03   0.313E+01 0.420E+01 -.707E+03   0.101E-01 -.843E-02 0.347E+01
   -.608E+01 -.608E+01 -.693E+03   0.607E+01 0.607E+01 0.696E+03   0.972E-02 0.972E-02 -.350E+01
   -.159E+01 -.159E+01 -.694E+03   0.159E+01 0.159E+01 0.698E+03   0.306E-02 0.306E-02 -.349E+01
   -.366E+01 -.157E+01 0.701E+03   0.366E+01 0.156E+01 -.705E+03   -.423E-03 0.915E-02 0.347E+01
   -.157E+01 -.366E+01 0.701E+03   0.156E+01 0.366E+01 -.705E+03   0.915E-02 -.423E-03 0.347E+01
   -.307E-01 0.150E-01 0.105E+02   0.312E-11 -.803E-12 -.239E-11   0.867E-16 0.101E-15 -.768E+01

 POSITION                                       TOTAL-FORCE (eV/Angst)
     10.40626      8.61871     13.92428        -0.207845      0.207845     -0.068811
      8.61871     10.40626     13.92428         0.207845     -0.207845     -0.068811
      0.00000      0.00000      9.00000         0.000676      0.000676      0.514922
      2.11389      2.11389      9.00000         0.001487      0.001487      0.515684
      0.00000      2.11389     11.11389         0.003293      0.000196     -0.485784
      2.11389      0.00000     11.11389         0.000196      0.003293     -0.485784
      0.00000      4.22777      9.00000         0.004001     -0.001114      0.515202
      2.11389      6.34166      9.00000         0.003182     -0.004774      0.516276
      0.00000      6.34166     11.11389         0.004855     -0.001682     -0.484615
      2.11389      4.22777     11.11389         0.006130      0.000166     -0.483708
      0.00000      8.45554      9.00000        -0.000132     -0.002061      0.515317
      2.11389     10.56943      9.00000        -0.014992     -0.004541      0.516832
      0.00000     10.56943     11.11389        -0.004154     -0.001460     -0.484741
      2.11389      8.45554     11.11389         0.000966     -0.007613     -0.481262
      0.00000     12.68331      9.00000        -0.006656      0.000609      0.514911
      2.11389     14.79720      9.00000        -0.008019      0.004379      0.513637
      0.00000     14.79720     11.11389        -0.006510      0.001469     -0.485777
      2.11389     12.68331     11.11389        -0.015433     -0.000607     -0.485195
      0.00000     16.91108      9.00000        -0.003563      0.001916      0.514640
      2.11389     19.02497      9.00000        -0.001916      0.003563      0.514640
      0.00000     19.02497     11.11389        -0.001467      0.001467     -0.486209
      2.11389     16.91108     11.11389        -0.004835      0.004835     -0.486192
      4.22777      0.00000      9.00000        -0.001114      0.004001      0.515202
      6.34166      2.11389      9.00000        -0.004774      0.003182      0.516276
      4.22777      2.11389     11.11389         0.000166      0.006130     -0.483708
      6.34166      0.00000     11.11389        -0.001682      0.004855     -0.484615
      4.22777      4.22777      9.00000         0.001013      0.001013      0.519126
      6.34166      6.34166      9.00000        -0.003685     -0.003685      0.535168
      4.22777      6.34166     11.11389         0.019762     -0.006065     -0.473065
      6.34166      4.22777     11.11389        -0.006065      0.019762     -0.473065
      4.22777      8.45554      9.00000        -0.000908     -0.021354      0.516005
      6.34166     10.56943      9.00000         0.020882     -0.021152      0.438863
      4.22777     10.56943     11.11389        -0.060149     -0.018976     -0.473892
      6.34166      8.45554     11.11389         0.094510     -0.064156     -0.385137
      4.22777     12.68331      9.00000        -0.016841      0.007771      0.509181
      6.34166     14.79720      9.00000        -0.007771      0.016841      0.509181
      4.22777     14.79720     11.11389        -0.012063      0.012063     -0.487226
      6.34166     12.68331     11.11389        -0.034831      0.034831     -0.496663
      4.22777     16.91108      9.00000        -0.004379      0.008019      0.513637
      6.34166     19.02497      9.00000        -0.000609      0.006656      0.514911
      4.22777     19.02497     11.11389        -0.001469      0.006510     -0.485777
      6.34166     16.91108     11.11389         0.000607      0.015433     -0.485195
      8.45554      0.00000      9.00000        -0.002061     -0.000132      0.515317
     10.56943      2.11389      9.00000        -0.004541     -0.014992      0.516832
      8.45554      2.11389     11.11389        -0.007613      0.000966     -0.481262
     10.56943      0.00000     11.11389        -0.001460     -0.004154     -0.484741
      8.45554      4.22777      9.00000        -0.021354     -0.000908      0.516005
     10.56943      6.34166      9.00000        -0.021152      0.020882      0.438863
      8.45554      6.34166     11.11389        -0.064156      0.094510     -0.385137
     10.56943      4.22777     11.11389        -0.018976     -0.060149     -0.473892
      8.45554      8.45554      9.00000        -0.001528     -0.001528      0.563020
     10.56943     10.56943      9.00000         0.001528      0.001528      0.563020
      8.45554     10.56943     11.11389         0.165087     -0.165087     -0.308345
     10.56943      8.45554     11.11389        -0.165087      0.165087     -0.308345
      8.45554     12.68331      9.00000         0.021152     -0.020882      0.438863
     10.56943     14.79720      9.00000         0.021354      0.000908      0.516005
      8.45554     14.79720     11.11389         0.018976      0.060149     -0.473892
     10.56943     12.68331     11.11389         0.064156     -0.094510     -0.385137
      8.45554     16.91108      9.00000         0.004541      0.014992      0.516832
     10.56943     19.02497      9.00000         0.002061      0.000132      0.515317
[...]
     19.02497      6.34166     11.11389        -0.005847      0.000474      0.321666
     16.91108      6.34166      9.00000        -0.011833      0.002385     -0.349745
     19.02497      4.22777      9.00000        -0.005405      0.002287     -0.350909
     16.91108      8.45554     11.11389        -0.009509     -0.007731      0.319772
     19.02497     10.56943     11.11389         0.000468     -0.002671      0.320745
     16.91108     10.56943      9.00000        -0.003168     -0.009660     -0.353103
     19.02497      8.45554      9.00000        -0.003800     -0.001216     -0.351327
     16.91108     12.68331     11.11389         0.003879     -0.004503      0.318645
     19.02497     14.79720     11.11389         0.004111     -0.000784      0.321674
     16.91108     14.79720      9.00000         0.003193     -0.000214     -0.352641
     19.02497     12.68331      9.00000         0.002791     -0.002369     -0.351727
     16.91108     16.91108     11.11389         0.002666      0.002666      0.321354
     19.02497     19.02497     11.11389         0.000840      0.000840      0.322496
     16.91108     19.02497      9.00000        -0.000131      0.002540     -0.351365
     19.02497     16.91108      9.00000         0.002540     -0.000131     -0.351365
    total drift:                               -0.030657      0.015009      2.818581

  FREE ENERGIE OF THE ION-ELECTRON SYSTEM (eV)
  free  energy   TOTEN  =     -1595.57002564 eV

  energy  without entropy=    -1595.57002564  energy(sigma->0) =    -1595.57002564