 vasp.6.4.0 14Feb23 (build Jul 14 2023 13:46:40) complex

 executed on             LinuxIFC date 2023.08.26  07:22:26

 INCAR:
   SYSTEM = MgO-rocksalt
   ISMEAR = 0
   SIGMA = 0.05
   EDIFF = 1E-6
   ALGO = ALL
   ISTART = 0
   IBRION = -1
   NSW = 0
   ISYM = 2
   DIPOL = 0.5 0.5 0.5
   IDIPOL = 3
   LDIPOL = .TRUE.
   METAGGA = R2SCAN
   LUSE_VDW = .TRUE.
   BPARAM = 11.95
   CPARAM = 0.0093
   ENCUT = 520
   PREC = Accurate
   LASPH = .TRUE.
   LREAL = Auto
   ISPIN = 1
   NELM = 200
   NELMIN = 8
   NCORE = 4
   KPAR = 2
   LWAVE = .FALSE.
   LCHARG = .FALSE.

 POTCAR:    PAW_PBE Au 04Oct2007
 POTCAR:    PAW_PBE Mg_pv 13Apr2007
 POTCAR:    PAW_PBE O 08Apr2002
|               ----> ADVICE to this user running VASP <----                  |
|     You have switched on vdW-DFT.                                           |
|     This routine was written and supplied by Jiri Klimes. We recommend      |
|     that you carefully read and cite the following publications:            |
|       J. Klimes, D.R. Bowler, A. Michelides                                 |
|          J. Phys.: Cond Matt. 22 022201 (2010)                              |
|       J. Klimes, D.R. Bowler, A. Michelides                                 |
|          Phys. Rev. B. 83, 195131 (2011)                                    |
|     and references therein.                                                 |

   TITEL  = PAW_PBE Au 04Oct2007
   POMASS =  196.966; ZVAL   =   11.000    mass and valenz
   ENMAX  =  229.943; ENMIN  =  172.457 eV

   TITEL  = PAW_PBE Mg_pv 13Apr2007
   POMASS =   24.305; ZVAL   =    8.000    mass and valenz
   ENMAX  =  403.929; ENMIN  =  302.947 eV

   TITEL  = PAW_PBE O 08Apr2002
   POMASS =   16.000; ZVAL   =    6.000    mass and valenz
   ENMAX  =  400.000; ENMIN  =  300.000 eV

 Optimization of the real space projectors (new method)

 maximal supplied QI-value         = 15.12
 optimisation between [QCUT,QGAM] = [ 11.64, 23.28] = [ 37.95,151.78] Ry
 Optimized for a Real-space Cutoff    1.49 Angstroem

   l    n(q)    QCUT    max X(q) W(low)/X(q) W(high)/X(q)  e(spline)
   2      9    11.641    60.898    0.24E-03    0.10E-03    0.19E-06
   2      9    11.641    58.894    0.25E-03    0.10E-03    0.19E-06
   0     10    11.641   109.617    0.73E-04    0.33E-04    0.11E-06
   0     10    11.641    75.026    0.71E-04    0.32E-04    0.11E-06
   1     10    11.641    16.344    0.27E-04    0.97E-04    0.16E-06
   1     10    11.641    10.160    0.23E-04    0.77E-04    0.13E-06
 Optimization of the real space projectors (new method)

[...]

   l    n(q)    QCUT    max X(q) W(low)/X(q) W(high)/X(q)  e(spline)
   1      8    11.527     2.974    0.44E-04    0.56E-04    0.12E-06
   1      8    11.527     4.279    0.12E-03    0.12E-03    0.26E-06
   0      9    11.527    16.381    0.46E-04    0.64E-04    0.78E-07
   0      9    11.527     5.611    0.26E-04    0.43E-04    0.55E-07
   2      8    11.527     4.652    0.22E-03    0.72E-04    0.47E-07
 Optimization of the real space projectors (new method)

 maximal supplied QI-value         = 24.76
 optimisation between [QCUT,QGAM] = [ 11.64, 23.27] = [ 37.91,151.63] Ry
 Optimized for a Real-space Cutoff    1.14 Angstroem

   l    n(q)    QCUT    max X(q) W(low)/X(q) W(high)/X(q)  e(spline)
   0      8    11.635    20.381    0.10E-03    0.33E-03    0.24E-06
   0      8    11.635    15.268    0.11E-03    0.35E-03    0.26E-06
   1      7    11.635     5.964    0.24E-03    0.31E-03    0.30E-06
   1      7    11.635     5.382    0.22E-03    0.25E-03    0.26E-06
  PAW_PBE Au 04Oct2007                  :
  PAW_PBE Mg_pv 13Apr2007               :
  PAW_PBE O 08Apr2002                   :

 POSCAR: Mg  O
  positions in direct lattice
  velocities in cartesian coordinates

 METAGGA = R2SCAN                                      LMAXTAU =  6    LMIXTAU =  F

 ion  position               nearest neighbor table
   1  0.498  0.433  0.611-  11 2.70  17 2.71  13 2.72   3 2.73   4 2.76   8 2.78
   2  0.326  0.314  0.579- 246 2.42  14 2.70  13 2.70  19 2.73  11 2.77  67 2.88  52 3.07
   3  0.558  0.545  0.592-   9 2.71   8 2.73   1 2.73  17 2.75  91 3.03
   4  0.567  0.324  0.619-  17 2.70   7 2.70  15 2.71  13 2.71   6 2.75   1 2.76
   5  0.449  0.096  0.604-  10 2.66  19 2.71   7 2.81
   6  0.637  0.214  0.618-   7 2.71  15 2.71  16 2.72   4 2.75  20 2.77  10 2.77
   7  0.510  0.210  0.625-  19 2.68   4 2.70   6 2.71  10 2.74  13 2.76   5 2.81
   8  0.428  0.542  0.592-  11 2.69   3 2.73   1 2.78  71 2.93
   9  0.685  0.549  0.597-  18 2.67   3 2.71  17 2.72
  10  0.574  0.099  0.611-  16 2.63   5 2.66   7 2.74   6 2.77
  11  0.370  0.431  0.607-  14 2.65   8 2.69   1 2.70   2 2.77  13 2.80
  12  0.820  0.335  0.592-  18 2.67  15 2.70  20 2.75 107 2.87
  13  0.439  0.320  0.621-   2 2.70   4 2.71   1 2.72   7 2.76  19 2.76  11 2.80
  14  0.251  0.417  0.581- 249 2.61  11 2.65   2 2.70  52 2.70
  15  0.695  0.328  0.609-  12 2.70  17 2.71   4 2.71   6 2.71  20 2.75  18 2.80
  16  0.687  0.112  0.575- 282 2.27  10 2.63   6 2.72  20 2.76  83 2.93  88 2.98
  17  0.626  0.436  0.607-   4 2.70  15 2.71   1 2.71   9 2.72   3 2.75  18 2.78
  18  0.756  0.444  0.596-   9 2.67  12 2.67  17 2.78  15 2.80
  19  0.403  0.210  0.577- 265 2.29   7 2.68   5 2.71   2 2.73  13 2.76  67 3.04
  20  0.759  0.221  0.584- 305 2.65  12 2.75  15 2.75  16 2.76   6 2.77  88 2.86
  21  0.000  1.000  0.430- 239 2.11 224 2.11 304 2.11 321 2.12 223 2.12 221 2.13
  22  0.100  0.100  0.430- 224 2.11 223 2.11 243 2.11 322 2.12 228 2.12 222 2.13
  23  0.000  0.099  0.500- 302 2.10 222 2.11 223 2.11 221 2.11 225 2.12
  24  0.100  0.999  0.500- 224 2.11 238 2.11 221 2.11 241 2.11 222 2.12
  25  1.000  0.200  0.430- 227 2.11 228 2.11 223 2.11 308 2.12 325 2.12 225 2.14
  26  0.100  0.300  0.430- 227 2.11 232 2.11 228 2.11 247 2.12 326 2.12 226 2.14
  27  0.000  0.300  0.500- 226 2.11 227 2.11 306 2.11 229 2.11 225 2.12
  28  0.099  0.200  0.500- 225 2.10 228 2.11 245 2.11 222 2.11 226 2.13
  29  1.000  0.400  0.430- 312 2.10 231 2.11 227 2.12 329 2.12 232 2.13 229 2.14
  30  0.100  0.500  0.430- 231 2.11 236 2.11 251 2.11 232 2.12 330 2.12 230 2.13
  31  1.000  0.501  0.500- 310 2.10 233 2.10 231 2.11 230 2.12 229 2.12
  32  0.098  0.401  0.500- 229 2.08 230 2.10 232 2.11 249 2.12 226 2.13
  33  1.000  0.600  0.430- 316 2.11 235 2.11 231 2.12 236 2.12 333 2.12 233 2.13
  34  0.100  0.700  0.430- 235 2.11 240 2.11 255 2.11 236 2.11 334 2.12 234 2.13
  35  1.000  0.700  0.500- 235 2.11 314 2.11 233 2.11 237 2.11 234 2.11
  36  0.100  0.601  0.500- 234 2.11 233 2.11 236 2.11 253 2.12 230 2.12
  37  1.000  0.800  0.430- 235 2.11 320 2.11 240 2.11 239 2.12 337 2.12 237 2.13
  38  0.100  0.900  0.430- 240 2.11 239 2.11 259 2.11 224 2.12 338 2.12 238 2.13
  39  0.000  0.899  0.500- 239 2.10 237 2.11 238 2.11 318 2.11 221 2.12
  40  0.100  0.800  0.500- 240 2.11 234 2.11 237 2.11 257 2.11 238 2.11
  41  0.200  1.000  0.430- 259 2.11 224 2.11 244 2.11 341 2.12 243 2.12 241 2.13
  42  0.300  0.099  0.430- 244 2.10 263 2.11 243 2.11 342 2.12 248 2.13 242 2.13
  43  0.199  0.099  0.500- 241 2.10 222 2.10 243 2.11 242 2.12 245 2.13
  44  0.300  0.999  0.500- 258 2.10 244 2.11 241 2.11 261 2.12 242 2.12
  45  0.199  0.200  0.430- 228 2.10 243 2.11 345 2.12 248 2.12 247 2.13 245 2.14
  46  0.300  0.300  0.429- 267 2.10 252 2.10 346 2.11 248 2.11 247 2.11 246 2.16
  47  0.198  0.299  0.500- 226 2.08 247 2.11 245 2.11 246 2.12 249 2.13
  48  0.297  0.198  0.500- 245 2.08 242 2.08 248 2.09 246 2.13 265 2.13
  49  0.200  0.400  0.429- 251 2.10 232 2.10 252 2.11 349 2.11 247 2.11 249 2.21
  50  0.300  0.501  0.430- 250 2.10 271 2.10 256 2.11 350 2.12 251 2.12 252 2.14
  51  0.200  0.502  0.500- 253 2.09 251 2.11 250 2.11 230 2.11 249 2.15
  52  0.302  0.402  0.499- 269 2.08 252 2.08 250 2.09 249 2.19 246 2.20  14 2.70   2 3.07
  53  0.200  0.600  0.430- 255 2.11 256 2.11 236 2.11 353 2.12 251 2.13 253 2.13
  54  0.300  0.700  0.430- 256 2.11 275 2.11 260 2.11 255 2.12 354 2.12 254 2.13
  55  0.200  0.700  0.500- 255 2.11 253 2.11 257 2.11 254 2.11 234 2.11
  56  0.300  0.601  0.500- 250 2.10 254 2.11 273 2.11 256 2.11 253 2.12
  57  0.200  0.800  0.430- 255 2.11 260 2.11 240 2.11 259 2.12 357 2.12 257 2.13
  58  0.300  0.900  0.430- 260 2.11 279 2.11 259 2.11 244 2.12 358 2.12 258 2.13
  59  0.200  0.900  0.500- 259 2.11 257 2.11 238 2.11 258 2.11 241 2.12
  60  0.300  0.800  0.500- 260 2.11 254 2.11 258 2.11 277 2.11 257 2.12
[...]
 406  0.900  0.300  0.359- 208 2.11 207 2.11 127 2.11 212 2.11 206 2.11 106 2.12
 407  0.800  0.300  0.289- 186 2.11 205 2.11 206 2.11 209 2.11 207 2.11
 408  0.900  0.200  0.289- 206 2.11 202 2.11 205 2.11 125 2.11 208 2.11
 409  0.800  0.400  0.359- 109 2.11 192 2.11 207 2.11 211 2.11 212 2.11 209 2.11
 410  0.900  0.500  0.359- 131 2.11 211 2.11 212 2.11 216 2.11 210 2.11 110 2.12
 411  0.800  0.500  0.289- 190 2.11 209 2.11 210 2.11 213 2.11 211 2.11
 412  0.900  0.400  0.289- 129 2.11 206 2.11 209 2.11 210 2.11 212 2.11
 413  0.800  0.600  0.359- 196 2.11 211 2.11 215 2.11 216 2.11 213 2.11 113 2.12
 414  0.900  0.700  0.359- 220 2.11 215 2.11 216 2.11 135 2.11 214 2.11 114 2.12
 415  0.800  0.700  0.289- 194 2.11 217 2.11 214 2.11 213 2.11 215 2.11
 416  0.900  0.600  0.289- 133 2.11 210 2.11 213 2.11 214 2.11 216 2.11
 417  0.800  0.800  0.359- 200 2.11 215 2.11 219 2.11 220 2.11 217 2.11 117 2.12
 418  0.900  0.900  0.359- 139 2.11 204 2.11 219 2.11 220 2.11 218 2.11 118 2.12
 419  0.800  0.900  0.289- 198 2.11 201 2.11 217 2.11 218 2.11 219 2.11
 420  0.900  0.800  0.289- 214 2.11 137 2.11 217 2.11 218 2.11 220 2.11

  LATTYP: Found a simple tetragonal cell.
 ALAT       =    21.1388521970
 C/A-ratio  =     1.4191877459

  Lattice vectors:

 A1 = (  21.1388521970,   0.0000000000,   0.0000000000)
 A2 = (   0.0000000000,  21.1388521970,   0.0000000000)
 A3 = (   0.0000000000,   0.0000000000,  30.0000000000)

Analysis of symmetry for initial positions (statically):
 Subroutine PRICEL returns:
 Original cell was already a primitive cell.

 Routine SETGRP: Setting up the symmetry group for a
 simple tetragonal supercell.

 Subroutine GETGRP returns: Found  1 space group operations
 (whereof  1 operations were pure point group operations)
 out of a pool of 16 trial point group operations.

The static configuration has the point symmetry C_1 .

Analysis of symmetry for dynamics (positions and initial velocities):
 Subroutine PRICEL returns:
 Original cell was already a primitive cell.

[...]

The dynamic configuration has the point symmetry C_1 .

Analysis of constrained symmetry for selective dynamics:
 Subroutine PRICEL returns:
 Original cell was already a primitive cell.

 Routine SETGRP: Setting up the symmetry group for a
 simple tetragonal supercell.

 Subroutine GETGRP returns: Found  1 space group operations
 (whereof  1 operations were pure point group operations)
 out of a pool of 16 trial point group operations.

The constrained configuration has the point symmetry C_1 .

 Subroutine INISYM returns: Found  1 space group operations
 (whereof  1 operations are pure point group operations),
 and found     1 'primitive' translations

                                     Primitive cell

[...]
     52     -43.8534      2.00000
     53     -43.8513      2.00000
     54     -43.8497      2.00000
     55     -43.8487      2.00000
     56     -43.8472      2.00000
     57     -43.8464      2.00000
     58     -43.8437      2.00000
     59     -43.8430      2.00000
     60     -43.8418      2.00000
[...]
   1810       7.5813      0.00000
   1811       7.5959      0.00000
   1812       7.6184      0.00000
   1813       7.6608      0.00000
   1814       7.6846      0.00000
   1815       7.7030      0.00000
   1816       7.7071      0.00000
   1817       7.7386      0.00000
   1818       7.7470      0.00000
   1819       7.7647      0.00000
   1820       7.7816      0.00000
   1821       7.7890      0.00000
   1822       7.8013      0.00000
   1823       7.8166      0.00000
   1824       7.8182      0.00000

 soft charge-density along one line, spin component           1
         0         1         2         3         4         5         6         7         8         9
 total charge-density along one line

------------------------ aborting loop because EDIFF is reached ----------------------------------------

  FORCE on cell =-STRESS in cart. coord.  units (eV):
  Direction    XX          YY          ZZ          XY          YZ          ZX
  Alpha Z  4657.84619  4657.84619  4657.84619
  Ewald  ************************************  -498.98969  -118.55741    67.13310
  Hartree************************************  -425.26872  -150.77580    45.82253
  E(xc)  -17643.63408-17643.71411-17636.33403    -0.09580     0.11797     0.02998
  Local  ************************************   923.31860   273.29551  -112.03734
  n-local-17444.76761-17437.04550-17510.16003    -0.24045    -2.28412    -0.62366
  augment  8733.85381  8736.25068  8713.15090     0.13661    -0.10141     0.00160
  Kinetic 48769.51804 48776.60817 49070.33835     0.66481    -1.52999    -0.32839
  Fock        0.00000     0.00000     0.00000     0.00000     0.00000     0.00000
  Total    -277.72394  -276.92078   -67.63849    -0.47464     0.16476    -0.00216
  in kB     -33.19249   -33.09650    -8.08389    -0.05673     0.01969    -0.00026

 VOLUME and BASIS-vectors are now :
  energy-cutoff  :      520.00
  volume of cell :    13405.53
      direct lattice vectors                 reciprocal lattice vectors
    21.138852197  0.000000000  0.000000000     0.047306258  0.000000000  0.000000000
     0.000000000 21.138852197  0.000000000     0.000000000  0.047306258  0.000000000
     0.000000000  0.000000000 30.000000000     0.000000000  0.000000000  0.033333333

  length of vectors
    21.138852197 21.138852197 30.000000000     0.047306258  0.047306258  0.033333333

 FORCES acting on ions:
    Electron-Ion                     Ewald-Force                    Non-Local-Force
   0.138E+03 -.323E+03 -.367E+04   -.138E+03 0.321E+03 0.367E+04   0.748E-01 0.206E+01 0.359E+00
   0.676E+03 0.241E+03 -.363E+04   -.674E+03 -.240E+03 0.364E+04   -.236E+01 -.123E+01 -.228E+01
   0.721E+01 -.786E+03 -.363E+04   -.679E+01 0.783E+03 0.363E+04   -.444E+00 0.253E+01 -.713E+00
   -.324E+02 -.562E+01 -.364E+04   0.336E+02 0.549E+01 0.364E+04   -.119E+01 0.143E+00 0.257E+00
   0.449E+03 0.761E+03 -.363E+04   -.446E+03 -.758E+03 0.363E+04   -.280E+01 -.342E+01 0.442E+00
   -.268E+03 0.330E+03 -.373E+04   0.268E+03 -.329E+03 0.373E+04   0.694E+00 -.988E+00 0.392E+00
   0.178E+03 0.348E+03 -.374E+04   -.177E+03 -.346E+03 0.374E+04   -.116E+01 -.220E+01 0.101E+01
   0.395E+03 -.763E+03 -.365E+04   -.394E+03 0.759E+03 0.366E+04   -.147E+01 0.422E+01 -.597E+00
   -.410E+03 -.767E+03 -.368E+04   0.409E+03 0.763E+03 0.368E+04   0.148E+01 0.397E+01 0.250E+00
   -.539E+02 0.811E+03 -.365E+04   0.550E+02 -.809E+03 0.365E+04   -.113E+01 -.175E+01 0.119E+01
   0.507E+03 -.378E+03 -.373E+04   -.508E+03 0.378E+03 0.373E+04   0.284E+00 -.268E+00 0.567E+00
   -.845E+03 -.147E+02 -.369E+04   0.839E+03 0.153E+02 0.369E+04   0.538E+01 -.619E+00 -.100E+00
   0.361E+03 0.566E+02 -.377E+04   -.361E+03 -.566E+02 0.377E+04   -.587E+00 -.254E-01 0.140E+01
   0.724E+03 -.252E+03 -.376E+04   -.718E+03 0.250E+03 0.376E+04   -.619E+01 0.213E+01 -.157E+01
   -.389E+03 -.940E+01 -.368E+04   0.387E+03 0.906E+01 0.368E+04   0.152E+01 0.319E+00 -.852E-01
   -.424E+03 0.690E+03 -.362E+04   0.422E+03 -.689E+03 0.362E+04   0.232E+01 -.198E+01 -.344E+01
   -.192E+03 -.320E+03 -.365E+04   0.191E+03 0.318E+03 0.365E+04   0.170E+01 0.176E+01 -.406E+00
   -.669E+03 -.425E+03 -.365E+04   0.668E+03 0.425E+03 0.365E+04   0.123E+01 0.628E+00 -.835E-01
   0.543E+03 0.425E+03 -.352E+04   -.542E+03 -.424E+03 0.352E+04   -.289E+00 -.141E+01 -.305E+01
   -.683E+03 0.389E+03 -.364E+04   0.681E+03 -.387E+03 0.364E+04   0.289E+01 -.170E+01 -.206E+01
   -.257E+02 0.476E+02 -.692E+03   0.258E+02 -.479E+02 0.692E+03   -.325E-01 0.229E+00 -.261E+00
   0.223E+02 0.580E+02 -.671E+03   -.223E+02 -.582E+02 0.672E+03   0.567E-01 0.237E+00 -.254E+00
   -.599E+02 0.887E+02 -.232E+04   0.599E+02 -.890E+02 0.232E+04   -.737E-01 0.425E+00 0.631E+01
   0.241E+02 0.658E+02 -.235E+04   -.242E+02 -.662E+02 0.234E+04   0.105E+00 0.436E+00 0.635E+01
   -.408E+02 0.482E+02 -.641E+03   0.409E+02 -.482E+02 0.642E+03   -.680E-01 -.125E-01 -.228E+00
   0.370E+02 0.200E+02 -.625E+03   -.373E+02 -.199E+02 0.625E+03   0.293E+00 -.787E-01 -.249E+00
   -.865E+02 0.293E+02 -.227E+04   0.865E+02 -.291E+02 0.226E+04   -.526E-01 -.303E+00 0.624E+01
   0.549E+02 0.802E+02 -.230E+04   -.552E+02 -.806E+02 0.229E+04   0.366E+00 0.416E+00 0.628E+01
   -.443E+02 -.233E+02 -.625E+03   0.437E+02 0.236E+02 0.625E+03   0.547E+00 -.230E+00 -.231E+00
   0.362E+02 -.533E+02 -.643E+03   -.363E+02 0.536E+02 0.643E+03   0.117E+00 -.281E+00 -.261E+00
   -.577E+02 -.854E+02 -.230E+04   0.573E+02 0.858E+02 0.229E+04   0.489E+00 -.552E+00 0.631E+01
   0.910E+02 -.304E+02 -.226E+04   -.920E+02 0.309E+02 0.225E+04   0.965E+00 -.512E+00 0.623E+01
   -.258E+02 -.598E+02 -.675E+03   0.256E+02 0.599E+02 0.675E+03   0.203E+00 -.118E+00 -.272E+00
   0.179E+02 -.444E+02 -.698E+03   -.179E+02 0.444E+02 0.698E+03   0.330E-01 -.471E-01 -.277E+00
   -.284E+02 -.625E+02 -.235E+04   0.283E+02 0.624E+02 0.235E+04   0.140E+00 0.826E-02 0.638E+01
   0.458E+02 -.954E+02 -.233E+04   -.460E+02 0.957E+02 0.232E+04   0.254E+00 -.400E+00 0.632E+01
   -.170E+02 -.129E+02 -.709E+03   0.170E+02 0.128E+02 0.710E+03   0.308E-01 0.135E+00 -.274E+00
   0.129E+02 0.193E+02 -.709E+03   -.129E+02 -.194E+02 0.709E+03   -.838E-06 0.180E+00 -.273E+00
   -.279E+02 0.297E+02 -.236E+04   0.280E+02 -.300E+02 0.235E+04   -.575E-01 0.383E+00 0.636E+01
   0.187E+02 -.201E+02 -.236E+04   -.187E+02 0.200E+02 0.236E+04   0.443E-01 0.176E+00 0.639E+01
   0.531E+02 0.568E+02 -.677E+03   -.531E+02 -.571E+02 0.678E+03   0.264E-01 0.256E+00 -.255E+00
   0.991E+02 0.962E+02 -.586E+03   -.990E+02 -.966E+02 0.587E+03   -.165E+00 0.478E+00 -.311E+00
   0.126E+03 0.118E+03 -.229E+04   -.126E+03 -.119E+03 0.229E+04   0.430E+00 0.754E+00 0.635E+01
   0.128E+03 0.135E+03 -.228E+04   -.128E+03 -.135E+03 0.228E+04   0.247E+00 0.599E+00 0.631E+01
   0.916E+02 0.619E+02 -.599E+03   -.920E+02 -.623E+02 0.600E+03   0.332E+00 0.355E+00 -.237E+00
   0.127E+03 0.319E+02 -.473E+03   -.127E+03 -.318E+02 0.472E+03   -.132E+00 -.108E+00 0.107E+01
   0.228E+03 0.732E+02 -.215E+04   -.230E+03 -.740E+02 0.215E+04   0.115E+01 0.762E+00 0.633E+01
   0.256E+03 0.175E+03 -.206E+04   -.258E+03 -.176E+03 0.205E+04   0.148E+01 0.110E+01 0.625E+01
   0.106E+03 -.244E+02 -.566E+03   -.106E+03 0.247E+02 0.564E+03   0.607E-01 -.322E+00 0.151E+01
   0.109E+03 -.890E+02 -.515E+03   -.108E+03 0.897E+02 0.516E+03   -.482E+00 -.753E+00 -.960E+00
   0.188E+03 -.150E+03 -.218E+04   -.188E+03 0.151E+03 0.217E+04   -.218E-01 -.130E+01 0.602E+01
   0.230E+03 -.741E+02 -.186E+04   -.229E+03 0.765E+02 0.185E+04   -.152E+01 -.225E+01 0.417E+01
   0.683E+02 -.770E+02 -.643E+03   -.682E+02 0.774E+02 0.643E+03   -.354E-01 -.403E+00 -.275E+00
   0.625E+02 -.737E+02 -.654E+03   -.623E+02 0.736E+02 0.655E+03   -.140E+00 0.109E+00 -.279E+00
   0.742E+02 -.877E+02 -.233E+04   -.741E+02 0.877E+02 0.233E+04   -.207E-01 -.964E-01 0.635E+01
   0.157E+03 -.202E+03 -.221E+04   -.157E+03 0.202E+03 0.221E+04   -.149E+00 -.169E+00 0.629E+01
   0.390E+02 -.174E+02 -.699E+03   -.390E+02 0.173E+02 0.700E+03   -.174E-01 0.104E+00 -.278E+00
   0.554E+02 0.338E+02 -.676E+03   -.554E+02 -.340E+02 0.676E+03   -.416E-01 0.185E+00 -.280E+00
   0.598E+02 0.359E+02 -.235E+04   -.598E+02 -.361E+02 0.234E+04   0.579E-01 0.337E+00 0.636E+01
   0.747E+02 -.330E+02 -.233E+04   -.747E+02 0.329E+02 0.233E+04   0.726E-02 0.153E+00 0.637E+01
[...]
   -.249E+02 0.458E+01 0.196E+04   0.249E+02 -.451E+01 -.197E+04   0.269E-01 -.948E-01 0.343E+01
   -.199E+02 0.141E+02 0.194E+04   0.199E+02 -.141E+02 -.195E+04   0.835E-02 -.298E-01 0.346E+01
   -.479E+02 -.158E+02 0.788E+03   0.478E+02 0.159E+02 -.788E+03   0.107E+00 -.147E+00 -.750E-01
   -.358E+02 -.289E+02 0.742E+03   0.357E+02 0.290E+02 -.742E+03   0.120E+00 -.622E-01 -.200E+00
   -.224E+02 -.191E+02 0.195E+04   0.223E+02 0.191E+02 -.196E+04   0.466E-01 -.628E-01 0.335E+01
   -.205E+02 -.752E+01 0.195E+04   0.204E+02 0.758E+01 -.195E+04   0.555E-01 -.845E-01 0.340E+01
   -.353E+02 -.405E+02 0.744E+03   0.353E+02 0.405E+02 -.744E+03   0.460E-01 0.648E-01 -.240E+00
   -.228E+02 -.236E+02 0.708E+03   0.228E+02 0.236E+02 -.708E+03   0.439E-01 0.346E-01 -.149E+00
   -.165E+02 -.160E+02 0.193E+04   0.164E+02 0.159E+02 -.193E+04   0.303E-01 0.451E-01 0.336E+01
   -.159E+02 -.187E+02 0.193E+04   0.158E+02 0.187E+02 -.193E+04   0.532E-01 -.138E-01 0.337E+01
   -.245E+02 -.737E+01 0.711E+03   0.245E+02 0.732E+01 -.711E+03   0.262E-01 0.747E-01 -.128E+00
   -.214E+02 0.127E+02 0.703E+03   0.214E+02 -.127E+02 -.702E+03   0.960E-02 0.696E-01 -.808E-01
   -.155E+02 0.896E+01 0.192E+04   0.155E+02 -.902E+01 -.193E+04   0.296E-02 0.874E-01 0.342E+01
   -.124E+02 -.380E+01 0.192E+04   0.124E+02 0.376E+01 -.192E+04   0.183E-01 0.581E-01 0.339E+01
   0.891E+00 -.186E+01 0.107E+03   0.413E-11 0.280E-11 0.113E-09   -.765E+00 0.223E+01 -.106E+03

 POSITION                                       TOTAL-FORCE (eV/Angst)
     10.51982      9.15951     18.34197        -0.002497     -0.006465     -0.028864
      6.89530      6.63610     17.36215         0.083806      0.076093     -0.022106
     11.78589     11.51123     17.76271         0.005476     -0.113144      0.000878
     11.99476      6.84208     18.58028         0.008513      0.000865     -0.029162
      9.48579      2.03022     18.10765         0.132048      0.137706     -0.041140
     13.47090      4.52362     18.53956        -0.029512      0.015279     -0.090278
     10.77556      4.43872     18.76227         0.013669      0.034173     -0.108461
      9.05765     11.45154     17.76924         0.073997     -0.153806     -0.019078
     14.49021     11.60360     17.89950        -0.070441     -0.182587     -0.040288
     12.13568      2.10124     18.33364        -0.008688      0.131150     -0.084347
      7.82103      9.10348     18.20312         0.021626     -0.023284     -0.090620
     17.32400      7.08101     17.76105        -0.203300      0.029064     -0.032201
      9.28310      6.75573     18.61661         0.020087      0.002384     -0.114126
      5.29857      8.80672     17.43494         0.188987     -0.077667     -0.060358
     14.68425      6.93269     18.28341        -0.010426     -0.022161     -0.047070
     14.52100      2.37102     17.25502        -0.109752      0.104370     -0.038903
     13.22743      9.21194     18.20401        -0.013767     -0.017167     -0.025780
     15.97838      9.38748     17.88206        -0.087891     -0.051064     -0.014327
      8.52431      4.44108     17.31453         0.071907      0.042637      0.002973
     16.04000      4.66362     17.51572        -0.093824      0.065090     -0.013503
      0.00152     21.13339     12.89064         0.004419     -0.010963      0.004901
      2.11133      2.10918     12.89153        -0.006987     -0.010190      0.015491
      0.00432      2.10215     14.99204        -0.040803      0.107460     -0.170879
      2.11015     21.12636     14.98933         0.040491      0.105575     -0.151753
     21.13856      4.22827     12.89431        -0.003023      0.002187      0.051839
      2.10652      6.34433     12.89663         0.001954      0.005239      0.065911
      0.00102      6.34826     14.99964        -0.015382     -0.087902     -0.217141
      2.10191      4.21779     14.99505         0.093728      0.078262     -0.193215
     21.13196      8.46107     12.89385        -0.020038      0.013577      0.026163
      2.11015     10.57606     12.89477        -0.008398      0.006067      0.039609
     21.13101     10.58396     14.99329         0.051366     -0.121017     -0.178021
      2.08085      8.47202     15.00276         0.035461     -0.029265     -0.173814
     21.13610     12.68615     12.89193        -0.004746      0.001805      0.019173
      2.11288     14.79842     12.89135         0.001084     -0.003186      0.012020
     21.13711     14.79839     14.98955         0.015806     -0.015041     -0.113425
      2.10793     12.69447     14.99212         0.050841     -0.098024     -0.170419
     21.13866     16.90784     12.89036        -0.000512     -0.001485      0.002021
      2.11331     19.02047     12.89024        -0.000878     -0.005392      0.000473
      0.00265     19.01430     14.98811        -0.033676      0.087701     -0.138162
      2.11237     16.90741     14.98845         0.016422      0.033982     -0.111500
      4.22547     21.13250     12.89126        -0.009275     -0.014924      0.011265
      6.33993      2.10210     12.89410         0.002706      0.000093      0.016873
      4.21167      2.09320     14.99383         0.080436      0.116177     -0.163474
      6.33178     21.12258     14.99518         0.066098      0.123713     -0.186013
      4.21688      4.22323     12.89185        -0.001668     -0.013704      0.006388
      6.34090      6.34094     12.87746         0.000316     -0.002112     -0.141039
      4.18610      6.33034     15.01017        -0.107142      0.031651     -0.138736
      6.28528      4.18461     14.98782        -0.060814     -0.135246     -0.169883
      4.22494      8.46395     12.88217        -0.000350     -0.003149     -0.100827
      6.34878     10.58512     12.88738        -0.005968     -0.042685      0.023074
      4.22342     10.60862     14.99541        -0.002547      0.107389     -0.219612
      6.38673      8.50600     14.97860         0.065640      0.081625     -0.089685
      4.22781     12.69082     12.89196         0.003642      0.014699      0.011565
      6.34355     14.79908     12.89257         0.002114     -0.005770      0.027231
      4.22617     14.80243     14.99069         0.022836     -0.063725     -0.138500
      6.34216     12.69668     14.99638         0.004247     -0.131130     -0.190043
      4.22716     16.90945     12.89084         0.002141     -0.000040      0.006966
      6.34095     19.02064     12.89232         0.000588     -0.005278      0.024286
      4.22352     19.01649     14.98922         0.050420      0.078126     -0.137324
      6.33885     16.90970     14.99046         0.035552      0.012352     -0.123247
[...]
     19.02497      6.34166     10.77222         0.012613     -0.040315      0.036451
     16.91108      6.34166      8.65833         0.007224     -0.027434     -0.336519
     19.02497      4.22777      8.65833         0.001876     -0.009238     -0.329472
     16.91108      8.45554     10.77222         0.034719     -0.051066     -0.008694
     19.02497     10.56943     10.77222         0.038946     -0.020911      0.000316
     16.91108     10.56943      8.65833         0.012706     -0.018446     -0.356665
     19.02497      8.45554      8.65833         0.015283     -0.024440     -0.343710
     16.91108     12.68331     10.77222         0.015223      0.019863     -0.013139
     19.02497     14.79720     10.77222         0.013115      0.010195      0.005723
     16.91108     14.79720      8.65833         0.008184      0.011767     -0.355158
     19.02497     12.68331      8.65833         0.014523     -0.004651     -0.353444
     16.91108     16.91108     10.77222         0.007181      0.023297      0.010116
     19.02497     19.02497     10.77222         0.001506      0.022400      0.017270
     16.91108     19.02497      8.65833         0.000494      0.023486     -0.340399
     19.02497     16.91108      8.65833         0.004797      0.015311     -0.347599
    total drift:                                0.126297      0.374321      1.184380

  FREE ENERGIE OF THE ION-ELECTRON SYSTEM (eV)
  free  energy   TOTEN  =     -4059.75348736 eV

  energy  without entropy=    -4059.75348736  energy(sigma->0) =    -4059.75348736