 vasp.6.3.0 20Jan22 (build Apr  1 2022 16:44:48) complex
 executed on        HPECrayEX_GCC date 2022.12.11  05:37:13

 INCAR:
   SYSTEM = MgO-rocksalt
   ISMEAR = 0
   SIGMA = 0.05
   EDIFF = 1E-6
   ALGO = ALL
   ISTART = 0
   IBRION = -1
   NSW = 0
   ISYM = 2
   DIPOL = 0.5 0.5 0.5
   IDIPOL = 3
   LDIPOL = .TRUE.
   GGA = PS
   ENCUT = 520
   PREC = Accurate
   LASPH = .TRUE.
   LREAL = Auto
   ISPIN = 1
   NELM = 200
   NELMIN = 8
   NCORE = 4
   KPAR = 2
   LWAVE = .FALSE.
   LCHARG = .FALSE.

 POTCAR:    PAW_PBE Au 04Oct2007
 POTCAR:    PAW_PBE Mg_pv 13Apr2007
 POTCAR:    PAW_PBE O 08Apr2002
 POTCAR:    PAW_PBE Au 04Oct2007
   VRHFIN =Au: s1d10

   TITEL  = PAW_PBE Au 04Oct2007
   POMASS =  196.966; ZVAL   =   11.000    mass and valenz
   ENMAX  =  229.943; ENMIN  =  172.457 eV

   TITEL  = PAW_PBE Mg_pv 13Apr2007
   POMASS =   24.305; ZVAL   =    8.000    mass and valenz
   ENMAX  =  403.929; ENMIN  =  302.947 eV

   TITEL  = PAW_PBE O 08Apr2002
   POMASS =   16.000; ZVAL   =    6.000    mass and valenz
   ENMAX  =  400.000; ENMIN  =  300.000 eV

 Optimization of the real space projectors (new method)

 maximal supplied QI-value         = 15.12
 optimisation between [QCUT,QGAM] = [ 11.64, 23.28] = [ 37.95,151.78] Ry
 Optimized for a Real-space Cutoff    1.49 Angstroem

   l    n(q)    QCUT    max X(q) W(low)/X(q) W(high)/X(q)  e(spline)
   2      9    11.641    60.898    0.24E-03    0.10E-03    0.19E-06
   2      9    11.641    58.894    0.25E-03    0.10E-03    0.19E-06
   0     10    11.641   109.617    0.73E-04    0.33E-04    0.11E-06
   0     10    11.641    75.026    0.71E-04    0.32E-04    0.11E-06
   1     10    11.641    16.344    0.27E-04    0.97E-04    0.16E-06
   1     10    11.641    10.160    0.23E-04    0.77E-04    0.13E-06
 Optimization of the real space projectors (new method)

[...]

   l    n(q)    QCUT    max X(q) W(low)/X(q) W(high)/X(q)  e(spline)
   1      8    11.527     2.974    0.44E-04    0.56E-04    0.12E-06
   1      8    11.527     4.279    0.12E-03    0.12E-03    0.26E-06
   0      9    11.527    16.381    0.46E-04    0.64E-04    0.78E-07
   0      9    11.527     5.611    0.26E-04    0.43E-04    0.55E-07
   2      8    11.527     4.652    0.22E-03    0.72E-04    0.47E-07
 Optimization of the real space projectors (new method)

 maximal supplied QI-value         = 24.76
 optimisation between [QCUT,QGAM] = [ 11.64, 23.27] = [ 37.91,151.63] Ry
 Optimized for a Real-space Cutoff    1.14 Angstroem

   l    n(q)    QCUT    max X(q) W(low)/X(q) W(high)/X(q)  e(spline)
   0      8    11.635    20.381    0.10E-03    0.33E-03    0.24E-06
   0      8    11.635    15.268    0.11E-03    0.35E-03    0.26E-06
   1      7    11.635     5.964    0.24E-03    0.31E-03    0.30E-06
   1      7    11.635     5.382    0.22E-03    0.25E-03    0.26E-06
|               ----> ADVICE to this user running VASP <----                  |
|     You enforced a specific xc type in the INCAR file but a different       |
|     type was found in the POTCAR file.                                      |
|     I HOPE YOU KNOW WHAT YOU ARE DOING!                                     |

  PAW_PBE Au 04Oct2007                  :
  PAW_PBE Mg_pv 13Apr2007               :
  PAW_PBE O 08Apr2002                   :

 POSCAR: Au Mg  O
  positions in direct lattice
 exchange correlation table for  LEXCH =       14
   RHO(1)=    0.500       N(1)  =     2000
   RHO(2)=  100.500       N(2)  =     4000

 ion  position               nearest neighbor table
   1  0.500  0.600  0.740-   2 2.53
   2  0.500  0.600  0.626-   1 2.53  58 2.73
   3  0.000  0.000  0.407- 105 2.11 106 2.11 121 2.11 186 2.11 103 2.11
   4  0.100  0.100  0.407- 105 2.11 106 2.11 110 2.11 125 2.11 104 2.11
   5  0.000  0.100  0.503- 103 2.11 104 2.11 107 2.11 184 2.11 105 2.11
   6  0.100  0.000  0.503- 103 2.11 104 2.11 120 2.11 123 2.11 106 2.11
   7  0.000  0.200  0.407- 109 2.11 105 2.11 110 2.11 190 2.11 107 2.11
   8  0.100  0.300  0.407- 110 2.11 109 2.11 114 2.11 129 2.11 108 2.11
   9  0.000  0.300  0.503- 107 2.11 108 2.11 111 2.11 188 2.11 109 2.11
  10  0.100  0.200  0.503- 108 2.11 107 2.11 104 2.11 127 2.11 110 2.11
  11  0.000  0.400  0.407- 109 2.11 113 2.11 114 2.11 194 2.11 111 2.11
  12  0.100  0.500  0.407- 113 2.11 114 2.11 118 2.11 133 2.11 112 2.11
  13  0.000  0.500  0.503- 111 2.11 112 2.11 115 2.11 192 2.11 113 2.11
  14  0.100  0.400  0.503- 108 2.11 111 2.11 112 2.11 131 2.11 114 2.11
  15  0.000  0.600  0.407- 113 2.11 117 2.11 118 2.11 198 2.11 115 2.11
  16  0.100  0.700  0.407- 122 2.11 118 2.11 117 2.11 137 2.11 116 2.11
  17  0.000  0.700  0.503- 119 2.11 116 2.11 115 2.11 196 2.11 117 2.11
  18  0.100  0.600  0.503- 112 2.11 115 2.11 116 2.11 135 2.11 118 2.11
  19  0.000  0.800  0.407- 117 2.11 121 2.11 122 2.11 202 2.11 119 2.11
  20  0.100  0.900  0.407- 106 2.11 121 2.11 122 2.11 141 2.11 120 2.11
  21  0.000  0.900  0.503- 103 2.11 119 2.11 120 2.11 200 2.11 121 2.11
  22  0.100  0.800  0.503- 116 2.11 119 2.11 120 2.11 139 2.11 122 2.11
  23  0.200  0.000  0.407- 126 2.11 125 2.11 106 2.11 141 2.11 123 2.11
  24  0.300  0.100  0.407- 125 2.11 126 2.11 130 2.11 145 2.11 124 2.11
  25  0.200  0.100  0.503- 124 2.11 123 2.11 104 2.11 127 2.11 125 2.11
  26  0.300  0.000  0.503- 123 2.11 124 2.11 140 2.11 143 2.11 126 2.11
  27  0.200  0.200  0.407- 129 2.11 130 2.11 110 2.11 125 2.11 127 2.11
  28  0.300  0.300  0.407- 129 2.11 130 2.11 134 2.11 149 2.11 128 2.11
  29  0.200  0.300  0.503- 127 2.11 128 2.11 108 2.11 131 2.11 129 2.11
  30  0.300  0.200  0.503- 127 2.11 128 2.11 124 2.11 147 2.11 130 2.11
  31  0.200  0.400  0.407- 134 2.11 129 2.11 133 2.11 114 2.11 131 2.11
  32  0.300  0.500  0.407- 133 2.11 134 2.11 138 2.11 153 2.11 132 2.11
  33  0.200  0.500  0.503- 132 2.11 131 2.11 112 2.11 135 2.11 133 2.11
  34  0.300  0.400  0.503- 131 2.11 128 2.11 132 2.11 151 2.11 134 2.11
  35  0.200  0.600  0.407- 138 2.11 133 2.11 137 2.11 118 2.11 135 2.11
  36  0.300  0.700  0.407- 137 2.11 142 2.11 138 2.11 157 2.11 136 2.11
  37  0.200  0.700  0.503- 136 2.11 139 2.11 116 2.11 135 2.11 137 2.11
  38  0.300  0.600  0.503- 135 2.11 132 2.11 136 2.11 155 2.11 138 2.11
  39  0.200  0.800  0.407- 137 2.11 142 2.11 141 2.11 122 2.11 139 2.11
  40  0.300  0.900  0.407- 141 2.11 126 2.11 142 2.11 161 2.11 140 2.11
  41  0.200  0.900  0.503- 140 2.11 123 2.11 139 2.11 120 2.11 141 2.11
  42  0.300  0.800  0.503- 136 2.11 139 2.11 140 2.11 159 2.11 142 2.11
  43  0.400  0.000  0.407- 126 2.11 145 2.11 146 2.11 161 2.11 143 2.11
  44  0.500  0.100  0.407- 145 2.11 146 2.11 150 2.11 165 2.11 144 2.11
  45  0.400  0.100  0.503- 124 2.11 143 2.11 144 2.11 147 2.11 145 2.11
  46  0.500  0.000  0.503- 143 2.11 144 2.11 160 2.11 163 2.11 146 2.11
  47  0.400  0.200  0.407- 149 2.11 145 2.11 130 2.11 150 2.11 147 2.11
  48  0.500  0.300  0.407- 150 2.11 149 2.11 154 2.11 169 2.11 148 2.11
  49  0.400  0.300  0.503- 147 2.11 128 2.11 148 2.11 151 2.11 149 2.11
  50  0.500  0.200  0.503- 148 2.11 147 2.11 144 2.11 167 2.11 150 2.11
  51  0.400  0.400  0.407- 134 2.11 149 2.11 153 2.11 154 2.11 151 2.11
  52  0.500  0.500  0.407- 153 2.11 154 2.11 158 2.11 173 2.11 152 2.11
  53  0.400  0.500  0.503- 132 2.11 151 2.11 152 2.11 155 2.11 153 2.11
  54  0.500  0.400  0.503- 148 2.11 151 2.11 152 2.11 171 2.11 154 2.11
  55  0.400  0.600  0.407- 138 2.11 153 2.11 157 2.11 158 2.11 155 2.11
  56  0.500  0.700  0.407- 162 2.11 158 2.11 157 2.11 177 2.11 156 2.11
  57  0.400  0.700  0.503- 159 2.11 155 2.11 156 2.11 136 2.11 157 2.11
  58  0.500  0.600  0.503- 152 2.11 155 2.11 156 2.11 175 2.11 158 2.11   2 2.73
  59  0.400  0.800  0.407- 157 2.11 142 2.11 161 2.11 162 2.11 159 2.11
  60  0.500  0.900  0.407- 146 2.11 161 2.11 162 2.11 181 2.11 160 2.11
[...]
 188  0.900  0.300  0.503-  90 2.11  89 2.11   9 2.11  94 2.11  88 2.11
 189  0.800  0.300  0.407-  68 2.11  87 2.11  88 2.11  91 2.11  89 2.11
 190  0.900  0.200  0.407-  88 2.11  84 2.11  87 2.11   7 2.11  90 2.11
 191  0.800  0.400  0.503-  74 2.11  89 2.11  93 2.11  94 2.11  91 2.11
 192  0.900  0.500  0.503-  13 2.11  93 2.11  94 2.11  98 2.11  92 2.11
 193  0.800  0.500  0.407-  72 2.11  91 2.11  92 2.11  95 2.11  93 2.11
 194  0.900  0.400  0.407-  11 2.11  88 2.11  91 2.11  92 2.11  94 2.11
 195  0.800  0.600  0.503-  78 2.11  93 2.11  97 2.11  98 2.11  95 2.11
 196  0.900  0.700  0.503- 102 2.11  97 2.11  98 2.11  17 2.11  96 2.11
 197  0.800  0.700  0.407-  76 2.11  99 2.11  96 2.11  95 2.11  97 2.11
 198  0.900  0.600  0.407-  15 2.11  92 2.11  95 2.11  96 2.11  98 2.11
 199  0.800  0.800  0.503-  82 2.11  97 2.11 101 2.11 102 2.11  99 2.11
 200  0.900  0.900  0.503-  21 2.11  86 2.11 101 2.11 102 2.11 100 2.11
 201  0.800  0.900  0.407-  80 2.11  83 2.11  99 2.11 100 2.11 101 2.11
 202  0.900  0.800  0.407-  96 2.11  19 2.11  99 2.11 100 2.11 102 2.11

  LATTYP: Found a simple tetragonal cell.
 ALAT       =    21.1388521970
 C/A-ratio  =     1.0461251639

  Lattice vectors:

 A1 = (  21.1388521970,   0.0000000000,   0.0000000000)
 A2 = (   0.0000000000,  21.1388521970,   0.0000000000)
 A3 = (   0.0000000000,   0.0000000000,  22.1138852197)

Analysis of symmetry for initial positions (statically):
 Subroutine PRICEL returns:
 Original cell was already a primitive cell.

 Routine SETGRP: Setting up the symmetry group for a
 simple tetragonal supercell.

 Subroutine GETGRP returns: Found  8 space group operations
 (whereof  2 operations were pure point group operations)
 out of a pool of 16 trial point group operations.

The static configuration has the point symmetry C_1h.
 The point group associated with its full space group is C_4v.

Analysis of symmetry for dynamics (positions and initial velocities):
 Subroutine PRICEL returns:
 Original cell was already a primitive cell.

 Routine SETGRP: Setting up the symmetry group for a
 simple tetragonal supercell.

 Subroutine GETGRP returns: Found  8 space group operations
 (whereof  2 operations were pure point group operations)
 out of a pool of 16 trial point group operations.

The dynamic configuration has the point symmetry C_1h.
 The point group associated with its full space group is C_4v.

 Subroutine INISYM returns: Found  8 space group operations
 (whereof  2 operations are pure point group operations),
 and found     1 'primitive' translations

                                     Primitive cell

  volume of cell :    9881.6133

  direct lattice vectors                    reciprocal lattice vectors
    21.138852197  0.000000000  0.000000000     0.047306258  0.000000000  0.000000000
     0.000000000 21.138852197  0.000000000     0.000000000  0.047306258  0.000000000
     0.000000000  0.000000000 22.113885220     0.000000000  0.000000000  0.045220457

  length of vectors
    21.138852197 21.138852197 22.113885220     0.047306258  0.047306258  0.045220457

  position of ions in fractional coordinates (direct lattice)
     0.499999974  0.599999938  0.740247377
     0.499999974  0.599999938  0.625906553
     0.000000000  0.000000000  0.406984115
     0.100000000  0.100000000  0.406984115
     0.000000000  0.100000000  0.502574971
     0.100000000  0.000000000  0.502574971
[...]
     52     -42.8359      2.00000
     53     -42.8357      2.00000
     54     -42.8352      2.00000
     55     -42.8352      2.00000
     56     -42.8347      2.00000
     57     -42.8326      2.00000
     58     -42.8325      2.00000
     59     -42.8324      2.00000
     60     -42.8320      2.00000
[...]
    882       5.2225      0.00000
    883       5.2318      0.00000
    884       5.3202      0.00000
    885       5.3433      0.00000
    886       5.3980      0.00000
    887       5.4883      0.00000
    888       5.5129      0.00000
    889       5.5264      0.00000
    890       5.5463      0.00000
    891       5.5685      0.00000
    892       5.5921      0.00000
    893       5.5938      0.00000
    894       5.5985      0.00000
    895       5.6001      0.00000
    896       5.6149      0.00000

 soft charge-density along one line, spin component           1
         0         1         2         3         4         5         6         7         8         9
 total charge-density along one line

------------------------ aborting loop because EDIFF is reached ----------------------------------------

  FORCE on cell =-STRESS in cart. coord.  units (eV):
  Direction    XX          YY          ZZ          XY          YZ          ZX
  Alpha Z  1365.75682  1365.75682  1365.75682
  Ewald  474675.84987474675.84987************     0.00000    -0.00002    -0.00001
  Hartree503295.57098503295.57095************     0.00000    -0.00002    -0.00000
  E(xc)   -7594.14624 -7594.14624 -7611.65153    -0.00000    -0.00000     0.00000
  Local  ************************************    -0.00000     0.00004     0.00001
  n-local -8802.45310 -8802.45307 -8935.84269     0.00001    -0.00001     0.00000
  augment  3353.73279  3353.73278  3289.14996    -0.00000     0.00000     0.00000
  Kinetic 22942.55598 22942.55595 23200.34293     0.00000     0.00000     0.00000
  Fock        0.00000     0.00000     0.00000     0.00000     0.00000     0.00000
  Total    -198.32599  -198.32599    -9.34404     0.00000     0.00000     0.00000
  in kB     -32.15603   -32.15603    -1.51502     0.00000     0.00000     0.00000

 VOLUME and BASIS-vectors are now :
  energy-cutoff  :      520.00
  volume of cell :     9881.61
      direct lattice vectors                 reciprocal lattice vectors
    21.138852197  0.000000000  0.000000000     0.047306258  0.000000000  0.000000000
     0.000000000 21.138852197  0.000000000     0.000000000  0.047306258  0.000000000
     0.000000000  0.000000000 22.113885220     0.000000000  0.000000000  0.045220457

  length of vectors
    21.138852197 21.138852197 22.113885220     0.047306258  0.047306258  0.045220457

 FORCES acting on ions:
    Electron-Ion                     Ewald-Force                    Non-Local-Force
   0.279E-03 0.250E-07 -.162E+04   -.901E-08 -.213E-07 0.161E+04   0.000E+00 0.169E-20 0.678E+01
   0.282E-03 0.826E-05 -.178E+04   -.329E-05 -.778E-05 0.178E+04   0.000E+00 -.169E-20 -.529E+01
   0.510E-04 -.299E+01 0.931E+03   -.939E-06 0.300E+01 -.923E+03   0.000E+00 -.505E-02 -.769E+01
   0.299E+01 -.323E-03 0.931E+03   -.300E+01 -.222E-05 -.923E+03   0.505E-02 -.169E-20 -.769E+01
   0.504E-04 -.323E-03 -.923E+03   -.102E-05 -.242E-05 0.915E+03   0.000E+00 0.339E-20 0.766E+01
   0.436E+01 -.436E+01 -.922E+03   -.436E+01 0.436E+01 0.914E+03   0.437E-02 -.437E-02 0.765E+01
   0.510E-04 0.299E+01 0.931E+03   -.939E-06 -.300E+01 -.923E+03   0.000E+00 0.505E-02 -.769E+01
   0.466E+01 0.581E+01 0.933E+03   -.467E+01 -.583E+01 -.925E+03   0.122E-01 0.120E-01 -.770E+01
   0.513E-04 0.629E+01 -.921E+03   -.168E-05 -.630E+01 0.913E+03   0.000E+00 0.527E-02 0.765E+01
   0.436E+01 0.436E+01 -.922E+03   -.436E+01 -.436E+01 0.914E+03   0.437E-02 0.437E-02 0.765E+01
   0.518E-04 0.524E+01 0.933E+03   -.174E-05 -.525E+01 -.925E+03   0.000E+00 0.851E-02 -.770E+01
   0.829E+01 0.406E+01 0.936E+03   -.833E+01 -.408E+01 -.928E+03   0.380E-01 0.829E-02 -.770E+01
   0.531E-04 0.434E+01 -.919E+03   -.317E-05 -.435E+01 0.911E+03   0.000E+00 0.348E-02 0.765E+01
   0.933E+01 0.828E+01 -.919E+03   -.934E+01 -.829E+01 0.911E+03   0.140E-01 0.733E-02 0.765E+01
   0.524E-04 -.327E-03 0.935E+03   -.237E-05 0.226E-05 -.927E+03   0.000E+00 0.000E+00 -.770E+01
   0.829E+01 -.406E+01 0.936E+03   -.833E+01 0.408E+01 -.928E+03   0.380E-01 -.829E-02 -.770E+01
   0.531E-04 -.434E+01 -.919E+03   -.317E-05 0.435E+01 0.911E+03   0.000E+00 -.348E-02 0.765E+01
   0.138E+02 -.329E-03 -.916E+03   -.139E+02 0.380E-05 0.908E+03   0.235E-01 -.847E-21 0.765E+01
   0.518E-04 -.524E+01 0.933E+03   -.174E-05 0.525E+01 -.925E+03   0.000E+00 -.851E-02 -.770E+01
   0.466E+01 -.581E+01 0.933E+03   -.467E+01 0.583E+01 -.925E+03   0.122E-01 -.120E-01 -.770E+01
   0.513E-04 -.630E+01 -.921E+03   -.168E-05 0.630E+01 0.913E+03   0.000E+00 -.527E-02 0.765E+01
   0.933E+01 -.828E+01 -.919E+03   -.934E+01 0.829E+01 0.911E+03   0.140E-01 -.733E-02 0.765E+01
   0.581E+01 -.466E+01 0.933E+03   -.583E+01 0.467E+01 -.925E+03   0.120E-01 -.122E-01 -.770E+01
   0.524E+01 -.321E-03 0.933E+03   -.525E+01 -.411E-05 -.925E+03   0.851E-02 0.847E-21 -.770E+01
   0.629E+01 -.321E-03 -.921E+03   -.630E+01 -.399E-05 0.913E+03   0.527E-02 0.000E+00 0.765E+01
   0.828E+01 -.933E+01 -.919E+03   -.829E+01 0.934E+01 0.911E+03   0.733E-02 -.140E-01 0.765E+01
   0.581E+01 0.466E+01 0.933E+03   -.583E+01 -.467E+01 -.925E+03   0.120E-01 0.122E-01 -.770E+01
   0.931E+01 0.121E+02 0.939E+03   -.935E+01 -.122E+02 -.931E+03   0.334E-01 0.475E-01 -.771E+01
   0.116E+02 0.116E+02 -.918E+03   -.116E+02 -.116E+02 0.910E+03   0.145E-01 0.145E-01 0.765E+01
   0.828E+01 0.933E+01 -.919E+03   -.829E+01 -.934E+01 0.911E+03   0.733E-02 0.140E-01 0.765E+01
   0.121E+02 0.931E+01 0.939E+03   -.122E+02 -.935E+01 -.931E+03   0.475E-01 0.334E-01 -.771E+01
   0.216E+02 0.111E+02 0.954E+03   -.218E+02 -.113E+02 -.946E+03   0.152E+00 0.929E-01 -.775E+01
   0.268E+02 0.102E+02 -.909E+03   -.269E+02 -.102E+02 0.901E+03   0.542E-01 0.921E-02 0.763E+01
   0.256E+02 0.256E+02 -.904E+03   -.256E+02 -.256E+02 0.896E+03   0.456E-01 0.456E-01 0.762E+01
   0.180E+02 -.330E-03 0.944E+03   -.182E+02 0.448E-05 -.936E+03   0.157E+00 -.593E-20 -.774E+01
   0.216E+02 -.111E+02 0.954E+03   -.218E+02 0.113E+02 -.946E+03   0.152E+00 -.929E-01 -.775E+01
   0.268E+02 -.102E+02 -.909E+03   -.269E+02 0.102E+02 0.901E+03   0.542E-01 -.921E-02 0.763E+01
   0.544E+02 -.342E-03 -.881E+03   -.549E+02 0.174E-04 0.873E+03   0.392E+00 -.847E-21 0.756E+01
   0.121E+02 -.931E+01 0.939E+03   -.122E+02 0.935E+01 -.931E+03   0.475E-01 -.334E-01 -.771E+01
   0.931E+01 -.121E+02 0.939E+03   -.935E+01 0.122E+02 -.931E+03   0.334E-01 -.475E-01 -.771E+01
   0.116E+02 -.116E+02 -.918E+03   -.116E+02 0.116E+02 0.910E+03   0.145E-01 -.145E-01 0.765E+01
   0.256E+02 -.256E+02 -.904E+03   -.256E+02 0.256E+02 0.896E+03   0.456E-01 -.456E-01 0.762E+01
   0.406E+01 -.829E+01 0.936E+03   -.408E+01 0.833E+01 -.928E+03   0.829E-02 -.380E-01 -.770E+01
   0.509E-04 -.320E-03 0.935E+03   0.956E-06 -.562E-05 -.927E+03   0.000E+00 0.000E+00 -.770E+01
   0.434E+01 -.318E-03 -.919E+03   -.435E+01 -.751E-05 0.911E+03   0.348E-02 -.847E-21 0.765E+01
   0.509E-04 -.138E+02 -.916E+03   0.161E-05 0.139E+02 0.908E+03   -.339E-20 -.235E-01 0.765E+01
   0.406E+01 0.829E+01 0.936E+03   -.408E+01 -.833E+01 -.928E+03   0.829E-02 0.380E-01 -.770E+01
   0.506E-04 0.180E+02 0.944E+03   0.189E-05 -.182E+02 -.936E+03   0.000E+00 0.157E+00 -.774E+01
   0.102E+02 0.268E+02 -.909E+03   -.102E+02 -.269E+02 0.901E+03   0.921E-02 0.542E-01 0.763E+01
   0.509E-04 0.138E+02 -.916E+03   0.161E-05 -.139E+02 0.908E+03   0.000E+00 0.235E-01 0.765E+01
   0.111E+02 0.216E+02 0.954E+03   -.113E+02 -.218E+02 -.946E+03   0.929E-01 0.152E+00 -.775E+01
   0.485E-04 0.224E+02 0.981E+03   0.591E-05 -.225E+02 -.974E+03   0.000E+00 0.571E-01 -.735E+01
   0.501E+02 0.501E+02 -.848E+03   -.505E+02 -.505E+02 0.840E+03   0.301E+00 0.301E+00 0.750E+01
   0.491E-04 0.544E+02 -.881E+03   0.733E-05 -.549E+02 0.873E+03   0.000E+00 0.392E+00 0.756E+01
   0.224E+02 -.339E-03 0.981E+03   -.225E+02 0.140E-04 -.974E+03   0.571E-01 -.847E-21 -.735E+01
   0.485E-04 -.224E+02 0.981E+03   0.591E-05 0.225E+02 -.974E+03   0.000E+00 -.571E-01 -.735E+01
   0.501E+02 -.501E+02 -.848E+03   -.505E+02 0.505E+02 0.840E+03   0.301E+00 -.301E+00 0.750E+01
   0.317E-04 -.420E-03 -.713E+03   0.388E-04 0.919E-04 0.707E+03   0.000E+00 0.000E+00 0.550E+01
   0.111E+02 -.216E+02 0.954E+03   -.113E+02 0.218E+02 -.946E+03   0.929E-01 -.152E+00 -.775E+01
   0.506E-04 -.180E+02 0.944E+03   0.189E-05 0.182E+02 -.936E+03   0.000E+00 -.157E+00 -.774E+01
[...]
   -.618E+01 0.618E+01 0.703E+03   0.620E+01 -.620E+01 -.707E+03   -.261E-01 0.261E-01 0.355E+01
   -.256E+01 0.256E+01 0.700E+03   0.257E+01 -.257E+01 -.704E+03   -.774E-02 0.774E-02 0.355E+01
   -.139E+02 0.104E+02 -.687E+03   0.140E+02 -.104E+02 0.691E+03   -.366E-01 0.288E-01 -.365E+01
   -.934E+01 0.416E+01 -.689E+03   0.935E+01 -.417E+01 0.693E+03   -.213E-01 0.759E-02 -.364E+01
   -.122E+02 0.482E+01 0.708E+03   0.122E+02 -.485E+01 -.712E+03   -.806E-01 0.446E-01 0.353E+01
   -.488E+01 0.465E+01 0.702E+03   0.489E+01 -.467E+01 -.706E+03   -.220E-01 0.181E-01 0.355E+01
   -.232E+02 -.156E-02 -.681E+03   0.232E+02 0.545E-05 0.686E+03   -.687E-01 -.254E-20 -.369E+01
   -.934E+01 -.417E+01 -.689E+03   0.935E+01 0.417E+01 0.693E+03   -.213E-01 -.759E-02 -.364E+01
   -.122E+02 -.482E+01 0.708E+03   0.122E+02 0.485E+01 -.712E+03   -.806E-01 -.446E-01 0.353E+01
   -.681E+01 -.155E-02 0.704E+03   0.683E+01 0.207E-05 -.708E+03   -.345E-01 0.127E-19 0.354E+01
   -.139E+02 -.104E+02 -.687E+03   0.140E+02 0.104E+02 0.691E+03   -.366E-01 -.288E-01 -.365E+01
   -.472E+01 -.567E+01 -.692E+03   0.473E+01 0.567E+01 0.696E+03   -.976E-02 -.106E-01 -.362E+01
   -.618E+01 -.618E+01 0.703E+03   0.620E+01 0.620E+01 -.707E+03   -.261E-01 -.261E-01 0.355E+01
   -.488E+01 -.466E+01 0.702E+03   0.489E+01 0.467E+01 -.706E+03   -.220E-01 -.181E-01 0.355E+01
   -.974E-02 -.190E+00 0.863E+01   0.135E-11 0.108E-11 0.124E-10   -.902E-16 -.347E-16 -.908E+01

 POSITION                                       TOTAL-FORCE (eV/Angst)
     10.56943     12.68331     16.36975         0.000000     -0.000000     -0.330432
     10.56943     12.68331     13.84123         0.000000     -0.000000      0.249029
      0.00000      0.00000      9.00000         0.000000      0.001380      0.444725
      2.11389      2.11389      9.00000        -0.001380     -0.000000      0.444725
      0.00000      2.11389     11.11389         0.000000     -0.000000     -0.431878
      2.11389      0.00000     11.11389        -0.001139      0.001139     -0.431148
      0.00000      4.22777      9.00000         0.000000     -0.001380      0.444725
      2.11389      6.34166      9.00000        -0.003280     -0.003295      0.445391
      0.00000      6.34166     11.11389         0.000000     -0.001423     -0.430689
      2.11389      4.22777     11.11389        -0.001139     -0.001139     -0.431148
      0.00000      8.45554      9.00000         0.000000     -0.002362      0.445699
      2.11389     10.56943      9.00000        -0.010071     -0.002384      0.447209
      0.00000     10.56943     11.11389         0.000000     -0.000958     -0.428567
      2.11389      8.45554     11.11389        -0.003429     -0.001994     -0.428030
      0.00000     12.68331      9.00000         0.000000     -0.000000      0.446418
      2.11389     14.79720      9.00000        -0.010071      0.002384      0.447209
      0.00000     14.79720     11.11389         0.000000      0.000958     -0.428567
      2.11389     12.68331     11.11389        -0.005351     -0.000000     -0.425509
      0.00000     16.91108      9.00000         0.000000      0.002362      0.445699
      2.11389     19.02497      9.00000        -0.003280      0.003295      0.445391
      0.00000     19.02497     11.11389         0.000000      0.001423     -0.430689
      2.11389     16.91108     11.11389        -0.003429      0.001994     -0.428030
      4.22777      0.00000      9.00000        -0.003295      0.003280      0.445391
      6.34166      2.11389      9.00000        -0.002362     -0.000000      0.445699
      4.22777      2.11389     11.11389        -0.001423     -0.000000     -0.430689
      6.34166      0.00000     11.11389        -0.001994      0.003429     -0.428030
      4.22777      4.22777      9.00000        -0.003295     -0.003280      0.445391
      6.34166      6.34166      9.00000        -0.009142     -0.012807      0.447828
      4.22777      6.34166     11.11389        -0.003633     -0.003633     -0.427433
      6.34166      4.22777     11.11389        -0.001994     -0.003429     -0.428030
      4.22777      8.45554      9.00000        -0.012807     -0.009142      0.447828
      6.34166     10.56943      9.00000        -0.042868     -0.029179      0.455305
      4.22777     10.56943     11.11389        -0.012532     -0.002682     -0.416590
      6.34166      8.45554     11.11389        -0.009915     -0.009915     -0.410968
      4.22777     12.68331      9.00000        -0.039559     -0.000000      0.456064
      6.34166     14.79720      9.00000        -0.042868      0.029179      0.455305
      4.22777     14.79720     11.11389        -0.012532      0.002682     -0.416590
      6.34166     12.68331     11.11389        -0.114260     -0.000000     -0.361021
      4.22777     16.91108      9.00000        -0.012807      0.009142      0.447828
      6.34166     19.02497      9.00000        -0.009142      0.012807      0.447828
      4.22777     19.02497     11.11389        -0.003633      0.003633     -0.427433
      6.34166     16.91108     11.11389        -0.009915      0.009915     -0.410968
      8.45554      0.00000      9.00000        -0.002384      0.010071      0.447209
     10.56943      2.11389      9.00000         0.000000     -0.000000      0.446418
      8.45554      2.11389     11.11389        -0.000958     -0.000000     -0.428567
     10.56943      0.00000     11.11389         0.000000      0.005351     -0.425509
      8.45554      4.22777      9.00000        -0.002384     -0.010071      0.447209
     10.56943      6.34166      9.00000         0.000000     -0.039559      0.456064
      8.45554      6.34166     11.11389        -0.002682     -0.012532     -0.416590
     10.56943      4.22777     11.11389         0.000000     -0.005351     -0.425509
      8.45554      8.45554      9.00000        -0.029179     -0.042868      0.455305
     10.56943     10.56943      9.00000         0.000000     -0.009384      0.342188
      8.45554     10.56943     11.11389        -0.067458     -0.067458     -0.297729
     10.56943      8.45554     11.11389         0.000000     -0.114260     -0.361021
      8.45554     12.68331      9.00000        -0.009384     -0.000000      0.342188
     10.56943     14.79720      9.00000         0.000000      0.009384      0.342188
      8.45554     14.79720     11.11389        -0.067458      0.067458     -0.297729
     10.56943     12.68331     11.11389         0.000000     -0.000000     -0.841637
      8.45554     16.91108      9.00000        -0.029179      0.042868      0.455305
     10.56943     19.02497      9.00000         0.000000      0.039559      0.456064
[...]
     19.02497      6.34166     11.11389        -0.002605      0.002818      0.397235
     16.91108      6.34166      9.00000        -0.007069      0.007069     -0.414318
     19.02497      4.22777      9.00000        -0.002078      0.002078     -0.412813
     16.91108      8.45554     11.11389        -0.009770      0.007735      0.389489
     19.02497     10.56943     11.11389        -0.005807      0.002082      0.392828
     16.91108     10.56943      9.00000        -0.021725      0.012089     -0.419553
     19.02497      8.45554      9.00000        -0.005973      0.004906     -0.414178
     16.91108     12.68331     11.11389        -0.019143     -0.000000      0.379013
     19.02497     14.79720     11.11389        -0.005807     -0.002082      0.392828
     16.91108     14.79720      9.00000        -0.021725     -0.012089     -0.419553
     19.02497     12.68331      9.00000        -0.009463     -0.000000     -0.415696
     16.91108     16.91108     11.11389        -0.009770     -0.007735      0.389489
     19.02497     19.02497     11.11389        -0.002605     -0.002818      0.397235
     16.91108     19.02497      9.00000        -0.007069     -0.007069     -0.414318
     19.02497     16.91108      9.00000        -0.005973     -0.004906     -0.414178
    total drift:                               -0.009737     -0.189606     -0.454353

  FREE ENERGIE OF THE ION-ELECTRON SYSTEM (eV)
  free  energy   TOTEN  =     -1191.26469154 eV

  energy  without entropy=    -1191.26469154  energy(sigma->0) =    -1191.26469154