 vasp.6.3.0 20Jan22 (build Apr  1 2022 16:44:48) complex
 executed on        HPECrayEX_GCC date 2023.02.15  12:46:27

 INCAR:
   SYSTEM = MgO-rocksalt
   ISMEAR = 0
   SIGMA = 0.05
   EDIFF = 1E-6
   ALGO = ALL
   ISTART = 0
   IBRION = -1
   NSW = 0
   ISYM = 2
   DIPOL = 0.5 0.5 0.5
   IDIPOL = 3
   LDIPOL = .TRUE.
   LHFCALC = .TRUE.
   HFSCREEN = 0.2
   GGA = PE
   ENCUT = 520
   PREC = Accurate
   LASPH = .TRUE.
   LREAL = Auto
   ISPIN = 1
   NELM = 200
   NELMIN = 8
   NCORE = 4
   KPAR = 2
   LWAVE = .FALSE.
   LCHARG = .FALSE.

 POTCAR:    PAW_PBE Cu 22Jun2005
 POTCAR:    PAW_PBE Mg_pv 13Apr2007
 POTCAR:    PAW_PBE O 08Apr2002
|           W    W    AA    RRRRR   N    N  II  N    N   GGGG   !!!           |
|           W    W   A  A   R    R  NN   N  II  NN   N  G    G  !!!           |
|           W    W  A    A  R    R  N N  N  II  N N  N  G       !!!           |
|           W WW W  AAAAAA  RRRRR   N  N N  II  N  N N  G  GGG   !            |
|           WW  WW  A    A  R   R   N   NN  II  N   NN  G    G                |
|           W    W  A    A  R    R  N    N  II  N    N   GGGG   !!!           |
|     You have selected ISYM=2 for a HF type calculation. This will           |
|     symmetrize the charge density but not the exchange potential. I         |
|     suggest to use ISYM=3 instead. This uses symmetry to obtain the         |
|     orbitals at all k-points in the Brillouin zone, but does not apply      |
|     symmetry to the Hartree potential directly. The resultant charge        |
|     might have lower symmetry than the crystal but, at least, Hartree       |
|     and exchange are fully compatible.                                      |

   TITEL  = PAW_PBE Cu 22Jun2005
   POMASS =   63.546; ZVAL   =   11.000    mass and valenz
   ENMAX  =  295.446; ENMIN  =  221.585 eV

   TITEL  = PAW_PBE Mg_pv 13Apr2007
   POMASS =   24.305; ZVAL   =    8.000    mass and valenz
   ENMAX  =  403.929; ENMIN  =  302.947 eV

   TITEL  = PAW_PBE O 08Apr2002
   POMASS =   16.000; ZVAL   =    6.000    mass and valenz
   ENMAX  =  400.000; ENMIN  =  300.000 eV

 Optimization of the real space projectors (new method)

 maximal supplied QI-value         = 16.25
 optimisation between [QCUT,QGAM] = [ 11.54, 23.24] = [ 37.28,151.24] Ry
 Optimized for a Real-space Cutoff    1.53 Angstroem

   l    n(q)    QCUT    max X(q) W(low)/X(q) W(high)/X(q)  e(spline)
   2     10    11.539     4.610    0.96E-04    0.13E-03    0.19E-06
   2     10    11.539     8.522    0.16E-03    0.21E-03    0.28E-06
   0     11    11.539    51.609    0.45E-04    0.31E-04    0.11E-06
   0     11    11.539    27.747    0.39E-04    0.29E-04    0.10E-06
   1     10    11.539    20.408    0.70E-05    0.38E-04    0.18E-06
   1     10    11.539    13.425    0.66E-05    0.34E-04    0.17E-06
 Optimization of the real space projectors (new method)

[...]

   l    n(q)    QCUT    max X(q) W(low)/X(q) W(high)/X(q)  e(spline)
   1      8    11.527     2.974    0.44E-04    0.56E-04    0.12E-06
   1      8    11.527     4.279    0.12E-03    0.12E-03    0.26E-06
   0      9    11.527    16.381    0.46E-04    0.64E-04    0.78E-07
   0      9    11.527     5.611    0.26E-04    0.43E-04    0.55E-07
   2      8    11.527     4.652    0.22E-03    0.72E-04    0.47E-07
 Optimization of the real space projectors (new method)

 maximal supplied QI-value         = 24.76
 optimisation between [QCUT,QGAM] = [ 11.64, 23.27] = [ 37.91,151.63] Ry
 Optimized for a Real-space Cutoff    1.14 Angstroem

   l    n(q)    QCUT    max X(q) W(low)/X(q) W(high)/X(q)  e(spline)
   0      8    11.635    20.381    0.10E-03    0.33E-03    0.24E-06
   0      8    11.635    15.268    0.11E-03    0.35E-03    0.26E-06
   1      7    11.635     5.964    0.24E-03    0.31E-03    0.30E-06
   1      7    11.635     5.382    0.22E-03    0.25E-03    0.26E-06
  PAW_PBE Cu 22Jun2005                  :
  PAW_PBE Mg_pv 13Apr2007               :
  PAW_PBE O 08Apr2002                   :

 POSCAR: Cu Mg  O
  positions in direct lattice
 exchange correlation table for  LEXCH =        8
   RHO(1)=    0.500       N(1)  =     2000
   RHO(2)=  100.500       N(2)  =     4000

 ion  position               nearest neighbor table
   1  0.538  0.562  0.615-   2 2.24
   2  0.462  0.638  0.615-   1 2.24
   3  0.000  0.000  0.407- 105 2.11 106 2.11 121 2.11 186 2.11 103 2.11
   4  0.100  0.100  0.407- 105 2.11 106 2.11 110 2.11 125 2.11 104 2.11
   5  0.000  0.100  0.503- 103 2.11 104 2.11 107 2.11 184 2.11 105 2.11
   6  0.100  0.000  0.503- 103 2.11 104 2.11 120 2.11 123 2.11 106 2.11
   7  0.000  0.200  0.407- 109 2.11 105 2.11 110 2.11 190 2.11 107 2.11
   8  0.100  0.300  0.407- 110 2.11 109 2.11 114 2.11 129 2.11 108 2.11
   9  0.000  0.300  0.503- 107 2.11 108 2.11 111 2.11 188 2.11 109 2.11
  10  0.100  0.200  0.503- 108 2.11 107 2.11 104 2.11 127 2.11 110 2.11
  11  0.000  0.400  0.407- 109 2.11 113 2.11 114 2.11 194 2.11 111 2.11
  12  0.100  0.500  0.407- 113 2.11 114 2.11 118 2.11 133 2.11 112 2.11
  13  0.000  0.500  0.503- 111 2.11 112 2.11 115 2.11 192 2.11 113 2.11
  14  0.100  0.400  0.503- 108 2.11 111 2.11 112 2.11 131 2.11 114 2.11
  15  0.000  0.600  0.407- 113 2.11 117 2.11 118 2.11 198 2.11 115 2.11
  16  0.100  0.700  0.407- 122 2.11 118 2.11 117 2.11 137 2.11 116 2.11
  17  0.000  0.700  0.503- 119 2.11 116 2.11 115 2.11 196 2.11 117 2.11
  18  0.100  0.600  0.503- 112 2.11 115 2.11 116 2.11 135 2.11 118 2.11
  19  0.000  0.800  0.407- 117 2.11 121 2.11 122 2.11 202 2.11 119 2.11
  20  0.100  0.900  0.407- 106 2.11 121 2.11 122 2.11 141 2.11 120 2.11
  21  0.000  0.900  0.503- 103 2.11 119 2.11 120 2.11 200 2.11 121 2.11
  22  0.100  0.800  0.503- 116 2.11 119 2.11 120 2.11 139 2.11 122 2.11
  23  0.200  0.000  0.407- 126 2.11 125 2.11 106 2.11 141 2.11 123 2.11
  24  0.300  0.100  0.407- 125 2.11 126 2.11 130 2.11 145 2.11 124 2.11
  25  0.200  0.100  0.503- 124 2.11 123 2.11 104 2.11 127 2.11 125 2.11
  26  0.300  0.000  0.503- 123 2.11 124 2.11 140 2.11 143 2.11 126 2.11
  27  0.200  0.200  0.407- 129 2.11 130 2.11 110 2.11 125 2.11 127 2.11
  28  0.300  0.300  0.407- 129 2.11 130 2.11 134 2.11 149 2.11 128 2.11
  29  0.200  0.300  0.503- 127 2.11 128 2.11 108 2.11 131 2.11 129 2.11
  30  0.300  0.200  0.503- 127 2.11 128 2.11 124 2.11 147 2.11 130 2.11
  31  0.200  0.400  0.407- 134 2.11 129 2.11 133 2.11 114 2.11 131 2.11
  32  0.300  0.500  0.407- 133 2.11 134 2.11 138 2.11 153 2.11 132 2.11
  33  0.200  0.500  0.503- 132 2.11 131 2.11 112 2.11 135 2.11 133 2.11
  34  0.300  0.400  0.503- 131 2.11 128 2.11 132 2.11 151 2.11 134 2.11
  35  0.200  0.600  0.407- 138 2.11 133 2.11 137 2.11 118 2.11 135 2.11
  36  0.300  0.700  0.407- 137 2.11 142 2.11 138 2.11 157 2.11 136 2.11
  37  0.200  0.700  0.503- 136 2.11 139 2.11 116 2.11 135 2.11 137 2.11
  38  0.300  0.600  0.503- 135 2.11 132 2.11 136 2.11 155 2.11 138 2.11
  39  0.200  0.800  0.407- 137 2.11 142 2.11 141 2.11 122 2.11 139 2.11
  40  0.300  0.900  0.407- 141 2.11 126 2.11 142 2.11 161 2.11 140 2.11
  41  0.200  0.900  0.503- 140 2.11 123 2.11 139 2.11 120 2.11 141 2.11
  42  0.300  0.800  0.503- 136 2.11 139 2.11 140 2.11 159 2.11 142 2.11
  43  0.400  0.000  0.407- 126 2.11 145 2.11 146 2.11 161 2.11 143 2.11
  44  0.500  0.100  0.407- 145 2.11 146 2.11 150 2.11 165 2.11 144 2.11
  45  0.400  0.100  0.503- 124 2.11 143 2.11 144 2.11 147 2.11 145 2.11
  46  0.500  0.000  0.503- 143 2.11 144 2.11 160 2.11 163 2.11 146 2.11
  47  0.400  0.200  0.407- 149 2.11 145 2.11 130 2.11 150 2.11 147 2.11
  48  0.500  0.300  0.407- 150 2.11 149 2.11 154 2.11 169 2.11 148 2.11
  49  0.400  0.300  0.503- 147 2.11 128 2.11 148 2.11 151 2.11 149 2.11
  50  0.500  0.200  0.503- 148 2.11 147 2.11 144 2.11 167 2.11 150 2.11
  51  0.400  0.400  0.407- 134 2.11 149 2.11 153 2.11 154 2.11 151 2.11
  52  0.500  0.500  0.407- 153 2.11 154 2.11 158 2.11 173 2.11 152 2.11
  53  0.400  0.500  0.503- 132 2.11 151 2.11 152 2.11 155 2.11 153 2.11
  54  0.500  0.400  0.503- 148 2.11 151 2.11 152 2.11 171 2.11 154 2.11
  55  0.400  0.600  0.407- 138 2.11 153 2.11 157 2.11 158 2.11 155 2.11
  56  0.500  0.700  0.407- 162 2.11 158 2.11 157 2.11 177 2.11 156 2.11
  57  0.400  0.700  0.503- 159 2.11 155 2.11 156 2.11 136 2.11 157 2.11
  58  0.500  0.600  0.503- 152 2.11 155 2.11 156 2.11 175 2.11 158 2.11
  59  0.400  0.800  0.407- 157 2.11 142 2.11 161 2.11 162 2.11 159 2.11
  60  0.500  0.900  0.407- 146 2.11 161 2.11 162 2.11 181 2.11 160 2.11
[...]
 188  0.900  0.300  0.503-  90 2.11  89 2.11   9 2.11  94 2.11  88 2.11
 189  0.800  0.300  0.407-  68 2.11  87 2.11  88 2.11  91 2.11  89 2.11
 190  0.900  0.200  0.407-  88 2.11  84 2.11  87 2.11   7 2.11  90 2.11
 191  0.800  0.400  0.503-  74 2.11  89 2.11  93 2.11  94 2.11  91 2.11
 192  0.900  0.500  0.503-  13 2.11  93 2.11  94 2.11  98 2.11  92 2.11
 193  0.800  0.500  0.407-  72 2.11  91 2.11  92 2.11  95 2.11  93 2.11
 194  0.900  0.400  0.407-  11 2.11  88 2.11  91 2.11  92 2.11  94 2.11
 195  0.800  0.600  0.503-  78 2.11  93 2.11  97 2.11  98 2.11  95 2.11
 196  0.900  0.700  0.503- 102 2.11  97 2.11  98 2.11  17 2.11  96 2.11
 197  0.800  0.700  0.407-  76 2.11  99 2.11  96 2.11  95 2.11  97 2.11
 198  0.900  0.600  0.407-  15 2.11  92 2.11  95 2.11  96 2.11  98 2.11
 199  0.800  0.800  0.503-  82 2.11  97 2.11 101 2.11 102 2.11  99 2.11
 200  0.900  0.900  0.503-  21 2.11  86 2.11 101 2.11 102 2.11 100 2.11
 201  0.800  0.900  0.407-  80 2.11  83 2.11  99 2.11 100 2.11 101 2.11
 202  0.900  0.800  0.407-  96 2.11  19 2.11  99 2.11 100 2.11 102 2.11

  LATTYP: Found a simple tetragonal cell.
 ALAT       =    21.1388521970
 C/A-ratio  =     1.0461251639

  Lattice vectors:

 A1 = (  21.1388521970,   0.0000000000,   0.0000000000)
 A2 = (   0.0000000000,  21.1388521970,   0.0000000000)
 A3 = (   0.0000000000,   0.0000000000,  22.1138852197)

Analysis of symmetry for initial positions (statically):
 Subroutine PRICEL returns:
 Original cell was already a primitive cell.

 Routine SETGRP: Setting up the symmetry group for a
 simple tetragonal supercell.

 Subroutine GETGRP returns: Found  4 space group operations
 (whereof  1 operations were pure point group operations)
 out of a pool of 16 trial point group operations.

The static configuration has the point symmetry C_1 .
 The point group associated with its full space group is C_2v.

Analysis of symmetry for dynamics (positions and initial velocities):
 Subroutine PRICEL returns:
 Original cell was already a primitive cell.

 Routine SETGRP: Setting up the symmetry group for a
 simple tetragonal supercell.

 Subroutine GETGRP returns: Found  4 space group operations
 (whereof  1 operations were pure point group operations)
 out of a pool of 16 trial point group operations.

The dynamic configuration has the point symmetry C_1 .
 The point group associated with its full space group is C_2v.

 Subroutine INISYM returns: Found  4 space group operations
 (whereof  1 operations are pure point group operations),
 and found     1 'primitive' translations

                                     Primitive cell

  volume of cell :    9881.6133

  direct lattice vectors                    reciprocal lattice vectors
[...]
     22     -46.6069      2.00000
     23     -46.6068      2.00000
     24     -46.6065      2.00000
     25     -46.6057      2.00000
     26     -46.6055      2.00000
     27     -46.6023      2.00000
     28     -46.6021      2.00000
     29     -46.6014      2.00000
     30     -46.6011      2.00000
     31     -46.6006      2.00000
     32     -46.5996      2.00000
     33     -46.5982      2.00000
     34     -46.5982      2.00000
     35     -46.5981      2.00000
     36     -46.5974      2.00000
     37     -46.5967      2.00000
     38     -46.5961      2.00000
     39     -46.5960      2.00000
     40     -46.5956      2.00000
     41     -46.5949      2.00000
     42     -46.5942      2.00000
     43     -46.5937      2.00000
     44     -46.5933      2.00000
     45     -46.5930      2.00000
     46     -46.5928      2.00000
     47     -46.5927      2.00000
     48     -46.5923      2.00000
     49     -46.5912      2.00000
     50     -46.5906      2.00000
     51     -46.5897      2.00000
     52     -46.5895      2.00000
     53     -46.5893      2.00000
     54     -46.5891      2.00000
     55     -46.5888      2.00000
     56     -46.5875      2.00000
     57     -46.5874      2.00000
     58     -46.5872      2.00000
     59     -46.5869      2.00000
     60     -46.5861      2.00000
[...]
    946       6.5151      0.00000
    947       6.5879      0.00000
    948       6.6152      0.00000
    949       6.7155      0.00000
    950       6.7767      0.00000
    951       6.8140      0.00000
    952       6.8924      0.00000
    953       6.9194      0.00000
    954       6.9672      0.00000
    955       7.1065      0.00000
    956       7.1847      0.00000
    957       7.2673      0.00000
    958       7.3457      0.00000
    959       7.4314      0.00000
    960       7.4975      0.00000

 soft charge-density along one line, spin component           1
         0         1         2         3         4         5         6         7         8         9
 total charge-density along one line

------------------------ aborting loop because EDIFF is reached ----------------------------------------

 VOLUME and BASIS-vectors are now :
  energy-cutoff  :      520.00
  volume of cell :     9881.61
      direct lattice vectors                 reciprocal lattice vectors
    21.138852197  0.000000000  0.000000000     0.047306258  0.000000000  0.000000000
     0.000000000 21.138852197  0.000000000     0.000000000  0.047306258  0.000000000
     0.000000000  0.000000000 22.113885220     0.000000000  0.000000000  0.045220457

  length of vectors
    21.138852197 21.138852197 22.113885220     0.047306258  0.047306258  0.045220457

 FORCES acting on ions:
    Electron-Ion                     Ewald-Force                    Non-Local-Force
   -.255E+03 0.255E+03 -.212E+04   0.246E+03 -.246E+03 0.212E+04   0.920E+01 -.920E+01 -.393E+00
   0.255E+03 -.255E+03 -.212E+04   -.246E+03 0.246E+03 0.212E+04   -.920E+01 0.920E+01 -.393E+00
   0.158E+00 -.352E+01 0.932E+03   -.162E+00 0.353E+01 -.923E+03   0.302E-02 -.255E-02 -.717E+01
   0.352E+01 -.158E+00 0.932E+03   -.353E+01 0.162E+00 -.923E+03   0.255E-02 -.302E-02 -.717E+01
   0.136E-07 -.185E-03 -.924E+03   0.784E-07 -.160E-05 0.915E+03   0.000E+00 0.000E+00 0.714E+01
   0.530E+01 -.530E+01 -.923E+03   -.531E+01 0.531E+01 0.915E+03   0.660E-02 -.660E-02 0.714E+01
   -.158E+00 0.352E+01 0.932E+03   0.162E+00 -.353E+01 -.923E+03   -.302E-02 0.255E-02 -.717E+01
   0.549E+01 0.692E+01 0.934E+03   -.549E+01 -.692E+01 -.925E+03   0.201E-03 0.379E-02 -.717E+01
   -.435E+00 0.725E+01 -.923E+03   0.446E+00 -.725E+01 0.914E+03   -.774E-02 0.344E-02 0.714E+01
   0.483E+01 0.483E+01 -.923E+03   -.483E+01 -.483E+01 0.915E+03   -.102E-02 -.102E-02 0.714E+01
   -.367E+00 0.628E+01 0.935E+03   0.378E+00 -.628E+01 -.926E+03   -.743E-02 0.449E-02 -.717E+01
   0.107E+02 0.528E+01 0.938E+03   -.107E+02 -.529E+01 -.930E+03   0.829E-02 0.777E-02 -.718E+01
   -.419E+00 0.508E+01 -.921E+03   0.430E+00 -.508E+01 0.912E+03   -.749E-02 0.223E-02 0.714E+01
   0.109E+02 0.984E+01 -.921E+03   -.109E+02 -.985E+01 0.912E+03   -.346E-02 0.543E-02 0.714E+01
   0.212E-06 -.188E-03 0.937E+03   -.118E-06 0.158E-05 -.928E+03   0.000E+00 0.000E+00 -.717E+01
   0.114E+02 -.486E+01 0.939E+03   -.114E+02 0.486E+01 -.930E+03   0.234E-01 -.606E-03 -.717E+01
   0.419E+00 -.508E+01 -.921E+03   -.430E+00 0.508E+01 0.912E+03   0.749E-02 -.223E-02 0.714E+01
   0.178E+02 0.579E+00 -.918E+03   -.178E+02 -.589E+00 0.909E+03   0.160E-01 0.685E-02 0.714E+01
   0.367E+00 -.628E+01 0.935E+03   -.378E+00 0.628E+01 -.926E+03   0.743E-02 -.449E-02 -.717E+01
   0.613E+01 -.719E+01 0.934E+03   -.615E+01 0.720E+01 -.926E+03   0.116E-01 -.793E-02 -.717E+01
   0.435E+00 -.725E+01 -.923E+03   -.446E+00 0.725E+01 0.914E+03   0.774E-02 -.344E-02 0.714E+01
   0.123E+02 -.995E+01 -.920E+03   -.124E+02 0.996E+01 0.912E+03   0.222E-01 -.466E-02 0.714E+01
   0.719E+01 -.613E+01 0.934E+03   -.720E+01 0.615E+01 -.926E+03   0.793E-02 -.116E-01 -.717E+01
   0.628E+01 -.367E+00 0.935E+03   -.628E+01 0.378E+00 -.926E+03   0.449E-02 -.743E-02 -.717E+01
   0.725E+01 -.435E+00 -.923E+03   -.725E+01 0.446E+00 0.914E+03   0.344E-02 -.774E-02 0.714E+01
   0.995E+01 -.123E+02 -.920E+03   -.996E+01 0.124E+02 0.912E+03   0.466E-02 -.222E-01 0.714E+01
   0.692E+01 0.549E+01 0.934E+03   -.692E+01 -.549E+01 -.925E+03   0.379E-02 0.201E-03 -.717E+01
   0.121E+02 0.156E+02 0.941E+03   -.121E+02 -.156E+02 -.932E+03   0.127E-01 0.144E-01 -.718E+01
   0.136E+02 0.136E+02 -.920E+03   -.136E+02 -.136E+02 0.912E+03   0.118E-02 0.118E-02 0.714E+01
   0.984E+01 0.109E+02 -.921E+03   -.985E+01 -.109E+02 0.912E+03   0.543E-02 -.346E-02 0.714E+01
   0.156E+02 0.121E+02 0.941E+03   -.156E+02 -.121E+02 -.932E+03   0.144E-01 0.127E-01 -.718E+01
   0.310E+02 0.170E+02 0.963E+03   -.311E+02 -.171E+02 -.954E+03   0.727E-01 0.385E-01 -.720E+01
   0.346E+02 0.142E+02 -.911E+03   -.346E+02 -.142E+02 0.902E+03   0.101E-01 0.204E-01 0.713E+01
   0.334E+02 0.334E+02 -.906E+03   -.334E+02 -.334E+02 0.898E+03   0.141E-01 0.141E-01 0.712E+01
   0.254E+02 0.913E+00 0.949E+03   -.254E+02 -.933E+00 -.940E+03   0.459E-01 0.135E-01 -.718E+01
   0.327E+02 -.156E+02 0.966E+03   -.327E+02 0.156E+02 -.958E+03   0.469E-01 -.158E-01 -.713E+01
   0.378E+02 -.126E+02 -.909E+03   -.379E+02 0.126E+02 0.901E+03   0.718E-01 0.448E-02 0.714E+01
   0.841E+02 0.683E+01 -.872E+03   -.843E+02 -.693E+01 0.864E+03   0.155E+00 0.666E-01 0.715E+01
   0.168E+02 -.123E+02 0.942E+03   -.168E+02 0.124E+02 -.934E+03   0.287E-01 -.149E-01 -.717E+01
   0.123E+02 -.168E+02 0.942E+03   -.124E+02 0.168E+02 -.934E+03   0.149E-01 -.287E-01 -.717E+01
   0.149E+02 -.149E+02 -.919E+03   -.149E+02 0.149E+02 0.911E+03   0.185E-01 -.185E-01 0.714E+01
   0.374E+02 -.374E+02 -.902E+03   -.375E+02 0.375E+02 0.893E+03   0.559E-01 -.559E-01 0.715E+01
   0.486E+01 -.114E+02 0.939E+03   -.486E+01 0.114E+02 -.930E+03   0.606E-03 -.234E-01 -.717E+01
   0.207E-06 -.182E-03 0.937E+03   -.110E-06 -.428E-05 -.928E+03   0.000E+00 0.000E+00 -.717E+01
   0.508E+01 -.419E+00 -.921E+03   -.508E+01 0.430E+00 0.912E+03   0.223E-02 -.749E-02 0.714E+01
   -.579E+00 -.178E+02 -.918E+03   0.589E+00 0.178E+02 0.909E+03   -.685E-02 -.160E-01 0.714E+01
   0.528E+01 0.107E+02 0.938E+03   -.529E+01 -.107E+02 -.930E+03   0.777E-02 0.829E-02 -.718E+01
   0.913E+00 0.254E+02 0.949E+03   -.933E+00 -.254E+02 -.940E+03   0.135E-01 0.459E-01 -.718E+01
   0.142E+02 0.346E+02 -.911E+03   -.142E+02 -.346E+02 0.902E+03   0.204E-01 0.101E-01 0.713E+01
   0.579E+00 0.178E+02 -.918E+03   -.589E+00 -.178E+02 0.909E+03   0.685E-02 0.160E-01 0.714E+01
   0.170E+02 0.310E+02 0.963E+03   -.171E+02 -.311E+02 -.954E+03   0.385E-01 0.727E-01 -.720E+01
   0.279E+01 0.347E+02 0.101E+04   -.275E+01 -.348E+02 -.100E+04   -.247E-01 0.547E-01 -.698E+01
   0.784E+02 0.784E+02 -.834E+03   -.787E+02 -.787E+02 0.826E+03   0.175E+00 0.175E+00 0.695E+01
   0.683E+01 0.841E+02 -.872E+03   -.693E+01 -.843E+02 0.864E+03   0.666E-01 0.155E+00 0.715E+01
   0.347E+02 0.279E+01 0.101E+04   -.348E+02 -.275E+01 -.100E+04   0.547E-01 -.247E-01 -.698E+01
   -.279E+01 -.347E+02 0.101E+04   0.275E+01 0.348E+02 -.100E+04   0.247E-01 -.547E-01 -.698E+01
   0.866E+02 -.866E+02 -.796E+03   -.868E+02 0.868E+02 0.787E+03   0.917E-01 -.917E-01 0.705E+01
   -.238E-04 -.259E-03 -.614E+03   0.242E-04 0.699E-04 0.610E+03   0.000E+00 0.000E+00 0.373E+01
   0.156E+02 -.327E+02 0.966E+03   -.156E+02 0.327E+02 -.958E+03   0.158E-01 -.469E-01 -.713E+01
   -.913E+00 -.254E+02 0.949E+03   0.933E+00 0.254E+02 -.940E+03   -.135E-01 -.459E-01 -.718E+01
[...]
   -.813E+01 0.813E+01 0.704E+03   0.814E+01 -.814E+01 -.708E+03   -.171E-01 0.171E-01 0.316E+01
   -.319E+01 0.319E+01 0.701E+03   0.320E+01 -.320E+01 -.705E+03   -.659E-02 0.659E-02 0.315E+01
   -.191E+02 0.136E+02 -.687E+03   0.191E+02 -.136E+02 0.691E+03   -.375E-01 0.229E-01 -.318E+01
   -.124E+02 0.480E+01 -.690E+03   0.124E+02 -.480E+01 0.694E+03   -.195E-01 -.828E-03 -.319E+01
   -.173E+02 0.613E+01 0.711E+03   0.173E+02 -.614E+01 -.715E+03   -.435E-01 0.377E-02 0.317E+01
   -.664E+01 0.574E+01 0.703E+03   0.666E+01 -.575E+01 -.707E+03   -.174E-01 0.800E-02 0.315E+01
   -.318E+02 -.145E+01 -.682E+03   0.318E+02 0.148E+01 0.686E+03   -.379E-01 -.291E-01 -.320E+01
   -.114E+02 -.530E+01 -.690E+03   0.114E+02 0.530E+01 0.694E+03   -.486E-02 -.100E-01 -.319E+01
   -.164E+02 -.686E+01 0.711E+03   0.164E+02 0.688E+01 -.715E+03   -.204E-01 -.198E-01 0.314E+01
   -.912E+01 -.257E+00 0.706E+03   0.914E+01 0.262E+00 -.710E+03   -.147E-01 -.656E-02 0.315E+01
   -.170E+02 -.129E+02 -.688E+03   0.170E+02 0.130E+02 0.692E+03   -.494E-02 -.932E-02 -.320E+01
   -.530E+01 -.650E+01 -.693E+03   0.530E+01 0.650E+01 0.697E+03   0.199E-02 -.232E-02 -.319E+01
   -.762E+01 -.762E+01 0.703E+03   0.763E+01 0.763E+01 -.707E+03   -.655E-02 -.655E-02 0.315E+01
   -.599E+01 -.573E+01 0.703E+03   0.599E+01 0.573E+01 -.707E+03   -.205E-02 -.729E-02 0.315E+01
   -.137E-04 -.110E+00 0.833E+01   0.166E-11 0.583E-12 -.105E-10   -.128E-15 -.129E-14 -.820E+01

 POSITION                                       TOTAL-FORCE (eV/Angst)
     11.36279     11.88995     13.59669         0.100656     -0.100656      0.114459
      9.77606     13.47667     13.59669        -0.100656      0.100656      0.114459
      0.00000      0.00000      9.00000        -0.000959      0.000810      0.560021
      2.11389      2.11389      9.00000        -0.000810      0.000959      0.560021
      0.00000      2.11389     11.11389        -0.000000     -0.000000     -0.553509
      2.11389      0.00000     11.11389        -0.002081      0.002081     -0.553413
      0.00000      4.22777      9.00000         0.000959     -0.000810      0.560021
      2.11389      6.34166      9.00000        -0.000053     -0.001183      0.560520
      0.00000      6.34166     11.11389         0.002426     -0.001082     -0.553107
      2.11389      4.22777     11.11389         0.000347      0.000347     -0.553108
      0.00000      8.45554      9.00000         0.002269     -0.001446      0.560166
      2.11389     10.56943      9.00000        -0.002641     -0.002559      0.560693
      0.00000     10.56943     11.11389         0.002281     -0.000738     -0.552233
      2.11389      8.45554     11.11389         0.001235     -0.001641     -0.551417
      0.00000     12.68331      9.00000        -0.000000     -0.000000      0.560292
      2.11389     14.79720      9.00000        -0.007066      0.000198      0.560018
      0.00000     14.79720     11.11389        -0.002281      0.000738     -0.552233
      2.11389     12.68331     11.11389        -0.004619     -0.002332     -0.551280
      0.00000     16.91108      9.00000        -0.002269      0.001446      0.560166
      2.11389     19.02497      9.00000        -0.003674      0.002571      0.559615
      0.00000     19.02497     11.11389        -0.002426      0.001082     -0.553107
      2.11389     16.91108     11.11389        -0.006830      0.001558     -0.552900
      4.22777      0.00000      9.00000        -0.002571      0.003674      0.559615
      6.34166      2.11389      9.00000        -0.001446      0.002269      0.560166
      4.22777      2.11389     11.11389        -0.001082      0.002426     -0.553107
      6.34166      0.00000     11.11389        -0.001558      0.006830     -0.552900
      4.22777      4.22777      9.00000        -0.001183     -0.000053      0.560520
      6.34166      6.34166      9.00000        -0.003983     -0.004445      0.562133
      4.22777      6.34166     11.11389        -0.000169     -0.000169     -0.550536
      6.34166      4.22777     11.11389        -0.001641      0.001235     -0.551417
      4.22777      8.45554      9.00000        -0.004445     -0.003983      0.562133
      6.34166     10.56943      9.00000        -0.023716     -0.013767      0.565241
      4.22777     10.56943     11.11389        -0.001980     -0.006554     -0.546084
      6.34166      8.45554     11.11389        -0.002561     -0.002561     -0.538164
      4.22777     12.68331      9.00000        -0.014553     -0.004773      0.560264
      6.34166     14.79720      9.00000        -0.015606      0.005922      0.544981
      4.22777     14.79720     11.11389        -0.023207     -0.001457     -0.551844
      6.34166     12.68331     11.11389        -0.065454     -0.024705     -0.543749
      4.22777     16.91108      9.00000        -0.009279      0.005140      0.557789
      6.34166     19.02497      9.00000        -0.005140      0.009279      0.557789
      4.22777     19.02497     11.11389        -0.005874      0.005874     -0.553408
      6.34166     16.91108     11.11389        -0.018800      0.018800     -0.557112
      8.45554      0.00000      9.00000        -0.000198      0.007066      0.560018
     10.56943      2.11389      9.00000        -0.000000     -0.000000      0.560292
      8.45554      2.11389     11.11389        -0.000738      0.002281     -0.552233
     10.56943      0.00000     11.11389         0.002332      0.004619     -0.551280
      8.45554      4.22777      9.00000        -0.002559     -0.002641      0.560693
     10.56943      6.34166      9.00000        -0.004773     -0.014553      0.560264
      8.45554      6.34166     11.11389        -0.006554     -0.001980     -0.546084
     10.56943      4.22777     11.11389        -0.002332     -0.004619     -0.551280
      8.45554      8.45554      9.00000        -0.013767     -0.023716      0.565241
     10.56943     10.56943      9.00000         0.011623     -0.015895      0.491621
      8.45554     10.56943     11.11389        -0.027234     -0.027234     -0.398186
     10.56943      8.45554     11.11389        -0.024705     -0.065454     -0.543749
      8.45554     12.68331      9.00000        -0.015895      0.011623      0.491621
     10.56943     14.79720      9.00000        -0.011623      0.015895      0.491621
      8.45554     14.79720     11.11389        -0.092605      0.092605     -0.733152
     10.56943     12.68331     11.11389        -0.000000     -0.000000     -0.411969
      8.45554     16.91108      9.00000        -0.005922      0.015606      0.544981
     10.56943     19.02497      9.00000         0.004773      0.014553      0.560264
[...]
     19.02497      6.34166     11.11389        -0.004274      0.003165      0.431732
     16.91108      6.34166      9.00000        -0.005614      0.005614     -0.437548
     19.02497      4.22777      9.00000        -0.002165      0.002165     -0.438459
     16.91108      8.45554     11.11389        -0.012469      0.007656      0.432378
     19.02497     10.56943     11.11389        -0.006445     -0.000246      0.430440
     16.91108     10.56943      9.00000        -0.014916      0.001375     -0.434423
     19.02497      8.45554      9.00000        -0.005705      0.002621     -0.438073
     16.91108     12.68331     11.11389        -0.012878     -0.009497      0.426649
     19.02497     14.79720     11.11389        -0.001643     -0.003276      0.429018
     16.91108     14.79720      9.00000        -0.007111     -0.006666     -0.441130
     19.02497     12.68331      9.00000        -0.004899     -0.002133     -0.438827
     16.91108     16.91108     11.11389        -0.001830     -0.003178      0.425861
     19.02497     19.02497     11.11389         0.000610     -0.000808      0.430618
     16.91108     19.02497      9.00000        -0.002170     -0.002170     -0.439888
     19.02497     16.91108      9.00000        -0.000682     -0.002403     -0.439443
    total drift:                               -0.000014     -0.109503     -0.635279

  FREE ENERGIE OF THE ION-ELECTRON SYSTEM (eV)
  free  energy   TOTEN  =     -1367.70222859 eV

  energy  without entropy=    -1367.70222859  energy(sigma->0) =    -1367.70222859