 vasp.6.3.0 20Jan22 (build Apr  1 2022 16:44:48) complex
 executed on        HPECrayEX_GCC date 2023.01.09  21:58:34

 INCAR:
   SYSTEM = MgO-rocksalt
   ISMEAR = 0
   SIGMA = 0.05
   EDIFF = 1E-6
   ALGO = ALL
   ISTART = 0
   IBRION = -1
   NSW = 0
   ISYM = 2
   DIPOL = 0.5 0.5 0.5
   IDIPOL = 3
   LDIPOL = .TRUE.
   METAGGA = M06L
   ENCUT = 520
   PREC = Accurate
   LASPH = .TRUE.
   LREAL = Auto
   ISPIN = 1
   NELM = 200
   NELMIN = 8
   NCORE = 4
   KPAR = 2
   LWAVE = .FALSE.
   LCHARG = .FALSE.

 POTCAR:    PAW_PBE Cu 22Jun2005
 POTCAR:    PAW_PBE Mg_pv 13Apr2007
 POTCAR:    PAW_PBE O 08Apr2002
 POTCAR:    PAW_PBE Cu 22Jun2005
   VRHFIN =Cu: d10 p1

   TITEL  = PAW_PBE Cu 22Jun2005
   POMASS =   63.546; ZVAL   =   11.000    mass and valenz
   ENMAX  =  295.446; ENMIN  =  221.585 eV

   TITEL  = PAW_PBE Mg_pv 13Apr2007
   POMASS =   24.305; ZVAL   =    8.000    mass and valenz
   ENMAX  =  403.929; ENMIN  =  302.947 eV

   TITEL  = PAW_PBE O 08Apr2002
   POMASS =   16.000; ZVAL   =    6.000    mass and valenz
   ENMAX  =  400.000; ENMIN  =  300.000 eV

 Optimization of the real space projectors (new method)

 maximal supplied QI-value         = 16.25
 optimisation between [QCUT,QGAM] = [ 11.54, 23.24] = [ 37.28,151.24] Ry
 Optimized for a Real-space Cutoff    1.53 Angstroem

   l    n(q)    QCUT    max X(q) W(low)/X(q) W(high)/X(q)  e(spline)
   2     10    11.539     4.610    0.96E-04    0.13E-03    0.19E-06
   2     10    11.539     8.522    0.16E-03    0.21E-03    0.28E-06
   0     11    11.539    51.609    0.45E-04    0.31E-04    0.11E-06
   0     11    11.539    27.747    0.39E-04    0.29E-04    0.10E-06
   1     10    11.539    20.408    0.70E-05    0.38E-04    0.18E-06
   1     10    11.539    13.425    0.66E-05    0.34E-04    0.17E-06
 Optimization of the real space projectors (new method)

[...]

   l    n(q)    QCUT    max X(q) W(low)/X(q) W(high)/X(q)  e(spline)
   1      8    11.527     2.974    0.44E-04    0.56E-04    0.12E-06
   1      8    11.527     4.279    0.12E-03    0.12E-03    0.26E-06
   0      9    11.527    16.381    0.46E-04    0.64E-04    0.78E-07
   0      9    11.527     5.611    0.26E-04    0.43E-04    0.55E-07
   2      8    11.527     4.652    0.22E-03    0.72E-04    0.47E-07
 Optimization of the real space projectors (new method)

 maximal supplied QI-value         = 24.76
 optimisation between [QCUT,QGAM] = [ 11.64, 23.27] = [ 37.91,151.63] Ry
 Optimized for a Real-space Cutoff    1.14 Angstroem

   l    n(q)    QCUT    max X(q) W(low)/X(q) W(high)/X(q)  e(spline)
   0      8    11.635    20.381    0.10E-03    0.33E-03    0.24E-06
   0      8    11.635    15.268    0.11E-03    0.35E-03    0.26E-06
   1      7    11.635     5.964    0.24E-03    0.31E-03    0.30E-06
   1      7    11.635     5.382    0.22E-03    0.25E-03    0.26E-06
  PAW_PBE Cu 22Jun2005                  :
  PAW_PBE Mg_pv 13Apr2007               :
  PAW_PBE O 08Apr2002                   :

 POSCAR: Cu Mg  O
  positions in direct lattice
  velocities in cartesian coordinates

 METAGGA = M06L     LMAXTAU =  6    LMIXTAU =  F

 ion  position               nearest neighbor table
   1  0.400  0.421  0.593- 153 2.05   2 2.27  55 2.60
   2  0.401  0.506  0.657-   1 2.27   4 2.38   3 2.40
   3  0.401  0.614  0.691-   4 2.27   2 2.40
   4  0.400  0.594  0.590- 157 1.94   3 2.27   2 2.38
   5  0.000  0.000  0.407- 107 2.11 108 2.11 123 2.11 188 2.11 105 2.11
   6  0.100  0.100  0.407- 107 2.11 108 2.11 112 2.11 127 2.11 106 2.11
   7  0.000  0.100  0.503- 105 2.11 106 2.11 109 2.11 186 2.11 107 2.11
   8  0.100  0.000  0.503- 105 2.11 106 2.11 122 2.11 125 2.11 108 2.11
   9  0.000  0.200  0.407- 111 2.11 107 2.11 112 2.11 192 2.11 109 2.11
  10  0.100  0.300  0.407- 112 2.11 111 2.11 116 2.11 131 2.11 110 2.11
  11  0.000  0.300  0.503- 109 2.11 110 2.11 113 2.11 190 2.11 111 2.11
  12  0.100  0.200  0.503- 110 2.11 109 2.11 106 2.11 129 2.11 112 2.11
  13  0.000  0.400  0.407- 111 2.11 115 2.11 116 2.11 196 2.11 113 2.11
  14  0.100  0.500  0.407- 115 2.11 116 2.11 120 2.11 135 2.11 114 2.11
  15  0.000  0.500  0.503- 113 2.11 114 2.11 117 2.11 194 2.11 115 2.11
  16  0.100  0.400  0.503- 110 2.11 113 2.11 114 2.11 133 2.11 116 2.11
  17  0.000  0.600  0.407- 115 2.11 119 2.11 120 2.11 200 2.11 117 2.11
  18  0.100  0.700  0.407- 124 2.11 120 2.11 119 2.11 139 2.11 118 2.11
  19  0.000  0.700  0.503- 121 2.11 118 2.11 117 2.11 198 2.11 119 2.11
  20  0.100  0.600  0.503- 114 2.11 117 2.11 118 2.11 137 2.11 120 2.11
  21  0.000  0.800  0.407- 119 2.11 123 2.11 124 2.11 204 2.11 121 2.11
  22  0.100  0.900  0.407- 108 2.11 123 2.11 124 2.11 143 2.11 122 2.11
  23  0.000  0.900  0.503- 105 2.11 121 2.11 122 2.11 202 2.11 123 2.11
  24  0.100  0.800  0.503- 118 2.11 121 2.11 122 2.11 141 2.11 124 2.11
  25  0.200  0.000  0.407- 128 2.11 127 2.11 108 2.11 143 2.11 125 2.11
  26  0.300  0.100  0.407- 127 2.11 128 2.11 132 2.11 147 2.11 126 2.11
  27  0.200  0.100  0.503- 126 2.11 125 2.11 106 2.11 129 2.11 127 2.11
  28  0.300  0.000  0.503- 125 2.11 126 2.11 142 2.11 145 2.11 128 2.11
  29  0.200  0.200  0.407- 131 2.11 132 2.11 112 2.11 127 2.11 129 2.11
  30  0.300  0.300  0.407- 131 2.11 132 2.11 136 2.11 151 2.11 130 2.11
  31  0.200  0.300  0.503- 129 2.11 130 2.11 110 2.11 133 2.11 131 2.11
  32  0.300  0.200  0.503- 129 2.11 130 2.11 126 2.11 149 2.11 132 2.11
  33  0.200  0.400  0.407- 136 2.11 131 2.11 135 2.11 116 2.11 133 2.11
  34  0.300  0.500  0.407- 135 2.11 136 2.11 140 2.11 155 2.11 134 2.11
  35  0.200  0.500  0.503- 134 2.11 133 2.11 114 2.11 137 2.11 135 2.11
  36  0.300  0.400  0.503- 133 2.11 130 2.11 134 2.11 153 2.11 136 2.11
  37  0.200  0.600  0.407- 140 2.11 135 2.11 139 2.11 120 2.11 137 2.11
  38  0.300  0.700  0.407- 139 2.11 144 2.11 140 2.11 159 2.11 138 2.11
  39  0.200  0.700  0.503- 138 2.11 141 2.11 118 2.11 137 2.11 139 2.11
  40  0.300  0.600  0.503- 137 2.11 134 2.11 138 2.11 157 2.11 140 2.11
  41  0.200  0.800  0.407- 139 2.11 144 2.11 143 2.11 124 2.11 141 2.11
  42  0.300  0.900  0.407- 143 2.11 128 2.11 144 2.11 163 2.11 142 2.11
  43  0.200  0.900  0.503- 142 2.11 125 2.11 141 2.11 122 2.11 143 2.11
  44  0.300  0.800  0.503- 138 2.11 141 2.11 142 2.11 161 2.11 144 2.11
  45  0.400  0.000  0.407- 128 2.11 147 2.11 148 2.11 163 2.11 145 2.11
  46  0.500  0.100  0.407- 147 2.11 148 2.11 152 2.11 167 2.11 146 2.11
  47  0.400  0.100  0.503- 126 2.11 145 2.11 146 2.11 149 2.11 147 2.11
  48  0.500  0.000  0.503- 145 2.11 146 2.11 162 2.11 165 2.11 148 2.11
  49  0.400  0.200  0.407- 151 2.11 147 2.11 132 2.11 152 2.11 149 2.11
  50  0.500  0.300  0.407- 152 2.11 151 2.11 156 2.11 171 2.11 150 2.11
  51  0.400  0.300  0.503- 149 2.11 130 2.11 150 2.11 153 2.11 151 2.11
  52  0.500  0.200  0.503- 150 2.11 149 2.11 146 2.11 169 2.11 152 2.11
  53  0.400  0.400  0.407- 136 2.11 151 2.11 155 2.11 156 2.11 153 2.11
  54  0.500  0.500  0.407- 155 2.11 156 2.11 160 2.11 175 2.11 154 2.11
  55  0.400  0.500  0.503- 134 2.11 153 2.11 154 2.11 157 2.11 155 2.11   1 2.60
  56  0.500  0.400  0.503- 150 2.11 153 2.11 154 2.11 173 2.11 156 2.11
  57  0.400  0.600  0.407- 140 2.11 155 2.11 159 2.11 160 2.11 157 2.11
  58  0.500  0.700  0.407- 164 2.11 160 2.11 159 2.11 179 2.11 158 2.11
  59  0.400  0.700  0.503- 161 2.11 157 2.11 158 2.11 138 2.11 159 2.11
  60  0.500  0.600  0.503- 154 2.11 157 2.11 158 2.11 177 2.11 160 2.11
[...]
 190  0.900  0.300  0.503-  92 2.11  91 2.11  11 2.11  96 2.11  90 2.11
 191  0.800  0.300  0.407-  70 2.11  89 2.11  90 2.11  93 2.11  91 2.11
 192  0.900  0.200  0.407-  90 2.11  86 2.11  89 2.11   9 2.11  92 2.11
 193  0.800  0.400  0.503-  76 2.11  91 2.11  95 2.11  96 2.11  93 2.11
 194  0.900  0.500  0.503-  15 2.11  95 2.11  96 2.11 100 2.11  94 2.11
 195  0.800  0.500  0.407-  74 2.11  93 2.11  94 2.11  97 2.11  95 2.11
 196  0.900  0.400  0.407-  13 2.11  90 2.11  93 2.11  94 2.11  96 2.11
 197  0.800  0.600  0.503-  80 2.11  95 2.11  99 2.11 100 2.11  97 2.11
 198  0.900  0.700  0.503- 104 2.11  99 2.11 100 2.11  19 2.11  98 2.11
 199  0.800  0.700  0.407-  78 2.11 101 2.11  98 2.11  97 2.11  99 2.11
 200  0.900  0.600  0.407-  17 2.11  94 2.11  97 2.11  98 2.11 100 2.11
 201  0.800  0.800  0.503-  84 2.11  99 2.11 103 2.11 104 2.11 101 2.11
 202  0.900  0.900  0.503-  23 2.11  88 2.11 103 2.11 104 2.11 102 2.11
 203  0.800  0.900  0.407-  82 2.11  85 2.11 101 2.11 102 2.11 103 2.11
 204  0.900  0.800  0.407-  98 2.11  21 2.11 101 2.11 102 2.11 104 2.11

  LATTYP: Found a simple tetragonal cell.
 ALAT       =    21.1388521970
 C/A-ratio  =     1.0461251639

  Lattice vectors:

 A1 = (  21.1388521970,   0.0000000000,   0.0000000000)
 A2 = (   0.0000000000,  21.1388521970,   0.0000000000)
 A3 = (   0.0000000000,   0.0000000000,  22.1138852197)

Analysis of symmetry for initial positions (statically):
 Subroutine PRICEL returns:
 Original cell was already a primitive cell.

 Routine SETGRP: Setting up the symmetry group for a
 simple tetragonal supercell.

 Subroutine GETGRP returns: Found  1 space group operations
 (whereof  1 operations were pure point group operations)
 out of a pool of 16 trial point group operations.

The static configuration has the point symmetry C_1 .

Analysis of symmetry for dynamics (positions and initial velocities):
 Subroutine PRICEL returns:
 Original cell was already a primitive cell.

[...]

The dynamic configuration has the point symmetry C_1 .

Analysis of constrained symmetry for selective dynamics:
 Subroutine PRICEL returns:
 Original cell was already a primitive cell.

 Routine SETGRP: Setting up the symmetry group for a
 simple tetragonal supercell.

 Subroutine GETGRP returns: Found  1 space group operations
 (whereof  1 operations were pure point group operations)
 out of a pool of 16 trial point group operations.

The constrained configuration has the point symmetry C_1 .

 Subroutine INISYM returns: Found  1 space group operations
 (whereof  1 operations are pure point group operations),
 and found     1 'primitive' translations

                                     Primitive cell

  volume of cell :    9881.6133

  direct lattice vectors                    reciprocal lattice vectors
    21.138852197  0.000000000  0.000000000     0.047306258  0.000000000  0.000000000
     0.000000000 21.138852197  0.000000000     0.000000000  0.047306258  0.000000000
     0.000000000  0.000000000 22.113885220     0.000000000  0.000000000  0.045220457

  length of vectors
    21.138852197 21.138852197 22.113885220     0.047306258  0.047306258  0.045220457

  position of ions in fractional coordinates (direct lattice)
     0.400229282  0.421328702  0.592894010
     0.400626265  0.505728649  0.656597495
     0.400850837  0.613577871  0.691210184
     0.400248991  0.594204282  0.590315895
     0.000000000  0.000000000  0.406984115
     0.100000000  0.100000000  0.406984115
     0.000000000  0.100000000  0.502574971
     0.100000000  0.000000000  0.502574971
     0.000000000  0.200000000  0.406984115
     0.100000000  0.300000000  0.406984115
     0.000000000  0.300000000  0.502574971
     0.100000000  0.200000000  0.502574971
     0.000000000  0.400000000  0.406984115
[...]
     52     -44.8279      2.00000
     53     -44.8271      2.00000
     54     -44.8260      2.00000
     55     -44.8217      2.00000
     56     -44.8213      2.00000
     57     -44.8198      2.00000
     58     -44.8189      2.00000
     59     -44.8188      2.00000
     60     -44.8112      2.00000
[...]
    946      11.4491      0.00000
    947      11.4713      0.00000
    948      11.5377      0.00000
    949      11.5665      0.00000
    950      11.6041      0.00000
    951      11.7024      0.00000
    952      11.7554      0.00000
    953      11.7955      0.00000
    954      11.8258      0.00000
    955      11.8698      0.00000
    956      11.9134      0.00000
    957      12.0457      0.00000
    958      12.0980      0.00000
    959      12.3832      0.00000
    960      14.6325      0.00000

 soft charge-density along one line, spin component           1
         0         1         2         3         4         5         6         7         8         9
 total charge-density along one line

------------------------ aborting loop EDIFF was not reached (unconverged)  ----------------------------

  FORCE on cell =-STRESS in cart. coord.  units (eV):
  Direction    XX          YY          ZZ          XY          YZ          ZX
  Alpha Z  1394.80054  1394.80054  1394.80054
  Ewald  481518.80809483945.56047************     3.30592   512.32742     8.74192
  Hartree511789.25573513809.45704************     2.55201   418.28244     6.54999
  E(xc)   -8911.37900 -8910.23265 -8910.59170     0.00266     0.39264    -0.00749
  Local  ************************************    -5.83297  -927.44090   -15.16013
  n-local -8701.87667 -8701.07441 -8840.86762    -0.04937     0.07440    -0.02521
  augment  4364.67804  4356.27078  4311.25815     0.01870    -2.14087    -0.03586
  Kinetic 23213.71497 23206.31795 23406.91651    -0.02485    -1.52925    -0.04826
  Fock        0.00000     0.00000     0.00000     0.00000     0.00000     0.00000
  Total    -239.92762  -241.22455   -28.39664    -0.02789    -0.03411     0.01495
  in kB     -38.90120   -39.11148    -4.60415    -0.00452    -0.00553     0.00242

 VOLUME and BASIS-vectors are now :
  energy-cutoff  :      520.00
  volume of cell :     9881.61
      direct lattice vectors                 reciprocal lattice vectors
    21.138852197  0.000000000  0.000000000     0.047306258  0.000000000  0.000000000
     0.000000000 21.138852197  0.000000000     0.000000000  0.047306258  0.000000000
     0.000000000  0.000000000 22.113885220     0.000000000  0.000000000  0.045220457

  length of vectors
    21.138852197 21.138852197 22.113885220     0.047306258  0.047306258  0.045220457

 FORCES acting on ions:
    Electron-Ion                     Ewald-Force                    Non-Local-Force
   0.149E+01 0.462E+03 -.201E+04   -.141E+01 -.456E+03 0.201E+04   -.700E-01 -.356E+01 -.618E+01
   -.173E+01 0.259E+03 -.217E+04   0.169E+01 -.262E+03 0.216E+04   -.653E-01 0.656E+00 0.412E+01
   -.282E+01 -.419E+03 -.212E+04   0.270E+01 0.413E+03 0.211E+04   -.337E+00 0.391E+01 0.804E+01
   0.289E+01 -.306E+03 -.175E+04   -.282E+01 0.306E+03 0.176E+04   -.791E-01 -.128E+01 -.467E+01
   0.744E+01 -.226E+01 0.937E+03   -.746E+01 0.229E+01 -.928E+03   0.188E-01 -.295E-01 -.762E+01
   0.138E+02 0.748E+01 0.941E+03   -.138E+02 -.748E+01 -.932E+03   0.751E-01 0.864E-02 -.801E+01
   0.980E+01 0.631E+01 -.920E+03   -.984E+01 -.629E+01 0.911E+03   0.641E-01 0.250E-01 0.894E+01
   0.159E+02 -.426E+01 -.918E+03   -.160E+02 0.429E+01 0.909E+03   0.600E-01 -.224E-01 0.870E+01
   0.105E+02 0.109E+02 0.940E+03   -.105E+02 -.110E+02 -.931E+03   0.538E-01 0.413E-01 -.783E+01
   0.280E+02 0.202E+02 0.952E+03   -.282E+02 -.203E+02 -.943E+03   0.226E+00 0.106E+00 -.790E+01
   0.197E+02 0.167E+02 -.915E+03   -.198E+02 -.167E+02 0.906E+03   0.991E-01 0.535E-01 0.885E+01
   0.257E+02 0.221E+02 -.914E+03   -.257E+02 -.221E+02 0.905E+03   0.129E+00 0.875E-01 0.869E+01
   0.187E+02 0.100E+02 0.947E+03   -.189E+02 -.100E+02 -.938E+03   0.144E+00 0.375E-01 -.789E+01
   0.436E+02 0.415E+01 0.965E+03   -.438E+02 -.416E+01 -.956E+03   0.303E+00 -.594E-02 -.796E+01
   0.305E+02 0.364E+01 -.910E+03   -.306E+02 -.366E+01 0.901E+03   0.951E-01 0.177E-01 0.863E+01
   0.589E+02 0.237E+02 -.899E+03   -.590E+02 -.237E+02 0.890E+03   0.244E+00 0.610E-01 0.891E+01
   0.204E+02 -.594E+01 0.949E+03   -.205E+02 0.593E+01 -.940E+03   0.135E+00 -.215E-01 -.802E+01
   0.332E+02 -.189E+02 0.957E+03   -.334E+02 0.189E+02 -.948E+03   0.246E+00 -.840E-01 -.782E+01
   0.238E+02 -.153E+02 -.912E+03   -.239E+02 0.153E+02 0.904E+03   0.779E-01 -.601E-01 0.863E+01
   0.666E+02 -.144E+02 -.894E+03   -.667E+02 0.144E+02 0.885E+03   0.286E+00 -.480E-01 0.867E+01
   0.125E+02 -.127E+02 0.942E+03   -.126E+02 0.128E+02 -.933E+03   0.628E-01 -.417E-01 -.789E+01
   0.159E+02 -.130E+02 0.943E+03   -.160E+02 0.130E+02 -.934E+03   0.864E-01 -.476E-01 -.790E+01
   0.116E+02 -.113E+02 -.918E+03   -.116E+02 0.114E+02 0.910E+03   0.423E-01 -.411E-01 0.862E+01
   0.332E+02 -.270E+02 -.909E+03   -.333E+02 0.271E+02 0.900E+03   0.122E+00 -.892E-01 0.864E+01
   0.137E+02 -.439E+01 0.944E+03   -.138E+02 0.441E+01 -.935E+03   0.714E-01 -.273E-01 -.802E+01
   0.102E+02 0.153E+02 0.950E+03   -.102E+02 -.155E+02 -.940E+03   0.746E-01 0.163E+00 -.796E+01
   0.197E+02 0.157E+02 -.914E+03   -.198E+02 -.157E+02 0.905E+03   0.103E+00 0.105E+00 0.862E+01
   0.118E+02 -.866E+01 -.912E+03   -.118E+02 0.867E+01 0.902E+03   0.354E-01 0.147E-03 0.883E+01
   0.226E+02 0.256E+02 0.953E+03   -.228E+02 -.257E+02 -.944E+03   0.151E+00 0.193E+00 -.776E+01
   0.309E+02 0.526E+02 0.993E+03   -.312E+02 -.530E+02 -.984E+03   0.373E+00 0.497E+00 -.775E+01
   0.624E+02 0.559E+02 -.889E+03   -.627E+02 -.559E+02 0.880E+03   0.430E+00 0.166E+00 0.864E+01
   0.267E+02 0.609E+02 -.896E+03   -.268E+02 -.612E+02 0.887E+03   0.163E+00 0.432E+00 0.879E+01
   0.539E+02 0.278E+02 0.988E+03   -.543E+02 -.279E+02 -.979E+03   0.574E+00 0.149E+00 -.799E+01
   0.605E+02 0.107E+02 0.106E+04   -.612E+02 -.108E+02 -.105E+04   0.688E+00 0.473E-01 -.782E+01
   0.129E+03 0.134E+02 -.845E+03   -.129E+03 -.135E+02 0.837E+03   0.671E+00 0.148E-01 0.865E+01
   0.157E+03 0.107E+03 -.749E+03   -.160E+03 -.107E+03 0.741E+03   0.231E+01 0.280E+00 0.822E+01
   0.599E+02 -.181E+02 0.996E+03   -.605E+02 0.181E+02 -.987E+03   0.646E+00 -.106E+00 -.778E+01
   0.385E+02 -.527E+02 0.101E+04   -.389E+02 0.532E+02 -.100E+04   0.434E+00 -.502E+00 -.778E+01
   0.818E+02 -.569E+02 -.872E+03   -.822E+02 0.570E+02 0.863E+03   0.466E+00 -.161E+00 0.868E+01
   0.186E+03 -.721E+02 -.707E+03   -.189E+03 0.720E+02 0.698E+03   0.291E+01 -.235E+00 0.840E+01
   0.285E+02 -.309E+02 0.961E+03   -.286E+02 0.311E+02 -.952E+03   0.186E+00 -.187E+00 -.759E+01
   0.124E+02 -.262E+02 0.955E+03   -.124E+02 0.264E+02 -.946E+03   0.523E-01 -.168E+00 -.791E+01
   0.248E+02 -.284E+02 -.909E+03   -.248E+02 0.284E+02 0.900E+03   0.839E-01 -.115E+00 0.864E+01
   0.387E+02 -.815E+02 -.876E+03   -.387E+02 0.819E+02 0.867E+03   0.994E-01 -.503E+00 0.866E+01
   0.373E-01 -.619E+01 0.949E+03   -.449E-01 0.622E+01 -.940E+03   0.140E-01 0.593E-02 -.807E+01
   -.101E+02 0.154E+02 0.950E+03   0.102E+02 -.155E+02 -.941E+03   -.511E-01 0.145E+00 -.793E+01
   0.658E-01 0.261E+02 -.908E+03   -.634E-01 -.262E+02 0.899E+03   0.133E-02 0.199E+00 0.876E+01
   -.117E+02 -.866E+01 -.911E+03   0.117E+02 0.870E+01 0.902E+03   -.262E-01 -.290E-02 0.875E+01
   0.968E-01 0.422E+02 0.968E+03   -.727E-01 -.426E+02 -.959E+03   0.749E-02 0.521E+00 -.778E+01
   -.307E+02 0.527E+02 0.994E+03   0.310E+02 -.531E+02 -.985E+03   -.353E+00 0.484E+00 -.776E+01
   0.354E+00 0.158E+03 -.812E+03   -.335E+00 -.161E+03 0.803E+03   0.293E-02 0.236E+01 0.879E+01
   -.266E+02 0.611E+02 -.896E+03   0.266E+02 -.613E+02 0.887E+03   -.129E+00 0.443E+00 0.872E+01
   0.241E+00 0.550E+02 0.107E+04   -.235E+00 -.555E+02 -.106E+04   -.544E-02 0.518E+00 -.581E+01
   -.602E+02 0.107E+02 0.106E+04   0.609E+02 -.109E+02 -.105E+04   -.683E+00 0.380E-01 -.788E+01
   0.129E+01 0.259E+02 -.514E+03   -.127E+01 -.271E+02 0.509E+03   -.218E-01 0.650E+00 0.517E+01
   -.157E+03 0.108E+03 -.748E+03   0.160E+03 -.108E+03 0.740E+03   -.229E+01 0.250E+00 0.824E+01
   0.281E+00 -.378E+02 0.109E+04   -.293E+00 0.380E+02 -.108E+04   0.169E-02 -.369E+00 -.525E+01
   -.383E+02 -.529E+02 0.101E+04   0.387E+02 0.534E+02 -.100E+04   -.426E+00 -.510E+00 -.782E+01
   0.603E+00 -.187E+03 -.742E+03   -.616E+00 0.190E+03 0.734E+03   0.129E-01 -.290E+01 0.837E+01
   -.186E+03 -.724E+02 -.705E+03   0.189E+03 0.724E+02 0.696E+03   -.290E+01 -.248E+00 0.831E+01
[...]
   -.110E+02 0.980E+01 0.709E+03   0.110E+02 -.982E+01 -.712E+03   -.146E-01 0.482E-01 0.320E+01
   -.332E-01 0.694E+01 0.705E+03   0.344E-01 -.694E+01 -.709E+03   -.126E-01 -.144E-01 0.321E+01
   -.201E+02 0.988E+01 -.685E+03   0.201E+02 -.992E+01 0.689E+03   -.311E-01 0.312E-01 -.314E+01
   -.100E+00 0.217E+01 -.687E+03   0.100E+00 -.216E+01 0.690E+03   0.652E-02 0.155E-01 -.312E+01
   -.160E+02 0.201E+01 0.713E+03   0.161E+02 -.201E+01 -.717E+03   -.553E-01 -.172E-02 0.322E+01
   -.954E-01 0.616E+01 0.709E+03   0.606E-01 -.621E+01 -.712E+03   0.240E-01 0.408E-01 0.321E+01
   -.223E+02 -.574E+01 -.684E+03   0.223E+02 0.576E+01 0.687E+03   -.675E-01 -.271E-01 -.313E+01
   -.735E-01 -.905E+01 -.688E+03   0.850E-01 0.906E+01 0.691E+03   -.339E-01 -.380E-01 -.314E+01
   -.128E+02 -.892E+01 0.711E+03   0.129E+02 0.891E+01 -.714E+03   -.817E-01 -.197E-01 0.322E+01
   -.687E-01 -.360E+01 0.710E+03   0.695E-01 0.360E+01 -.713E+03   -.142E-01 0.171E-01 0.323E+01
   -.128E+02 -.123E+02 -.688E+03   0.128E+02 0.123E+02 0.692E+03   -.491E-01 -.118E-01 -.311E+01
   -.290E-01 -.706E+01 -.691E+03   0.441E-01 0.708E+01 0.695E+03   0.309E-02 -.143E-01 -.309E+01
   -.688E+01 -.673E+01 0.705E+03   0.687E+01 0.676E+01 -.709E+03   -.125E-01 -.218E-01 0.319E+01
   -.531E-01 -.803E+01 0.706E+03   0.459E-01 0.805E+01 -.710E+03   0.927E-02 -.392E-01 0.318E+01
   -.143E+00 -.285E+01 -.630E+01   0.165E-11 0.682E-12 0.364E-11   -.415E+00 0.492E+00 0.592E+02

 POSITION                                       TOTAL-FORCE (eV/Angst)
      8.46039      8.90641     13.11119         0.006821      1.485305      1.274444
      8.46878     10.69052     14.51992        -0.097555     -2.105746     -1.313398
      8.47353     12.97033     15.28534        -0.444569     -0.848370     -1.385704
      8.46080     12.56080     13.05418        -0.011812     -1.017818      0.870183
      0.00000      0.00000      9.00000        -0.001360      0.004169      0.920170
      2.11389      2.11389      9.00000         0.026896      0.017277      0.605695
      0.00000      2.11389     11.11389         0.031225      0.044464     -0.169781
      2.11389      0.00000     11.11389         0.042732      0.012165     -0.422061
      0.00000      4.22777      9.00000         0.002840      0.035277      0.793695
      2.11389      6.34166      9.00000         0.064218      0.063426      0.783635
      0.00000      6.34166     11.11389         0.041830      0.049528     -0.206819
      2.11389      4.22777     11.11389         0.054003      0.086971     -0.417068
      0.00000      8.45554      9.00000         0.045228      0.014309      0.779606
      2.11389     10.56943      9.00000         0.066183     -0.001684      0.724828
      0.00000     10.56943     11.11389         0.063114      0.012807     -0.471859
      2.11389      8.45554     11.11389         0.162738      0.053075     -0.067186
      0.00000     12.68331      9.00000         0.061507     -0.012737      0.577639
      2.11389     14.79720      9.00000         0.045455     -0.032345      0.819165
      0.00000     14.79720     11.11389         0.041438     -0.060465     -0.449180
      2.11389     12.68331     11.11389         0.141690     -0.061091     -0.390707
      0.00000     16.91108      9.00000         0.023717      0.009673      0.652935
      2.11389     19.02497      9.00000         0.023900      0.005015      0.705247
      0.00000     19.02497     11.11389         0.017947     -0.005951     -0.472333
      2.11389     16.91108     11.11389         0.051817     -0.049614     -0.455657
      4.22777      0.00000      9.00000         0.044811      0.007255      0.665242
      6.34166      2.11389      9.00000         0.038024      0.051994      0.731877
      4.22777      2.11389     11.11389         0.077103      0.056762     -0.539634
      6.34166      0.00000     11.11389         0.016597      0.024037     -0.316959
      4.22777      4.22777      9.00000         0.045077      0.083631      0.885108
      6.34166      6.34166      9.00000         0.070683      0.109265      0.886636
      4.22777      6.34166     11.11389         0.154042      0.176262     -0.392519
      6.34166      4.22777     11.11389         0.106155      0.178543     -0.289518
      4.22777      8.45554      9.00000         0.093685      0.056417      0.826102
      6.34166     10.56943      9.00000        -0.004007     -0.106743      0.956831
      4.22777     10.56943     11.11389         0.271042     -0.040487     -0.185972
      6.34166      8.45554     11.11389        -0.065114      0.245415     -0.004291
      4.22777     12.68331      9.00000         0.021394     -0.057828      1.061085
      6.34166     14.79720      9.00000        -0.032850      0.017390      0.793470
      4.22777     14.79720     11.11389         0.069112     -0.112179     -0.329776
      6.34166     12.68331     11.11389        -0.616705     -0.262051     -0.213264
      4.22777     16.91108      9.00000         0.030972     -0.014007      1.088647
      6.34166     19.02497      9.00000         0.016552      0.032885      0.762510
      4.22777     19.02497     11.11389         0.052184     -0.030774     -0.494412
      6.34166     16.91108     11.11389         0.073463     -0.092277     -0.393898
      8.45554      0.00000      9.00000         0.009067      0.047099      0.617476
     10.56943      2.11389      9.00000        -0.002682      0.067173      0.750980
      8.45554      2.11389     11.11389         0.007210      0.115691     -0.373626
     10.56943      0.00000     11.11389        -0.009537      0.040388     -0.404740
      8.45554      4.22777      9.00000         0.034661      0.107253      0.978635
     10.56943      6.34166      9.00000        -0.028076      0.107247      0.863385
      8.45554      6.34166     11.11389         0.021688      0.032705     -0.231738
     10.56943      4.22777     11.11389        -0.071109      0.181386     -0.397718
      8.45554      8.45554      9.00000         0.003078      0.004096      0.757843
     10.56943     10.56943      9.00000         0.026893     -0.140730      0.869036
      8.45554     10.56943     11.11389         0.003224     -0.473586      0.233805
     10.56943      8.45554     11.11389         0.072266      0.209676      0.076964
      8.45554     12.68331      9.00000        -0.007987     -0.096706      0.132619
     10.56943     14.79720      9.00000         0.035059     -0.003995      0.738292
      8.45554     14.79720     11.11389         0.001119      0.555694     -0.186103
     10.56943     12.68331     11.11389         0.637899     -0.274209     -0.260377
[...]
     19.02497      6.34166     11.11389        -0.002692     -0.001874      0.120711
     16.91108      6.34166      9.00000         0.014188      0.038445     -0.591921
     19.02497      4.22777      9.00000        -0.008388     -0.001616     -0.594432
     16.91108      8.45554     11.11389        -0.037346     -0.004613      0.150044
     19.02497     10.56943     11.11389         0.009706      0.035190      0.145479
     16.91108     10.56943      9.00000         0.013715      0.007843     -0.638337
     19.02497      8.45554      9.00000        -0.008895      0.006394     -0.625173
     16.91108     12.68331     11.11389        -0.036038      0.005461      0.173156
     19.02497     14.79720     11.11389        -0.019752     -0.014457      0.170042
     16.91108     14.79720      9.00000        -0.050309     -0.015654     -0.636800
     19.02497     12.68331      9.00000        -0.010714      0.032240     -0.612038
     16.91108     16.91108     11.11389        -0.040695      0.005996      0.194119
     19.02497     19.02497     11.11389         0.020466      0.014112      0.211672
     16.91108     19.02497      9.00000        -0.022307      0.020297     -0.665353
     19.02497     16.91108      9.00000         0.005031     -0.004665     -0.683966
    total drift:                               -0.558081     -2.361454     52.911056

  FREE ENERGIE OF THE ION-ELECTRON SYSTEM (eV)
  free  energy   TOTEN  =     -1687.11524991 eV

  energy  without entropy=    -1687.11508621  energy(sigma->0) =    -1687.11516806