 vasp.6.4.0 14Feb23 (build Dec 05 2023 14:15:48) complex

 executed on             LinuxIFC date 2023.12.12  12:26:57

 INCAR:
   SYSTEM = MgO-rocksalt
   ISMEAR = 0
   SIGMA = 0.05
   EDIFF = 1E-6
   ALGO = ALL
   ISTART = 2
   IBRION = -1
   NSW = 0
   ISYM = 0
   DIPOL = 0.5 0.5 0.5
   IDIPOL = 3
   LDIPOL = .TRUE.
   METAGGA = M06L
   ENCUT = 520
   PREC = Accurate
   LASPH = .TRUE.
   LREAL = Auto
   ISPIN = 1
   NELM = 20000
   NELMIN = 8
   NCORE = 16
   LWAVE = .FALSE.
   LCHARG = .FALSE.

 POTCAR:    PAW_PBE Cu 22Jun2005
 POTCAR:    PAW_PBE Mg_pv 13Apr2007
 POTCAR:    PAW_PBE O 08Apr2002
 POTCAR:    PAW_PBE Cu 22Jun2005
   VRHFIN =Cu: d10 p1

   TITEL  = PAW_PBE Cu 22Jun2005
   POMASS =   63.546; ZVAL   =   11.000    mass and valenz
   ENMAX  =  295.446; ENMIN  =  221.585 eV

   TITEL  = PAW_PBE Mg_pv 13Apr2007
   POMASS =   24.305; ZVAL   =    8.000    mass and valenz
   ENMAX  =  403.929; ENMIN  =  302.947 eV

   TITEL  = PAW_PBE O 08Apr2002
   POMASS =   16.000; ZVAL   =    6.000    mass and valenz
   ENMAX  =  400.000; ENMIN  =  300.000 eV

 Optimization of the real space projectors (new method)

 maximal supplied QI-value         = 16.25
 optimisation between [QCUT,QGAM] = [ 11.54, 23.24] = [ 37.28,151.24] Ry
 Optimized for a Real-space Cutoff    1.53 Angstroem

   l    n(q)    QCUT    max X(q) W(low)/X(q) W(high)/X(q)  e(spline)
   2     10    11.539     4.610    0.96E-04    0.13E-03    0.19E-06
   2     10    11.539     8.522    0.16E-03    0.21E-03    0.28E-06
   0     11    11.539    51.609    0.45E-04    0.31E-04    0.11E-06
   0     11    11.539    27.747    0.39E-04    0.29E-04    0.10E-06
   1     10    11.539    20.408    0.70E-05    0.38E-04    0.18E-06
   1     10    11.539    13.425    0.66E-05    0.34E-04    0.17E-06
 Optimization of the real space projectors (new method)

[...]

   l    n(q)    QCUT    max X(q) W(low)/X(q) W(high)/X(q)  e(spline)
   1      8    11.527     2.974    0.44E-04    0.56E-04    0.12E-06
   1      8    11.527     4.279    0.12E-03    0.12E-03    0.26E-06
   0      9    11.527    16.381    0.46E-04    0.64E-04    0.78E-07
   0      9    11.527     5.611    0.26E-04    0.43E-04    0.55E-07
   2      8    11.527     4.652    0.22E-03    0.72E-04    0.47E-07
 Optimization of the real space projectors (new method)

 maximal supplied QI-value         = 24.76
 optimisation between [QCUT,QGAM] = [ 11.64, 23.27] = [ 37.91,151.63] Ry
 Optimized for a Real-space Cutoff    1.14 Angstroem

   l    n(q)    QCUT    max X(q) W(low)/X(q) W(high)/X(q)  e(spline)
   0      8    11.635    20.381    0.10E-03    0.33E-03    0.24E-06
   0      8    11.635    15.268    0.11E-03    0.35E-03    0.26E-06
   1      7    11.635     5.964    0.24E-03    0.31E-03    0.30E-06
   1      7    11.635     5.382    0.22E-03    0.25E-03    0.26E-06
  PAW_PBE Cu 22Jun2005                  :
  PAW_PBE Mg_pv 13Apr2007               :
  PAW_PBE O 08Apr2002                   :

 POSCAR: Cu Mg  O
  positions in direct lattice
  velocities in cartesian coordinates

 METAGGA = M06L                                        LMAXTAU =  6    LMIXTAU =  F

 ion  position               nearest neighbor table
   1  0.400  0.421  0.593- 153 2.05   2 2.27  55 2.60
   2  0.401  0.506  0.657-   1 2.27   4 2.38   3 2.40
   3  0.401  0.614  0.691-   4 2.27   2 2.40
   4  0.400  0.594  0.590- 157 1.94   3 2.27   2 2.38
   5  0.000  0.000  0.407- 107 2.11 108 2.11 123 2.11 188 2.11 105 2.11
   6  0.100  0.100  0.407- 107 2.11 108 2.11 112 2.11 127 2.11 106 2.11
   7  0.000  0.100  0.503- 105 2.11 106 2.11 109 2.11 186 2.11 107 2.11
   8  0.100  0.000  0.503- 105 2.11 106 2.11 122 2.11 125 2.11 108 2.11
   9  0.000  0.200  0.407- 111 2.11 107 2.11 112 2.11 192 2.11 109 2.11
  10  0.100  0.300  0.407- 112 2.11 111 2.11 116 2.11 131 2.11 110 2.11
  11  0.000  0.300  0.503- 109 2.11 110 2.11 113 2.11 190 2.11 111 2.11
  12  0.100  0.200  0.503- 110 2.11 109 2.11 106 2.11 129 2.11 112 2.11
  13  0.000  0.400  0.407- 111 2.11 115 2.11 116 2.11 196 2.11 113 2.11
  14  0.100  0.500  0.407- 115 2.11 116 2.11 120 2.11 135 2.11 114 2.11
  15  0.000  0.500  0.503- 113 2.11 114 2.11 117 2.11 194 2.11 115 2.11
  16  0.100  0.400  0.503- 110 2.11 113 2.11 114 2.11 133 2.11 116 2.11
  17  0.000  0.600  0.407- 115 2.11 119 2.11 120 2.11 200 2.11 117 2.11
  18  0.100  0.700  0.407- 124 2.11 120 2.11 119 2.11 139 2.11 118 2.11
  19  0.000  0.700  0.503- 121 2.11 118 2.11 117 2.11 198 2.11 119 2.11
  20  0.100  0.600  0.503- 114 2.11 117 2.11 118 2.11 137 2.11 120 2.11
  21  0.000  0.800  0.407- 119 2.11 123 2.11 124 2.11 204 2.11 121 2.11
  22  0.100  0.900  0.407- 108 2.11 123 2.11 124 2.11 143 2.11 122 2.11
  23  0.000  0.900  0.503- 105 2.11 121 2.11 122 2.11 202 2.11 123 2.11
  24  0.100  0.800  0.503- 118 2.11 121 2.11 122 2.11 141 2.11 124 2.11
  25  0.200  0.000  0.407- 128 2.11 127 2.11 108 2.11 143 2.11 125 2.11
  26  0.300  0.100  0.407- 127 2.11 128 2.11 132 2.11 147 2.11 126 2.11
  27  0.200  0.100  0.503- 126 2.11 125 2.11 106 2.11 129 2.11 127 2.11
  28  0.300  0.000  0.503- 125 2.11 126 2.11 142 2.11 145 2.11 128 2.11
  29  0.200  0.200  0.407- 131 2.11 132 2.11 112 2.11 127 2.11 129 2.11
  30  0.300  0.300  0.407- 131 2.11 132 2.11 136 2.11 151 2.11 130 2.11
  31  0.200  0.300  0.503- 129 2.11 130 2.11 110 2.11 133 2.11 131 2.11
  32  0.300  0.200  0.503- 129 2.11 130 2.11 126 2.11 149 2.11 132 2.11
  33  0.200  0.400  0.407- 136 2.11 131 2.11 135 2.11 116 2.11 133 2.11
  34  0.300  0.500  0.407- 135 2.11 136 2.11 140 2.11 155 2.11 134 2.11
  35  0.200  0.500  0.503- 134 2.11 133 2.11 114 2.11 137 2.11 135 2.11
  36  0.300  0.400  0.503- 133 2.11 130 2.11 134 2.11 153 2.11 136 2.11
  37  0.200  0.600  0.407- 140 2.11 135 2.11 139 2.11 120 2.11 137 2.11
  38  0.300  0.700  0.407- 139 2.11 144 2.11 140 2.11 159 2.11 138 2.11
  39  0.200  0.700  0.503- 138 2.11 141 2.11 118 2.11 137 2.11 139 2.11
  40  0.300  0.600  0.503- 137 2.11 134 2.11 138 2.11 157 2.11 140 2.11
  41  0.200  0.800  0.407- 139 2.11 144 2.11 143 2.11 124 2.11 141 2.11
  42  0.300  0.900  0.407- 143 2.11 128 2.11 144 2.11 163 2.11 142 2.11
  43  0.200  0.900  0.503- 142 2.11 125 2.11 141 2.11 122 2.11 143 2.11
  44  0.300  0.800  0.503- 138 2.11 141 2.11 142 2.11 161 2.11 144 2.11
  45  0.400  0.000  0.407- 128 2.11 147 2.11 148 2.11 163 2.11 145 2.11
  46  0.500  0.100  0.407- 147 2.11 148 2.11 152 2.11 167 2.11 146 2.11
  47  0.400  0.100  0.503- 126 2.11 145 2.11 146 2.11 149 2.11 147 2.11
  48  0.500  0.000  0.503- 145 2.11 146 2.11 162 2.11 165 2.11 148 2.11
  49  0.400  0.200  0.407- 151 2.11 147 2.11 132 2.11 152 2.11 149 2.11
  50  0.500  0.300  0.407- 152 2.11 151 2.11 156 2.11 171 2.11 150 2.11
  51  0.400  0.300  0.503- 149 2.11 130 2.11 150 2.11 153 2.11 151 2.11
  52  0.500  0.200  0.503- 150 2.11 149 2.11 146 2.11 169 2.11 152 2.11
  53  0.400  0.400  0.407- 136 2.11 151 2.11 155 2.11 156 2.11 153 2.11
  54  0.500  0.500  0.407- 155 2.11 156 2.11 160 2.11 175 2.11 154 2.11
  55  0.400  0.500  0.503- 134 2.11 153 2.11 154 2.11 157 2.11 155 2.11   1 2.60
  56  0.500  0.400  0.503- 150 2.11 153 2.11 154 2.11 173 2.11 156 2.11
  57  0.400  0.600  0.407- 140 2.11 155 2.11 159 2.11 160 2.11 157 2.11
  58  0.500  0.700  0.407- 164 2.11 160 2.11 159 2.11 179 2.11 158 2.11
  59  0.400  0.700  0.503- 161 2.11 157 2.11 158 2.11 138 2.11 159 2.11
  60  0.500  0.600  0.503- 154 2.11 157 2.11 158 2.11 177 2.11 160 2.11
[...]
 190  0.900  0.300  0.503-  92 2.11  91 2.11  11 2.11  96 2.11  90 2.11
 191  0.800  0.300  0.407-  70 2.11  89 2.11  90 2.11  93 2.11  91 2.11
 192  0.900  0.200  0.407-  90 2.11  86 2.11  89 2.11   9 2.11  92 2.11
 193  0.800  0.400  0.503-  76 2.11  91 2.11  95 2.11  96 2.11  93 2.11
 194  0.900  0.500  0.503-  15 2.11  95 2.11  96 2.11 100 2.11  94 2.11
 195  0.800  0.500  0.407-  74 2.11  93 2.11  94 2.11  97 2.11  95 2.11
 196  0.900  0.400  0.407-  13 2.11  90 2.11  93 2.11  94 2.11  96 2.11
 197  0.800  0.600  0.503-  80 2.11  95 2.11  99 2.11 100 2.11  97 2.11
 198  0.900  0.700  0.503- 104 2.11  99 2.11 100 2.11  19 2.11  98 2.11
 199  0.800  0.700  0.407-  78 2.11 101 2.11  98 2.11  97 2.11  99 2.11
 200  0.900  0.600  0.407-  17 2.11  94 2.11  97 2.11  98 2.11 100 2.11
 201  0.800  0.800  0.503-  84 2.11  99 2.11 103 2.11 104 2.11 101 2.11
 202  0.900  0.900  0.503-  23 2.11  88 2.11 103 2.11 104 2.11 102 2.11
 203  0.800  0.900  0.407-  82 2.11  85 2.11 101 2.11 102 2.11 103 2.11
 204  0.900  0.800  0.407-  98 2.11  21 2.11 101 2.11 102 2.11 104 2.11

IMPORTANT INFORMATION: All symmetrisations will be switched off!
NOSYMM: (Re-)initialisation of all symmetry stuff for point group C_1.

                                     Primitive cell

  volume of cell :    9881.6133

  direct lattice vectors                    reciprocal lattice vectors
    21.138852197  0.000000000  0.000000000     0.047306258  0.000000000  0.000000000
     0.000000000 21.138852197  0.000000000     0.000000000  0.047306258  0.000000000
     0.000000000  0.000000000 22.113885220     0.000000000  0.000000000  0.045220457

  length of vectors
    21.138852197 21.138852197 22.113885220     0.047306258  0.047306258  0.045220457

  position of ions in fractional coordinates (direct lattice)
     0.400229282  0.421328702  0.592894010
     0.400626265  0.505728649  0.656597495
     0.400850837  0.613577871  0.691210184
     0.400248991  0.594204282  0.590315895
     0.000000000  0.000000000  0.406984115
     0.100000000  0.100000000  0.406984115
     0.000000000  0.100000000  0.502574971
     0.100000000  0.000000000  0.502574971
     0.000000000  0.200000000  0.406984115
     0.100000000  0.300000000  0.406984115
     0.000000000  0.300000000  0.502574971
     0.100000000  0.200000000  0.502574971
     0.000000000  0.400000000  0.406984115
     0.100000000  0.500000000  0.406984115
     0.000000000  0.500000000  0.502574971
     0.100000000  0.400000000  0.502574971
     0.000000000  0.600000000  0.406984115
     0.100000000  0.700000000  0.406984115
     0.000000000  0.700000000  0.502574971
     0.100000000  0.600000000  0.502574971
     0.000000000  0.800000000  0.406984115
     0.100000000  0.900000000  0.406984115
     0.000000000  0.900000000  0.502574971
     0.100000000  0.800000000  0.502574971
     0.200000000  0.000000000  0.406984115
     0.300000000  0.100000000  0.406984115
     0.200000000  0.100000000  0.502574971
     0.300000000  0.000000000  0.502574971
     0.200000000  0.200000000  0.406984115
     0.300000000  0.300000000  0.406984115
     0.200000000  0.300000000  0.502574971
     0.300000000  0.200000000  0.502574971
     0.200000000  0.400000000  0.406984115
     0.300000000  0.500000000  0.406984115
     0.200000000  0.500000000  0.502574971
     0.300000000  0.400000000  0.502574971
     0.200000000  0.600000000  0.406984115
     0.300000000  0.700000000  0.406984115
     0.200000000  0.700000000  0.502574971
     0.300000000  0.600000000  0.502574971
     0.200000000  0.800000000  0.406984115
     0.300000000  0.900000000  0.406984115
     0.200000000  0.900000000  0.502574971
     0.300000000  0.800000000  0.502574971
     0.400000000  0.000000000  0.406984115
     0.500000000  0.100000000  0.406984115
[...]
     52     -44.7362      2.00000
     53     -44.7347      2.00000
     54     -44.7342      2.00000
     55     -44.7308      2.00000
     56     -44.7266      2.00000
     57     -44.7207      2.00000
     58     -44.7172      2.00000
     59     -44.7165      2.00000
     60     -44.7145      2.00000
[...]
    882      15.1090      0.00000
    883      15.6187      0.00000
    884      15.8117      0.00000
    885      16.0884      0.00000
    886      16.4197      0.00000
    887      16.4761      0.00000
    888      19.4840      0.00000
    889      20.2113      0.00000
    890      20.7218      0.00000
    891      21.0935      0.00000
    892      21.8774      0.00000
    893      24.1801      0.00000
    894      26.4207      0.00000
    895      28.0012      0.00000
    896      40.9476      0.00000

 soft charge-density along one line, spin component           1
         0         1         2         3         4         5         6         7         8         9
 total charge-density along one line

------------------------ aborting loop because EDIFF is reached ----------------------------------------

  FORCE on cell =-STRESS in cart. coord.  units (eV):
  Direction    XX          YY          ZZ          XY          YZ          ZX
  Alpha Z  1394.80054  1394.80054  1394.80054
  Ewald  481518.80809483945.56047************     3.30592   512.32742     8.74192
  Hartree511736.68229513752.78129************     2.82522   416.92581     6.66766
  E(xc)   -8910.84041 -8909.48087 -8907.05372     0.02709     0.42089    -0.02233
  Local  ************************************    -6.10666  -925.98237   -15.33124
  n-local -8694.41930 -8693.21642 -8832.17748    -0.02756     0.02780    -0.04078
  augment  4363.36126  4355.67194  4323.86431    -0.03956    -2.08759    -0.03637
  Kinetic 23209.08820 23201.12197 23400.56624     0.00708    -1.78754    -0.00878
  Fock        0.00000     0.00000     0.00000     0.00000     0.00000     0.00000
  Total    -237.46829  -237.92390    -8.07983    -0.00848    -0.15557    -0.02992
  in kB     -38.50245   -38.57632    -1.31004    -0.00138    -0.02522    -0.00485

 VOLUME and BASIS-vectors are now :
  energy-cutoff  :      520.00
  volume of cell :     9881.61
      direct lattice vectors                 reciprocal lattice vectors
    21.138852197  0.000000000  0.000000000     0.047306258  0.000000000  0.000000000
     0.000000000 21.138852197  0.000000000     0.000000000  0.047306258  0.000000000
     0.000000000  0.000000000 22.113885220     0.000000000  0.000000000  0.045220457

  length of vectors
    21.138852197 21.138852197 22.113885220     0.047306258  0.047306258  0.045220457

 FORCES acting on ions:
    Electron-Ion                     Ewald-Force                    Non-Local-Force
   0.128E+01 0.462E+03 -.201E+04   -.141E+01 -.456E+03 0.201E+04   0.930E-01 -.493E+01 -.804E+01
   -.173E+01 0.260E+03 -.217E+04   0.169E+01 -.262E+03 0.216E+04   -.295E+00 0.266E+01 0.506E+01
   -.277E+01 -.420E+03 -.212E+04   0.270E+01 0.413E+03 0.211E+04   -.275E+00 0.505E+01 0.919E+01
   0.285E+01 -.305E+03 -.175E+04   -.282E+01 0.306E+03 0.176E+04   -.403E-03 -.466E+00 -.542E+01
   0.745E+01 -.229E+01 0.937E+03   -.746E+01 0.229E+01 -.928E+03   0.220E-01 -.163E-02 -.764E+01
   0.138E+02 0.746E+01 0.941E+03   -.138E+02 -.748E+01 -.932E+03   0.400E-01 0.236E-01 -.703E+01
   0.981E+01 0.629E+01 -.920E+03   -.984E+01 -.629E+01 0.911E+03   0.193E-01 0.733E-02 0.901E+01
   0.159E+02 -.428E+01 -.918E+03   -.160E+02 0.429E+01 0.909E+03   0.467E-01 -.526E-02 0.858E+01
   0.105E+02 0.109E+02 0.940E+03   -.105E+02 -.110E+02 -.931E+03   0.283E-01 0.146E-01 -.777E+01
   0.280E+02 0.202E+02 0.952E+03   -.282E+02 -.203E+02 -.943E+03   0.161E+00 0.622E-01 -.769E+01
   0.197E+02 0.167E+02 -.915E+03   -.198E+02 -.167E+02 0.906E+03   0.423E-01 0.236E-01 0.921E+01
   0.257E+02 0.221E+02 -.914E+03   -.257E+02 -.221E+02 0.905E+03   0.824E-01 0.569E-01 0.900E+01
   0.188E+02 0.100E+02 0.947E+03   -.189E+02 -.100E+02 -.938E+03   0.797E-01 0.459E-01 -.763E+01
   0.435E+02 0.414E+01 0.965E+03   -.438E+02 -.416E+01 -.956E+03   0.244E+00 0.791E-02 -.717E+01
   0.305E+02 0.365E+01 -.910E+03   -.306E+02 -.366E+01 0.901E+03   0.564E-01 0.216E-02 0.871E+01
   0.589E+02 0.236E+02 -.899E+03   -.590E+02 -.237E+02 0.890E+03   0.135E+00 0.349E-01 0.885E+01
   0.204E+02 -.594E+01 0.949E+03   -.205E+02 0.593E+01 -.940E+03   0.766E-01 -.180E-01 -.730E+01
   0.332E+02 -.189E+02 0.957E+03   -.334E+02 0.189E+02 -.948E+03   0.193E+00 -.451E-01 -.718E+01
   0.238E+02 -.153E+02 -.912E+03   -.239E+02 0.153E+02 0.904E+03   0.575E-01 -.324E-01 0.879E+01
   0.666E+02 -.144E+02 -.894E+03   -.667E+02 0.144E+02 0.885E+03   0.175E+00 -.113E-01 0.859E+01
   0.125E+02 -.127E+02 0.942E+03   -.126E+02 0.128E+02 -.933E+03   0.702E-01 -.402E-01 -.748E+01
   0.159E+02 -.129E+02 0.943E+03   -.160E+02 0.130E+02 -.934E+03   0.608E-01 -.616E-01 -.766E+01
   0.116E+02 -.114E+02 -.918E+03   -.116E+02 0.114E+02 0.910E+03   0.380E-01 -.198E-01 0.886E+01
   0.332E+02 -.270E+02 -.909E+03   -.333E+02 0.271E+02 0.900E+03   0.990E-01 -.556E-01 0.879E+01
   0.137E+02 -.439E+01 0.944E+03   -.138E+02 0.441E+01 -.935E+03   0.570E-01 -.265E-01 -.760E+01
   0.102E+02 0.154E+02 0.949E+03   -.102E+02 -.155E+02 -.940E+03   0.600E-01 0.106E+00 -.733E+01
   0.197E+02 0.157E+02 -.914E+03   -.198E+02 -.157E+02 0.905E+03   0.692E-01 0.408E-01 0.864E+01
   0.118E+02 -.866E+01 -.911E+03   -.118E+02 0.867E+01 0.902E+03   0.310E-01 -.612E-02 0.877E+01
   0.226E+02 0.256E+02 0.953E+03   -.228E+02 -.257E+02 -.944E+03   0.136E+00 0.129E+00 -.686E+01
   0.307E+02 0.525E+02 0.993E+03   -.312E+02 -.530E+02 -.984E+03   0.332E+00 0.422E+00 -.734E+01
   0.623E+02 0.558E+02 -.889E+03   -.627E+02 -.559E+02 0.880E+03   0.315E+00 0.776E-01 0.881E+01
   0.267E+02 0.609E+02 -.896E+03   -.268E+02 -.612E+02 0.887E+03   0.108E+00 0.284E+00 0.904E+01
   0.538E+02 0.278E+02 0.988E+03   -.543E+02 -.279E+02 -.979E+03   0.490E+00 0.124E+00 -.724E+01
   0.603E+02 0.108E+02 0.106E+04   -.612E+02 -.108E+02 -.105E+04   0.626E+00 0.648E-01 -.750E+01
   0.129E+03 0.134E+02 -.845E+03   -.129E+03 -.135E+02 0.837E+03   0.498E+00 0.478E-01 0.863E+01
   0.157E+03 0.107E+03 -.749E+03   -.160E+03 -.107E+03 0.741E+03   0.200E+01 0.150E+00 0.799E+01
   0.599E+02 -.181E+02 0.996E+03   -.605E+02 0.181E+02 -.987E+03   0.571E+00 -.833E-01 -.729E+01
   0.384E+02 -.527E+02 0.101E+04   -.389E+02 0.532E+02 -.100E+04   0.386E+00 -.451E+00 -.727E+01
   0.817E+02 -.569E+02 -.872E+03   -.822E+02 0.570E+02 0.863E+03   0.384E+00 -.857E-01 0.910E+01
   0.186E+03 -.720E+02 -.707E+03   -.189E+03 0.720E+02 0.698E+03   0.276E+01 -.961E-01 0.819E+01
   0.284E+02 -.309E+02 0.961E+03   -.286E+02 0.311E+02 -.952E+03   0.140E+00 -.158E+00 -.730E+01
   0.123E+02 -.263E+02 0.955E+03   -.124E+02 0.264E+02 -.946E+03   0.260E-01 -.129E+00 -.668E+01
   0.248E+02 -.284E+02 -.909E+03   -.248E+02 0.284E+02 0.900E+03   0.636E-01 -.822E-01 0.941E+01
   0.387E+02 -.815E+02 -.876E+03   -.387E+02 0.819E+02 0.867E+03   0.514E-01 -.399E+00 0.900E+01
   0.518E-01 -.620E+01 0.949E+03   -.449E-01 0.622E+01 -.940E+03   -.420E-02 -.769E-02 -.724E+01
   -.101E+02 0.154E+02 0.950E+03   0.102E+02 -.155E+02 -.941E+03   -.510E-01 0.123E+00 -.758E+01
   0.704E-01 0.261E+02 -.908E+03   -.634E-01 -.262E+02 0.899E+03   0.154E-01 0.130E+00 0.856E+01
   -.117E+02 -.868E+01 -.911E+03   0.117E+02 0.870E+01 0.902E+03   -.396E-01 0.155E-01 0.930E+01
   0.684E-01 0.422E+02 0.968E+03   -.727E-01 -.426E+02 -.959E+03   0.168E-01 0.412E+00 -.736E+01
   -.306E+02 0.526E+02 0.993E+03   0.310E+02 -.531E+02 -.985E+03   -.325E+00 0.395E+00 -.734E+01
   0.338E+00 0.158E+03 -.812E+03   -.335E+00 -.161E+03 0.803E+03   0.153E-01 0.207E+01 0.851E+01
   -.265E+02 0.611E+02 -.895E+03   0.266E+02 -.613E+02 0.887E+03   -.102E+00 0.276E+00 0.918E+01
   0.245E+00 0.550E+02 0.107E+04   -.235E+00 -.555E+02 -.106E+04   -.114E-01 0.472E+00 -.567E+01
   -.601E+02 0.108E+02 0.106E+04   0.609E+02 -.109E+02 -.105E+04   -.633E+00 0.784E-01 -.722E+01
   0.127E+01 0.261E+02 -.514E+03   -.127E+01 -.271E+02 0.509E+03   -.423E-01 0.854E+00 0.464E+01
   -.157E+03 0.108E+03 -.748E+03   0.160E+03 -.108E+03 0.740E+03   -.201E+01 0.903E-01 0.803E+01
   0.295E+00 -.377E+02 0.109E+04   -.293E+00 0.380E+02 -.108E+04   0.383E-02 -.316E+00 -.482E+01
   -.382E+02 -.528E+02 0.101E+04   0.387E+02 0.534E+02 -.100E+04   -.391E+00 -.453E+00 -.763E+01
   0.620E+00 -.187E+03 -.742E+03   -.616E+00 0.190E+03 0.734E+03   -.888E-03 -.277E+01 0.799E+01
   -.186E+03 -.724E+02 -.705E+03   0.189E+03 0.724E+02 0.696E+03   -.277E+01 -.843E-01 0.800E+01
[...]
   -.110E+02 0.981E+01 0.709E+03   0.110E+02 -.982E+01 -.712E+03   -.435E-01 0.148E-01 0.338E+01
   -.297E-01 0.694E+01 0.705E+03   0.344E-01 -.694E+01 -.709E+03   0.231E-02 0.557E-02 0.328E+01
   -.200E+02 0.992E+01 -.685E+03   0.201E+02 -.992E+01 0.689E+03   -.326E-01 0.750E-02 -.309E+01
   -.107E+00 0.215E+01 -.687E+03   0.100E+00 -.216E+01 0.690E+03   -.132E-02 0.594E-02 -.312E+01
   -.160E+02 0.200E+01 0.713E+03   0.161E+02 -.201E+01 -.717E+03   -.531E-01 0.326E-03 0.327E+01
   -.606E-01 0.619E+01 0.709E+03   0.606E-01 -.621E+01 -.712E+03   -.216E-02 0.810E-02 0.327E+01
   -.223E+02 -.575E+01 -.684E+03   0.223E+02 0.576E+01 0.687E+03   -.313E-01 -.734E-02 -.300E+01
   -.777E-01 -.901E+01 -.688E+03   0.850E-01 0.906E+01 0.691E+03   0.827E-02 -.645E-02 -.304E+01
   -.128E+02 -.888E+01 0.711E+03   0.129E+02 0.891E+01 -.714E+03   -.502E-01 -.114E-01 0.326E+01
   -.643E-01 -.360E+01 0.710E+03   0.695E-01 0.360E+01 -.713E+03   0.964E-02 -.338E-02 0.323E+01
   -.128E+02 -.122E+02 -.688E+03   0.128E+02 0.123E+02 0.692E+03   -.346E-01 -.210E-01 -.305E+01
   -.637E-01 -.706E+01 -.691E+03   0.441E-01 0.708E+01 0.695E+03   0.103E-01 -.102E-01 -.309E+01
   -.684E+01 -.673E+01 0.706E+03   0.687E+01 0.676E+01 -.709E+03   -.253E-01 -.161E-01 0.333E+01
   -.493E-01 -.802E+01 0.706E+03   0.459E-01 0.805E+01 -.710E+03   -.273E-03 -.241E-01 0.349E+01
   -.969E-01 -.301E+01 -.485E+02   0.164E-11 -.104E-11 -.762E-11   -.490E+00 0.260E+01 0.992E+02

 POSITION                                       TOTAL-FORCE (eV/Angst)
      8.46039      8.90641     13.11119        -0.031371     -0.058849     -0.603119
      8.46878     10.69052     14.51992        -0.272102      0.184121      0.128723
      8.47353     12.97033     15.28534        -0.288383     -1.005714     -1.220795
      8.46080     12.56080     13.05418         0.027304      0.191708     -0.166927
      0.00000      0.00000      9.00000         0.010105      0.007282      0.819068
      2.11389      2.11389      9.00000        -0.014141      0.011098      1.471565
      0.00000      2.11389     11.11389         0.007984      0.025738     -1.092151
      2.11389      0.00000     11.11389         0.014435      0.000870     -0.554583
      0.00000      4.22777      9.00000        -0.019705     -0.003893      0.657412
      2.11389      6.34166      9.00000         0.000342      0.016568      0.758237
      0.00000      6.34166     11.11389        -0.012264      0.051767     -0.630200
      2.11389      4.22777     11.11389        -0.005897      0.028757     -1.143280
      0.00000      8.45554      9.00000        -0.005081      0.018638      0.922723
      2.11389     10.56943      9.00000        -0.035015     -0.022412      1.343367
      0.00000     10.56943     11.11389         0.013659     -0.010193     -1.109378
      2.11389      8.45554     11.11389         0.019464      0.009107     -1.038386
      0.00000     12.68331      9.00000        -0.012948     -0.021760      1.182281
      2.11389     14.79720      9.00000        -0.023025      0.018659      1.235755
      0.00000     14.79720     11.11389         0.007312     -0.010893     -1.294221
      2.11389     12.68331     11.11389         0.023574      0.004956     -0.603933
      0.00000     16.91108      9.00000         0.025274      0.006935      0.988147
      2.11389     19.02497      9.00000        -0.010625     -0.017864      0.724742
      0.00000     19.02497     11.11389         0.012841      0.000591     -1.038943
      2.11389     16.91108     11.11389        -0.005426     -0.007783     -0.938855
      4.22777      0.00000      9.00000        -0.015169     -0.004888      0.822873
      6.34166      2.11389      9.00000         0.012358      0.015840      1.335199
      4.22777      2.11389     11.11389         0.001162     -0.001186     -1.130055
      6.34166      0.00000     11.11389        -0.002326     -0.002104     -0.627609
      4.22777      4.22777      9.00000        -0.027854      0.025697      1.430455
      6.34166      6.34166      9.00000        -0.089925     -0.075906      0.774174
      4.22777      6.34166     11.11389        -0.000187      0.032054     -0.642934
      6.34166      4.22777     11.11389        -0.002245      0.019881     -1.812314
      4.22777      8.45554      9.00000        -0.025929      0.004356      1.297989
      6.34166     10.56943      9.00000        -0.211797     -0.008523      0.993377
      4.22777     10.56943     11.11389         0.047960      0.017191     -0.191765
      6.34166      8.45554     11.11389        -0.570218      0.070560     -0.223511
      4.22777     12.68331      9.00000        -0.088064     -0.005249      1.228120
      6.34166     14.79720      9.00000        -0.124996      0.086944      1.202262
      4.22777     14.79720     11.11389        -0.053635     -0.005287     -1.194725
      6.34166     12.68331     11.11389        -0.869204     -0.083530     -0.400603
      4.22777     16.91108      9.00000        -0.056799      0.014961      0.921908
      6.34166     19.02497      9.00000        -0.004259      0.010349      1.730287
      4.22777     19.02497     11.11389        -0.015334     -0.029942     -0.791482
      6.34166     16.91108     11.11389        -0.037298      0.014850     -0.556456
      8.45554      0.00000      9.00000        -0.002223      0.016522      1.305715
     10.56943      2.11389      9.00000         0.008660      0.016930      0.976188
      8.45554      2.11389     11.11389         0.028949      0.037175     -0.518882
     10.56943      0.00000     11.11389         0.001560      0.034419     -0.876266
      8.45554      4.22777      9.00000         0.018770     -0.015479      0.721904
     10.56943      6.34166      9.00000         0.110186     -0.106763      0.617704
      8.45554      6.34166     11.11389         0.021063     -0.438205     -0.500141
     10.56943      4.22777     11.11389         0.039296      0.022838     -2.313790
      8.45554      8.45554      9.00000         0.001982     -0.046643      0.570348
     10.56943     10.56943      9.00000         0.201885     -0.016943      1.367594
      8.45554     10.56943     11.11389        -0.034944     -0.101191     -0.405408
     10.56943      8.45554     11.11389         0.599330      0.005951     -0.408802
      8.45554     12.68331      9.00000         0.008516     -0.011032      0.504902
     10.56943     14.79720      9.00000         0.137007      0.093909      0.816309
      8.45554     14.79720     11.11389         0.006809      0.732215     -0.556657
     10.56943     12.68331     11.11389         0.880258     -0.053591     -0.584655
[...]
     19.02497      6.34166     11.11389         0.006356     -0.006860      0.136906
     16.91108      6.34166      9.00000         0.018091      0.000111     -0.175576
     19.02497      4.22777      9.00000         0.009916      0.006887     -0.332073
     16.91108      8.45554     11.11389         0.034870      0.001796      0.150244
     19.02497     10.56943     11.11389        -0.004938     -0.004197      0.136365
     16.91108     10.56943      9.00000         0.017875     -0.005573     -0.336853
     19.02497      8.45554      9.00000         0.000051     -0.011486     -0.361995
     16.91108     12.68331     11.11389         0.019692      0.002402      0.246502
     19.02497     14.79720     11.11389         0.018282      0.037411      0.187582
     16.91108     14.79720      9.00000         0.007796      0.026995     -0.342878
     19.02497     12.68331      9.00000         0.017781     -0.004252     -0.406063
     16.91108     16.91108     11.11389         0.006940      0.039936      0.215934
     19.02497     19.02497     11.11389        -0.005948      0.004031      0.182997
     16.91108     19.02497      9.00000         0.007071      0.015922     -0.284934
     19.02497     16.91108      9.00000        -0.003696      0.032490     -0.230205
    total drift:                               -0.586504     -0.404629     50.755974

  FREE ENERGIE OF THE ION-ELECTRON SYSTEM (eV)
  free  energy   TOTEN  =     -1688.16663834 eV

  energy  without entropy=    -1688.15983805  energy(sigma->0) =    -1688.16323820