 vasp.6.3.0 20Jan22 (build Apr  1 2022 16:44:48) complex
 executed on        HPECrayEX_GCC date 2023.01.09  19:52:01

 INCAR:
   SYSTEM = MgO-rocksalt
   ISMEAR = 0
   SIGMA = 0.05
   EDIFF = 1E-6
   ALGO = ALL
   ISTART = 0
   IBRION = -1
   NSW = 0
   ISYM = 2
   DIPOL = 0.5 0.5 0.5
   IDIPOL = 3
   LDIPOL = .TRUE.
   GGA = ML
   LUSE_VDW = .TRUE.
   ZAB_VDW = -1.8867
   AGGAC = 0.0000
   ENCUT = 520
   PREC = Accurate
   LASPH = .TRUE.
   LREAL = Auto
   ISPIN = 1
   NELM = 200
   NELMIN = 8
   NCORE = 4
   KPAR = 2
   LWAVE = .FALSE.
   LCHARG = .FALSE.

 POTCAR:    PAW_PBE Cu 22Jun2005
 POTCAR:    PAW_PBE Mg_pv 13Apr2007
 POTCAR:    PAW_PBE O 08Apr2002
|               ----> ADVICE to this user running VASP <----                  |
|     You have switched on vdW-DFT.                                           |
|     This routine was written and supplied by Jiri Klimes. We recommend      |
|     that you carefully read and cite the following publications:            |
|       J. Klimes, D.R. Bowler, A. Michelides                                 |
|          J. Phys.: Cond Matt. 22 022201 (2010)                              |
|       J. Klimes, D.R. Bowler, A. Michelides                                 |
|          Phys. Rev. B. 83, 195131 (2011)                                    |
|     and references therein.                                                 |

   TITEL  = PAW_PBE Cu 22Jun2005
   POMASS =   63.546; ZVAL   =   11.000    mass and valenz
   ENMAX  =  295.446; ENMIN  =  221.585 eV

   TITEL  = PAW_PBE Mg_pv 13Apr2007
   POMASS =   24.305; ZVAL   =    8.000    mass and valenz
   ENMAX  =  403.929; ENMIN  =  302.947 eV

   TITEL  = PAW_PBE O 08Apr2002
   POMASS =   16.000; ZVAL   =    6.000    mass and valenz
   ENMAX  =  400.000; ENMIN  =  300.000 eV

 Optimization of the real space projectors (new method)

 maximal supplied QI-value         = 16.25
 optimisation between [QCUT,QGAM] = [ 11.54, 23.24] = [ 37.28,151.24] Ry
 Optimized for a Real-space Cutoff    1.53 Angstroem

   l    n(q)    QCUT    max X(q) W(low)/X(q) W(high)/X(q)  e(spline)
   2     10    11.539     4.610    0.96E-04    0.13E-03    0.19E-06
   2     10    11.539     8.522    0.16E-03    0.21E-03    0.28E-06
   0     11    11.539    51.609    0.45E-04    0.31E-04    0.11E-06
   0     11    11.539    27.747    0.39E-04    0.29E-04    0.10E-06
   1     10    11.539    20.408    0.70E-05    0.38E-04    0.18E-06
   1     10    11.539    13.425    0.66E-05    0.34E-04    0.17E-06
 Optimization of the real space projectors (new method)

[...]

   l    n(q)    QCUT    max X(q) W(low)/X(q) W(high)/X(q)  e(spline)
   1      8    11.527     2.974    0.44E-04    0.56E-04    0.12E-06
   1      8    11.527     4.279    0.12E-03    0.12E-03    0.26E-06
   0      9    11.527    16.381    0.46E-04    0.64E-04    0.78E-07
   0      9    11.527     5.611    0.26E-04    0.43E-04    0.55E-07
   2      8    11.527     4.652    0.22E-03    0.72E-04    0.47E-07
 Optimization of the real space projectors (new method)

 maximal supplied QI-value         = 24.76
 optimisation between [QCUT,QGAM] = [ 11.64, 23.27] = [ 37.91,151.63] Ry
 Optimized for a Real-space Cutoff    1.14 Angstroem

   l    n(q)    QCUT    max X(q) W(low)/X(q) W(high)/X(q)  e(spline)
   0      8    11.635    20.381    0.10E-03    0.33E-03    0.24E-06
   0      8    11.635    15.268    0.11E-03    0.35E-03    0.26E-06
   1      7    11.635     5.964    0.24E-03    0.31E-03    0.30E-06
   1      7    11.635     5.382    0.22E-03    0.25E-03    0.26E-06
|               ----> ADVICE to this user running VASP <----                  |
|     You enforced a specific xc type in the INCAR file but a different       |
|     type was found in the POTCAR file.                                      |
|     I HOPE YOU KNOW WHAT YOU ARE DOING!                                     |

  PAW_PBE Cu 22Jun2005                  :
  PAW_PBE Mg_pv 13Apr2007               :
  PAW_PBE O 08Apr2002                   :

 POSCAR: Cu Mg  O
  positions in direct lattice
  velocities in cartesian coordinates
 exchange correlation table for  LEXCH =       44
   RHO(1)=    0.500       N(1)  =     2000
   RHO(2)=  100.500       N(2)  =     4000

 ion  position               nearest neighbor table
   1  0.398  0.602  0.598- 157 2.11   2 2.32
   2  0.321  0.679  0.599- 138 2.22   1 2.32
   3  0.579  0.421  0.599- 173 2.22   4 2.32
   4  0.502  0.498  0.598- 154 2.11   3 2.32
   5  0.000  0.000  0.407- 107 2.11 108 2.11 123 2.11 188 2.11 105 2.11
   6  0.100  0.100  0.407- 107 2.11 108 2.11 112 2.11 127 2.11 106 2.11
   7  0.000  0.100  0.503- 105 2.11 106 2.11 109 2.11 186 2.11 107 2.11
   8  0.100  0.000  0.503- 105 2.11 106 2.11 122 2.11 125 2.11 108 2.11
   9  0.000  0.200  0.407- 111 2.11 107 2.11 112 2.11 192 2.11 109 2.11
  10  0.100  0.300  0.407- 112 2.11 111 2.11 116 2.11 131 2.11 110 2.11
  11  0.000  0.300  0.503- 109 2.11 110 2.11 113 2.11 190 2.11 111 2.11
  12  0.100  0.200  0.503- 110 2.11 109 2.11 106 2.11 129 2.11 112 2.11
  13  0.000  0.400  0.407- 111 2.11 115 2.11 116 2.11 196 2.11 113 2.11
  14  0.100  0.500  0.407- 115 2.11 116 2.11 120 2.11 135 2.11 114 2.11
  15  0.000  0.500  0.503- 113 2.11 114 2.11 117 2.11 194 2.11 115 2.11
  16  0.100  0.400  0.503- 110 2.11 113 2.11 114 2.11 133 2.11 116 2.11
  17  0.000  0.600  0.407- 115 2.11 119 2.11 120 2.11 200 2.11 117 2.11
  18  0.100  0.700  0.407- 124 2.11 120 2.11 119 2.11 139 2.11 118 2.11
  19  0.000  0.700  0.503- 121 2.11 118 2.11 117 2.11 198 2.11 119 2.11
  20  0.100  0.600  0.503- 114 2.11 117 2.11 118 2.11 137 2.11 120 2.11
  21  0.000  0.800  0.407- 119 2.11 123 2.11 124 2.11 204 2.11 121 2.11
  22  0.100  0.900  0.407- 108 2.11 123 2.11 124 2.11 143 2.11 122 2.11
  23  0.000  0.900  0.503- 105 2.11 121 2.11 122 2.11 202 2.11 123 2.11
  24  0.100  0.800  0.503- 118 2.11 121 2.11 122 2.11 141 2.11 124 2.11
  25  0.200  0.000  0.407- 128 2.11 127 2.11 108 2.11 143 2.11 125 2.11
  26  0.300  0.100  0.407- 127 2.11 128 2.11 132 2.11 147 2.11 126 2.11
  27  0.200  0.100  0.503- 126 2.11 125 2.11 106 2.11 129 2.11 127 2.11
  28  0.300  0.000  0.503- 125 2.11 126 2.11 142 2.11 145 2.11 128 2.11
  29  0.200  0.200  0.407- 131 2.11 132 2.11 112 2.11 127 2.11 129 2.11
  30  0.300  0.300  0.407- 131 2.11 132 2.11 136 2.11 151 2.11 130 2.11
  31  0.200  0.300  0.503- 129 2.11 130 2.11 110 2.11 133 2.11 131 2.11
  32  0.300  0.200  0.503- 129 2.11 130 2.11 126 2.11 149 2.11 132 2.11
  33  0.200  0.400  0.407- 136 2.11 131 2.11 135 2.11 116 2.11 133 2.11
  34  0.300  0.500  0.407- 135 2.11 136 2.11 140 2.11 155 2.11 134 2.11
  35  0.200  0.500  0.503- 134 2.11 133 2.11 114 2.11 137 2.11 135 2.11
  36  0.300  0.400  0.503- 133 2.11 130 2.11 134 2.11 153 2.11 136 2.11
  37  0.200  0.600  0.407- 140 2.11 135 2.11 139 2.11 120 2.11 137 2.11
  38  0.300  0.700  0.407- 139 2.11 144 2.11 140 2.11 159 2.11 138 2.11
  39  0.200  0.700  0.503- 138 2.11 141 2.11 118 2.11 137 2.11 139 2.11
  40  0.300  0.600  0.503- 137 2.11 134 2.11 138 2.11 157 2.11 140 2.11
  41  0.200  0.800  0.407- 139 2.11 144 2.11 143 2.11 124 2.11 141 2.11
  42  0.300  0.900  0.407- 143 2.11 128 2.11 144 2.11 163 2.11 142 2.11
  43  0.200  0.900  0.503- 142 2.11 125 2.11 141 2.11 122 2.11 143 2.11
  44  0.300  0.800  0.503- 138 2.11 141 2.11 142 2.11 161 2.11 144 2.11
  45  0.400  0.000  0.407- 128 2.11 147 2.11 148 2.11 163 2.11 145 2.11
  46  0.500  0.100  0.407- 147 2.11 148 2.11 152 2.11 167 2.11 146 2.11
  47  0.400  0.100  0.503- 126 2.11 145 2.11 146 2.11 149 2.11 147 2.11
  48  0.500  0.000  0.503- 145 2.11 146 2.11 162 2.11 165 2.11 148 2.11
  49  0.400  0.200  0.407- 151 2.11 147 2.11 132 2.11 152 2.11 149 2.11
  50  0.500  0.300  0.407- 152 2.11 151 2.11 156 2.11 171 2.11 150 2.11
  51  0.400  0.300  0.503- 149 2.11 130 2.11 150 2.11 153 2.11 151 2.11
  52  0.500  0.200  0.503- 150 2.11 149 2.11 146 2.11 169 2.11 152 2.11
  53  0.400  0.400  0.407- 136 2.11 151 2.11 155 2.11 156 2.11 153 2.11
  54  0.500  0.500  0.407- 155 2.11 156 2.11 160 2.11 175 2.11 154 2.11
  55  0.400  0.500  0.503- 134 2.11 153 2.11 154 2.11 157 2.11 155 2.11
  56  0.500  0.400  0.503- 150 2.11 153 2.11 154 2.11 173 2.11 156 2.11
  57  0.400  0.600  0.407- 140 2.11 155 2.11 159 2.11 160 2.11 157 2.11
  58  0.500  0.700  0.407- 164 2.11 160 2.11 159 2.11 179 2.11 158 2.11
  59  0.400  0.700  0.503- 161 2.11 157 2.11 158 2.11 138 2.11 159 2.11
  60  0.500  0.600  0.503- 154 2.11 157 2.11 158 2.11 177 2.11 160 2.11
[...]
 190  0.900  0.300  0.503-  92 2.11  91 2.11  11 2.11  96 2.11  90 2.11
 191  0.800  0.300  0.407-  70 2.11  89 2.11  90 2.11  93 2.11  91 2.11
 192  0.900  0.200  0.407-  90 2.11  86 2.11  89 2.11   9 2.11  92 2.11
 193  0.800  0.400  0.503-  76 2.11  91 2.11  95 2.11  96 2.11  93 2.11
 194  0.900  0.500  0.503-  15 2.11  95 2.11  96 2.11 100 2.11  94 2.11
 195  0.800  0.500  0.407-  74 2.11  93 2.11  94 2.11  97 2.11  95 2.11
 196  0.900  0.400  0.407-  13 2.11  90 2.11  93 2.11  94 2.11  96 2.11
 197  0.800  0.600  0.503-  80 2.11  95 2.11  99 2.11 100 2.11  97 2.11
 198  0.900  0.700  0.503- 104 2.11  99 2.11 100 2.11  19 2.11  98 2.11
 199  0.800  0.700  0.407-  78 2.11 101 2.11  98 2.11  97 2.11  99 2.11
 200  0.900  0.600  0.407-  17 2.11  94 2.11  97 2.11  98 2.11 100 2.11
 201  0.800  0.800  0.503-  84 2.11  99 2.11 103 2.11 104 2.11 101 2.11
 202  0.900  0.900  0.503-  23 2.11  88 2.11 103 2.11 104 2.11 102 2.11
 203  0.800  0.900  0.407-  82 2.11  85 2.11 101 2.11 102 2.11 103 2.11
 204  0.900  0.800  0.407-  98 2.11  21 2.11 101 2.11 102 2.11 104 2.11

  LATTYP: Found a simple tetragonal cell.
 ALAT       =    21.1388521970
 C/A-ratio  =     1.0461251639

  Lattice vectors:

 A1 = (  21.1388521970,   0.0000000000,   0.0000000000)
 A2 = (   0.0000000000,  21.1388521970,   0.0000000000)
 A3 = (   0.0000000000,   0.0000000000,  22.1138852197)

Analysis of symmetry for initial positions (statically):
 Subroutine PRICEL returns:
 Original cell was already a primitive cell.

 Routine SETGRP: Setting up the symmetry group for a
 simple tetragonal supercell.

 Subroutine GETGRP returns: Found  2 space group operations
 (whereof  1 operations were pure point group operations)
 out of a pool of 16 trial point group operations.

The static configuration has the point symmetry C_1 .
 The point group associated with its full space group is C_1h.

Analysis of symmetry for dynamics (positions and initial velocities):
 Subroutine PRICEL returns:
 Original cell was already a primitive cell.

[...]

The dynamic configuration has the point symmetry C_1 .
 The point group associated with its full space group is C_1h.

Analysis of constrained symmetry for selective dynamics:
 Subroutine PRICEL returns:
 Original cell was already a primitive cell.

 Routine SETGRP: Setting up the symmetry group for a
 simple tetragonal supercell.

 Subroutine GETGRP returns: Found  2 space group operations
 (whereof  1 operations were pure point group operations)
 out of a pool of 16 trial point group operations.

The constrained configuration has the point symmetry C_1 .
 The point group associated with its full space group is C_1h.

 Subroutine INISYM returns: Found  2 space group operations
[...]
     52     -44.1310      2.00000
     53     -44.0907      2.00000
     54     -44.0907      2.00000
     55     -44.0906      2.00000
     56     -44.0906      2.00000
     57     -44.0885      2.00000
     58     -44.0884      2.00000
     59     -44.0801      2.00000
     60     -44.0794      2.00000
[...]
    946       5.3052      0.00000
    947       5.3293      0.00000
    948       5.3598      0.00000
    949       5.3794      0.00000
    950       5.4001      0.00000
    951       5.4269      0.00000
    952       5.4368      0.00000
    953       5.4776      0.00000
    954       5.5751      0.00000
    955       5.5986      0.00000
    956       5.7158      0.00000
    957       5.7806      0.00000
    958       5.9225      0.00000
    959       6.0336      0.00000
    960       6.0992      0.00000

 soft charge-density along one line, spin component           1
         0         1         2         3         4         5         6         7         8         9
 total charge-density along one line

------------------------ aborting loop because EDIFF is reached ----------------------------------------

  FORCE on cell =-STRESS in cart. coord.  units (eV):
  Direction    XX          YY          ZZ          XY          YZ          ZX
  Alpha Z  1394.80054  1394.80054  1394.80054
  Ewald  488949.61640488949.61538************ -1381.09674     0.00920     0.00911
  Hartree518208.53714518208.53672************ -1163.66904     0.00819     0.00887
  E(xc)   -8212.24137 -8212.24137 -8219.74567    -0.67660     0.00033     0.00033
  Local  ************************************  2538.79551    -0.01653    -0.01734
  n-local -8931.80442 -8931.80440 -9039.85828     0.40385    -0.00164    -0.00174
  augment  3817.04359  3817.04362  3762.98801     2.68180     0.00048     0.00053
  Kinetic 23167.17468 23167.17472 23375.03704     3.38787    -0.00222    -0.00236
  Fock        0.00000     0.00000     0.00000     0.00000     0.00000     0.00000
  Total    -119.63404  -119.63404    44.15788    -0.17335    -0.00240    -0.00240
  in kB     -19.39713   -19.39713     7.15964    -0.02811    -0.00039    -0.00039

 VOLUME and BASIS-vectors are now :
  energy-cutoff  :      520.00
  volume of cell :     9881.61
      direct lattice vectors                 reciprocal lattice vectors
    21.138852197  0.000000000  0.000000000     0.047306258  0.000000000  0.000000000
     0.000000000 21.138852197  0.000000000     0.000000000  0.047306258  0.000000000
     0.000000000  0.000000000 22.113885220     0.000000000  0.000000000  0.045220457

  length of vectors
    21.138852197 21.138852197 22.113885220     0.047306258  0.047306258  0.045220457

 FORCES acting on ions:
    Electron-Ion                     Ewald-Force                    Non-Local-Force
   -.637E+02 0.637E+02 -.222E+04   0.602E+02 -.602E+02 0.222E+04   0.379E+01 -.380E+01 -.295E+01
   0.286E+03 -.286E+03 -.222E+04   -.281E+03 0.281E+03 0.222E+04   -.500E+01 0.500E+01 -.287E+01
   -.286E+03 0.286E+03 -.222E+04   0.281E+03 -.281E+03 0.222E+04   0.500E+01 -.500E+01 -.287E+01
   0.637E+02 -.637E+02 -.222E+04   -.602E+02 0.602E+02 0.222E+04   -.380E+01 0.379E+01 -.295E+01
   0.519E+01 -.519E+01 0.936E+03   -.521E+01 0.522E+01 -.930E+03   0.181E-01 -.181E-01 -.619E+01
   0.962E+01 0.174E+01 0.937E+03   -.963E+01 -.171E+01 -.931E+03   0.744E-02 -.203E-01 -.620E+01
   0.326E+01 0.326E+01 -.918E+03   -.325E+01 -.325E+01 0.912E+03   -.681E-02 -.681E-02 0.610E+01
   0.151E+02 -.122E+02 -.916E+03   -.151E+02 0.122E+02 0.910E+03   0.160E-01 -.511E-01 0.610E+01
   0.174E+01 0.962E+01 0.937E+03   -.171E+01 -.963E+01 -.931E+03   -.203E-01 0.744E-02 -.620E+01
   0.156E+02 0.171E+02 0.942E+03   -.156E+02 -.171E+02 -.936E+03   0.124E-01 0.243E-01 -.621E+01
   0.234E+01 0.163E+02 -.915E+03   -.230E+01 -.163E+02 0.909E+03   -.299E-01 0.471E-02 0.609E+01
   0.136E+02 0.136E+02 -.916E+03   -.136E+02 -.136E+02 0.910E+03   -.527E-02 -.527E-02 0.609E+01
   0.496E+01 0.121E+02 0.943E+03   -.495E+01 -.121E+02 -.937E+03   -.153E-01 0.166E-01 -.621E+01
   0.327E+02 0.134E+02 0.957E+03   -.329E+02 -.135E+02 -.950E+03   0.977E-01 0.605E-01 -.623E+01
   0.137E+02 0.882E+01 -.910E+03   -.137E+02 -.883E+01 0.904E+03   0.100E-02 0.116E-01 0.608E+01
   0.327E+02 0.257E+02 -.908E+03   -.328E+02 -.257E+02 0.902E+03   0.606E-02 0.225E-01 0.607E+01
   0.143E+02 -.228E+01 0.948E+03   -.144E+02 0.226E+01 -.942E+03   0.595E-01 0.121E-01 -.621E+01
   0.382E+02 -.141E+02 0.961E+03   -.386E+02 0.141E+02 -.955E+03   0.273E+00 0.753E-02 -.624E+01
   0.238E+02 -.133E+02 -.909E+03   -.239E+02 0.133E+02 0.903E+03   0.788E-01 0.652E-02 0.608E+01
   0.668E+02 0.553E+01 -.894E+03   -.669E+02 -.560E+01 0.888E+03   0.104E+00 0.547E-01 0.605E+01
   0.131E+02 -.142E+02 0.943E+03   -.132E+02 0.143E+02 -.936E+03   0.861E-01 -.180E-01 -.621E+01
   0.182E+02 -.182E+02 0.944E+03   -.183E+02 0.183E+02 -.938E+03   0.724E-01 -.724E-01 -.619E+01
   0.121E+02 -.151E+02 -.916E+03   -.122E+02 0.151E+02 0.910E+03   0.511E-01 -.160E-01 0.610E+01
   0.455E+02 -.324E+02 -.902E+03   -.458E+02 0.324E+02 0.896E+03   0.219E+00 -.205E-01 0.608E+01
   0.143E+02 -.131E+02 0.943E+03   -.143E+02 0.132E+02 -.936E+03   0.180E-01 -.860E-01 -.621E+01
   0.121E+02 0.497E+01 0.943E+03   -.121E+02 -.494E+01 -.937E+03   0.166E-01 -.153E-01 -.621E+01
   0.163E+02 0.234E+01 -.915E+03   -.163E+02 -.230E+01 0.909E+03   0.471E-02 -.299E-01 0.609E+01
   0.133E+02 -.238E+02 -.909E+03   -.133E+02 0.239E+02 0.903E+03   -.656E-02 -.786E-01 0.608E+01
   0.171E+02 0.156E+02 0.942E+03   -.171E+02 -.156E+02 -.936E+03   0.243E-01 0.124E-01 -.621E+01
   0.300E+02 0.381E+02 0.963E+03   -.302E+02 -.383E+02 -.957E+03   0.101E+00 0.100E+00 -.625E+01
   0.356E+02 0.356E+02 -.907E+03   -.357E+02 -.357E+02 0.901E+03   0.164E-01 0.164E-01 0.607E+01
   0.257E+02 0.327E+02 -.908E+03   -.257E+02 -.328E+02 0.902E+03   0.225E-01 0.606E-02 0.607E+01
   0.381E+02 0.300E+02 0.963E+03   -.383E+02 -.302E+02 -.957E+03   0.100E+00 0.101E+00 -.625E+01
   0.576E+02 0.372E+02 0.102E+04   -.581E+02 -.377E+02 -.102E+04   0.387E+00 0.380E+00 -.640E+01
   0.928E+02 0.506E+02 -.873E+03   -.929E+02 -.507E+02 0.867E+03   0.100E+00 0.109E+00 0.596E+01
   0.820E+02 0.820E+02 -.867E+03   -.821E+02 -.821E+02 0.861E+03   0.973E-01 0.973E-01 0.598E+01
   0.619E+02 0.500E+01 0.998E+03   -.624E+02 -.523E+01 -.992E+03   0.421E+00 0.171E+00 -.632E+01
   0.431E+02 -.430E+02 0.104E+04   -.433E+02 0.433E+02 -.104E+04   0.193E+00 -.194E+00 -.476E+01
   0.136E+03 -.473E+02 -.828E+03   -.138E+03 0.472E+02 0.822E+03   0.143E+01 0.112E+00 0.615E+01
   0.176E+03 0.721E+02 -.668E+03   -.178E+03 -.740E+02 0.663E+03   0.161E+01 0.136E+01 0.472E+01
   0.373E+02 -.373E+02 0.974E+03   -.375E+02 0.375E+02 -.967E+03   0.197E+00 -.197E+00 -.613E+01
   0.141E+02 -.382E+02 0.961E+03   -.141E+02 0.386E+02 -.955E+03   -.761E-02 -.272E+00 -.624E+01
   0.324E+02 -.455E+02 -.902E+03   -.324E+02 0.458E+02 0.896E+03   0.204E-01 -.219E+00 0.608E+01
   0.474E+02 -.136E+03 -.828E+03   -.473E+02 0.138E+03 0.821E+03   -.112E+00 -.143E+01 0.615E+01
   0.228E+01 -.143E+02 0.948E+03   -.227E+01 0.144E+02 -.942E+03   -.121E-01 -.593E-01 -.621E+01
   -.228E+01 0.143E+02 0.948E+03   0.226E+01 -.144E+02 -.942E+03   0.121E-01 0.595E-01 -.621E+01
   0.882E+01 0.137E+02 -.910E+03   -.883E+01 -.137E+02 0.904E+03   0.116E-01 0.100E-02 0.608E+01
   -.882E+01 -.137E+02 -.910E+03   0.883E+01 0.137E+02 0.904E+03   -.116E-01 -.778E-03 0.608E+01
   0.134E+02 0.327E+02 0.957E+03   -.135E+02 -.329E+02 -.950E+03   0.605E-01 0.977E-01 -.623E+01
   0.500E+01 0.619E+02 0.998E+03   -.523E+01 -.624E+02 -.992E+03   0.171E+00 0.421E+00 -.632E+01
   0.506E+02 0.928E+02 -.873E+03   -.507E+02 -.929E+02 0.867E+03   0.109E+00 0.100E+00 0.596E+01
   0.553E+01 0.668E+02 -.894E+03   -.560E+01 -.669E+02 0.888E+03   0.547E-01 0.104E+00 0.605E+01
   0.372E+02 0.576E+02 0.102E+04   -.377E+02 -.581E+02 -.102E+04   0.380E+00 0.387E+00 -.640E+01
   -.134E+02 0.134E+02 0.109E+04   0.134E+02 -.134E+02 -.108E+04   0.315E-01 -.319E-01 -.473E+01
   0.120E+03 0.120E+03 -.679E+03   -.122E+03 -.122E+03 0.673E+03   0.167E+01 0.167E+01 0.586E+01
   0.721E+02 0.176E+03 -.668E+03   -.740E+02 -.178E+03 0.663E+03   0.136E+01 0.161E+01 0.472E+01
   0.134E+02 -.134E+02 0.109E+04   -.134E+02 0.134E+02 -.108E+04   -.319E-01 0.315E-01 -.473E+01
   -.372E+02 -.576E+02 0.102E+04   0.377E+02 0.581E+02 -.102E+04   -.380E+00 -.387E+00 -.640E+01
   -.720E+02 -.176E+03 -.668E+03   0.740E+02 0.178E+03 0.663E+03   -.136E+01 -.161E+01 0.472E+01
   -.120E+03 -.120E+03 -.679E+03   0.122E+03 0.122E+03 0.673E+03   -.167E+01 -.167E+01 0.586E+01
[...]
   -.215E+02 0.163E+02 0.717E+03   0.216E+02 -.163E+02 -.722E+03   -.161E+00 0.782E-01 0.358E+01
   -.666E+01 0.888E+01 0.707E+03   0.669E+01 -.890E+01 -.711E+03   -.488E-01 0.327E-01 0.358E+01
   -.498E+02 0.150E+02 -.673E+03   0.499E+02 -.149E+02 0.677E+03   -.180E+00 -.470E-01 -.382E+01
   -.162E+02 0.159E+01 -.684E+03   0.162E+02 -.157E+01 0.688E+03   -.375E-01 -.201E-01 -.376E+01
   -.299E+02 -.836E+00 0.725E+03   0.300E+02 0.895E+00 -.729E+03   -.129E+00 -.750E-01 0.353E+01
   -.118E+02 0.793E+01 0.713E+03   0.118E+02 -.793E+01 -.717E+03   -.714E-01 0.849E-03 0.356E+01
   -.376E+02 -.163E+02 -.678E+03   0.377E+02 0.163E+02 0.683E+03   -.537E-01 -.561E-01 -.381E+01
   -.470E+01 -.116E+02 -.687E+03   0.468E+01 0.116E+02 0.691E+03   0.154E-01 -.913E-02 -.374E+01
   -.175E+02 -.139E+02 0.714E+03   0.175E+02 0.139E+02 -.719E+03   -.389E-01 -.460E-01 0.355E+01
   -.728E+01 -.481E+01 0.713E+03   0.728E+01 0.483E+01 -.717E+03   -.152E-01 -.193E-01 0.356E+01
   -.153E+02 -.165E+02 -.687E+03   0.153E+02 0.166E+02 0.692E+03   -.155E-02 -.120E-01 -.374E+01
   -.129E+01 -.877E+01 -.691E+03   0.127E+01 0.878E+01 0.695E+03   0.183E-01 -.554E-02 -.372E+01
   -.824E+01 -.822E+01 0.706E+03   0.823E+01 0.823E+01 -.711E+03   -.582E-02 -.582E-02 0.357E+01
   -.170E+01 -.987E+01 0.708E+03   0.168E+01 0.989E+01 -.712E+03   0.204E-01 -.166E-01 0.357E+01
   -.738E+00 0.735E+00 0.168E+02   0.165E-11 -.114E-12 0.819E-11   0.180E-02 0.180E-02 -.174E+02

 POSITION                                       TOTAL-FORCE (eV/Angst)
      8.42022     12.71964     13.21830         0.168156     -0.168226      0.563099
      6.77748     14.36235     13.25117        -0.180680      0.180103      0.474639
     12.24845      8.89138     13.25117         0.180103     -0.180680      0.474639
     10.60574     10.53411     13.21830        -0.168226      0.168156      0.563099
      0.00000      0.00000      9.00000        -0.005128      0.005115      0.095220
      2.11389      2.11389      9.00000        -0.002214      0.005399      0.096352
      0.00000      2.11389     11.11389         0.001762      0.001762     -0.060243
      2.11389      0.00000     11.11389        -0.004691      0.013567     -0.057556
      0.00000      4.22777      9.00000         0.005399     -0.002214      0.096352
      2.11389      6.34166      9.00000        -0.003522     -0.006712      0.099248
      0.00000      6.34166     11.11389         0.007913     -0.001206     -0.056365
      2.11389      4.22777     11.11389         0.001489      0.001489     -0.057634
      0.00000      8.45554      9.00000         0.003915     -0.004547      0.098889
      2.11389     10.56943      9.00000        -0.027018     -0.017038      0.104197
      0.00000     10.56943     11.11389         0.000219     -0.003050     -0.049116
      2.11389      8.45554     11.11389        -0.000709     -0.005417     -0.045124
      0.00000     12.68331      9.00000        -0.016470     -0.003706      0.100019
      2.11389     14.79720      9.00000        -0.071258     -0.002666      0.104146
      0.00000     14.79720     11.11389        -0.019475     -0.002189     -0.049777
      2.11389     12.68331     11.11389        -0.024881     -0.016476     -0.026274
      0.00000     16.91108      9.00000        -0.023059      0.005346      0.097509
      2.11389     19.02497      9.00000        -0.021185      0.021194      0.092987
      0.00000     19.02497     11.11389        -0.013584      0.004685     -0.057573
      2.11389     16.91108     11.11389        -0.057565      0.006829     -0.043311
      4.22777      0.00000      9.00000        -0.005333      0.023049      0.097494
      6.34166      2.11389      9.00000        -0.004547      0.003915      0.098889
      4.22777      2.11389     11.11389        -0.001206      0.007913     -0.056365
      6.34166      0.00000     11.11389         0.002214      0.019420     -0.049776
      4.22777      4.22777      9.00000        -0.006712     -0.003522      0.099248
      6.34166      6.34166      9.00000        -0.027963     -0.027873      0.107980
      4.22777      6.34166     11.11389        -0.003391     -0.003391     -0.044028
      6.34166      4.22777     11.11389        -0.005417     -0.000709     -0.045124
      4.22777      8.45554      9.00000        -0.027873     -0.027963      0.107980
      6.34166     10.56943      9.00000        -0.112795     -0.110889      0.123073
      4.22777     10.56943     11.11389        -0.014407     -0.019979      0.021327
      6.34166      8.45554     11.11389        -0.021336     -0.021336      0.013476
      4.22777     12.68331      9.00000        -0.120616     -0.057275      0.108202
      6.34166     14.79720      9.00000        -0.061758      0.061836     -0.255974
      4.22777     14.79720     11.11389        -0.458541     -0.037769     -0.059390
      6.34166     12.68331     11.11389        -0.598874     -0.604485      0.032897
      4.22777     16.91108      9.00000        -0.064618      0.064631      0.065525
      6.34166     19.02497      9.00000         0.002708      0.071259      0.104166
      4.22777     19.02497     11.11389        -0.006803      0.057588     -0.043295
      6.34166     16.91108     11.11389         0.037837      0.458632     -0.059426
      8.45554      0.00000      9.00000         0.003698      0.016432      0.100025
     10.56943      2.11389      9.00000        -0.003706     -0.016470      0.100019
      8.45554      2.11389     11.11389        -0.003050      0.000219     -0.049116
     10.56943      0.00000     11.11389         0.003040     -0.000284     -0.049125
      8.45554      4.22777      9.00000        -0.017038     -0.027018      0.104197
     10.56943      6.34166      9.00000        -0.057275     -0.120616      0.108202
      8.45554      6.34166     11.11389        -0.019979     -0.014407      0.021327
     10.56943      4.22777     11.11389        -0.016476     -0.024881     -0.026274
      8.45554      8.45554      9.00000        -0.110889     -0.112795      0.123073
     10.56943     10.56943      9.00000        -0.010370      0.010480     -0.278639
      8.45554     10.56943     11.11389        -0.593447     -0.593447     -0.137723
     10.56943      8.45554     11.11389        -0.604485     -0.598874      0.032897
      8.45554     12.68331      9.00000         0.010480     -0.010370     -0.278639
     10.56943     14.79720      9.00000         0.110895      0.112802      0.123170
      8.45554     14.79720     11.11389         0.605134      0.599248      0.032425
     10.56943     12.68331     11.11389         0.593831      0.593831     -0.138055
[...]
     19.02497      6.34166     11.11389        -0.018747      0.004285      0.449750
     16.91108      6.34166      9.00000        -0.047664      0.023040     -0.489898
     19.02497      4.22777      9.00000        -0.013880      0.009351     -0.492631
     16.91108      8.45554     11.11389        -0.055953     -0.012636      0.429117
     19.02497     10.56943     11.11389        -0.010992     -0.005800      0.443122
     16.91108     10.56943      9.00000        -0.040779     -0.022074     -0.506006
     19.02497      8.45554      9.00000        -0.020891      0.000382     -0.495651
     16.91108     12.68331     11.11389        -0.016734     -0.016881      0.430731
     19.02497     14.79720     11.11389         0.004330     -0.002614      0.448002
     16.91108     14.79720      9.00000        -0.011429     -0.013406     -0.499204
     19.02497     12.68331      9.00000        -0.004535     -0.005573     -0.497387
     16.91108     16.91108     11.11389        -0.000535     -0.003484      0.448626
     19.02497     19.02497     11.11389         0.005147     -0.001611      0.454860
     16.91108     19.02497      9.00000        -0.001744     -0.001744     -0.494143
     19.02497     16.91108      9.00000         0.005761     -0.004803     -0.494351
    total drift:                               -0.736536      0.736964     -0.531907

  FREE ENERGIE OF THE ION-ELECTRON SYSTEM (eV)
  free  energy   TOTEN  =      -748.01887260 eV

  energy  without entropy=     -748.01887260  energy(sigma->0) =     -748.01887260