 vasp.6.4.0 14Feb23 (build Jul 14 2023 13:46:40) complex

 executed on             LinuxIFC date 2023.08.26  01:21:52

 INCAR:
   SYSTEM = MgO-rocksalt
   ISMEAR = 0
   SIGMA = 0.05
   EDIFF = 1E-6
   ALGO = ALL
   ISTART = 0
   IBRION = -1
   NSW = 0
   ISYM = 2
   DIPOL = 0.5 0.5 0.5
   IDIPOL = 3
   LDIPOL = .TRUE.
   LHFCALC = .TRUE.
   GGA = PE
   IVDW = 11
   VDW_S6 = 1.0
   VDW_SR = 1.287
   VDW_S8 = 0.928
   ENCUT = 520
   PREC = Accurate
   LASPH = .TRUE.
   LREAL = Auto
   ISPIN = 1
   NELM = 200
   NELMIN = 8
   NCORE = 16
   KPAR = 1
   LWAVE = .FALSE.
   LCHARG = .FALSE.

 POTCAR:    PAW_PBE Ag 02Apr2005
 POTCAR:    PAW_PBE Mg_pv 13Apr2007
 POTCAR:    PAW_PBE O 08Apr2002
|           W    W    AA    RRRRR   N    N  II  N    N   GGGG   !!!           |
|           W    W   A  A   R    R  NN   N  II  NN   N  G    G  !!!           |
|           W    W  A    A  R    R  N N  N  II  N N  N  G       !!!           |
|           W WW W  AAAAAA  RRRRR   N  N N  II  N  N N  G  GGG   !            |
|           WW  WW  A    A  R   R   N   NN  II  N   NN  G    G                |
|           W    W  A    A  R    R  N    N  II  N    N   GGGG   !!!           |
|     You have selected ISYM=2 for a HF type calculation. This will           |
|     symmetrize the charge density but not the exchange potential. I         |
|     suggest to use ISYM=3 instead. This uses symmetry to obtain the         |
|     orbitals at all k-points in the Brillouin zone, but does not apply      |
|     symmetry to the Hartree potential directly. The resultant charge        |
|     might have lower symmetry than the crystal but, at least, Hartree       |
|     and exchange are fully compatible.                                      |

   TITEL  = PAW_PBE Ag 02Apr2005
   POMASS =  107.868; ZVAL   =   11.000    mass and valenz
   ENMAX  =  249.844; ENMIN  =  187.383 eV

   TITEL  = PAW_PBE Mg_pv 13Apr2007
   POMASS =   24.305; ZVAL   =    8.000    mass and valenz
   ENMAX  =  403.929; ENMIN  =  302.947 eV

   TITEL  = PAW_PBE O 08Apr2002
   POMASS =   16.000; ZVAL   =    6.000    mass and valenz
   ENMAX  =  400.000; ENMIN  =  300.000 eV

 Optimization of the real space projectors (new method)

 maximal supplied QI-value         = 15.12
 optimisation between [QCUT,QGAM] = [ 11.64, 23.28] = [ 37.95,151.78] Ry
 Optimized for a Real-space Cutoff    1.45 Angstroem

   l    n(q)    QCUT    max X(q) W(low)/X(q) W(high)/X(q)  e(spline)
   2      9    11.641    53.897    0.22E-03    0.42E-04    0.28E-06
   2      9    11.641    52.416    0.23E-03    0.44E-04    0.29E-06
   0     10    11.641   122.045    0.51E-04    0.25E-04    0.16E-06
   0     10    11.641    73.629    0.49E-04    0.24E-04    0.16E-06
   1     10    11.641    15.255    0.99E-04    0.55E-04    0.11E-06
   1     10    11.641     9.562    0.81E-04    0.47E-04    0.95E-07
 Optimization of the real space projectors (new method)

[...]

   l    n(q)    QCUT    max X(q) W(low)/X(q) W(high)/X(q)  e(spline)
   1      8    11.527     2.974    0.44E-04    0.56E-04    0.12E-06
   1      8    11.527     4.279    0.12E-03    0.12E-03    0.26E-06
   0      9    11.527    16.381    0.46E-04    0.64E-04    0.78E-07
   0      9    11.527     5.611    0.26E-04    0.43E-04    0.55E-07
   2      8    11.527     4.652    0.22E-03    0.72E-04    0.47E-07
 Optimization of the real space projectors (new method)

 maximal supplied QI-value         = 24.76
 optimisation between [QCUT,QGAM] = [ 11.64, 23.27] = [ 37.91,151.63] Ry
 Optimized for a Real-space Cutoff    1.14 Angstroem

   l    n(q)    QCUT    max X(q) W(low)/X(q) W(high)/X(q)  e(spline)
   0      8    11.635    20.381    0.10E-03    0.33E-03    0.24E-06
   0      8    11.635    15.268    0.11E-03    0.35E-03    0.26E-06
   1      7    11.635     5.964    0.24E-03    0.31E-03    0.30E-06
   1      7    11.635     5.382    0.22E-03    0.25E-03    0.26E-06
  PAW_PBE Ag 02Apr2005                  :
  PAW_PBE Mg_pv 13Apr2007               :
  PAW_PBE O 08Apr2002                   :

 POSCAR: Ag Mg  O
  positions in direct lattice
 exchange correlation table for  LEXCH =        8
   RHO(1)=    0.500       N(1)  =     2000
   RHO(2)=  100.500       N(2)  =     4000

 ion  position               nearest neighbor table
   1  0.500  0.600  0.746-   2 2.56
   2  0.500  0.600  0.630-   1 2.56  58 2.81
   3  0.000  0.000  0.407- 105 2.11 106 2.11 121 2.11 186 2.11 103 2.11
   4  0.100  0.100  0.407- 105 2.11 106 2.11 110 2.11 125 2.11 104 2.11
   5  0.000  0.100  0.503- 103 2.11 104 2.11 107 2.11 184 2.11 105 2.11
   6  0.100  0.000  0.503- 103 2.11 104 2.11 120 2.11 123 2.11 106 2.11
   7  0.000  0.200  0.407- 109 2.11 105 2.11 110 2.11 190 2.11 107 2.11
   8  0.100  0.300  0.407- 110 2.11 109 2.11 114 2.11 129 2.11 108 2.11
   9  0.000  0.300  0.503- 107 2.11 108 2.11 111 2.11 188 2.11 109 2.11
  10  0.100  0.200  0.503- 108 2.11 107 2.11 104 2.11 127 2.11 110 2.11
  11  0.000  0.400  0.407- 109 2.11 113 2.11 114 2.11 194 2.11 111 2.11
  12  0.100  0.500  0.407- 113 2.11 114 2.11 118 2.11 133 2.11 112 2.11
  13  0.000  0.500  0.503- 111 2.11 112 2.11 115 2.11 192 2.11 113 2.11
  14  0.100  0.400  0.503- 108 2.11 111 2.11 112 2.11 131 2.11 114 2.11
  15  0.000  0.600  0.407- 113 2.11 117 2.11 118 2.11 198 2.11 115 2.11
  16  0.100  0.700  0.407- 122 2.11 118 2.11 117 2.11 137 2.11 116 2.11
  17  0.000  0.700  0.503- 119 2.11 116 2.11 115 2.11 196 2.11 117 2.11
  18  0.100  0.600  0.503- 112 2.11 115 2.11 116 2.11 135 2.11 118 2.11
  19  0.000  0.800  0.407- 117 2.11 121 2.11 122 2.11 202 2.11 119 2.11
  20  0.100  0.900  0.407- 106 2.11 121 2.11 122 2.11 141 2.11 120 2.11
  21  0.000  0.900  0.503- 103 2.11 119 2.11 120 2.11 200 2.11 121 2.11
  22  0.100  0.800  0.503- 116 2.11 119 2.11 120 2.11 139 2.11 122 2.11
  23  0.200  0.000  0.407- 126 2.11 125 2.11 106 2.11 141 2.11 123 2.11
  24  0.300  0.100  0.407- 125 2.11 126 2.11 130 2.11 145 2.11 124 2.11
  25  0.200  0.100  0.503- 124 2.11 123 2.11 104 2.11 127 2.11 125 2.11
  26  0.300  0.000  0.503- 123 2.11 124 2.11 140 2.11 143 2.11 126 2.11
  27  0.200  0.200  0.407- 129 2.11 130 2.11 110 2.11 125 2.11 127 2.11
  28  0.300  0.300  0.407- 129 2.11 130 2.11 134 2.11 149 2.11 128 2.11
  29  0.200  0.300  0.503- 127 2.11 128 2.11 108 2.11 131 2.11 129 2.11
  30  0.300  0.200  0.503- 127 2.11 128 2.11 124 2.11 147 2.11 130 2.11
  31  0.200  0.400  0.407- 134 2.11 129 2.11 133 2.11 114 2.11 131 2.11
  32  0.300  0.500  0.407- 133 2.11 134 2.11 138 2.11 153 2.11 132 2.11
  33  0.200  0.500  0.503- 132 2.11 131 2.11 112 2.11 135 2.11 133 2.11
  34  0.300  0.400  0.503- 131 2.11 128 2.11 132 2.11 151 2.11 134 2.11
  35  0.200  0.600  0.407- 138 2.11 133 2.11 137 2.11 118 2.11 135 2.11
  36  0.300  0.700  0.407- 137 2.11 142 2.11 138 2.11 157 2.11 136 2.11
  37  0.200  0.700  0.503- 136 2.11 139 2.11 116 2.11 135 2.11 137 2.11
  38  0.300  0.600  0.503- 135 2.11 132 2.11 136 2.11 155 2.11 138 2.11
  39  0.200  0.800  0.407- 137 2.11 142 2.11 141 2.11 122 2.11 139 2.11
  40  0.300  0.900  0.407- 141 2.11 126 2.11 142 2.11 161 2.11 140 2.11
  41  0.200  0.900  0.503- 140 2.11 123 2.11 139 2.11 120 2.11 141 2.11
  42  0.300  0.800  0.503- 136 2.11 139 2.11 140 2.11 159 2.11 142 2.11
  43  0.400  0.000  0.407- 126 2.11 145 2.11 146 2.11 161 2.11 143 2.11
  44  0.500  0.100  0.407- 145 2.11 146 2.11 150 2.11 165 2.11 144 2.11
  45  0.400  0.100  0.503- 124 2.11 143 2.11 144 2.11 147 2.11 145 2.11
  46  0.500  0.000  0.503- 143 2.11 144 2.11 160 2.11 163 2.11 146 2.11
  47  0.400  0.200  0.407- 149 2.11 145 2.11 130 2.11 150 2.11 147 2.11
  48  0.500  0.300  0.407- 150 2.11 149 2.11 154 2.11 169 2.11 148 2.11
  49  0.400  0.300  0.503- 147 2.11 128 2.11 148 2.11 151 2.11 149 2.11
  50  0.500  0.200  0.503- 148 2.11 147 2.11 144 2.11 167 2.11 150 2.11
  51  0.400  0.400  0.407- 134 2.11 149 2.11 153 2.11 154 2.11 151 2.11
  52  0.500  0.500  0.407- 153 2.11 154 2.11 158 2.11 173 2.11 152 2.11
  53  0.400  0.500  0.503- 132 2.11 151 2.11 152 2.11 155 2.11 153 2.11
  54  0.500  0.400  0.503- 148 2.11 151 2.11 152 2.11 171 2.11 154 2.11
  55  0.400  0.600  0.407- 138 2.11 153 2.11 157 2.11 158 2.11 155 2.11
  56  0.500  0.700  0.407- 162 2.11 158 2.11 157 2.11 177 2.11 156 2.11
  57  0.400  0.700  0.503- 159 2.11 155 2.11 156 2.11 136 2.11 157 2.11
  58  0.500  0.600  0.503- 152 2.11 155 2.11 156 2.11 175 2.11 158 2.11   2 2.81
  59  0.400  0.800  0.407- 157 2.11 142 2.11 161 2.11 162 2.11 159 2.11
  60  0.500  0.900  0.407- 146 2.11 161 2.11 162 2.11 181 2.11 160 2.11
[...]
 188  0.900  0.300  0.503-  90 2.11  89 2.11   9 2.11  94 2.11  88 2.11
 189  0.800  0.300  0.407-  68 2.11  87 2.11  88 2.11  91 2.11  89 2.11
 190  0.900  0.200  0.407-  88 2.11  84 2.11  87 2.11   7 2.11  90 2.11
 191  0.800  0.400  0.503-  74 2.11  89 2.11  93 2.11  94 2.11  91 2.11
 192  0.900  0.500  0.503-  13 2.11  93 2.11  94 2.11  98 2.11  92 2.11
 193  0.800  0.500  0.407-  72 2.11  91 2.11  92 2.11  95 2.11  93 2.11
 194  0.900  0.400  0.407-  11 2.11  88 2.11  91 2.11  92 2.11  94 2.11
 195  0.800  0.600  0.503-  78 2.11  93 2.11  97 2.11  98 2.11  95 2.11
 196  0.900  0.700  0.503- 102 2.11  97 2.11  98 2.11  17 2.11  96 2.11
 197  0.800  0.700  0.407-  76 2.11  99 2.11  96 2.11  95 2.11  97 2.11
 198  0.900  0.600  0.407-  15 2.11  92 2.11  95 2.11  96 2.11  98 2.11
 199  0.800  0.800  0.503-  82 2.11  97 2.11 101 2.11 102 2.11  99 2.11
 200  0.900  0.900  0.503-  21 2.11  86 2.11 101 2.11 102 2.11 100 2.11
 201  0.800  0.900  0.407-  80 2.11  83 2.11  99 2.11 100 2.11 101 2.11
 202  0.900  0.800  0.407-  96 2.11  19 2.11  99 2.11 100 2.11 102 2.11

  LATTYP: Found a simple tetragonal cell.
 ALAT       =    21.1388521970
 C/A-ratio  =     1.0461251639

  Lattice vectors:

 A1 = (  21.1388521970,   0.0000000000,   0.0000000000)
 A2 = (   0.0000000000,  21.1388521970,   0.0000000000)
 A3 = (   0.0000000000,   0.0000000000,  22.1138852197)

Analysis of symmetry for initial positions (statically):
 Subroutine PRICEL returns:
 Original cell was already a primitive cell.

 Routine SETGRP: Setting up the symmetry group for a
 simple tetragonal supercell.

 Subroutine GETGRP returns: Found  8 space group operations
 (whereof  2 operations were pure point group operations)
 out of a pool of 16 trial point group operations.

The static configuration has the point symmetry C_1h.
 The point group associated with its full space group is C_4v.

Analysis of symmetry for dynamics (positions and initial velocities):
 Subroutine PRICEL returns:
 Original cell was already a primitive cell.

 Routine SETGRP: Setting up the symmetry group for a
 simple tetragonal supercell.

 Subroutine GETGRP returns: Found  8 space group operations
 (whereof  2 operations were pure point group operations)
 out of a pool of 16 trial point group operations.

The dynamic configuration has the point symmetry C_1h.
 The point group associated with its full space group is C_4v.

 Subroutine INISYM returns: Found  8 space group operations
 (whereof  2 operations are pure point group operations),
 and found     1 'primitive' translations

                                     Primitive cell

  volume of cell :    9881.6133

[...]
     60     -46.9664      2.00000
[...]
    850       4.9730      0.00000
    851       4.9937      0.00000
    852       4.9975      0.00000
    853       5.0418      0.00000
    854       5.0863      0.00000
    855       5.1211      0.00000
    856       5.1410      0.00000
    857       5.1537      0.00000
    858       5.1783      0.00000
    859       5.1830      0.00000
    860       5.2022      0.00000
    861       5.2928      0.00000
    862       5.3535      0.00000
    863       5.3740      0.00000
    864       5.3812      0.00000

 soft charge-density along one line, spin component           1
         0         1         2         3         4         5         6         7         8         9
 total charge-density along one line

------------------------ aborting loop because EDIFF is reached ----------------------------------------

|           W    W    AA    RRRRR   N    N  II  N    N   GGGG   !!!           |
|           W    W   A  A   R    R  NN   N  II  NN   N  G    G  !!!           |
|           W    W  A    A  R    R  N N  N  II  N N  N  G       !!!           |
|           W WW W  AAAAAA  RRRRR   N  N N  II  N  N N  G  GGG   !            |
|           WW  WW  A    A  R   R   N   NN  II  N   NN  G    G                |
|           W    W  A    A  R    R  N    N  II  N    N   GGGG   !!!           |
|     Specifying the vdW parameters                                           |
|     VDW_S8 = 0.928                                                          |
|     VDW_SR = 1.287                                                          |
|     in the INCAR file will overwrite the defaults for pbe0. Please make     |
|     sure that is what you intended.                                         |

         DFTD3 V3.0 Rev 1
 IVDW         = 11
 DF pbe0
 parameters
 VDW_S6       =    1.0000
 VDW_S8       =    0.9280
 VDW_SR       =    1.2870
 rs18     =    1.0000
 alpha6   =   14.0000
 alpha8   =   16.0000
 k1-k3    =   16.0000    1.3333   -4.0000
 VDW_RADIUS   =   50.2022 A
 VDW_CNRADIUS =   21.1671 A
 Edisp (eV)  -20.52881

 E6    (eV) :    -6.4010
 E8    (eV) :   -14.1278
 % E8        : 68.82

 VOLUME and BASIS-vectors are now :
  energy-cutoff  :      520.00
  volume of cell :     9881.61
      direct lattice vectors                 reciprocal lattice vectors
    21.138852197  0.000000000  0.000000000     0.047306258  0.000000000  0.000000000
     0.000000000 21.138852197  0.000000000     0.000000000  0.047306258  0.000000000
     0.000000000  0.000000000 22.113885220     0.000000000  0.000000000  0.045220457

  length of vectors
    21.138852197 21.138852197 22.113885220     0.047306258  0.047306258  0.045220457

 FORCES acting on ions:
    Electron-Ion                     Ewald-Force                    Non-Local-Force
   0.240E-03 0.147E-07 -.158E+04   -.699E-08 -.165E-07 0.157E+04   -.582E-21 0.278E-21 0.784E+01
   0.244E-03 0.688E-05 -.176E+04   -.266E-05 -.630E-05 0.177E+04   0.463E-22 -.813E-21 -.737E+01
   0.529E-04 -.296E+01 0.931E+03   -.928E-06 0.297E+01 -.923E+03   0.113E-20 -.217E-02 -.709E+01
   0.296E+01 -.319E-03 0.931E+03   -.297E+01 -.220E-05 -.923E+03   0.217E-02 0.426E-20 -.709E+01
   0.524E-04 -.319E-03 -.923E+03   -.101E-05 -.240E-05 0.915E+03   -.151E-20 0.132E-20 0.707E+01
   0.432E+01 -.432E+01 -.922E+03   -.432E+01 0.432E+01 0.914E+03   0.154E-02 -.154E-02 0.707E+01
   0.529E-04 0.296E+01 0.931E+03   -.928E-06 -.297E+01 -.923E+03   -.118E-20 0.217E-02 -.709E+01
   0.460E+01 0.574E+01 0.933E+03   -.460E+01 -.575E+01 -.925E+03   0.554E-02 0.532E-02 -.709E+01
   0.532E-04 0.624E+01 -.922E+03   -.166E-05 -.624E+01 0.913E+03   0.713E-21 0.182E-02 0.707E+01
   0.432E+01 0.432E+01 -.922E+03   -.432E+01 -.432E+01 0.914E+03   0.154E-02 0.154E-02 0.707E+01
   0.536E-04 0.519E+01 0.934E+03   -.171E-05 -.519E+01 -.925E+03   -.572E-21 0.389E-02 -.709E+01
   0.814E+01 0.401E+01 0.937E+03   -.817E+01 -.401E+01 -.928E+03   0.172E-01 0.401E-02 -.710E+01
   0.550E-04 0.430E+01 -.919E+03   -.312E-05 -.430E+01 0.911E+03   0.748E-23 0.118E-02 0.706E+01
   0.920E+01 0.819E+01 -.919E+03   -.921E+01 -.819E+01 0.911E+03   0.578E-02 0.270E-02 0.706E+01
   0.543E-04 -.324E-03 0.935E+03   -.233E-05 0.223E-05 -.927E+03   -.848E-21 -.178E-20 -.710E+01
   0.814E+01 -.401E+01 0.937E+03   -.817E+01 0.401E+01 -.928E+03   0.172E-01 -.401E-02 -.710E+01
   0.550E-04 -.430E+01 -.919E+03   -.312E-05 0.430E+01 0.911E+03   -.183E-21 -.118E-02 0.706E+01
   0.136E+02 -.325E-03 -.916E+03   -.136E+02 0.375E-05 0.908E+03   0.110E-01 0.970E-21 0.706E+01
   0.536E-04 -.519E+01 0.934E+03   -.171E-05 0.519E+01 -.925E+03   -.958E-21 -.389E-02 -.709E+01
   0.460E+01 -.574E+01 0.933E+03   -.460E+01 0.575E+01 -.925E+03   0.554E-02 -.532E-02 -.709E+01
   0.532E-04 -.624E+01 -.922E+03   -.166E-05 0.624E+01 0.913E+03   -.178E-20 -.182E-02 0.707E+01
   0.920E+01 -.819E+01 -.919E+03   -.921E+01 0.819E+01 0.911E+03   0.578E-02 -.270E-02 0.706E+01
   0.574E+01 -.460E+01 0.933E+03   -.575E+01 0.460E+01 -.925E+03   0.532E-02 -.554E-02 -.709E+01
   0.519E+01 -.318E-03 0.934E+03   -.519E+01 -.404E-05 -.925E+03   0.389E-02 0.399E-21 -.709E+01
   0.624E+01 -.318E-03 -.922E+03   -.624E+01 -.394E-05 0.913E+03   0.182E-02 -.484E-21 0.707E+01
   0.819E+01 -.920E+01 -.919E+03   -.819E+01 0.921E+01 0.911E+03   0.270E-02 -.578E-02 0.706E+01
   0.574E+01 0.460E+01 0.933E+03   -.575E+01 -.460E+01 -.925E+03   0.532E-02 0.554E-02 -.709E+01
   0.915E+01 0.119E+02 0.939E+03   -.917E+01 -.119E+02 -.930E+03   0.150E-01 0.228E-01 -.710E+01
   0.114E+02 0.114E+02 -.918E+03   -.114E+02 -.114E+02 0.910E+03   0.587E-02 0.587E-02 0.706E+01
   0.819E+01 0.920E+01 -.919E+03   -.819E+01 -.921E+01 0.911E+03   0.270E-02 0.578E-02 0.706E+01
   0.119E+02 0.915E+01 0.939E+03   -.119E+02 -.917E+01 -.930E+03   0.228E-01 0.150E-01 -.710E+01
   0.210E+02 0.109E+02 0.954E+03   -.211E+02 -.109E+02 -.946E+03   0.757E-01 0.411E-01 -.711E+01
   0.263E+02 0.100E+02 -.909E+03   -.263E+02 -.100E+02 0.901E+03   0.313E-01 0.444E-02 0.705E+01
   0.250E+02 0.250E+02 -.905E+03   -.250E+02 -.250E+02 0.896E+03   0.266E-01 0.266E-01 0.705E+01
   0.176E+02 -.326E-03 0.944E+03   -.177E+02 0.438E-05 -.936E+03   0.664E-01 -.198E-20 -.711E+01
   0.210E+02 -.109E+02 0.954E+03   -.211E+02 0.109E+02 -.946E+03   0.757E-01 -.411E-01 -.711E+01
   0.263E+02 -.100E+02 -.909E+03   -.263E+02 0.100E+02 0.901E+03   0.313E-01 -.444E-02 0.705E+01
   0.528E+02 -.338E-03 -.882E+03   -.531E+02 0.168E-04 0.874E+03   0.239E+00 0.131E-20 0.703E+01
   0.119E+02 -.915E+01 0.939E+03   -.119E+02 0.917E+01 -.930E+03   0.228E-01 -.150E-01 -.710E+01
   0.915E+01 -.119E+02 0.939E+03   -.917E+01 0.119E+02 -.930E+03   0.150E-01 -.228E-01 -.710E+01
   0.114E+02 -.114E+02 -.918E+03   -.114E+02 0.114E+02 0.910E+03   0.587E-02 -.587E-02 0.706E+01
   0.250E+02 -.250E+02 -.905E+03   -.250E+02 0.250E+02 0.896E+03   0.266E-01 -.266E-01 0.705E+01
   0.401E+01 -.814E+01 0.937E+03   -.401E+01 0.817E+01 -.928E+03   0.401E-02 -.172E-01 -.710E+01
   0.525E-04 -.316E-03 0.935E+03   0.943E-06 -.551E-05 -.927E+03   -.155E-20 -.247E-20 -.710E+01
   0.430E+01 -.314E-03 -.919E+03   -.430E+01 -.740E-05 0.911E+03   0.118E-02 -.118E-21 0.706E+01
   0.523E-04 -.136E+02 -.916E+03   0.158E-05 0.136E+02 0.908E+03   -.143E-20 -.110E-01 0.706E+01
   0.401E+01 0.814E+01 0.937E+03   -.401E+01 -.817E+01 -.928E+03   0.401E-02 0.172E-01 -.710E+01
   0.520E-04 0.176E+02 0.944E+03   0.185E-05 -.177E+02 -.936E+03   -.778E-21 0.664E-01 -.711E+01
   0.100E+02 0.263E+02 -.909E+03   -.100E+02 -.263E+02 0.901E+03   0.444E-02 0.313E-01 0.705E+01
   0.523E-04 0.136E+02 -.916E+03   0.158E-05 -.136E+02 0.908E+03   -.890E-21 0.110E-01 0.706E+01
   0.109E+02 0.210E+02 0.954E+03   -.109E+02 -.211E+02 -.946E+03   0.411E-01 0.757E-01 -.711E+01
   0.497E-04 0.214E+02 0.980E+03   0.565E-05 -.215E+02 -.972E+03   -.119E-20 0.515E-01 -.690E+01
   0.480E+02 0.480E+02 -.850E+03   -.483E+02 -.483E+02 0.842E+03   0.196E+00 0.196E+00 0.702E+01
   0.499E-04 0.528E+02 -.882E+03   0.710E-05 -.531E+02 0.874E+03   -.106E-20 0.239E+00 0.703E+01
   0.214E+02 -.335E-03 0.980E+03   -.215E+02 0.134E-04 -.972E+03   0.515E-01 0.109E-20 -.690E+01
   0.497E-04 -.214E+02 0.980E+03   0.565E-05 0.215E+02 -.972E+03   0.692E-21 -.515E-01 -.690E+01
   0.480E+02 -.480E+02 -.850E+03   -.483E+02 0.483E+02 0.842E+03   0.196E+00 -.196E+00 0.702E+01
   0.318E-04 -.406E-03 -.727E+03   0.355E-04 0.842E-04 0.719E+03   0.226E-20 0.145E-20 0.656E+01
   0.109E+02 -.210E+02 0.954E+03   -.109E+02 0.211E+02 -.946E+03   0.411E-01 -.757E-01 -.711E+01
   0.520E-04 -.176E+02 0.944E+03   0.185E-05 0.177E+02 -.936E+03   -.148E-20 -.664E-01 -.711E+01
[...]
   -.609E+01 0.609E+01 0.703E+03   0.610E+01 -.610E+01 -.707E+03   -.114E-01 0.114E-01 0.309E+01
   -.254E+01 0.253E+01 0.700E+03   0.254E+01 -.254E+01 -.704E+03   -.316E-02 0.316E-02 0.309E+01
   -.137E+02 0.102E+02 -.687E+03   0.137E+02 -.102E+02 0.691E+03   -.166E-01 0.132E-01 -.314E+01
   -.919E+01 0.411E+01 -.689E+03   0.920E+01 -.412E+01 0.693E+03   -.870E-02 0.314E-02 -.313E+01
   -.119E+02 0.473E+01 0.708E+03   0.119E+02 -.475E+01 -.712E+03   -.365E-01 0.175E-01 0.308E+01
   -.480E+01 0.460E+01 0.702E+03   0.481E+01 -.460E+01 -.706E+03   -.939E-02 0.747E-02 0.309E+01
   -.227E+02 -.156E-02 -.681E+03   0.227E+02 0.534E-05 0.686E+03   -.343E-01 -.243E-20 -.316E+01
   -.919E+01 -.412E+01 -.689E+03   0.920E+01 0.412E+01 0.693E+03   -.870E-02 -.314E-02 -.313E+01
   -.119E+02 -.473E+01 0.708E+03   0.119E+02 0.475E+01 -.712E+03   -.365E-01 -.175E-01 0.308E+01
   -.668E+01 -.156E-02 0.704E+03   0.669E+01 0.204E-05 -.708E+03   -.153E-01 -.219E-21 0.309E+01
   -.137E+02 -.102E+02 -.687E+03   0.137E+02 0.102E+02 0.691E+03   -.166E-01 -.132E-01 -.314E+01
   -.467E+01 -.561E+01 -.692E+03   0.467E+01 0.561E+01 0.696E+03   -.361E-02 -.380E-02 -.312E+01
   -.609E+01 -.609E+01 0.703E+03   0.610E+01 0.610E+01 -.707E+03   -.114E-01 -.114E-01 0.309E+01
   -.480E+01 -.460E+01 0.702E+03   0.481E+01 0.460E+01 -.706E+03   -.939E-02 -.747E-02 0.309E+01
   -.975E-02 -.189E+00 0.297E+01   0.462E-11 -.122E-11 -.239E-11   0.224E-15 0.859E-16 -.308E+01

 POSITION                                       TOTAL-FORCE (eV/Angst)
     10.56943     12.68331     16.48808         0.000000     -0.000000      0.063030
     10.56943     12.68331     13.92383         0.000000     -0.000000     -0.169782
      0.00000      0.00000      9.00000         0.000000      0.000686      0.550635
      2.11389      2.11389      9.00000        -0.000686     -0.000000      0.550635
      0.00000      2.11389     11.11389         0.000000     -0.000000     -0.545705
      2.11389      0.00000     11.11389        -0.000433      0.000433     -0.545149
      0.00000      4.22777      9.00000         0.000000     -0.000686      0.550635
      2.11389      6.34166      9.00000        -0.001720     -0.001686      0.551120
      0.00000      6.34166     11.11389         0.000000     -0.000540     -0.544869
      2.11389      4.22777     11.11389        -0.000433     -0.000433     -0.545149
      0.00000      8.45554      9.00000         0.000000     -0.001249      0.551402
      2.11389     10.56943      9.00000        -0.005171     -0.001322      0.552469
      0.00000     10.56943     11.11389         0.000000     -0.000365     -0.543273
      2.11389      8.45554     11.11389        -0.001446     -0.000757     -0.542916
      0.00000     12.68331      9.00000         0.000000     -0.000000      0.551990
      2.11389     14.79720      9.00000        -0.005171      0.001322      0.552469
      0.00000     14.79720     11.11389         0.000000      0.000365     -0.543273
      2.11389     12.68331     11.11389        -0.002481     -0.000000     -0.541091
      0.00000     16.91108      9.00000         0.000000      0.001249      0.551402
      2.11389     19.02497      9.00000        -0.001720      0.001686      0.551120
      0.00000     19.02497     11.11389         0.000000      0.000540     -0.544869
      2.11389     16.91108     11.11389        -0.001446      0.000757     -0.542916
      4.22777      0.00000      9.00000        -0.001686      0.001720      0.551120
      6.34166      2.11389      9.00000        -0.001249     -0.000000      0.551402
      4.22777      2.11389     11.11389        -0.000540     -0.000000     -0.544869
      6.34166      0.00000     11.11389        -0.000757      0.001446     -0.542916
      4.22777      4.22777      9.00000        -0.001686     -0.001720      0.551120
      6.34166      6.34166      9.00000        -0.004766     -0.007045      0.552825
      4.22777      6.34166     11.11389        -0.001500     -0.001500     -0.542412
      6.34166      4.22777     11.11389        -0.000757     -0.001446     -0.542916
      4.22777      8.45554      9.00000        -0.007045     -0.004766      0.552825
      6.34166     10.56943      9.00000        -0.023771     -0.014511      0.555562
      4.22777     10.56943     11.11389        -0.007021     -0.001026     -0.534782
      6.34166      8.45554     11.11389        -0.005148     -0.005148     -0.529977
      4.22777     12.68331      9.00000        -0.019210     -0.000000      0.556183
      6.34166     14.79720      9.00000        -0.023771      0.014511      0.555562
      4.22777     14.79720     11.11389        -0.007021      0.001026     -0.534782
      6.34166     12.68331     11.11389        -0.061920     -0.000000     -0.498317
      4.22777     16.91108      9.00000        -0.007045      0.004766      0.552825
      6.34166     19.02497      9.00000        -0.004766      0.007045      0.552825
      4.22777     19.02497     11.11389        -0.001500      0.001500     -0.542412
      6.34166     16.91108     11.11389        -0.005148      0.005148     -0.529977
      8.45554      0.00000      9.00000        -0.001322      0.005171      0.552469
     10.56943      2.11389      9.00000         0.000000     -0.000000      0.551990
      8.45554      2.11389     11.11389        -0.000365     -0.000000     -0.543273
     10.56943      0.00000     11.11389         0.000000      0.002481     -0.541091
      8.45554      4.22777      9.00000        -0.001322     -0.005171      0.552469
     10.56943      6.34166      9.00000         0.000000     -0.019210      0.556183
      8.45554      6.34166     11.11389        -0.001026     -0.007021     -0.534782
     10.56943      4.22777     11.11389         0.000000     -0.002481     -0.541091
      8.45554      8.45554      9.00000        -0.014511     -0.023771      0.555562
     10.56943     10.56943      9.00000         0.000000     -0.010583      0.498087
      8.45554     10.56943     11.11389        -0.034602     -0.034602     -0.456940
     10.56943      8.45554     11.11389         0.000000     -0.061920     -0.498317
      8.45554     12.68331      9.00000        -0.010583     -0.000000      0.498087
     10.56943     14.79720      9.00000         0.000000      0.010583      0.498087
      8.45554     14.79720     11.11389        -0.034602      0.034602     -0.456940
     10.56943     12.68331     11.11389         0.000000     -0.000000     -1.180955
      8.45554     16.91108      9.00000        -0.014511      0.023771      0.555562
     10.56943     19.02497      9.00000         0.000000      0.019210      0.556183
[...]
     19.02497      6.34166     11.11389        -0.001214      0.001275      0.403607
     16.91108      6.34166      9.00000        -0.003782      0.003782     -0.411578
     19.02497      4.22777      9.00000        -0.001045      0.001045     -0.410478
     16.91108      8.45554     11.11389        -0.005674      0.004471      0.398663
     19.02497     10.56943     11.11389        -0.002970      0.001065      0.400784
     16.91108     10.56943      9.00000        -0.012149      0.005789     -0.413706
     19.02497      8.45554      9.00000        -0.003113      0.002481     -0.411482
     16.91108     12.68331     11.11389        -0.011934     -0.000000      0.392439
     19.02497     14.79720     11.11389        -0.002970     -0.001065      0.400784
     16.91108     14.79720      9.00000        -0.012149     -0.005789     -0.413706
     19.02497     12.68331      9.00000        -0.005088     -0.000000     -0.412318
     16.91108     16.91108     11.11389        -0.005674     -0.004471      0.398663
     19.02497     19.02497     11.11389        -0.001214     -0.001275      0.403607
     16.91108     19.02497      9.00000        -0.003782     -0.003782     -0.411578
     19.02497     16.91108      9.00000        -0.003113     -0.002481     -0.411482
    total drift:                               -0.009750     -0.189281     -0.528782

  FREE ENERGIE OF THE ION-ELECTRON SYSTEM (eV)
  free  energy   TOTEN  =     -1442.99164732 eV

  energy  without entropy=    -1442.99164732  energy(sigma->0) =    -1442.99164732