 vasp.6.4.0 14Feb23 (build Jul 14 2023 13:46:40) complex

 executed on             LinuxIFC date 2023.08.26  07:47:09

 INCAR:
   SYSTEM = MgO-rocksalt
   ISMEAR = 0
   SIGMA = 0.05
   EDIFF = 1E-4
   ALGO = ALL
   ISTART = 0
   IBRION = -1
   NSW = 0
   ISYM = 3
   DIPOL = 0.5 0.5 0.5
   IDIPOL = 3
   LDIPOL = .TRUE.
   LHFCALC = .TRUE.
   GGA = B5
   AEXX = 0.2
   AGGAX = 0.72
   AGGAC = 0.81
   ALDAC = 0.19
   IVDW = 11
   VDW_S6 = 1.0
   VDW_SR = 1.261
   VDW_S8 = 1.703
   ENCUT = 520
   PREC = Normal
   LASPH = .TRUE.
   LREAL = Auto
   ISPIN = 1
   NELM = 200
   NELMIN = 8
   NCORE = 16
   KPAR = 1
   LWAVE = .FALSE.
   LCHARG = .FALSE.

 POTCAR:    PAW_PBE Au 04Oct2007
 POTCAR:    PAW_PBE Mg_pv 13Apr2007
 POTCAR:    PAW_PBE O 08Apr2002
 POTCAR:    PAW_PBE Au 04Oct2007
   VRHFIN =Au: s1d10

   TITEL  = PAW_PBE Au 04Oct2007
   POMASS =  196.966; ZVAL   =   11.000    mass and valenz
   ENMAX  =  229.943; ENMIN  =  172.457 eV

   TITEL  = PAW_PBE Mg_pv 13Apr2007
   POMASS =   24.305; ZVAL   =    8.000    mass and valenz
   ENMAX  =  403.929; ENMIN  =  302.947 eV

   TITEL  = PAW_PBE O 08Apr2002
   POMASS =   16.000; ZVAL   =    6.000    mass and valenz
   ENMAX  =  400.000; ENMIN  =  300.000 eV

 Optimization of the real space projectors (new method)

 maximal supplied QI-value         = 15.12
 optimisation between [QCUT,QGAM] = [ 11.64, 23.28] = [ 37.95,151.78] Ry
 Optimized for a Real-space Cutoff    1.36 Angstroem

   l    n(q)    QCUT    max X(q) W(low)/X(q) W(high)/X(q)  e(spline)
   2      9    11.641    60.898    0.44E-03    0.10E-02    0.32E-06
   2      9    11.641    58.894    0.45E-03    0.11E-02    0.32E-06
   0      9    11.641   109.617    0.19E-03    0.78E-04    0.11E-06
   0      9    11.641    75.026    0.19E-03    0.76E-04    0.10E-06
   1      9    11.641    16.344    0.43E-03    0.28E-03    0.32E-06
   1      9    11.641    10.160    0.36E-03    0.22E-03    0.26E-06
 Optimization of the real space projectors (new method)

[...]

   l    n(q)    QCUT    max X(q) W(low)/X(q) W(high)/X(q)  e(spline)
   1      8    11.527     2.974    0.16E-03    0.13E-03    0.98E-07
   1      8    11.527     4.279    0.42E-03    0.30E-03    0.22E-06
   0      8    11.527    16.381    0.13E-03    0.20E-03    0.72E-07
   0      8    11.527     5.611    0.88E-04    0.13E-03    0.50E-07
   2      7    11.527     4.652    0.25E-03    0.73E-04    0.51E-07
 Optimization of the real space projectors (new method)

 maximal supplied QI-value         = 24.76
 optimisation between [QCUT,QGAM] = [ 11.64, 23.27] = [ 37.91,151.63] Ry
 Optimized for a Real-space Cutoff    1.04 Angstroem

   l    n(q)    QCUT    max X(q) W(low)/X(q) W(high)/X(q)  e(spline)
   0      7    11.635    20.381    0.14E-03    0.49E-03    0.18E-06
   0      7    11.635    15.268    0.16E-03    0.52E-03    0.19E-06
   1      7    11.635     5.964    0.30E-03    0.44E-03    0.22E-06
   1      7    11.635     5.382    0.27E-03    0.34E-03    0.19E-06
|               ----> ADVICE to this user running VASP <----                  |
|     You enforced a specific xc type in the INCAR file but a different       |
|     type was found in the POTCAR file.                                      |
|     I HOPE YOU KNOW WHAT YOU ARE DOING!                                     |

  PAW_PBE Au 04Oct2007                  :
  PAW_PBE Mg_pv 13Apr2007               :
  PAW_PBE O 08Apr2002                   :

 POSCAR: Mg  O
  positions in direct lattice
  velocities in cartesian coordinates
 exchange correlation table for  LEXCH =       12
   RHO(1)=    0.500       N(1)  =     2000
   RHO(2)=  100.500       N(2)  =     4000

 ion  position               nearest neighbor table
   1  0.525  0.447  0.604-   9 2.67   5 2.69   6 2.74  10 2.79   2 2.83
   2  0.392  0.462  0.611-  10 2.68   6 2.70   7 2.71   3 2.74  11 2.75   1 2.83
   3  0.263  0.476  0.611-   8 2.71   4 2.74   2 2.74  12 2.74  11 2.75   7 2.76
   4  0.142  0.488  0.581- 230 2.54  12 2.68   3 2.74   8 2.75  51 2.76
   5  0.597  0.552  0.599-   1 2.69  13 2.70   6 2.73  14 2.76
   6  0.469  0.564  0.610-   7 2.70   2 2.70   5 2.73   1 2.74  14 2.75  15 2.77
   7  0.342  0.580  0.615-  16 2.70   6 2.70   2 2.71   8 2.75   3 2.76  15 2.77
   8  0.223  0.590  0.580- 253 2.44   3 2.71  16 2.73   7 2.75   4 2.75  56 2.95
   9  0.567  0.328  0.608-  17 2.66   1 2.67  10 2.67  18 2.84
  10  0.441  0.345  0.606-   9 2.67  11 2.67   2 2.68  18 2.72   1 2.79  19 2.83
  11  0.316  0.357  0.606-  10 2.67  19 2.71  12 2.72   2 2.75   3 2.75  20 2.78
  12  0.189  0.372  0.596-  20 2.66   4 2.68  11 2.72   3 2.74
  13  0.664  0.657  0.580- 294 2.61  14 2.66   5 2.70  96 2.83  95 2.91
  14  0.542  0.671  0.600-  15 2.63  13 2.66   6 2.75   5 2.76
  15  0.420  0.685  0.613-  14 2.63  16 2.66   7 2.77   6 2.77
  16  0.306  0.688  0.576- 254 2.29  15 2.66   7 2.70   8 2.73  56 2.97  75 3.04
  17  0.590  0.216  0.572- 285 2.19  18 2.62   9 2.66  87 2.86  68 2.93
  18  0.483  0.224  0.615-  17 2.62  19 2.63  10 2.72   9 2.84
  19  0.361  0.238  0.599-  18 2.63  20 2.71  11 2.71  10 2.83
  20  0.235  0.255  0.591-  12 2.66  19 2.71  11 2.78  47 2.95
  21  0.000  0.000  0.430- 223 2.11 224 2.11 304 2.11 239 2.12 321 2.12 221 2.13
  22  0.100  0.100  0.430- 243 2.11 228 2.11 223 2.11 224 2.12 322 2.12 222 2.13
  23  1.000  0.100  0.500- 223 2.11 222 2.11 302 2.11 225 2.11 221 2.11
  24  0.100  0.000  0.500- 224 2.11 222 2.11 221 2.11 238 2.11 241 2.11
  25  0.000  0.200  0.430- 228 2.11 308 2.11 223 2.11 227 2.12 325 2.12 225 2.13
  26  0.100  0.300  0.430- 247 2.10 228 2.11 227 2.12 326 2.12 232 2.13 226 2.13
  27  1.000  0.300  0.500- 306 2.11 227 2.11 226 2.11 225 2.11 229 2.12
  28  0.100  0.200  0.500- 225 2.11 228 2.11 226 2.11 222 2.11 245 2.11
  29  1.000  0.400  0.430- 232 2.11 227 2.11 312 2.11 231 2.12 329 2.12 229 2.13
  30  0.100  0.500  0.429- 232 2.10 251 2.10 231 2.11 330 2.11 236 2.12 230 2.19
  31  0.998  0.500  0.500- 310 2.08 231 2.11 229 2.11 230 2.12 233 2.12
  32  0.100  0.398  0.500- 226 2.09 229 2.11 232 2.11 249 2.12 230 2.16
  33  1.000  0.600  0.430- 316 2.11 231 2.11 235 2.11 333 2.12 236 2.12 233 2.14
  34  0.099  0.700  0.430- 235 2.10 240 2.11 334 2.12 255 2.12 236 2.12 234 2.14
  35  0.999  0.701  0.500- 314 2.10 235 2.11 237 2.11 234 2.11 233 2.12
  36  0.098  0.601  0.500- 233 2.08 234 2.10 236 2.10 253 2.12 230 2.13
  37  1.000  0.800  0.430- 239 2.11 320 2.11 240 2.12 337 2.12 235 2.12 237 2.13
  38  0.100  0.900  0.430- 224 2.11 239 2.11 259 2.11 338 2.12 240 2.12 238 2.13
  39  1.000  0.900  0.500- 239 2.10 221 2.11 318 2.11 238 2.11 237 2.12
  40  0.099  0.801  0.500- 238 2.10 237 2.10 240 2.11 257 2.12 234 2.12
  41  0.200  0.000  0.430- 243 2.11 244 2.11 224 2.11 259 2.12 341 2.12 241 2.13
  42  0.300  0.100  0.430- 248 2.10 243 2.12 263 2.12 244 2.12 342 2.12 242 2.13
  43  0.200  0.100  0.500- 241 2.11 245 2.11 243 2.11 242 2.11 222 2.12
  44  0.300  0.000  0.500- 242 2.10 258 2.10 244 2.11 261 2.12 241 2.12
  45  0.200  0.200  0.430- 248 2.10 247 2.10 243 2.12 228 2.12 345 2.12 245 2.15
  46  0.300  0.300  0.430- 246 2.08 267 2.11 252 2.12 248 2.12 346 2.12 247 2.13
  47  0.200  0.300  0.501- 249 2.11 246 2.12 245 2.13 226 2.13 247 2.14  20 2.95
  48  0.300  0.200  0.501- 265 2.10 246 2.12 242 2.12 245 2.13 248 2.14
  49  0.200  0.399  0.429- 249 2.08 252 2.11 247 2.11 349 2.11 232 2.13 251 2.14
  50  0.301  0.499  0.430- 271 2.10 252 2.10 250 2.10 350 2.11 256 2.14 251 2.14
  51  0.202  0.498  0.500- 250 2.07 249 2.08 251 2.09 253 2.19 230 2.20   4 2.76
  52  0.301  0.399  0.501- 246 2.10 269 2.10 250 2.12 249 2.14 252 2.14
  53  0.200  0.600  0.429- 256 2.10 251 2.10 353 2.10 255 2.11 236 2.11 253 2.16
  54  0.300  0.700  0.429- 354 2.10 275 2.10 256 2.11 260 2.11 255 2.12 254 2.14
  55  0.198  0.702  0.500- 234 2.08 257 2.08 255 2.09 254 2.13 253 2.13
  56  0.302  0.598  0.500- 273 2.06 250 2.07 256 2.10 253 2.20 254 2.22   8 2.95  16 2.97
  57  0.200  0.801  0.430- 259 2.10 260 2.11 240 2.11 357 2.12 255 2.13 257 2.13
  58  0.300  0.901  0.430- 244 2.10 279 2.11 358 2.11 259 2.12 260 2.12 258 2.13
  59  0.200  0.901  0.500- 241 2.10 259 2.11 238 2.11 257 2.11 258 2.12
  60  0.300  0.803  0.499- 258 2.07 260 2.10 277 2.11 254 2.12 257 2.13
[...]
 406  0.900  0.300  0.359- 208 2.11 207 2.11 127 2.11 212 2.11 206 2.11 106 2.12
 407  0.800  0.300  0.289- 186 2.11 205 2.11 206 2.11 209 2.11 207 2.11
 408  0.900  0.200  0.289- 206 2.11 202 2.11 205 2.11 125 2.11 208 2.11
 409  0.800  0.400  0.359- 192 2.11 207 2.11 211 2.11 212 2.11 209 2.11 109 2.12
 410  0.900  0.500  0.359- 131 2.11 211 2.11 212 2.11 216 2.11 210 2.11 110 2.12
 411  0.800  0.500  0.289- 190 2.11 209 2.11 210 2.11 213 2.11 211 2.11
 412  0.900  0.400  0.289- 129 2.11 206 2.11 209 2.11 210 2.11 212 2.11
 413  0.800  0.600  0.359- 196 2.11 211 2.11 215 2.11 216 2.11 213 2.11 113 2.12
 414  0.900  0.700  0.359- 220 2.11 215 2.11 216 2.11 135 2.11 214 2.11 114 2.12
 415  0.800  0.700  0.289- 194 2.11 217 2.11 214 2.11 213 2.11 215 2.11
 416  0.900  0.600  0.289- 133 2.11 210 2.11 213 2.11 214 2.11 216 2.11
 417  0.800  0.800  0.359- 200 2.11 215 2.11 219 2.11 220 2.11 217 2.11 117 2.12
 418  0.900  0.900  0.359- 139 2.11 204 2.11 219 2.11 220 2.11 218 2.11 118 2.12
 419  0.800  0.900  0.289- 198 2.11 201 2.11 217 2.11 218 2.11 219 2.11
 420  0.900  0.800  0.289- 214 2.11 137 2.11 217 2.11 218 2.11 220 2.11

  LATTYP: Found a simple tetragonal cell.
 ALAT       =    21.1388521970
 C/A-ratio  =     1.4191877459

  Lattice vectors:

 A1 = (  21.1388521970,   0.0000000000,   0.0000000000)
 A2 = (   0.0000000000,  21.1388521970,   0.0000000000)
 A3 = (   0.0000000000,   0.0000000000,  30.0000000000)

Analysis of symmetry for initial positions (statically):
 Subroutine PRICEL returns:
 Original cell was already a primitive cell.

 Routine SETGRP: Setting up the symmetry group for a
 simple tetragonal supercell.

 Subroutine GETGRP returns: Found  1 space group operations
 (whereof  1 operations were pure point group operations)
 out of a pool of 16 trial point group operations.

The static configuration has the point symmetry C_1 .

Analysis of symmetry for dynamics (positions and initial velocities):
 Subroutine PRICEL returns:
 Original cell was already a primitive cell.

[...]

The dynamic configuration has the point symmetry C_1 .

Analysis of constrained symmetry for selective dynamics:
 Subroutine PRICEL returns:
 Original cell was already a primitive cell.

 Routine SETGRP: Setting up the symmetry group for a
 simple tetragonal supercell.

 Subroutine GETGRP returns: Found  1 space group operations
 (whereof  1 operations were pure point group operations)
 out of a pool of 16 trial point group operations.

The constrained configuration has the point symmetry C_1 .

 Subroutine INISYM returns: Found  1 space group operations
 (whereof  1 operations are pure point group operations),
 and found     1 'primitive' translations

                                     Primitive cell

  volume of cell :   13405.5322

  direct lattice vectors                    reciprocal lattice vectors
    21.138852197  0.000000000  0.000000000     0.047306258  0.000000000  0.000000000
[...]
     41     -45.8310      2.00000
     42     -45.8307      2.00000
     43     -45.8298      2.00000
     44     -45.8289      2.00000
     45     -45.8268      2.00000
     46     -45.8220      2.00000
     47     -45.8194      2.00000
     48     -45.8165      2.00000
     49     -45.8143      2.00000
     50     -45.8126      2.00000
     51     -45.8106      2.00000
     52     -45.8098      2.00000
     53     -45.8085      2.00000
     54     -45.8064      2.00000
     55     -45.8057      2.00000
     56     -45.8051      2.00000
     57     -45.7988      2.00000
     58     -45.7970      2.00000
     59     -45.7966      2.00000
     60     -45.7964      2.00000
[...]
   1810       7.7705      0.00000
   1811       7.7898      0.00000
   1812       7.8044      0.00000
   1813       7.8329      0.00000
   1814       7.8980      0.00000
   1815       7.9489      0.00000
   1816       7.9531      0.00000
   1817       8.0165      0.00000
   1818       8.0307      0.00000
   1819       8.0698      0.00000
   1820       8.1077      0.00000
   1821       8.1704      0.00000
   1822       8.2022      0.00000
   1823       8.2685      0.00000
   1824       8.3164      0.00000

 soft charge-density along one line, spin component           1
         0         1         2         3         4         5         6         7         8         9
 total charge-density along one line

------------------------ aborting loop because EDIFF is reached ----------------------------------------

 WARNING: Using user supplied parameters
     VDW_S8 = 1.703
     VDW_SR = 1.261
     because the xc functional is not supported. Required parameters not
     defined in the INCAR file will be replaced with PBE defaults ones.

         DFTD3 V3.0 Rev 1
 IVDW         = 11
 DF unknown
 parameters
 VDW_S6       =    1.0000
 VDW_S8       =    1.7030
 VDW_SR       =    1.2610
 rs18     =    1.0000
 alpha6   =   14.0000
 alpha8   =   16.0000
 k1-k3    =   16.0000    1.3333   -4.0000
 VDW_RADIUS   =   50.2022 A
 VDW_CNRADIUS =   21.1671 A
 Edisp (eV) -115.73775

 E6    (eV) :   -27.0047
 E8    (eV) :   -88.7330
 % E8        : 76.67

 VOLUME and BASIS-vectors are now :
  energy-cutoff  :      520.00
  volume of cell :    13405.53
      direct lattice vectors                 reciprocal lattice vectors
    21.138852197  0.000000000  0.000000000     0.047306258  0.000000000  0.000000000
     0.000000000 21.138852197  0.000000000     0.000000000  0.047306258  0.000000000
     0.000000000  0.000000000 30.000000000     0.000000000  0.000000000  0.033333333

  length of vectors
    21.138852197 21.138852197 30.000000000     0.047306258  0.047306258  0.033333333

 FORCES acting on ions:
    Electron-Ion                     Ewald-Force                    Non-Local-Force
   -.533E+03 0.643E+02 -.361E+04   0.534E+03 -.644E+02 0.361E+04   -.655E+00 0.212E+00 0.105E-01
   -.171E+02 0.643E+01 -.365E+04   0.149E+02 -.573E+01 0.365E+04   0.210E+01 -.843E+00 0.317E+00
   0.387E+03 -.563E+02 -.377E+04   -.387E+03 0.562E+02 0.377E+04   -.497E-01 0.165E+00 0.695E+00
   0.823E+03 -.119E+03 -.371E+04   -.819E+03 0.118E+03 0.371E+04   -.514E+01 0.139E+01 -.203E+01
   -.697E+03 0.394E+02 -.367E+04   0.695E+03 -.394E+02 0.367E+04   0.211E+01 -.119E+00 0.350E+00
   -.204E+03 -.214E+03 -.366E+04   0.204E+03 0.212E+03 0.366E+04   0.607E+00 0.150E+01 0.288E+00
   0.200E+03 -.331E+03 -.378E+04   -.200E+03 0.330E+03 0.378E+04   0.565E+00 0.117E+01 0.967E+00
   0.616E+03 -.471E+03 -.366E+04   -.614E+03 0.470E+03 0.366E+04   -.262E+01 0.114E+01 -.228E+01
   -.723E+03 0.148E+03 -.369E+04   0.721E+03 -.148E+03 0.369E+04   0.275E+01 0.169E+00 0.114E+01
   -.139E+03 0.249E+03 -.362E+04   0.138E+03 -.247E+03 0.362E+04   0.110E+01 -.210E+01 0.189E-01
   0.230E+03 0.265E+03 -.368E+04   -.229E+03 -.263E+03 0.368E+04   -.102E+01 -.181E+01 0.472E+00
   0.735E+03 0.296E+03 -.369E+04   -.733E+03 -.296E+03 0.369E+04   -.283E+01 -.156E+00 -.496E+00
   -.651E+03 -.352E+03 -.374E+04   0.646E+03 0.349E+03 0.374E+04   0.547E+01 0.285E+01 -.222E+01
   -.313E+03 -.664E+03 -.366E+04   0.312E+03 0.663E+03 0.366E+04   0.911E+00 0.173E+01 -.173E+00
   -.192E+02 -.778E+03 -.371E+04   0.205E+02 0.777E+03 0.371E+04   -.127E+01 0.191E+01 0.188E+01
   0.333E+03 -.742E+03 -.364E+04   -.332E+03 0.739E+03 0.364E+04   -.109E+01 0.323E+01 -.329E+01
   -.541E+03 0.499E+03 -.368E+04   0.538E+03 -.497E+03 0.369E+04   0.260E+01 -.264E+01 -.321E+01
   -.162E+03 0.719E+03 -.374E+04   0.162E+03 -.718E+03 0.373E+04   0.398E-01 -.141E+01 0.212E+01
   0.150E+03 0.754E+03 -.362E+04   -.149E+03 -.753E+03 0.363E+04   -.120E+01 -.200E+01 -.911E+00
   0.534E+03 0.673E+03 -.368E+04   -.533E+03 -.668E+03 0.368E+04   -.172E+01 -.460E+01 -.643E+00
   0.279E+02 0.130E+02 -.703E+03   -.279E+02 -.129E+02 0.703E+03   -.219E-01 -.888E-01 -.214E+00
   0.650E+02 0.601E+02 -.666E+03   -.649E+02 -.600E+02 0.666E+03   -.103E+00 -.113E+00 -.266E+00
   0.574E+02 0.643E+02 -.234E+04   -.574E+02 -.643E+02 0.234E+04   -.394E-01 -.715E-02 0.561E+01
   0.734E+02 0.322E+02 -.234E+04   -.734E+02 -.320E+02 0.234E+04   0.361E-01 -.159E+00 0.561E+01
   0.525E+02 0.575E+02 -.666E+03   -.524E+02 -.576E+02 0.667E+03   -.392E-01 0.328E-01 -.241E+00
   0.117E+03 0.705E+02 -.572E+03   -.117E+03 -.708E+02 0.572E+03   -.303E+00 0.334E+00 -.314E+00
   0.134E+03 0.840E+02 -.228E+04   -.134E+03 -.842E+02 0.228E+04   0.352E-01 0.201E+00 0.564E+01
   0.171E+03 0.149E+03 -.225E+04   -.171E+03 -.149E+03 0.224E+04   0.111E+00 0.494E-01 0.565E+01
   0.833E+02 0.239E+02 -.617E+03   -.832E+02 -.241E+02 0.617E+03   -.599E-01 0.187E+00 -.285E+00
   0.130E+03 -.228E+02 -.532E+03   -.130E+03 0.225E+02 0.531E+03   -.157E-01 0.273E+00 0.131E+01
   0.167E+03 -.254E+02 -.224E+04   -.168E+03 0.250E+02 0.223E+04   0.831E+00 0.313E+00 0.566E+01
   0.290E+03 0.739E+02 -.207E+04   -.290E+03 -.756E+02 0.206E+04   0.232E+00 0.153E+01 0.562E+01
   0.672E+02 -.464E+02 -.629E+03   -.675E+02 0.464E+02 0.629E+03   0.304E+00 0.485E-01 -.221E+00
   0.913E+02 -.799E+02 -.609E+03   -.916E+02 0.802E+02 0.609E+03   0.250E+00 -.287E+00 -.126E+00
   0.847E+02 -.929E+02 -.231E+04   -.851E+02 0.933E+02 0.231E+04   0.339E+00 -.292E+00 0.563E+01
   0.243E+03 -.141E+03 -.214E+04   -.245E+03 0.141E+03 0.213E+04   0.118E+01 -.680E+00 0.586E+01
   0.360E+02 -.478E+02 -.685E+03   -.361E+02 0.480E+02 0.685E+03   0.822E-01 -.170E+00 -.208E+00
   0.516E+02 -.269E+02 -.684E+03   -.516E+02 0.272E+02 0.684E+03   0.348E-01 -.202E+00 -.199E+00
   0.381E+02 -.297E+02 -.236E+04   -.382E+02 0.299E+02 0.235E+04   0.753E-01 -.197E+00 0.562E+01
   0.108E+03 -.108E+03 -.231E+04   -.108E+03 0.109E+03 0.231E+04   0.334E+00 -.536E+00 0.567E+01
   0.543E+02 0.254E+02 -.663E+03   -.543E+02 -.253E+02 0.663E+03   -.137E-01 -.136E+00 -.226E+00
   0.447E+02 0.992E+02 -.598E+03   -.447E+02 -.988E+02 0.598E+03   0.925E-02 -.310E+00 -.344E+00
   0.115E+03 0.158E+03 -.226E+04   -.115E+03 -.158E+03 0.225E+04   -.118E+00 0.361E-01 0.563E+01
   0.554E+02 0.599E+02 -.229E+04   -.554E+02 -.597E+02 0.229E+04   0.909E-02 -.183E+00 0.562E+01
   0.929E+02 0.110E+03 -.562E+03   -.926E+02 -.110E+03 0.562E+03   -.267E+00 -.226E+00 0.204E+00
   0.622E+02 0.993E+02 -.422E+03   -.619E+02 -.992E+02 0.423E+03   -.272E+00 -.684E-01 -.119E+01
   0.237E+03 0.181E+03 -.195E+04   -.237E+03 -.180E+03 0.194E+04   -.355E+00 -.152E+00 0.456E+01
   0.104E+03 0.281E+03 -.202E+04   -.104E+03 -.281E+03 0.201E+04   -.475E+00 -.762E-01 0.527E+01
   0.121E+03 0.355E+02 -.427E+03   -.121E+03 -.362E+02 0.428E+03   -.380E+00 0.622E+00 -.107E+01
   0.658E+02 -.309E+02 -.369E+03   -.648E+02 0.301E+02 0.370E+03   -.841E+00 0.776E+00 -.741E+00
   0.220E+03 -.525E+02 -.181E+04   -.219E+03 0.502E+02 0.180E+04   -.175E+01 0.209E+01 0.474E+01
   0.996E+02 0.612E+02 -.180E+04   -.988E+02 -.619E+02 0.180E+04   -.800E+00 0.589E+00 0.572E+01
   0.113E+03 -.825E+02 -.471E+03   -.113E+03 0.823E+02 0.470E+03   -.184E+00 0.153E+00 0.106E+01
   0.579E+02 -.121E+03 -.481E+03   -.574E+02 0.121E+03 0.480E+03   -.427E+00 -.122E-01 0.115E+01
   0.207E+03 -.224E+03 -.209E+04   -.208E+03 0.226E+03 0.209E+04   0.127E+01 -.124E+01 0.590E+01
   0.103E+03 -.159E+03 -.179E+04   -.100E+03 0.156E+03 0.178E+04   -.246E+01 0.258E+01 0.536E+01
   0.733E+02 -.873E+02 -.614E+03   -.733E+02 0.877E+02 0.615E+03   -.203E-01 -.371E+00 -.180E+00
   0.373E+02 -.443E+02 -.633E+03   -.372E+02 0.446E+02 0.633E+03   -.859E-01 -.320E+00 -.131E+00
   0.844E+02 -.632E+02 -.231E+04   -.846E+02 0.636E+02 0.231E+04   0.188E+00 -.346E+00 0.565E+01
   0.833E+02 -.227E+03 -.217E+04   -.830E+02 0.228E+03 0.216E+04   -.295E+00 -.137E+01 0.585E+01
[...]
   -.136E+02 0.125E+02 0.193E+04   0.136E+02 -.125E+02 -.194E+04   0.128E-01 -.174E-01 0.313E+01
   -.299E+00 0.140E+02 0.192E+04   0.310E+00 -.140E+02 -.193E+04   -.133E-01 -.164E-02 0.313E+01
   -.276E+02 0.105E+02 0.735E+03   0.276E+02 -.105E+02 -.735E+03   0.678E-01 -.155E-01 -.103E+00
   0.387E+00 -.420E+01 0.729E+03   -.449E+00 0.418E+01 -.729E+03   0.836E-01 0.297E-01 -.321E-01
   -.149E+02 -.263E+01 0.194E+04   0.148E+02 0.261E+01 -.194E+04   0.479E-01 0.179E-01 0.312E+01
   0.481E+00 0.580E+01 0.193E+04   -.500E+00 -.581E+01 -.194E+04   0.244E-01 0.231E-01 0.313E+01
   -.279E+02 -.175E+02 0.734E+03   0.278E+02 0.174E+02 -.734E+03   0.657E-01 0.584E-01 -.106E+00
   -.143E+01 -.232E+02 0.714E+03   0.144E+01 0.232E+02 -.714E+03   -.167E-01 -.664E-02 -.234E-01
   -.131E+02 -.149E+02 0.193E+04   0.130E+02 0.149E+02 -.193E+04   0.301E-01 0.887E-02 0.314E+01
   -.277E+00 -.105E+02 0.193E+04   0.239E+00 0.105E+02 -.193E+04   0.477E-01 0.151E-01 0.315E+01
   -.199E+02 -.220E+02 0.709E+03   0.199E+02 0.221E+02 -.709E+03   -.126E-01 -.473E-01 -.104E+00
   -.197E+01 -.907E+01 0.696E+03   0.196E+01 0.910E+01 -.696E+03   0.152E-02 -.330E-01 -.695E-01
   -.102E+02 -.600E+01 0.192E+04   0.102E+02 0.600E+01 -.192E+04   0.621E-02 -.800E-02 0.313E+01
   -.929E+00 -.123E+02 0.192E+04   0.911E+00 0.123E+02 -.192E+04   0.216E-01 -.203E-01 0.314E+01
   0.388E+00 -.401E+00 0.863E+02   0.547E-12 -.365E-11 -.175E-09   -.147E-01 0.476E+00 -.766E+02

 POSITION                                       TOTAL-FORCE (eV/Angst)
     11.09519      9.45482     18.11852         0.263575      0.156637     -0.231266
      8.29301      9.75878     18.32361        -0.067376     -0.137154     -0.187515
      5.56783     10.06397     18.32381         0.105615      0.005009     -0.204016
      2.99555     10.31153     17.42772        -0.580483      0.209774      0.079036
     12.60980     11.66864     17.97165         0.397429     -0.080046     -0.121600
      9.91561     11.91931     18.29835        -0.022295     -0.143551     -0.249642
      7.23924     12.25095     18.45349        -0.036324     -0.066838     -0.131662
      4.70923     12.46418     17.40695        -0.417474      0.286053      0.053808
     11.97817      6.94163     18.23352         0.423362      0.272528     -0.017705
      9.33064      7.28957     18.17027         0.003930      0.071510     -0.231071
      6.66947      7.54260     18.19330         0.104973     -0.083843     -0.094473
      3.98913      7.86207     17.88644        -0.245472      0.030580     -0.083409
     14.03302     13.88852     17.41118         0.522580      0.233522      0.037834
     11.45387     14.17698     18.01115        -0.069455      0.428621     -0.065902
      8.87221     14.48562     18.39654         0.065685      0.414362      0.020412
      6.46511     14.54646     17.26643        -0.245165      0.399839      0.212844
     12.47854      4.55951     17.16313         0.244374     -0.177533      0.110124
     10.20822      4.73313     18.45875        -0.113766     -0.473456     -0.006472
      7.64038      5.02502     17.96040         0.138456     -0.463079     -0.094580
      4.97030      5.39304     17.71892        -0.408870     -0.328508      0.094809
      0.00000      0.00220     12.89027         0.001118      0.001162     -0.124038
      2.11483      2.11605     12.89462         0.008947      0.011692     -0.112748
     21.13851      2.11223     14.99108         0.005849      0.005318     -0.170402
      2.10817      0.00457     14.99047         0.005012      0.003306     -0.169954
      0.00264      4.22684     12.89303         0.010199      0.005262     -0.120026
      2.11888      6.33717     12.89579         0.021813      0.002812     -0.078457
     21.13368      6.33562     14.99490         0.045337      0.019289     -0.166952
      2.10742      4.22403     15.00238         0.110926      0.060657     -0.121552
     21.13862      8.45200     12.89505         0.019169      0.007942     -0.102689
      2.11150     10.56547     12.88112         0.023845      0.004808     -0.031987
     21.10260     10.56360     14.99839         0.160216     -0.012962     -0.110091
      2.10799      8.42340     15.00609        -0.005649     -0.123170     -0.377450
     21.13016     12.68396     12.89305         0.016938     -0.012030     -0.111850
      2.10320     14.80486     12.88845         0.018125     -0.019188     -0.113758
     21.12360     14.81000     14.99175         0.016362     -0.016288     -0.171421
      2.06964     12.70881     14.99924         0.120159     -0.075678     -0.126166
     21.13452     16.91578     12.89019         0.001681     -0.002513     -0.124261
      2.11053     19.03147     12.88983         0.001316     -0.000514     -0.125532
     21.13399     19.03231     14.98815         0.002020     -0.003727     -0.165615
      2.09717     16.93244     14.99073         0.016572     -0.018249     -0.171661
      4.22633      0.00502     12.89154         0.002364      0.007474     -0.123938
      6.34143      2.11910     12.89673        -0.000983      0.019602     -0.100144
      4.22741      2.10483     14.99816         0.022453      0.098175     -0.143085
      6.34004      0.00464     14.99183         0.002510      0.013048     -0.172933
      4.23259      4.23032     12.89227         0.009737      0.017721     -0.063066
      6.34733      6.34126     12.89259         0.001464      0.008257     -0.014657
      4.23638      6.34237     15.02882         0.048044      0.058942     -0.540114
      6.34782      4.22911     15.02489         0.044275     -0.035872     -0.504201
      4.23452      8.44123     12.88414         0.007660      0.009793     -0.007336
      6.35733     10.55724     12.88627        -0.007113      0.000118     -0.026769
      4.27194     10.53204     14.98507         0.159306     -0.249008     -0.385112
      6.35958      8.44474     15.01939        -0.076696      0.071340      0.078343
      4.22676     12.68757     12.87590         0.011002     -0.011514      0.003243
      6.34551     14.80582     12.86872        -0.003049     -0.025462      0.004184
      4.17652     14.84757     14.98511        -0.117404     -0.012917     -0.372487
      6.39100     12.64059     14.99300         0.203354     -0.267401     -0.431892
      4.22334     16.92409     12.88829         0.014408     -0.020586     -0.111544
      6.34200     19.03690     12.88646         0.002520     -0.008250     -0.126804
      4.21731     19.04067     14.98967         0.007439     -0.016023     -0.171346
      6.34164     16.97216     14.98051         0.013483      0.040208     -0.268056
[...]
     19.02497      6.34166     10.77222         0.006099      0.002733      0.030540
     16.91108      6.34166      8.65833         0.003416     -0.006083     -0.387552
     19.02497      4.22777      8.65833        -0.004635     -0.000456     -0.388106
     16.91108      8.45554     10.77222         0.023800     -0.005091      0.021864
     19.02497     10.56943     10.77222         0.032844      0.010960      0.046848
     16.91108     10.56943      8.65833         0.015430      0.006101     -0.390573
     19.02497      8.45554      8.65833         0.007816      0.007724     -0.387903
     16.91108     12.68331     10.77222         0.023352      0.021714      0.032803
     19.02497     14.79720     10.77222        -0.007198     -0.002995      0.053708
     16.91108     14.79720      8.65833         0.009224      0.002469     -0.385180
     19.02497     12.68331      8.65833         0.015147      0.004964     -0.382734
     16.91108     16.91108     10.77222        -0.005773     -0.016955      0.051667
     19.02497     19.02497     10.77222        -0.000352     -0.012330      0.025505
     16.91108     19.02497      8.65833         0.000857     -0.003081     -0.385985
     19.02497     16.91108      8.65833         0.006413     -0.007373     -0.385034
    total drift:                                0.215608      0.006053     -4.128959

  FREE ENERGIE OF THE ION-ELECTRON SYSTEM (eV)
  free  energy   TOTEN  =     -2870.34272162 eV

  energy  without entropy=    -2870.34272162  energy(sigma->0) =    -2870.34272162