 vasp.6.4.0 14Feb23 (build Jul 14 2023 13:46:40) complex

 executed on             LinuxIFC date 2023.07.30  07:39:28

 INCAR:
   SYSTEM = MgO-rocksalt
   ISMEAR = 0
   SIGMA = 0.05
   EDIFF = 1E-6
   ALGO = ALL
   ISTART = 0
   IBRION = -1
   NSW = 0
   ISYM = 2
   DIPOL = 0.5 0.5 0.5
   IDIPOL = 3
   LDIPOL = .TRUE.
   METAGGA = R2SCAN
   LUSE_VDW = .TRUE.
   BPARAM = 11.95
   CPARAM = 0.0093
   ENCUT = 520
   PREC = Accurate
   LASPH = .TRUE.
   LREAL = Auto
   ISPIN = 1
   NELM = 200
   NELMIN = 8
   NCORE = 16
   KPAR = 1
   LWAVE = .FALSE.
   LCHARG = .FALSE.

 POTCAR:    PAW_PBE Au 04Oct2007
 POTCAR:    PAW_PBE Mg_pv 13Apr2007
 POTCAR:    PAW_PBE O 08Apr2002
|               ----> ADVICE to this user running VASP <----                  |
|     You have switched on vdW-DFT.                                           |
|     This routine was written and supplied by Jiri Klimes. We recommend      |
|     that you carefully read and cite the following publications:            |
|       J. Klimes, D.R. Bowler, A. Michelides                                 |
|          J. Phys.: Cond Matt. 22 022201 (2010)                              |
|       J. Klimes, D.R. Bowler, A. Michelides                                 |
|          Phys. Rev. B. 83, 195131 (2011)                                    |
|     and references therein.                                                 |

   TITEL  = PAW_PBE Au 04Oct2007
   POMASS =  196.966; ZVAL   =   11.000    mass and valenz
   ENMAX  =  229.943; ENMIN  =  172.457 eV

   TITEL  = PAW_PBE Mg_pv 13Apr2007
   POMASS =   24.305; ZVAL   =    8.000    mass and valenz
   ENMAX  =  403.929; ENMIN  =  302.947 eV

   TITEL  = PAW_PBE O 08Apr2002
   POMASS =   16.000; ZVAL   =    6.000    mass and valenz
   ENMAX  =  400.000; ENMIN  =  300.000 eV

 Optimization of the real space projectors (new method)

 maximal supplied QI-value         = 15.12
 optimisation between [QCUT,QGAM] = [ 11.64, 23.28] = [ 37.95,151.78] Ry
 Optimized for a Real-space Cutoff    1.49 Angstroem

   l    n(q)    QCUT    max X(q) W(low)/X(q) W(high)/X(q)  e(spline)
   2      9    11.641    60.898    0.24E-03    0.10E-03    0.19E-06
   2      9    11.641    58.894    0.25E-03    0.10E-03    0.19E-06
   0     10    11.641   109.617    0.73E-04    0.33E-04    0.11E-06
   0     10    11.641    75.026    0.71E-04    0.32E-04    0.11E-06
   1     10    11.641    16.344    0.27E-04    0.97E-04    0.16E-06
   1     10    11.641    10.160    0.23E-04    0.77E-04    0.13E-06
 Optimization of the real space projectors (new method)

[...]

   l    n(q)    QCUT    max X(q) W(low)/X(q) W(high)/X(q)  e(spline)
   1      8    11.527     2.974    0.44E-04    0.56E-04    0.12E-06
   1      8    11.527     4.279    0.12E-03    0.12E-03    0.26E-06
   0      9    11.527    16.381    0.46E-04    0.64E-04    0.78E-07
   0      9    11.527     5.611    0.26E-04    0.43E-04    0.55E-07
   2      8    11.527     4.652    0.22E-03    0.72E-04    0.47E-07
 Optimization of the real space projectors (new method)

 maximal supplied QI-value         = 24.76
 optimisation between [QCUT,QGAM] = [ 11.64, 23.27] = [ 37.91,151.63] Ry
 Optimized for a Real-space Cutoff    1.14 Angstroem

   l    n(q)    QCUT    max X(q) W(low)/X(q) W(high)/X(q)  e(spline)
   0      8    11.635    20.381    0.10E-03    0.33E-03    0.24E-06
   0      8    11.635    15.268    0.11E-03    0.35E-03    0.26E-06
   1      7    11.635     5.964    0.24E-03    0.31E-03    0.30E-06
   1      7    11.635     5.382    0.22E-03    0.25E-03    0.26E-06
  PAW_PBE Au 04Oct2007                  :
  PAW_PBE Mg_pv 13Apr2007               :
  PAW_PBE O 08Apr2002                   :

 POSCAR: Au Mg  O
  positions in direct lattice

 METAGGA = R2SCAN                                      LMAXTAU =  6    LMIXTAU =  F

 ion  position               nearest neighbor table
   1  0.560  0.500  0.629-   2 2.54  73 2.92
   2  0.440  0.500  0.629-   1 2.54  53 2.92
   3  0.000  0.000  0.407- 105 2.11 106 2.11 121 2.11 186 2.11 103 2.11
   4  0.100  0.100  0.407- 105 2.11 106 2.11 110 2.11 125 2.11 104 2.11
   5  0.000  0.100  0.503- 103 2.11 104 2.11 107 2.11 184 2.11 105 2.11
   6  0.100  0.000  0.503- 103 2.11 104 2.11 120 2.11 123 2.11 106 2.11
   7  0.000  0.200  0.407- 109 2.11 105 2.11 110 2.11 190 2.11 107 2.11
   8  0.100  0.300  0.407- 110 2.11 109 2.11 114 2.11 129 2.11 108 2.11
   9  0.000  0.300  0.503- 107 2.11 108 2.11 111 2.11 188 2.11 109 2.11
  10  0.100  0.200  0.503- 108 2.11 107 2.11 104 2.11 127 2.11 110 2.11
  11  0.000  0.400  0.407- 109 2.11 113 2.11 114 2.11 194 2.11 111 2.11
  12  0.100  0.500  0.407- 113 2.11 114 2.11 118 2.11 133 2.11 112 2.11
  13  0.000  0.500  0.503- 111 2.11 112 2.11 115 2.11 192 2.11 113 2.11
  14  0.100  0.400  0.503- 108 2.11 111 2.11 112 2.11 131 2.11 114 2.11
  15  0.000  0.600  0.407- 113 2.11 117 2.11 118 2.11 198 2.11 115 2.11
  16  0.100  0.700  0.407- 122 2.11 118 2.11 117 2.11 137 2.11 116 2.11
  17  0.000  0.700  0.503- 119 2.11 116 2.11 115 2.11 196 2.11 117 2.11
  18  0.100  0.600  0.503- 112 2.11 115 2.11 116 2.11 135 2.11 118 2.11
  19  0.000  0.800  0.407- 117 2.11 121 2.11 122 2.11 202 2.11 119 2.11
  20  0.100  0.900  0.407- 106 2.11 121 2.11 122 2.11 141 2.11 120 2.11
  21  0.000  0.900  0.503- 103 2.11 119 2.11 120 2.11 200 2.11 121 2.11
  22  0.100  0.800  0.503- 116 2.11 119 2.11 120 2.11 139 2.11 122 2.11
  23  0.200  0.000  0.407- 126 2.11 125 2.11 106 2.11 141 2.11 123 2.11
  24  0.300  0.100  0.407- 125 2.11 126 2.11 130 2.11 145 2.11 124 2.11
  25  0.200  0.100  0.503- 124 2.11 123 2.11 104 2.11 127 2.11 125 2.11
  26  0.300  0.000  0.503- 123 2.11 124 2.11 140 2.11 143 2.11 126 2.11
  27  0.200  0.200  0.407- 129 2.11 130 2.11 110 2.11 125 2.11 127 2.11
  28  0.300  0.300  0.407- 129 2.11 130 2.11 134 2.11 149 2.11 128 2.11
  29  0.200  0.300  0.503- 127 2.11 128 2.11 108 2.11 131 2.11 129 2.11
  30  0.300  0.200  0.503- 127 2.11 128 2.11 124 2.11 147 2.11 130 2.11
  31  0.200  0.400  0.407- 134 2.11 129 2.11 133 2.11 114 2.11 131 2.11
  32  0.300  0.500  0.407- 133 2.11 134 2.11 138 2.11 153 2.11 132 2.11
  33  0.200  0.500  0.503- 132 2.11 131 2.11 112 2.11 135 2.11 133 2.11
  34  0.300  0.400  0.503- 131 2.11 128 2.11 132 2.11 151 2.11 134 2.11
  35  0.200  0.600  0.407- 138 2.11 133 2.11 137 2.11 118 2.11 135 2.11
  36  0.300  0.700  0.407- 137 2.11 142 2.11 138 2.11 157 2.11 136 2.11
  37  0.200  0.700  0.503- 136 2.11 139 2.11 116 2.11 135 2.11 137 2.11
  38  0.300  0.600  0.503- 135 2.11 132 2.11 136 2.11 155 2.11 138 2.11
  39  0.200  0.800  0.407- 137 2.11 142 2.11 141 2.11 122 2.11 139 2.11
  40  0.300  0.900  0.407- 141 2.11 126 2.11 142 2.11 161 2.11 140 2.11
  41  0.200  0.900  0.503- 140 2.11 123 2.11 139 2.11 120 2.11 141 2.11
  42  0.300  0.800  0.503- 136 2.11 139 2.11 140 2.11 159 2.11 142 2.11
  43  0.400  0.000  0.407- 126 2.11 145 2.11 146 2.11 161 2.11 143 2.11
  44  0.500  0.100  0.407- 145 2.11 146 2.11 150 2.11 165 2.11 144 2.11
  45  0.400  0.100  0.503- 124 2.11 143 2.11 144 2.11 147 2.11 145 2.11
  46  0.500  0.000  0.503- 143 2.11 144 2.11 160 2.11 163 2.11 146 2.11
  47  0.400  0.200  0.407- 149 2.11 145 2.11 130 2.11 150 2.11 147 2.11
  48  0.500  0.300  0.407- 150 2.11 149 2.11 154 2.11 169 2.11 148 2.11
  49  0.400  0.300  0.503- 147 2.11 128 2.11 148 2.11 151 2.11 149 2.11
  50  0.500  0.200  0.503- 148 2.11 147 2.11 144 2.11 167 2.11 150 2.11
  51  0.400  0.400  0.407- 134 2.11 149 2.11 153 2.11 154 2.11 151 2.11
  52  0.500  0.500  0.407- 153 2.11 154 2.11 158 2.11 173 2.11 152 2.11
  53  0.400  0.500  0.503- 132 2.11 151 2.11 152 2.11 155 2.11 153 2.11   2 2.92
  54  0.500  0.400  0.503- 148 2.11 151 2.11 152 2.11 171 2.11 154 2.11
  55  0.400  0.600  0.407- 138 2.11 153 2.11 157 2.11 158 2.11 155 2.11
  56  0.500  0.700  0.407- 162 2.11 158 2.11 157 2.11 177 2.11 156 2.11
  57  0.400  0.700  0.503- 159 2.11 155 2.11 156 2.11 136 2.11 157 2.11
  58  0.500  0.600  0.503- 152 2.11 155 2.11 156 2.11 175 2.11 158 2.11
  59  0.400  0.800  0.407- 157 2.11 142 2.11 161 2.11 162 2.11 159 2.11
  60  0.500  0.900  0.407- 146 2.11 161 2.11 162 2.11 181 2.11 160 2.11
[...]
 188  0.900  0.300  0.503-  90 2.11  89 2.11   9 2.11  94 2.11  88 2.11
 189  0.800  0.300  0.407-  68 2.11  87 2.11  88 2.11  91 2.11  89 2.11
 190  0.900  0.200  0.407-  88 2.11  84 2.11  87 2.11   7 2.11  90 2.11
 191  0.800  0.400  0.503-  74 2.11  89 2.11  93 2.11  94 2.11  91 2.11
 192  0.900  0.500  0.503-  13 2.11  93 2.11  94 2.11  98 2.11  92 2.11
 193  0.800  0.500  0.407-  72 2.11  91 2.11  92 2.11  95 2.11  93 2.11
 194  0.900  0.400  0.407-  11 2.11  88 2.11  91 2.11  92 2.11  94 2.11
 195  0.800  0.600  0.503-  78 2.11  93 2.11  97 2.11  98 2.11  95 2.11
 196  0.900  0.700  0.503- 102 2.11  97 2.11  98 2.11  17 2.11  96 2.11
 197  0.800  0.700  0.407-  76 2.11  99 2.11  96 2.11  95 2.11  97 2.11
 198  0.900  0.600  0.407-  15 2.11  92 2.11  95 2.11  96 2.11  98 2.11
 199  0.800  0.800  0.503-  82 2.11  97 2.11 101 2.11 102 2.11  99 2.11
 200  0.900  0.900  0.503-  21 2.11  86 2.11 101 2.11 102 2.11 100 2.11
 201  0.800  0.900  0.407-  80 2.11  83 2.11  99 2.11 100 2.11 101 2.11
 202  0.900  0.800  0.407-  96 2.11  19 2.11  99 2.11 100 2.11 102 2.11

  LATTYP: Found a simple tetragonal cell.
 ALAT       =    21.1388521970
 C/A-ratio  =     1.0461251639

  Lattice vectors:

 A1 = (  21.1388521970,   0.0000000000,   0.0000000000)
 A2 = (   0.0000000000,  21.1388521970,   0.0000000000)
 A3 = (   0.0000000000,   0.0000000000,  22.1138852197)

Analysis of symmetry for initial positions (statically):
 Subroutine PRICEL returns:
 Original cell was already a primitive cell.

 Routine SETGRP: Setting up the symmetry group for a
 simple tetragonal supercell.

 Subroutine GETGRP returns: Found  4 space group operations
 (whereof  4 operations were pure point group operations)
 out of a pool of 16 trial point group operations.

The static configuration has the point symmetry C_2v.

Analysis of symmetry for dynamics (positions and initial velocities):
 Subroutine PRICEL returns:
 Original cell was already a primitive cell.

 Routine SETGRP: Setting up the symmetry group for a
 simple tetragonal supercell.

 Subroutine GETGRP returns: Found  4 space group operations
 (whereof  4 operations were pure point group operations)
 out of a pool of 16 trial point group operations.

The dynamic configuration has the point symmetry C_2v.

 Subroutine INISYM returns: Found  4 space group operations
 (whereof  4 operations are pure point group operations),
 and found     1 'primitive' translations

                                     Primitive cell

  volume of cell :    9881.6133

  direct lattice vectors                    reciprocal lattice vectors
    21.138852197  0.000000000  0.000000000     0.047306258  0.000000000  0.000000000
     0.000000000 21.138852197  0.000000000     0.000000000  0.047306258  0.000000000
     0.000000000  0.000000000 22.113885220     0.000000000  0.000000000  0.045220457

  length of vectors
    21.138852197 21.138852197 22.113885220     0.047306258  0.047306258  0.045220457

  position of ions in fractional coordinates (direct lattice)
     0.560001958  0.500000000  0.629184642
[...]
     52     -44.3774      2.00000
     53     -44.3770      2.00000
     54     -44.3770      2.00000
     55     -44.3767      2.00000
     56     -44.3758      2.00000
     57     -44.3757      2.00000
     58     -44.3755      2.00000
     59     -44.3755      2.00000
     60     -44.3754      2.00000
[...]
    850       4.8568      0.00000
    851       4.8601      0.00000
    852       4.8696      0.00000
    853       4.8719      0.00000
    854       4.8749      0.00000
    855       4.9042      0.00000
    856       5.0505      0.00000
    857       5.1178      0.00000
    858       5.1325      0.00000
    859       5.1364      0.00000
    860       5.1375      0.00000
    861       5.2626      0.00000
    862       5.4024      0.00000
    863       5.5385      0.00000
    864       5.8399      0.00000

 soft charge-density along one line, spin component           1
         0         1         2         3         4         5         6         7         8         9
 total charge-density along one line

------------------------ aborting loop because EDIFF is reached ----------------------------------------

  FORCE on cell =-STRESS in cart. coord.  units (eV):
  Direction    XX          YY          ZZ          XY          YZ          ZX
  Alpha Z  1365.75682  1365.75682  1365.75682
  Ewald  479365.16978478663.75728************     0.00000     0.00000    -0.00000
  Hartree508004.84019507529.41911************    -0.00000     0.00000    -0.00000
  E(xc)   -8374.66109 -8374.99786 -8366.12449     0.00000     0.00001    -0.00000
  Local  ************************************    -0.00000    -0.00000    -0.00000
  n-local -8702.59493 -8686.00225 -8807.21386    -0.00000    -0.00003    -0.00000
  augment  3828.29533  3831.59278  3772.15714     0.00000     0.00000    -0.00000
  Kinetic 23035.04918 23045.42032 23267.24267     0.00015     0.00019    -0.00002
  Fock        0.00000     0.00000     0.00000     0.00000     0.00000     0.00000
  Total    -232.68905  -232.06935   -20.12577     0.00000     0.00000     0.00000
  in kB     -37.72756   -37.62708    -3.26314     0.00000     0.00000     0.00000

 VOLUME and BASIS-vectors are now :
  energy-cutoff  :      520.00
  volume of cell :     9881.61
      direct lattice vectors                 reciprocal lattice vectors
    21.138852197  0.000000000  0.000000000     0.047306258  0.000000000  0.000000000
     0.000000000 21.138852197  0.000000000     0.000000000  0.047306258  0.000000000
     0.000000000  0.000000000 22.113885220     0.000000000  0.000000000  0.045220457

  length of vectors
    21.138852197 21.138852197 22.113885220     0.047306258  0.047306258  0.045220457

 FORCES acting on ions:
    Electron-Ion                     Ewald-Force                    Non-Local-Force
   -.273E+03 -.247E-05 -.203E+04   0.267E+03 0.118E-07 0.203E+04   0.683E+01 0.939E-21 0.250E+00
   0.273E+03 -.247E-05 -.203E+04   -.267E+03 0.118E-07 0.203E+04   -.683E+01 -.199E-20 0.250E+00
   0.127E-12 -.265E-08 0.931E+03   0.941E-13 0.711E-08 -.923E+03   -.407E-23 0.468E-23 -.749E+01
   0.375E+01 0.413E+01 0.932E+03   -.375E+01 -.414E+01 -.924E+03   -.139E-02 0.889E-02 -.749E+01
   0.140E-12 0.441E+01 -.923E+03   0.131E-12 -.442E+01 0.915E+03   0.150E-21 0.786E-02 0.753E+01
   0.392E+01 -.377E-08 -.923E+03   -.392E+01 0.101E-07 0.915E+03   -.320E-02 0.145E-22 0.753E+01
   0.148E-12 0.609E+01 0.933E+03   0.155E-10 -.611E+01 -.925E+03   0.143E-21 0.143E-01 -.749E+01
   0.786E+01 0.783E+01 0.936E+03   -.787E+01 -.786E+01 -.928E+03   0.768E-02 0.213E-01 -.749E+01
   0.133E-12 0.822E+01 -.920E+03   0.207E-11 -.824E+01 0.912E+03   -.390E-22 0.158E-01 0.753E+01
   0.714E+01 0.920E+01 -.921E+03   -.714E+01 -.923E+01 0.913E+03   -.142E-02 0.170E-01 0.753E+01
   0.135E-12 0.422E+01 0.936E+03   -.175E-10 -.424E+01 -.928E+03   -.101E-21 0.106E-01 -.749E+01
   0.116E+02 0.407E-08 0.940E+03   -.116E+02 -.109E-07 -.932E+03   0.398E-01 -.883E-22 -.750E+01
   0.148E-12 0.420E-08 -.918E+03   0.229E-12 -.113E-07 0.910E+03   0.345E-22 0.135E-22 0.753E+01
   0.158E+02 0.725E+01 -.917E+03   -.158E+02 -.727E+01 0.909E+03   0.229E-01 0.149E-01 0.753E+01
   0.143E-12 -.422E+01 0.936E+03   0.114E-11 0.424E+01 -.928E+03   0.583E-23 -.106E-01 -.749E+01
   0.786E+01 -.783E+01 0.936E+03   -.787E+01 0.786E+01 -.928E+03   0.768E-02 -.213E-01 -.749E+01
   0.142E-12 -.822E+01 -.920E+03   -.927E-12 0.824E+01 0.912E+03   0.437E-22 -.158E-01 0.753E+01
   0.158E+02 -.725E+01 -.917E+03   -.158E+02 0.727E+01 0.909E+03   0.229E-01 -.149E-01 0.753E+01
   0.129E-12 -.609E+01 0.933E+03   0.909E-12 0.611E+01 -.925E+03   -.217E-22 -.143E-01 -.749E+01
   0.375E+01 -.413E+01 0.932E+03   -.375E+01 0.414E+01 -.924E+03   -.139E-02 -.889E-02 -.749E+01
   0.133E-12 -.441E+01 -.923E+03   -.899E-12 0.442E+01 0.915E+03   -.491E-22 -.786E-02 0.753E+01
   0.714E+01 -.920E+01 -.921E+03   -.714E+01 0.923E+01 0.913E+03   -.142E-02 -.170E-01 0.753E+01
   0.538E+01 -.410E-08 0.933E+03   -.537E+01 0.110E-07 -.925E+03   -.374E-02 -.597E-22 -.750E+01
   0.678E+01 0.797E+01 0.935E+03   -.677E+01 -.799E+01 -.927E+03   -.429E-02 0.144E-01 -.750E+01
   0.812E+01 0.755E+01 -.921E+03   -.811E+01 -.756E+01 0.913E+03   -.646E-02 0.100E-01 0.752E+01
   0.697E+01 -.767E-08 -.921E+03   -.696E+01 0.206E-07 0.913E+03   -.681E-02 0.114E-21 0.752E+01
   0.948E+01 0.103E+02 0.936E+03   -.948E+01 -.104E+02 -.928E+03   0.121E-02 0.239E-01 -.750E+01
   0.179E+02 0.199E+02 0.950E+03   -.180E+02 -.200E+02 -.942E+03   0.156E-01 0.578E-01 -.751E+01
   0.226E+02 0.184E+02 -.913E+03   -.226E+02 -.184E+02 0.905E+03   0.256E-02 0.401E-01 0.752E+01
   0.155E+02 0.232E+02 -.914E+03   -.155E+02 -.232E+02 0.906E+03   -.146E-01 0.276E-01 0.752E+01
   0.207E+02 0.881E+01 0.947E+03   -.208E+02 -.885E+01 -.939E+03   0.370E-01 0.365E-01 -.749E+01
   0.328E+02 0.135E-07 0.970E+03   -.328E+02 -.363E-07 -.963E+03   0.222E-03 0.121E-21 -.735E+01
   0.422E+02 0.123E-07 -.903E+03   -.423E+02 -.330E-07 0.895E+03   0.119E+00 0.149E-22 0.752E+01
   0.589E+02 0.353E+02 -.879E+03   -.589E+02 -.355E+02 0.871E+03   0.483E-01 0.128E+00 0.751E+01
   0.207E+02 -.881E+01 0.947E+03   -.208E+02 0.885E+01 -.939E+03   0.370E-01 -.365E-01 -.749E+01
   0.179E+02 -.199E+02 0.950E+03   -.180E+02 0.200E+02 -.942E+03   0.156E-01 -.578E-01 -.751E+01
   0.226E+02 -.184E+02 -.913E+03   -.226E+02 0.184E+02 0.905E+03   0.256E-02 -.401E-01 0.752E+01
   0.589E+02 -.353E+02 -.879E+03   -.589E+02 0.355E+02 0.871E+03   0.483E-01 -.128E+00 0.751E+01
   0.948E+01 -.103E+02 0.936E+03   -.948E+01 0.104E+02 -.928E+03   0.121E-02 -.239E-01 -.750E+01
   0.678E+01 -.797E+01 0.935E+03   -.677E+01 0.799E+01 -.927E+03   -.429E-02 -.144E-01 -.750E+01
   0.812E+01 -.755E+01 -.921E+03   -.811E+01 0.756E+01 0.913E+03   -.646E-02 -.100E-01 0.752E+01
   0.155E+02 -.232E+02 -.914E+03   -.155E+02 0.232E+02 0.906E+03   -.146E-01 -.276E-01 0.752E+01
   0.358E+01 -.705E-08 0.935E+03   -.358E+01 0.189E-07 -.927E+03   -.315E-02 -.207E-22 -.750E+01
   -.218E-12 0.111E+02 0.938E+03   0.435E-11 -.111E+02 -.930E+03   0.489E-22 0.135E-01 -.750E+01
   0.584E+01 0.147E+02 -.918E+03   -.583E+01 -.147E+02 0.910E+03   -.640E-02 0.290E-02 0.752E+01
   -.260E-12 -.108E-07 -.919E+03   0.875E-13 0.291E-07 0.911E+03   -.389E-23 0.328E-22 0.752E+01
   0.726E+01 0.204E+02 0.945E+03   -.726E+01 -.205E+02 -.937E+03   -.235E-02 0.495E-01 -.752E+01
   -.206E-12 0.329E+02 0.965E+03   -.558E-11 -.329E+02 -.957E+03   0.157E-21 0.488E-01 -.755E+01
   0.249E+02 0.582E+02 -.887E+03   -.248E+02 -.583E+02 0.879E+03   -.420E-01 0.105E+00 0.747E+01
   -.249E-12 0.375E+02 -.908E+03   -.191E-10 -.375E+02 0.900E+03   0.261E-21 -.103E-01 0.750E+01
   0.217E+02 0.255E+02 0.985E+03   -.217E+02 -.256E+02 -.977E+03   0.330E-02 0.232E-01 -.737E+01
   -.219E-12 0.273E-07 0.102E+04   -.457E-13 -.735E-07 -.101E+04   0.557E-23 -.504E-22 -.762E+01
   0.913E+02 0.955E-07 -.744E+03   -.911E+02 -.257E-06 0.737E+03   -.240E+00 -.198E-21 0.592E+01
   -.246E-12 0.101E+03 -.792E+03   0.216E-10 -.101E+03 0.784E+03   -.472E-22 0.103E-01 0.708E+01
   0.217E+02 -.255E+02 0.985E+03   -.217E+02 0.256E+02 -.977E+03   0.330E-02 -.232E-01 -.737E+01
   -.225E-12 -.329E+02 0.965E+03   -.183E-10 0.329E+02 -.957E+03   -.155E-21 -.488E-01 -.755E+01
   0.249E+02 -.582E+02 -.887E+03   -.248E+02 0.583E+02 0.879E+03   -.420E-01 -.105E+00 0.747E+01
   -.253E-12 -.101E+03 -.792E+03   0.182E-10 0.101E+03 0.784E+03   0.287E-22 -.103E-01 0.708E+01
   0.726E+01 -.204E+02 0.945E+03   -.726E+01 0.205E+02 -.937E+03   -.235E-02 -.495E-01 -.752E+01
   -.210E-12 -.111E+02 0.938E+03   0.205E-10 0.111E+02 -.930E+03   -.882E-22 -.135E-01 -.750E+01
[...]
   -.111E+02 0.915E+01 0.708E+03   0.111E+02 -.918E+01 -.711E+03   -.143E-01 0.389E-01 0.347E+01
   -.402E+01 0.536E+01 0.702E+03   0.402E+01 -.538E+01 -.706E+03   -.204E-02 0.184E-01 0.347E+01
   -.265E+02 0.109E+02 -.682E+03   0.265E+02 -.110E+02 0.686E+03   -.456E-01 0.570E-01 -.350E+01
   -.134E+02 0.428E-08 -.688E+03   0.134E+02 -.115E-07 0.692E+03   -.270E-01 0.180E-21 -.350E+01
   -.177E+02 0.534E-08 0.714E+03   0.178E+02 -.143E-07 -.718E+03   -.735E-01 0.279E-21 0.351E+01
   -.784E+01 0.394E+01 0.706E+03   0.786E+01 -.395E+01 -.709E+03   -.219E-01 0.224E-01 0.347E+01
   -.265E+02 -.109E+02 -.682E+03   0.265E+02 0.110E+02 0.686E+03   -.456E-01 -.570E-01 -.350E+01
   -.841E+01 -.783E+01 -.691E+03   0.842E+01 0.785E+01 0.695E+03   -.935E-02 -.262E-01 -.350E+01
   -.111E+02 -.915E+01 0.708E+03   0.111E+02 0.918E+01 -.711E+03   -.143E-01 -.389E-01 0.347E+01
   -.784E+01 -.394E+01 0.706E+03   0.786E+01 0.395E+01 -.709E+03   -.219E-01 -.224E-01 0.347E+01
   -.983E+01 -.108E+02 -.691E+03   0.983E+01 0.108E+02 0.694E+03   0.182E-02 -.223E-01 -.351E+01
   -.352E+01 -.390E+01 -.693E+03   0.352E+01 0.390E+01 0.697E+03   0.219E-02 -.884E-02 -.350E+01
   -.478E+01 -.427E+01 0.702E+03   0.477E+01 0.428E+01 -.706E+03   0.252E-02 -.111E-01 0.347E+01
   -.402E+01 -.536E+01 0.702E+03   0.402E+01 0.538E+01 -.706E+03   -.204E-02 -.184E-01 0.347E+01
   0.115E-10 -.503E-05 0.109E+02   0.393E-11 -.117E-11 -.398E-11   0.763E-16 0.104E-16 -.812E+01

 POSITION                                       TOTAL-FORCE (eV/Angst)
     11.83780     10.56943     13.91372        -0.288351      0.000000     -0.062812
      9.30105     10.56943     13.91372         0.288351      0.000000     -0.062812
      0.00000      0.00000      9.00000        -0.000000      0.000000      0.516520
      2.11389      2.11389      9.00000         0.000353     -0.002503      0.516656
      0.00000      2.11389     11.11389         0.000000     -0.002226     -0.485266
      2.11389      0.00000     11.11389         0.000922      0.000000     -0.485128
      0.00000      4.22777      9.00000         0.000000     -0.004112      0.516455
      2.11389      6.34166      9.00000        -0.002348     -0.006220      0.516259
      0.00000      6.34166     11.11389        -0.000000     -0.004657     -0.484800
      2.11389      4.22777     11.11389         0.000396     -0.004816     -0.484694
      0.00000      8.45554      9.00000         0.000000     -0.003212      0.516345
      2.11389     10.56943      9.00000        -0.010576      0.000000      0.517000
      0.00000     10.56943     11.11389        -0.000000      0.000000     -0.484771
      2.11389      8.45554     11.11389        -0.006467     -0.004594     -0.484279
      0.00000     12.68331      9.00000         0.000000      0.003212      0.516345
      2.11389     14.79720      9.00000        -0.002348      0.006220      0.516259
      0.00000     14.79720     11.11389         0.000000      0.004657     -0.484800
      2.11389     12.68331     11.11389        -0.006467      0.004594     -0.484279
      0.00000     16.91108      9.00000         0.000000      0.004112      0.516455
      2.11389     19.02497      9.00000         0.000353      0.002503      0.516656
      0.00000     19.02497     11.11389        -0.000000      0.002226     -0.485266
      2.11389     16.91108     11.11389         0.000396      0.004816     -0.484694
      4.22777      0.00000      9.00000         0.001066      0.000000      0.516965
      6.34166      2.11389      9.00000         0.001221     -0.003959      0.517842
      4.22777      2.11389     11.11389         0.001859     -0.002758     -0.484195
      6.34166      0.00000     11.11389         0.002021      0.000000     -0.483658
      4.22777      4.22777      9.00000        -0.000479     -0.006749      0.517195
      6.34166      6.34166      9.00000        -0.005453     -0.016876      0.518727
      4.22777      6.34166     11.11389        -0.000718     -0.011422     -0.482257
      6.34166      4.22777     11.11389         0.004356     -0.007366     -0.479659
      4.22777      8.45554      9.00000        -0.011457     -0.011482      0.514732
      6.34166     10.56943      9.00000         0.000362      0.000000      0.472656
      4.22777     10.56943     11.11389        -0.040931      0.000000     -0.481762
      6.34166      8.45554     11.11389        -0.010330     -0.034425     -0.466611
      4.22777     12.68331      9.00000        -0.011457      0.011482      0.514732
      6.34166     14.79720      9.00000        -0.005453      0.016876      0.518727
      4.22777     14.79720     11.11389        -0.000718      0.011422     -0.482257
      6.34166     12.68331     11.11389        -0.010330      0.034425     -0.466611
      4.22777     16.91108      9.00000        -0.000479      0.006749      0.517195
      6.34166     19.02497      9.00000         0.001221      0.003959      0.517842
      4.22777     19.02497     11.11389         0.001859      0.002758     -0.484195
      6.34166     16.91108     11.11389         0.004356      0.007366     -0.479659
      8.45554      0.00000      9.00000         0.000889      0.000000      0.517765
     10.56943      2.11389      9.00000         0.000000     -0.003970      0.518791
      8.45554      2.11389     11.11389         0.001980     -0.000507     -0.481238
     10.56943      0.00000     11.11389        -0.000000      0.000000     -0.482395
      8.45554      4.22777      9.00000         0.000796     -0.013449      0.522408
     10.56943      6.34166      9.00000        -0.000000     -0.016954      0.528029
      8.45554      6.34166     11.11389         0.017019     -0.033884     -0.445828
     10.56943      4.22777     11.11389         0.000000      0.004036     -0.470919
      8.45554      8.45554      9.00000         0.000744     -0.003399      0.476482
     10.56943     10.56943      9.00000        -0.000000      0.000000      0.493264
      8.45554     10.56943     11.11389         0.041598      0.000000     -0.394365
     10.56943      8.45554     11.11389         0.000000      0.026342     -0.248014
      8.45554     12.68331      9.00000         0.000744      0.003399      0.476482
     10.56943     14.79720      9.00000         0.000000      0.016954      0.528029
      8.45554     14.79720     11.11389         0.017019      0.033884     -0.445828
     10.56943     12.68331     11.11389        -0.000000     -0.026342     -0.248014
      8.45554     16.91108      9.00000         0.000796      0.013449      0.522408
     10.56943     19.02497      9.00000        -0.000000      0.003970      0.518791
[...]
     19.02497      6.34166     11.11389        -0.002620      0.007288      0.320569
     16.91108      6.34166      9.00000        -0.003963      0.010806     -0.352095
     19.02497      4.22777      9.00000        -0.000565      0.005127     -0.351935
     16.91108      8.45554     11.11389        -0.013716      0.016233      0.321395
     19.02497     10.56943     11.11389        -0.007665      0.000000      0.320522
     16.91108     10.56943      9.00000        -0.021228      0.000000     -0.339868
     19.02497      8.45554      9.00000        -0.006045      0.006221     -0.351168
     16.91108     12.68331     11.11389        -0.013716     -0.016233      0.321395
     19.02497     14.79720     11.11389        -0.002620     -0.007288      0.320569
     16.91108     14.79720      9.00000        -0.003963     -0.010806     -0.352095
     19.02497     12.68331      9.00000        -0.006045     -0.006221     -0.351168
     16.91108     16.91108     11.11389         0.000430     -0.006238      0.319417
     19.02497     19.02497     11.11389         0.000598     -0.002462      0.321161
     16.91108     19.02497      9.00000         0.000676     -0.003090     -0.352398
     19.02497     16.91108      9.00000        -0.000565     -0.005127     -0.351935
    total drift:                                0.000000     -0.000005      2.787723

  FREE ENERGIE OF THE ION-ELECTRON SYSTEM (eV)
  free  energy   TOTEN  =     -1595.48654495 eV

  energy  without entropy=    -1595.48654495  energy(sigma->0) =    -1595.48654495