 vasp.6.3.0 20Jan22 (build Apr  1 2022 16:44:48) complex
 executed on        HPECrayEX_GCC date 2023.02.08  14:55:21

 INCAR:
   SYSTEM = MgO-rocksalt
   ISMEAR = 0
   SIGMA = 0.05
   EDIFF = 1E-5
   ALGO = ALL
   ISTART = 0
   IBRION = -1
   NSW = 0
   ISYM = 2
   DIPOL = 0.5 0.5 0.5
   IDIPOL = 3
   LDIPOL = .TRUE.
   LHFCALC = .TRUE.
   GGA = PE
   ENCUT = 520
   PREC = Accurate
   LASPH = .TRUE.
   LREAL = Auto
   ISPIN = 1
   NELM = 200
   NELMIN = 8
   NCORE = 4
   KPAR = 2
   LWAVE = .FALSE.
   LCHARG = .FALSE.

 POTCAR:    PAW_PBE Au 04Oct2007
 POTCAR:    PAW_PBE Mg_pv 13Apr2007
 POTCAR:    PAW_PBE O 08Apr2002
|           W    W    AA    RRRRR   N    N  II  N    N   GGGG   !!!           |
|           W    W   A  A   R    R  NN   N  II  NN   N  G    G  !!!           |
|           W    W  A    A  R    R  N N  N  II  N N  N  G       !!!           |
|           W WW W  AAAAAA  RRRRR   N  N N  II  N  N N  G  GGG   !            |
|           WW  WW  A    A  R   R   N   NN  II  N   NN  G    G                |
|           W    W  A    A  R    R  N    N  II  N    N   GGGG   !!!           |
|     You have selected ISYM=2 for a HF type calculation. This will           |
|     symmetrize the charge density but not the exchange potential. I         |
|     suggest to use ISYM=3 instead. This uses symmetry to obtain the         |
|     orbitals at all k-points in the Brillouin zone, but does not apply      |
|     symmetry to the Hartree potential directly. The resultant charge        |
|     might have lower symmetry than the crystal but, at least, Hartree       |
|     and exchange are fully compatible.                                      |

   TITEL  = PAW_PBE Au 04Oct2007
   POMASS =  196.966; ZVAL   =   11.000    mass and valenz
   ENMAX  =  229.943; ENMIN  =  172.457 eV

   TITEL  = PAW_PBE Mg_pv 13Apr2007
   POMASS =   24.305; ZVAL   =    8.000    mass and valenz
   ENMAX  =  403.929; ENMIN  =  302.947 eV

   TITEL  = PAW_PBE O 08Apr2002
   POMASS =   16.000; ZVAL   =    6.000    mass and valenz
   ENMAX  =  400.000; ENMIN  =  300.000 eV

 Optimization of the real space projectors (new method)

 maximal supplied QI-value         = 15.12
 optimisation between [QCUT,QGAM] = [ 11.64, 23.28] = [ 37.95,151.78] Ry
 Optimized for a Real-space Cutoff    1.49 Angstroem

   l    n(q)    QCUT    max X(q) W(low)/X(q) W(high)/X(q)  e(spline)
   2      9    11.641    60.898    0.24E-03    0.10E-03    0.19E-06
   2      9    11.641    58.894    0.25E-03    0.10E-03    0.19E-06
   0     10    11.641   109.617    0.73E-04    0.33E-04    0.11E-06
   0     10    11.641    75.026    0.71E-04    0.32E-04    0.11E-06
   1     10    11.641    16.344    0.27E-04    0.97E-04    0.16E-06
   1     10    11.641    10.160    0.23E-04    0.77E-04    0.13E-06
 Optimization of the real space projectors (new method)

[...]

   l    n(q)    QCUT    max X(q) W(low)/X(q) W(high)/X(q)  e(spline)
   1      8    11.527     2.974    0.44E-04    0.56E-04    0.12E-06
   1      8    11.527     4.279    0.12E-03    0.12E-03    0.26E-06
   0      9    11.527    16.381    0.46E-04    0.64E-04    0.78E-07
   0      9    11.527     5.611    0.26E-04    0.43E-04    0.55E-07
   2      8    11.527     4.652    0.22E-03    0.72E-04    0.47E-07
 Optimization of the real space projectors (new method)

 maximal supplied QI-value         = 24.76
 optimisation between [QCUT,QGAM] = [ 11.64, 23.27] = [ 37.91,151.63] Ry
 Optimized for a Real-space Cutoff    1.14 Angstroem

   l    n(q)    QCUT    max X(q) W(low)/X(q) W(high)/X(q)  e(spline)
   0      8    11.635    20.381    0.10E-03    0.33E-03    0.24E-06
   0      8    11.635    15.268    0.11E-03    0.35E-03    0.26E-06
   1      7    11.635     5.964    0.24E-03    0.31E-03    0.30E-06
   1      7    11.635     5.382    0.22E-03    0.25E-03    0.26E-06
  PAW_PBE Au 04Oct2007                  :
  PAW_PBE Mg_pv 13Apr2007               :
  PAW_PBE O 08Apr2002                   :

 POSCAR: Au Mg  O
  positions in direct lattice
  velocities in cartesian coordinates
 exchange correlation table for  LEXCH =        8
   RHO(1)=    0.500       N(1)  =     2000
   RHO(2)=  100.500       N(2)  =     4000

 ion  position               nearest neighbor table
   1  0.404  0.596  0.665-   2 2.57   4 2.74
   2  0.332  0.668  0.602- 138 2.40   1 2.57  59 2.71  40 2.71
   3  0.568  0.432  0.602- 173 2.40   4 2.57  75 2.71  56 2.71
   4  0.496  0.504  0.665-   3 2.57   1 2.74
   5  0.000  0.000  0.407- 107 2.11 108 2.11 123 2.11 188 2.11 105 2.11
   6  0.100  0.100  0.407- 107 2.11 108 2.11 112 2.11 127 2.11 106 2.11
   7  0.000  0.100  0.503- 105 2.11 106 2.11 109 2.11 186 2.11 107 2.11
   8  0.100  0.000  0.503- 105 2.11 106 2.11 122 2.11 125 2.11 108 2.11
   9  0.000  0.200  0.407- 111 2.11 107 2.11 112 2.11 192 2.11 109 2.11
  10  0.100  0.300  0.407- 112 2.11 111 2.11 116 2.11 131 2.11 110 2.11
  11  0.000  0.300  0.503- 109 2.11 110 2.11 113 2.11 190 2.11 111 2.11
  12  0.100  0.200  0.503- 110 2.11 109 2.11 106 2.11 129 2.11 112 2.11
  13  0.000  0.400  0.407- 111 2.11 115 2.11 116 2.11 196 2.11 113 2.11
  14  0.100  0.500  0.407- 115 2.11 116 2.11 120 2.11 135 2.11 114 2.11
  15  0.000  0.500  0.503- 113 2.11 114 2.11 117 2.11 194 2.11 115 2.11
  16  0.100  0.400  0.503- 110 2.11 113 2.11 114 2.11 133 2.11 116 2.11
  17  0.000  0.600  0.407- 115 2.11 119 2.11 120 2.11 200 2.11 117 2.11
  18  0.100  0.700  0.407- 124 2.11 120 2.11 119 2.11 139 2.11 118 2.11
  19  0.000  0.700  0.503- 121 2.11 118 2.11 117 2.11 198 2.11 119 2.11
  20  0.100  0.600  0.503- 114 2.11 117 2.11 118 2.11 137 2.11 120 2.11
  21  0.000  0.800  0.407- 119 2.11 123 2.11 124 2.11 204 2.11 121 2.11
  22  0.100  0.900  0.407- 108 2.11 123 2.11 124 2.11 143 2.11 122 2.11
  23  0.000  0.900  0.503- 105 2.11 121 2.11 122 2.11 202 2.11 123 2.11
  24  0.100  0.800  0.503- 118 2.11 121 2.11 122 2.11 141 2.11 124 2.11
  25  0.200  0.000  0.407- 128 2.11 127 2.11 108 2.11 143 2.11 125 2.11
  26  0.300  0.100  0.407- 127 2.11 128 2.11 132 2.11 147 2.11 126 2.11
  27  0.200  0.100  0.503- 126 2.11 125 2.11 106 2.11 129 2.11 127 2.11
  28  0.300  0.000  0.503- 125 2.11 126 2.11 142 2.11 145 2.11 128 2.11
  29  0.200  0.200  0.407- 131 2.11 132 2.11 112 2.11 127 2.11 129 2.11
  30  0.300  0.300  0.407- 131 2.11 132 2.11 136 2.11 151 2.11 130 2.11
  31  0.200  0.300  0.503- 129 2.11 130 2.11 110 2.11 133 2.11 131 2.11
  32  0.300  0.200  0.503- 129 2.11 130 2.11 126 2.11 149 2.11 132 2.11
  33  0.200  0.400  0.407- 136 2.11 131 2.11 135 2.11 116 2.11 133 2.11
  34  0.300  0.500  0.407- 135 2.11 136 2.11 140 2.11 155 2.11 134 2.11
  35  0.200  0.500  0.503- 134 2.11 133 2.11 114 2.11 137 2.11 135 2.11
  36  0.300  0.400  0.503- 133 2.11 130 2.11 134 2.11 153 2.11 136 2.11
  37  0.200  0.600  0.407- 140 2.11 135 2.11 139 2.11 120 2.11 137 2.11
  38  0.300  0.700  0.407- 139 2.11 144 2.11 140 2.11 159 2.11 138 2.11
  39  0.200  0.700  0.503- 138 2.11 141 2.11 118 2.11 137 2.11 139 2.11
  40  0.300  0.600  0.503- 137 2.11 134 2.11 138 2.11 157 2.11 140 2.11   2 2.71
  41  0.200  0.800  0.407- 139 2.11 144 2.11 143 2.11 124 2.11 141 2.11
  42  0.300  0.900  0.407- 143 2.11 128 2.11 144 2.11 163 2.11 142 2.11
  43  0.200  0.900  0.503- 142 2.11 125 2.11 141 2.11 122 2.11 143 2.11
  44  0.300  0.800  0.503- 138 2.11 141 2.11 142 2.11 161 2.11 144 2.11
  45  0.400  0.000  0.407- 128 2.11 147 2.11 148 2.11 163 2.11 145 2.11
  46  0.500  0.100  0.407- 147 2.11 148 2.11 152 2.11 167 2.11 146 2.11
  47  0.400  0.100  0.503- 126 2.11 145 2.11 146 2.11 149 2.11 147 2.11
  48  0.500  0.000  0.503- 145 2.11 146 2.11 162 2.11 165 2.11 148 2.11
  49  0.400  0.200  0.407- 151 2.11 147 2.11 132 2.11 152 2.11 149 2.11
  50  0.500  0.300  0.407- 152 2.11 151 2.11 156 2.11 171 2.11 150 2.11
  51  0.400  0.300  0.503- 149 2.11 130 2.11 150 2.11 153 2.11 151 2.11
  52  0.500  0.200  0.503- 150 2.11 149 2.11 146 2.11 169 2.11 152 2.11
  53  0.400  0.400  0.407- 136 2.11 151 2.11 155 2.11 156 2.11 153 2.11
  54  0.500  0.500  0.407- 155 2.11 156 2.11 160 2.11 175 2.11 154 2.11
  55  0.400  0.500  0.503- 134 2.11 153 2.11 154 2.11 157 2.11 155 2.11
  56  0.500  0.400  0.503- 150 2.11 153 2.11 154 2.11 173 2.11 156 2.11   3 2.71
  57  0.400  0.600  0.407- 140 2.11 155 2.11 159 2.11 160 2.11 157 2.11
  58  0.500  0.700  0.407- 164 2.11 160 2.11 159 2.11 179 2.11 158 2.11
  59  0.400  0.700  0.503- 161 2.11 157 2.11 158 2.11 138 2.11 159 2.11   2 2.71
  60  0.500  0.600  0.503- 154 2.11 157 2.11 158 2.11 177 2.11 160 2.11
[...]
 190  0.900  0.300  0.503-  92 2.11  91 2.11  11 2.11  96 2.11  90 2.11
 191  0.800  0.300  0.407-  70 2.11  89 2.11  90 2.11  93 2.11  91 2.11
 192  0.900  0.200  0.407-  90 2.11  86 2.11  89 2.11   9 2.11  92 2.11
 193  0.800  0.400  0.503-  76 2.11  91 2.11  95 2.11  96 2.11  93 2.11
 194  0.900  0.500  0.503-  15 2.11  95 2.11  96 2.11 100 2.11  94 2.11
 195  0.800  0.500  0.407-  74 2.11  93 2.11  94 2.11  97 2.11  95 2.11
 196  0.900  0.400  0.407-  13 2.11  90 2.11  93 2.11  94 2.11  96 2.11
 197  0.800  0.600  0.503-  80 2.11  95 2.11  99 2.11 100 2.11  97 2.11
 198  0.900  0.700  0.503- 104 2.11  99 2.11 100 2.11  19 2.11  98 2.11
 199  0.800  0.700  0.407-  78 2.11 101 2.11  98 2.11  97 2.11  99 2.11
 200  0.900  0.600  0.407-  17 2.11  94 2.11  97 2.11  98 2.11 100 2.11
 201  0.800  0.800  0.503-  84 2.11  99 2.11 103 2.11 104 2.11 101 2.11
 202  0.900  0.900  0.503-  23 2.11  88 2.11 103 2.11 104 2.11 102 2.11
 203  0.800  0.900  0.407-  82 2.11  85 2.11 101 2.11 102 2.11 103 2.11
 204  0.900  0.800  0.407-  98 2.11  21 2.11 101 2.11 102 2.11 104 2.11

  LATTYP: Found a simple tetragonal cell.
 ALAT       =    21.1388521970
 C/A-ratio  =     1.0461251639

  Lattice vectors:

 A1 = (  21.1388521970,   0.0000000000,   0.0000000000)
 A2 = (   0.0000000000,  21.1388521970,   0.0000000000)
 A3 = (   0.0000000000,   0.0000000000,  22.1138852197)

Analysis of symmetry for initial positions (statically):
 Subroutine PRICEL returns:
 Original cell was already a primitive cell.

 Routine SETGRP: Setting up the symmetry group for a
 simple tetragonal supercell.

 Subroutine GETGRP returns: Found  2 space group operations
 (whereof  1 operations were pure point group operations)
 out of a pool of 16 trial point group operations.

The static configuration has the point symmetry C_1 .
 The point group associated with its full space group is C_1h.

Analysis of symmetry for dynamics (positions and initial velocities):
 Subroutine PRICEL returns:
 Original cell was already a primitive cell.

[...]

The dynamic configuration has the point symmetry C_1 .
 The point group associated with its full space group is C_1h.

Analysis of constrained symmetry for selective dynamics:
 Subroutine PRICEL returns:
 Original cell was already a primitive cell.

 Routine SETGRP: Setting up the symmetry group for a
 simple tetragonal supercell.

 Subroutine GETGRP returns: Found  2 space group operations
 (whereof  1 operations were pure point group operations)
 out of a pool of 16 trial point group operations.

The constrained configuration has the point symmetry C_1 .
 The point group associated with its full space group is C_1h.

[...]
     22     -47.1162      2.00000
     23     -47.1161      2.00000
     24     -47.1161      2.00000
     25     -47.1119      2.00000
     26     -47.1119      2.00000
     27     -47.1118      2.00000
     28     -47.1118      2.00000
     29     -47.0953      2.00000
     30     -47.0953      2.00000
     31     -47.0937      2.00000
     32     -47.0937      2.00000
     33     -47.0777      2.00000
     34     -47.0777      2.00000
     35     -47.0770      2.00000
     36     -47.0770      2.00000
     37     -47.0651      2.00000
     38     -47.0651      2.00000
     39     -47.0573      2.00000
     40     -47.0570      2.00000
     41     -47.0537      2.00000
     42     -47.0536      2.00000
     43     -47.0510      2.00000
     44     -47.0505      2.00000
     45     -47.0504      2.00000
     46     -47.0499      2.00000
     47     -47.0483      2.00000
     48     -47.0483      2.00000
     49     -47.0482      2.00000
     50     -47.0481      2.00000
     51     -47.0411      2.00000
     52     -47.0409      2.00000
     53     -47.0392      2.00000
     54     -47.0388      2.00000
     55     -47.0386      2.00000
     56     -47.0373      2.00000
     57     -47.0336      2.00000
     58     -47.0316      2.00000
     59     -47.0316      2.00000
     60     -47.0313      2.00000
[...]
   1138       8.4802      0.00000
   1139       8.5066      0.00000
   1140       8.5167      0.00000
   1141       8.5386      0.00000
   1142       8.6097      0.00000
   1143       8.6604      0.00000
   1144       8.7788      0.00000
   1145       8.7951      0.00000
   1146       8.8030      0.00000
   1147       8.8186      0.00000
   1148       8.9103      0.00000
   1149       9.2688      0.00000
   1150       9.3199      0.00000
   1151       9.3291      0.00000
   1152       9.3368      0.00000

 soft charge-density along one line, spin component           1
         0         1         2         3         4         5         6         7         8         9
 total charge-density along one line

------------------------ aborting loop because EDIFF is reached ----------------------------------------

 VOLUME and BASIS-vectors are now :
  energy-cutoff  :      520.00
  volume of cell :     9881.61
      direct lattice vectors                 reciprocal lattice vectors
    21.138852197  0.000000000  0.000000000     0.047306258  0.000000000  0.000000000
     0.000000000 21.138852197  0.000000000     0.000000000  0.047306258  0.000000000
     0.000000000  0.000000000 22.113885220     0.000000000  0.000000000  0.045220457

  length of vectors
    21.138852197 21.138852197 22.113885220     0.047306258  0.047306258  0.045220457

 FORCES acting on ions:
    Electron-Ion                     Ewald-Force                    Non-Local-Force
   0.482E+02 -.482E+02 -.197E+04   -.510E+02 0.510E+02 0.197E+04   0.247E+01 -.246E+01 0.305E+01
   0.221E+03 -.221E+03 -.203E+04   -.218E+03 0.218E+03 0.203E+04   -.296E+01 0.296E+01 -.248E+01
   -.221E+03 0.221E+03 -.203E+04   0.218E+03 -.218E+03 0.203E+04   0.296E+01 -.296E+01 -.248E+01
   -.482E+02 0.482E+02 -.197E+04   0.510E+02 -.510E+02 0.197E+04   -.246E+01 0.247E+01 0.305E+01
   0.457E+01 -.457E+01 0.938E+03   -.461E+01 0.461E+01 -.929E+03   0.262E-01 -.262E-01 -.712E+01
   0.896E+01 0.202E+01 0.939E+03   -.895E+01 -.195E+01 -.930E+03   -.406E-02 -.495E-01 -.712E+01
   0.331E+01 0.331E+01 -.919E+03   -.328E+01 -.328E+01 0.911E+03   -.177E-01 -.177E-01 0.704E+01
   0.139E+02 -.104E+02 -.917E+03   -.139E+02 0.105E+02 0.908E+03   0.235E-01 -.860E-01 0.704E+01
   0.202E+01 0.896E+01 0.939E+03   -.195E+01 -.895E+01 -.930E+03   -.495E-01 -.406E-02 -.712E+01
   0.143E+02 0.155E+02 0.945E+03   -.142E+02 -.155E+02 -.936E+03   -.466E-01 -.107E-02 -.713E+01
   0.314E+01 0.155E+02 -.915E+03   -.302E+01 -.155E+02 0.907E+03   -.815E-01 -.150E-02 0.703E+01
   0.132E+02 0.132E+02 -.916E+03   -.132E+02 -.132E+02 0.908E+03   -.369E-01 -.369E-01 0.703E+01
   0.487E+01 0.110E+02 0.946E+03   -.477E+01 -.110E+02 -.937E+03   -.689E-01 0.157E-01 -.713E+01
   0.281E+02 0.111E+02 0.958E+03   -.281E+02 -.113E+02 -.949E+03   -.720E-02 0.102E+00 -.714E+01
   0.128E+02 0.788E+01 -.910E+03   -.128E+02 -.792E+01 0.901E+03   -.278E-01 0.243E-01 0.702E+01
   0.306E+02 0.233E+02 -.907E+03   -.304E+02 -.233E+02 0.898E+03   -.946E-01 0.365E-01 0.702E+01
   0.121E+02 -.242E+01 0.950E+03   -.122E+02 0.238E+01 -.941E+03   0.677E-01 0.285E-01 -.713E+01
   0.318E+02 -.129E+02 0.961E+03   -.323E+02 0.128E+02 -.952E+03   0.327E+00 0.426E-01 -.716E+01
   0.203E+02 -.128E+02 -.910E+03   -.205E+02 0.128E+02 0.901E+03   0.135E+00 0.183E-01 0.703E+01
   0.581E+02 0.283E+01 -.893E+03   -.583E+02 -.301E+01 0.885E+03   0.138E+00 0.117E+00 0.701E+01
   0.109E+02 -.130E+02 0.944E+03   -.110E+02 0.130E+02 -.936E+03   0.128E+00 -.140E-01 -.713E+01
   0.158E+02 -.158E+02 0.945E+03   -.159E+02 0.159E+02 -.937E+03   0.935E-01 -.935E-01 -.711E+01
   0.104E+02 -.139E+02 -.917E+03   -.105E+02 0.139E+02 0.908E+03   0.861E-01 -.235E-01 0.704E+01
   0.387E+02 -.287E+02 -.904E+03   -.391E+02 0.288E+02 0.896E+03   0.304E+00 -.303E-01 0.704E+01
   0.130E+02 -.109E+02 0.944E+03   -.130E+02 0.110E+02 -.936E+03   0.140E-01 -.128E+00 -.713E+01
   0.110E+02 0.487E+01 0.946E+03   -.110E+02 -.477E+01 -.937E+03   0.157E-01 -.689E-01 -.713E+01
   0.155E+02 0.314E+01 -.915E+03   -.155E+02 -.302E+01 0.907E+03   -.150E-02 -.815E-01 0.703E+01
   0.128E+02 -.203E+02 -.910E+03   -.128E+02 0.205E+02 0.901E+03   -.183E-01 -.134E+00 0.703E+01
   0.155E+02 0.143E+02 0.945E+03   -.155E+02 -.142E+02 -.936E+03   -.107E-02 -.466E-01 -.713E+01
   0.252E+02 0.322E+02 0.964E+03   -.253E+02 -.321E+02 -.955E+03   0.625E-01 -.411E-01 -.718E+01
   0.329E+02 0.329E+02 -.905E+03   -.328E+02 -.328E+02 0.897E+03   -.546E-01 -.546E-01 0.701E+01
   0.233E+02 0.306E+02 -.907E+03   -.233E+02 -.304E+02 0.898E+03   0.365E-01 -.946E-01 0.702E+01
   0.322E+02 0.252E+02 0.964E+03   -.321E+02 -.253E+02 -.955E+03   -.411E-01 0.625E-01 -.718E+01
   0.426E+02 0.277E+02 0.101E+04   -.426E+02 -.282E+02 -.100E+04   -.180E-01 0.302E+00 -.740E+01
   0.791E+02 0.416E+02 -.870E+03   -.788E+02 -.419E+02 0.862E+03   -.230E+00 0.264E+00 0.694E+01
   0.671E+02 0.671E+02 -.862E+03   -.669E+02 -.669E+02 0.854E+03   -.125E+00 -.125E+00 0.691E+01
   0.499E+02 0.289E+01 0.992E+03   -.501E+02 -.338E+01 -.984E+03   0.120E+00 0.319E+00 -.711E+01
   0.342E+02 -.342E+02 0.103E+04   -.339E+02 0.339E+02 -.102E+04   -.169E+00 0.168E+00 -.501E+01
   0.109E+03 -.430E+02 -.840E+03   -.112E+03 0.427E+02 0.832E+03   0.164E+01 0.184E+00 0.713E+01
   0.120E+03 0.624E+02 -.699E+03   -.120E+03 -.655E+02 0.692E+03   -.422E+00 0.175E+01 0.547E+01
   0.312E+02 -.312E+02 0.970E+03   -.315E+02 0.315E+02 -.962E+03   0.208E+00 -.208E+00 -.701E+01
   0.129E+02 -.318E+02 0.961E+03   -.128E+02 0.323E+02 -.952E+03   -.426E-01 -.327E+00 -.716E+01
   0.287E+02 -.387E+02 -.904E+03   -.288E+02 0.391E+02 0.896E+03   0.303E-01 -.304E+00 0.704E+01
   0.431E+02 -.109E+03 -.840E+03   -.428E+02 0.112E+03 0.832E+03   -.184E+00 -.164E+01 0.713E+01
   0.242E+01 -.121E+02 0.950E+03   -.238E+01 0.122E+02 -.941E+03   -.285E-01 -.676E-01 -.713E+01
   -.242E+01 0.121E+02 0.950E+03   0.238E+01 -.122E+02 -.941E+03   0.285E-01 0.677E-01 -.713E+01
   0.788E+01 0.128E+02 -.910E+03   -.792E+01 -.128E+02 0.901E+03   0.243E-01 -.278E-01 0.702E+01
   -.788E+01 -.129E+02 -.910E+03   0.792E+01 0.128E+02 0.901E+03   -.244E-01 0.279E-01 0.702E+01
   0.111E+02 0.281E+02 0.958E+03   -.113E+02 -.281E+02 -.949E+03   0.102E+00 -.720E-02 -.714E+01
   0.289E+01 0.499E+02 0.992E+03   -.338E+01 -.501E+02 -.984E+03   0.319E+00 0.120E+00 -.711E+01
   0.416E+02 0.792E+02 -.870E+03   -.419E+02 -.788E+02 0.862E+03   0.264E+00 -.230E+00 0.694E+01
   0.283E+01 0.581E+02 -.893E+03   -.301E+01 -.583E+02 0.885E+03   0.117E+00 0.138E+00 0.701E+01
   0.277E+02 0.426E+02 0.101E+04   -.282E+02 -.426E+02 -.100E+04   0.302E+00 -.180E-01 -.740E+01
   -.768E+01 0.770E+01 0.105E+04   0.734E+01 -.737E+01 -.104E+04   0.220E+00 -.221E+00 -.740E+01
   0.666E+02 0.666E+02 -.737E+03   -.667E+02 -.667E+02 0.730E+03   0.964E-01 0.964E-01 0.650E+01
   0.624E+02 0.120E+03 -.699E+03   -.655E+02 -.120E+03 0.692E+03   0.175E+01 -.422E+00 0.547E+01
   0.770E+01 -.767E+01 0.105E+04   -.737E+01 0.734E+01 -.104E+04   -.221E+00 0.220E+00 -.740E+01
   -.277E+02 -.426E+02 0.101E+04   0.282E+02 0.426E+02 -.100E+04   -.302E+00 0.180E-01 -.740E+01
   -.624E+02 -.120E+03 -.699E+03   0.655E+02 0.120E+03 0.692E+03   -.175E+01 0.422E+00 0.547E+01
   -.665E+02 -.665E+02 -.737E+03   0.667E+02 0.667E+02 0.730E+03   -.968E-01 -.968E-01 0.650E+01
[...]
   -.181E+02 0.142E+02 0.716E+03   0.182E+02 -.143E+02 -.720E+03   -.206E+00 0.880E-01 0.309E+01
   -.563E+01 0.800E+01 0.706E+03   0.569E+01 -.802E+01 -.710E+03   -.739E-01 0.374E-01 0.306E+01
   -.422E+02 0.143E+02 -.672E+03   0.424E+02 -.143E+02 0.676E+03   -.248E+00 -.811E-01 -.323E+01
   -.142E+02 0.197E+01 -.682E+03   0.143E+02 -.193E+01 0.687E+03   -.501E-01 -.428E-01 -.321E+01
   -.251E+02 -.128E-01 0.723E+03   0.252E+02 0.151E+00 -.727E+03   -.129E+00 -.155E+00 0.305E+01
   -.984E+01 0.738E+01 0.712E+03   0.992E+01 -.736E+01 -.716E+03   -.105E+00 -.141E-01 0.306E+01
   -.339E+02 -.138E+02 -.676E+03   0.339E+02 0.139E+02 0.680E+03   -.152E-02 -.123E+00 -.324E+01
   -.496E+01 -.108E+02 -.685E+03   0.491E+01 0.108E+02 0.689E+03   0.573E-01 -.892E-02 -.320E+01
   -.155E+02 -.121E+02 0.714E+03   0.154E+02 0.122E+02 -.718E+03   0.414E-01 -.348E-01 0.303E+01
   -.646E+01 -.420E+01 0.713E+03   0.645E+01 0.424E+01 -.716E+03   0.884E-02 -.312E-01 0.305E+01
   -.147E+02 -.156E+02 -.686E+03   0.147E+02 0.156E+02 0.690E+03   0.596E-01 0.220E-01 -.320E+01
   -.171E+01 -.840E+01 -.690E+03   0.166E+01 0.840E+01 0.694E+03   0.473E-01 0.598E-02 -.318E+01
   -.770E+01 -.769E+01 0.707E+03   0.767E+01 0.767E+01 -.711E+03   0.266E-01 0.266E-01 0.305E+01
   -.194E+01 -.909E+01 0.708E+03   0.188E+01 0.910E+01 -.712E+03   0.617E-01 -.443E-02 0.305E+01
   -.726E+00 0.724E+00 0.115E+02   0.199E-11 0.119E-11 0.146E-10   0.351E-02 0.351E-02 -.103E+02

 POSITION                                       TOTAL-FORCE (eV/Angst)
      8.54545     12.59441     14.71338        -0.161043      0.161938      0.055586
      7.02105     14.11881     13.31306        -0.020862      0.020091      0.104683
     12.00492      9.13494     13.31306         0.020091     -0.020862      0.104683
     10.48052     10.65934     14.71338         0.161938     -0.161043      0.055586
      0.00000      0.00000      9.00000        -0.008541      0.008516      0.562394
      2.11389      2.11389      9.00000         0.001189      0.015518      0.564052
      0.00000      2.11389     11.11389         0.005455      0.005455     -0.530484
      2.11389      0.00000     11.11389        -0.007886      0.026662     -0.529097
      0.00000      4.22777      9.00000         0.015518      0.001189      0.564052
      2.11389      6.34166      9.00000         0.014841      0.000948      0.568336
      0.00000      6.34166     11.11389         0.025165      0.000765     -0.527360
      2.11389      4.22777     11.11389         0.011890      0.011890     -0.527973
      0.00000      8.45554      9.00000         0.020893     -0.004787      0.566077
      2.11389     10.56943      9.00000         0.000201     -0.033210      0.569081
      0.00000     10.56943     11.11389         0.008747     -0.007727     -0.520721
      2.11389      8.45554     11.11389         0.029938     -0.009820     -0.516612
      0.00000     12.68331      9.00000        -0.021105     -0.009898      0.566965
      2.11389     14.79720      9.00000        -0.096572     -0.014665      0.568470
      0.00000     14.79720     11.11389        -0.039918     -0.006403     -0.523702
      2.11389     12.68331     11.11389        -0.042085     -0.040479     -0.505903
      0.00000     16.91108      9.00000        -0.039728      0.004951      0.564859
      2.11389     19.02497      9.00000        -0.031468      0.031455      0.557697
      0.00000     19.02497     11.11389        -0.026690      0.007871     -0.529064
      2.11389     16.91108     11.11389        -0.093060      0.011870     -0.523002
      4.22777      0.00000      9.00000        -0.004971      0.039691      0.564876
      6.34166      2.11389      9.00000        -0.004787      0.020893      0.566077
      4.22777      2.11389     11.11389         0.000765      0.025165     -0.527360
      6.34166      0.00000     11.11389         0.006394      0.039866     -0.523698
      4.22777      4.22777      9.00000         0.000948      0.014841      0.568336
      6.34166      6.34166      9.00000        -0.017028      0.014181      0.584067
      4.22777      6.34166     11.11389         0.018920      0.018920     -0.514814
      6.34166      4.22777     11.11389        -0.009820      0.029938     -0.516612
      4.22777      8.45554      9.00000         0.014181     -0.017028      0.584067
      6.34166     10.56943      9.00000         0.009341     -0.086802      0.641217
      4.22777     10.56943     11.11389         0.082442     -0.071071     -0.459442
      6.34166      8.45554     11.11389         0.047872      0.047872     -0.451746
      4.22777     12.68331      9.00000        -0.052124     -0.118875      0.542831
      6.34166     14.79720      9.00000         0.064846     -0.064754     -0.004973
      4.22777     14.79720     11.11389        -0.581836     -0.069433     -0.528474
      6.34166     12.68331     11.11389        -0.006887     -1.008290     -0.607553
      4.22777     16.91108      9.00000        -0.082247      0.082258      0.510485
      6.34166     19.02497      9.00000         0.014668      0.096548      0.568697
      4.22777     19.02497     11.11389        -0.011871      0.093045     -0.523002
      6.34166     16.91108     11.11389         0.069484      0.581854     -0.528517
      8.45554      0.00000      9.00000         0.009887      0.021055      0.567003
     10.56943      2.11389      9.00000        -0.009898     -0.021105      0.566965
      8.45554      2.11389     11.11389        -0.007727      0.008747     -0.520721
     10.56943      0.00000     11.11389         0.007718     -0.008810     -0.520692
      8.45554      4.22777      9.00000        -0.033210      0.000201      0.569081
     10.56943      6.34166      9.00000        -0.118875     -0.052124      0.542831
      8.45554      6.34166     11.11389        -0.071071      0.082442     -0.459442
     10.56943      4.22777     11.11389        -0.040479     -0.042085     -0.505903
      8.45554      8.45554      9.00000        -0.086802      0.009341      0.641217
     10.56943     10.56943      9.00000        -0.081819      0.081872      0.600674
      8.45554     10.56943     11.11389        -0.014515     -0.014515     -0.177039
     10.56943      8.45554     11.11389        -1.008290     -0.006887     -0.607553
      8.45554     12.68331      9.00000         0.081872     -0.081819      0.600674
     10.56943     14.79720      9.00000         0.086793     -0.009355      0.641330
      8.45554     14.79720     11.11389         1.009363      0.007217     -0.608737
     10.56943     12.68331     11.11389         0.014611      0.014611     -0.176869
[...]
     19.02497      6.34166     11.11389        -0.036081      0.005206      0.409838
     16.91108      6.34166      9.00000        -0.068565      0.028829     -0.438195
     19.02497      4.22777      9.00000        -0.024503      0.012355     -0.447383
     16.91108      8.45554     11.11389        -0.083646     -0.026647      0.396879
     19.02497     10.56943     11.11389        -0.016765     -0.014238      0.403958
     16.91108     10.56943      9.00000        -0.042751     -0.050729     -0.451414
     19.02497      8.45554      9.00000        -0.034990     -0.004729     -0.448913
     16.91108     12.68331     11.11389        -0.000975     -0.040969      0.393110
     19.02497     14.79720     11.11389         0.019067     -0.002934      0.407557
     16.91108     14.79720      9.00000         0.013816     -0.011585     -0.456675
     19.02497     12.68331      9.00000         0.002999     -0.010337     -0.452336
     16.91108     16.91108     11.11389         0.019670      0.007284      0.406958
     19.02497     19.02497     11.11389         0.015666      0.001997      0.413379
     16.91108     19.02497      9.00000         0.008798      0.008798     -0.450967
     19.02497     16.91108      9.00000         0.020478     -0.001476     -0.450354
    total drift:                               -0.723555      0.727112     -0.476805

  FREE ENERGIE OF THE ION-ELECTRON SYSTEM (eV)
  free  energy   TOTEN  =     -1428.38019325 eV

  energy  without entropy=    -1428.38019325  energy(sigma->0) =    -1428.38019325