 vasp.6.3.0 20Jan22 (build Apr  1 2022 16:44:48) complex
 executed on        HPECrayEX_GCC date 2023.01.09  18:47:10

 INCAR:
   SYSTEM = MgO-rocksalt
   ISMEAR = 0
   SIGMA = 0.05
   EDIFF = 1E-6
   ALGO = ALL
   ISTART = 0
   IBRION = -1
   NSW = 0
   ISYM = 2
   DIPOL = 0.5 0.5 0.5
   IDIPOL = 3
   LDIPOL = .TRUE.
   GGA = RE
   IVDW = 13
   VDW_S8 = 1.7468
   VDW_A1 = 0.5363
   VDW_A2 = 3.0726
   ENCUT = 520
   PREC = Accurate
   LASPH = .TRUE.
   LREAL = Auto
   ISPIN = 1
   NELM = 200
   NELMIN = 8
   NCORE = 4
   KPAR = 2
   LWAVE = .FALSE.
   LCHARG = .FALSE.

 POTCAR:    PAW_PBE Ag 02Apr2005
 POTCAR:    PAW_PBE Mg_pv 13Apr2007
 POTCAR:    PAW_PBE O 08Apr2002
 POTCAR:    PAW_PBE Ag 02Apr2005
   VRHFIN =Ag : s1 d10

   TITEL  = PAW_PBE Ag 02Apr2005
   POMASS =  107.868; ZVAL   =   11.000    mass and valenz
   ENMAX  =  249.844; ENMIN  =  187.383 eV

   TITEL  = PAW_PBE Mg_pv 13Apr2007
   POMASS =   24.305; ZVAL   =    8.000    mass and valenz
   ENMAX  =  403.929; ENMIN  =  302.947 eV

   TITEL  = PAW_PBE O 08Apr2002
   POMASS =   16.000; ZVAL   =    6.000    mass and valenz
   ENMAX  =  400.000; ENMIN  =  300.000 eV

 Optimization of the real space projectors (new method)

 maximal supplied QI-value         = 15.12
 optimisation between [QCUT,QGAM] = [ 11.64, 23.28] = [ 37.95,151.78] Ry
 Optimized for a Real-space Cutoff    1.45 Angstroem

   l    n(q)    QCUT    max X(q) W(low)/X(q) W(high)/X(q)  e(spline)
   2      9    11.641    53.897    0.22E-03    0.42E-04    0.28E-06
   2      9    11.641    52.416    0.23E-03    0.44E-04    0.29E-06
   0     10    11.641   122.045    0.51E-04    0.25E-04    0.16E-06
   0     10    11.641    73.629    0.49E-04    0.24E-04    0.16E-06
   1     10    11.641    15.255    0.99E-04    0.55E-04    0.11E-06
   1     10    11.641     9.562    0.81E-04    0.47E-04    0.95E-07
 Optimization of the real space projectors (new method)

[...]

   l    n(q)    QCUT    max X(q) W(low)/X(q) W(high)/X(q)  e(spline)
   1      8    11.527     2.974    0.44E-04    0.56E-04    0.12E-06
   1      8    11.527     4.279    0.12E-03    0.12E-03    0.26E-06
   0      9    11.527    16.381    0.46E-04    0.64E-04    0.78E-07
   0      9    11.527     5.611    0.26E-04    0.43E-04    0.55E-07
   2      8    11.527     4.652    0.22E-03    0.72E-04    0.47E-07
 Optimization of the real space projectors (new method)

 maximal supplied QI-value         = 24.76
 optimisation between [QCUT,QGAM] = [ 11.64, 23.27] = [ 37.91,151.63] Ry
 Optimized for a Real-space Cutoff    1.14 Angstroem

   l    n(q)    QCUT    max X(q) W(low)/X(q) W(high)/X(q)  e(spline)
   0      8    11.635    20.381    0.10E-03    0.33E-03    0.24E-06
   0      8    11.635    15.268    0.11E-03    0.35E-03    0.26E-06
   1      7    11.635     5.964    0.24E-03    0.31E-03    0.30E-06
   1      7    11.635     5.382    0.22E-03    0.25E-03    0.26E-06
|               ----> ADVICE to this user running VASP <----                  |
|     You enforced a specific xc type in the INCAR file but a different       |
|     type was found in the POTCAR file.                                      |
|     I HOPE YOU KNOW WHAT YOU ARE DOING!                                     |

  PAW_PBE Ag 02Apr2005                  :
  PAW_PBE Mg_pv 13Apr2007               :
  PAW_PBE O 08Apr2002                   :

 POSCAR: Ag Mg  O
  positions in direct lattice
  velocities in cartesian coordinates
|           W    W    AA    RRRRR   N    N  II  N    N   GGGG   !!!           |
|           W    W   A  A   R    R  NN   N  II  NN   N  G    G  !!!           |
|           W    W  A    A  R    R  N N  N  II  N N  N  G       !!!           |
|           W WW W  AAAAAA  RRRRR   N  N N  II  N  N N  G  GGG   !            |
|           WW  WW  A    A  R   R   N   NN  II  N   NN  G    G                |
|           W    W  A    A  R    R  N    N  II  N    N   GGGG   !!!           |
|     Specifying the vdW parameters                                           |
|     VDW_S8 = 1.747                                                          |
|     VDW_A1 = 0.536                                                          |
|     VDW_A2 = 3.073                                                          |
|     in the INCAR file will overwrite the defaults for revpbe. Please        |
|     make sure that is what you intended.                                    |

 ion  position               nearest neighbor table
   1  0.404  0.596  0.628-   2 2.63   4 2.74 157 2.77
   2  0.317  0.683  0.613- 138 2.50   1 2.63  59 3.04  40 3.04
   3  0.583  0.417  0.613- 173 2.50   4 2.63  75 3.04  56 3.04
   4  0.496  0.504  0.628-   3 2.63   1 2.74 154 2.77
   5  0.000  0.000  0.407- 107 2.11 108 2.11 123 2.11 188 2.11 105 2.11
   6  0.100  0.100  0.407- 107 2.11 108 2.11 112 2.11 127 2.11 106 2.11
   7  0.000  0.100  0.503- 105 2.11 106 2.11 109 2.11 186 2.11 107 2.11
   8  0.100  0.000  0.503- 105 2.11 106 2.11 122 2.11 125 2.11 108 2.11
   9  0.000  0.200  0.407- 111 2.11 107 2.11 112 2.11 192 2.11 109 2.11
  10  0.100  0.300  0.407- 112 2.11 111 2.11 116 2.11 131 2.11 110 2.11
  11  0.000  0.300  0.503- 109 2.11 110 2.11 113 2.11 190 2.11 111 2.11
  12  0.100  0.200  0.503- 110 2.11 109 2.11 106 2.11 129 2.11 112 2.11
  13  0.000  0.400  0.407- 111 2.11 115 2.11 116 2.11 196 2.11 113 2.11
  14  0.100  0.500  0.407- 115 2.11 116 2.11 120 2.11 135 2.11 114 2.11
  15  0.000  0.500  0.503- 113 2.11 114 2.11 117 2.11 194 2.11 115 2.11
  16  0.100  0.400  0.503- 110 2.11 113 2.11 114 2.11 133 2.11 116 2.11
  17  0.000  0.600  0.407- 115 2.11 119 2.11 120 2.11 200 2.11 117 2.11
  18  0.100  0.700  0.407- 124 2.11 120 2.11 119 2.11 139 2.11 118 2.11
  19  0.000  0.700  0.503- 121 2.11 118 2.11 117 2.11 198 2.11 119 2.11
  20  0.100  0.600  0.503- 114 2.11 117 2.11 118 2.11 137 2.11 120 2.11
  21  0.000  0.800  0.407- 119 2.11 123 2.11 124 2.11 204 2.11 121 2.11
  22  0.100  0.900  0.407- 108 2.11 123 2.11 124 2.11 143 2.11 122 2.11
  23  0.000  0.900  0.503- 105 2.11 121 2.11 122 2.11 202 2.11 123 2.11
  24  0.100  0.800  0.503- 118 2.11 121 2.11 122 2.11 141 2.11 124 2.11
  25  0.200  0.000  0.407- 128 2.11 127 2.11 108 2.11 143 2.11 125 2.11
  26  0.300  0.100  0.407- 127 2.11 128 2.11 132 2.11 147 2.11 126 2.11
  27  0.200  0.100  0.503- 126 2.11 125 2.11 106 2.11 129 2.11 127 2.11
  28  0.300  0.000  0.503- 125 2.11 126 2.11 142 2.11 145 2.11 128 2.11
  29  0.200  0.200  0.407- 131 2.11 132 2.11 112 2.11 127 2.11 129 2.11
  30  0.300  0.300  0.407- 131 2.11 132 2.11 136 2.11 151 2.11 130 2.11
  31  0.200  0.300  0.503- 129 2.11 130 2.11 110 2.11 133 2.11 131 2.11
  32  0.300  0.200  0.503- 129 2.11 130 2.11 126 2.11 149 2.11 132 2.11
  33  0.200  0.400  0.407- 136 2.11 131 2.11 135 2.11 116 2.11 133 2.11
  34  0.300  0.500  0.407- 135 2.11 136 2.11 140 2.11 155 2.11 134 2.11
  35  0.200  0.500  0.503- 134 2.11 133 2.11 114 2.11 137 2.11 135 2.11
  36  0.300  0.400  0.503- 133 2.11 130 2.11 134 2.11 153 2.11 136 2.11
  37  0.200  0.600  0.407- 140 2.11 135 2.11 139 2.11 120 2.11 137 2.11
  38  0.300  0.700  0.407- 139 2.11 144 2.11 140 2.11 159 2.11 138 2.11
  39  0.200  0.700  0.503- 138 2.11 141 2.11 118 2.11 137 2.11 139 2.11
  40  0.300  0.600  0.503- 137 2.11 134 2.11 138 2.11 157 2.11 140 2.11   2 3.04
  41  0.200  0.800  0.407- 139 2.11 144 2.11 143 2.11 124 2.11 141 2.11
  42  0.300  0.900  0.407- 143 2.11 128 2.11 144 2.11 163 2.11 142 2.11
  43  0.200  0.900  0.503- 142 2.11 125 2.11 141 2.11 122 2.11 143 2.11
  44  0.300  0.800  0.503- 138 2.11 141 2.11 142 2.11 161 2.11 144 2.11
  45  0.400  0.000  0.407- 128 2.11 147 2.11 148 2.11 163 2.11 145 2.11
  46  0.500  0.100  0.407- 147 2.11 148 2.11 152 2.11 167 2.11 146 2.11
  47  0.400  0.100  0.503- 126 2.11 145 2.11 146 2.11 149 2.11 147 2.11
  48  0.500  0.000  0.503- 145 2.11 146 2.11 162 2.11 165 2.11 148 2.11
  49  0.400  0.200  0.407- 151 2.11 147 2.11 132 2.11 152 2.11 149 2.11
  50  0.500  0.300  0.407- 152 2.11 151 2.11 156 2.11 171 2.11 150 2.11
  51  0.400  0.300  0.503- 149 2.11 130 2.11 150 2.11 153 2.11 151 2.11
  52  0.500  0.200  0.503- 150 2.11 149 2.11 146 2.11 169 2.11 152 2.11
  53  0.400  0.400  0.407- 136 2.11 151 2.11 155 2.11 156 2.11 153 2.11
  54  0.500  0.500  0.407- 155 2.11 156 2.11 160 2.11 175 2.11 154 2.11
  55  0.400  0.500  0.503- 134 2.11 153 2.11 154 2.11 157 2.11 155 2.11
  56  0.500  0.400  0.503- 150 2.11 153 2.11 154 2.11 173 2.11 156 2.11   3 3.04
  57  0.400  0.600  0.407- 140 2.11 155 2.11 159 2.11 160 2.11 157 2.11
  58  0.500  0.700  0.407- 164 2.11 160 2.11 159 2.11 179 2.11 158 2.11
  59  0.400  0.700  0.503- 161 2.11 157 2.11 158 2.11 138 2.11 159 2.11   2 3.04
  60  0.500  0.600  0.503- 154 2.11 157 2.11 158 2.11 177 2.11 160 2.11
[...]
 190  0.900  0.300  0.503-  92 2.11  91 2.11  11 2.11  96 2.11  90 2.11
 191  0.800  0.300  0.407-  70 2.11  89 2.11  90 2.11  93 2.11  91 2.11
 192  0.900  0.200  0.407-  90 2.11  86 2.11  89 2.11   9 2.11  92 2.11
 193  0.800  0.400  0.503-  76 2.11  91 2.11  95 2.11  96 2.11  93 2.11
 194  0.900  0.500  0.503-  15 2.11  95 2.11  96 2.11 100 2.11  94 2.11
 195  0.800  0.500  0.407-  74 2.11  93 2.11  94 2.11  97 2.11  95 2.11
 196  0.900  0.400  0.407-  13 2.11  90 2.11  93 2.11  94 2.11  96 2.11
 197  0.800  0.600  0.503-  80 2.11  95 2.11  99 2.11 100 2.11  97 2.11
 198  0.900  0.700  0.503- 104 2.11  99 2.11 100 2.11  19 2.11  98 2.11
 199  0.800  0.700  0.407-  78 2.11 101 2.11  98 2.11  97 2.11  99 2.11
 200  0.900  0.600  0.407-  17 2.11  94 2.11  97 2.11  98 2.11 100 2.11
 201  0.800  0.800  0.503-  84 2.11  99 2.11 103 2.11 104 2.11 101 2.11
 202  0.900  0.900  0.503-  23 2.11  88 2.11 103 2.11 104 2.11 102 2.11
 203  0.800  0.900  0.407-  82 2.11  85 2.11 101 2.11 102 2.11 103 2.11
 204  0.900  0.800  0.407-  98 2.11  21 2.11 101 2.11 102 2.11 104 2.11

  LATTYP: Found a simple tetragonal cell.
 ALAT       =    21.1388521970
 C/A-ratio  =     1.0461251639

  Lattice vectors:

 A1 = (  21.1388521970,   0.0000000000,   0.0000000000)
 A2 = (   0.0000000000,  21.1388521970,   0.0000000000)
 A3 = (   0.0000000000,   0.0000000000,  22.1138852197)

Analysis of symmetry for initial positions (statically):
 Subroutine PRICEL returns:
 Original cell was already a primitive cell.

 Routine SETGRP: Setting up the symmetry group for a
 simple tetragonal supercell.

 Subroutine GETGRP returns: Found  2 space group operations
 (whereof  1 operations were pure point group operations)
 out of a pool of 16 trial point group operations.

The static configuration has the point symmetry C_1 .
 The point group associated with its full space group is C_1h.

Analysis of symmetry for dynamics (positions and initial velocities):
 Subroutine PRICEL returns:
 Original cell was already a primitive cell.

[...]

The dynamic configuration has the point symmetry C_1 .
 The point group associated with its full space group is C_1h.

Analysis of constrained symmetry for selective dynamics:
 Subroutine PRICEL returns:
 Original cell was already a primitive cell.

 Routine SETGRP: Setting up the symmetry group for a
 simple tetragonal supercell.

 Subroutine GETGRP returns: Found  2 space group operations
[...]
     54     -42.9150      2.00000
     55     -42.9130      2.00000
     56     -42.9129      2.00000
     57     -42.9121      2.00000
     58     -42.9119      2.00000
     59     -42.9083      2.00000
     60     -42.9083      2.00000
[...]
    946       6.2003      0.00000
    947       6.2323      0.00000
    948       6.3027      0.00000
    949       6.3225      0.00000
    950       6.4237      0.00000
    951       6.4674      0.00000
    952       6.5458      0.00000
    953       6.5869      0.00000
    954       6.6699      0.00000
    955       6.7312      0.00000
    956       6.7795      0.00000
    957       6.8365      0.00000
    958       6.9440      0.00000
    959       6.9992      0.00000
    960       7.1121      0.00000

 soft charge-density along one line, spin component           1
         0         1         2         3         4         5         6         7         8         9
 total charge-density along one line

------------------------ aborting loop because EDIFF is reached ----------------------------------------

  FORCE on cell =-STRESS in cart. coord.  units (eV):
  Direction    XX          YY          ZZ          XY          YZ          ZX
  Alpha Z  1401.13727  1401.13727  1401.13727
  Ewald  484692.10145484692.10210************ -1322.16574    -0.00388    -0.00457
  Hartree514011.00016514011.00049************ -1069.31078     0.00111     0.00116
  E(xc)   -7908.25701 -7908.25701 -7957.33800    -1.30062     0.00009     0.00009
  Local  ************************************  2383.51493     0.00078     0.00125
  n-local -8750.36163 -8750.36164 -8871.77642     1.48298    -0.00020    -0.00030
  augment  3644.95046  3644.95046  3590.17522     1.60548     0.00113     0.00116
  Kinetic 23248.81543 23248.81545 23498.87236     5.49707     0.00086     0.00086
  Fock        0.00000     0.00000     0.00000     0.00000     0.00000     0.00000
  vdW       -55.29540   -55.29540   -26.78254     0.10177     0.00012     0.00012
  Total    -156.61301  -156.61301    15.65697    -0.57491    -0.00011    -0.00011
  in kB     -25.39280   -25.39280     2.53858    -0.09321    -0.00002    -0.00002

 VOLUME and BASIS-vectors are now :
  energy-cutoff  :      520.00
  volume of cell :     9881.61
      direct lattice vectors                 reciprocal lattice vectors
    21.138852197  0.000000000  0.000000000     0.047306258  0.000000000  0.000000000
     0.000000000 21.138852197  0.000000000     0.000000000  0.047306258  0.000000000
     0.000000000  0.000000000 22.113885220     0.000000000  0.000000000  0.045220457

  length of vectors
    21.138852197 21.138852197 22.113885220     0.047306258  0.047306258  0.045220457

 FORCES acting on ions:
    Electron-Ion                     Ewald-Force                    Non-Local-Force
   0.254E+02 -.254E+02 -.207E+04   -.273E+02 0.273E+02 0.207E+04   0.186E+01 -.186E+01 -.616E-01
   0.234E+03 -.234E+03 -.209E+04   -.231E+03 0.231E+03 0.209E+04   -.396E+01 0.396E+01 -.355E+00
   -.234E+03 0.234E+03 -.209E+04   0.231E+03 -.231E+03 0.209E+04   0.396E+01 -.396E+01 -.355E+00
   -.254E+02 0.254E+02 -.207E+04   0.273E+02 -.273E+02 0.207E+04   -.186E+01 0.186E+01 -.616E-01
   0.489E+01 -.489E+01 0.938E+03   -.492E+01 0.492E+01 -.930E+03   0.207E-01 -.207E-01 -.754E+01
   0.905E+01 0.161E+01 0.939E+03   -.905E+01 -.156E+01 -.931E+03   -.219E-02 -.377E-01 -.755E+01
   0.313E+01 0.313E+01 -.918E+03   -.312E+01 -.312E+01 0.911E+03   -.141E-01 -.141E-01 0.748E+01
   0.146E+02 -.117E+02 -.916E+03   -.146E+02 0.118E+02 0.908E+03   0.182E-01 -.701E-01 0.748E+01
   0.161E+01 0.905E+01 0.939E+03   -.156E+01 -.905E+01 -.931E+03   -.377E-01 -.219E-02 -.755E+01
   0.143E+02 0.157E+02 0.944E+03   -.142E+02 -.157E+02 -.937E+03   -.292E-01 0.344E-02 -.756E+01
   0.211E+01 0.156E+02 -.915E+03   -.203E+01 -.156E+02 0.907E+03   -.620E-01 -.473E-03 0.747E+01
   0.130E+02 0.130E+02 -.916E+03   -.129E+02 -.129E+02 0.908E+03   -.266E-01 -.266E-01 0.747E+01
   0.444E+01 0.112E+02 0.945E+03   -.438E+01 -.112E+02 -.938E+03   -.489E-01 0.128E-01 -.755E+01
   0.288E+02 0.120E+02 0.958E+03   -.289E+02 -.121E+02 -.950E+03   0.156E-01 0.767E-01 -.756E+01
   0.127E+02 0.836E+01 -.909E+03   -.127E+02 -.838E+01 0.901E+03   -.183E-01 0.184E-01 0.747E+01
   0.305E+02 0.240E+02 -.907E+03   -.304E+02 -.241E+02 0.899E+03   -.617E-01 0.297E-01 0.746E+01
   0.128E+02 -.212E+01 0.950E+03   -.129E+02 0.210E+01 -.942E+03   0.552E-01 0.211E-01 -.756E+01
   0.337E+02 -.125E+02 0.962E+03   -.340E+02 0.125E+02 -.955E+03   0.237E+00 0.300E-01 -.757E+01
   0.225E+02 -.126E+02 -.909E+03   -.226E+02 0.125E+02 0.901E+03   0.105E+00 0.143E-01 0.747E+01
   0.606E+02 0.530E+01 -.892E+03   -.608E+02 -.541E+01 0.884E+03   0.118E+00 0.883E-01 0.746E+01
   0.120E+02 -.133E+02 0.945E+03   -.121E+02 0.133E+02 -.937E+03   0.101E+00 -.110E-01 -.755E+01
   0.168E+02 -.168E+02 0.946E+03   -.169E+02 0.169E+02 -.938E+03   0.726E-01 -.726E-01 -.753E+01
   0.117E+02 -.146E+02 -.916E+03   -.118E+02 0.146E+02 0.908E+03   0.702E-01 -.182E-01 0.748E+01
   0.428E+02 -.304E+02 -.901E+03   -.431E+02 0.304E+02 0.893E+03   0.253E+00 -.212E-01 0.748E+01
   0.133E+02 -.120E+02 0.945E+03   -.133E+02 0.122E+02 -.937E+03   0.110E-01 -.101E+00 -.755E+01
   0.112E+02 0.445E+01 0.945E+03   -.112E+02 -.438E+01 -.938E+03   0.128E-01 -.489E-01 -.755E+01
   0.156E+02 0.211E+01 -.915E+03   -.156E+02 -.203E+01 0.907E+03   -.473E-03 -.620E-01 0.747E+01
   0.126E+02 -.225E+02 -.909E+03   -.125E+02 0.226E+02 0.901E+03   -.144E-01 -.105E+00 0.747E+01
   0.157E+02 0.143E+02 0.944E+03   -.157E+02 -.142E+02 -.937E+03   0.344E-02 -.292E-01 -.756E+01
   0.263E+02 0.335E+02 0.964E+03   -.264E+02 -.335E+02 -.956E+03   0.639E-01 -.462E-02 -.760E+01
   0.333E+02 0.333E+02 -.906E+03   -.333E+02 -.333E+02 0.898E+03   -.321E-01 -.321E-01 0.746E+01
   0.240E+02 0.305E+02 -.907E+03   -.241E+02 -.304E+02 0.899E+03   0.297E-01 -.617E-01 0.746E+01
   0.335E+02 0.264E+02 0.964E+03   -.335E+02 -.264E+02 -.956E+03   -.462E-02 0.639E-01 -.760E+01
   0.466E+02 0.293E+02 0.101E+04   -.467E+02 -.296E+02 -.101E+04   0.788E-01 0.273E+00 -.777E+01
   0.816E+02 0.439E+02 -.870E+03   -.814E+02 -.441E+02 0.863E+03   -.118E+00 0.205E+00 0.740E+01
   0.719E+02 0.719E+02 -.863E+03   -.718E+02 -.718E+02 0.856E+03   -.498E-01 -.498E-01 0.739E+01
   0.513E+02 0.400E+01 0.994E+03   -.516E+02 -.427E+01 -.986E+03   0.164E+00 0.209E+00 -.754E+01
   0.340E+02 -.340E+02 0.103E+04   -.340E+02 0.339E+02 -.102E+04   -.136E-01 0.134E-01 -.611E+01
   0.116E+03 -.393E+02 -.827E+03   -.117E+03 0.391E+02 0.819E+03   0.117E+01 0.151E+00 0.752E+01
   0.123E+03 0.488E+02 -.709E+03   -.123E+03 -.506E+02 0.703E+03   0.169E+00 0.129E+01 0.634E+01
   0.324E+02 -.324E+02 0.973E+03   -.326E+02 0.326E+02 -.966E+03   0.142E+00 -.142E+00 -.742E+01
   0.125E+02 -.337E+02 0.962E+03   -.125E+02 0.340E+02 -.955E+03   -.301E-01 -.237E+00 -.757E+01
   0.304E+02 -.428E+02 -.901E+03   -.304E+02 0.431E+02 0.893E+03   0.212E-01 -.253E+00 0.748E+01
   0.393E+02 -.116E+03 -.827E+03   -.391E+02 0.117E+03 0.819E+03   -.151E+00 -.117E+01 0.752E+01
   0.212E+01 -.128E+02 0.950E+03   -.210E+01 0.129E+02 -.942E+03   -.211E-01 -.551E-01 -.756E+01
   -.212E+01 0.128E+02 0.950E+03   0.210E+01 -.129E+02 -.942E+03   0.211E-01 0.552E-01 -.756E+01
   0.835E+01 0.127E+02 -.909E+03   -.838E+01 -.127E+02 0.901E+03   0.184E-01 -.183E-01 0.747E+01
   -.836E+01 -.128E+02 -.909E+03   0.838E+01 0.127E+02 0.901E+03   -.184E-01 0.184E-01 0.747E+01
   0.120E+02 0.289E+02 0.958E+03   -.121E+02 -.289E+02 -.950E+03   0.767E-01 0.156E-01 -.756E+01
   0.399E+01 0.514E+02 0.994E+03   -.427E+01 -.516E+02 -.986E+03   0.209E+00 0.164E+00 -.754E+01
   0.439E+02 0.816E+02 -.870E+03   -.441E+02 -.814E+02 0.863E+03   0.205E+00 -.118E+00 0.740E+01
   0.529E+01 0.606E+02 -.892E+03   -.541E+01 -.608E+02 0.884E+03   0.883E-01 0.118E+00 0.746E+01
   0.293E+02 0.466E+02 0.101E+04   -.296E+02 -.467E+02 -.101E+04   0.273E+00 0.788E-01 -.777E+01
   -.111E+02 0.111E+02 0.106E+04   0.109E+02 -.109E+02 -.105E+04   0.147E+00 -.147E+00 -.729E+01
   0.857E+02 0.857E+02 -.704E+03   -.863E+02 -.863E+02 0.697E+03   0.458E+00 0.458E+00 0.680E+01
   0.488E+02 0.123E+03 -.709E+03   -.506E+02 -.123E+03 0.703E+03   0.129E+01 0.169E+00 0.634E+01
   0.111E+02 -.111E+02 0.106E+04   -.109E+02 0.109E+02 -.105E+04   -.147E+00 0.147E+00 -.729E+01
   -.293E+02 -.466E+02 0.101E+04   0.296E+02 0.467E+02 -.101E+04   -.273E+00 -.788E-01 -.777E+01
   -.488E+02 -.123E+03 -.709E+03   0.506E+02 0.123E+03 0.703E+03   -.129E+01 -.169E+00 0.634E+01
   -.857E+02 -.857E+02 -.704E+03   0.863E+02 0.863E+02 0.697E+03   -.458E+00 -.458E+00 0.680E+01
[...]
   -.193E+02 0.147E+02 0.717E+03   0.194E+02 -.148E+02 -.722E+03   -.164E+00 0.632E-01 0.347E+01
   -.621E+01 0.833E+01 0.707E+03   0.625E+01 -.834E+01 -.711E+03   -.597E-01 0.307E-01 0.343E+01
   -.458E+02 0.136E+02 -.670E+03   0.460E+02 -.135E+02 0.674E+03   -.182E+00 -.679E-01 -.358E+01
   -.151E+02 0.147E+01 -.682E+03   0.151E+02 -.144E+01 0.686E+03   -.413E-01 -.333E-01 -.356E+01
   -.261E+02 -.709E+00 0.724E+03   0.261E+02 0.794E+00 -.728E+03   -.103E+00 -.109E+00 0.342E+01
   -.107E+02 0.733E+01 0.713E+03   0.107E+02 -.732E+01 -.717E+03   -.824E-01 -.106E-01 0.343E+01
   -.345E+02 -.150E+02 -.676E+03   0.345E+02 0.151E+02 0.680E+03   -.139E-01 -.944E-01 -.359E+01
   -.431E+01 -.110E+02 -.685E+03   0.428E+01 0.110E+02 0.690E+03   0.419E-01 -.781E-02 -.355E+01
   -.157E+02 -.126E+02 0.715E+03   0.157E+02 0.126E+02 -.719E+03   0.212E-01 -.317E-01 0.341E+01
   -.650E+01 -.442E+01 0.713E+03   0.649E+01 0.444E+01 -.717E+03   0.392E-02 -.243E-01 0.342E+01
   -.145E+02 -.157E+02 -.686E+03   0.144E+02 0.157E+02 0.690E+03   0.406E-01 0.129E-01 -.355E+01
   -.118E+01 -.845E+01 -.689E+03   0.115E+01 0.845E+01 0.694E+03   0.370E-01 0.356E-02 -.353E+01
   -.765E+01 -.764E+01 0.707E+03   0.763E+01 0.763E+01 -.711E+03   0.180E-01 0.180E-01 0.342E+01
   -.152E+01 -.923E+01 0.708E+03   0.148E+01 0.924E+01 -.712E+03   0.465E-01 -.518E-02 0.343E+01
   -.730E+00 0.730E+00 0.136E+02   0.193E-11 0.134E-11 0.728E-11   -.577E-03 -.577E-03 -.142E+02

 POSITION                                       TOTAL-FORCE (eV/Angst)
      8.54453     12.59533     13.88470         0.019438     -0.019805      0.020375
      6.69899     14.44084     13.56395        -0.110274      0.109747      0.052520
     12.32695      8.81289     13.56395         0.109747     -0.110274      0.052520
     10.48144     10.65841     13.88470        -0.019805      0.019438      0.020375
      0.00000      0.00000      9.00000        -0.005740      0.005740      0.319025
      2.11389      2.11389      9.00000         0.000543      0.010020      0.320450
      0.00000      2.11389     11.11389         0.003705      0.003705     -0.297806
      2.11389      0.00000     11.11389        -0.005197      0.018425     -0.296976
      0.00000      4.22777      9.00000         0.010020      0.000543      0.320450
      2.11389      6.34166      9.00000         0.008022     -0.000434      0.323668
      0.00000      6.34166     11.11389         0.016337      0.000442     -0.295389
      2.11389      4.22777     11.11389         0.007388      0.007388     -0.295772
      0.00000      8.45554      9.00000         0.012611     -0.003220      0.322063
      2.11389     10.56943      9.00000        -0.005205     -0.021403      0.324878
      0.00000     10.56943     11.11389         0.005355     -0.004865     -0.291150
      2.11389      8.45554     11.11389         0.017472     -0.006487     -0.287739
      0.00000     12.68331      9.00000        -0.014543     -0.006291      0.322407
      2.11389     14.79720      9.00000        -0.059195     -0.009159      0.323113
      0.00000     14.79720     11.11389        -0.026012     -0.004445     -0.292824
      2.11389     12.68331     11.11389        -0.025457     -0.024237     -0.277784
      0.00000     16.91108      9.00000        -0.026309      0.003231      0.320339
      2.11389     19.02497      9.00000        -0.020992      0.020997      0.314961
      0.00000     19.02497     11.11389        -0.018425      0.005199     -0.296977
      2.11389     16.91108     11.11389        -0.064654      0.005323     -0.293156
      4.22777      0.00000      9.00000        -0.003222      0.026308      0.320341
      6.34166      2.11389      9.00000        -0.003220      0.012611      0.322063
      4.22777      2.11389     11.11389         0.000442      0.016337     -0.295389
      6.34166      0.00000     11.11389         0.004460      0.026002     -0.292825
      4.22777      4.22777      9.00000        -0.000434      0.008022      0.323668
      6.34166      6.34166      9.00000        -0.015191      0.002301      0.335176
      4.22777      6.34166     11.11389         0.010431      0.010431     -0.286304
      6.34166      4.22777     11.11389        -0.006487      0.017472     -0.287739
      4.22777      8.45554      9.00000         0.002301     -0.015191      0.335176
      6.34166     10.56943      9.00000        -0.017752     -0.068214      0.374896
      4.22777     10.56943     11.11389         0.050475     -0.038895     -0.235975
      6.34166      8.45554     11.11389         0.029157      0.029157     -0.235477
      4.22777     12.68331      9.00000        -0.048420     -0.066009      0.313458
      6.34166     14.79720      9.00000         0.007175     -0.007116     -0.006237
      4.22777     14.79720     11.11389        -0.374272     -0.053574     -0.336357
      6.34166     12.68331     11.11389        -0.047410     -0.512530     -0.100923
      4.22777     16.91108      9.00000        -0.046441      0.046462      0.281091
      6.34166     19.02497      9.00000         0.009174      0.059189      0.323119
      4.22777     19.02497     11.11389        -0.005306      0.064652     -0.293156
      6.34166     16.91108     11.11389         0.053605      0.374346     -0.336419
      8.45554      0.00000      9.00000         0.006300      0.014538      0.322409
     10.56943      2.11389      9.00000        -0.006291     -0.014543      0.322407
      8.45554      2.11389     11.11389        -0.004865      0.005355     -0.291150
     10.56943      0.00000     11.11389         0.004878     -0.005373     -0.291144
      8.45554      4.22777      9.00000        -0.021403     -0.005205      0.324878
     10.56943      6.34166      9.00000        -0.066009     -0.048420      0.313458
      8.45554      6.34166     11.11389        -0.038895      0.050475     -0.235975
     10.56943      4.22777     11.11389        -0.024237     -0.025457     -0.277784
      8.45554      8.45554      9.00000        -0.068214     -0.017752      0.374896
     10.56943     10.56943      9.00000        -0.047924      0.047983      0.243512
      8.45554     10.56943     11.11389        -0.147968     -0.147968     -0.098249
     10.56943      8.45554     11.11389        -0.512530     -0.047410     -0.100923
      8.45554     12.68331      9.00000         0.047983     -0.047924      0.243512
     10.56943     14.79720      9.00000         0.068239      0.017758      0.374956
      8.45554     14.79720     11.11389         0.512918      0.047469     -0.101011
     10.56943     12.68331     11.11389         0.148126      0.148126     -0.098158
[...]
     19.02497      6.34166     11.11389        -0.024625      0.003502      0.488117
     16.91108      6.34166      9.00000        -0.046599      0.017681     -0.504094
     19.02497      4.22777      9.00000        -0.016566      0.008556     -0.512735
     16.91108      8.45554     11.11389        -0.057971     -0.018016      0.483474
     19.02497     10.56943     11.11389        -0.012166     -0.009338      0.483344
     16.91108     10.56943      9.00000        -0.031111     -0.030270     -0.515525
     19.02497      8.45554      9.00000        -0.023209     -0.002962     -0.513963
     16.91108     12.68331     11.11389        -0.005823     -0.027184      0.474817
     19.02497     14.79720     11.11389         0.011609     -0.002160      0.485515
     16.91108     14.79720      9.00000         0.005535     -0.009026     -0.519434
     19.02497     12.68331      9.00000         0.000950     -0.006706     -0.516530
     16.91108     16.91108     11.11389         0.010995      0.003349      0.484842
     19.02497     19.02497     11.11389         0.010212      0.000895      0.489705
     16.91108     19.02497      9.00000         0.004890      0.004890     -0.515356
     19.02497     16.91108      9.00000         0.012876     -0.001486     -0.514874
    total drift:                               -0.730476      0.729150     -0.640379

  FREE ENERGIE OF THE ION-ELECTRON SYSTEM (eV)
  free  energy   TOTEN  =     -1134.04749683 eV

  energy  without entropy=    -1134.04749683  energy(sigma->0) =    -1134.04749683