 vasp.6.4.0 14Feb23 (build Jul 14 2023 13:46:40) complex

 executed on             LinuxIFC date 2023.07.30  07:16:34

 INCAR:
   SYSTEM = MgO-rocksalt
   ISMEAR = 0
   SIGMA = 0.05
   EDIFF = 1E-6
   ALGO = ALL
   ISTART = 0
   IBRION = -1
   NSW = 0
   ISYM = 2
   DIPOL = 0.5 0.5 0.5
   IDIPOL = 3
   LDIPOL = .TRUE.
   METAGGA = R2SCAN
   LUSE_VDW = .TRUE.
   BPARAM = 11.95
   CPARAM = 0.0093
   ENCUT = 520
   PREC = Accurate
   LASPH = .TRUE.
   LREAL = Auto
   ISPIN = 1
   NELM = 200
   NELMIN = 8
   NCORE = 16
   KPAR = 1
   LWAVE = .FALSE.
   LCHARG = .FALSE.

 POTCAR:    PAW_PBE Ag 02Apr2005
 POTCAR:    PAW_PBE Mg_pv 13Apr2007
 POTCAR:    PAW_PBE O 08Apr2002
|               ----> ADVICE to this user running VASP <----                  |
|     You have switched on vdW-DFT.                                           |
|     This routine was written and supplied by Jiri Klimes. We recommend      |
|     that you carefully read and cite the following publications:            |
|       J. Klimes, D.R. Bowler, A. Michelides                                 |
|          J. Phys.: Cond Matt. 22 022201 (2010)                              |
|       J. Klimes, D.R. Bowler, A. Michelides                                 |
|          Phys. Rev. B. 83, 195131 (2011)                                    |
|     and references therein.                                                 |

   TITEL  = PAW_PBE Ag 02Apr2005
   POMASS =  107.868; ZVAL   =   11.000    mass and valenz
   ENMAX  =  249.844; ENMIN  =  187.383 eV

   TITEL  = PAW_PBE Mg_pv 13Apr2007
   POMASS =   24.305; ZVAL   =    8.000    mass and valenz
   ENMAX  =  403.929; ENMIN  =  302.947 eV

   TITEL  = PAW_PBE O 08Apr2002
   POMASS =   16.000; ZVAL   =    6.000    mass and valenz
   ENMAX  =  400.000; ENMIN  =  300.000 eV

 Optimization of the real space projectors (new method)

 maximal supplied QI-value         = 15.12
 optimisation between [QCUT,QGAM] = [ 11.64, 23.28] = [ 37.95,151.78] Ry
 Optimized for a Real-space Cutoff    1.45 Angstroem

   l    n(q)    QCUT    max X(q) W(low)/X(q) W(high)/X(q)  e(spline)
   2      9    11.641    53.897    0.22E-03    0.42E-04    0.28E-06
   2      9    11.641    52.416    0.23E-03    0.44E-04    0.29E-06
   0     10    11.641   122.045    0.51E-04    0.25E-04    0.16E-06
   0     10    11.641    73.629    0.49E-04    0.24E-04    0.16E-06
   1     10    11.641    15.255    0.99E-04    0.55E-04    0.11E-06
   1     10    11.641     9.562    0.81E-04    0.47E-04    0.95E-07
 Optimization of the real space projectors (new method)

[...]

   l    n(q)    QCUT    max X(q) W(low)/X(q) W(high)/X(q)  e(spline)
   1      8    11.527     2.974    0.44E-04    0.56E-04    0.12E-06
   1      8    11.527     4.279    0.12E-03    0.12E-03    0.26E-06
   0      9    11.527    16.381    0.46E-04    0.64E-04    0.78E-07
   0      9    11.527     5.611    0.26E-04    0.43E-04    0.55E-07
   2      8    11.527     4.652    0.22E-03    0.72E-04    0.47E-07
 Optimization of the real space projectors (new method)

 maximal supplied QI-value         = 24.76
 optimisation between [QCUT,QGAM] = [ 11.64, 23.27] = [ 37.91,151.63] Ry
 Optimized for a Real-space Cutoff    1.14 Angstroem

   l    n(q)    QCUT    max X(q) W(low)/X(q) W(high)/X(q)  e(spline)
   0      8    11.635    20.381    0.10E-03    0.33E-03    0.24E-06
   0      8    11.635    15.268    0.11E-03    0.35E-03    0.26E-06
   1      7    11.635     5.964    0.24E-03    0.31E-03    0.30E-06
   1      7    11.635     5.382    0.22E-03    0.25E-03    0.26E-06
  PAW_PBE Ag 02Apr2005                  :
  PAW_PBE Mg_pv 13Apr2007               :
  PAW_PBE O 08Apr2002                   :

 POSCAR: Ag Mg  O
  positions in direct lattice
  velocities in cartesian coordinates

 METAGGA = R2SCAN                                      LMAXTAU =  6    LMIXTAU =  F

 ion  position               nearest neighbor table
   1  0.404  0.596  0.628-   2 2.63   4 2.74 157 2.77
   2  0.317  0.683  0.613- 138 2.50   1 2.63  59 3.04  40 3.04
   3  0.583  0.417  0.613- 173 2.50   4 2.63  75 3.04  56 3.04
   4  0.496  0.504  0.628-   3 2.63   1 2.74 154 2.77
   5  0.000  0.000  0.407- 107 2.11 108 2.11 123 2.11 188 2.11 105 2.11
   6  0.100  0.100  0.407- 107 2.11 108 2.11 112 2.11 127 2.11 106 2.11
   7  0.000  0.100  0.503- 105 2.11 106 2.11 109 2.11 186 2.11 107 2.11
   8  0.100  0.000  0.503- 105 2.11 106 2.11 122 2.11 125 2.11 108 2.11
   9  0.000  0.200  0.407- 111 2.11 107 2.11 112 2.11 192 2.11 109 2.11
  10  0.100  0.300  0.407- 112 2.11 111 2.11 116 2.11 131 2.11 110 2.11
  11  0.000  0.300  0.503- 109 2.11 110 2.11 113 2.11 190 2.11 111 2.11
  12  0.100  0.200  0.503- 110 2.11 109 2.11 106 2.11 129 2.11 112 2.11
  13  0.000  0.400  0.407- 111 2.11 115 2.11 116 2.11 196 2.11 113 2.11
  14  0.100  0.500  0.407- 115 2.11 116 2.11 120 2.11 135 2.11 114 2.11
  15  0.000  0.500  0.503- 113 2.11 114 2.11 117 2.11 194 2.11 115 2.11
  16  0.100  0.400  0.503- 110 2.11 113 2.11 114 2.11 133 2.11 116 2.11
  17  0.000  0.600  0.407- 115 2.11 119 2.11 120 2.11 200 2.11 117 2.11
  18  0.100  0.700  0.407- 124 2.11 120 2.11 119 2.11 139 2.11 118 2.11
  19  0.000  0.700  0.503- 121 2.11 118 2.11 117 2.11 198 2.11 119 2.11
  20  0.100  0.600  0.503- 114 2.11 117 2.11 118 2.11 137 2.11 120 2.11
  21  0.000  0.800  0.407- 119 2.11 123 2.11 124 2.11 204 2.11 121 2.11
  22  0.100  0.900  0.407- 108 2.11 123 2.11 124 2.11 143 2.11 122 2.11
  23  0.000  0.900  0.503- 105 2.11 121 2.11 122 2.11 202 2.11 123 2.11
  24  0.100  0.800  0.503- 118 2.11 121 2.11 122 2.11 141 2.11 124 2.11
  25  0.200  0.000  0.407- 128 2.11 127 2.11 108 2.11 143 2.11 125 2.11
  26  0.300  0.100  0.407- 127 2.11 128 2.11 132 2.11 147 2.11 126 2.11
  27  0.200  0.100  0.503- 126 2.11 125 2.11 106 2.11 129 2.11 127 2.11
  28  0.300  0.000  0.503- 125 2.11 126 2.11 142 2.11 145 2.11 128 2.11
  29  0.200  0.200  0.407- 131 2.11 132 2.11 112 2.11 127 2.11 129 2.11
  30  0.300  0.300  0.407- 131 2.11 132 2.11 136 2.11 151 2.11 130 2.11
  31  0.200  0.300  0.503- 129 2.11 130 2.11 110 2.11 133 2.11 131 2.11
  32  0.300  0.200  0.503- 129 2.11 130 2.11 126 2.11 149 2.11 132 2.11
  33  0.200  0.400  0.407- 136 2.11 131 2.11 135 2.11 116 2.11 133 2.11
  34  0.300  0.500  0.407- 135 2.11 136 2.11 140 2.11 155 2.11 134 2.11
  35  0.200  0.500  0.503- 134 2.11 133 2.11 114 2.11 137 2.11 135 2.11
  36  0.300  0.400  0.503- 133 2.11 130 2.11 134 2.11 153 2.11 136 2.11
  37  0.200  0.600  0.407- 140 2.11 135 2.11 139 2.11 120 2.11 137 2.11
  38  0.300  0.700  0.407- 139 2.11 144 2.11 140 2.11 159 2.11 138 2.11
  39  0.200  0.700  0.503- 138 2.11 141 2.11 118 2.11 137 2.11 139 2.11
  40  0.300  0.600  0.503- 137 2.11 134 2.11 138 2.11 157 2.11 140 2.11   2 3.04
  41  0.200  0.800  0.407- 139 2.11 144 2.11 143 2.11 124 2.11 141 2.11
  42  0.300  0.900  0.407- 143 2.11 128 2.11 144 2.11 163 2.11 142 2.11
  43  0.200  0.900  0.503- 142 2.11 125 2.11 141 2.11 122 2.11 143 2.11
  44  0.300  0.800  0.503- 138 2.11 141 2.11 142 2.11 161 2.11 144 2.11
  45  0.400  0.000  0.407- 128 2.11 147 2.11 148 2.11 163 2.11 145 2.11
  46  0.500  0.100  0.407- 147 2.11 148 2.11 152 2.11 167 2.11 146 2.11
  47  0.400  0.100  0.503- 126 2.11 145 2.11 146 2.11 149 2.11 147 2.11
  48  0.500  0.000  0.503- 145 2.11 146 2.11 162 2.11 165 2.11 148 2.11
  49  0.400  0.200  0.407- 151 2.11 147 2.11 132 2.11 152 2.11 149 2.11
  50  0.500  0.300  0.407- 152 2.11 151 2.11 156 2.11 171 2.11 150 2.11
  51  0.400  0.300  0.503- 149 2.11 130 2.11 150 2.11 153 2.11 151 2.11
  52  0.500  0.200  0.503- 150 2.11 149 2.11 146 2.11 169 2.11 152 2.11
  53  0.400  0.400  0.407- 136 2.11 151 2.11 155 2.11 156 2.11 153 2.11
  54  0.500  0.500  0.407- 155 2.11 156 2.11 160 2.11 175 2.11 154 2.11
  55  0.400  0.500  0.503- 134 2.11 153 2.11 154 2.11 157 2.11 155 2.11
  56  0.500  0.400  0.503- 150 2.11 153 2.11 154 2.11 173 2.11 156 2.11   3 3.04
  57  0.400  0.600  0.407- 140 2.11 155 2.11 159 2.11 160 2.11 157 2.11
  58  0.500  0.700  0.407- 164 2.11 160 2.11 159 2.11 179 2.11 158 2.11
  59  0.400  0.700  0.503- 161 2.11 157 2.11 158 2.11 138 2.11 159 2.11   2 3.04
  60  0.500  0.600  0.503- 154 2.11 157 2.11 158 2.11 177 2.11 160 2.11
[...]
 190  0.900  0.300  0.503-  92 2.11  91 2.11  11 2.11  96 2.11  90 2.11
 191  0.800  0.300  0.407-  70 2.11  89 2.11  90 2.11  93 2.11  91 2.11
 192  0.900  0.200  0.407-  90 2.11  86 2.11  89 2.11   9 2.11  92 2.11
 193  0.800  0.400  0.503-  76 2.11  91 2.11  95 2.11  96 2.11  93 2.11
 194  0.900  0.500  0.503-  15 2.11  95 2.11  96 2.11 100 2.11  94 2.11
 195  0.800  0.500  0.407-  74 2.11  93 2.11  94 2.11  97 2.11  95 2.11
 196  0.900  0.400  0.407-  13 2.11  90 2.11  93 2.11  94 2.11  96 2.11
 197  0.800  0.600  0.503-  80 2.11  95 2.11  99 2.11 100 2.11  97 2.11
 198  0.900  0.700  0.503- 104 2.11  99 2.11 100 2.11  19 2.11  98 2.11
 199  0.800  0.700  0.407-  78 2.11 101 2.11  98 2.11  97 2.11  99 2.11
 200  0.900  0.600  0.407-  17 2.11  94 2.11  97 2.11  98 2.11 100 2.11
 201  0.800  0.800  0.503-  84 2.11  99 2.11 103 2.11 104 2.11 101 2.11
 202  0.900  0.900  0.503-  23 2.11  88 2.11 103 2.11 104 2.11 102 2.11
 203  0.800  0.900  0.407-  82 2.11  85 2.11 101 2.11 102 2.11 103 2.11
 204  0.900  0.800  0.407-  98 2.11  21 2.11 101 2.11 102 2.11 104 2.11

  LATTYP: Found a simple tetragonal cell.
 ALAT       =    21.1388521970
 C/A-ratio  =     1.0461251639

  Lattice vectors:

 A1 = (  21.1388521970,   0.0000000000,   0.0000000000)
 A2 = (   0.0000000000,  21.1388521970,   0.0000000000)
 A3 = (   0.0000000000,   0.0000000000,  22.1138852197)

Analysis of symmetry for initial positions (statically):
 Subroutine PRICEL returns:
 Original cell was already a primitive cell.

 Routine SETGRP: Setting up the symmetry group for a
 simple tetragonal supercell.

 Subroutine GETGRP returns: Found  2 space group operations
 (whereof  1 operations were pure point group operations)
 out of a pool of 16 trial point group operations.

The static configuration has the point symmetry C_1 .
 The point group associated with its full space group is C_1h.

Analysis of symmetry for dynamics (positions and initial velocities):
 Subroutine PRICEL returns:
 Original cell was already a primitive cell.

[...]

The dynamic configuration has the point symmetry C_1 .
 The point group associated with its full space group is C_1h.

Analysis of constrained symmetry for selective dynamics:
 Subroutine PRICEL returns:
 Original cell was already a primitive cell.

 Routine SETGRP: Setting up the symmetry group for a
 simple tetragonal supercell.

 Subroutine GETGRP returns: Found  2 space group operations
 (whereof  1 operations were pure point group operations)
 out of a pool of 16 trial point group operations.

The constrained configuration has the point symmetry C_1 .
 The point group associated with its full space group is C_1h.

 Subroutine INISYM returns: Found  2 space group operations
 (whereof  1 operations are pure point group operations),
 and found     1 'primitive' translations

                                     Primitive cell

  volume of cell :    9881.6133

  direct lattice vectors                    reciprocal lattice vectors
[...]
     52     -44.4276      2.00000
     53     -44.4211      2.00000
     54     -44.4211      2.00000
     55     -44.4201      2.00000
     56     -44.4200      2.00000
     57     -44.4188      2.00000
     58     -44.4157      2.00000
     59     -44.4157      2.00000
     60     -44.4152      2.00000
[...]
    882       5.0416      0.00000
    883       5.0833      0.00000
    884       5.1052      0.00000
    885       5.3032      0.00000
    886       5.3186      0.00000
    887       5.3784      0.00000
    888       5.3855      0.00000
    889       5.6909      0.00000
    890       5.7820      0.00000
    891       5.8321      0.00000
    892       5.8984      0.00000
    893       5.9603      0.00000
    894       5.9956      0.00000
    895       6.0508      0.00000
    896       6.1064      0.00000

 soft charge-density along one line, spin component           1
         0         1         2         3         4         5         6         7         8         9
 total charge-density along one line

------------------------ aborting loop because EDIFF is reached ----------------------------------------

  FORCE on cell =-STRESS in cart. coord.  units (eV):
  Direction    XX          YY          ZZ          XY          YZ          ZX
  Alpha Z  1401.13727  1401.13727  1401.13727
  Ewald  484692.10145484692.10210************ -1322.16574    -0.00388    -0.00457
  Hartree514130.87847514130.87881************ -1068.61789     0.00154     0.00160
  E(xc)   -8524.36144 -8524.36144 -8515.33219    -0.21161     0.00009     0.00008
  Local  ************************************  2382.97341     0.00032     0.00079
  n-local -8726.23582 -8726.23583 -8849.49235     1.56238    -0.00029    -0.00041
  augment  4072.72643  4072.72643  4018.58424     1.37999     0.00125     0.00129
  Kinetic 23279.38565 23279.38572 23509.23521     5.61134     0.00071     0.00064
  Fock        0.00000     0.00000     0.00000     0.00000     0.00000     0.00000
  Total    -230.88045  -230.88045   -20.38807     0.53189    -0.00042    -0.00042
  in kB     -37.43431   -37.43431    -3.30566     0.08624    -0.00007    -0.00007

 VOLUME and BASIS-vectors are now :
  energy-cutoff  :      520.00
  volume of cell :     9881.61
      direct lattice vectors                 reciprocal lattice vectors
    21.138852197  0.000000000  0.000000000     0.047306258  0.000000000  0.000000000
     0.000000000 21.138852197  0.000000000     0.000000000  0.047306258  0.000000000
     0.000000000  0.000000000 22.113885220     0.000000000  0.000000000  0.045220457

  length of vectors
    21.138852197 21.138852197 22.113885220     0.047306258  0.047306258  0.045220457

 FORCES acting on ions:
    Electron-Ion                     Ewald-Force                    Non-Local-Force
   0.250E+02 -.250E+02 -.207E+04   -.273E+02 0.273E+02 0.207E+04   0.222E+01 -.222E+01 -.262E+00
   0.235E+03 -.235E+03 -.209E+04   -.231E+03 0.231E+03 0.209E+04   -.438E+01 0.438E+01 -.604E+00
   -.235E+03 0.235E+03 -.209E+04   0.231E+03 -.231E+03 0.209E+04   0.438E+01 -.438E+01 -.604E+00
   -.250E+02 0.250E+02 -.207E+04   0.273E+02 -.273E+02 0.207E+04   -.222E+01 0.222E+01 -.262E+00
   0.489E+01 -.489E+01 0.938E+03   -.492E+01 0.492E+01 -.930E+03   0.217E-01 -.216E-01 -.751E+01
   0.905E+01 0.161E+01 0.939E+03   -.905E+01 -.156E+01 -.931E+03   -.221E-02 -.392E-01 -.752E+01
   0.313E+01 0.314E+01 -.919E+03   -.312E+01 -.312E+01 0.911E+03   -.147E-01 -.147E-01 0.750E+01
   0.146E+02 -.117E+02 -.916E+03   -.146E+02 0.118E+02 0.908E+03   0.198E-01 -.736E-01 0.750E+01
   0.161E+01 0.905E+01 0.939E+03   -.156E+01 -.905E+01 -.931E+03   -.392E-01 -.221E-02 -.752E+01
   0.143E+02 0.157E+02 0.945E+03   -.142E+02 -.157E+02 -.937E+03   -.302E-01 0.326E-02 -.753E+01
   0.211E+01 0.156E+02 -.915E+03   -.203E+01 -.156E+02 0.907E+03   -.657E-01 -.144E-02 0.750E+01
   0.130E+02 0.130E+02 -.916E+03   -.129E+02 -.129E+02 0.908E+03   -.285E-01 -.285E-01 0.750E+01
   0.445E+01 0.112E+02 0.946E+03   -.438E+01 -.112E+02 -.938E+03   -.509E-01 0.126E-01 -.753E+01
   0.288E+02 0.120E+02 0.958E+03   -.289E+02 -.121E+02 -.950E+03   0.177E-01 0.789E-01 -.754E+01
   0.127E+02 0.835E+01 -.909E+03   -.127E+02 -.838E+01 0.901E+03   -.206E-01 0.193E-01 0.749E+01
   0.305E+02 0.240E+02 -.907E+03   -.304E+02 -.241E+02 0.899E+03   -.649E-01 0.288E-01 0.748E+01
   0.128E+02 -.212E+01 0.950E+03   -.129E+02 0.210E+01 -.942E+03   0.564E-01 0.230E-01 -.753E+01
   0.337E+02 -.125E+02 0.963E+03   -.340E+02 0.125E+02 -.955E+03   0.230E+00 0.329E-01 -.753E+01
   0.225E+02 -.126E+02 -.909E+03   -.226E+02 0.125E+02 0.901E+03   0.114E+00 0.164E-01 0.750E+01
   0.606E+02 0.528E+01 -.892E+03   -.608E+02 -.541E+01 0.884E+03   0.125E+00 0.995E-01 0.747E+01
   0.120E+02 -.133E+02 0.945E+03   -.121E+02 0.133E+02 -.937E+03   0.104E+00 -.119E-01 -.752E+01
   0.168E+02 -.168E+02 0.946E+03   -.169E+02 0.169E+02 -.938E+03   0.758E-01 -.758E-01 -.750E+01
   0.117E+02 -.146E+02 -.916E+03   -.118E+02 0.146E+02 0.908E+03   0.736E-01 -.198E-01 0.750E+01
   0.428E+02 -.304E+02 -.901E+03   -.431E+02 0.304E+02 0.893E+03   0.268E+00 -.262E-01 0.751E+01
   0.133E+02 -.120E+02 0.945E+03   -.133E+02 0.122E+02 -.937E+03   0.118E-01 -.104E+00 -.752E+01
   0.112E+02 0.445E+01 0.946E+03   -.112E+02 -.438E+01 -.938E+03   0.126E-01 -.509E-01 -.753E+01
   0.156E+02 0.212E+01 -.915E+03   -.156E+02 -.203E+01 0.907E+03   -.144E-02 -.657E-01 0.750E+01
   0.126E+02 -.225E+02 -.909E+03   -.125E+02 0.226E+02 0.901E+03   -.165E-01 -.114E+00 0.750E+01
   0.157E+02 0.143E+02 0.945E+03   -.157E+02 -.142E+02 -.937E+03   0.326E-02 -.302E-01 -.753E+01
   0.263E+02 0.335E+02 0.964E+03   -.264E+02 -.335E+02 -.956E+03   0.655E-01 -.299E-02 -.757E+01
   0.333E+02 0.333E+02 -.906E+03   -.333E+02 -.333E+02 0.898E+03   -.349E-01 -.349E-01 0.748E+01
   0.240E+02 0.305E+02 -.907E+03   -.241E+02 -.304E+02 0.899E+03   0.288E-01 -.649E-01 0.748E+01
   0.335E+02 0.263E+02 0.964E+03   -.335E+02 -.264E+02 -.956E+03   -.299E-02 0.655E-01 -.757E+01
   0.466E+02 0.293E+02 0.101E+04   -.467E+02 -.296E+02 -.101E+04   0.706E-01 0.264E+00 -.772E+01
   0.816E+02 0.439E+02 -.871E+03   -.814E+02 -.441E+02 0.863E+03   -.115E+00 0.210E+00 0.739E+01
   0.719E+02 0.719E+02 -.863E+03   -.718E+02 -.718E+02 0.856E+03   -.448E-01 -.448E-01 0.738E+01
   0.514E+02 0.399E+01 0.994E+03   -.516E+02 -.427E+01 -.986E+03   0.160E+00 0.211E+00 -.750E+01
   0.340E+02 -.340E+02 0.103E+04   -.340E+02 0.339E+02 -.102E+04   -.157E-01 0.156E-01 -.615E+01
   0.116E+03 -.393E+02 -.827E+03   -.117E+03 0.391E+02 0.819E+03   0.115E+01 0.164E+00 0.754E+01
   0.123E+03 0.488E+02 -.709E+03   -.123E+03 -.506E+02 0.703E+03   0.162E+00 0.134E+01 0.640E+01
   0.324E+02 -.324E+02 0.974E+03   -.326E+02 0.326E+02 -.966E+03   0.141E+00 -.141E+00 -.737E+01
   0.125E+02 -.337E+02 0.963E+03   -.125E+02 0.340E+02 -.955E+03   -.329E-01 -.230E+00 -.753E+01
   0.304E+02 -.428E+02 -.901E+03   -.304E+02 0.431E+02 0.893E+03   0.262E-01 -.268E+00 0.751E+01
   0.393E+02 -.116E+03 -.827E+03   -.391E+02 0.117E+03 0.819E+03   -.164E+00 -.115E+01 0.754E+01
   0.213E+01 -.128E+02 0.950E+03   -.210E+01 0.129E+02 -.942E+03   -.230E-01 -.563E-01 -.753E+01
   -.213E+01 0.128E+02 0.950E+03   0.210E+01 -.129E+02 -.942E+03   0.230E-01 0.564E-01 -.753E+01
   0.835E+01 0.127E+02 -.909E+03   -.838E+01 -.127E+02 0.901E+03   0.193E-01 -.206E-01 0.749E+01
   -.835E+01 -.128E+02 -.909E+03   0.838E+01 0.127E+02 0.901E+03   -.193E-01 0.207E-01 0.749E+01
   0.120E+02 0.288E+02 0.958E+03   -.121E+02 -.289E+02 -.950E+03   0.789E-01 0.177E-01 -.754E+01
   0.399E+01 0.514E+02 0.994E+03   -.427E+01 -.516E+02 -.986E+03   0.211E+00 0.160E+00 -.750E+01
   0.439E+02 0.816E+02 -.871E+03   -.441E+02 -.814E+02 0.863E+03   0.210E+00 -.115E+00 0.739E+01
   0.528E+01 0.606E+02 -.892E+03   -.541E+01 -.608E+02 0.884E+03   0.995E-01 0.125E+00 0.747E+01
   0.293E+02 0.466E+02 0.101E+04   -.296E+02 -.467E+02 -.101E+04   0.264E+00 0.706E-01 -.772E+01
   -.111E+02 0.111E+02 0.106E+04   0.109E+02 -.109E+02 -.105E+04   0.150E+00 -.150E+00 -.731E+01
   0.857E+02 0.857E+02 -.704E+03   -.863E+02 -.863E+02 0.697E+03   0.452E+00 0.452E+00 0.681E+01
   0.488E+02 0.123E+03 -.709E+03   -.506E+02 -.123E+03 0.703E+03   0.134E+01 0.162E+00 0.640E+01
   0.111E+02 -.111E+02 0.106E+04   -.109E+02 0.109E+02 -.105E+04   -.150E+00 0.150E+00 -.731E+01
   -.293E+02 -.466E+02 0.101E+04   0.296E+02 0.467E+02 -.101E+04   -.264E+00 -.706E-01 -.772E+01
   -.487E+02 -.123E+03 -.709E+03   0.506E+02 0.123E+03 0.703E+03   -.134E+01 -.163E+00 0.640E+01
   -.857E+02 -.857E+02 -.704E+03   0.863E+02 0.863E+02 0.697E+03   -.452E+00 -.452E+00 0.681E+01
[...]
   -.193E+02 0.147E+02 0.718E+03   0.194E+02 -.148E+02 -.722E+03   -.174E+00 0.641E-01 0.349E+01
   -.621E+01 0.833E+01 0.707E+03   0.625E+01 -.834E+01 -.711E+03   -.634E-01 0.324E-01 0.345E+01
   -.458E+02 0.136E+02 -.670E+03   0.460E+02 -.135E+02 0.674E+03   -.198E+00 -.745E-01 -.358E+01
   -.151E+02 0.147E+01 -.683E+03   0.151E+02 -.144E+01 0.686E+03   -.444E-01 -.375E-01 -.357E+01
   -.261E+02 -.706E+00 0.724E+03   0.261E+02 0.794E+00 -.728E+03   -.109E+00 -.113E+00 0.344E+01
   -.107E+02 0.733E+01 0.713E+03   0.107E+02 -.732E+01 -.717E+03   -.895E-01 -.120E-01 0.344E+01
   -.345E+02 -.150E+02 -.676E+03   0.345E+02 0.151E+02 0.680E+03   -.116E-01 -.998E-01 -.362E+01
   -.432E+01 -.110E+02 -.686E+03   0.428E+01 0.110E+02 0.690E+03   0.463E-01 -.695E-02 -.356E+01
   -.157E+02 -.126E+02 0.715E+03   0.157E+02 0.126E+02 -.719E+03   0.216E-01 -.337E-01 0.342E+01
   -.650E+01 -.442E+01 0.713E+03   0.649E+01 0.444E+01 -.717E+03   0.475E-02 -.250E-01 0.343E+01
   -.145E+02 -.157E+02 -.686E+03   0.144E+02 0.157E+02 0.690E+03   0.437E-01 0.142E-01 -.357E+01
   -.118E+01 -.845E+01 -.690E+03   0.115E+01 0.845E+01 0.694E+03   0.399E-01 0.385E-02 -.355E+01
   -.765E+01 -.764E+01 0.707E+03   0.763E+01 0.763E+01 -.711E+03   0.190E-01 0.190E-01 0.343E+01
   -.153E+01 -.923E+01 0.708E+03   0.148E+01 0.924E+01 -.712E+03   0.499E-01 -.543E-02 0.344E+01
   -.726E+00 0.726E+00 0.155E+02   0.385E-11 -.112E-11 -.944E-11   -.812E-03 -.812E-03 -.128E+02

 POSITION                                       TOTAL-FORCE (eV/Angst)
      8.54453     12.59533     13.88470        -0.036218      0.035777     -0.093057
      6.69899     14.44084     13.56395         0.088203     -0.088761     -0.100134
     12.32695      8.81289     13.56395        -0.088761      0.088203     -0.100134
     10.48144     10.65841     13.88470         0.035777     -0.036218     -0.093057
      0.00000      0.00000      9.00000        -0.006213      0.006236      0.524527
      2.11389      2.11389      9.00000         0.000509      0.010751      0.525986
      0.00000      2.11389     11.11389         0.004013      0.004013     -0.474319
      2.11389      0.00000     11.11389        -0.005939      0.020388     -0.473400
      0.00000      4.22777      9.00000         0.010751      0.000509      0.525986
      2.11389      6.34166      9.00000         0.008332     -0.000619      0.529485
      0.00000      6.34166     11.11389         0.018102      0.000582     -0.471292
      2.11389      4.22777     11.11389         0.008141      0.008141     -0.471732
      0.00000      8.45554      9.00000         0.013534     -0.003511      0.527782
      2.11389     10.56943      9.00000        -0.006608     -0.023020      0.530608
      0.00000     10.56943     11.11389         0.005938     -0.005507     -0.466003
      2.11389      8.45554     11.11389         0.018566     -0.006828     -0.461640
      0.00000     12.68331      9.00000        -0.015629     -0.007002      0.527886
      2.11389     14.79720      9.00000        -0.061153     -0.009902      0.523314
      0.00000     14.79720     11.11389        -0.030777     -0.005238     -0.468039
      2.11389     12.68331     11.11389        -0.034081     -0.029561     -0.450603
      0.00000     16.91108      9.00000        -0.028447      0.003736      0.525534
      2.11389     19.02497      9.00000        -0.022859      0.022883      0.519688
      0.00000     19.02497     11.11389        -0.020393      0.005944     -0.473356
      2.11389     16.91108     11.11389        -0.075208      0.008404     -0.468934
      4.22777      0.00000      9.00000        -0.003742      0.028417      0.525553
      6.34166      2.11389      9.00000        -0.003511      0.013534      0.527782
      4.22777      2.11389     11.11389         0.000582      0.018102     -0.471292
      6.34166      0.00000     11.11389         0.005244      0.030747     -0.468001
      4.22777      4.22777      9.00000        -0.000619      0.008332      0.529485
      6.34166      6.34166      9.00000        -0.017088      0.000970      0.541088
      4.22777      6.34166     11.11389         0.011069      0.011069     -0.459891
      6.34166      4.22777     11.11389        -0.006828      0.018566     -0.461640
      4.22777      8.45554      9.00000         0.000970     -0.017088      0.541088
      6.34166     10.56943      9.00000        -0.019567     -0.071628      0.564560
      4.22777     10.56943     11.11389         0.042023     -0.050152     -0.402251
      6.34166      8.45554     11.11389         0.020133      0.020133     -0.400722
      4.22777     12.68331      9.00000        -0.051992     -0.068257      0.504496
      6.34166     14.79720      9.00000         0.004324     -0.004285      0.178363
      4.22777     14.79720     11.11389        -0.389043     -0.055156     -0.522933
      6.34166     12.68331     11.11389        -0.050050     -0.506751     -0.254664
      4.22777     16.91108      9.00000        -0.048099      0.048111      0.474442
      6.34166     19.02497      9.00000         0.009911      0.061140      0.523293
      4.22777     19.02497     11.11389        -0.008394      0.075223     -0.468953
      6.34166     16.91108     11.11389         0.055171      0.389107     -0.522968
      8.45554      0.00000      9.00000         0.007029      0.015618      0.527905
     10.56943      2.11389      9.00000        -0.007002     -0.015629      0.527886
      8.45554      2.11389     11.11389        -0.005507      0.005938     -0.466003
     10.56943      0.00000     11.11389         0.005485     -0.005972     -0.465996
      8.45554      4.22777      9.00000        -0.023020     -0.006608      0.530608
     10.56943      6.34166      9.00000        -0.068257     -0.051992      0.504496
      8.45554      6.34166     11.11389        -0.050152      0.042023     -0.402251
     10.56943      4.22777     11.11389        -0.029561     -0.034081     -0.450603
      8.45554      8.45554      9.00000        -0.071628     -0.019567      0.564560
     10.56943     10.56943      9.00000        -0.049347      0.049391      0.425048
      8.45554     10.56943     11.11389        -0.158931     -0.158931     -0.282474
     10.56943      8.45554     11.11389        -0.506751     -0.050050     -0.254664
      8.45554     12.68331      9.00000         0.049391     -0.049347      0.425048
     10.56943     14.79720      9.00000         0.071655      0.019586      0.564591
      8.45554     14.79720     11.11389         0.507051      0.050071     -0.254672
     10.56943     12.68331     11.11389         0.159075      0.159075     -0.282416
[...]
     19.02497      6.34166     11.11389        -0.026586      0.003824      0.307265
     16.91108      6.34166      9.00000        -0.049037      0.017769     -0.346443
     19.02497      4.22777      9.00000        -0.017559      0.008968     -0.357616
     16.91108      8.45554     11.11389        -0.059658     -0.020103      0.303214
     19.02497     10.56943     11.11389        -0.012643     -0.010492      0.301613
     16.91108     10.56943      9.00000        -0.032172     -0.031218     -0.359184
     19.02497      8.45554      9.00000        -0.025016     -0.003327     -0.358306
     16.91108     12.68331     11.11389        -0.004357     -0.028407      0.291138
     19.02497     14.79720     11.11389         0.012857     -0.001873      0.304087
     16.91108     14.79720      9.00000         0.005890     -0.009468     -0.365383
     19.02497     12.68331      9.00000         0.001279     -0.006886     -0.361917
     16.91108     16.91108     11.11389         0.012021      0.003844      0.303231
     19.02497     19.02497     11.11389         0.011059      0.001035      0.308966
     16.91108     19.02497      9.00000         0.005235      0.005235     -0.360860
     19.02497     16.91108      9.00000         0.013839     -0.001503     -0.360254
    total drift:                               -0.726729      0.725079      2.760823

  FREE ENERGIE OF THE ION-ELECTRON SYSTEM (eV)
  free  energy   TOTEN  =     -1576.63277233 eV

  energy  without entropy=    -1576.63277233  energy(sigma->0) =    -1576.63277233