 vasp.6.3.0 20Jan22 (build Apr  1 2022 16:44:48) complex
 executed on        HPECrayEX_GCC date 2023.01.09  17:07:40

 INCAR:
   SYSTEM = MgO-rocksalt
   ISMEAR = 0
   SIGMA = 0.05
   EDIFF = 1E-6
   ALGO = ALL
   ISTART = 0
   IBRION = -1
   NSW = 0
   ISYM = 2
   DIPOL = 0.5 0.5 0.5
   IDIPOL = 3
   LDIPOL = .TRUE.
   GGA = RE
   LUSE_VDW = .TRUE.
   AGGAC = 0.0
   ENCUT = 520
   PREC = Accurate
   LASPH = .TRUE.
   LREAL = Auto
   ISPIN = 1
   NELM = 200
   NELMIN = 8
   NCORE = 4
   KPAR = 2
   LWAVE = .FALSE.
   LCHARG = .FALSE.

 POTCAR:    PAW_PBE Cu 22Jun2005
 POTCAR:    PAW_PBE Mg_pv 13Apr2007
 POTCAR:    PAW_PBE O 08Apr2002
|               ----> ADVICE to this user running VASP <----                  |
|     You have switched on vdW-DFT.                                           |
|     This routine was written and supplied by Jiri Klimes. We recommend      |
|     that you carefully read and cite the following publications:            |
|       J. Klimes, D.R. Bowler, A. Michelides                                 |
|          J. Phys.: Cond Matt. 22 022201 (2010)                              |
|       J. Klimes, D.R. Bowler, A. Michelides                                 |
|          Phys. Rev. B. 83, 195131 (2011)                                    |
|     and references therein.                                                 |

   TITEL  = PAW_PBE Cu 22Jun2005
   POMASS =   63.546; ZVAL   =   11.000    mass and valenz
   ENMAX  =  295.446; ENMIN  =  221.585 eV

   TITEL  = PAW_PBE Mg_pv 13Apr2007
   POMASS =   24.305; ZVAL   =    8.000    mass and valenz
   ENMAX  =  403.929; ENMIN  =  302.947 eV

   TITEL  = PAW_PBE O 08Apr2002
   POMASS =   16.000; ZVAL   =    6.000    mass and valenz
   ENMAX  =  400.000; ENMIN  =  300.000 eV

 Optimization of the real space projectors (new method)

 maximal supplied QI-value         = 16.25
 optimisation between [QCUT,QGAM] = [ 11.54, 23.24] = [ 37.28,151.24] Ry
 Optimized for a Real-space Cutoff    1.53 Angstroem

   l    n(q)    QCUT    max X(q) W(low)/X(q) W(high)/X(q)  e(spline)
   2     10    11.539     4.610    0.96E-04    0.13E-03    0.19E-06
   2     10    11.539     8.522    0.16E-03    0.21E-03    0.28E-06
   0     11    11.539    51.609    0.45E-04    0.31E-04    0.11E-06
   0     11    11.539    27.747    0.39E-04    0.29E-04    0.10E-06
   1     10    11.539    20.408    0.70E-05    0.38E-04    0.18E-06
   1     10    11.539    13.425    0.66E-05    0.34E-04    0.17E-06
 Optimization of the real space projectors (new method)

[...]

   l    n(q)    QCUT    max X(q) W(low)/X(q) W(high)/X(q)  e(spline)
   1      8    11.527     2.974    0.44E-04    0.56E-04    0.12E-06
   1      8    11.527     4.279    0.12E-03    0.12E-03    0.26E-06
   0      9    11.527    16.381    0.46E-04    0.64E-04    0.78E-07
   0      9    11.527     5.611    0.26E-04    0.43E-04    0.55E-07
   2      8    11.527     4.652    0.22E-03    0.72E-04    0.47E-07
 Optimization of the real space projectors (new method)

 maximal supplied QI-value         = 24.76
 optimisation between [QCUT,QGAM] = [ 11.64, 23.27] = [ 37.91,151.63] Ry
 Optimized for a Real-space Cutoff    1.14 Angstroem

   l    n(q)    QCUT    max X(q) W(low)/X(q) W(high)/X(q)  e(spline)
   0      8    11.635    20.381    0.10E-03    0.33E-03    0.24E-06
   0      8    11.635    15.268    0.11E-03    0.35E-03    0.26E-06
   1      7    11.635     5.964    0.24E-03    0.31E-03    0.30E-06
   1      7    11.635     5.382    0.22E-03    0.25E-03    0.26E-06
|               ----> ADVICE to this user running VASP <----                  |
|     You enforced a specific xc type in the INCAR file but a different       |
|     type was found in the POTCAR file.                                      |
|     I HOPE YOU KNOW WHAT YOU ARE DOING!                                     |

  PAW_PBE Cu 22Jun2005                  :
  PAW_PBE Mg_pv 13Apr2007               :
  PAW_PBE O 08Apr2002                   :

 POSCAR: Cu Mg  O
  positions in direct lattice
  velocities in cartesian coordinates
 exchange correlation table for  LEXCH =       40
   RHO(1)=    0.500       N(1)  =     2000
   RHO(2)=  100.500       N(2)  =     4000

 ion  position               nearest neighbor table
   1  0.400  0.417  0.591- 153 1.98   4 2.26   3 2.42   2 2.42  55 2.62
   2  0.490  0.488  0.600- 154 2.19   4 2.37   1 2.42
   3  0.310  0.488  0.600- 134 2.19   4 2.37   1 2.42
   4  0.400  0.492  0.664-   1 2.26   2 2.37   3 2.37
   5  0.000  0.000  0.407- 107 2.11 108 2.11 123 2.11 188 2.11 105 2.11
   6  0.100  0.100  0.407- 107 2.11 108 2.11 112 2.11 127 2.11 106 2.11
   7  0.000  0.100  0.503- 105 2.11 106 2.11 109 2.11 186 2.11 107 2.11
   8  0.100  0.000  0.503- 105 2.11 106 2.11 122 2.11 125 2.11 108 2.11
   9  0.000  0.200  0.407- 111 2.11 107 2.11 112 2.11 192 2.11 109 2.11
  10  0.100  0.300  0.407- 112 2.11 111 2.11 116 2.11 131 2.11 110 2.11
  11  0.000  0.300  0.503- 109 2.11 110 2.11 113 2.11 190 2.11 111 2.11
  12  0.100  0.200  0.503- 110 2.11 109 2.11 106 2.11 129 2.11 112 2.11
  13  0.000  0.400  0.407- 111 2.11 115 2.11 116 2.11 196 2.11 113 2.11
  14  0.100  0.500  0.407- 115 2.11 116 2.11 120 2.11 135 2.11 114 2.11
  15  0.000  0.500  0.503- 113 2.11 114 2.11 117 2.11 194 2.11 115 2.11
  16  0.100  0.400  0.503- 110 2.11 113 2.11 114 2.11 133 2.11 116 2.11
  17  0.000  0.600  0.407- 115 2.11 119 2.11 120 2.11 200 2.11 117 2.11
  18  0.100  0.700  0.407- 124 2.11 120 2.11 119 2.11 139 2.11 118 2.11
  19  0.000  0.700  0.503- 121 2.11 118 2.11 117 2.11 198 2.11 119 2.11
  20  0.100  0.600  0.503- 114 2.11 117 2.11 118 2.11 137 2.11 120 2.11
  21  0.000  0.800  0.407- 119 2.11 123 2.11 124 2.11 204 2.11 121 2.11
  22  0.100  0.900  0.407- 108 2.11 123 2.11 124 2.11 143 2.11 122 2.11
  23  0.000  0.900  0.503- 105 2.11 121 2.11 122 2.11 202 2.11 123 2.11
  24  0.100  0.800  0.503- 118 2.11 121 2.11 122 2.11 141 2.11 124 2.11
  25  0.200  0.000  0.407- 128 2.11 127 2.11 108 2.11 143 2.11 125 2.11
  26  0.300  0.100  0.407- 127 2.11 128 2.11 132 2.11 147 2.11 126 2.11
  27  0.200  0.100  0.503- 126 2.11 125 2.11 106 2.11 129 2.11 127 2.11
  28  0.300  0.000  0.503- 125 2.11 126 2.11 142 2.11 145 2.11 128 2.11
  29  0.200  0.200  0.407- 131 2.11 132 2.11 112 2.11 127 2.11 129 2.11
  30  0.300  0.300  0.407- 131 2.11 132 2.11 136 2.11 151 2.11 130 2.11
  31  0.200  0.300  0.503- 129 2.11 130 2.11 110 2.11 133 2.11 131 2.11
  32  0.300  0.200  0.503- 129 2.11 130 2.11 126 2.11 149 2.11 132 2.11
  33  0.200  0.400  0.407- 136 2.11 131 2.11 135 2.11 116 2.11 133 2.11
  34  0.300  0.500  0.407- 135 2.11 136 2.11 140 2.11 155 2.11 134 2.11
  35  0.200  0.500  0.503- 134 2.11 133 2.11 114 2.11 137 2.11 135 2.11
  36  0.300  0.400  0.503- 133 2.11 130 2.11 134 2.11 153 2.11 136 2.11
  37  0.200  0.600  0.407- 140 2.11 135 2.11 139 2.11 120 2.11 137 2.11
  38  0.300  0.700  0.407- 139 2.11 144 2.11 140 2.11 159 2.11 138 2.11
  39  0.200  0.700  0.503- 138 2.11 141 2.11 118 2.11 137 2.11 139 2.11
  40  0.300  0.600  0.503- 137 2.11 134 2.11 138 2.11 157 2.11 140 2.11
  41  0.200  0.800  0.407- 139 2.11 144 2.11 143 2.11 124 2.11 141 2.11
  42  0.300  0.900  0.407- 143 2.11 128 2.11 144 2.11 163 2.11 142 2.11
  43  0.200  0.900  0.503- 142 2.11 125 2.11 141 2.11 122 2.11 143 2.11
  44  0.300  0.800  0.503- 138 2.11 141 2.11 142 2.11 161 2.11 144 2.11
  45  0.400  0.000  0.407- 128 2.11 147 2.11 148 2.11 163 2.11 145 2.11
  46  0.500  0.100  0.407- 147 2.11 148 2.11 152 2.11 167 2.11 146 2.11
  47  0.400  0.100  0.503- 126 2.11 145 2.11 146 2.11 149 2.11 147 2.11
  48  0.500  0.000  0.503- 145 2.11 146 2.11 162 2.11 165 2.11 148 2.11
  49  0.400  0.200  0.407- 151 2.11 147 2.11 132 2.11 152 2.11 149 2.11
  50  0.500  0.300  0.407- 152 2.11 151 2.11 156 2.11 171 2.11 150 2.11
  51  0.400  0.300  0.503- 149 2.11 130 2.11 150 2.11 153 2.11 151 2.11
  52  0.500  0.200  0.503- 150 2.11 149 2.11 146 2.11 169 2.11 152 2.11
  53  0.400  0.400  0.407- 136 2.11 151 2.11 155 2.11 156 2.11 153 2.11
  54  0.500  0.500  0.407- 155 2.11 156 2.11 160 2.11 175 2.11 154 2.11
  55  0.400  0.500  0.503- 134 2.11 153 2.11 154 2.11 157 2.11 155 2.11   1 2.62
  56  0.500  0.400  0.503- 150 2.11 153 2.11 154 2.11 173 2.11 156 2.11
  57  0.400  0.600  0.407- 140 2.11 155 2.11 159 2.11 160 2.11 157 2.11
  58  0.500  0.700  0.407- 164 2.11 160 2.11 159 2.11 179 2.11 158 2.11
  59  0.400  0.700  0.503- 161 2.11 157 2.11 158 2.11 138 2.11 159 2.11
  60  0.500  0.600  0.503- 154 2.11 157 2.11 158 2.11 177 2.11 160 2.11
[...]
 190  0.900  0.300  0.503-  92 2.11  91 2.11  11 2.11  96 2.11  90 2.11
 191  0.800  0.300  0.407-  70 2.11  89 2.11  90 2.11  93 2.11  91 2.11
 192  0.900  0.200  0.407-  90 2.11  86 2.11  89 2.11   9 2.11  92 2.11
 193  0.800  0.400  0.503-  76 2.11  91 2.11  95 2.11  96 2.11  93 2.11
 194  0.900  0.500  0.503-  15 2.11  95 2.11  96 2.11 100 2.11  94 2.11
 195  0.800  0.500  0.407-  74 2.11  93 2.11  94 2.11  97 2.11  95 2.11
 196  0.900  0.400  0.407-  13 2.11  90 2.11  93 2.11  94 2.11  96 2.11
 197  0.800  0.600  0.503-  80 2.11  95 2.11  99 2.11 100 2.11  97 2.11
 198  0.900  0.700  0.503- 104 2.11  99 2.11 100 2.11  19 2.11  98 2.11
 199  0.800  0.700  0.407-  78 2.11 101 2.11  98 2.11  97 2.11  99 2.11
 200  0.900  0.600  0.407-  17 2.11  94 2.11  97 2.11  98 2.11 100 2.11
 201  0.800  0.800  0.503-  84 2.11  99 2.11 103 2.11 104 2.11 101 2.11
 202  0.900  0.900  0.503-  23 2.11  88 2.11 103 2.11 104 2.11 102 2.11
 203  0.800  0.900  0.407-  82 2.11  85 2.11 101 2.11 102 2.11 103 2.11
 204  0.900  0.800  0.407-  98 2.11  21 2.11 101 2.11 102 2.11 104 2.11

  LATTYP: Found a simple tetragonal cell.
 ALAT       =    21.1388521970
 C/A-ratio  =     1.0461251639

  Lattice vectors:

 A1 = (  21.1388521970,   0.0000000000,   0.0000000000)
 A2 = (   0.0000000000,  21.1388521970,   0.0000000000)
 A3 = (   0.0000000000,   0.0000000000,  22.1138852197)

Analysis of symmetry for initial positions (statically):
 Subroutine PRICEL returns:
 Original cell was already a primitive cell.

 Routine SETGRP: Setting up the symmetry group for a
 simple tetragonal supercell.

 Subroutine GETGRP returns: Found  2 space group operations
 (whereof  1 operations were pure point group operations)
 out of a pool of 16 trial point group operations.

The static configuration has the point symmetry C_1 .
 The point group associated with its full space group is C_1h.

Analysis of symmetry for dynamics (positions and initial velocities):
 Subroutine PRICEL returns:
 Original cell was already a primitive cell.

[...]

The dynamic configuration has the point symmetry C_1 .
 The point group associated with its full space group is C_1h.

Analysis of constrained symmetry for selective dynamics:
 Subroutine PRICEL returns:
 Original cell was already a primitive cell.

 Routine SETGRP: Setting up the symmetry group for a
 simple tetragonal supercell.

 Subroutine GETGRP returns: Found  2 space group operations
 (whereof  1 operations were pure point group operations)
 out of a pool of 16 trial point group operations.

The constrained configuration has the point symmetry C_1 .
 The point group associated with its full space group is C_1h.

[...]
     52     -43.6244      2.00000
     53     -43.6242      2.00000
     54     -43.6237      2.00000
     55     -43.6218      2.00000
     56     -43.6215      2.00000
     57     -43.6215      2.00000
     58     -43.6182      2.00000
     59     -43.6181      2.00000
     60     -43.6134      2.00000
[...]
    946       5.6236      0.00000
    947       5.6396      0.00000
    948       5.6695      0.00000
    949       5.6963      0.00000
    950       5.7139      0.00000
    951       5.7562      0.00000
    952       5.8190      0.00000
    953       5.8583      0.00000
    954       5.9204      0.00000
    955       5.9919      0.00000
    956       6.0735      0.00000
    957       6.0981      0.00000
    958       6.2651      0.00000
    959       6.4180      0.00000
    960       6.4728      0.00000

 soft charge-density along one line, spin component           1
         0         1         2         3         4         5         6         7         8         9
 total charge-density along one line

------------------------ aborting loop because EDIFF is reached ----------------------------------------

  FORCE on cell =-STRESS in cart. coord.  units (eV):
  Direction    XX          YY          ZZ          XY          YZ          ZX
  Alpha Z  1394.80054  1394.80054  1394.80054
  Ewald  487008.22575485627.98407************     0.00456   493.91026     0.00668
  Hartree516414.17416515219.87495************     0.00409   374.22946     0.00121
  E(xc)   -8119.98255 -8120.74299 -8136.17389     0.00001     0.38727     0.00001
  Local  ************************************    -0.00921  -861.85864    -0.00690
  n-local -8854.87559 -8857.76904 -8970.87280     0.00068    -0.31303     0.00060
  augment  3756.39018  3756.71845  3700.55939     0.00017    -2.88165    -0.00020
  Kinetic 23123.03271 23121.89790 23328.30985     0.00058    -3.05714    -0.00002
  Fock        0.00000     0.00000     0.00000     0.00000     0.00000     0.00000
  Total    -114.96004  -115.64860    40.60218     0.00000     0.41653     0.00000
  in kB     -18.63930   -18.75094     6.58313     0.00000     0.06754     0.00000

 VOLUME and BASIS-vectors are now :
  energy-cutoff  :      520.00
  volume of cell :     9881.61
      direct lattice vectors                 reciprocal lattice vectors
    21.138852197  0.000000000  0.000000000     0.047306258  0.000000000  0.000000000
     0.000000000 21.138852197  0.000000000     0.000000000  0.047306258  0.000000000
     0.000000000  0.000000000 22.113885220     0.000000000  0.000000000  0.045220457

  length of vectors
    21.138852197 21.138852197 22.113885220     0.047306258  0.047306258  0.045220457

 FORCES acting on ions:
    Electron-Ion                     Ewald-Force                    Non-Local-Force
   0.206E-01 0.598E+03 -.197E+04   -.580E-02 -.593E+03 0.198E+04   0.000E+00 -.567E+01 -.217E+01
   -.600E+03 -.172E+03 -.205E+04   0.595E+03 0.168E+03 0.205E+04   0.537E+01 0.394E+01 -.629E+01
   0.600E+03 -.172E+03 -.205E+04   -.595E+03 0.168E+03 0.205E+04   -.537E+01 0.394E+01 -.629E+01
   -.165E-01 -.264E+03 -.243E+04   0.277E-02 0.258E+03 0.242E+04   0.000E+00 0.581E+01 0.902E+01
   0.683E+01 0.256E+01 0.935E+03   -.683E+01 -.257E+01 -.928E+03   0.166E-01 0.746E-02 -.683E+01
   0.150E+02 0.152E+02 0.940E+03   -.151E+02 -.153E+02 -.933E+03   0.496E-01 0.328E-01 -.684E+01
   0.108E+02 0.133E+02 -.918E+03   -.109E+02 -.133E+02 0.911E+03   0.227E-01 0.205E-02 0.674E+01
   0.140E+02 0.453E+01 -.917E+03   -.140E+02 -.455E+01 0.910E+03   0.243E-01 0.139E-01 0.674E+01
   0.128E+02 0.160E+02 0.941E+03   -.129E+02 -.160E+02 -.934E+03   0.445E-01 0.103E-01 -.684E+01
   0.361E+02 0.255E+02 0.958E+03   -.363E+02 -.255E+02 -.951E+03   0.166E+00 0.325E-01 -.688E+01
   0.262E+02 0.207E+02 -.910E+03   -.262E+02 -.207E+02 0.904E+03   0.316E-01 -.116E-01 0.672E+01
   0.323E+02 0.330E+02 -.909E+03   -.324E+02 -.330E+02 0.902E+03   0.793E-01 -.516E-03 0.672E+01
   0.238E+02 0.842E+01 0.950E+03   -.239E+02 -.842E+01 -.943E+03   0.783E-01 0.476E-04 -.686E+01
   0.515E+02 -.622E+01 0.973E+03   -.519E+02 0.623E+01 -.965E+03   0.294E+00 -.998E-02 -.695E+01
   0.376E+02 -.452E+01 -.905E+03   -.376E+02 0.452E+01 0.899E+03   0.205E-01 0.450E-03 0.671E+01
   0.827E+02 0.251E+02 -.886E+03   -.827E+02 -.251E+02 0.879E+03   0.853E-01 -.255E-01 0.665E+01
   0.211E+02 -.134E+02 0.948E+03   -.211E+02 0.134E+02 -.941E+03   0.713E-01 -.862E-02 -.686E+01
   0.278E+02 -.260E+02 0.952E+03   -.279E+02 0.260E+02 -.945E+03   0.815E-01 -.506E-01 -.685E+01
   0.207E+02 -.217E+02 -.913E+03   -.207E+02 0.217E+02 0.906E+03   0.297E-01 0.588E-02 0.673E+01
   0.684E+02 -.363E+02 -.891E+03   -.685E+02 0.363E+02 0.885E+03   0.152E+00 0.255E-01 0.668E+01
   0.100E+02 -.135E+02 0.939E+03   -.100E+02 0.135E+02 -.932E+03   0.219E-01 -.914E-02 -.684E+01
   0.122E+02 -.856E+01 0.938E+03   -.123E+02 0.856E+01 -.931E+03   0.239E-01 -.480E-02 -.684E+01
   0.888E+01 -.777E+01 -.918E+03   -.888E+01 0.777E+01 0.911E+03   0.112E-01 0.321E-02 0.674E+01
   0.232E+02 -.261E+02 -.912E+03   -.233E+02 0.262E+02 0.906E+03   0.229E-01 -.132E-01 0.673E+01
   0.120E+02 0.515E+01 0.940E+03   -.121E+02 -.519E+01 -.933E+03   0.306E-01 0.335E-01 -.684E+01
   0.110E+02 0.289E+02 0.950E+03   -.111E+02 -.291E+02 -.943E+03   0.410E-01 0.138E+00 -.685E+01
   0.217E+02 0.305E+02 -.911E+03   -.217E+02 -.305E+02 0.904E+03   0.497E-01 0.567E-01 0.673E+01
   0.968E+01 0.905E+01 -.913E+03   -.969E+01 -.911E+01 0.906E+03   0.174E-01 0.472E-01 0.674E+01
   0.276E+02 0.372E+02 0.959E+03   -.277E+02 -.374E+02 -.952E+03   0.131E+00 0.122E+00 -.686E+01
   0.374E+02 0.673E+02 0.101E+04   -.378E+02 -.679E+02 -.101E+04   0.315E+00 0.449E+00 -.689E+01
   0.834E+02 0.800E+02 -.871E+03   -.838E+02 -.800E+02 0.864E+03   0.302E+00 -.158E-01 0.660E+01
   0.325E+02 0.871E+02 -.885E+03   -.326E+02 -.874E+02 0.878E+03   0.869E-01 0.251E+00 0.670E+01
   0.681E+02 0.278E+02 0.101E+04   -.688E+02 -.280E+02 -.100E+04   0.571E+00 0.112E+00 -.708E+01
   0.584E+02 -.240E+02 0.109E+04   -.591E+02 0.244E+02 -.108E+04   0.515E+00 -.278E+00 -.566E+01
   0.182E+03 -.295E+02 -.787E+03   -.184E+03 0.294E+02 0.781E+03   0.138E+01 0.818E-01 0.640E+01
   0.184E+03 0.160E+03 -.639E+03   -.187E+03 -.162E+03 0.634E+03   0.224E+01 0.972E+00 0.505E+01
   0.543E+02 -.416E+02 0.996E+03   -.546E+02 0.418E+02 -.989E+03   0.268E+00 -.196E+00 -.688E+01
   0.231E+02 -.585E+02 0.984E+03   -.231E+02 0.589E+02 -.977E+03   0.568E-01 -.307E+00 -.693E+01
   0.527E+02 -.688E+02 -.888E+03   -.527E+02 0.689E+02 0.881E+03   0.368E-01 -.121E+00 0.668E+01
   0.902E+02 -.176E+03 -.762E+03   -.903E+02 0.177E+03 0.755E+03   0.637E-01 -.134E+01 0.647E+01
   0.193E+02 -.283E+02 0.950E+03   -.193E+02 0.284E+02 -.943E+03   0.374E-01 -.685E-01 -.685E+01
   0.832E+01 -.149E+02 0.945E+03   -.832E+01 0.149E+02 -.938E+03   0.156E-01 -.127E-01 -.684E+01
   0.162E+02 -.161E+02 -.914E+03   -.162E+02 0.161E+02 0.907E+03   0.195E-01 0.346E-02 0.674E+01
   0.182E+02 -.563E+02 -.900E+03   -.182E+02 0.563E+02 0.893E+03   0.154E-01 -.432E-01 0.671E+01
   0.149E-01 0.732E+01 0.944E+03   -.217E-03 -.740E+01 -.937E+03   0.000E+00 0.626E-01 -.684E+01
   -.110E+02 0.289E+02 0.950E+03   0.111E+02 -.291E+02 -.943E+03   -.410E-01 0.138E+00 -.685E+01
   0.151E-01 0.470E+02 -.905E+03   -.391E-03 -.472E+02 0.898E+03   0.000E+00 0.150E+00 0.673E+01
   -.965E+01 0.905E+01 -.913E+03   0.969E+01 -.911E+01 0.906E+03   -.174E-01 0.472E-01 0.674E+01
   0.152E-01 0.590E+02 0.978E+03   -.499E-03 -.596E+02 -.970E+03   0.000E+00 0.441E+00 -.690E+01
   -.374E+02 0.673E+02 0.101E+04   0.378E+02 -.679E+02 -.101E+04   -.315E+00 0.449E+00 -.689E+01
   0.170E-01 0.207E+03 -.776E+03   -.193E-02 -.210E+03 0.769E+03   0.000E+00 0.226E+01 0.686E+01
   -.324E+02 0.871E+02 -.885E+03   0.326E+02 -.874E+02 0.878E+03   -.869E-01 0.251E+00 0.670E+01
   0.162E-01 0.519E+02 0.111E+04   -.142E-02 -.523E+02 -.110E+04   0.000E+00 0.258E+00 -.444E+01
   -.584E+02 -.240E+02 0.109E+04   0.591E+02 0.244E+02 -.108E+04   -.515E+00 -.278E+00 -.566E+01
   0.174E-01 -.151E+03 -.464E+03   -.165E-02 0.154E+03 0.460E+03   0.000E+00 -.217E+01 0.455E+01
   -.184E+03 0.160E+03 -.639E+03   0.187E+03 -.162E+03 0.634E+03   -.224E+01 0.972E+00 0.505E+01
   0.159E-01 -.758E+02 0.105E+04   -.116E-02 0.766E+02 -.105E+04   0.000E+00 -.643E+00 -.706E+01
   -.230E+02 -.585E+02 0.984E+03   0.231E+02 0.589E+02 -.977E+03   -.568E-01 -.307E+00 -.693E+01
   0.160E-01 -.124E+03 -.858E+03   -.126E-02 0.124E+03 0.851E+03   0.000E+00 -.177E+00 0.665E+01
   -.902E+02 -.176E+03 -.762E+03   0.902E+02 0.177E+03 0.755E+03   -.637E-01 -.134E+01 0.647E+01
[...]
   -.139E+02 0.118E+02 0.712E+03   0.140E+02 -.118E+02 -.716E+03   -.514E-01 0.900E-02 0.353E+01
   0.711E-01 0.101E+02 0.706E+03   0.250E-03 -.101E+02 -.710E+03   0.000E+00 0.684E-02 0.354E+01
   -.264E+02 0.872E+01 -.682E+03   0.264E+02 -.872E+01 0.686E+03   -.292E-01 -.980E-02 -.374E+01
   0.707E-01 -.248E+01 -.685E+03   0.726E-03 0.248E+01 0.690E+03   0.000E+00 -.212E-04 -.371E+01
   -.187E+02 -.257E+01 0.716E+03   0.188E+02 0.257E+01 -.720E+03   -.556E-01 -.436E-02 0.351E+01
   0.709E-01 0.499E+01 0.711E+03   0.461E-03 -.499E+01 -.715E+03   0.000E+00 -.128E-02 0.353E+01
   -.230E+02 -.135E+02 -.683E+03   0.231E+02 0.135E+02 0.688E+03   -.302E-01 0.642E-02 -.372E+01
   0.709E-01 -.129E+02 -.688E+03   0.440E-03 0.129E+02 0.693E+03   0.000E+00 0.296E-02 -.368E+01
   -.112E+02 -.126E+02 0.709E+03   0.113E+02 0.126E+02 -.714E+03   -.398E-01 -.191E-01 0.354E+01
   0.710E-01 -.803E+01 0.710E+03   0.431E-03 0.804E+01 -.714E+03   0.000E+00 -.597E-02 0.353E+01
   -.963E+01 -.128E+02 -.689E+03   0.971E+01 0.128E+02 0.694E+03   -.197E-01 -.461E-02 -.368E+01
   0.712E-01 -.497E+01 -.691E+03   0.195E-03 0.496E+01 0.696E+03   0.000E+00 0.272E-02 -.367E+01
   -.537E+01 -.470E+01 0.704E+03   0.545E+01 0.470E+01 -.708E+03   -.170E-01 -.724E-03 0.355E+01
   0.712E-01 -.867E+01 0.705E+03   0.219E-03 0.867E+01 -.709E+03   0.000E+00 -.597E-02 0.355E+01
   0.870E+01 -.830E+01 0.101E+02   0.261E-11 0.227E-12 0.227E-10   -.178E-14 0.830E+01 -.111E+02

 POSITION                                       TOTAL-FORCE (eV/Angst)
      8.45555      8.82382     13.06192         0.000000     -0.405631      0.270605
     10.35658     10.31213     13.27893         0.374714      0.102659      0.257038
      6.55462     10.31214     13.27893        -0.374714      0.102659      0.257038
      8.45565     10.40011     14.68777         0.000000      0.215281      0.540342
      0.00000      0.00000      9.00000        -0.004649     -0.002112      0.168959
      2.11389      2.11389      9.00000        -0.013789     -0.009153      0.169990
      0.00000      2.11389     11.11389        -0.006067     -0.000572     -0.142514
      2.11389      0.00000     11.11389        -0.006772     -0.003768     -0.142704
      0.00000      4.22777      9.00000        -0.011851     -0.002851      0.171838
      2.11389      6.34166      9.00000        -0.043914     -0.008757      0.181571
      0.00000      6.34166     11.11389        -0.007256      0.003698     -0.132296
      2.11389      4.22777     11.11389        -0.020448      0.000620     -0.130421
      0.00000      8.45554      9.00000        -0.021010      0.000092      0.177260
      2.11389     10.56943      9.00000        -0.075424      0.002332      0.194668
      0.00000     10.56943     11.11389        -0.002774     -0.000379     -0.125279
      2.11389      8.45554     11.11389        -0.015339      0.009095     -0.088064
      0.00000     12.68331      9.00000        -0.018685      0.002299      0.175754
      2.11389     14.79720      9.00000        -0.022798      0.014551      0.173214
      0.00000     14.79720     11.11389        -0.007360     -0.001744     -0.136532
      2.11389     12.68331     11.11389        -0.035396     -0.008554     -0.103890
      0.00000     16.91108      9.00000        -0.006087      0.002596      0.170075
      2.11389     19.02497      9.00000        -0.006753      0.001186      0.169659
      0.00000     19.02497     11.11389        -0.003126     -0.000991     -0.143888
      2.11389     16.91108     11.11389        -0.006297      0.002910     -0.137368
      4.22777      0.00000      9.00000        -0.008704     -0.009076      0.169661
      6.34166      2.11389      9.00000        -0.012066     -0.036992      0.171725
      4.22777      2.11389     11.11389        -0.013979     -0.014428     -0.135507
      6.34166      0.00000     11.11389        -0.004975     -0.012353     -0.139440
      4.22777      4.22777      9.00000        -0.037215     -0.034413      0.172896
      6.34166      6.34166      9.00000        -0.102287     -0.132399      0.158320
      4.22777      6.34166     11.11389        -0.068474      0.017045     -0.058654
      6.34166      4.22777     11.11389        -0.026932     -0.063635     -0.110756
      4.22777      8.45554      9.00000        -0.155157     -0.038295      0.209587
      6.34166     10.56943      9.00000        -0.145039      0.089936     -0.118067
      4.22777     10.56943     11.11389        -0.457718     -0.029485     -0.028836
      6.34166      8.45554     11.11389        -0.808673     -0.454493      0.046421
      4.22777     12.68331      9.00000        -0.082066      0.062756      0.167560
      6.34166     14.79720      9.00000        -0.015269      0.078405      0.189586
      4.22777     14.79720     11.11389        -0.009198      0.027875     -0.106367
      6.34166     12.68331     11.11389        -0.004156      0.434402     -0.032857
      4.22777     16.91108      9.00000        -0.010583      0.018143      0.173606
      6.34166     19.02497      9.00000        -0.004461      0.003240      0.171091
      4.22777     19.02497     11.11389        -0.005484     -0.001354     -0.140027
      6.34166     16.91108     11.11389        -0.004273      0.008601     -0.127403
      8.45554      0.00000      9.00000         0.000000     -0.016528      0.170486
     10.56943      2.11389      9.00000         0.012066     -0.036992      0.171725
      8.45554      2.11389     11.11389         0.000000     -0.037393     -0.131528
     10.56943      0.00000     11.11389         0.004975     -0.012353     -0.139440
      8.45554      4.22777      9.00000         0.000000     -0.111592      0.179913
     10.56943      6.34166      9.00000         0.102287     -0.132399      0.158320
      8.45554      6.34166     11.11389         0.000000     -0.729691     -0.207079
     10.56943      4.22777     11.11389         0.026932     -0.063635     -0.110756
      8.45554      8.45554      9.00000         0.000000     -0.090373     -0.349310
     10.56943     10.56943      9.00000         0.145039      0.089936     -0.118067
      8.45554     10.56943     11.11389         0.000000      1.029917     -0.163437
     10.56943      8.45554     11.11389         0.808673     -0.454493      0.046421
      8.45554     12.68331      9.00000         0.000000      0.185655      0.192650
     10.56943     14.79720      9.00000         0.015269      0.078405      0.189586
      8.45554     14.79720     11.11389         0.000000      0.036630     -0.085486
     10.56943     12.68331     11.11389         0.004156      0.434402     -0.032857
[...]
     19.02497      6.34166     11.11389         0.000000     -0.002494      0.526662
     16.91108      6.34166      9.00000        -0.014626      0.002584     -0.566501
     19.02497      4.22777      9.00000         0.000000      0.001852     -0.562375
     16.91108      8.45554     11.11389        -0.008743     -0.002637      0.515321
     19.02497     10.56943     11.11389         0.000000      0.000010      0.522930
     16.91108     10.56943      9.00000        -0.016341     -0.001288     -0.571071
     19.02497      8.45554      9.00000         0.000000     -0.000445     -0.566178
     16.91108     12.68331     11.11389        -0.008927      0.001702      0.519451
     19.02497     14.79720     11.11389         0.000000      0.000924      0.529398
     16.91108     14.79720      9.00000        -0.011257     -0.005342     -0.563936
     19.02497     12.68331      9.00000         0.000000     -0.001565     -0.565034
     16.91108     16.91108     11.11389        -0.005518     -0.001249      0.531603
     19.02497     19.02497     11.11389         0.000000      0.000789      0.534688
     16.91108     19.02497      9.00000        -0.004763     -0.000194     -0.560579
     19.02497     16.91108      9.00000         0.000000     -0.001614     -0.561260
    total drift:                                8.699129      0.000155     -0.981074

  FREE ENERGIE OF THE ION-ELECTRON SYSTEM (eV)
  free  energy   TOTEN  =      -679.67356447 eV

  energy  without entropy=     -679.67356447  energy(sigma->0) =     -679.67356447