 vasp.6.4.0 14Feb23 (build Mar 22 2023 21:21:37) complex

 executed on           IFC15_impi date 2023.05.05  18:17:12

 INCAR:
   SYSTEM = MgO-rocksalt
   ISMEAR = 0
   SIGMA = 0.05
   EDIFF = 1E-6
   ALGO = ALL
   ISTART = 0
   IBRION = -1
   NSW = 0
   ISYM = 2
   DIPOL = 0.5 0.5 0.5
   IDIPOL = 3
   LDIPOL = .TRUE.
   METAGGA = R2SCAN
   ENCUT = 520
   PREC = Accurate
   LASPH = .TRUE.
   LREAL = Auto
   ISPIN = 1
   NELM = 200
   NELMIN = 8
   NCORE = 4
   KPAR = 2
   LWAVE = .FALSE.
   LCHARG = .FALSE.

 POTCAR:    PAW_PBE Au 04Oct2007
 POTCAR:    PAW_PBE Mg_pv 13Apr2007
 POTCAR:    PAW_PBE O 08Apr2002
 POTCAR:    PAW_PBE Au 04Oct2007
   VRHFIN =Au: s1d10

   TITEL  = PAW_PBE Au 04Oct2007
   POMASS =  196.966; ZVAL   =   11.000    mass and valenz
   ENMAX  =  229.943; ENMIN  =  172.457 eV

   TITEL  = PAW_PBE Mg_pv 13Apr2007
   POMASS =   24.305; ZVAL   =    8.000    mass and valenz
   ENMAX  =  403.929; ENMIN  =  302.947 eV

   TITEL  = PAW_PBE O 08Apr2002
   POMASS =   16.000; ZVAL   =    6.000    mass and valenz
   ENMAX  =  400.000; ENMIN  =  300.000 eV

 Optimization of the real space projectors (new method)

 maximal supplied QI-value         = 15.12
 optimisation between [QCUT,QGAM] = [ 11.64, 23.28] = [ 37.95,151.78] Ry
 Optimized for a Real-space Cutoff    1.49 Angstroem

   l    n(q)    QCUT    max X(q) W(low)/X(q) W(high)/X(q)  e(spline)
   2      9    11.641    60.898    0.24E-03    0.10E-03    0.19E-06
   2      9    11.641    58.894    0.25E-03    0.10E-03    0.19E-06
   0     10    11.641   109.617    0.73E-04    0.33E-04    0.11E-06
   0     10    11.641    75.026    0.71E-04    0.32E-04    0.11E-06
   1     10    11.641    16.344    0.27E-04    0.97E-04    0.16E-06
   1     10    11.641    10.160    0.23E-04    0.77E-04    0.13E-06
 Optimization of the real space projectors (new method)

[...]

   l    n(q)    QCUT    max X(q) W(low)/X(q) W(high)/X(q)  e(spline)
   1      8    11.527     2.974    0.44E-04    0.56E-04    0.12E-06
   1      8    11.527     4.279    0.12E-03    0.12E-03    0.26E-06
   0      9    11.527    16.381    0.46E-04    0.64E-04    0.78E-07
   0      9    11.527     5.611    0.26E-04    0.43E-04    0.55E-07
   2      8    11.527     4.652    0.22E-03    0.72E-04    0.47E-07
 Optimization of the real space projectors (new method)

 maximal supplied QI-value         = 24.76
 optimisation between [QCUT,QGAM] = [ 11.64, 23.27] = [ 37.91,151.63] Ry
 Optimized for a Real-space Cutoff    1.14 Angstroem

   l    n(q)    QCUT    max X(q) W(low)/X(q) W(high)/X(q)  e(spline)
   0      8    11.635    20.381    0.10E-03    0.33E-03    0.24E-06
   0      8    11.635    15.268    0.11E-03    0.35E-03    0.26E-06
   1      7    11.635     5.964    0.24E-03    0.31E-03    0.30E-06
   1      7    11.635     5.382    0.22E-03    0.25E-03    0.26E-06
  PAW_PBE Au 04Oct2007                  :
  PAW_PBE Mg_pv 13Apr2007               :
  PAW_PBE O 08Apr2002                   :

 POSCAR: Mg  O
  positions in direct lattice
  velocities in cartesian coordinates

 METAGGA = R2SCAN                                      LMAXTAU =  6    LMIXTAU =  F

 ion  position               nearest neighbor table
   1  0.431  0.227  0.583- 265 2.50   2 2.73   5 2.74  11 2.75  68 2.95  67 3.01
   2  0.559  0.237  0.590-   3 2.65   1 2.73  12 2.78  11 2.83   6 2.87   5 2.95  68 3.06
   3  0.683  0.252  0.593-   2 2.65   4 2.67  12 2.79   6 2.82  13 2.87   7 2.91  88 3.01
   4  0.809  0.260  0.596-   3 2.67   7 2.72  13 2.76 107 2.99
   5  0.476  0.348  0.587-   8 2.70   1 2.74  14 2.75  11 2.81   6 2.86  72 2.89   2 2.95
   6  0.610  0.363  0.590-   3 2.82   9 2.82   8 2.86   5 2.86   2 2.87  15 2.93   7 2.93  14 2.96
                            12 2.99  87 3.02
   7  0.748  0.373  0.593-   9 2.67   4 2.72  15 2.80  13 2.87   3 2.91   6 2.93  92 3.00
   8  0.524  0.467  0.585- 270 2.69   5 2.70  10 2.76  14 2.76  16 2.84   6 2.86  72 2.98   9 3.28

   9  0.678  0.478  0.587- 290 2.66   7 2.67  10 2.73  15 2.77   6 2.82  16 2.89   8 3.28
  10  0.595  0.576  0.580- 293 2.37  16 2.68   9 2.73   8 2.76  91 2.91
  11  0.480  0.269  0.662-  17 2.70   1 2.75   5 2.81  12 2.83   2 2.83  14 2.91
  12  0.613  0.277  0.669-  17 2.75  18 2.76   2 2.78   3 2.79  11 2.83  13 2.83   6 2.99  14 3.17
                            15 3.18
  13  0.745  0.297  0.672-  18 2.67   4 2.76  15 2.82  12 2.83   7 2.87   3 2.87
  14  0.525  0.399  0.664-   5 2.75  19 2.75  17 2.76   8 2.76  16 2.86  11 2.91   6 2.96  12 3.17
                            15 3.26
  15  0.679  0.413  0.667-   9 2.77  19 2.77  18 2.78   7 2.80  16 2.81  13 2.82   6 2.93  12 3.18
                            14 3.26
  16  0.595  0.515  0.658-  10 2.68  19 2.70  15 2.81   8 2.84  14 2.86   9 2.89
  17  0.533  0.318  0.736-  11 2.70  20 2.70  12 2.75  14 2.76  18 2.98  19 3.01
  18  0.673  0.333  0.741-  20 2.67  13 2.67  12 2.76  15 2.78  19 2.91  17 2.98
  19  0.595  0.446  0.734-  16 2.70  20 2.72  14 2.75  15 2.77  18 2.91  17 3.01
  20  0.595  0.368  0.806-  18 2.67  17 2.70  19 2.72
  21  0.000  1.000  0.430- 304 2.11 223 2.11 239 2.11 224 2.11 321 2.12 221 2.13
  22  0.100  0.100  0.430- 223 2.11 224 2.11 228 2.11 243 2.12 322 2.12 222 2.13
  23  0.000  0.100  0.500- 223 2.11 302 2.11 222 2.11 221 2.11 225 2.12
  24  0.100  1.000  0.500- 224 2.10 221 2.11 238 2.11 241 2.11 222 2.11
  25  1.000  0.200  0.430- 308 2.11 223 2.11 228 2.11 227 2.11 325 2.12 225 2.13
  26  0.100  0.300  0.430- 227 2.11 232 2.11 228 2.11 247 2.12 326 2.12 226 2.13
  27  0.000  0.300  0.500- 227 2.11 226 2.11 306 2.11 225 2.12 229 2.12
  28  0.100  0.200  0.500- 228 2.11 225 2.11 245 2.11 222 2.11 226 2.12
  29  1.000  0.400  0.430- 312 2.11 232 2.11 227 2.11 231 2.12 329 2.12 229 2.13
  30  0.100  0.500  0.430- 231 2.11 251 2.11 236 2.11 232 2.11 330 2.12 230 2.13
  31  0.000  0.500  0.500- 231 2.11 230 2.11 310 2.11 233 2.12 229 2.12
  32  0.100  0.400  0.500- 232 2.11 229 2.11 249 2.11 230 2.12 226 2.12
  33  0.000  0.600  0.430- 236 2.11 235 2.11 231 2.11 316 2.11 333 2.12 233 2.13
  34  0.100  0.700  0.430- 235 2.11 240 2.11 255 2.11 236 2.11 334 2.12 234 2.13
  35  0.000  0.700  0.500- 235 2.11 234 2.11 237 2.11 314 2.11 233 2.11
  36  0.100  0.600  0.500- 236 2.11 233 2.11 253 2.11 234 2.11 230 2.11
  37  0.000  0.800  0.430- 239 2.11 240 2.11 235 2.11 320 2.11 337 2.12 237 2.13
  38  0.100  0.900  0.430- 239 2.11 240 2.11 224 2.11 259 2.11 338 2.12 238 2.13
  39  0.000  0.900  0.500- 239 2.10 221 2.11 238 2.11 237 2.11 318 2.11
  40  0.100  0.800  0.500- 240 2.10 237 2.11 238 2.11 257 2.11 234 2.11
  41  0.200  1.000  0.430- 224 2.11 259 2.11 243 2.12 244 2.12 341 2.12 241 2.13
  42  0.300  0.100  0.430- 243 2.11 244 2.11 263 2.11 248 2.11 342 2.13 242 2.13
  43  0.200  0.100  0.500- 243 2.11 222 2.11 241 2.11 245 2.12 242 2.12
  44  0.300  1.000  0.500- 244 2.11 241 2.11 258 2.11 261 2.12 242 2.12
  45  0.200  0.200  0.430- 228 2.11 243 2.11 247 2.11 345 2.12 248 2.13 245 2.14
  46  0.300  0.300  0.430- 267 2.11 247 2.11 252 2.11 248 2.12 346 2.12 246 2.13
  47  0.200  0.300  0.500- 226 2.11 247 2.11 249 2.11 246 2.12 245 2.12
  48  0.298  0.200  0.500- 245 2.09 248 2.11 246 2.11 242 2.11 265 2.13
  49  0.200  0.400  0.430- 232 2.11 252 2.11 251 2.11 247 2.12 349 2.12 249 2.13
  50  0.300  0.500  0.430- 251 2.11 256 2.11 252 2.11 271 2.12 350 2.12 250 2.13
  51  0.200  0.500  0.500- 251 2.11 230 2.11 250 2.11 253 2.11 249 2.12
  52  0.299  0.400  0.500- 249 2.10 252 2.11 269 2.11 250 2.11 246 2.12
  53  0.200  0.600  0.430- 236 2.11 255 2.11 251 2.11 256 2.11 353 2.12 253 2.13
  54  0.300  0.700  0.430- 255 2.11 260 2.11 256 2.11 275 2.12 354 2.12 254 2.13
  55  0.200  0.700  0.500- 255 2.11 234 2.11 257 2.11 253 2.11 254 2.11
  56  0.299  0.600  0.500- 253 2.11 256 2.11 254 2.11 273 2.11 250 2.12
  57  0.200  0.800  0.430- 240 2.11 255 2.11 259 2.11 260 2.12 357 2.12 257 2.13
  58  0.300  0.900  0.430- 259 2.11 260 2.11 279 2.11 244 2.12 358 2.12 258 2.13
  59  0.200  0.900  0.500- 259 2.10 238 2.11 257 2.11 241 2.11 258 2.11
  60  0.300  0.800  0.500- 260 2.10 257 2.11 258 2.11 254 2.11 277 2.12
  61  0.400  1.000  0.430- 264 2.11 244 2.11 279 2.11 361 2.12 263 2.13 261 2.13
  62  0.500  0.100  0.430- 268 2.11 264 2.11 283 2.11 263 2.12 362 2.12 262 2.12
  63  0.400  0.098  0.500- 261 2.09 263 2.11 262 2.11 242 2.11 265 2.14
  64  0.500  1.000  0.500- 264 2.11 278 2.11 262 2.11 281 2.11 261 2.12
  65  0.400  0.200  0.429- 268 2.10 267 2.10 248 2.10 263 2.10 365 2.11
  66  0.500  0.300  0.429- 266 2.07 366 2.10 287 2.11 268 2.12 267 2.12 272 2.13
  67  0.399  0.302  0.500- 269 2.09 246 2.11 267 2.12 266 2.12 265 2.16   1 3.01
  68  0.501  0.199  0.500- 285 2.09 262 2.11 268 2.11 266 2.13 265 2.16   1 2.95   2 3.06
  69  0.400  0.400  0.430- 269 2.11 252 2.11 369 2.11 272 2.11 271 2.12 267 2.13
  70  0.500  0.500  0.429- 272 2.10 271 2.11 370 2.11 276 2.12 291 2.12 270 2.14
  71  0.399  0.500  0.500- 250 2.10 269 2.10 271 2.11 273 2.12 270 2.13
  72  0.500  0.399  0.500- 266 2.11 272 2.11 269 2.13 289 2.13 270 2.15   5 2.89   8 2.98
  73  0.400  0.600  0.430- 256 2.11 271 2.11 275 2.11 373 2.12 276 2.13 273 2.13
  74  0.500  0.700  0.430- 280 2.11 275 2.11 295 2.12 276 2.12 374 2.12 274 2.13
  75  0.399  0.701  0.500- 254 2.10 277 2.11 275 2.11 273 2.12 274 2.12
[...]
 406  0.900  0.300  0.359- 208 2.11 207 2.11 127 2.11 212 2.11 206 2.11 106 2.12
 407  0.800  0.300  0.289- 186 2.11 205 2.11 206 2.11 209 2.11 207 2.11
 408  0.900  0.200  0.289- 206 2.11 202 2.11 205 2.11 125 2.11 208 2.11
 409  0.800  0.400  0.359- 192 2.11 207 2.11 211 2.11 212 2.11 209 2.11 109 2.12
 410  0.900  0.500  0.359- 131 2.11 211 2.11 212 2.11 216 2.11 210 2.11 110 2.12
 411  0.800  0.500  0.289- 190 2.11 209 2.11 210 2.11 213 2.11 211 2.11
 412  0.900  0.400  0.289- 129 2.11 206 2.11 209 2.11 210 2.11 212 2.11
 413  0.800  0.600  0.359- 196 2.11 211 2.11 215 2.11 216 2.11 213 2.11 113 2.12
 414  0.900  0.700  0.359- 220 2.11 215 2.11 216 2.11 135 2.11 214 2.11 114 2.12
 415  0.800  0.700  0.289- 194 2.11 217 2.11 214 2.11 213 2.11 215 2.11
 416  0.900  0.600  0.289- 133 2.11 210 2.11 213 2.11 214 2.11 216 2.11
 417  0.800  0.800  0.359- 200 2.11 215 2.11 219 2.11 220 2.11 217 2.11 117 2.12
 418  0.900  0.900  0.359- 139 2.11 204 2.11 219 2.11 220 2.11 218 2.11 118 2.12
 419  0.800  0.900  0.289- 198 2.11 201 2.11 217 2.11 218 2.11 219 2.11
 420  0.900  0.800  0.289- 214 2.11 137 2.11 217 2.11 218 2.11 220 2.11

  LATTYP: Found a simple tetragonal cell.
 ALAT       =    21.1388521970
 C/A-ratio  =     1.4191877459

  Lattice vectors:

 A1 = (  21.1388521970,   0.0000000000,   0.0000000000)
 A2 = (   0.0000000000,  21.1388521970,   0.0000000000)
 A3 = (   0.0000000000,   0.0000000000,  30.0000000000)

Analysis of symmetry for initial positions (statically):
 Subroutine PRICEL returns:
 Original cell was already a primitive cell.

 Routine SETGRP: Setting up the symmetry group for a
 simple tetragonal supercell.

 Subroutine GETGRP returns: Found  1 space group operations
 (whereof  1 operations were pure point group operations)
 out of a pool of 16 trial point group operations.

The static configuration has the point symmetry C_1 .

[...]
  506                  m_alltoallv_z                         0.061134                  6   8
  507                  map_scatter                           0.021808                  6   8
  508          m_sumb_d                              0.001230                          3   4
  509        fortau                                3.033777                            1   3
  510          m_sumb_d                              0.016738                          1   4
  511        forhar                                2.995558                            1   3
  512          m_sumb_d                              0.011588                          1   4
  513        strehar                               0.038619                            1   3
  514          m_sumb_d                              0.005552                          1   4
  515        m_bcast_d                             0.021171                            2   3
  516      potlok                                0.168959                              1   2
  517        fft3d_mpi                             0.114349                            5   3
  518          fftbrc_mpi                            0.105377                          5   4
  519            fftbas_plan_mpi                       0.105359                        5   5
  520              dfftw_execute                         0.035363                     15   6
  521              map_backward                          0.027988                      4   6
  522                map_gather                            0.003353                    2   7
  523                m_alltoallv_z                         0.017727                    2   7
  524                map_scatter                           0.006848                    2   7
  525              map_forward                           0.038322                      6   6
  526                map_gather                            0.005991                    4   7
  527                m_alltoallv_z                         0.021976                    4   7
  528                map_scatter                           0.010263                    4   7
  529        m_sumb_d                              0.002273                            2   3
  530        fewald                                0.001479                            2   3
  531          rsp                                   0.001336                          2   4
  532          rcp                                   0.000091                          2   4
  533        pothar                                0.003868                            1   3
  534          m_sumb_d                              0.000178                          1   4
  535        m_bcast_d                             0.011536                            1   3
  536      potlok_metagga                        2.950837                              1   2
  537        fft3d_mpi                             0.424737                           17   3
  538          fftbrc_mpi                            0.398148                         17   4
  539            fftbas_plan_mpi                       0.398085                       17   5
  540              dfftw_execute                         0.115287                     51   6
  541              map_forward                           0.168803                     22   6
  542                map_gather                            0.026594                   13   7
  543                m_alltoallv_z                         0.113464                   13   7
  544                map_scatter                           0.028240                   13   7
  545              map_backward                          0.100766                     12   6
  546                map_gather                            0.009648                    6   7
  547                m_alltoallv_z                         0.069943                    6   7
  548                map_scatter                           0.020924                    6   7
  549        m_sumb_d                              0.000710                            3   3
  550        m_bcast_d                             0.024434                            2   3
  551      set_dd_magatom                        0.000002                              1   2
  552      set_dd_paw                            5.072163                              1   2
  553        set_rsgf_all                          0.000002                            1   3
  554        m_sumb_d                              3.939490                            8   3

 Flat profile

 dfftw_execute                        1732.642754      225039
 edwav                                 774.396177          44
 lincom                                307.314408         139
 map_scatter                           279.861571       75260
 kinhamil_tau                          265.534738        7593
 map_gather                            239.043993       75260
 m_sumb_d                              231.143576       26977
 fftwav_mpi                            204.908526       42122
 orth1                                 175.215801        6819
 map_forward                           150.799461       85718
 eddav                                 149.601795           5
 m_alltoallv_z                         147.903333       75260
 potlok_metagga                        114.571229          46
 wfinit                                 91.869401           1
 set_kineden                            77.004987          64
 ggemm                                  55.295219        1266
 set_dd_paw                             53.422934          47
 eccp_tau                               51.871531        5301
 fftbas_plan_mpi                        47.533176       75013
 m_alltoall_d                           46.372408       50415
 choleski                               30.039215          45
 fftext_mpi                             29.849904       31626
 total_time                             29.056139           1
 eddiag                                 22.116592          23
 crrexp_mul_work_add                    18.936284      938700
 m_bcast_z                              18.732695        2893
 crrexp_mul_wave                        14.976510     1130220
 vhamil                                 14.243614        2292
 rpro1                                  13.539055        1950
 pw_charge                              12.094265        2162
 racc0                                  10.136284        1254
 lapack                                  7.348968         981
 gemm                                    6.907862      412020
 w1_dscal                                5.330466        1254
 redis_pw                                5.223946        7911
 setdij_                                 4.017034          73
 augmentation_charge                     3.719450          45
 rspher_all                              3.697785          14
 phaser                                  3.086978          40
 fortau                                  3.017039           1
 forloc                                  2.998941           1
 forhar                                  2.983970           1
 rpromu_gemm                             2.697481       81900
 fft3d_mpi                               2.603343       75013
 potxc_metagga                           2.496427           1
 m_bcast_d                               1.953076        2104
 racc0mu                                 1.936525         981
 stufak                                  1.829717           1
 potlok                                  1.812139          46
 orthch                                  0.975637          45
 map_backward                            0.924513       64308
 w1_copy                                 0.883147        2943
 overl                                   0.877285        3021
 rpromu                                  0.877198         195
 elmin_all                               0.683912           1
 stretau                                 0.617901           1
 soft_charge                             0.348295          45
 redis_proj                              0.336709        7616
 fftbas_mpi                              0.285038       73748
 setup_precond                           0.273038         285
 apply_precond                           0.252059         696
 depsum                                  0.196633          45
 inisym                                  0.183774           1
 pothar                                  0.168770          46
 overl1                                  0.132206         981
 fft_gq                                  0.080994          45
 rsp                                     0.071198          93
 strnlr                                  0.053531           1
 set_charge                              0.048861          45
 densta                                  0.040948          56
 strehar                                 0.033067           1
 strkin                                  0.032831           1
 hamiltmu_tau                            0.030327         981
 force_and_stress                        0.029184           1
 strelo                                  0.027250           1
 hamilt_local_tau                        0.024567        1311
 newband                                 0.021718         986
 fornlr                                  0.018068           1
 raccmu_                                 0.014268         981
 fewald                                  0.011616          93
 rpro_isp                                0.010612          13
 rcp                                     0.005669          93
 fftbrc_mpi                              0.004928        1265
 w1_projall                              0.004734         696
 brgrid                                  0.002907           1
 truncate_high_frequency_w1              0.001395        1266
 fordep                                  0.000687           1
 redis_pw_all                            0.000487          44
 crpa_reader                             0.000261           1
 posmap                                  0.000255           2
 redis_pw_over_bands                     0.000200          45
 set_rsgf_all                            0.000124          47
 proall                                  0.000082           1
 vectorpot                               0.000025           1
 rotate_active_occupied_orbital          0.000018           1
 set_dd_magatom                          0.000010           2
 shift_bands_between_low_high            0.000008           1
  summed up times    5482.27566480637

 Accumulative profile

 total_time                           5482.275665           1
 elmin_all                            5106.485445           1
 edwav                                2987.352297          44
 fft3d_mpi                            2601.602110       75013
 fftbas_plan_mpi                      2598.708800       75013
 fftbas_mpi                           2570.813861       73748
 kinhamil_tau                         2231.326435        7593
 fftwav_mpi                           1743.595800       42122
 dfftw_execute                        1732.642754      225039
 eccp_tau                             1604.920771        5301
 fftext_mpi                           1062.297650       31626
 eddav                                 785.281780           5
 map_forward                           536.499252       85718
 set_kineden                           535.709601          64
 eddiag                                471.459706          23
 hamilt_local_tau                      394.787651        1311
 hamiltmu_tau                          315.715830         981
 lincom                                307.314408         139
 map_backward                          282.033618       64308
 map_scatter                           279.861571       75260
 set_dd_paw                            241.351020          47
 map_gather                            239.043993       75260
 m_sumb_d                              231.143576       26977
 force_and_stress                      218.025197           1
 orthch                                181.575074          45
 orth1                                 175.215801        6819
 stretau                               159.706927           1
 m_alltoallv_z                         147.903333       75260
 potlok_metagga                        134.771628          46
 set_charge                            110.711011          45
 wfinit                                110.017463           1
 soft_charge                           105.433937          45
 newband                               100.652892         986
 ggemm                                  55.295219        1266
 m_alltoall_d                           46.372408       50415
 redis_pw                               40.984508        7911
 rpro_isp                               38.207789          13
 choleski                               30.039215          45
 strnlr                                 29.706282           1
 fftbrc_mpi                             28.184906        1265
 rpro1                                  25.096625        1950
 racc0                                  21.019785        1254
 crrexp_mul_work_add                    18.936284      938700
 m_bcast_z                              18.732695        2893
 raccmu_                                17.589211         981
 racc0mu                                17.442736         981
 crrexp_mul_wave                        14.976510     1130220
 vhamil                                 14.243614        2292
 pw_charge                              12.094265        2162
 redis_proj                             10.948555        7616
 fornlr                                  9.904815           1
 w1_projall                              9.307712         696
 potlok                                  8.131286          46
 rpromu                                  7.801202         195
 lapack                                  7.348968         981
 gemm                                    6.907862      412020
 redis_pw_over_bands                     6.768471          45
 redis_pw_all                            6.768272          44
 w1_dscal                                5.330466        1254
 augmentation_charge                     4.924759          45
 setdij_                                 4.494849          73
 rspher_all                              3.697785          14
 proall                                  3.117660           1
 phaser                                  3.086978          40
 fortau                                  3.033777           1
 forloc                                  3.017491           1
 forhar                                  2.995558           1
 potxc_metagga                           2.818733           1
 rpromu_gemm                             2.697481       81900
 m_bcast_d                               1.953076        2104
 stufak                                  1.829717           1
 fft_gq                                  1.045623          45
 w1_copy                                 0.883147        2943
 overl                                   0.877285        3021
 fordep                                  0.359768           1
 fewald                                  0.339139          93
 depsum                                  0.303453          45
 setup_precond                           0.286702         285
 apply_precond                           0.252059         696
 pothar                                  0.232455          46
 inisym                                  0.184029           1
 densta                                  0.183364          56
 overl1                                  0.132206         981
 rsp                                     0.071198          93
 strehar                                 0.038619           1
 strkin                                  0.034037           1
 strelo                                  0.027679           1
 rcp                                     0.005669          93
 brgrid                                  0.002907           1
 truncate_high_frequency_w1              0.001395        1266
 crpa_reader                             0.000261           1
 posmap                                  0.000255           2
 set_rsgf_all                            0.000124          47
 vectorpot                               0.000025           1
 rotate_active_occupied_orbital          0.000018           1
 set_dd_magatom                          0.000010           2
 shift_bands_between_low_high            0.000008           1

Profiling took   4.904178  1.214581  0.006804  0.006523 seconds
Profiling took   4.101493 seconds