 vasp.6.4.1 05Apr23 (build May 06 2023 19:47:20) complex

 executed on             LinuxIFC date 2023.07.05  13:59:05

 INCAR:
   SYSTEM = MgO-rocksalt
   ISMEAR = 0
   SIGMA = 0.05
   EDIFF = 1E-6
   ALGO = ALL
   ISTART = 0
   IBRION = -1
   NSW = 0
   ISYM = 2
   DIPOL = 0.5 0.5 0.5
   IDIPOL = 3
   LDIPOL = .TRUE.
   GGA = RE
   IVDW = 11
   ENCUT = 520
   PREC = Accurate
   LASPH = .TRUE.
   LREAL = Auto
   ISPIN = 1
   NELM = 200
   NELMIN = 8
   NCORE = 16
   KPAR = 1
   LWAVE = .FALSE.
   LCHARG = .FALSE.

 POTCAR:    PAW_PBE Cu 22Jun2005
 POTCAR:    PAW_PBE Mg_pv 13Apr2007
 POTCAR:    PAW_PBE O 08Apr2002
 POTCAR:    PAW_PBE Cu 22Jun2005
   VRHFIN =Cu: d10 p1

   TITEL  = PAW_PBE Cu 22Jun2005
   POMASS =   63.546; ZVAL   =   11.000    mass and valenz
   ENMAX  =  295.446; ENMIN  =  221.585 eV

   TITEL  = PAW_PBE Mg_pv 13Apr2007
   POMASS =   24.305; ZVAL   =    8.000    mass and valenz
   ENMAX  =  403.929; ENMIN  =  302.947 eV

   TITEL  = PAW_PBE O 08Apr2002
   POMASS =   16.000; ZVAL   =    6.000    mass and valenz
   ENMAX  =  400.000; ENMIN  =  300.000 eV

 Optimization of the real space projectors (new method)

 maximal supplied QI-value         = 16.25
 optimisation between [QCUT,QGAM] = [ 11.54, 23.24] = [ 37.28,151.24] Ry
 Optimized for a Real-space Cutoff    1.53 Angstroem

   l    n(q)    QCUT    max X(q) W(low)/X(q) W(high)/X(q)  e(spline)
   2     10    11.539     4.610    0.96E-04    0.13E-03    0.19E-06
   2     10    11.539     8.522    0.16E-03    0.21E-03    0.28E-06
   0     11    11.539    51.609    0.45E-04    0.31E-04    0.11E-06
   0     11    11.539    27.747    0.39E-04    0.29E-04    0.10E-06
   1     10    11.539    20.408    0.70E-05    0.38E-04    0.18E-06
   1     10    11.539    13.425    0.66E-05    0.34E-04    0.17E-06
 Optimization of the real space projectors (new method)

[...]

   l    n(q)    QCUT    max X(q) W(low)/X(q) W(high)/X(q)  e(spline)
   1      8    11.527     2.974    0.44E-04    0.56E-04    0.12E-06
   1      8    11.527     4.279    0.12E-03    0.12E-03    0.26E-06
   0      9    11.527    16.381    0.46E-04    0.64E-04    0.78E-07
   0      9    11.527     5.611    0.26E-04    0.43E-04    0.55E-07
   2      8    11.527     4.652    0.22E-03    0.72E-04    0.47E-07
 Optimization of the real space projectors (new method)

 maximal supplied QI-value         = 24.76
 optimisation between [QCUT,QGAM] = [ 11.64, 23.27] = [ 37.91,151.63] Ry
 Optimized for a Real-space Cutoff    1.14 Angstroem

   l    n(q)    QCUT    max X(q) W(low)/X(q) W(high)/X(q)  e(spline)
   0      8    11.635    20.381    0.10E-03    0.33E-03    0.24E-06
   0      8    11.635    15.268    0.11E-03    0.35E-03    0.26E-06
   1      7    11.635     5.964    0.24E-03    0.31E-03    0.30E-06
   1      7    11.635     5.382    0.22E-03    0.25E-03    0.26E-06
|               ----> ADVICE to this user running VASP <----                  |
|     You enforced a specific xc type in the INCAR file but a different       |
|     type was found in the POTCAR file.                                      |
|     I HOPE YOU KNOW WHAT YOU ARE DOING!                                     |

  PAW_PBE Cu 22Jun2005                  :
  PAW_PBE Mg_pv 13Apr2007               :
  PAW_PBE O 08Apr2002                   :

 POSCAR: Cu Mg  O
  positions in direct lattice
  velocities in cartesian coordinates
 exchange correlation table for  LEXCH =       40
   RHO(1)=    0.500       N(1)  =     2000
   RHO(2)=  100.500       N(2)  =     4000

 ion  position               nearest neighbor table
   1  0.400  0.558  0.598- 157 2.29   3 2.35  55 2.43   4 2.47
   2  0.400  0.499  0.790-   3 2.25
   3  0.400  0.499  0.688-   2 2.25   1 2.35   4 2.35
   4  0.400  0.441  0.597- 153 2.26   3 2.35  55 2.43   1 2.47
   5  0.000  0.000  0.407- 107 2.11 108 2.11 123 2.11 188 2.11 105 2.11
   6  0.100  0.100  0.407- 107 2.11 108 2.11 112 2.11 127 2.11 106 2.11
   7  0.000  0.100  0.503- 105 2.11 106 2.11 109 2.11 186 2.11 107 2.11
   8  0.100  0.000  0.503- 105 2.11 106 2.11 122 2.11 125 2.11 108 2.11
   9  0.000  0.200  0.407- 111 2.11 107 2.11 112 2.11 192 2.11 109 2.11
  10  0.100  0.300  0.407- 112 2.11 111 2.11 116 2.11 131 2.11 110 2.11
  11  0.000  0.300  0.503- 109 2.11 110 2.11 113 2.11 190 2.11 111 2.11
  12  0.100  0.200  0.503- 110 2.11 109 2.11 106 2.11 129 2.11 112 2.11
  13  0.000  0.400  0.407- 111 2.11 115 2.11 116 2.11 196 2.11 113 2.11
  14  0.100  0.500  0.407- 115 2.11 116 2.11 120 2.11 135 2.11 114 2.11
  15  0.000  0.500  0.503- 113 2.11 114 2.11 117 2.11 194 2.11 115 2.11
  16  0.100  0.400  0.503- 110 2.11 113 2.11 114 2.11 133 2.11 116 2.11
  17  0.000  0.600  0.407- 115 2.11 119 2.11 120 2.11 200 2.11 117 2.11
  18  0.100  0.700  0.407- 124 2.11 120 2.11 119 2.11 139 2.11 118 2.11
  19  0.000  0.700  0.503- 121 2.11 118 2.11 117 2.11 198 2.11 119 2.11
  20  0.100  0.600  0.503- 114 2.11 117 2.11 118 2.11 137 2.11 120 2.11
  21  0.000  0.800  0.407- 119 2.11 123 2.11 124 2.11 204 2.11 121 2.11
  22  0.100  0.900  0.407- 108 2.11 123 2.11 124 2.11 143 2.11 122 2.11
  23  0.000  0.900  0.503- 105 2.11 121 2.11 122 2.11 202 2.11 123 2.11
  24  0.100  0.800  0.503- 118 2.11 121 2.11 122 2.11 141 2.11 124 2.11
  25  0.200  0.000  0.407- 128 2.11 127 2.11 108 2.11 143 2.11 125 2.11
  26  0.300  0.100  0.407- 127 2.11 128 2.11 132 2.11 147 2.11 126 2.11
  27  0.200  0.100  0.503- 126 2.11 125 2.11 106 2.11 129 2.11 127 2.11
  28  0.300  0.000  0.503- 125 2.11 126 2.11 142 2.11 145 2.11 128 2.11
  29  0.200  0.200  0.407- 131 2.11 132 2.11 112 2.11 127 2.11 129 2.11
  30  0.300  0.300  0.407- 131 2.11 132 2.11 136 2.11 151 2.11 130 2.11
  31  0.200  0.300  0.503- 129 2.11 130 2.11 110 2.11 133 2.11 131 2.11
  32  0.300  0.200  0.503- 129 2.11 130 2.11 126 2.11 149 2.11 132 2.11
  33  0.200  0.400  0.407- 136 2.11 131 2.11 135 2.11 116 2.11 133 2.11
  34  0.300  0.500  0.407- 135 2.11 136 2.11 140 2.11 155 2.11 134 2.11
  35  0.200  0.500  0.503- 134 2.11 133 2.11 114 2.11 137 2.11 135 2.11
  36  0.300  0.400  0.503- 133 2.11 130 2.11 134 2.11 153 2.11 136 2.11
  37  0.200  0.600  0.407- 140 2.11 135 2.11 139 2.11 120 2.11 137 2.11
  38  0.300  0.700  0.407- 139 2.11 144 2.11 140 2.11 159 2.11 138 2.11
  39  0.200  0.700  0.503- 138 2.11 141 2.11 118 2.11 137 2.11 139 2.11
  40  0.300  0.600  0.503- 137 2.11 134 2.11 138 2.11 157 2.11 140 2.11
  41  0.200  0.800  0.407- 139 2.11 144 2.11 143 2.11 124 2.11 141 2.11
  42  0.300  0.900  0.407- 143 2.11 128 2.11 144 2.11 163 2.11 142 2.11
  43  0.200  0.900  0.503- 142 2.11 125 2.11 141 2.11 122 2.11 143 2.11
  44  0.300  0.800  0.503- 138 2.11 141 2.11 142 2.11 161 2.11 144 2.11
  45  0.400  0.000  0.407- 128 2.11 147 2.11 148 2.11 163 2.11 145 2.11
  46  0.500  0.100  0.407- 147 2.11 148 2.11 152 2.11 167 2.11 146 2.11
  47  0.400  0.100  0.503- 126 2.11 145 2.11 146 2.11 149 2.11 147 2.11
  48  0.500  0.000  0.503- 145 2.11 146 2.11 162 2.11 165 2.11 148 2.11
  49  0.400  0.200  0.407- 151 2.11 147 2.11 132 2.11 152 2.11 149 2.11
  50  0.500  0.300  0.407- 152 2.11 151 2.11 156 2.11 171 2.11 150 2.11
  51  0.400  0.300  0.503- 149 2.11 130 2.11 150 2.11 153 2.11 151 2.11
  52  0.500  0.200  0.503- 150 2.11 149 2.11 146 2.11 169 2.11 152 2.11
  53  0.400  0.400  0.407- 136 2.11 151 2.11 155 2.11 156 2.11 153 2.11
  54  0.500  0.500  0.407- 155 2.11 156 2.11 160 2.11 175 2.11 154 2.11
  55  0.400  0.500  0.503- 134 2.11 153 2.11 154 2.11 157 2.11 155 2.11   4 2.43   1 2.43
  56  0.500  0.400  0.503- 150 2.11 153 2.11 154 2.11 173 2.11 156 2.11
  57  0.400  0.600  0.407- 140 2.11 155 2.11 159 2.11 160 2.11 157 2.11
  58  0.500  0.700  0.407- 164 2.11 160 2.11 159 2.11 179 2.11 158 2.11
  59  0.400  0.700  0.503- 161 2.11 157 2.11 158 2.11 138 2.11 159 2.11
  60  0.500  0.600  0.503- 154 2.11 157 2.11 158 2.11 177 2.11 160 2.11
[...]
 190  0.900  0.300  0.503-  92 2.11  91 2.11  11 2.11  96 2.11  90 2.11
 191  0.800  0.300  0.407-  70 2.11  89 2.11  90 2.11  93 2.11  91 2.11
 192  0.900  0.200  0.407-  90 2.11  86 2.11  89 2.11   9 2.11  92 2.11
 193  0.800  0.400  0.503-  76 2.11  91 2.11  95 2.11  96 2.11  93 2.11
 194  0.900  0.500  0.503-  15 2.11  95 2.11  96 2.11 100 2.11  94 2.11
 195  0.800  0.500  0.407-  74 2.11  93 2.11  94 2.11  97 2.11  95 2.11
 196  0.900  0.400  0.407-  13 2.11  90 2.11  93 2.11  94 2.11  96 2.11
 197  0.800  0.600  0.503-  80 2.11  95 2.11  99 2.11 100 2.11  97 2.11
 198  0.900  0.700  0.503- 104 2.11  99 2.11 100 2.11  19 2.11  98 2.11
 199  0.800  0.700  0.407-  78 2.11 101 2.11  98 2.11  97 2.11  99 2.11
 200  0.900  0.600  0.407-  17 2.11  94 2.11  97 2.11  98 2.11 100 2.11
 201  0.800  0.800  0.503-  84 2.11  99 2.11 103 2.11 104 2.11 101 2.11
 202  0.900  0.900  0.503-  23 2.11  88 2.11 103 2.11 104 2.11 102 2.11
 203  0.800  0.900  0.407-  82 2.11  85 2.11 101 2.11 102 2.11 103 2.11
 204  0.900  0.800  0.407-  98 2.11  21 2.11 101 2.11 102 2.11 104 2.11

  LATTYP: Found a simple tetragonal cell.
 ALAT       =    21.1388521970
 C/A-ratio  =     1.0461251639

  Lattice vectors:

 A1 = (  21.1388521970,   0.0000000000,   0.0000000000)
 A2 = (   0.0000000000,  21.1388521970,   0.0000000000)
 A3 = (   0.0000000000,   0.0000000000,  22.1138852197)

Analysis of symmetry for initial positions (statically):
 Subroutine PRICEL returns:
 Original cell was already a primitive cell.

 Routine SETGRP: Setting up the symmetry group for a
 simple tetragonal supercell.

 Subroutine GETGRP returns: Found  1 space group operations
 (whereof  1 operations were pure point group operations)
 out of a pool of 16 trial point group operations.

The static configuration has the point symmetry C_1 .

Analysis of symmetry for dynamics (positions and initial velocities):
 Subroutine PRICEL returns:
 Original cell was already a primitive cell.

[...]

The dynamic configuration has the point symmetry C_1 .

Analysis of constrained symmetry for selective dynamics:
 Subroutine PRICEL returns:
 Original cell was already a primitive cell.

 Routine SETGRP: Setting up the symmetry group for a
 simple tetragonal supercell.

 Subroutine GETGRP returns: Found  1 space group operations
 (whereof  1 operations were pure point group operations)
 out of a pool of 16 trial point group operations.

The constrained configuration has the point symmetry C_1 .

 Subroutine INISYM returns: Found  1 space group operations
 (whereof  1 operations are pure point group operations),
 and found     1 'primitive' translations

                                     Primitive cell

  volume of cell :    9881.6133

  direct lattice vectors                    reciprocal lattice vectors
    21.138852197  0.000000000  0.000000000     0.047306258  0.000000000  0.000000000
     0.000000000 21.138852197  0.000000000     0.000000000  0.047306258  0.000000000
     0.000000000  0.000000000 22.113885220     0.000000000  0.000000000  0.045220457

  length of vectors
    21.138852197 21.138852197 22.113885220     0.047306258  0.047306258  0.045220457

  position of ions in fractional coordinates (direct lattice)
     0.399799103  0.557704010  0.597819508
     0.399656041  0.499161715  0.789905234
     0.399599063  0.498964654  0.687952686
[...]
    903       5.3944      0.00000
    904       5.4920      0.00000
    905       5.6092      0.00000
    906       5.6480      0.00000
    907       5.6899      0.00000
    908       5.7146      0.00000
    909       5.7422      0.00000
    910       5.7797      0.00000
    911       5.7917      0.00000
    912       5.8288      0.00000

 soft charge-density along one line, spin component           1
         0         1         2         3         4         5         6         7         8         9
 total charge-density along one line

------------------------ aborting loop because EDIFF is reached ----------------------------------------

         DFTD3 V3.0 Rev 1
 IVDW         = 11
 DF revpbe
 parameters
 VDW_S6       =    1.0000
 VDW_S8       =    1.0100
 VDW_SR       =    0.9230
 rs18     =    1.0000
 alpha6   =   14.0000
 alpha8   =   16.0000
 k1-k3    =   16.0000    1.3333   -4.0000
 VDW_RADIUS   =   50.2022 A
 VDW_CNRADIUS =   21.1671 A
 Edisp (eV)  -36.48568

 E6    (eV) :   -20.9446
 E8    (eV) :   -15.5410
 % E8        : 42.59

  FORCE on cell =-STRESS in cart. coord.  units (eV):
  Direction    XX          YY          ZZ          XY          YZ          ZX
  Alpha Z  1394.80054  1394.80054  1394.80054
  Ewald  476789.57733478031.49515************     0.08233     1.75104    -2.53842
  Hartree506681.68560507650.64329************     0.06348     1.09865    -2.00229
  E(xc)   -7933.64965 -7932.68551 -7980.80687     0.00005     0.00384    -0.00247
  Local  ************************************    -0.14446    -2.84758     4.50817
  n-local -8799.97470 -8801.31618 -8921.29858     0.00015     0.00361     0.00004
  augment  3659.93885  3652.91366  3589.62273    -0.00042    -0.00772     0.01435
  Kinetic 23067.74530 23060.03882 23298.49998    -0.00053    -0.01172     0.02979
  Fock        0.00000     0.00000     0.00000     0.00000     0.00000     0.00000
  vdW       -50.04153   -50.25490    -9.81052    -0.00006     0.00344    -0.00162
  Total    -151.90333  -153.15886    32.29105     0.00055    -0.00645     0.00756
  in kB     -24.62918   -24.83275     5.23558     0.00009    -0.00105     0.00122

 VOLUME and BASIS-vectors are now :
  energy-cutoff  :      520.00
  volume of cell :     9881.61
      direct lattice vectors                 reciprocal lattice vectors
    21.138852197  0.000000000  0.000000000     0.047306258  0.000000000  0.000000000
     0.000000000 21.138852197  0.000000000     0.000000000  0.047306258  0.000000000
     0.000000000  0.000000000 22.113885220     0.000000000  0.000000000  0.045220457

  length of vectors
    21.138852197 21.138852197 22.113885220     0.047306258  0.047306258  0.045220457

 FORCES acting on ions:
    Electron-Ion                     Ewald-Force                    Non-Local-Force
   -.594E+00 -.488E+03 -.187E+04   0.583E+00 0.479E+03 0.188E+04   0.142E-01 0.992E+01 -.516E+01
   -.810E-01 -.288E+00 -.154E+04   0.676E-01 0.246E+00 0.153E+04   0.119E-01 0.383E-01 0.115E+02
   0.132E+01 0.389E+01 -.186E+04   -.129E+01 -.384E+01 0.186E+04   -.215E-01 -.578E-01 0.847E+00
   -.533E+00 0.484E+03 -.187E+04   0.524E+00 -.475E+03 0.188E+04   0.131E-01 -.970E+01 -.516E+01
   0.647E+01 0.578E-01 0.935E+03   -.650E+01 -.582E-01 -.927E+03   0.245E-01 0.294E-03 -.756E+01
   0.127E+02 0.987E+01 0.939E+03   -.128E+02 -.990E+01 -.931E+03   0.541E-01 0.207E-01 -.756E+01
   0.929E+01 0.884E+01 -.918E+03   -.932E+01 -.884E+01 0.910E+03   0.280E-01 0.221E-02 0.746E+01
   0.135E+02 0.103E+00 -.917E+03   -.135E+02 -.103E+00 0.909E+03   0.385E-01 0.490E-03 0.746E+01
   0.102E+02 0.119E+02 0.938E+03   -.102E+02 -.120E+02 -.931E+03   0.434E-01 0.898E-02 -.757E+01
   0.270E+02 0.195E+02 0.950E+03   -.272E+02 -.195E+02 -.943E+03   0.141E+00 0.247E-01 -.759E+01
   0.197E+02 0.165E+02 -.912E+03   -.198E+02 -.165E+02 0.904E+03   0.461E-01 -.134E-02 0.745E+01
   0.251E+02 0.238E+02 -.911E+03   -.252E+02 -.238E+02 0.903E+03   0.905E-01 0.133E-01 0.745E+01
   0.180E+02 0.821E+01 0.945E+03   -.181E+02 -.821E+01 -.937E+03   0.676E-01 0.317E-02 -.758E+01
   0.401E+02 -.121E+00 0.961E+03   -.403E+02 0.122E+00 -.953E+03   0.175E+00 -.698E-03 -.760E+01
   0.287E+02 -.946E-01 -.907E+03   -.288E+02 0.949E-01 0.900E+03   0.448E-01 -.265E-03 0.744E+01
   0.573E+02 0.201E+02 -.895E+03   -.575E+02 -.201E+02 0.887E+03   0.127E+00 -.313E-02 0.743E+01
   0.180E+02 -.832E+01 0.945E+03   -.181E+02 0.832E+01 -.937E+03   0.671E-01 -.368E-02 -.758E+01
   0.269E+02 -.195E+02 0.950E+03   -.271E+02 0.196E+02 -.942E+03   0.139E+00 -.250E-01 -.759E+01
   0.196E+02 -.165E+02 -.912E+03   -.197E+02 0.165E+02 0.904E+03   0.455E-01 0.119E-02 0.745E+01
   0.571E+02 -.203E+02 -.895E+03   -.573E+02 0.203E+02 0.887E+03   0.126E+00 0.236E-02 0.743E+01
   0.101E+02 -.119E+02 0.938E+03   -.102E+02 0.119E+02 -.931E+03   0.428E-01 -.877E-02 -.757E+01
   0.127E+02 -.973E+01 0.939E+03   -.128E+02 0.975E+01 -.931E+03   0.535E-01 -.197E-01 -.756E+01
   0.924E+01 -.871E+01 -.918E+03   -.928E+01 0.871E+01 0.910E+03   0.277E-01 -.180E-02 0.746E+01
   0.249E+02 -.237E+02 -.911E+03   -.250E+02 0.237E+02 0.903E+03   0.890E-01 -.130E-01 0.745E+01
   0.115E+02 0.112E+00 0.940E+03   -.116E+02 -.114E+00 -.932E+03   0.453E-01 0.932E-03 -.757E+01
   0.920E+01 0.186E+02 0.946E+03   -.925E+01 -.187E+02 -.939E+03   0.420E-01 0.103E+00 -.757E+01
   0.182E+02 0.199E+02 -.911E+03   -.183E+02 -.200E+02 0.904E+03   0.559E-01 0.529E-01 0.745E+01
   0.947E+01 0.203E+00 -.912E+03   -.950E+01 -.204E+00 0.904E+03   0.272E-01 0.119E-02 0.745E+01
   0.213E+02 0.265E+02 0.951E+03   -.215E+02 -.266E+02 -.943E+03   0.123E+00 0.901E-01 -.757E+01
   0.281E+02 0.498E+02 0.988E+03   -.284E+02 -.501E+02 -.981E+03   0.261E+00 0.255E+00 -.749E+01
   0.592E+02 0.544E+02 -.883E+03   -.596E+02 -.545E+02 0.876E+03   0.327E+00 0.201E-01 0.743E+01
   0.244E+02 0.605E+02 -.892E+03   -.245E+02 -.609E+02 0.884E+03   0.855E-01 0.282E+00 0.745E+01
   0.507E+02 0.239E+02 0.985E+03   -.512E+02 -.239E+02 -.977E+03   0.394E+00 0.423E-01 -.766E+01
   0.559E+02 -.445E+00 0.105E+04   -.565E+02 0.454E+00 -.104E+04   0.400E+00 -.646E-02 -.765E+01
   0.121E+03 -.448E+00 -.843E+03   -.122E+03 0.449E+00 0.836E+03   0.281E+00 -.101E-02 0.738E+01
   0.142E+03 0.108E+03 -.751E+03   -.144E+03 -.108E+03 0.743E+03   0.164E+01 -.331E-01 0.717E+01
   0.505E+02 -.241E+02 0.984E+03   -.510E+02 0.242E+02 -.976E+03   0.387E+00 -.450E-01 -.766E+01
   0.278E+02 -.496E+02 0.988E+03   -.281E+02 0.500E+02 -.980E+03   0.256E+00 -.252E+00 -.749E+01
   0.586E+02 -.543E+02 -.884E+03   -.590E+02 0.543E+02 0.876E+03   0.320E+00 -.211E-01 0.743E+01
   0.140E+03 -.109E+03 -.752E+03   -.142E+03 0.109E+03 0.745E+03   0.160E+01 0.246E-01 0.718E+01
   0.212E+02 -.263E+02 0.951E+03   -.213E+02 0.264E+02 -.943E+03   0.121E+00 -.884E-01 -.757E+01
   0.914E+01 -.183E+02 0.946E+03   -.919E+01 0.184E+02 -.939E+03   0.415E-01 -.993E-01 -.757E+01
   0.181E+02 -.196E+02 -.912E+03   -.181E+02 0.197E+02 0.904E+03   0.553E-01 -.510E-01 0.745E+01
   0.241E+02 -.599E+02 -.892E+03   -.242E+02 0.603E+02 0.884E+03   0.843E-01 -.275E+00 0.745E+01
   -.221E-01 0.159E+00 0.944E+03   0.220E-01 -.161E+00 -.936E+03   0.835E-04 0.153E-02 -.757E+01
   -.924E+01 0.186E+02 0.946E+03   0.929E+01 -.187E+02 -.939E+03   -.419E-01 0.103E+00 -.757E+01
   -.377E-01 0.308E+02 -.906E+03   0.375E-01 -.310E+02 0.898E+03   0.127E-03 0.129E+00 0.745E+01
   -.951E+01 0.202E+00 -.912E+03   0.955E+01 -.204E+00 0.904E+03   -.270E-01 0.119E-02 0.745E+01
   -.458E-01 0.417E+02 0.964E+03   0.456E-01 -.421E+02 -.957E+03   0.140E-03 0.354E+00 -.760E+01
   -.282E+02 0.497E+02 0.988E+03   0.285E+02 -.500E+02 -.981E+03   -.261E+00 0.256E+00 -.749E+01
   -.207E+00 0.140E+03 -.821E+03   0.206E+00 -.142E+03 0.813E+03   0.439E-03 0.164E+01 0.759E+01
   -.245E+02 0.604E+02 -.892E+03   0.246E+02 -.608E+02 0.884E+03   -.852E-01 0.282E+00 0.745E+01
   -.150E+00 0.509E+02 0.106E+04   0.149E+00 -.511E+02 -.105E+04   0.871E-03 0.162E+00 -.564E+01
   -.561E+02 -.443E+00 0.105E+04   0.566E+02 0.452E+00 -.104E+04   -.400E+00 -.649E-02 -.765E+01
   -.937E+00 -.271E+01 -.454E+03   0.939E+00 0.279E+01 0.451E+03   0.242E-02 -.490E-01 0.221E+01
   -.142E+03 0.108E+03 -.751E+03   0.144E+03 -.108E+03 0.744E+03   -.164E+01 -.333E-01 0.718E+01
   -.147E+00 -.514E+02 0.106E+04   0.146E+00 0.516E+02 -.105E+04   0.816E-03 -.171E+00 -.570E+01
   -.279E+02 -.496E+02 0.988E+03   0.282E+02 0.499E+02 -.980E+03   -.256E+00 -.253E+00 -.749E+01
   -.200E+00 -.138E+03 -.823E+03   0.200E+00 0.140E+03 0.815E+03   0.430E-03 -.159E+01 0.759E+01
   -.140E+03 -.109E+03 -.753E+03   0.142E+03 0.109E+03 0.746E+03   -.160E+01 0.248E-01 0.719E+01
[...]
   -.106E+02 0.948E+01 0.708E+03   0.106E+02 -.949E+01 -.712E+03   -.519E-01 0.101E-01 0.340E+01
   0.214E-01 0.764E+01 0.704E+03   -.213E-01 -.764E+01 -.708E+03   -.149E-03 0.661E-02 0.340E+01
   -.194E+02 0.814E+01 -.683E+03   0.194E+02 -.813E+01 0.687E+03   -.474E-01 -.191E-02 -.360E+01
   0.564E-01 -.545E-01 -.685E+03   -.562E-01 0.546E-01 0.689E+03   -.295E-03 -.240E-03 -.359E+01
   -.147E+02 -.536E-01 0.711E+03   0.147E+02 0.539E-01 -.716E+03   -.588E-01 -.404E-03 0.339E+01
   0.363E-01 0.505E+01 0.708E+03   -.361E-01 -.505E+01 -.712E+03   -.232E-03 0.164E-02 0.340E+01
   -.194E+02 -.824E+01 -.683E+03   0.194E+02 0.824E+01 0.687E+03   -.471E-01 0.136E-02 -.360E+01
   0.398E-01 -.991E+01 -.687E+03   -.397E-01 0.991E+01 0.692E+03   -.223E-03 0.524E-03 -.358E+01
   -.106E+02 -.950E+01 0.708E+03   0.106E+02 0.951E+01 -.712E+03   -.513E-01 -.103E-01 0.340E+01
   0.361E-01 -.512E+01 0.708E+03   -.360E-01 0.512E+01 -.712E+03   -.228E-03 -.208E-02 0.340E+01
   -.995E+01 -.113E+02 -.688E+03   0.998E+01 0.113E+02 0.692E+03   -.367E-01 -.664E-02 -.358E+01
   0.199E-01 -.551E+01 -.691E+03   -.198E-01 0.552E+01 0.695E+03   -.124E-03 -.199E-02 -.357E+01
   -.552E+01 -.522E+01 0.703E+03   0.555E+01 0.522E+01 -.708E+03   -.316E-01 -.895E-02 0.341E+01
   0.213E-01 -.761E+01 0.704E+03   -.211E-01 0.761E+01 -.708E+03   -.146E-03 -.642E-02 0.340E+01
   0.906E-02 -.253E+00 0.609E+01   0.235E-11 -.924E-12 -.352E-11   -.642E-02 0.251E+00 -.675E+01

 POSITION                                       TOTAL-FORCE (eV/Angst)
      8.45129     11.78922     13.22011         0.003074      0.107267      0.028712
      8.44827     10.55171     17.46787        -0.001542     -0.003789      0.192379
      8.44707     10.54754     15.21331         0.000954     -0.005153     -0.066631
      8.45116      9.32335     13.20450         0.003354     -0.095597      0.039668
      0.00000      0.00000      9.00000        -0.006741     -0.000073      0.243488
      2.11389      2.11389      9.00000        -0.014993     -0.005792      0.243548
      0.00000      2.11389     11.11389        -0.007449     -0.000545     -0.204891
      2.11389      0.00000     11.11389        -0.010612     -0.000112     -0.204108
      0.00000      4.22777      9.00000        -0.011532     -0.002471      0.244734
      2.11389      6.34166      9.00000        -0.036922     -0.006673      0.248480
      0.00000      6.34166     11.11389        -0.011425      0.000753     -0.199557
      2.11389      4.22777     11.11389        -0.023356     -0.003333     -0.198742
      0.00000      8.45554      9.00000        -0.017653     -0.000703      0.247255
      2.11389     10.56943      9.00000        -0.046455      0.000206      0.253020
      0.00000     10.56943     11.11389        -0.010227      0.000058     -0.195065
      2.11389      8.45554     11.11389        -0.027845      0.002568     -0.182318
      0.00000     12.68331      9.00000        -0.017511      0.000865      0.247224
      2.11389     14.79720      9.00000        -0.036332      0.006769      0.248395
      0.00000     14.79720     11.11389        -0.011268     -0.000673     -0.199633
      2.11389     12.68331     11.11389        -0.027646     -0.002324     -0.182490
      0.00000     16.91108      9.00000        -0.011355      0.002444      0.244730
      2.11389     19.02497      9.00000        -0.014817      0.005551      0.243545
      0.00000     19.02497     11.11389        -0.007378      0.000466     -0.204927
      2.11389     16.91108     11.11389        -0.022974      0.003278     -0.198886
      4.22777      0.00000      9.00000        -0.012788     -0.000235      0.243782
      6.34166      2.11389      9.00000        -0.012230     -0.026929      0.244378
      4.22777      2.11389     11.11389        -0.015494     -0.013376     -0.200030
      6.34166      0.00000     11.11389        -0.007710     -0.000282     -0.200633
      4.22777      4.22777      9.00000        -0.034746     -0.025619      0.241553
      6.34166      6.34166      9.00000        -0.082636     -0.077482      0.212271
      4.22777      6.34166     11.11389        -0.077483      0.001282     -0.174007
      6.34166      4.22777     11.11389        -0.023628     -0.068983     -0.187370
      4.22777      8.45554      9.00000        -0.096764     -0.009082      0.264625
      6.34166     10.56943      9.00000        -0.112490      0.001964      0.252208
      4.22777     10.56943     11.11389        -0.037656      0.000078     -0.107255
      6.34166      8.45554     11.11389        -0.587689      0.033978     -0.179973
      4.22777     12.68331      9.00000        -0.095254      0.009848      0.264224
      6.34166     14.79720      9.00000        -0.081094      0.076446      0.213207
      4.22777     14.79720     11.11389        -0.075932     -0.000849     -0.174660
      6.34166     12.68331     11.11389        -0.569043     -0.031844     -0.179515
      4.22777     16.91108      9.00000        -0.034165      0.025151      0.241600
      6.34166     19.02497      9.00000        -0.012077      0.026109      0.244350
      4.22777     19.02497     11.11389        -0.015329      0.012900     -0.200147
      6.34166     16.91108     11.11389        -0.023327      0.067457     -0.187877
      8.45554      0.00000      9.00000        -0.000059     -0.000388      0.244425
     10.56943      2.11389      9.00000         0.012156     -0.026935      0.244379
      8.45554      2.11389     11.11389        -0.000057     -0.031455     -0.196816
     10.56943      0.00000     11.11389         0.007646     -0.000286     -0.200646
      8.45554      4.22777      9.00000        -0.000053     -0.088062      0.246669
     10.56943      6.34166      9.00000         0.082512     -0.077608      0.212239
      8.45554      6.34166     11.11389        -0.000158     -0.517474     -0.228767
     10.56943      4.22777     11.11389         0.023492     -0.069068     -0.187454
      8.45554      8.45554      9.00000        -0.000350     -0.011758     -0.133951
     10.56943     10.56943      9.00000         0.112404      0.001976      0.252382
      8.45554     10.56943     11.11389         0.003739      0.025033     -1.386821
     10.56943      8.45554     11.11389         0.586089      0.034627     -0.179273
      8.45554     12.68331      9.00000        -0.000329      0.013428     -0.123445
     10.56943     14.79720      9.00000         0.080980      0.076582      0.213162
      8.45554     14.79720     11.11389        -0.000165      0.498060     -0.223831
     10.56943     12.68331     11.11389         0.567612     -0.032472     -0.178950
[...]
     19.02497      6.34166     11.11389        -0.000078     -0.000130      0.548263
     16.91108      6.34166      9.00000        -0.014432      0.002885     -0.593407
     19.02497      4.22777      9.00000        -0.000057      0.001874     -0.592112
     16.91108      8.45554     11.11389        -0.013325     -0.000470      0.542436
     19.02497     10.56943     11.11389        -0.000082     -0.000053      0.545307
     16.91108     10.56943      9.00000        -0.016430     -0.000095     -0.595290
     19.02497      8.45554      9.00000        -0.000076      0.000500     -0.593661
     16.91108     12.68331     11.11389        -0.013243      0.000345      0.542489
     19.02497     14.79720     11.11389        -0.000081      0.000117      0.548342
     16.91108     14.79720      9.00000        -0.014271     -0.002909     -0.593382
     19.02497     12.68331      9.00000        -0.000063     -0.000589     -0.593640
     16.91108     16.91108     11.11389        -0.010221     -0.001881      0.549392
     19.02497     19.02497     11.11389        -0.000043     -0.000575      0.552441
     16.91108     19.02497      9.00000        -0.008736     -0.002480     -0.591601
     19.02497     16.91108      9.00000        -0.000047     -0.001796     -0.592103
    total drift:                                0.002636     -0.002786     -0.654440

  FREE ENERGIE OF THE ION-ELECTRON SYSTEM (eV)
  free  energy   TOTEN  =     -1129.98404907 eV

  energy  without entropy=    -1129.98404907  energy(sigma->0) =    -1129.98404907