 vasp.6.3.0 20Jan22 (build Apr  1 2022 16:44:48) complex
 executed on        HPECrayEX_GCC date 2023.01.10  01:06:42

 INCAR:
   SYSTEM = MgO-rocksalt
   ISMEAR = 0
   SIGMA = 0.05
   EDIFF = 1E-6
   ALGO = ALL
   ISTART = 0
   IBRION = -1
   NSW = 0
   ISYM = 2
   DIPOL = 0.5 0.5 0.5
   IDIPOL = 3
   LDIPOL = .TRUE.
   METAGGA = SCAN
   LUSE_VDW = .TRUE.
   BPARAM = 15.7
   CPARAM = 0.0093
   ENCUT = 520
   PREC = Accurate
   LASPH = .TRUE.
   LREAL = Auto
   ISPIN = 1
   NELM = 200
   NELMIN = 8
   NCORE = 4
   KPAR = 2
   LWAVE = .FALSE.
   LCHARG = .FALSE.

 POTCAR:    PAW_PBE Cu 22Jun2005
 POTCAR:    PAW_PBE Mg_pv 13Apr2007
 POTCAR:    PAW_PBE O 08Apr2002
|               ----> ADVICE to this user running VASP <----                  |
|     You have switched on vdW-DFT.                                           |
|     This routine was written and supplied by Jiri Klimes. We recommend      |
|     that you carefully read and cite the following publications:            |
|       J. Klimes, D.R. Bowler, A. Michelides                                 |
|          J. Phys.: Cond Matt. 22 022201 (2010)                              |
|       J. Klimes, D.R. Bowler, A. Michelides                                 |
|          Phys. Rev. B. 83, 195131 (2011)                                    |
|     and references therein.                                                 |

   TITEL  = PAW_PBE Cu 22Jun2005
   POMASS =   63.546; ZVAL   =   11.000    mass and valenz
   ENMAX  =  295.446; ENMIN  =  221.585 eV

   TITEL  = PAW_PBE Mg_pv 13Apr2007
   POMASS =   24.305; ZVAL   =    8.000    mass and valenz
   ENMAX  =  403.929; ENMIN  =  302.947 eV

   TITEL  = PAW_PBE O 08Apr2002
   POMASS =   16.000; ZVAL   =    6.000    mass and valenz
   ENMAX  =  400.000; ENMIN  =  300.000 eV

 Optimization of the real space projectors (new method)

 maximal supplied QI-value         = 16.25
 optimisation between [QCUT,QGAM] = [ 11.54, 23.24] = [ 37.28,151.24] Ry
 Optimized for a Real-space Cutoff    1.53 Angstroem

   l    n(q)    QCUT    max X(q) W(low)/X(q) W(high)/X(q)  e(spline)
   2     10    11.539     4.610    0.96E-04    0.13E-03    0.19E-06
   2     10    11.539     8.522    0.16E-03    0.21E-03    0.28E-06
   0     11    11.539    51.609    0.45E-04    0.31E-04    0.11E-06
   0     11    11.539    27.747    0.39E-04    0.29E-04    0.10E-06
   1     10    11.539    20.408    0.70E-05    0.38E-04    0.18E-06
   1     10    11.539    13.425    0.66E-05    0.34E-04    0.17E-06
 Optimization of the real space projectors (new method)

[...]

   l    n(q)    QCUT    max X(q) W(low)/X(q) W(high)/X(q)  e(spline)
   1      8    11.527     2.974    0.44E-04    0.56E-04    0.12E-06
   1      8    11.527     4.279    0.12E-03    0.12E-03    0.26E-06
   0      9    11.527    16.381    0.46E-04    0.64E-04    0.78E-07
   0      9    11.527     5.611    0.26E-04    0.43E-04    0.55E-07
   2      8    11.527     4.652    0.22E-03    0.72E-04    0.47E-07
 Optimization of the real space projectors (new method)

 maximal supplied QI-value         = 24.76
 optimisation between [QCUT,QGAM] = [ 11.64, 23.27] = [ 37.91,151.63] Ry
 Optimized for a Real-space Cutoff    1.14 Angstroem

   l    n(q)    QCUT    max X(q) W(low)/X(q) W(high)/X(q)  e(spline)
   0      8    11.635    20.381    0.10E-03    0.33E-03    0.24E-06
   0      8    11.635    15.268    0.11E-03    0.35E-03    0.26E-06
   1      7    11.635     5.964    0.24E-03    0.31E-03    0.30E-06
   1      7    11.635     5.382    0.22E-03    0.25E-03    0.26E-06
  PAW_PBE Cu 22Jun2005                  :
  PAW_PBE Mg_pv 13Apr2007               :
  PAW_PBE O 08Apr2002                   :

 POSCAR: Cu Mg  O
  positions in direct lattice
  velocities in cartesian coordinates

 METAGGA = SCAN     LMAXTAU =  6    LMIXTAU =  F

 ion  position               nearest neighbor table
   1  0.400  0.558  0.598- 157 2.29   3 2.35  55 2.43   4 2.47
   2  0.400  0.499  0.790-   3 2.25
   3  0.400  0.499  0.688-   2 2.25   1 2.35   4 2.35
   4  0.400  0.441  0.597- 153 2.26   3 2.35  55 2.43   1 2.47
   5  0.000  0.000  0.407- 107 2.11 108 2.11 123 2.11 188 2.11 105 2.11
   6  0.100  0.100  0.407- 107 2.11 108 2.11 112 2.11 127 2.11 106 2.11
   7  0.000  0.100  0.503- 105 2.11 106 2.11 109 2.11 186 2.11 107 2.11
   8  0.100  0.000  0.503- 105 2.11 106 2.11 122 2.11 125 2.11 108 2.11
   9  0.000  0.200  0.407- 111 2.11 107 2.11 112 2.11 192 2.11 109 2.11
  10  0.100  0.300  0.407- 112 2.11 111 2.11 116 2.11 131 2.11 110 2.11
  11  0.000  0.300  0.503- 109 2.11 110 2.11 113 2.11 190 2.11 111 2.11
  12  0.100  0.200  0.503- 110 2.11 109 2.11 106 2.11 129 2.11 112 2.11
  13  0.000  0.400  0.407- 111 2.11 115 2.11 116 2.11 196 2.11 113 2.11
  14  0.100  0.500  0.407- 115 2.11 116 2.11 120 2.11 135 2.11 114 2.11
  15  0.000  0.500  0.503- 113 2.11 114 2.11 117 2.11 194 2.11 115 2.11
  16  0.100  0.400  0.503- 110 2.11 113 2.11 114 2.11 133 2.11 116 2.11
  17  0.000  0.600  0.407- 115 2.11 119 2.11 120 2.11 200 2.11 117 2.11
  18  0.100  0.700  0.407- 124 2.11 120 2.11 119 2.11 139 2.11 118 2.11
  19  0.000  0.700  0.503- 121 2.11 118 2.11 117 2.11 198 2.11 119 2.11
  20  0.100  0.600  0.503- 114 2.11 117 2.11 118 2.11 137 2.11 120 2.11
  21  0.000  0.800  0.407- 119 2.11 123 2.11 124 2.11 204 2.11 121 2.11
  22  0.100  0.900  0.407- 108 2.11 123 2.11 124 2.11 143 2.11 122 2.11
  23  0.000  0.900  0.503- 105 2.11 121 2.11 122 2.11 202 2.11 123 2.11
  24  0.100  0.800  0.503- 118 2.11 121 2.11 122 2.11 141 2.11 124 2.11
  25  0.200  0.000  0.407- 128 2.11 127 2.11 108 2.11 143 2.11 125 2.11
  26  0.300  0.100  0.407- 127 2.11 128 2.11 132 2.11 147 2.11 126 2.11
  27  0.200  0.100  0.503- 126 2.11 125 2.11 106 2.11 129 2.11 127 2.11
  28  0.300  0.000  0.503- 125 2.11 126 2.11 142 2.11 145 2.11 128 2.11
  29  0.200  0.200  0.407- 131 2.11 132 2.11 112 2.11 127 2.11 129 2.11
  30  0.300  0.300  0.407- 131 2.11 132 2.11 136 2.11 151 2.11 130 2.11
  31  0.200  0.300  0.503- 129 2.11 130 2.11 110 2.11 133 2.11 131 2.11
  32  0.300  0.200  0.503- 129 2.11 130 2.11 126 2.11 149 2.11 132 2.11
  33  0.200  0.400  0.407- 136 2.11 131 2.11 135 2.11 116 2.11 133 2.11
  34  0.300  0.500  0.407- 135 2.11 136 2.11 140 2.11 155 2.11 134 2.11
  35  0.200  0.500  0.503- 134 2.11 133 2.11 114 2.11 137 2.11 135 2.11
  36  0.300  0.400  0.503- 133 2.11 130 2.11 134 2.11 153 2.11 136 2.11
  37  0.200  0.600  0.407- 140 2.11 135 2.11 139 2.11 120 2.11 137 2.11
  38  0.300  0.700  0.407- 139 2.11 144 2.11 140 2.11 159 2.11 138 2.11
  39  0.200  0.700  0.503- 138 2.11 141 2.11 118 2.11 137 2.11 139 2.11
  40  0.300  0.600  0.503- 137 2.11 134 2.11 138 2.11 157 2.11 140 2.11
  41  0.200  0.800  0.407- 139 2.11 144 2.11 143 2.11 124 2.11 141 2.11
  42  0.300  0.900  0.407- 143 2.11 128 2.11 144 2.11 163 2.11 142 2.11
  43  0.200  0.900  0.503- 142 2.11 125 2.11 141 2.11 122 2.11 143 2.11
  44  0.300  0.800  0.503- 138 2.11 141 2.11 142 2.11 161 2.11 144 2.11
  45  0.400  0.000  0.407- 128 2.11 147 2.11 148 2.11 163 2.11 145 2.11
  46  0.500  0.100  0.407- 147 2.11 148 2.11 152 2.11 167 2.11 146 2.11
  47  0.400  0.100  0.503- 126 2.11 145 2.11 146 2.11 149 2.11 147 2.11
  48  0.500  0.000  0.503- 145 2.11 146 2.11 162 2.11 165 2.11 148 2.11
  49  0.400  0.200  0.407- 151 2.11 147 2.11 132 2.11 152 2.11 149 2.11
  50  0.500  0.300  0.407- 152 2.11 151 2.11 156 2.11 171 2.11 150 2.11
  51  0.400  0.300  0.503- 149 2.11 130 2.11 150 2.11 153 2.11 151 2.11
  52  0.500  0.200  0.503- 150 2.11 149 2.11 146 2.11 169 2.11 152 2.11
  53  0.400  0.400  0.407- 136 2.11 151 2.11 155 2.11 156 2.11 153 2.11
  54  0.500  0.500  0.407- 155 2.11 156 2.11 160 2.11 175 2.11 154 2.11
  55  0.400  0.500  0.503- 134 2.11 153 2.11 154 2.11 157 2.11 155 2.11   4 2.43   1 2.43
  56  0.500  0.400  0.503- 150 2.11 153 2.11 154 2.11 173 2.11 156 2.11
  57  0.400  0.600  0.407- 140 2.11 155 2.11 159 2.11 160 2.11 157 2.11
  58  0.500  0.700  0.407- 164 2.11 160 2.11 159 2.11 179 2.11 158 2.11
  59  0.400  0.700  0.503- 161 2.11 157 2.11 158 2.11 138 2.11 159 2.11
  60  0.500  0.600  0.503- 154 2.11 157 2.11 158 2.11 177 2.11 160 2.11
[...]
 190  0.900  0.300  0.503-  92 2.11  91 2.11  11 2.11  96 2.11  90 2.11
 191  0.800  0.300  0.407-  70 2.11  89 2.11  90 2.11  93 2.11  91 2.11
 192  0.900  0.200  0.407-  90 2.11  86 2.11  89 2.11   9 2.11  92 2.11
 193  0.800  0.400  0.503-  76 2.11  91 2.11  95 2.11  96 2.11  93 2.11
 194  0.900  0.500  0.503-  15 2.11  95 2.11  96 2.11 100 2.11  94 2.11
 195  0.800  0.500  0.407-  74 2.11  93 2.11  94 2.11  97 2.11  95 2.11
 196  0.900  0.400  0.407-  13 2.11  90 2.11  93 2.11  94 2.11  96 2.11
 197  0.800  0.600  0.503-  80 2.11  95 2.11  99 2.11 100 2.11  97 2.11
 198  0.900  0.700  0.503- 104 2.11  99 2.11 100 2.11  19 2.11  98 2.11
 199  0.800  0.700  0.407-  78 2.11 101 2.11  98 2.11  97 2.11  99 2.11
 200  0.900  0.600  0.407-  17 2.11  94 2.11  97 2.11  98 2.11 100 2.11
 201  0.800  0.800  0.503-  84 2.11  99 2.11 103 2.11 104 2.11 101 2.11
 202  0.900  0.900  0.503-  23 2.11  88 2.11 103 2.11 104 2.11 102 2.11
 203  0.800  0.900  0.407-  82 2.11  85 2.11 101 2.11 102 2.11 103 2.11
 204  0.900  0.800  0.407-  98 2.11  21 2.11 101 2.11 102 2.11 104 2.11

  LATTYP: Found a simple tetragonal cell.
 ALAT       =    21.1388521970
 C/A-ratio  =     1.0461251639

  Lattice vectors:

 A1 = (  21.1388521970,   0.0000000000,   0.0000000000)
 A2 = (   0.0000000000,  21.1388521970,   0.0000000000)
 A3 = (   0.0000000000,   0.0000000000,  22.1138852197)

Analysis of symmetry for initial positions (statically):
 Subroutine PRICEL returns:
 Original cell was already a primitive cell.

 Routine SETGRP: Setting up the symmetry group for a
 simple tetragonal supercell.

 Subroutine GETGRP returns: Found  1 space group operations
 (whereof  1 operations were pure point group operations)
 out of a pool of 16 trial point group operations.

The static configuration has the point symmetry C_1 .

Analysis of symmetry for dynamics (positions and initial velocities):
 Subroutine PRICEL returns:
 Original cell was already a primitive cell.

[...]

The dynamic configuration has the point symmetry C_1 .

Analysis of constrained symmetry for selective dynamics:
 Subroutine PRICEL returns:
 Original cell was already a primitive cell.

 Routine SETGRP: Setting up the symmetry group for a
 simple tetragonal supercell.

 Subroutine GETGRP returns: Found  1 space group operations
 (whereof  1 operations were pure point group operations)
 out of a pool of 16 trial point group operations.

The constrained configuration has the point symmetry C_1 .

 Subroutine INISYM returns: Found  1 space group operations
 (whereof  1 operations are pure point group operations),
 and found     1 'primitive' translations

                                     Primitive cell

  volume of cell :    9881.6133

  direct lattice vectors                    reciprocal lattice vectors
    21.138852197  0.000000000  0.000000000     0.047306258  0.000000000  0.000000000
     0.000000000 21.138852197  0.000000000     0.000000000  0.047306258  0.000000000
     0.000000000  0.000000000 22.113885220     0.000000000  0.000000000  0.045220457

  length of vectors
[...]
     52     -44.6050      2.00000
     53     -44.6047      2.00000
     54     -44.6043      2.00000
     55     -44.6043      2.00000
     56     -44.6034      2.00000
     57     -44.6027      2.00000
     58     -44.6023      2.00000
     59     -44.6001      2.00000
     60     -44.5996      2.00000
[...]
    946       6.7903      0.00000
    947       6.7958      0.00000
    948       6.8625      0.00000
    949       6.9010      0.00000
    950       6.9251      0.00000
    951       7.0210      0.00000
    952       7.0618      0.00000
    953       7.1413      0.00000
    954       7.1759      0.00000
    955       7.2515      0.00000
    956       7.2784      0.00000
    957       7.3539      0.00000
    958       7.4590      0.00000
    959       7.5007      0.00000
    960       7.5317      0.00000

 soft charge-density along one line, spin component           1
         0         1         2         3         4         5         6         7         8         9
 total charge-density along one line

------------------------ aborting loop because EDIFF is reached ----------------------------------------

  FORCE on cell =-STRESS in cart. coord.  units (eV):
  Direction    XX          YY          ZZ          XY          YZ          ZX
  Alpha Z  1394.80054  1394.80054  1394.80054
  Ewald  476789.57733478031.49515************     0.08233     1.75104    -2.53842
  Hartree506831.46833507801.61652************     0.06755     1.11433    -2.01125
  E(xc)   -8557.05995 -8556.70814 -8548.53705    -0.00061     0.00237    -0.00032
  Local  ************************************    -0.15010    -2.86872     4.52000
  n-local -8795.00850 -8796.17556 -8917.07532    -0.00147     0.01099    -0.00077
  augment  4090.36003  4082.54717  4017.85931     0.01408    -0.00811     0.01474
  Kinetic 23101.52791 23093.67412 23318.47189    -0.00085    -0.00838     0.02956
  Fock        0.00000     0.00000     0.00000     0.00000     0.00000     0.00000
  Total    -241.67906  -244.39555   -30.65590     0.01093    -0.00648     0.01353
  in kB     -39.18517   -39.62562    -4.97046     0.00177    -0.00105     0.00219

 VOLUME and BASIS-vectors are now :
  energy-cutoff  :      520.00
  volume of cell :     9881.61
      direct lattice vectors                 reciprocal lattice vectors
    21.138852197  0.000000000  0.000000000     0.047306258  0.000000000  0.000000000
     0.000000000 21.138852197  0.000000000     0.000000000  0.047306258  0.000000000
     0.000000000  0.000000000 22.113885220     0.000000000  0.000000000  0.045220457

  length of vectors
    21.138852197 21.138852197 22.113885220     0.047306258  0.047306258  0.045220457

 FORCES acting on ions:
    Electron-Ion                     Ewald-Force                    Non-Local-Force
   -.594E+00 -.491E+03 -.187E+04   0.583E+00 0.479E+03 0.188E+04   0.513E-01 0.114E+02 -.584E+01
   -.798E-01 -.292E+00 -.155E+04   0.676E-01 0.246E+00 0.153E+04   0.991E-01 0.141E+00 0.136E+02
   0.133E+01 0.390E+01 -.186E+04   -.129E+01 -.384E+01 0.186E+04   -.222E-01 -.670E-01 0.121E+01
   -.536E+00 0.486E+03 -.187E+04   0.524E+00 -.475E+03 0.188E+04   0.502E-01 -.111E+02 -.602E+01
   0.647E+01 0.579E-01 0.935E+03   -.650E+01 -.582E-01 -.927E+03   0.242E-01 0.204E-03 -.748E+01
   0.127E+02 0.987E+01 0.939E+03   -.128E+02 -.990E+01 -.931E+03   0.535E-01 0.202E-01 -.748E+01
   0.929E+01 0.884E+01 -.918E+03   -.932E+01 -.884E+01 0.910E+03   0.289E-01 0.186E-02 0.738E+01
   0.135E+02 0.103E+00 -.917E+03   -.135E+02 -.103E+00 0.909E+03   0.403E-01 0.394E-03 0.738E+01
   0.102E+02 0.119E+02 0.939E+03   -.102E+02 -.120E+02 -.931E+03   0.425E-01 0.849E-02 -.749E+01
   0.270E+02 0.195E+02 0.951E+03   -.272E+02 -.195E+02 -.943E+03   0.139E+00 0.238E-01 -.751E+01
   0.197E+02 0.165E+02 -.912E+03   -.198E+02 -.165E+02 0.904E+03   0.472E-01 -.265E-02 0.737E+01
   0.251E+02 0.238E+02 -.911E+03   -.252E+02 -.238E+02 0.903E+03   0.936E-01 0.130E-01 0.737E+01
   0.180E+02 0.821E+01 0.945E+03   -.181E+02 -.821E+01 -.937E+03   0.658E-01 0.276E-02 -.750E+01
   0.401E+02 -.121E+00 0.961E+03   -.403E+02 0.122E+00 -.953E+03   0.167E+00 -.607E-03 -.752E+01
   0.287E+02 -.947E-01 -.908E+03   -.288E+02 0.949E-01 0.900E+03   0.438E-01 -.168E-03 0.736E+01
   0.573E+02 0.201E+02 -.895E+03   -.575E+02 -.201E+02 0.887E+03   0.133E+00 -.593E-02 0.734E+01
   0.180E+02 -.832E+01 0.945E+03   -.181E+02 0.832E+01 -.937E+03   0.654E-01 -.310E-02 -.750E+01
   0.269E+02 -.195E+02 0.951E+03   -.271E+02 0.196E+02 -.942E+03   0.137E+00 -.241E-01 -.751E+01
   0.196E+02 -.165E+02 -.912E+03   -.197E+02 0.165E+02 0.904E+03   0.468E-01 0.259E-02 0.737E+01
   0.571E+02 -.203E+02 -.895E+03   -.573E+02 0.203E+02 0.887E+03   0.132E+00 0.521E-02 0.734E+01
   0.101E+02 -.119E+02 0.939E+03   -.102E+02 0.119E+02 -.931E+03   0.419E-01 -.831E-02 -.749E+01
   0.127E+02 -.973E+01 0.939E+03   -.128E+02 0.975E+01 -.931E+03   0.530E-01 -.194E-01 -.748E+01
   0.924E+01 -.871E+01 -.918E+03   -.928E+01 0.871E+01 0.910E+03   0.286E-01 -.156E-02 0.738E+01
   0.249E+02 -.237E+02 -.911E+03   -.250E+02 0.237E+02 0.903E+03   0.922E-01 -.128E-01 0.737E+01
   0.115E+02 0.113E+00 0.940E+03   -.116E+02 -.114E+00 -.932E+03   0.454E-01 0.776E-03 -.749E+01
   0.919E+01 0.186E+02 0.947E+03   -.925E+01 -.187E+02 -.939E+03   0.426E-01 0.100E+00 -.749E+01
   0.182E+02 0.199E+02 -.912E+03   -.183E+02 -.200E+02 0.904E+03   0.591E-01 0.540E-01 0.737E+01
   0.947E+01 0.203E+00 -.912E+03   -.950E+01 -.204E+00 0.904E+03   0.287E-01 0.103E-02 0.738E+01
   0.213E+02 0.265E+02 0.951E+03   -.215E+02 -.266E+02 -.943E+03   0.122E+00 0.891E-01 -.749E+01
   0.281E+02 0.498E+02 0.989E+03   -.284E+02 -.501E+02 -.981E+03   0.262E+00 0.252E+00 -.739E+01
   0.592E+02 0.544E+02 -.884E+03   -.596E+02 -.545E+02 0.876E+03   0.344E+00 0.206E-01 0.734E+01
   0.244E+02 0.605E+02 -.892E+03   -.245E+02 -.609E+02 0.884E+03   0.929E-01 0.297E+00 0.737E+01
   0.507E+02 0.239E+02 0.985E+03   -.512E+02 -.239E+02 -.977E+03   0.376E+00 0.364E-01 -.757E+01
   0.559E+02 -.445E+00 0.105E+04   -.565E+02 0.454E+00 -.104E+04   0.404E+00 -.614E-02 -.757E+01
   0.121E+03 -.448E+00 -.843E+03   -.122E+03 0.449E+00 0.836E+03   0.277E+00 -.848E-03 0.726E+01
   0.142E+03 0.108E+03 -.751E+03   -.144E+03 -.108E+03 0.743E+03   0.170E+01 -.529E-01 0.714E+01
   0.505E+02 -.241E+02 0.985E+03   -.510E+02 0.242E+02 -.976E+03   0.370E+00 -.387E-01 -.757E+01
   0.278E+02 -.496E+02 0.988E+03   -.281E+02 0.500E+02 -.980E+03   0.257E+00 -.248E+00 -.739E+01
   0.586E+02 -.543E+02 -.884E+03   -.590E+02 0.543E+02 0.876E+03   0.337E+00 -.215E-01 0.734E+01
   0.140E+03 -.109E+03 -.753E+03   -.142E+03 0.109E+03 0.745E+03   0.165E+01 0.444E-01 0.715E+01
   0.212E+02 -.263E+02 0.951E+03   -.213E+02 0.264E+02 -.943E+03   0.120E+00 -.877E-01 -.749E+01
   0.914E+01 -.183E+02 0.947E+03   -.919E+01 0.184E+02 -.939E+03   0.421E-01 -.973E-01 -.749E+01
   0.181E+02 -.196E+02 -.912E+03   -.181E+02 0.197E+02 0.904E+03   0.584E-01 -.523E-01 0.737E+01
   0.241E+02 -.599E+02 -.892E+03   -.242E+02 0.603E+02 0.884E+03   0.916E-01 -.291E+00 0.737E+01
   -.221E-01 0.159E+00 0.944E+03   0.220E-01 -.161E+00 -.936E+03   0.111E-03 0.130E-02 -.749E+01
   -.923E+01 0.186E+02 0.947E+03   0.929E+01 -.187E+02 -.939E+03   -.424E-01 0.100E+00 -.749E+01
   -.377E-01 0.308E+02 -.906E+03   0.375E-01 -.310E+02 0.898E+03   0.701E-04 0.135E+00 0.737E+01
   -.951E+01 0.203E+00 -.912E+03   0.955E+01 -.204E+00 0.904E+03   -.285E-01 0.106E-02 0.738E+01
   -.459E-01 0.417E+02 0.965E+03   0.456E-01 -.421E+02 -.957E+03   0.155E-03 0.338E+00 -.751E+01
   -.281E+02 0.497E+02 0.989E+03   0.285E+02 -.500E+02 -.981E+03   -.261E+00 0.252E+00 -.739E+01
   -.207E+00 0.140E+03 -.821E+03   0.206E+00 -.142E+03 0.813E+03   0.445E-03 0.167E+01 0.750E+01
   -.245E+02 0.604E+02 -.892E+03   0.246E+02 -.608E+02 0.884E+03   -.925E-01 0.297E+00 0.737E+01
   -.150E+00 0.509E+02 0.106E+04   0.149E+00 -.511E+02 -.105E+04   0.784E-03 0.146E+00 -.567E+01
   -.560E+02 -.443E+00 0.105E+04   0.566E+02 0.452E+00 -.104E+04   -.403E+00 -.617E-02 -.757E+01
   -.938E+00 -.271E+01 -.455E+03   0.939E+00 0.279E+01 0.451E+03   0.196E-02 -.500E-01 0.233E+01
   -.142E+03 0.108E+03 -.752E+03   0.144E+03 -.108E+03 0.744E+03   -.170E+01 -.529E-01 0.714E+01
   -.147E+00 -.514E+02 0.106E+04   0.146E+00 0.516E+02 -.105E+04   0.721E-03 -.153E+00 -.572E+01
   -.279E+02 -.496E+02 0.988E+03   0.282E+02 0.499E+02 -.980E+03   -.257E+00 -.249E+00 -.739E+01
   -.200E+00 -.138E+03 -.823E+03   0.200E+00 0.140E+03 0.815E+03   0.434E-03 -.163E+01 0.749E+01
   -.140E+03 -.109E+03 -.753E+03   0.142E+03 0.109E+03 0.746E+03   -.165E+01 0.443E-01 0.715E+01
[...]
   -.106E+02 0.948E+01 0.708E+03   0.106E+02 -.949E+01 -.712E+03   -.535E-01 0.954E-02 0.349E+01
   0.215E-01 0.764E+01 0.705E+03   -.213E-01 -.764E+01 -.708E+03   -.179E-03 0.618E-02 0.350E+01
   -.194E+02 0.814E+01 -.683E+03   0.194E+02 -.813E+01 0.687E+03   -.476E-01 -.348E-02 -.370E+01
   0.564E-01 -.545E-01 -.685E+03   -.562E-01 0.546E-01 0.689E+03   -.253E-03 -.200E-03 -.369E+01
   -.147E+02 -.537E-01 0.712E+03   0.147E+02 0.539E-01 -.716E+03   -.604E-01 -.313E-03 0.348E+01
   0.362E-01 0.505E+01 0.708E+03   -.361E-01 -.505E+01 -.712E+03   -.185E-03 0.110E-02 0.349E+01
   -.194E+02 -.824E+01 -.683E+03   0.194E+02 0.824E+01 0.687E+03   -.474E-01 0.306E-02 -.370E+01
   0.398E-01 -.991E+01 -.688E+03   -.397E-01 0.991E+01 0.692E+03   -.177E-03 0.201E-02 -.367E+01
   -.106E+02 -.951E+01 0.708E+03   0.106E+02 0.951E+01 -.712E+03   -.530E-01 -.973E-02 0.349E+01
   0.361E-01 -.512E+01 0.708E+03   -.360E-01 0.512E+01 -.712E+03   -.222E-03 -.151E-02 0.349E+01
   -.995E+01 -.113E+02 -.688E+03   0.998E+01 0.113E+02 0.692E+03   -.378E-01 -.580E-02 -.367E+01
   0.199E-01 -.552E+01 -.691E+03   -.198E-01 0.552E+01 0.695E+03   -.142E-03 -.151E-02 -.366E+01
   -.552E+01 -.522E+01 0.704E+03   0.555E+01 0.522E+01 -.708E+03   -.325E-01 -.894E-02 0.350E+01
   0.213E-01 -.761E+01 0.704E+03   -.211E-01 0.761E+01 -.708E+03   -.186E-03 -.601E-02 0.350E+01
   -.370E-02 -.287E+00 0.642E+01   0.223E-11 0.853E-12 0.182E-11   0.151E+00 0.365E+00 -.540E+01

 POSITION                                       TOTAL-FORCE (eV/Angst)
      8.45129     11.78922     13.22011         0.034931     -0.295870      0.046883
      8.44827     10.55171     17.46787         0.074507      0.081718     -0.335057
      8.44707     10.54754     15.21331         0.010132      0.000573     -0.135589
      8.45116      9.32335     13.20450         0.032969      0.297169     -0.078751
      0.00000      0.00000      9.00000        -0.008646     -0.000474      0.609255
      2.11389      2.11389      9.00000        -0.018576     -0.007258      0.609820
      0.00000      2.11389     11.11389        -0.008074     -0.000858     -0.566294
      2.11389      0.00000     11.11389        -0.011389     -0.000391     -0.565578
      0.00000      4.22777      9.00000        -0.014583     -0.003235      0.611075
      2.11389      6.34166      9.00000        -0.045835     -0.008443      0.616189
      0.00000      6.34166     11.11389        -0.012023      0.000835     -0.559934
      2.11389      4.22777     11.11389        -0.024057     -0.003629     -0.559211
      0.00000      8.45554      9.00000        -0.022153     -0.001055      0.614441
      2.11389     10.56943      9.00000        -0.056398     -0.000149      0.621393
      0.00000     10.56943     11.11389        -0.010476     -0.000292     -0.555257
      2.11389      8.45554     11.11389        -0.030521      0.002545     -0.541516
      0.00000     12.68331      9.00000        -0.021967      0.000430      0.614370
      2.11389     14.79720      9.00000        -0.045115      0.007710      0.615824
      0.00000     14.79720     11.11389        -0.011882     -0.001503     -0.559936
      2.11389     12.68331     11.11389        -0.030347     -0.003300     -0.541632
      0.00000     16.91108      9.00000        -0.014499      0.002465      0.611039
      2.11389     19.02497      9.00000        -0.018404      0.006277      0.609788
      0.00000     19.02497     11.11389        -0.008084     -0.000007     -0.566248
      2.11389     16.91108     11.11389        -0.023729      0.002804     -0.559352
      4.22777      0.00000      9.00000        -0.015979     -0.000631      0.610283
      6.34166      2.11389      9.00000        -0.015292     -0.033137      0.611453
      4.22777      2.11389     11.11389        -0.016575     -0.013645     -0.560784
      6.34166      0.00000     11.11389        -0.008628     -0.000663     -0.561728
      4.22777      4.22777      9.00000        -0.042335     -0.031110      0.608755
      6.34166      6.34166      9.00000        -0.096849     -0.092428      0.568112
      4.22777      6.34166     11.11389        -0.085076     -0.003222     -0.533666
      6.34166      4.22777     11.11389        -0.027309     -0.074560     -0.547645
      4.22777      8.45554      9.00000        -0.120455     -0.011625      0.631191
      6.34166     10.56943      9.00000        -0.148676      0.001988      0.588233
      4.22777     10.56943     11.11389        -0.067405     -0.000313     -0.478292
      6.34166      8.45554     11.11389        -0.591519      0.017972     -0.492643
      4.22777     12.68331      9.00000        -0.118646      0.011692      0.630681
      6.34166     14.79720      9.00000        -0.095052      0.090364      0.569267
      4.22777     14.79720     11.11389        -0.083497      0.002736     -0.534372
      6.34166     12.68331     11.11389        -0.570810     -0.018669     -0.491287
      4.22777     16.91108      9.00000        -0.041671      0.029749      0.608717
      6.34166     19.02497      9.00000        -0.015134      0.031387      0.611360
      4.22777     19.02497     11.11389        -0.016497      0.012451     -0.560843
      6.34166     16.91108     11.11389        -0.027014      0.072258     -0.548234
      8.45554      0.00000      9.00000        -0.000719     -0.000841      0.611346
     10.56943      2.11389      9.00000         0.013817     -0.033033      0.611452
      8.45554      2.11389     11.11389        -0.000766     -0.032755     -0.557262
     10.56943      0.00000     11.11389         0.007135     -0.000525     -0.561664
      8.45554      4.22777      9.00000        -0.000835     -0.107406      0.613395
     10.56943      6.34166      9.00000         0.095298     -0.092509      0.568190
      8.45554      6.34166     11.11389        -0.000987     -0.506502     -0.566356
     10.56943      4.22777     11.11389         0.025816     -0.074662     -0.547731
      8.45554      8.45554      9.00000        -0.001091     -0.035998      0.083551
     10.56943     10.56943      9.00000         0.147228      0.001949      0.588443
      8.45554     10.56943     11.11389         0.002295      0.022463     -1.437687
     10.56943      8.45554     11.11389         0.587095      0.019401     -0.491359
      8.45554     12.68331      9.00000        -0.001013      0.037345      0.097328
     10.56943     14.79720      9.00000         0.093513      0.090555      0.569330
      8.45554     14.79720     11.11389        -0.000827      0.491703     -0.565680
     10.56943     12.68331     11.11389         0.566560     -0.019957     -0.490074
[...]
     19.02497      6.34166     11.11389        -0.000799     -0.001011      0.268819
     16.91108      6.34166      9.00000        -0.015528      0.002259     -0.322871
     19.02497      4.22777      9.00000        -0.000739      0.001308     -0.321358
     16.91108      8.45554     11.11389        -0.014080     -0.001351      0.262459
     19.02497     10.56943     11.11389        -0.000824     -0.000460      0.265576
     16.91108     10.56943      9.00000        -0.017449     -0.000471     -0.325098
     19.02497      8.45554      9.00000        -0.000787     -0.000079     -0.323204
     16.91108     12.68331     11.11389        -0.014011      0.000483      0.262479
     19.02497     14.79720     11.11389        -0.000786      0.000176      0.268896
     16.91108     14.79720      9.00000        -0.015380     -0.003082     -0.322826
     19.02497     12.68331      9.00000        -0.000793     -0.000755     -0.323227
     16.91108     16.91108     11.11389        -0.011301     -0.001992      0.270034
     19.02497     19.02497     11.11389        -0.000748     -0.000855      0.273292
     16.91108     19.02497      9.00000        -0.009718     -0.002854     -0.320724
     19.02497     16.91108      9.00000        -0.000757     -0.002054     -0.321316
    total drift:                                0.146930      0.078058      1.017781

  FREE ENERGIE OF THE ION-ELECTRON SYSTEM (eV)
  free  energy   TOTEN  =     -1677.52241478 eV

  energy  without entropy=    -1677.52241478  energy(sigma->0) =    -1677.52241478