 vasp.6.4.0 14Feb23 (build Dec 05 2023 14:15:48) complex

 executed on             LinuxIFC date 2023.12.07  20:21:03

 INCAR:
   SYSTEM = MgO-rocksalt
   ISMEAR = 0
   SIGMA = 0.05
   EDIFF = 1E-4
   ALGO = ALL
   ISTART = 0
   IBRION = -1
   NSW = 0
   ISYM = 3
   DIPOL = 0.5 0.5 0.5
   IDIPOL = 3
   LDIPOL = .TRUE.
   LHFCALC = .TRUE.
   GGA = B5
   AEXX = 0.2
   AGGAX = 0.72
   AGGAC = 0.81
   ALDAC = 0.19
   IVDW = 13
   VDW_S8 = 2.0293
   VDW_A1 = 0.4087
   VDW_A2 = 4.5381
   ENCUT = 520
   PREC = Normal
   LASPH = .TRUE.
   LREAL = Auto
   ISPIN = 1
   NELM = 2000
   NELMIN = 8
   NCORE = 32
   LWAVE = .FALSE.
   LCHARG = .FALSE.

 POTCAR:    PAW_PBE Ag 02Apr2005
 POTCAR:    PAW_PBE Mg_pv 13Apr2007
 POTCAR:    PAW_PBE O 08Apr2002
 POTCAR:    PAW_PBE Ag 02Apr2005
   VRHFIN =Ag : s1 d10

   TITEL  = PAW_PBE Ag 02Apr2005
   POMASS =  107.868; ZVAL   =   11.000    mass and valenz
   ENMAX  =  249.844; ENMIN  =  187.383 eV

   TITEL  = PAW_PBE Mg_pv 13Apr2007
   POMASS =   24.305; ZVAL   =    8.000    mass and valenz
   ENMAX  =  403.929; ENMIN  =  302.947 eV

   TITEL  = PAW_PBE O 08Apr2002
   POMASS =   16.000; ZVAL   =    6.000    mass and valenz
   ENMAX  =  400.000; ENMIN  =  300.000 eV

 Optimization of the real space projectors (new method)

 maximal supplied QI-value         = 15.12
 optimisation between [QCUT,QGAM] = [ 11.64, 23.28] = [ 37.95,151.78] Ry
 Optimized for a Real-space Cutoff    1.40 Angstroem

   l    n(q)    QCUT    max X(q) W(low)/X(q) W(high)/X(q)  e(spline)
   2      9    11.641    53.897    0.27E-03    0.11E-03    0.28E-06
   2      9    11.641    52.416    0.27E-03    0.11E-03    0.29E-06
   0     10    11.641   122.045    0.70E-04    0.59E-04    0.17E-06
   0     10    11.641    73.629    0.67E-04    0.56E-04    0.16E-06
   1      9    11.641    15.255    0.49E-03    0.24E-03    0.17E-06
   1      9    11.641     9.562    0.40E-03    0.20E-03    0.14E-06
 Optimization of the real space projectors (new method)

[...]

   l    n(q)    QCUT    max X(q) W(low)/X(q) W(high)/X(q)  e(spline)
   1      8    11.527     2.974    0.16E-03    0.13E-03    0.98E-07
   1      8    11.527     4.279    0.42E-03    0.30E-03    0.22E-06
   0      8    11.527    16.381    0.13E-03    0.20E-03    0.72E-07
   0      8    11.527     5.611    0.88E-04    0.13E-03    0.50E-07
   2      7    11.527     4.652    0.25E-03    0.73E-04    0.51E-07
 Optimization of the real space projectors (new method)

 maximal supplied QI-value         = 24.76
 optimisation between [QCUT,QGAM] = [ 11.64, 23.27] = [ 37.91,151.63] Ry
 Optimized for a Real-space Cutoff    1.04 Angstroem

   l    n(q)    QCUT    max X(q) W(low)/X(q) W(high)/X(q)  e(spline)
   0      7    11.635    20.381    0.14E-03    0.49E-03    0.18E-06
   0      7    11.635    15.268    0.16E-03    0.52E-03    0.19E-06
   1      7    11.635     5.964    0.30E-03    0.44E-03    0.22E-06
   1      7    11.635     5.382    0.27E-03    0.34E-03    0.19E-06
|               ----> ADVICE to this user running VASP <----                  |
|     You enforced a specific xc type in the INCAR file but a different       |
|     type was found in the POTCAR file.                                      |
|     I HOPE YOU KNOW WHAT YOU ARE DOING!                                     |

  PAW_PBE Ag 02Apr2005                  :
  PAW_PBE Mg_pv 13Apr2007               :
  PAW_PBE O 08Apr2002                   :

 POSCAR: Ag Mg  O
  positions in direct lattice
 WARNING: Using user supplied parameters
     VDW_S8 = 2.029
     VDW_A1 = 0.409
     VDW_A2 = 4.538
     because the xc functional is not supported. Required parameters not
     defined in the INCAR file will be replaced with PBE defaults ones.

 ion  position               nearest neighbor table
   1  0.561  0.500  0.635-   2 2.57  73 3.05
   2  0.439  0.500  0.635-   1 2.57  53 3.05
   3  0.000  0.000  0.407- 105 2.11 106 2.11 121 2.11 186 2.11 103 2.11
   4  0.100  0.100  0.407- 105 2.11 106 2.11 110 2.11 125 2.11 104 2.11
   5  0.000  0.100  0.503- 103 2.11 104 2.11 107 2.11 184 2.11 105 2.11
   6  0.100  0.000  0.503- 103 2.11 104 2.11 120 2.11 123 2.11 106 2.11
   7  0.000  0.200  0.407- 109 2.11 105 2.11 110 2.11 190 2.11 107 2.11
   8  0.100  0.300  0.407- 110 2.11 109 2.11 114 2.11 129 2.11 108 2.11
   9  0.000  0.300  0.503- 107 2.11 108 2.11 111 2.11 188 2.11 109 2.11
  10  0.100  0.200  0.503- 108 2.11 107 2.11 104 2.11 127 2.11 110 2.11
  11  0.000  0.400  0.407- 109 2.11 113 2.11 114 2.11 194 2.11 111 2.11
  12  0.100  0.500  0.407- 113 2.11 114 2.11 118 2.11 133 2.11 112 2.11
  13  0.000  0.500  0.503- 111 2.11 112 2.11 115 2.11 192 2.11 113 2.11
  14  0.100  0.400  0.503- 108 2.11 111 2.11 112 2.11 131 2.11 114 2.11
  15  0.000  0.600  0.407- 113 2.11 117 2.11 118 2.11 198 2.11 115 2.11
  16  0.100  0.700  0.407- 122 2.11 118 2.11 117 2.11 137 2.11 116 2.11
  17  0.000  0.700  0.503- 119 2.11 116 2.11 115 2.11 196 2.11 117 2.11
  18  0.100  0.600  0.503- 112 2.11 115 2.11 116 2.11 135 2.11 118 2.11
  19  0.000  0.800  0.407- 117 2.11 121 2.11 122 2.11 202 2.11 119 2.11
  20  0.100  0.900  0.407- 106 2.11 121 2.11 122 2.11 141 2.11 120 2.11
  21  0.000  0.900  0.503- 103 2.11 119 2.11 120 2.11 200 2.11 121 2.11
  22  0.100  0.800  0.503- 116 2.11 119 2.11 120 2.11 139 2.11 122 2.11
  23  0.200  0.000  0.407- 126 2.11 125 2.11 106 2.11 141 2.11 123 2.11
  24  0.300  0.100  0.407- 125 2.11 126 2.11 130 2.11 145 2.11 124 2.11
  25  0.200  0.100  0.503- 124 2.11 123 2.11 104 2.11 127 2.11 125 2.11
  26  0.300  0.000  0.503- 123 2.11 124 2.11 140 2.11 143 2.11 126 2.11
  27  0.200  0.200  0.407- 129 2.11 130 2.11 110 2.11 125 2.11 127 2.11
  28  0.300  0.300  0.407- 129 2.11 130 2.11 134 2.11 149 2.11 128 2.11
  29  0.200  0.300  0.503- 127 2.11 128 2.11 108 2.11 131 2.11 129 2.11
  30  0.300  0.200  0.503- 127 2.11 128 2.11 124 2.11 147 2.11 130 2.11
  31  0.200  0.400  0.407- 134 2.11 129 2.11 133 2.11 114 2.11 131 2.11
  32  0.300  0.500  0.407- 133 2.11 134 2.11 138 2.11 153 2.11 132 2.11
  33  0.200  0.500  0.503- 132 2.11 131 2.11 112 2.11 135 2.11 133 2.11
  34  0.300  0.400  0.503- 131 2.11 128 2.11 132 2.11 151 2.11 134 2.11
  35  0.200  0.600  0.407- 138 2.11 133 2.11 137 2.11 118 2.11 135 2.11
  36  0.300  0.700  0.407- 137 2.11 142 2.11 138 2.11 157 2.11 136 2.11
  37  0.200  0.700  0.503- 136 2.11 139 2.11 116 2.11 135 2.11 137 2.11
  38  0.300  0.600  0.503- 135 2.11 132 2.11 136 2.11 155 2.11 138 2.11
  39  0.200  0.800  0.407- 137 2.11 142 2.11 141 2.11 122 2.11 139 2.11
  40  0.300  0.900  0.407- 141 2.11 126 2.11 142 2.11 161 2.11 140 2.11
  41  0.200  0.900  0.503- 140 2.11 123 2.11 139 2.11 120 2.11 141 2.11
  42  0.300  0.800  0.503- 136 2.11 139 2.11 140 2.11 159 2.11 142 2.11
  43  0.400  0.000  0.407- 126 2.11 145 2.11 146 2.11 161 2.11 143 2.11
  44  0.500  0.100  0.407- 145 2.11 146 2.11 150 2.11 165 2.11 144 2.11
  45  0.400  0.100  0.503- 124 2.11 143 2.11 144 2.11 147 2.11 145 2.11
  46  0.500  0.000  0.503- 143 2.11 144 2.11 160 2.11 163 2.11 146 2.11
  47  0.400  0.200  0.407- 149 2.11 145 2.11 130 2.11 150 2.11 147 2.11
  48  0.500  0.300  0.407- 150 2.11 149 2.11 154 2.11 169 2.11 148 2.11
  49  0.400  0.300  0.503- 147 2.11 128 2.11 148 2.11 151 2.11 149 2.11
  50  0.500  0.200  0.503- 148 2.11 147 2.11 144 2.11 167 2.11 150 2.11
  51  0.400  0.400  0.407- 134 2.11 149 2.11 153 2.11 154 2.11 151 2.11
  52  0.500  0.500  0.407- 153 2.11 154 2.11 158 2.11 173 2.11 152 2.11
  53  0.400  0.500  0.503- 132 2.11 151 2.11 152 2.11 155 2.11 153 2.11   2 3.05
  54  0.500  0.400  0.503- 148 2.11 151 2.11 152 2.11 171 2.11 154 2.11
  55  0.400  0.600  0.407- 138 2.11 153 2.11 157 2.11 158 2.11 155 2.11
  56  0.500  0.700  0.407- 162 2.11 158 2.11 157 2.11 177 2.11 156 2.11
  57  0.400  0.700  0.503- 159 2.11 155 2.11 156 2.11 136 2.11 157 2.11
  58  0.500  0.600  0.503- 152 2.11 155 2.11 156 2.11 175 2.11 158 2.11
  59  0.400  0.800  0.407- 157 2.11 142 2.11 161 2.11 162 2.11 159 2.11
  60  0.500  0.900  0.407- 146 2.11 161 2.11 162 2.11 181 2.11 160 2.11
[...]
 188  0.900  0.300  0.503-  90 2.11  89 2.11   9 2.11  94 2.11  88 2.11
 189  0.800  0.300  0.407-  68 2.11  87 2.11  88 2.11  91 2.11  89 2.11
 190  0.900  0.200  0.407-  88 2.11  84 2.11  87 2.11   7 2.11  90 2.11
 191  0.800  0.400  0.503-  74 2.11  89 2.11  93 2.11  94 2.11  91 2.11
 192  0.900  0.500  0.503-  13 2.11  93 2.11  94 2.11  98 2.11  92 2.11
 193  0.800  0.500  0.407-  72 2.11  91 2.11  92 2.11  95 2.11  93 2.11
 194  0.900  0.400  0.407-  11 2.11  88 2.11  91 2.11  92 2.11  94 2.11
 195  0.800  0.600  0.503-  78 2.11  93 2.11  97 2.11  98 2.11  95 2.11
 196  0.900  0.700  0.503- 102 2.11  97 2.11  98 2.11  17 2.11  96 2.11
 197  0.800  0.700  0.407-  76 2.11  99 2.11  96 2.11  95 2.11  97 2.11
 198  0.900  0.600  0.407-  15 2.11  92 2.11  95 2.11  96 2.11  98 2.11
 199  0.800  0.800  0.503-  82 2.11  97 2.11 101 2.11 102 2.11  99 2.11
 200  0.900  0.900  0.503-  21 2.11  86 2.11 101 2.11 102 2.11 100 2.11
 201  0.800  0.900  0.407-  80 2.11  83 2.11  99 2.11 100 2.11 101 2.11
 202  0.900  0.800  0.407-  96 2.11  19 2.11  99 2.11 100 2.11 102 2.11

  LATTYP: Found a simple tetragonal cell.
 ALAT       =    21.1388521970
 C/A-ratio  =     1.0461251639

  Lattice vectors:

 A1 = (  21.1388521970,   0.0000000000,   0.0000000000)
 A2 = (   0.0000000000,  21.1388521970,   0.0000000000)
 A3 = (   0.0000000000,   0.0000000000,  22.1138852197)

Analysis of symmetry for initial positions (statically):
 Subroutine PRICEL returns:
 Original cell was already a primitive cell.

 Routine SETGRP: Setting up the symmetry group for a
 simple tetragonal supercell.

 Subroutine GETGRP returns: Found  4 space group operations
 (whereof  4 operations were pure point group operations)
 out of a pool of 16 trial point group operations.

The static configuration has the point symmetry C_2v.

Analysis of symmetry for dynamics (positions and initial velocities):
 Subroutine PRICEL returns:
 Original cell was already a primitive cell.

 Routine SETGRP: Setting up the symmetry group for a
 simple tetragonal supercell.

 Subroutine GETGRP returns: Found  4 space group operations
 (whereof  4 operations were pure point group operations)
 out of a pool of 16 trial point group operations.

The dynamic configuration has the point symmetry C_2v.

 Subroutine INISYM returns: Found  4 space group operations
 (whereof  4 operations are pure point group operations),
 and found     1 'primitive' translations

                                     Primitive cell

  volume of cell :    9881.6133

  direct lattice vectors                    reciprocal lattice vectors
    21.138852197  0.000000000  0.000000000     0.047306258  0.000000000  0.000000000
     0.000000000 21.138852197  0.000000000     0.000000000  0.047306258  0.000000000
     0.000000000  0.000000000 22.113885220     0.000000000  0.000000000  0.045220457

  length of vectors
    21.138852197 21.138852197 22.113885220     0.047306258  0.047306258  0.045220457

  position of ions in fractional coordinates (direct lattice)
     0.560811057  0.500000000  0.635369261
     0.439188943  0.500000000  0.635369261
     0.000000000  0.000000000  0.406984115
[...]
     22     -46.3478      2.00000
     23     -46.3476      2.00000
     24     -46.3470      2.00000
     25     -46.3461      2.00000
     26     -46.3459      2.00000
     27     -46.3450      2.00000
     28     -46.3445      2.00000
     29     -46.3443      2.00000
     30     -46.3434      2.00000
     31     -46.3432      2.00000
     32     -46.3424      2.00000
     33     -46.3424      2.00000
     34     -46.3421      2.00000
     35     -46.3411      2.00000
     36     -46.3406      2.00000
     37     -46.3405      2.00000
     38     -46.3401      2.00000
     39     -46.3399      2.00000
     40     -46.3396      2.00000
     41     -46.3391      2.00000
     42     -46.3390      2.00000
     43     -46.3381      2.00000
     44     -46.3381      2.00000
     45     -46.3377      2.00000
     46     -46.3376      2.00000
     47     -46.3371      2.00000
     48     -46.3368      2.00000
     49     -46.3367      2.00000
     50     -46.3363      2.00000
     51     -46.3359      2.00000
     52     -46.3354      2.00000
     53     -46.3354      2.00000
     54     -46.3344      2.00000
     55     -46.3342      2.00000
     56     -46.3340      2.00000
     57     -46.3336      2.00000
     58     -46.3336      2.00000
     59     -46.3328      2.00000
     60     -46.3325      2.00000
[...]
    850       4.8734      0.00000
    851       4.9021      0.00000
    852       4.9832      0.00000
    853       5.0019      0.00000
    854       5.0378      0.00000
    855       5.0669      0.00000
    856       5.0892      0.00000
    857       5.1163      0.00000
    858       5.1275      0.00000
    859       5.1463      0.00000
    860       5.1621      0.00000
    861       5.3975      0.00000
    862       5.4378      0.00000
    863       5.4686      0.00000
    864       5.4957      0.00000

 soft charge-density along one line, spin component           1
         0         1         2         3         4         5         6         7         8         9
 total charge-density along one line

------------------------ aborting loop because EDIFF is reached ----------------------------------------

 VOLUME and BASIS-vectors are now :
  energy-cutoff  :      520.00
  volume of cell :     9881.61
      direct lattice vectors                 reciprocal lattice vectors
    21.138852197  0.000000000  0.000000000     0.047306258  0.000000000  0.000000000
     0.000000000 21.138852197  0.000000000     0.000000000  0.047306258  0.000000000
     0.000000000  0.000000000 22.113885220     0.000000000  0.000000000  0.045220457

  length of vectors
    21.138852197 21.138852197 22.113885220     0.047306258  0.047306258  0.045220457

 FORCES acting on ions:
    Electron-Ion                     Ewald-Force                    Non-Local-Force
   -.267E+03 -.231E-03 -.199E+04   0.260E+03 0.836E-08 0.199E+04   0.687E+01 -.905E-20 -.315E+00
   0.267E+03 0.281E-03 -.199E+04   -.260E+03 0.836E-08 0.199E+04   -.687E+01 -.529E-20 -.315E+00
   -.208E-04 -.125E-03 0.931E+03   0.941E-13 0.701E-08 -.923E+03   -.817E-22 0.127E-20 -.668E+01
   0.368E+01 0.406E+01 0.932E+03   -.368E+01 -.407E+01 -.924E+03   -.176E-02 0.590E-02 -.668E+01
   -.114E-03 0.437E+01 -.922E+03   0.131E-12 -.438E+01 0.915E+03   -.200E-20 0.583E-02 0.668E+01
   0.388E+01 -.808E-05 -.922E+03   -.387E+01 0.100E-07 0.915E+03   -.272E-02 0.567E-21 0.668E+01
   -.263E-03 0.601E+01 0.933E+03   0.155E-10 -.602E+01 -.925E+03   -.881E-21 0.962E-02 -.668E+01
   0.766E+01 0.768E+01 0.936E+03   -.766E+01 -.770E+01 -.928E+03   0.338E-02 0.134E-01 -.668E+01
   -.166E-03 0.814E+01 -.920E+03   0.207E-11 -.816E+01 0.912E+03   -.794E-20 0.118E-01 0.668E+01
   0.703E+01 0.910E+01 -.921E+03   -.703E+01 -.912E+01 0.913E+03   -.104E-02 0.127E-01 0.669E+01
   -.533E-04 0.415E+01 0.936E+03   -.175E-10 -.417E+01 -.928E+03   0.125E-21 0.727E-02 -.668E+01
   0.112E+02 0.385E-03 0.939E+03   -.113E+02 -.107E-07 -.931E+03   0.170E-01 0.437E-20 -.668E+01
   -.111E-03 0.348E-03 -.918E+03   0.229E-12 -.112E-07 0.910E+03   0.102E-21 -.937E-20 0.669E+01
   0.154E+02 0.715E+01 -.916E+03   -.155E+02 -.717E+01 0.908E+03   0.178E-01 0.114E-01 0.669E+01
   0.900E-04 -.415E+01 0.936E+03   0.114E-11 0.417E+01 -.928E+03   -.596E-21 -.727E-02 -.668E+01
   0.766E+01 -.768E+01 0.936E+03   -.766E+01 0.770E+01 -.928E+03   0.338E-02 -.134E-01 -.668E+01
   0.808E-04 -.814E+01 -.920E+03   -.927E-12 0.816E+01 0.912E+03   0.400E-20 -.118E-01 0.668E+01
   0.154E+02 -.715E+01 -.916E+03   -.155E+02 0.717E+01 0.908E+03   0.178E-01 -.114E-01 0.669E+01
   0.217E-04 -.601E+01 0.933E+03   0.909E-12 0.602E+01 -.925E+03   0.216E-21 -.962E-02 -.668E+01
   0.368E+01 -.407E+01 0.932E+03   -.368E+01 0.407E+01 -.924E+03   -.176E-02 -.590E-02 -.668E+01
   -.156E-04 -.437E+01 -.922E+03   -.899E-12 0.438E+01 0.915E+03   -.207E-20 -.583E-02 0.668E+01
   0.703E+01 -.910E+01 -.921E+03   -.703E+01 0.912E+01 0.913E+03   -.104E-02 -.127E-01 0.669E+01
   0.528E+01 -.111E-04 0.932E+03   -.528E+01 0.108E-07 -.925E+03   -.377E-02 0.962E-21 -.668E+01
   0.663E+01 0.778E+01 0.935E+03   -.662E+01 -.779E+01 -.927E+03   -.468E-02 0.832E-02 -.668E+01
   0.800E+01 0.745E+01 -.921E+03   -.799E+01 -.746E+01 0.913E+03   -.540E-02 0.773E-02 0.668E+01
   0.688E+01 -.905E-04 -.920E+03   -.687E+01 0.203E-07 0.913E+03   -.589E-02 -.439E-21 0.668E+01
   0.924E+01 0.101E+02 0.936E+03   -.924E+01 -.101E+02 -.928E+03   -.170E-02 0.149E-01 -.668E+01
   0.172E+02 0.191E+02 0.950E+03   -.172E+02 -.192E+02 -.942E+03   0.195E-02 0.312E-01 -.668E+01
   0.221E+02 0.180E+02 -.913E+03   -.221E+02 -.181E+02 0.905E+03   0.384E-02 0.306E-01 0.669E+01
   0.152E+02 0.227E+02 -.914E+03   -.151E+02 -.227E+02 0.906E+03   -.118E-01 0.230E-01 0.668E+01
   0.200E+02 0.854E+01 0.946E+03   -.200E+02 -.857E+01 -.939E+03   0.153E-01 0.193E-01 -.667E+01
   0.310E+02 0.238E-03 0.969E+03   -.310E+02 -.344E-07 -.961E+03   0.219E-02 -.235E-20 -.659E+01
   0.409E+02 0.427E-03 -.902E+03   -.410E+02 -.321E-07 0.895E+03   0.776E-01 -.511E-20 0.670E+01
   0.561E+02 0.338E+02 -.879E+03   -.562E+02 -.339E+02 0.871E+03   0.387E-01 0.883E-01 0.673E+01
   0.200E+02 -.854E+01 0.946E+03   -.200E+02 0.857E+01 -.939E+03   0.153E-01 -.193E-01 -.667E+01
   0.172E+02 -.191E+02 0.950E+03   -.172E+02 0.192E+02 -.942E+03   0.195E-02 -.312E-01 -.668E+01
   0.221E+02 -.180E+02 -.913E+03   -.221E+02 0.181E+02 0.905E+03   0.384E-02 -.306E-01 0.669E+01
   0.561E+02 -.338E+02 -.879E+03   -.562E+02 0.339E+02 0.871E+03   0.387E-01 -.883E-01 0.673E+01
   0.924E+01 -.101E+02 0.936E+03   -.924E+01 0.101E+02 -.928E+03   -.170E-02 -.149E-01 -.668E+01
   0.663E+01 -.778E+01 0.935E+03   -.662E+01 0.779E+01 -.927E+03   -.468E-02 -.832E-02 -.668E+01
   0.800E+01 -.745E+01 -.921E+03   -.799E+01 0.746E+01 0.913E+03   -.540E-02 -.773E-02 0.668E+01
   0.152E+02 -.227E+02 -.914E+03   -.151E+02 0.227E+02 0.906E+03   -.118E-01 -.230E-01 0.668E+01
   0.351E+01 -.322E-04 0.935E+03   -.351E+01 0.184E-07 -.927E+03   -.303E-02 0.658E-21 -.668E+01
   -.965E-04 0.107E+02 0.938E+03   0.435E-11 -.107E+02 -.930E+03   0.160E-20 0.515E-02 -.669E+01
   0.574E+01 0.144E+02 -.917E+03   -.573E+01 -.144E+02 0.910E+03   -.558E-02 0.216E-02 0.668E+01
   0.114E-03 0.824E-04 -.919E+03   0.875E-13 0.285E-07 0.911E+03   0.649E-21 -.114E-21 0.668E+01
   0.702E+01 0.197E+02 0.944E+03   -.702E+01 -.198E+02 -.937E+03   -.532E-02 0.232E-01 -.669E+01
   0.212E-03 0.312E+02 0.964E+03   -.558E-11 -.313E+02 -.956E+03   -.152E-20 0.298E-01 -.671E+01
   0.238E+02 0.558E+02 -.886E+03   -.238E+02 -.559E+02 0.879E+03   -.346E-01 0.794E-01 0.667E+01
   0.108E-03 0.364E+02 -.907E+03   -.191E-10 -.364E+02 0.899E+03   0.350E-20 -.877E-02 0.667E+01
   0.204E+02 0.239E+02 0.983E+03   -.203E+02 -.240E+02 -.975E+03   -.660E-03 0.211E-01 -.661E+01
   -.114E-03 -.321E-04 0.101E+04   -.457E-13 -.677E-07 -.100E+04   -.207E-20 0.158E-20 -.673E+01
   0.821E+02 0.902E-04 -.757E+03   -.821E+02 -.229E-06 0.749E+03   -.415E-01 0.433E-21 0.626E+01
   0.119E-03 0.922E+02 -.797E+03   0.216E-10 -.924E+02 0.790E+03   -.429E-22 0.942E-01 0.651E+01
   0.203E+02 -.239E+02 0.983E+03   -.203E+02 0.240E+02 -.975E+03   -.660E-03 -.211E-01 -.661E+01
   -.888E-04 -.312E+02 0.964E+03   -.183E-10 0.313E+02 -.956E+03   -.110E-20 -.298E-01 -.671E+01
   0.238E+02 -.558E+02 -.886E+03   -.238E+02 0.559E+02 0.879E+03   -.346E-01 -.794E-01 0.667E+01
   -.935E-05 -.922E+02 -.797E+03   0.182E-10 0.924E+02 0.790E+03   0.246E-22 -.942E-01 0.651E+01
   0.702E+01 -.197E+02 0.944E+03   -.702E+01 0.198E+02 -.937E+03   -.532E-02 -.232E-01 -.669E+01
   -.277E-03 -.107E+02 0.938E+03   0.205E-10 0.107E+02 -.930E+03   0.311E-21 -.515E-02 -.669E+01
[...]
   -.107E+02 0.891E+01 0.707E+03   0.107E+02 -.893E+01 -.711E+03   -.484E-02 0.224E-01 0.319E+01
   -.393E+01 0.527E+01 0.702E+03   0.393E+01 -.528E+01 -.706E+03   -.165E-03 0.117E-01 0.318E+01
   -.257E+02 0.107E+02 -.681E+03   0.258E+02 -.107E+02 0.685E+03   -.322E-01 0.369E-01 -.319E+01
   -.131E+02 0.319E-04 -.688E+03   0.132E+02 -.113E-07 0.692E+03   -.183E-01 0.168E-21 -.320E+01
   -.170E+02 0.890E-04 0.713E+03   0.170E+02 -.138E-07 -.717E+03   -.320E-01 -.841E-20 0.321E+01
   -.761E+01 0.386E+01 0.705E+03   0.762E+01 -.387E+01 -.709E+03   -.108E-01 0.122E-01 0.319E+01
   -.257E+02 -.107E+02 -.681E+03   0.258E+02 0.107E+02 0.685E+03   -.322E-01 -.369E-01 -.319E+01
   -.826E+01 -.774E+01 -.690E+03   0.826E+01 0.775E+01 0.694E+03   -.642E-02 -.184E-01 -.321E+01
   -.107E+02 -.891E+01 0.707E+03   0.107E+02 0.893E+01 -.711E+03   -.484E-02 -.224E-01 0.319E+01
   -.761E+01 -.386E+01 0.705E+03   0.762E+01 0.387E+01 -.709E+03   -.108E-01 -.122E-01 0.319E+01
   -.965E+01 -.106E+02 -.690E+03   0.965E+01 0.106E+02 0.694E+03   0.163E-02 -.163E-01 -.321E+01
   -.348E+01 -.386E+01 -.693E+03   0.348E+01 0.386E+01 0.697E+03   0.188E-02 -.629E-02 -.321E+01
   -.468E+01 -.419E+01 0.702E+03   0.468E+01 0.419E+01 -.706E+03   0.327E-02 -.684E-02 0.318E+01
   -.393E+01 -.527E+01 0.702E+03   0.393E+01 0.528E+01 -.706E+03   -.165E-03 -.117E-01 0.318E+01
   0.965E-04 -.313E-04 0.530E+01   0.324E-11 -.102E-11 -.739E-11   0.854E-16 -.364E-16 -.448E+01

 POSITION                                       TOTAL-FORCE (eV/Angst)
     11.85490     10.56943     14.05048         0.195105      0.000000      0.053302
      9.28395     10.56943     14.05048        -0.195105      0.000000      0.053302
      0.00000      0.00000      9.00000        -0.000000      0.000000      0.484517
      2.11389      2.11389      9.00000         0.000449     -0.001861      0.484348
      0.00000      2.11389     11.11389        -0.000000     -0.001937     -0.469315
      2.11389      0.00000     11.11389         0.000908      0.000000     -0.469821
      0.00000      4.22777      9.00000        -0.000000     -0.003240      0.483848
      2.11389      6.34166      9.00000        -0.000923     -0.004560      0.482811
      0.00000      6.34166     11.11389        -0.000000     -0.004156     -0.467319
      2.11389      4.22777     11.11389         0.000382     -0.003987     -0.468934
      0.00000      8.45554      9.00000        -0.000000     -0.002310      0.482857
      2.11389     10.56943      9.00000        -0.004469      0.000000      0.482025
      0.00000     10.56943     11.11389        -0.000000      0.000000     -0.469930
      2.11389      8.45554     11.11389        -0.005036     -0.003933     -0.470092
      0.00000     12.68331      9.00000        -0.000000      0.002310      0.482857
      2.11389     14.79720      9.00000        -0.000923      0.004560      0.482811
      0.00000     14.79720     11.11389        -0.000000      0.004156     -0.467319
      2.11389     12.68331     11.11389        -0.005036      0.003933     -0.470092
      0.00000     16.91108      9.00000        -0.000000      0.003240      0.483848
      2.11389     19.02497      9.00000         0.000449      0.001861      0.484348
      0.00000     19.02497     11.11389        -0.000000      0.001937     -0.469315
      2.11389     16.91108     11.11389         0.000382      0.003987     -0.468934
      4.22777      0.00000      9.00000         0.001231      0.000000      0.484333
      6.34166      2.11389      9.00000         0.001510     -0.002421      0.485116
      4.22777      2.11389     11.11389         0.001853     -0.002420     -0.468804
      6.34166      0.00000     11.11389         0.001972      0.000000     -0.466174
      4.22777      4.22777      9.00000         0.000638     -0.004493      0.484181
      6.34166      6.34166      9.00000        -0.000286     -0.009268      0.483636
      4.22777      6.34166     11.11389        -0.000424     -0.009522     -0.469522
      6.34166      4.22777     11.11389         0.004178     -0.006107     -0.465288
      4.22777      8.45554      9.00000        -0.004405     -0.006318      0.480425
      6.34166     10.56943      9.00000         0.002287      0.000000      0.460735
      4.22777     10.56943     11.11389        -0.023278      0.000000     -0.474155
      6.34166      8.45554     11.11389        -0.003940     -0.024060     -0.470068
      4.22777     12.68331      9.00000        -0.004405      0.006318      0.480425
      6.34166     14.79720      9.00000        -0.000286      0.009268      0.483636
      4.22777     14.79720     11.11389        -0.000424      0.009522     -0.469522
      6.34166     12.68331     11.11389        -0.003940      0.024060     -0.470068
      4.22777     16.91108      9.00000         0.000638      0.004493      0.484181
      6.34166     19.02497      9.00000         0.001510      0.002421      0.485116
      4.22777     19.02497     11.11389         0.001853      0.002420     -0.468804
      6.34166     16.91108     11.11389         0.004178      0.006107     -0.465288
      8.45554      0.00000      9.00000         0.000975      0.000000      0.485023
     10.56943      2.11389      9.00000        -0.000000     -0.001479      0.485857
      8.45554      2.11389     11.11389         0.001889     -0.000156     -0.467315
     10.56943      0.00000     11.11389        -0.000000      0.000000     -0.468050
      8.45554      4.22777      9.00000         0.002177     -0.006156      0.487101
     10.56943      6.34166      9.00000        -0.000000     -0.009003      0.494244
      8.45554      6.34166     11.11389         0.017367     -0.017385     -0.445307
     10.56943      4.22777     11.11389        -0.000000      0.005671     -0.461200
      8.45554      8.45554      9.00000         0.003219     -0.002625      0.467928
     10.56943     10.56943      9.00000        -0.000000      0.000000      0.471734
      8.45554     10.56943     11.11389        -0.018073      0.000000     -0.606093
     10.56943      8.45554     11.11389        -0.000000     -0.012483     -0.339997
      8.45554     12.68331      9.00000         0.003219      0.002625      0.467928
     10.56943     14.79720      9.00000        -0.000000      0.009003      0.494244
      8.45554     14.79720     11.11389         0.017367      0.017385     -0.445307
     10.56943     12.68331     11.11389        -0.000000      0.012483     -0.339997
      8.45554     16.91108      9.00000         0.002177      0.006156      0.487101
     10.56943     19.02497      9.00000        -0.000000      0.001479      0.485857
[...]
     19.02497      6.34166     11.11389        -0.002106      0.005966      0.377177
     16.91108      6.34166      9.00000        -0.001660      0.007280     -0.390875
     19.02497      4.22777      9.00000         0.000006      0.003783     -0.392052
     16.91108      8.45554     11.11389        -0.011606      0.012215      0.383073
     19.02497     10.56943     11.11389        -0.006212      0.000000      0.378638
     16.91108     10.56943      9.00000        -0.011293      0.000000     -0.383240
     19.02497      8.45554      9.00000        -0.003537      0.003987     -0.390918
     16.91108     12.68331     11.11389        -0.011606     -0.012215      0.383073
     19.02497     14.79720     11.11389        -0.002106     -0.005966      0.377177
     16.91108     14.79720      9.00000        -0.001660     -0.007280     -0.390875
     19.02497     12.68331      9.00000        -0.003537     -0.003987     -0.390918
     16.91108     16.91108     11.11389         0.000392     -0.005563      0.375993
     19.02497     19.02497     11.11389         0.000528     -0.001991      0.376287
     16.91108     19.02497      9.00000         0.001157     -0.002271     -0.392495
     19.02497     16.91108      9.00000         0.000006     -0.003783     -0.392052
    total drift:                                0.000097     -0.000031      0.096865

  FREE ENERGIE OF THE ION-ELECTRON SYSTEM (eV)
  free  energy   TOTEN  =     -1362.30062056 eV

  energy  without entropy=    -1362.30062056  energy(sigma->0) =    -1362.30062056