 vasp.6.3.0 20Jan22 (build Apr  1 2022 16:44:48) complex
 executed on        HPECrayEX_GCC date 2022.11.18  16:08:32

 INCAR:
   SYSTEM = MgO-rocksalt
   ISMEAR = 0
   SIGMA = 0.05
   EDIFF = 1E-6
   ALGO = ALL
   ISTART = 0
   IBRION = -1
   NSW = 0
   ISYM = 2
   DIPOL = 0.5 0.5 0.5
   IDIPOL = 3
   LDIPOL = .TRUE.
   METAGGA = SCAN
   LUSE_VDW = .TRUE.
   BPARAM = 15.7
   CPARAM = 0.0093
   ENCUT = 520
   PREC = Accurate
   LASPH = .TRUE.
   LREAL = Auto
   ISPIN = 1
   NELM = 200
   NELMIN = 8
   NCORE = 4
   KPAR = 2
   LWAVE = .FALSE.
   LCHARG = .FALSE.

 POTCAR:    PAW_PBE Cu 22Jun2005
 POTCAR:    PAW_PBE Mg_pv 13Apr2007
 POTCAR:    PAW_PBE O 08Apr2002
|               ----> ADVICE to this user running VASP <----                  |
|     You have switched on vdW-DFT.                                           |
|     This routine was written and supplied by Jiri Klimes. We recommend      |
|     that you carefully read and cite the following publications:            |
|       J. Klimes, D.R. Bowler, A. Michelides                                 |
|          J. Phys.: Cond Matt. 22 022201 (2010)                              |
|       J. Klimes, D.R. Bowler, A. Michelides                                 |
|          Phys. Rev. B. 83, 195131 (2011)                                    |
|     and references therein.                                                 |

   TITEL  = PAW_PBE Cu 22Jun2005
   POMASS =   63.546; ZVAL   =   11.000    mass and valenz
   ENMAX  =  295.446; ENMIN  =  221.585 eV

   TITEL  = PAW_PBE Mg_pv 13Apr2007
   POMASS =   24.305; ZVAL   =    8.000    mass and valenz
   ENMAX  =  403.929; ENMIN  =  302.947 eV

   TITEL  = PAW_PBE O 08Apr2002
   POMASS =   16.000; ZVAL   =    6.000    mass and valenz
   ENMAX  =  400.000; ENMIN  =  300.000 eV

 Optimization of the real space projectors (new method)

 maximal supplied QI-value         = 16.25
 optimisation between [QCUT,QGAM] = [ 11.54, 23.24] = [ 37.28,151.24] Ry
 Optimized for a Real-space Cutoff    1.53 Angstroem

   l    n(q)    QCUT    max X(q) W(low)/X(q) W(high)/X(q)  e(spline)
   2     10    11.539     4.610    0.96E-04    0.13E-03    0.19E-06
   2     10    11.539     8.522    0.16E-03    0.21E-03    0.28E-06
   0     11    11.539    51.609    0.45E-04    0.31E-04    0.11E-06
   0     11    11.539    27.747    0.39E-04    0.29E-04    0.10E-06
   1     10    11.539    20.408    0.70E-05    0.38E-04    0.18E-06
   1     10    11.539    13.425    0.66E-05    0.34E-04    0.17E-06
 Optimization of the real space projectors (new method)

[...]

   l    n(q)    QCUT    max X(q) W(low)/X(q) W(high)/X(q)  e(spline)
   1      8    11.527     2.974    0.44E-04    0.56E-04    0.12E-06
   1      8    11.527     4.279    0.12E-03    0.12E-03    0.26E-06
   0      9    11.527    16.381    0.46E-04    0.64E-04    0.78E-07
   0      9    11.527     5.611    0.26E-04    0.43E-04    0.55E-07
   2      8    11.527     4.652    0.22E-03    0.72E-04    0.47E-07
 Optimization of the real space projectors (new method)

 maximal supplied QI-value         = 24.76
 optimisation between [QCUT,QGAM] = [ 11.64, 23.27] = [ 37.91,151.63] Ry
 Optimized for a Real-space Cutoff    1.14 Angstroem

   l    n(q)    QCUT    max X(q) W(low)/X(q) W(high)/X(q)  e(spline)
   0      8    11.635    20.381    0.10E-03    0.33E-03    0.24E-06
   0      8    11.635    15.268    0.11E-03    0.35E-03    0.26E-06
   1      7    11.635     5.964    0.24E-03    0.31E-03    0.30E-06
   1      7    11.635     5.382    0.22E-03    0.25E-03    0.26E-06
  PAW_PBE Cu 22Jun2005                  :
  PAW_PBE Mg_pv 13Apr2007               :
  PAW_PBE O 08Apr2002                   :

 POSCAR: Cu Mg  O
  positions in direct lattice

 METAGGA = SCAN     LMAXTAU =  6    LMIXTAU =  F

 ion  position               nearest neighbor table
   1  0.538  0.562  0.615-   2 2.24
   2  0.462  0.638  0.615-   1 2.24
   3  0.000  0.000  0.407- 105 2.11 106 2.11 121 2.11 186 2.11 103 2.11
   4  0.100  0.100  0.407- 105 2.11 106 2.11 110 2.11 125 2.11 104 2.11
   5  0.000  0.100  0.503- 103 2.11 104 2.11 107 2.11 184 2.11 105 2.11
   6  0.100  0.000  0.503- 103 2.11 104 2.11 120 2.11 123 2.11 106 2.11
   7  0.000  0.200  0.407- 109 2.11 105 2.11 110 2.11 190 2.11 107 2.11
   8  0.100  0.300  0.407- 110 2.11 109 2.11 114 2.11 129 2.11 108 2.11
   9  0.000  0.300  0.503- 107 2.11 108 2.11 111 2.11 188 2.11 109 2.11
  10  0.100  0.200  0.503- 108 2.11 107 2.11 104 2.11 127 2.11 110 2.11
  11  0.000  0.400  0.407- 109 2.11 113 2.11 114 2.11 194 2.11 111 2.11
  12  0.100  0.500  0.407- 113 2.11 114 2.11 118 2.11 133 2.11 112 2.11
  13  0.000  0.500  0.503- 111 2.11 112 2.11 115 2.11 192 2.11 113 2.11
  14  0.100  0.400  0.503- 108 2.11 111 2.11 112 2.11 131 2.11 114 2.11
  15  0.000  0.600  0.407- 113 2.11 117 2.11 118 2.11 198 2.11 115 2.11
  16  0.100  0.700  0.407- 122 2.11 118 2.11 117 2.11 137 2.11 116 2.11
  17  0.000  0.700  0.503- 119 2.11 116 2.11 115 2.11 196 2.11 117 2.11
  18  0.100  0.600  0.503- 112 2.11 115 2.11 116 2.11 135 2.11 118 2.11
  19  0.000  0.800  0.407- 117 2.11 121 2.11 122 2.11 202 2.11 119 2.11
  20  0.100  0.900  0.407- 106 2.11 121 2.11 122 2.11 141 2.11 120 2.11
  21  0.000  0.900  0.503- 103 2.11 119 2.11 120 2.11 200 2.11 121 2.11
  22  0.100  0.800  0.503- 116 2.11 119 2.11 120 2.11 139 2.11 122 2.11
  23  0.200  0.000  0.407- 126 2.11 125 2.11 106 2.11 141 2.11 123 2.11
  24  0.300  0.100  0.407- 125 2.11 126 2.11 130 2.11 145 2.11 124 2.11
  25  0.200  0.100  0.503- 124 2.11 123 2.11 104 2.11 127 2.11 125 2.11
  26  0.300  0.000  0.503- 123 2.11 124 2.11 140 2.11 143 2.11 126 2.11
  27  0.200  0.200  0.407- 129 2.11 130 2.11 110 2.11 125 2.11 127 2.11
  28  0.300  0.300  0.407- 129 2.11 130 2.11 134 2.11 149 2.11 128 2.11
  29  0.200  0.300  0.503- 127 2.11 128 2.11 108 2.11 131 2.11 129 2.11
  30  0.300  0.200  0.503- 127 2.11 128 2.11 124 2.11 147 2.11 130 2.11
  31  0.200  0.400  0.407- 134 2.11 129 2.11 133 2.11 114 2.11 131 2.11
  32  0.300  0.500  0.407- 133 2.11 134 2.11 138 2.11 153 2.11 132 2.11
  33  0.200  0.500  0.503- 132 2.11 131 2.11 112 2.11 135 2.11 133 2.11
  34  0.300  0.400  0.503- 131 2.11 128 2.11 132 2.11 151 2.11 134 2.11
  35  0.200  0.600  0.407- 138 2.11 133 2.11 137 2.11 118 2.11 135 2.11
  36  0.300  0.700  0.407- 137 2.11 142 2.11 138 2.11 157 2.11 136 2.11
  37  0.200  0.700  0.503- 136 2.11 139 2.11 116 2.11 135 2.11 137 2.11
  38  0.300  0.600  0.503- 135 2.11 132 2.11 136 2.11 155 2.11 138 2.11
  39  0.200  0.800  0.407- 137 2.11 142 2.11 141 2.11 122 2.11 139 2.11
  40  0.300  0.900  0.407- 141 2.11 126 2.11 142 2.11 161 2.11 140 2.11
  41  0.200  0.900  0.503- 140 2.11 123 2.11 139 2.11 120 2.11 141 2.11
  42  0.300  0.800  0.503- 136 2.11 139 2.11 140 2.11 159 2.11 142 2.11
  43  0.400  0.000  0.407- 126 2.11 145 2.11 146 2.11 161 2.11 143 2.11
  44  0.500  0.100  0.407- 145 2.11 146 2.11 150 2.11 165 2.11 144 2.11
  45  0.400  0.100  0.503- 124 2.11 143 2.11 144 2.11 147 2.11 145 2.11
  46  0.500  0.000  0.503- 143 2.11 144 2.11 160 2.11 163 2.11 146 2.11
  47  0.400  0.200  0.407- 149 2.11 145 2.11 130 2.11 150 2.11 147 2.11
  48  0.500  0.300  0.407- 150 2.11 149 2.11 154 2.11 169 2.11 148 2.11
  49  0.400  0.300  0.503- 147 2.11 128 2.11 148 2.11 151 2.11 149 2.11
  50  0.500  0.200  0.503- 148 2.11 147 2.11 144 2.11 167 2.11 150 2.11
  51  0.400  0.400  0.407- 134 2.11 149 2.11 153 2.11 154 2.11 151 2.11
  52  0.500  0.500  0.407- 153 2.11 154 2.11 158 2.11 173 2.11 152 2.11
  53  0.400  0.500  0.503- 132 2.11 151 2.11 152 2.11 155 2.11 153 2.11
  54  0.500  0.400  0.503- 148 2.11 151 2.11 152 2.11 171 2.11 154 2.11
  55  0.400  0.600  0.407- 138 2.11 153 2.11 157 2.11 158 2.11 155 2.11
  56  0.500  0.700  0.407- 162 2.11 158 2.11 157 2.11 177 2.11 156 2.11
  57  0.400  0.700  0.503- 159 2.11 155 2.11 156 2.11 136 2.11 157 2.11
  58  0.500  0.600  0.503- 152 2.11 155 2.11 156 2.11 175 2.11 158 2.11
  59  0.400  0.800  0.407- 157 2.11 142 2.11 161 2.11 162 2.11 159 2.11
  60  0.500  0.900  0.407- 146 2.11 161 2.11 162 2.11 181 2.11 160 2.11
[...]
 188  0.900  0.300  0.503-  90 2.11  89 2.11   9 2.11  94 2.11  88 2.11
 189  0.800  0.300  0.407-  68 2.11  87 2.11  88 2.11  91 2.11  89 2.11
 190  0.900  0.200  0.407-  88 2.11  84 2.11  87 2.11   7 2.11  90 2.11
 191  0.800  0.400  0.503-  74 2.11  89 2.11  93 2.11  94 2.11  91 2.11
 192  0.900  0.500  0.503-  13 2.11  93 2.11  94 2.11  98 2.11  92 2.11
 193  0.800  0.500  0.407-  72 2.11  91 2.11  92 2.11  95 2.11  93 2.11
 194  0.900  0.400  0.407-  11 2.11  88 2.11  91 2.11  92 2.11  94 2.11
 195  0.800  0.600  0.503-  78 2.11  93 2.11  97 2.11  98 2.11  95 2.11
 196  0.900  0.700  0.503- 102 2.11  97 2.11  98 2.11  17 2.11  96 2.11
 197  0.800  0.700  0.407-  76 2.11  99 2.11  96 2.11  95 2.11  97 2.11
 198  0.900  0.600  0.407-  15 2.11  92 2.11  95 2.11  96 2.11  98 2.11
 199  0.800  0.800  0.503-  82 2.11  97 2.11 101 2.11 102 2.11  99 2.11
 200  0.900  0.900  0.503-  21 2.11  86 2.11 101 2.11 102 2.11 100 2.11
 201  0.800  0.900  0.407-  80 2.11  83 2.11  99 2.11 100 2.11 101 2.11
 202  0.900  0.800  0.407-  96 2.11  19 2.11  99 2.11 100 2.11 102 2.11

  LATTYP: Found a simple tetragonal cell.
 ALAT       =    21.1388521970
 C/A-ratio  =     1.0461251639

  Lattice vectors:

 A1 = (  21.1388521970,   0.0000000000,   0.0000000000)
 A2 = (   0.0000000000,  21.1388521970,   0.0000000000)
 A3 = (   0.0000000000,   0.0000000000,  22.1138852197)

Analysis of symmetry for initial positions (statically):
 Subroutine PRICEL returns:
 Original cell was already a primitive cell.

 Routine SETGRP: Setting up the symmetry group for a
 simple tetragonal supercell.

 Subroutine GETGRP returns: Found  4 space group operations
 (whereof  1 operations were pure point group operations)
 out of a pool of 16 trial point group operations.

The static configuration has the point symmetry C_1 .
 The point group associated with its full space group is C_2v.

Analysis of symmetry for dynamics (positions and initial velocities):
 Subroutine PRICEL returns:
 Original cell was already a primitive cell.

 Routine SETGRP: Setting up the symmetry group for a
 simple tetragonal supercell.

 Subroutine GETGRP returns: Found  4 space group operations
 (whereof  1 operations were pure point group operations)
 out of a pool of 16 trial point group operations.

The dynamic configuration has the point symmetry C_1 .
 The point group associated with its full space group is C_2v.

 Subroutine INISYM returns: Found  4 space group operations
 (whereof  1 operations are pure point group operations),
 and found     1 'primitive' translations

                                     Primitive cell

  volume of cell :    9881.6133

  direct lattice vectors                    reciprocal lattice vectors
    21.138852197  0.000000000  0.000000000     0.047306258  0.000000000  0.000000000
     0.000000000 21.138852197  0.000000000     0.000000000  0.047306258  0.000000000
     0.000000000  0.000000000 22.113885220     0.000000000  0.000000000  0.045220457

  length of vectors
    21.138852197 21.138852197 22.113885220     0.047306258  0.047306258  0.045220457

[...]
     52     -44.4869      2.00000
     53     -44.4860      2.00000
     54     -44.4858      2.00000
     55     -44.4855      2.00000
     56     -44.4853      2.00000
     57     -44.4842      2.00000
     58     -44.4842      2.00000
     59     -44.4839      2.00000
     60     -44.4833      2.00000
[...]
   1010       7.8438      0.00000
   1011       7.8474      0.00000
   1012       7.8536      0.00000
   1013       7.8638      0.00000
   1014       7.8772      0.00000
   1015       7.8830      0.00000
   1016       7.9014      0.00000
   1017       8.4405      0.00000
   1018       8.4564      0.00000
   1019       8.4776      0.00000
   1020       8.4820      0.00000
   1021       8.6343      0.00000
   1022       8.6613      0.00000
   1023       8.6791      0.00000
   1024       8.7085      0.00000

 soft charge-density along one line, spin component           1
         0         1         2         3         4         5         6         7         8         9
 total charge-density along one line

------------------------ aborting loop because EDIFF is reached ----------------------------------------

  FORCE on cell =-STRESS in cart. coord.  units (eV):
  Direction    XX          YY          ZZ          XY          YZ          ZX
  Alpha Z  1354.41543  1354.41543  1354.41543
  Ewald  480381.00929480381.00929************  -397.46722     0.00001    -0.00002
  Hartree509368.99905509368.99905************  -292.74468    -0.00000    -0.00002
  E(xc)   -8415.16631 -8415.16632 -8407.35712    -0.10737     0.00001    -0.00000
  Local  ************************************   684.26202    -0.00001     0.00004
  n-local -8755.60274 -8755.60271 -8877.74387     0.46497     0.00001    -0.00006
  augment  3885.59245  3885.59241  3827.33444     2.69363     0.00008     0.00000
  Kinetic 22915.40301 22915.40282 23147.72755     2.53418     0.00005    -0.00005
  Fock        0.00000     0.00000     0.00000     0.00000     0.00000     0.00000
  Total    -243.65269  -243.65269   -28.67544    -0.36446     0.00000     0.00000
  in kB     -39.50517   -39.50517    -4.64936    -0.05909     0.00000     0.00000

 VOLUME and BASIS-vectors are now :
  energy-cutoff  :      520.00
  volume of cell :     9881.61
      direct lattice vectors                 reciprocal lattice vectors
    21.138852197  0.000000000  0.000000000     0.047306258  0.000000000  0.000000000
     0.000000000 21.138852197  0.000000000     0.000000000  0.047306258  0.000000000
     0.000000000  0.000000000 22.113885220     0.000000000  0.000000000  0.045220457

  length of vectors
    21.138852197 21.138852197 22.113885220     0.047306258  0.047306258  0.045220457

 FORCES acting on ions:
    Electron-Ion                     Ewald-Force                    Non-Local-Force
   -.256E+03 0.256E+03 -.212E+04   0.246E+03 -.246E+03 0.212E+04   0.101E+02 -.101E+02 -.739E+00
   0.256E+03 -.256E+03 -.212E+04   -.246E+03 0.246E+03 0.212E+04   -.101E+02 0.101E+02 -.739E+00
   0.158E+00 -.352E+01 0.931E+03   -.162E+00 0.353E+01 -.923E+03   0.328E-02 -.329E-02 -.745E+01
   0.352E+01 -.158E+00 0.931E+03   -.353E+01 0.162E+00 -.923E+03   0.329E-02 -.328E-02 -.745E+01
   0.141E-07 -.184E-03 -.923E+03   0.784E-07 -.160E-05 0.915E+03   0.000E+00 0.000E+00 0.742E+01
   0.530E+01 -.530E+01 -.923E+03   -.531E+01 0.531E+01 0.915E+03   0.797E-02 -.797E-02 0.742E+01
   -.158E+00 0.352E+01 0.931E+03   0.162E+00 -.353E+01 -.923E+03   -.328E-02 0.329E-02 -.745E+01
   0.548E+01 0.692E+01 0.933E+03   -.549E+01 -.692E+01 -.925E+03   0.149E-02 0.531E-02 -.745E+01
   -.435E+00 0.725E+01 -.922E+03   0.446E+00 -.725E+01 0.914E+03   -.879E-02 0.441E-02 0.742E+01
   0.483E+01 0.483E+01 -.923E+03   -.483E+01 -.483E+01 0.915E+03   -.694E-03 -.694E-03 0.742E+01
   -.367E+00 0.627E+01 0.934E+03   0.378E+00 -.628E+01 -.926E+03   -.821E-02 0.577E-02 -.745E+01
   0.107E+02 0.528E+01 0.938E+03   -.107E+02 -.529E+01 -.930E+03   0.128E-01 0.950E-02 -.745E+01
   -.419E+00 0.508E+01 -.920E+03   0.430E+00 -.508E+01 0.912E+03   -.846E-02 0.296E-02 0.742E+01
   0.109E+02 0.984E+01 -.920E+03   -.109E+02 -.985E+01 0.912E+03   -.246E-02 0.676E-02 0.742E+01
   0.213E-06 -.187E-03 0.936E+03   -.118E-06 0.158E-05 -.928E+03   0.000E+00 0.000E+00 -.745E+01
   0.114E+02 -.486E+01 0.938E+03   -.114E+02 0.486E+01 -.930E+03   0.303E-01 -.155E-02 -.745E+01
   0.419E+00 -.508E+01 -.920E+03   -.430E+00 0.508E+01 0.912E+03   0.846E-02 -.296E-02 0.742E+01
   0.178E+02 0.579E+00 -.917E+03   -.178E+02 -.589E+00 0.909E+03   0.200E-01 0.768E-02 0.742E+01
   0.367E+00 -.627E+01 0.934E+03   -.378E+00 0.628E+01 -.926E+03   0.821E-02 -.577E-02 -.745E+01
   0.613E+01 -.718E+01 0.934E+03   -.615E+01 0.720E+01 -.926E+03   0.140E-01 -.995E-02 -.745E+01
   0.435E+00 -.725E+01 -.922E+03   -.446E+00 0.725E+01 0.914E+03   0.879E-02 -.441E-02 0.742E+01
   0.123E+02 -.995E+01 -.920E+03   -.124E+02 0.996E+01 0.912E+03   0.266E-01 -.580E-02 0.742E+01
   0.718E+01 -.613E+01 0.934E+03   -.720E+01 0.615E+01 -.926E+03   0.995E-02 -.140E-01 -.745E+01
   0.627E+01 -.367E+00 0.934E+03   -.628E+01 0.378E+00 -.926E+03   0.577E-02 -.821E-02 -.745E+01
   0.725E+01 -.435E+00 -.922E+03   -.725E+01 0.446E+00 0.914E+03   0.441E-02 -.879E-02 0.742E+01
   0.995E+01 -.123E+02 -.920E+03   -.996E+01 0.124E+02 0.912E+03   0.580E-02 -.266E-01 0.742E+01
   0.692E+01 0.548E+01 0.933E+03   -.692E+01 -.549E+01 -.925E+03   0.531E-02 0.149E-02 -.745E+01
   0.121E+02 0.156E+02 0.940E+03   -.121E+02 -.156E+02 -.932E+03   0.172E-01 0.212E-01 -.746E+01
   0.136E+02 0.136E+02 -.920E+03   -.136E+02 -.136E+02 0.912E+03   0.283E-02 0.283E-02 0.742E+01
   0.984E+01 0.109E+02 -.920E+03   -.985E+01 -.109E+02 0.912E+03   0.676E-02 -.246E-02 0.742E+01
   0.156E+02 0.121E+02 0.940E+03   -.156E+02 -.121E+02 -.932E+03   0.212E-01 0.172E-01 -.746E+01
   0.310E+02 0.170E+02 0.962E+03   -.311E+02 -.171E+02 -.954E+03   0.100E+00 0.514E-01 -.748E+01
   0.346E+02 0.142E+02 -.910E+03   -.346E+02 -.142E+02 0.902E+03   0.181E-01 0.233E-01 0.741E+01
   0.334E+02 0.334E+02 -.906E+03   -.334E+02 -.334E+02 0.898E+03   0.212E-01 0.212E-01 0.739E+01
   0.254E+02 0.912E+00 0.948E+03   -.254E+02 -.933E+00 -.940E+03   0.639E-01 0.155E-01 -.746E+01
   0.327E+02 -.156E+02 0.966E+03   -.327E+02 0.156E+02 -.958E+03   0.627E-01 -.256E-01 -.740E+01
   0.378E+02 -.126E+02 -.909E+03   -.379E+02 0.126E+02 0.901E+03   0.904E-01 0.475E-02 0.742E+01
   0.840E+02 0.683E+01 -.872E+03   -.843E+02 -.693E+01 0.864E+03   0.210E+00 0.751E-01 0.740E+01
   0.168E+02 -.123E+02 0.942E+03   -.168E+02 0.124E+02 -.934E+03   0.370E-01 -.203E-01 -.744E+01
   0.123E+02 -.168E+02 0.942E+03   -.124E+02 0.168E+02 -.934E+03   0.203E-01 -.370E-01 -.744E+01
   0.149E+02 -.149E+02 -.919E+03   -.149E+02 0.149E+02 0.911E+03   0.224E-01 -.224E-01 0.742E+01
   0.374E+02 -.374E+02 -.901E+03   -.375E+02 0.375E+02 0.893E+03   0.699E-01 -.699E-01 0.743E+01
   0.486E+01 -.114E+02 0.938E+03   -.486E+01 0.114E+02 -.930E+03   0.155E-02 -.303E-01 -.745E+01
   0.207E-06 -.181E-03 0.936E+03   -.110E-06 -.428E-05 -.928E+03   0.000E+00 0.000E+00 -.745E+01
   0.508E+01 -.420E+00 -.920E+03   -.508E+01 0.430E+00 0.912E+03   0.296E-02 -.846E-02 0.742E+01
   -.579E+00 -.178E+02 -.917E+03   0.589E+00 0.178E+02 0.909E+03   -.768E-02 -.200E-01 0.742E+01
   0.528E+01 0.107E+02 0.938E+03   -.529E+01 -.107E+02 -.930E+03   0.950E-02 0.128E-01 -.745E+01
   0.912E+00 0.254E+02 0.948E+03   -.933E+00 -.254E+02 -.940E+03   0.155E-01 0.639E-01 -.746E+01
   0.142E+02 0.346E+02 -.910E+03   -.142E+02 -.346E+02 0.902E+03   0.233E-01 0.181E-01 0.741E+01
   0.579E+00 0.178E+02 -.917E+03   -.589E+00 -.178E+02 0.909E+03   0.768E-02 0.200E-01 0.742E+01
   0.170E+02 0.310E+02 0.962E+03   -.171E+02 -.311E+02 -.954E+03   0.514E-01 0.100E+00 -.748E+01
   0.280E+01 0.347E+02 0.101E+04   -.275E+01 -.348E+02 -.100E+04   -.392E-01 0.733E-01 -.720E+01
   0.784E+02 0.784E+02 -.833E+03   -.787E+02 -.787E+02 0.826E+03   0.230E+00 0.230E+00 0.715E+01
   0.683E+01 0.840E+02 -.872E+03   -.693E+01 -.843E+02 0.864E+03   0.751E-01 0.210E+00 0.740E+01
   0.347E+02 0.280E+01 0.101E+04   -.348E+02 -.275E+01 -.100E+04   0.733E-01 -.392E-01 -.720E+01
   -.280E+01 -.347E+02 0.101E+04   0.275E+01 0.348E+02 -.100E+04   0.392E-01 -.733E-01 -.720E+01
   0.866E+02 -.866E+02 -.795E+03   -.868E+02 0.868E+02 0.787E+03   0.113E+00 -.113E+00 0.722E+01
   -.238E-04 -.259E-03 -.614E+03   0.242E-04 0.699E-04 0.610E+03   0.000E+00 0.000E+00 0.349E+01
   0.156E+02 -.327E+02 0.966E+03   -.156E+02 0.327E+02 -.958E+03   0.256E-01 -.627E-01 -.740E+01
   -.912E+00 -.254E+02 0.948E+03   0.933E+00 0.254E+02 -.940E+03   -.155E-01 -.639E-01 -.746E+01
[...]
   -.812E+01 0.812E+01 0.704E+03   0.814E+01 -.814E+01 -.708E+03   -.228E-01 0.228E-01 0.355E+01
   -.319E+01 0.319E+01 0.701E+03   0.320E+01 -.320E+01 -.705E+03   -.848E-02 0.848E-02 0.355E+01
   -.191E+02 0.136E+02 -.687E+03   0.191E+02 -.136E+02 0.691E+03   -.470E-01 0.298E-01 -.359E+01
   -.124E+02 0.480E+01 -.690E+03   0.124E+02 -.480E+01 0.694E+03   -.245E-01 -.439E-03 -.359E+01
   -.173E+02 0.613E+01 0.712E+03   0.173E+02 -.614E+01 -.715E+03   -.617E-01 0.793E-02 0.356E+01
   -.664E+01 0.574E+01 0.704E+03   0.666E+01 -.575E+01 -.707E+03   -.228E-01 0.113E-01 0.355E+01
   -.318E+02 -.145E+01 -.682E+03   0.318E+02 0.148E+01 0.686E+03   -.487E-01 -.340E-01 -.361E+01
   -.114E+02 -.530E+01 -.690E+03   0.114E+02 0.530E+01 0.694E+03   -.765E-02 -.122E-01 -.360E+01
   -.164E+02 -.686E+01 0.711E+03   0.164E+02 0.688E+01 -.715E+03   -.324E-01 -.269E-01 0.353E+01
   -.912E+01 -.257E+00 0.706E+03   0.914E+01 0.262E+00 -.710E+03   -.209E-01 -.807E-02 0.354E+01
   -.170E+02 -.129E+02 -.688E+03   0.170E+02 0.130E+02 0.692E+03   -.984E-02 -.138E-01 -.361E+01
   -.530E+01 -.650E+01 -.693E+03   0.530E+01 0.650E+01 0.697E+03   0.134E-02 -.367E-02 -.359E+01
   -.762E+01 -.762E+01 0.704E+03   0.763E+01 0.763E+01 -.707E+03   -.104E-01 -.104E-01 0.354E+01
   -.598E+01 -.573E+01 0.703E+03   0.599E+01 0.573E+01 -.707E+03   -.453E-02 -.102E-01 0.354E+01
   -.133E-04 -.110E+00 0.113E+02   0.166E-11 0.583E-12 -.105E-10   0.942E-15 -.566E-15 -.106E+02

 POSITION                                       TOTAL-FORCE (eV/Angst)
     11.36279     11.88995     13.59669        -0.337582      0.337582     -0.216466
      9.77606     13.47667     13.59669         0.337582     -0.337582     -0.216466
      0.00000      0.00000      9.00000        -0.001083      0.001066      0.591411
      2.11389      2.11389      9.00000        -0.001066      0.001083      0.591411
      0.00000      2.11389     11.11389         0.000000     -0.000000     -0.578856
      2.11389      0.00000     11.11389        -0.002045      0.002045     -0.578607
      0.00000      4.22777      9.00000         0.001083     -0.001066      0.591411
      2.11389      6.34166      9.00000        -0.000481     -0.001733      0.592141
      0.00000      6.34166     11.11389         0.002303     -0.001087     -0.578233
      2.11389      4.22777     11.11389         0.000263      0.000263     -0.578359
      0.00000      8.45554      9.00000         0.002645     -0.001882      0.592016
      2.11389     10.56943      9.00000        -0.004368     -0.003154      0.593169
      0.00000     10.56943     11.11389         0.002160     -0.000626     -0.576911
      2.11389      8.45554     11.11389         0.000898     -0.001674     -0.576187
      0.00000     12.68331      9.00000         0.000000     -0.000000      0.592249
      2.11389     14.79720      9.00000        -0.009836      0.000471      0.592917
      0.00000     14.79720     11.11389        -0.002160      0.000626     -0.576911
      2.11389     12.68331     11.11389        -0.004661     -0.002192     -0.575449
      0.00000     16.91108      9.00000        -0.002645      0.001882      0.592016
      2.11389     19.02497      9.00000        -0.004599      0.003309      0.591491
      0.00000     19.02497     11.11389        -0.002303      0.001087     -0.578233
      2.11389     16.91108     11.11389        -0.006713      0.001571     -0.577297
      4.22777      0.00000      9.00000        -0.003309      0.004599      0.591491
      6.34166      2.11389      9.00000        -0.001882      0.002645      0.592016
      4.22777      2.11389     11.11389        -0.001087      0.002303     -0.578233
      6.34166      0.00000     11.11389        -0.001571      0.006713     -0.577297
      4.22777      4.22777      9.00000        -0.001733     -0.000481      0.592141
      6.34166      6.34166      9.00000        -0.005756     -0.007083      0.594909
      4.22777      6.34166     11.11389        -0.000452     -0.000452     -0.575336
      6.34166      4.22777     11.11389        -0.001674      0.000898     -0.576187
      4.22777      8.45554      9.00000        -0.007083     -0.005756      0.594909
      6.34166     10.56943      9.00000        -0.034417     -0.018848      0.601220
      4.22777     10.56943     11.11389        -0.002744     -0.005918     -0.568290
      6.34166      8.45554     11.11389        -0.002899     -0.002899     -0.559243
      4.22777     12.68331      9.00000        -0.021643     -0.005488      0.594769
      6.34166     14.79720      9.00000        -0.021756      0.009803      0.575724
      4.22777     14.79720     11.11389        -0.024554     -0.001688     -0.572723
      6.34166     12.68331     11.11389        -0.069750     -0.022574     -0.547602
      4.22777     16.91108      9.00000        -0.012491      0.007161      0.591051
      6.34166     19.02497      9.00000        -0.007161      0.012491      0.591051
      4.22777     19.02497     11.11389        -0.005787      0.005787     -0.577556
      6.34166     16.91108     11.11389        -0.018491      0.018491     -0.574905
      8.45554      0.00000      9.00000        -0.000471      0.009836      0.592917
     10.56943      2.11389      9.00000         0.000000     -0.000000      0.592249
      8.45554      2.11389     11.11389        -0.000626      0.002160     -0.576911
     10.56943      0.00000     11.11389         0.002192      0.004661     -0.575449
      8.45554      4.22777      9.00000        -0.003154     -0.004368      0.593169
     10.56943      6.34166      9.00000        -0.005488     -0.021643      0.594769
      8.45554      6.34166     11.11389        -0.005918     -0.002744     -0.568290
     10.56943      4.22777     11.11389        -0.002192     -0.004661     -0.575449
      8.45554      8.45554      9.00000        -0.018848     -0.034417      0.601220
     10.56943     10.56943      9.00000         0.016690     -0.023609      0.501238
      8.45554     10.56943     11.11389        -0.027643     -0.027643     -0.383556
     10.56943      8.45554     11.11389        -0.022574     -0.069750     -0.547602
      8.45554     12.68331      9.00000        -0.023609      0.016690      0.501238
     10.56943     14.79720      9.00000        -0.016690      0.023609      0.501238
      8.45554     14.79720     11.11389        -0.100586      0.100586     -0.692722
     10.56943     12.68331     11.11389         0.000000     -0.000000     -0.274719
      8.45554     16.91108      9.00000        -0.009803      0.021756      0.575724
     10.56943     19.02497      9.00000         0.005488      0.021643      0.594769
[...]
     19.02497      6.34166     11.11389        -0.004506      0.003431      0.294736
     16.91108      6.34166      9.00000        -0.006331      0.006331     -0.305758
     19.02497      4.22777      9.00000        -0.002343      0.002343     -0.306469
     16.91108      8.45554     11.11389        -0.013572      0.008624      0.294282
     19.02497     10.56943     11.11389        -0.007026     -0.000070      0.292933
     16.91108     10.56943      9.00000        -0.017648      0.002281     -0.302520
     19.02497      8.45554      9.00000        -0.006342      0.003145     -0.306256
     16.91108     12.68331     11.11389        -0.014646     -0.009644      0.287373
     19.02497     14.79720     11.11389        -0.002204     -0.003450      0.291644
     16.91108     14.79720      9.00000        -0.009389     -0.007623     -0.309901
     19.02497     12.68331      9.00000        -0.005805     -0.002220     -0.307363
     16.91108     16.91108     11.11389        -0.002956     -0.004007      0.288211
     19.02497     19.02497     11.11389         0.000379     -0.001036      0.293711
     16.91108     19.02497      9.00000        -0.002872     -0.002872     -0.308155
     19.02497     16.91108      9.00000        -0.001263     -0.002834     -0.307700
    total drift:                               -0.000013     -0.109776      0.671215

  FREE ENERGIE OF THE ION-ELECTRON SYSTEM (eV)
  free  energy   TOTEN  =     -1650.84328912 eV

  energy  without entropy=    -1650.84328912  energy(sigma->0) =    -1650.84328912