 vasp.6.4.1 05Apr23 (build May 06 2023 19:47:20) complex

 executed on             LinuxIFC date 2023.07.05  10:30:41

 INCAR:
   SYSTEM = MgO-rocksalt
   ISMEAR = 0
   SIGMA = 0.05
   EDIFF = 1E-6
   ALGO = ALL
   ISTART = 0
   IBRION = -1
   NSW = 0
   ISYM = 2
   DIPOL = 0.5 0.5 0.5
   IDIPOL = 3
   LDIPOL = .TRUE.
   GGA = PE
   IVDW = 11
   ENCUT = 520
   PREC = Accurate
   LASPH = .TRUE.
   LREAL = Auto
   ISPIN = 1
   NELM = 200
   NELMIN = 8
   NCORE = 16
   KPAR = 1
   LWAVE = .FALSE.
   LCHARG = .FALSE.

 POTCAR:    PAW_PBE Ag 02Apr2005
 POTCAR:    PAW_PBE Mg_pv 13Apr2007
 POTCAR:    PAW_PBE O 08Apr2002
 POTCAR:    PAW_PBE Ag 02Apr2005
   VRHFIN =Ag : s1 d10

   TITEL  = PAW_PBE Ag 02Apr2005
   POMASS =  107.868; ZVAL   =   11.000    mass and valenz
   ENMAX  =  249.844; ENMIN  =  187.383 eV

   TITEL  = PAW_PBE Mg_pv 13Apr2007
   POMASS =   24.305; ZVAL   =    8.000    mass and valenz
   ENMAX  =  403.929; ENMIN  =  302.947 eV

   TITEL  = PAW_PBE O 08Apr2002
   POMASS =   16.000; ZVAL   =    6.000    mass and valenz
   ENMAX  =  400.000; ENMIN  =  300.000 eV

 Optimization of the real space projectors (new method)

 maximal supplied QI-value         = 15.12
 optimisation between [QCUT,QGAM] = [ 11.64, 23.28] = [ 37.95,151.78] Ry
 Optimized for a Real-space Cutoff    1.45 Angstroem

   l    n(q)    QCUT    max X(q) W(low)/X(q) W(high)/X(q)  e(spline)
   2      9    11.641    53.897    0.22E-03    0.42E-04    0.28E-06
   2      9    11.641    52.416    0.23E-03    0.44E-04    0.29E-06
   0     10    11.641   122.045    0.51E-04    0.25E-04    0.16E-06
   0     10    11.641    73.629    0.49E-04    0.24E-04    0.16E-06
   1     10    11.641    15.255    0.99E-04    0.55E-04    0.11E-06
   1     10    11.641     9.562    0.81E-04    0.47E-04    0.95E-07
 Optimization of the real space projectors (new method)

[...]

   l    n(q)    QCUT    max X(q) W(low)/X(q) W(high)/X(q)  e(spline)
   1      8    11.527     2.974    0.44E-04    0.56E-04    0.12E-06
   1      8    11.527     4.279    0.12E-03    0.12E-03    0.26E-06
   0      9    11.527    16.381    0.46E-04    0.64E-04    0.78E-07
   0      9    11.527     5.611    0.26E-04    0.43E-04    0.55E-07
   2      8    11.527     4.652    0.22E-03    0.72E-04    0.47E-07
 Optimization of the real space projectors (new method)

 maximal supplied QI-value         = 24.76
 optimisation between [QCUT,QGAM] = [ 11.64, 23.27] = [ 37.91,151.63] Ry
 Optimized for a Real-space Cutoff    1.14 Angstroem

   l    n(q)    QCUT    max X(q) W(low)/X(q) W(high)/X(q)  e(spline)
   0      8    11.635    20.381    0.10E-03    0.33E-03    0.24E-06
   0      8    11.635    15.268    0.11E-03    0.35E-03    0.26E-06
   1      7    11.635     5.964    0.24E-03    0.31E-03    0.30E-06
   1      7    11.635     5.382    0.22E-03    0.25E-03    0.26E-06
  PAW_PBE Ag 02Apr2005                  :
  PAW_PBE Mg_pv 13Apr2007               :
  PAW_PBE O 08Apr2002                   :

 POSCAR: Ag Mg  O
  positions in direct lattice
  velocities in cartesian coordinates
 exchange correlation table for  LEXCH =        8
   RHO(1)=    0.500       N(1)  =     2000
   RHO(2)=  100.500       N(2)  =     4000

 ion  position               nearest neighbor table
   1  0.400  0.429  0.610- 153 2.46   2 2.60  55 2.82   4 3.42
   2  0.400  0.512  0.697-   1 2.60   4 2.64   3 2.77
   3  0.401  0.641  0.713-   4 2.63   2 2.77
   4  0.400  0.590  0.604- 157 2.26   3 2.63   2 2.64  55 2.95   1 3.42
   5  0.000  0.000  0.407- 107 2.11 108 2.11 123 2.11 188 2.11 105 2.11
   6  0.100  0.100  0.407- 107 2.11 108 2.11 112 2.11 127 2.11 106 2.11
   7  0.000  0.100  0.503- 105 2.11 106 2.11 109 2.11 186 2.11 107 2.11
   8  0.100  0.000  0.503- 105 2.11 106 2.11 122 2.11 125 2.11 108 2.11
   9  0.000  0.200  0.407- 111 2.11 107 2.11 112 2.11 192 2.11 109 2.11
  10  0.100  0.300  0.407- 112 2.11 111 2.11 116 2.11 131 2.11 110 2.11
  11  0.000  0.300  0.503- 109 2.11 110 2.11 113 2.11 190 2.11 111 2.11
  12  0.100  0.200  0.503- 110 2.11 109 2.11 106 2.11 129 2.11 112 2.11
  13  0.000  0.400  0.407- 111 2.11 115 2.11 116 2.11 196 2.11 113 2.11
  14  0.100  0.500  0.407- 115 2.11 116 2.11 120 2.11 135 2.11 114 2.11
  15  0.000  0.500  0.503- 113 2.11 114 2.11 117 2.11 194 2.11 115 2.11
  16  0.100  0.400  0.503- 110 2.11 113 2.11 114 2.11 133 2.11 116 2.11
  17  0.000  0.600  0.407- 115 2.11 119 2.11 120 2.11 200 2.11 117 2.11
  18  0.100  0.700  0.407- 124 2.11 120 2.11 119 2.11 139 2.11 118 2.11
  19  0.000  0.700  0.503- 121 2.11 118 2.11 117 2.11 198 2.11 119 2.11
  20  0.100  0.600  0.503- 114 2.11 117 2.11 118 2.11 137 2.11 120 2.11
  21  0.000  0.800  0.407- 119 2.11 123 2.11 124 2.11 204 2.11 121 2.11
  22  0.100  0.900  0.407- 108 2.11 123 2.11 124 2.11 143 2.11 122 2.11
  23  0.000  0.900  0.503- 105 2.11 121 2.11 122 2.11 202 2.11 123 2.11
  24  0.100  0.800  0.503- 118 2.11 121 2.11 122 2.11 141 2.11 124 2.11
  25  0.200  0.000  0.407- 128 2.11 127 2.11 108 2.11 143 2.11 125 2.11
  26  0.300  0.100  0.407- 127 2.11 128 2.11 132 2.11 147 2.11 126 2.11
  27  0.200  0.100  0.503- 126 2.11 125 2.11 106 2.11 129 2.11 127 2.11
  28  0.300  0.000  0.503- 125 2.11 126 2.11 142 2.11 145 2.11 128 2.11
  29  0.200  0.200  0.407- 131 2.11 132 2.11 112 2.11 127 2.11 129 2.11
  30  0.300  0.300  0.407- 131 2.11 132 2.11 136 2.11 151 2.11 130 2.11
  31  0.200  0.300  0.503- 129 2.11 130 2.11 110 2.11 133 2.11 131 2.11
  32  0.300  0.200  0.503- 129 2.11 130 2.11 126 2.11 149 2.11 132 2.11
  33  0.200  0.400  0.407- 136 2.11 131 2.11 135 2.11 116 2.11 133 2.11
  34  0.300  0.500  0.407- 135 2.11 136 2.11 140 2.11 155 2.11 134 2.11
  35  0.200  0.500  0.503- 134 2.11 133 2.11 114 2.11 137 2.11 135 2.11
  36  0.300  0.400  0.503- 133 2.11 130 2.11 134 2.11 153 2.11 136 2.11
  37  0.200  0.600  0.407- 140 2.11 135 2.11 139 2.11 120 2.11 137 2.11
  38  0.300  0.700  0.407- 139 2.11 144 2.11 140 2.11 159 2.11 138 2.11
  39  0.200  0.700  0.503- 138 2.11 141 2.11 118 2.11 137 2.11 139 2.11
  40  0.300  0.600  0.503- 137 2.11 134 2.11 138 2.11 157 2.11 140 2.11
  41  0.200  0.800  0.407- 139 2.11 144 2.11 143 2.11 124 2.11 141 2.11
  42  0.300  0.900  0.407- 143 2.11 128 2.11 144 2.11 163 2.11 142 2.11
  43  0.200  0.900  0.503- 142 2.11 125 2.11 141 2.11 122 2.11 143 2.11
  44  0.300  0.800  0.503- 138 2.11 141 2.11 142 2.11 161 2.11 144 2.11
  45  0.400  0.000  0.407- 128 2.11 147 2.11 148 2.11 163 2.11 145 2.11
  46  0.500  0.100  0.407- 147 2.11 148 2.11 152 2.11 167 2.11 146 2.11
  47  0.400  0.100  0.503- 126 2.11 145 2.11 146 2.11 149 2.11 147 2.11
  48  0.500  0.000  0.503- 145 2.11 146 2.11 162 2.11 165 2.11 148 2.11
  49  0.400  0.200  0.407- 151 2.11 147 2.11 132 2.11 152 2.11 149 2.11
  50  0.500  0.300  0.407- 152 2.11 151 2.11 156 2.11 171 2.11 150 2.11
  51  0.400  0.300  0.503- 149 2.11 130 2.11 150 2.11 153 2.11 151 2.11
  52  0.500  0.200  0.503- 150 2.11 149 2.11 146 2.11 169 2.11 152 2.11
  53  0.400  0.400  0.407- 136 2.11 151 2.11 155 2.11 156 2.11 153 2.11
  54  0.500  0.500  0.407- 155 2.11 156 2.11 160 2.11 175 2.11 154 2.11
  55  0.400  0.500  0.503- 134 2.11 153 2.11 154 2.11 157 2.11 155 2.11   1 2.82   4 2.95
  56  0.500  0.400  0.503- 150 2.11 153 2.11 154 2.11 173 2.11 156 2.11
  57  0.400  0.600  0.407- 140 2.11 155 2.11 159 2.11 160 2.11 157 2.11
  58  0.500  0.700  0.407- 164 2.11 160 2.11 159 2.11 179 2.11 158 2.11
  59  0.400  0.700  0.503- 161 2.11 157 2.11 158 2.11 138 2.11 159 2.11
  60  0.500  0.600  0.503- 154 2.11 157 2.11 158 2.11 177 2.11 160 2.11
[...]
 190  0.900  0.300  0.503-  92 2.11  91 2.11  11 2.11  96 2.11  90 2.11
 191  0.800  0.300  0.407-  70 2.11  89 2.11  90 2.11  93 2.11  91 2.11
 192  0.900  0.200  0.407-  90 2.11  86 2.11  89 2.11   9 2.11  92 2.11
 193  0.800  0.400  0.503-  76 2.11  91 2.11  95 2.11  96 2.11  93 2.11
 194  0.900  0.500  0.503-  15 2.11  95 2.11  96 2.11 100 2.11  94 2.11
 195  0.800  0.500  0.407-  74 2.11  93 2.11  94 2.11  97 2.11  95 2.11
 196  0.900  0.400  0.407-  13 2.11  90 2.11  93 2.11  94 2.11  96 2.11
 197  0.800  0.600  0.503-  80 2.11  95 2.11  99 2.11 100 2.11  97 2.11
 198  0.900  0.700  0.503- 104 2.11  99 2.11 100 2.11  19 2.11  98 2.11
 199  0.800  0.700  0.407-  78 2.11 101 2.11  98 2.11  97 2.11  99 2.11
 200  0.900  0.600  0.407-  17 2.11  94 2.11  97 2.11  98 2.11 100 2.11
 201  0.800  0.800  0.503-  84 2.11  99 2.11 103 2.11 104 2.11 101 2.11
 202  0.900  0.900  0.503-  23 2.11  88 2.11 103 2.11 104 2.11 102 2.11
 203  0.800  0.900  0.407-  82 2.11  85 2.11 101 2.11 102 2.11 103 2.11
 204  0.900  0.800  0.407-  98 2.11  21 2.11 101 2.11 102 2.11 104 2.11

  LATTYP: Found a simple tetragonal cell.
 ALAT       =    21.1388521970
 C/A-ratio  =     1.0461251639

  Lattice vectors:

 A1 = (  21.1388521970,   0.0000000000,   0.0000000000)
 A2 = (   0.0000000000,  21.1388521970,   0.0000000000)
 A3 = (   0.0000000000,   0.0000000000,  22.1138852197)

Analysis of symmetry for initial positions (statically):
 Subroutine PRICEL returns:
 Original cell was already a primitive cell.

 Routine SETGRP: Setting up the symmetry group for a
 simple tetragonal supercell.

 Subroutine GETGRP returns: Found  1 space group operations
 (whereof  1 operations were pure point group operations)
 out of a pool of 16 trial point group operations.

The static configuration has the point symmetry C_1 .

Analysis of symmetry for dynamics (positions and initial velocities):
 Subroutine PRICEL returns:
 Original cell was already a primitive cell.

[...]

The dynamic configuration has the point symmetry C_1 .

Analysis of constrained symmetry for selective dynamics:
 Subroutine PRICEL returns:
 Original cell was already a primitive cell.

 Routine SETGRP: Setting up the symmetry group for a
 simple tetragonal supercell.

 Subroutine GETGRP returns: Found  1 space group operations
 (whereof  1 operations were pure point group operations)
 out of a pool of 16 trial point group operations.

The constrained configuration has the point symmetry C_1 .

 Subroutine INISYM returns: Found  1 space group operations
 (whereof  1 operations are pure point group operations),
 and found     1 'primitive' translations

                                     Primitive cell

  volume of cell :    9881.6133

  direct lattice vectors                    reciprocal lattice vectors
    21.138852197  0.000000000  0.000000000     0.047306258  0.000000000  0.000000000
     0.000000000 21.138852197  0.000000000     0.000000000  0.047306258  0.000000000
     0.000000000  0.000000000 22.113885220     0.000000000  0.000000000  0.045220457

  length of vectors
    21.138852197 21.138852197 22.113885220     0.047306258  0.047306258  0.045220457

  position of ions in fractional coordinates (direct lattice)
     0.400075541  0.428539559  0.610367047
     0.400239325  0.511504721  0.697317580
     0.400574317  0.641329452  0.712924298
     0.400203530  0.589975707  0.604409927
     0.000000000  0.000000000  0.406984115
     0.100000000  0.100000000  0.406984115
     0.000000000  0.100000000  0.502574971
     0.100000000  0.000000000  0.502574971
     0.000000000  0.200000000  0.406984115
     0.100000000  0.300000000  0.406984115
[...]
    903       5.1647      0.00000
    904       5.2541      0.00000
    905       5.4581      0.00000
    906       5.5145      0.00000
    907       5.5512      0.00000
    908       5.5929      0.00000
    909       5.6248      0.00000
    910       5.6345      0.00000
    911       5.6603      0.00000
    912       5.6893      0.00000

 soft charge-density along one line, spin component           1
         0         1         2         3         4         5         6         7         8         9
 total charge-density along one line

------------------------ aborting loop because EDIFF is reached ----------------------------------------

         DFTD3 V3.0 Rev 1
 IVDW         = 11
 DF pbe
 parameters
 VDW_S6       =    1.0000
 VDW_S8       =    0.7220
 VDW_SR       =    1.2170
 rs18     =    1.0000
 alpha6   =   14.0000
 alpha8   =   16.0000
 k1-k3    =   16.0000    1.3333   -4.0000
 VDW_RADIUS   =   50.2022 A
 VDW_CNRADIUS =   21.1671 A
 Edisp (eV)  -19.75762

 E6    (eV) :    -8.2243
 E8    (eV) :   -11.5334
 % E8        : 58.37

  FORCE on cell =-STRESS in cart. coord.  units (eV):
  Direction    XX          YY          ZZ          XY          YZ          ZX
  Alpha Z  1401.13727  1401.13727  1401.13727
  Ewald  477666.07547479799.93693************     3.84227   439.22239     3.11972
  Hartree507267.29514509003.53956************     3.08458   356.00886     2.36163
  E(xc)   -7882.44173 -7880.96975 -7911.83191     0.00288     0.38127     0.00369
  Local  ************************************    -6.90907  -793.75495    -5.45047
  n-local -8797.71740 -8798.78403 -8921.75174    -0.00028    -0.07597    -0.00776
  augment  3652.71224  3649.99741  3592.15925    -0.00583    -0.49326    -0.00552
  Kinetic 23232.88561 23226.03091 23475.51595    -0.01152    -1.13286    -0.02572
  Fock        0.00000     0.00000     0.00000     0.00000     0.00000     0.00000
  vdW       -26.06400   -26.08941    -3.77310     0.00003    -0.09525    -0.00002
  Total    -174.55100  -174.59329    15.44579     0.00306     0.06024    -0.00446
  in kB     -28.30121   -28.30807     2.50434     0.00050     0.00977    -0.00072

 VOLUME and BASIS-vectors are now :
  energy-cutoff  :      520.00
  volume of cell :     9881.61
      direct lattice vectors                 reciprocal lattice vectors
    21.138852197  0.000000000  0.000000000     0.047306258  0.000000000  0.000000000
     0.000000000 21.138852197  0.000000000     0.000000000  0.047306258  0.000000000
     0.000000000  0.000000000 22.113885220     0.000000000  0.000000000  0.045220457

  length of vectors
    21.138852197 21.138852197 22.113885220     0.047306258  0.047306258  0.045220457

 FORCES acting on ions:
    Electron-Ion                     Ewald-Force                    Non-Local-Force
   0.593E+00 0.381E+03 -.193E+04   -.587E+00 -.376E+03 0.193E+04   -.593E-02 -.436E+01 -.393E+01
   0.162E+00 0.207E+03 -.197E+04   -.167E+00 -.207E+03 0.196E+04   0.632E-02 0.150E+00 0.663E+01
   -.148E+01 -.388E+03 -.180E+04   0.146E+01 0.384E+03 0.179E+04   0.252E-01 0.467E+01 0.495E+01
   0.687E+00 -.198E+03 -.176E+04   -.677E+00 0.199E+03 0.176E+04   -.119E-01 -.415E+00 -.391E+01
   0.711E+01 -.266E+01 0.936E+03   -.712E+01 0.267E+01 -.929E+03   0.117E-01 -.653E-02 -.743E+01
   0.128E+02 0.613E+01 0.939E+03   -.128E+02 -.614E+01 -.932E+03   0.229E-01 0.762E-02 -.743E+01
   0.932E+01 0.530E+01 -.918E+03   -.933E+01 -.530E+01 0.910E+03   0.919E-02 -.166E-02 0.736E+01
   0.155E+02 -.503E+01 -.915E+03   -.155E+02 0.504E+01 0.908E+03   0.122E-01 -.878E-02 0.736E+01
   0.955E+01 0.984E+01 0.938E+03   -.957E+01 -.985E+01 -.931E+03   0.200E-01 0.798E-02 -.743E+01
   0.248E+02 0.182E+02 0.949E+03   -.249E+02 -.183E+02 -.942E+03   0.768E-01 0.283E-01 -.745E+01
   0.181E+02 0.157E+02 -.913E+03   -.181E+02 -.157E+02 0.905E+03   0.150E-01 0.519E-02 0.736E+01
   0.235E+02 0.199E+02 -.912E+03   -.235E+02 -.199E+02 0.904E+03   0.308E-01 0.547E-02 0.735E+01
   0.168E+02 0.959E+01 0.945E+03   -.169E+02 -.960E+01 -.937E+03   0.414E-01 0.125E-01 -.744E+01
   0.383E+02 0.457E+01 0.961E+03   -.385E+02 -.459E+01 -.954E+03   0.145E+00 0.182E-01 -.747E+01
   0.281E+02 0.416E+01 -.907E+03   -.281E+02 -.417E+01 0.900E+03   0.247E-01 0.706E-02 0.735E+01
   0.527E+02 0.223E+02 -.896E+03   -.527E+02 -.223E+02 0.889E+03   0.447E-01 0.133E-01 0.733E+01
   0.186E+02 -.489E+01 0.947E+03   -.186E+02 0.489E+01 -.939E+03   0.561E-01 0.173E-04 -.744E+01
   0.302E+02 -.166E+02 0.955E+03   -.304E+02 0.166E+02 -.947E+03   0.122E+00 -.264E-01 -.746E+01
   0.226E+02 -.139E+02 -.910E+03   -.226E+02 0.140E+02 0.902E+03   0.287E-01 -.257E-02 0.736E+01
   0.607E+02 -.119E+02 -.891E+03   -.608E+02 0.119E+02 0.884E+03   0.956E-01 0.696E-02 0.733E+01
   0.118E+02 -.119E+02 0.941E+03   -.118E+02 0.119E+02 -.933E+03   0.314E-01 -.139E-01 -.744E+01
   0.152E+02 -.124E+02 0.942E+03   -.152E+02 0.124E+02 -.934E+03   0.323E-01 -.277E-01 -.743E+01
   0.114E+02 -.112E+02 -.916E+03   -.114E+02 0.112E+02 0.908E+03   0.132E-01 -.802E-02 0.736E+01
   0.319E+02 -.252E+02 -.906E+03   -.319E+02 0.253E+02 0.898E+03   0.513E-01 -.169E-01 0.735E+01
   0.130E+02 -.502E+01 0.943E+03   -.130E+02 0.505E+01 -.935E+03   0.196E-01 -.165E-01 -.744E+01
   0.925E+01 0.123E+02 0.947E+03   -.927E+01 -.124E+02 -.940E+03   0.171E-01 0.490E-01 -.745E+01
   0.184E+02 0.130E+02 -.911E+03   -.184E+02 -.130E+02 0.904E+03   0.161E-01 0.163E-01 0.736E+01
   0.114E+02 -.101E+02 -.908E+03   -.114E+02 0.101E+02 0.900E+03   0.702E-02 -.897E-02 0.735E+01
   0.199E+02 0.221E+02 0.950E+03   -.200E+02 -.222E+02 -.943E+03   0.588E-01 0.591E-01 -.745E+01
   0.252E+02 0.442E+02 0.984E+03   -.254E+02 -.445E+02 -.976E+03   0.151E+00 0.216E+00 -.745E+01
   0.539E+02 0.495E+02 -.887E+03   -.541E+02 -.495E+02 0.879E+03   0.137E+00 0.120E-01 0.731E+01
   0.231E+02 0.522E+02 -.894E+03   -.231E+02 -.523E+02 0.886E+03   0.228E-01 0.126E+00 0.733E+01
   0.454E+02 0.249E+02 0.981E+03   -.457E+02 -.250E+02 -.973E+03   0.269E+00 0.800E-01 -.754E+01
   0.487E+02 0.112E+02 0.104E+04   -.492E+02 -.113E+02 -.103E+04   0.362E+00 0.116E+00 -.750E+01
   0.110E+03 0.140E+02 -.846E+03   -.111E+03 -.141E+02 0.838E+03   0.268E+00 0.434E-01 0.726E+01
   0.119E+03 0.916E+02 -.770E+03   -.120E+03 -.917E+02 0.763E+03   0.100E+01 0.138E+00 0.685E+01
   0.514E+02 -.143E+02 0.989E+03   -.519E+02 0.144E+02 -.981E+03   0.397E+00 -.237E-01 -.755E+01
   0.327E+02 -.435E+02 0.100E+04   -.330E+02 0.439E+02 -.996E+03   0.257E+00 -.279E+00 -.743E+01
   0.739E+02 -.493E+02 -.868E+03   -.742E+02 0.493E+02 0.861E+03   0.254E+00 -.255E-01 0.730E+01
   0.146E+03 -.566E+02 -.728E+03   -.149E+03 0.566E+02 0.720E+03   0.193E+01 -.378E-01 0.712E+01
   0.261E+02 -.276E+02 0.959E+03   -.262E+02 0.278E+02 -.951E+03   0.954E-01 -.983E-01 -.745E+01
   0.116E+02 -.244E+02 0.954E+03   -.116E+02 0.245E+02 -.946E+03   0.218E-01 -.110E+00 -.746E+01
   0.242E+02 -.275E+02 -.905E+03   -.242E+02 0.276E+02 0.898E+03   0.146E-01 -.472E-01 0.735E+01
   0.359E+02 -.731E+02 -.870E+03   -.359E+02 0.734E+02 0.863E+03   -.111E-02 -.259E+00 0.729E+01
   0.249E-01 -.703E+01 0.948E+03   -.247E-01 0.705E+01 -.940E+03   -.114E-03 -.220E-01 -.745E+01
   -.921E+01 0.123E+02 0.947E+03   0.924E+01 -.124E+02 -.940E+03   -.172E-01 0.490E-01 -.745E+01
   0.304E-01 0.213E+02 -.905E+03   -.303E-01 -.214E+02 0.898E+03   -.111E-03 0.421E-01 0.735E+01
   -.114E+02 -.102E+02 -.908E+03   0.114E+02 0.102E+02 0.900E+03   -.722E-02 -.883E-02 0.735E+01
   0.300E-01 0.351E+02 0.963E+03   -.299E-01 -.354E+02 -.955E+03   -.118E-03 0.222E+00 -.749E+01
   -.251E+02 0.443E+02 0.984E+03   0.253E+02 -.446E+02 -.976E+03   -.151E+00 0.216E+00 -.745E+01
   0.107E+00 0.125E+03 -.824E+03   -.107E+00 -.126E+03 0.817E+03   -.372E-03 0.104E+01 0.728E+01
   -.230E+02 0.522E+02 -.894E+03   0.230E+02 -.524E+02 0.886E+03   -.230E-01 0.126E+00 0.733E+01
   0.862E-01 0.466E+02 0.104E+04   -.858E-01 -.471E+02 -.103E+04   -.286E-03 0.329E+00 -.631E+01
   -.486E+02 0.112E+02 0.104E+04   0.490E+02 -.114E+02 -.103E+04   -.362E+00 0.116E+00 -.750E+01
   0.463E+00 0.320E+02 -.582E+03   -.463E+00 -.334E+02 0.577E+03   -.740E-03 0.109E+01 0.501E+01
   -.118E+03 0.918E+02 -.769E+03   0.120E+03 -.919E+02 0.762E+03   -.100E+01 0.137E+00 0.684E+01
   0.139E+00 -.290E+02 0.106E+04   -.137E+00 0.291E+02 -.106E+04   -.108E-02 -.131E+00 -.522E+01
   -.326E+02 -.436E+02 0.100E+04   0.329E+02 0.440E+02 -.996E+03   -.258E+00 -.279E+00 -.743E+01
   0.331E+00 -.146E+03 -.755E+03   -.328E+00 0.148E+03 0.748E+03   -.172E-02 -.191E+01 0.698E+01
   -.146E+03 -.567E+02 -.727E+03   0.149E+03 0.567E+02 0.719E+03   -.193E+01 -.391E-01 0.711E+01
[...]
   -.986E+01 0.905E+01 0.708E+03   0.988E+01 -.906E+01 -.712E+03   -.259E-01 0.150E-01 0.350E+01
   -.162E-01 0.628E+01 0.704E+03   0.161E-01 -.628E+01 -.708E+03   0.109E-03 0.643E-02 0.351E+01
   -.183E+02 0.959E+01 -.684E+03   0.183E+02 -.960E+01 0.688E+03   -.219E-01 0.103E-01 -.363E+01
   -.495E-01 0.250E+01 -.685E+03   0.493E-01 -.250E+01 0.689E+03   0.270E-03 0.698E-02 -.362E+01
   -.144E+02 0.228E+01 0.712E+03   0.144E+02 -.228E+01 -.716E+03   -.405E-01 0.113E-01 0.349E+01
   -.282E-01 0.600E+01 0.708E+03   0.281E-01 -.601E+01 -.712E+03   0.193E-03 0.109E-01 0.350E+01
   -.207E+02 -.480E+01 -.682E+03   0.207E+02 0.480E+01 0.686E+03   -.304E-01 0.364E-02 -.364E+01
   -.472E-01 -.830E+01 -.686E+03   0.470E-01 0.830E+01 0.690E+03   0.276E-03 -.319E-02 -.362E+01
   -.118E+02 -.796E+01 0.710E+03   0.118E+02 0.797E+01 -.714E+03   -.384E-01 -.131E-01 0.350E+01
   -.356E-01 -.299E+01 0.709E+03   0.354E-01 0.299E+01 -.713E+03   0.260E-03 0.661E-03 0.350E+01
   -.123E+02 -.116E+02 -.686E+03   0.123E+02 0.116E+02 0.691E+03   -.217E-01 -.119E-01 -.362E+01
   -.260E-01 -.701E+01 -.690E+03   0.259E-01 0.702E+01 0.694E+03   0.159E-03 -.821E-02 -.361E+01
   -.654E+01 -.655E+01 0.705E+03   0.655E+01 0.656E+01 -.709E+03   -.190E-01 -.158E-01 0.351E+01
   -.259E-01 -.754E+01 0.706E+03   0.257E-01 0.755E+01 -.710E+03   0.197E-03 -.120E-01 0.351E+01
   -.256E-01 -.113E+00 0.183E+01   0.244E-11 -.178E-11 -.140E-10   0.294E-01 0.114E+00 -.242E+01

 POSITION                                       TOTAL-FORCE (eV/Angst)
      8.45714      9.05883     13.49759        -0.000750     -0.131594      0.006111
      8.46060     10.81262     15.42040         0.001197     -0.057088      0.043524
      8.46768     13.55697     15.76553         0.001568      0.105610      0.027560
      8.45984     12.47141     13.36585        -0.000640      0.058624      0.054677
      0.00000      0.00000      9.00000        -0.003200      0.001778      0.336858
      2.11389      2.11389      9.00000        -0.006260     -0.002114      0.337804
      0.00000      2.11389     11.11389        -0.002367      0.000485     -0.314808
      2.11389      0.00000     11.11389        -0.003249      0.002226     -0.313307
      0.00000      4.22777      9.00000        -0.005238     -0.002144      0.337912
      2.11389      6.34166      9.00000        -0.019758     -0.007428      0.343098
      0.00000      6.34166     11.11389        -0.003257     -0.001154     -0.311022
      2.11389      4.22777     11.11389        -0.007295     -0.000982     -0.309287
      0.00000      8.45554      9.00000        -0.010766     -0.003406      0.340229
      2.11389     10.56943      9.00000        -0.037421     -0.005296      0.348348
      0.00000     10.56943     11.11389        -0.004949     -0.002004     -0.307454
      2.11389      8.45554     11.11389        -0.006333     -0.002614     -0.294765
      0.00000     12.68331      9.00000        -0.014359     -0.000113      0.340778
      2.11389     14.79720      9.00000        -0.031438      0.007303      0.344400
      0.00000     14.79720     11.11389        -0.006525      0.000519     -0.309714
      2.11389     12.68331     11.11389        -0.018134     -0.002659     -0.292700
      0.00000     16.91108      9.00000        -0.008254      0.003840      0.338374
      2.11389     19.02497      9.00000        -0.008831      0.007542      0.338214
      0.00000     19.02497     11.11389        -0.003366      0.002117     -0.314061
      2.11389     16.91108     11.11389        -0.011855      0.004004     -0.305963
      4.22777      0.00000      9.00000        -0.005401      0.004272      0.339134
      6.34166      2.11389      9.00000        -0.004860     -0.012672      0.341041
      4.22777      2.11389     11.11389        -0.004179     -0.003600     -0.309606
      6.34166      0.00000     11.11389        -0.001764      0.001719     -0.308012
      4.22777      4.22777      9.00000        -0.016317     -0.016183      0.340627
      6.34166      6.34166      9.00000        -0.047298     -0.061746      0.337527
      4.22777      6.34166     11.11389        -0.024765      0.005788     -0.275717
      6.34166      4.22777     11.11389        -0.003945     -0.025365     -0.289036
      4.22777      8.45554      9.00000        -0.066375     -0.021051      0.363333
      6.34166     10.56943      9.00000        -0.109394     -0.037154      0.338391
      4.22777     10.56943     11.11389        -0.035144     -0.013365     -0.220480
      6.34166      8.45554     11.11389        -0.382972     -0.015327     -0.191939
      4.22777     12.68331      9.00000        -0.095599      0.005231      0.365439
      6.34166     14.79720      9.00000        -0.080237      0.085002      0.325771
      4.22777     14.79720     11.11389        -0.049104     -0.001039     -0.261018
      6.34166     12.68331     11.11389        -0.731859      0.002733     -0.358094
      4.22777     16.91108      9.00000        -0.026697      0.027288      0.341938
      6.34166     19.02497      9.00000        -0.005990      0.027876      0.345316
      4.22777     19.02497     11.11389        -0.003403      0.010705     -0.305421
      6.34166     16.91108     11.11389         0.009501      0.048511     -0.253920
      8.45554      0.00000      9.00000         0.000013      0.005672      0.341087
     10.56943      2.11389      9.00000         0.004866     -0.012675      0.341058
      8.45554      2.11389     11.11389         0.000009     -0.008654     -0.304837
     10.56943      0.00000     11.11389         0.001781      0.001681     -0.308005
      8.45554      4.22777      9.00000         0.000021     -0.054163      0.350053
     10.56943      6.34166      9.00000         0.047329     -0.061708      0.337589
      8.45554      6.34166     11.11389         0.000138     -0.286685     -0.227009
     10.56943      4.22777     11.11389         0.003966     -0.025278     -0.289002
      8.45554      8.45554      9.00000         0.000087     -0.065706      0.110685
     10.56943     10.56943      9.00000         0.109470     -0.036970      0.338382
      8.45554     10.56943     11.11389        -0.000539     -0.298192     -0.393203
     10.56943      8.45554     11.11389         0.383850     -0.015458     -0.192056
      8.45554     12.68331      9.00000         0.000366      0.019959     -0.103322
     10.56943     14.79720      9.00000         0.080364      0.084853      0.326034
      8.45554     14.79720     11.11389         0.000508      0.668518     -0.209726
     10.56943     12.68331     11.11389         0.734701      0.003601     -0.359358
[...]
     19.02497      6.34166     11.11389         0.000025      0.001562      0.499770
     16.91108      6.34166      9.00000        -0.007198      0.004161     -0.526730
     19.02497      4.22777      9.00000         0.000019      0.001786     -0.524959
     16.91108      8.45554     11.11389        -0.006150      0.002815      0.494818
     19.02497     10.56943     11.11389         0.000061      0.001905      0.497331
     16.91108     10.56943      9.00000        -0.011237      0.003071     -0.528588
     19.02497      8.45554      9.00000         0.000036      0.003003     -0.526436
     16.91108     12.68331     11.11389        -0.008492      0.000974      0.493759
     19.02497     14.79720     11.11389         0.000058     -0.000899      0.498758
     16.91108     14.79720      9.00000        -0.010594     -0.003639     -0.527163
     19.02497     12.68331      9.00000         0.000059      0.000149     -0.526600
     16.91108     16.91108     11.11389        -0.006002     -0.003291      0.498687
     19.02497     19.02497     11.11389         0.000023     -0.002269      0.501917
     16.91108     19.02497      9.00000        -0.005215     -0.004334     -0.524957
     19.02497     16.91108      9.00000         0.000032     -0.003314     -0.525217
    total drift:                                0.003832      0.001443     -0.591388

  FREE ENERGIE OF THE ION-ELECTRON SYSTEM (eV)
  free  energy   TOTEN  =     -1164.15280294 eV

  energy  without entropy=    -1164.15280294  energy(sigma->0) =    -1164.15280294