 vasp.6.4.1 05Apr23 (build May 06 2023 19:47:20) complex

 executed on             LinuxIFC date 2023.07.04  10:37:29

 INCAR:
   SYSTEM = MgO-rocksalt
   ISMEAR = 0
   SIGMA = 0.05
   EDIFF = 1E-6
   ALGO = ALL
   ISTART = 0
   IBRION = -1
   NSW = 0
   ISYM = 2
   DIPOL = 0.5 0.5 0.5
   IDIPOL = 3
   LDIPOL = .TRUE.
   GGA = RE
   IVDW = 11
   ENCUT = 520
   PREC = Accurate
   LASPH = .TRUE.
   LREAL = Auto
   ISPIN = 1
   NELM = 200
   NELMIN = 8
   NCORE = 16
   KPAR = 1
   LWAVE = .FALSE.
   LCHARG = .FALSE.

 POTCAR:    PAW_PBE Cu 22Jun2005
 POTCAR:    PAW_PBE Mg_pv 13Apr2007
 POTCAR:    PAW_PBE O 08Apr2002
 POTCAR:    PAW_PBE Cu 22Jun2005
   VRHFIN =Cu: d10 p1

   TITEL  = PAW_PBE Cu 22Jun2005
   POMASS =   63.546; ZVAL   =   11.000    mass and valenz
   ENMAX  =  295.446; ENMIN  =  221.585 eV

   TITEL  = PAW_PBE Mg_pv 13Apr2007
   POMASS =   24.305; ZVAL   =    8.000    mass and valenz
   ENMAX  =  403.929; ENMIN  =  302.947 eV

   TITEL  = PAW_PBE O 08Apr2002
   POMASS =   16.000; ZVAL   =    6.000    mass and valenz
   ENMAX  =  400.000; ENMIN  =  300.000 eV

 Optimization of the real space projectors (new method)

 maximal supplied QI-value         = 16.25
 optimisation between [QCUT,QGAM] = [ 11.54, 23.24] = [ 37.28,151.24] Ry
 Optimized for a Real-space Cutoff    1.53 Angstroem

   l    n(q)    QCUT    max X(q) W(low)/X(q) W(high)/X(q)  e(spline)
   2     10    11.539     4.610    0.96E-04    0.13E-03    0.19E-06
   2     10    11.539     8.522    0.16E-03    0.21E-03    0.28E-06
   0     11    11.539    51.609    0.45E-04    0.31E-04    0.11E-06
   0     11    11.539    27.747    0.39E-04    0.29E-04    0.10E-06
   1     10    11.539    20.408    0.70E-05    0.38E-04    0.18E-06
   1     10    11.539    13.425    0.66E-05    0.34E-04    0.17E-06
 Optimization of the real space projectors (new method)

[...]

   l    n(q)    QCUT    max X(q) W(low)/X(q) W(high)/X(q)  e(spline)
   1      8    11.527     2.974    0.44E-04    0.56E-04    0.12E-06
   1      8    11.527     4.279    0.12E-03    0.12E-03    0.26E-06
   0      9    11.527    16.381    0.46E-04    0.64E-04    0.78E-07
   0      9    11.527     5.611    0.26E-04    0.43E-04    0.55E-07
   2      8    11.527     4.652    0.22E-03    0.72E-04    0.47E-07
 Optimization of the real space projectors (new method)

 maximal supplied QI-value         = 24.76
 optimisation between [QCUT,QGAM] = [ 11.64, 23.27] = [ 37.91,151.63] Ry
 Optimized for a Real-space Cutoff    1.14 Angstroem

   l    n(q)    QCUT    max X(q) W(low)/X(q) W(high)/X(q)  e(spline)
   0      8    11.635    20.381    0.10E-03    0.33E-03    0.24E-06
   0      8    11.635    15.268    0.11E-03    0.35E-03    0.26E-06
   1      7    11.635     5.964    0.24E-03    0.31E-03    0.30E-06
   1      7    11.635     5.382    0.22E-03    0.25E-03    0.26E-06
|               ----> ADVICE to this user running VASP <----                  |
|     You enforced a specific xc type in the INCAR file but a different       |
|     type was found in the POTCAR file.                                      |
|     I HOPE YOU KNOW WHAT YOU ARE DOING!                                     |

  PAW_PBE Cu 22Jun2005                  :
  PAW_PBE Mg_pv 13Apr2007               :
  PAW_PBE O 08Apr2002                   :

 POSCAR: Cu Mg  O
  positions in direct lattice
 exchange correlation table for  LEXCH =       40
   RHO(1)=    0.500       N(1)  =     2000
   RHO(2)=  100.500       N(2)  =     4000

 ion  position               nearest neighbor table
   1  0.654  0.500  0.605-   2 2.30  73 2.54
   2  0.546  0.500  0.605-   1 2.30  73 2.54
   3  0.000  0.000  0.407- 105 2.11 106 2.11 121 2.11 186 2.11 103 2.11
   4  0.100  0.100  0.407- 105 2.11 106 2.11 110 2.11 125 2.11 104 2.11
   5  0.000  0.100  0.503- 103 2.11 104 2.11 107 2.11 184 2.11 105 2.11
   6  0.100  0.000  0.503- 103 2.11 104 2.11 120 2.11 123 2.11 106 2.11
   7  0.000  0.200  0.407- 109 2.11 105 2.11 110 2.11 190 2.11 107 2.11
   8  0.100  0.300  0.407- 110 2.11 109 2.11 114 2.11 129 2.11 108 2.11
   9  0.000  0.300  0.503- 107 2.11 108 2.11 111 2.11 188 2.11 109 2.11
  10  0.100  0.200  0.503- 108 2.11 107 2.11 104 2.11 127 2.11 110 2.11
  11  0.000  0.400  0.407- 109 2.11 113 2.11 114 2.11 194 2.11 111 2.11
  12  0.100  0.500  0.407- 113 2.11 114 2.11 118 2.11 133 2.11 112 2.11
  13  0.000  0.500  0.503- 111 2.11 112 2.11 115 2.11 192 2.11 113 2.11
  14  0.100  0.400  0.503- 108 2.11 111 2.11 112 2.11 131 2.11 114 2.11
  15  0.000  0.600  0.407- 113 2.11 117 2.11 118 2.11 198 2.11 115 2.11
  16  0.100  0.700  0.407- 122 2.11 118 2.11 117 2.11 137 2.11 116 2.11
  17  0.000  0.700  0.503- 119 2.11 116 2.11 115 2.11 196 2.11 117 2.11
  18  0.100  0.600  0.503- 112 2.11 115 2.11 116 2.11 135 2.11 118 2.11
  19  0.000  0.800  0.407- 117 2.11 121 2.11 122 2.11 202 2.11 119 2.11
  20  0.100  0.900  0.407- 106 2.11 121 2.11 122 2.11 141 2.11 120 2.11
  21  0.000  0.900  0.503- 103 2.11 119 2.11 120 2.11 200 2.11 121 2.11
  22  0.100  0.800  0.503- 116 2.11 119 2.11 120 2.11 139 2.11 122 2.11
  23  0.200  0.000  0.407- 126 2.11 125 2.11 106 2.11 141 2.11 123 2.11
  24  0.300  0.100  0.407- 125 2.11 126 2.11 130 2.11 145 2.11 124 2.11
  25  0.200  0.100  0.503- 124 2.11 123 2.11 104 2.11 127 2.11 125 2.11
  26  0.300  0.000  0.503- 123 2.11 124 2.11 140 2.11 143 2.11 126 2.11
  27  0.200  0.200  0.407- 129 2.11 130 2.11 110 2.11 125 2.11 127 2.11
  28  0.300  0.300  0.407- 129 2.11 130 2.11 134 2.11 149 2.11 128 2.11
  29  0.200  0.300  0.503- 127 2.11 128 2.11 108 2.11 131 2.11 129 2.11
  30  0.300  0.200  0.503- 127 2.11 128 2.11 124 2.11 147 2.11 130 2.11
  31  0.200  0.400  0.407- 134 2.11 129 2.11 133 2.11 114 2.11 131 2.11
  32  0.300  0.500  0.407- 133 2.11 134 2.11 138 2.11 153 2.11 132 2.11
  33  0.200  0.500  0.503- 132 2.11 131 2.11 112 2.11 135 2.11 133 2.11
  34  0.300  0.400  0.503- 131 2.11 128 2.11 132 2.11 151 2.11 134 2.11
  35  0.200  0.600  0.407- 138 2.11 133 2.11 137 2.11 118 2.11 135 2.11
  36  0.300  0.700  0.407- 137 2.11 142 2.11 138 2.11 157 2.11 136 2.11
  37  0.200  0.700  0.503- 136 2.11 139 2.11 116 2.11 135 2.11 137 2.11
  38  0.300  0.600  0.503- 135 2.11 132 2.11 136 2.11 155 2.11 138 2.11
  39  0.200  0.800  0.407- 137 2.11 142 2.11 141 2.11 122 2.11 139 2.11
  40  0.300  0.900  0.407- 141 2.11 126 2.11 142 2.11 161 2.11 140 2.11
  41  0.200  0.900  0.503- 140 2.11 123 2.11 139 2.11 120 2.11 141 2.11
  42  0.300  0.800  0.503- 136 2.11 139 2.11 140 2.11 159 2.11 142 2.11
  43  0.400  0.000  0.407- 126 2.11 145 2.11 146 2.11 161 2.11 143 2.11
  44  0.500  0.100  0.407- 145 2.11 146 2.11 150 2.11 165 2.11 144 2.11
  45  0.400  0.100  0.503- 124 2.11 143 2.11 144 2.11 147 2.11 145 2.11
  46  0.500  0.000  0.503- 143 2.11 144 2.11 160 2.11 163 2.11 146 2.11
  47  0.400  0.200  0.407- 149 2.11 145 2.11 130 2.11 150 2.11 147 2.11
  48  0.500  0.300  0.407- 150 2.11 149 2.11 154 2.11 169 2.11 148 2.11
  49  0.400  0.300  0.503- 147 2.11 128 2.11 148 2.11 151 2.11 149 2.11
  50  0.500  0.200  0.503- 148 2.11 147 2.11 144 2.11 167 2.11 150 2.11
  51  0.400  0.400  0.407- 134 2.11 149 2.11 153 2.11 154 2.11 151 2.11
  52  0.500  0.500  0.407- 153 2.11 154 2.11 158 2.11 173 2.11 152 2.11
  53  0.400  0.500  0.503- 132 2.11 151 2.11 152 2.11 155 2.11 153 2.11
  54  0.500  0.400  0.503- 148 2.11 151 2.11 152 2.11 171 2.11 154 2.11
  55  0.400  0.600  0.407- 138 2.11 153 2.11 157 2.11 158 2.11 155 2.11
  56  0.500  0.700  0.407- 162 2.11 158 2.11 157 2.11 177 2.11 156 2.11
  57  0.400  0.700  0.503- 159 2.11 155 2.11 156 2.11 136 2.11 157 2.11
  58  0.500  0.600  0.503- 152 2.11 155 2.11 156 2.11 175 2.11 158 2.11
  59  0.400  0.800  0.407- 157 2.11 142 2.11 161 2.11 162 2.11 159 2.11
  60  0.500  0.900  0.407- 146 2.11 161 2.11 162 2.11 181 2.11 160 2.11
[...]
 188  0.900  0.300  0.503-  90 2.11  89 2.11   9 2.11  94 2.11  88 2.11
 189  0.800  0.300  0.407-  68 2.11  87 2.11  88 2.11  91 2.11  89 2.11
 190  0.900  0.200  0.407-  88 2.11  84 2.11  87 2.11   7 2.11  90 2.11
 191  0.800  0.400  0.503-  74 2.11  89 2.11  93 2.11  94 2.11  91 2.11
 192  0.900  0.500  0.503-  13 2.11  93 2.11  94 2.11  98 2.11  92 2.11
 193  0.800  0.500  0.407-  72 2.11  91 2.11  92 2.11  95 2.11  93 2.11
 194  0.900  0.400  0.407-  11 2.11  88 2.11  91 2.11  92 2.11  94 2.11
 195  0.800  0.600  0.503-  78 2.11  93 2.11  97 2.11  98 2.11  95 2.11
 196  0.900  0.700  0.503- 102 2.11  97 2.11  98 2.11  17 2.11  96 2.11
 197  0.800  0.700  0.407-  76 2.11  99 2.11  96 2.11  95 2.11  97 2.11
 198  0.900  0.600  0.407-  15 2.11  92 2.11  95 2.11  96 2.11  98 2.11
 199  0.800  0.800  0.503-  82 2.11  97 2.11 101 2.11 102 2.11  99 2.11
 200  0.900  0.900  0.503-  21 2.11  86 2.11 101 2.11 102 2.11 100 2.11
 201  0.800  0.900  0.407-  80 2.11  83 2.11  99 2.11 100 2.11 101 2.11
 202  0.900  0.800  0.407-  96 2.11  19 2.11  99 2.11 100 2.11 102 2.11

  LATTYP: Found a simple tetragonal cell.
 ALAT       =    21.1388521970
 C/A-ratio  =     1.0461251639

  Lattice vectors:

 A1 = (  21.1388521970,   0.0000000000,   0.0000000000)
 A2 = (   0.0000000000,  21.1388521970,   0.0000000000)
 A3 = (   0.0000000000,   0.0000000000,  22.1138852197)

Analysis of symmetry for initial positions (statically):
 Subroutine PRICEL returns:
 Original cell was already a primitive cell.

 Routine SETGRP: Setting up the symmetry group for a
 simple tetragonal supercell.

 Subroutine GETGRP returns: Found  4 space group operations
 (whereof  2 operations were pure point group operations)
 out of a pool of 16 trial point group operations.

The static configuration has the point symmetry C_1h.
 The point group associated with its full space group is C_2v.

Analysis of symmetry for dynamics (positions and initial velocities):
 Subroutine PRICEL returns:
 Original cell was already a primitive cell.

 Routine SETGRP: Setting up the symmetry group for a
 simple tetragonal supercell.

 Subroutine GETGRP returns: Found  4 space group operations
 (whereof  2 operations were pure point group operations)
 out of a pool of 16 trial point group operations.

The dynamic configuration has the point symmetry C_1h.
 The point group associated with its full space group is C_2v.

 Subroutine INISYM returns: Found  4 space group operations
 (whereof  2 operations are pure point group operations),
 and found     1 'primitive' translations

                                     Primitive cell

  volume of cell :    9881.6133

  direct lattice vectors                    reciprocal lattice vectors
    21.138852197  0.000000000  0.000000000     0.047306258  0.000000000  0.000000000
     0.000000000 21.138852197  0.000000000     0.000000000  0.047306258  0.000000000
     0.000000000  0.000000000 22.113885220     0.000000000  0.000000000  0.045220457

  length of vectors
    21.138852197 21.138852197 22.113885220     0.047306258  0.047306258  0.045220457

  position of ions in fractional coordinates (direct lattice)
     0.654285265  0.500000000  0.605295840
     0.545714664  0.500000000  0.605295840
     0.000000000  0.000000000  0.406984115
     0.100000000  0.100000000  0.406984115
     0.000000000  0.100000000  0.502574971
     0.100000000  0.000000000  0.502574971
[...]
    855       4.6725      0.00000
    856       4.7928      0.00000
    857       4.8257      0.00000
    858       4.8400      0.00000
    859       4.8696      0.00000
    860       4.8963      0.00000
    861       4.9333      0.00000
    862       5.0369      0.00000
    863       5.2593      0.00000
    864       5.4014      0.00000

 soft charge-density along one line, spin component           1
         0         1         2         3         4         5         6         7         8         9
 total charge-density along one line

------------------------ aborting loop because EDIFF is reached ----------------------------------------

         DFTD3 V3.0 Rev 1
 IVDW         = 11
 DF revpbe
 parameters
 VDW_S6       =    1.0000
 VDW_S8       =    1.0100
 VDW_SR       =    0.9230
 rs18     =    1.0000
 alpha6   =   14.0000
 alpha8   =   16.0000
 k1-k3    =   16.0000    1.3333   -4.0000
 VDW_RADIUS   =   50.2022 A
 VDW_CNRADIUS =   21.1671 A
 Edisp (eV)  -36.20333

 E6    (eV) :   -20.7846
 E8    (eV) :   -15.4187
 % E8        : 42.59

  FORCE on cell =-STRESS in cart. coord.  units (eV):
  Direction    XX          YY          ZZ          XY          YZ          ZX
  Alpha Z  1354.41543  1354.41543  1354.41543
  Ewald  481679.40439480877.94746************     0.00000     0.00000     0.00004
  Hartree510396.39721509789.98226************    -0.00000     0.00000     0.00001
  E(xc)   -7803.81208 -7804.53147 -7853.68906     0.00000     0.00000    -0.00000
  Local  ************************************     0.00000    -0.00000    -0.00005
  n-local -8757.21488 -8754.83710 -8877.68866     0.00000     0.00001     0.00001
  augment  3463.41431  3467.34823  3407.86299    -0.00000     0.00000    -0.00000
  Kinetic 22879.18525 22884.16431 23125.64411     0.00002     0.00000    -0.00001
  Fock        0.00000     0.00000     0.00000     0.00000     0.00000     0.00000
  vdW       -50.12033   -49.76831    -8.66057     0.00000     0.00000    -0.00000
  Total    -152.93991  -152.23544    31.96462     0.00000     0.00000     0.00000
  in kB     -24.79725   -24.68303     5.18265     0.00000     0.00000     0.00000

 VOLUME and BASIS-vectors are now :
  energy-cutoff  :      520.00
  volume of cell :     9881.61
      direct lattice vectors                 reciprocal lattice vectors
    21.138852197  0.000000000  0.000000000     0.047306258  0.000000000  0.000000000
     0.000000000 21.138852197  0.000000000     0.000000000  0.047306258  0.000000000
     0.000000000  0.000000000 22.113885220     0.000000000  0.000000000  0.045220457

  length of vectors
    21.138852197 21.138852197 22.113885220     0.047306258  0.047306258  0.045220457

 FORCES acting on ions:
    Electron-Ion                     Ewald-Force                    Non-Local-Force
   -.344E+03 -.101E-05 -.218E+04   0.333E+03 0.354E-07 0.218E+04   0.116E+02 0.278E-21 -.156E+01
   0.344E+03 -.559E-06 -.218E+04   -.333E+03 0.354E-07 0.218E+04   -.116E+02 0.127E-21 -.156E+01
   -.344E+01 0.484E-06 0.931E+03   0.344E+01 0.858E-08 -.923E+03   0.410E-02 0.149E-22 -.753E+01
   -.185E-03 0.376E+01 0.931E+03   -.150E-05 -.378E+01 -.923E+03   0.956E-21 0.134E-01 -.753E+01
   -.494E+01 0.535E+01 -.923E+03   0.493E+01 -.537E+01 0.915E+03   0.590E-02 0.151E-01 0.749E+01
   -.185E-03 0.484E-06 -.923E+03   -.153E-05 0.889E-08 0.916E+03   0.143E-20 -.219E-23 0.749E+01
   -.585E+01 0.758E+01 0.933E+03   0.585E+01 -.762E+01 -.925E+03   -.188E-02 0.288E-01 -.753E+01
   -.183E-03 0.683E+01 0.934E+03   -.312E-05 -.686E+01 -.926E+03   0.399E-20 0.254E-01 -.753E+01
   -.119E+02 0.108E+02 -.920E+03   0.119E+02 -.109E+02 0.912E+03   -.168E-01 0.319E-01 0.749E+01
   -.184E-03 0.776E+01 -.922E+03   -.273E-05 -.779E+01 0.915E+03   -.494E-20 0.221E-01 0.749E+01
   -.117E+02 0.564E+01 0.938E+03   0.117E+02 -.567E+01 -.930E+03   -.434E-01 0.234E-01 -.754E+01
   -.182E-03 0.498E-06 0.936E+03   -.454E-05 -.921E-08 -.928E+03   0.117E-20 0.488E-23 -.754E+01
   -.191E+02 0.480E-06 -.917E+03   0.192E+02 -.160E-07 0.909E+03   -.610E-01 -.452E-23 0.749E+01
   -.181E-03 0.559E+01 -.920E+03   -.571E-05 -.561E+01 0.912E+03   0.334E-20 0.161E-01 0.749E+01
   -.117E+02 -.564E+01 0.938E+03   0.117E+02 0.567E+01 -.930E+03   -.434E-01 -.234E-01 -.754E+01
   -.183E-03 -.683E+01 0.934E+03   -.312E-05 0.686E+01 -.926E+03   -.373E-20 -.254E-01 -.753E+01
   -.119E+02 -.108E+02 -.920E+03   0.119E+02 0.109E+02 0.912E+03   -.168E-01 -.319E-01 0.749E+01
   -.181E-03 -.559E+01 -.920E+03   -.571E-05 0.561E+01 0.912E+03   0.266E-20 -.161E-01 0.749E+01
   -.585E+01 -.758E+01 0.933E+03   0.585E+01 0.762E+01 -.925E+03   -.188E-02 -.288E-01 -.753E+01
   -.185E-03 -.376E+01 0.931E+03   -.150E-05 0.378E+01 -.923E+03   -.968E-21 -.134E-01 -.753E+01
   -.494E+01 -.535E+01 -.923E+03   0.493E+01 0.537E+01 0.915E+03   0.590E-02 -.151E-01 0.749E+01
   -.184E-03 -.776E+01 -.922E+03   -.273E-05 0.779E+01 0.915E+03   0.417E-20 -.221E-01 0.749E+01
   0.344E+01 0.483E-06 0.931E+03   -.344E+01 0.858E-08 -.923E+03   -.410E-02 0.104E-22 -.753E+01
   0.691E+01 0.613E+01 0.933E+03   -.690E+01 -.615E+01 -.925E+03   -.714E-02 0.203E-01 -.754E+01
   0.494E+01 0.535E+01 -.923E+03   -.493E+01 -.537E+01 0.915E+03   -.590E-02 0.151E-01 0.749E+01
   0.695E+01 0.478E-06 -.922E+03   -.694E+01 0.150E-07 0.915E+03   -.103E-01 0.126E-22 0.749E+01
   0.585E+01 0.758E+01 0.933E+03   -.585E+01 -.762E+01 -.925E+03   0.188E-02 0.288E-01 -.753E+01
   0.167E+02 0.135E+02 0.941E+03   -.167E+02 -.135E+02 -.933E+03   0.229E-01 0.652E-01 -.753E+01
   0.119E+02 0.108E+02 -.920E+03   -.119E+02 -.109E+02 0.912E+03   0.168E-01 0.319E-01 0.749E+01
   0.140E+02 0.151E+02 -.919E+03   -.140E+02 -.152E+02 0.912E+03   -.148E-01 0.463E-01 0.749E+01
   0.117E+02 0.564E+01 0.938E+03   -.117E+02 -.567E+01 -.930E+03   0.434E-01 0.234E-01 -.754E+01
   0.274E+02 0.536E-06 0.950E+03   -.276E+02 -.216E-07 -.942E+03   0.172E+00 0.261E-23 -.755E+01
   0.191E+02 0.527E-06 -.917E+03   -.192E+02 -.160E-07 0.909E+03   0.610E-01 0.708E-23 0.749E+01
   0.388E+02 0.157E+02 -.909E+03   -.389E+02 -.158E+02 0.901E+03   0.123E+00 0.501E-01 0.749E+01
   0.117E+02 -.564E+01 0.938E+03   -.117E+02 0.567E+01 -.930E+03   0.434E-01 -.234E-01 -.754E+01
   0.167E+02 -.135E+02 0.941E+03   -.167E+02 0.135E+02 -.933E+03   0.229E-01 -.652E-01 -.753E+01
   0.119E+02 -.108E+02 -.920E+03   -.119E+02 0.109E+02 0.912E+03   0.168E-01 -.319E-01 0.749E+01
   0.388E+02 -.157E+02 -.909E+03   -.389E+02 0.158E+02 0.901E+03   0.123E+00 -.501E-01 0.749E+01
   0.585E+01 -.758E+01 0.933E+03   -.585E+01 0.762E+01 -.925E+03   0.188E-02 -.288E-01 -.753E+01
   0.691E+01 -.613E+01 0.933E+03   -.690E+01 0.615E+01 -.925E+03   -.714E-02 -.203E-01 -.754E+01
   0.494E+01 -.535E+01 -.923E+03   -.493E+01 0.537E+01 0.915E+03   -.590E-02 -.151E-01 0.749E+01
   0.140E+02 -.151E+02 -.919E+03   -.140E+02 0.152E+02 0.912E+03   -.148E-01 -.463E-01 0.749E+01
   0.605E+01 0.476E-06 0.934E+03   -.604E+01 0.165E-07 -.926E+03   -.873E-02 0.448E-23 -.754E+01
   0.486E+01 0.113E+02 0.937E+03   -.485E+01 -.113E+02 -.929E+03   -.721E-02 0.188E-01 -.754E+01
   0.940E+01 0.118E+02 -.920E+03   -.938E+01 -.118E+02 0.912E+03   -.145E-01 0.129E-01 0.749E+01
   0.477E+01 0.467E-06 -.920E+03   -.476E+01 0.283E-07 0.913E+03   -.800E-02 0.209E-23 0.749E+01
   0.120E+02 0.171E+02 0.940E+03   -.120E+02 -.172E+02 -.933E+03   -.107E-01 0.637E-01 -.755E+01
   0.160E+02 0.345E+02 0.963E+03   -.160E+02 -.348E+02 -.955E+03   -.144E-01 0.197E+00 -.762E+01
   0.349E+02 0.387E+02 -.904E+03   -.348E+02 -.389E+02 0.897E+03   -.605E-01 0.175E+00 0.747E+01
   0.123E+02 0.363E+02 -.911E+03   -.123E+02 -.364E+02 0.904E+03   -.221E-01 0.791E-02 0.747E+01
   0.337E+02 0.191E+02 0.966E+03   -.338E+02 -.193E+02 -.959E+03   0.912E-01 0.146E+00 -.749E+01
   0.366E+02 0.646E-06 0.102E+04   -.367E+02 -.829E-07 -.101E+04   0.578E-01 -.324E-23 -.634E+01
   0.974E+02 0.691E-06 -.862E+03   -.986E+02 -.112E-06 0.854E+03   0.887E+00 -.244E-23 0.760E+01
   0.790E+02 0.104E+03 -.812E+03   -.786E+02 -.105E+03 0.805E+03   -.254E+00 0.949E+00 0.716E+01
   0.337E+02 -.191E+02 0.966E+03   -.338E+02 0.193E+02 -.959E+03   0.912E-01 -.146E+00 -.749E+01
   0.160E+02 -.345E+02 0.963E+03   -.160E+02 0.348E+02 -.955E+03   -.144E-01 -.197E+00 -.762E+01
   0.349E+02 -.387E+02 -.904E+03   -.348E+02 0.389E+02 0.897E+03   -.605E-01 -.175E+00 0.747E+01
   0.790E+02 -.104E+03 -.812E+03   -.786E+02 0.105E+03 0.805E+03   -.254E+00 -.949E+00 0.716E+01
   0.120E+02 -.171E+02 0.940E+03   -.120E+02 0.172E+02 -.933E+03   -.107E-01 -.637E-01 -.755E+01
   0.486E+01 -.113E+02 0.937E+03   -.485E+01 0.113E+02 -.929E+03   -.721E-02 -.188E-01 -.754E+01
[...]
   -.158E+02 0.172E+02 0.715E+03   0.158E+02 -.173E+02 -.719E+03   -.115E-01 0.124E+00 0.344E+01
   -.786E+01 0.844E+01 0.704E+03   0.786E+01 -.847E+01 -.708E+03   -.236E-02 0.437E-01 0.344E+01
   -.525E+02 0.307E+02 -.663E+03   0.526E+02 -.310E+02 0.667E+03   -.194E+00 0.346E+00 -.355E+01
   -.351E+02 0.235E-05 -.681E+03   0.352E+02 -.268E-07 0.685E+03   -.139E+00 -.887E-24 -.352E+01
   -.306E+02 0.236E-05 0.733E+03   0.308E+02 -.335E-07 -.737E+03   -.313E+00 -.163E-22 0.370E+01
   -.179E+02 0.742E+01 0.712E+03   0.180E+02 -.747E+01 -.716E+03   -.884E-01 0.756E-01 0.346E+01
   -.525E+02 -.307E+02 -.663E+03   0.526E+02 0.310E+02 0.667E+03   -.194E+00 -.346E+00 -.355E+01
   -.184E+02 -.146E+02 -.688E+03   0.184E+02 0.147E+02 0.692E+03   -.405E-01 -.879E-01 -.352E+01
   -.158E+02 -.172E+02 0.715E+03   0.158E+02 0.173E+02 -.719E+03   -.115E-01 -.124E+00 0.344E+01
   -.179E+02 -.742E+01 0.712E+03   0.180E+02 0.747E+01 -.716E+03   -.884E-01 -.756E-01 0.346E+01
   -.127E+02 -.187E+02 -.688E+03   0.127E+02 0.188E+02 0.692E+03   0.298E-01 -.332E-01 -.353E+01
   -.643E+01 -.592E+01 -.693E+03   0.642E+01 0.593E+01 0.697E+03   0.111E-01 -.147E-01 -.351E+01
   -.556E+01 -.657E+01 0.703E+03   0.555E+01 0.659E+01 -.707E+03   0.110E-01 -.174E-01 0.344E+01
   -.786E+01 -.844E+01 0.704E+03   0.786E+01 0.847E+01 -.708E+03   -.236E-02 -.437E-01 0.344E+01
   -.109E+00 0.288E-03 0.117E+02   0.327E-11 -.888E-12 0.341E-12   0.377E-15 0.194E-15 -.124E+02

 POSITION                                       TOTAL-FORCE (eV/Angst)
     13.83084     10.56943     13.38544         0.108885      0.000000      0.131947
     11.53578     10.56943     13.38544        -0.108885      0.000000      0.131947
      0.00000      0.00000      9.00000        -0.001109      0.000000      0.229795
      2.11389      2.11389      9.00000        -0.000000     -0.003669      0.229454
      0.00000      2.11389     11.11389        -0.001571     -0.004021     -0.218287
      2.11389      0.00000     11.11389        -0.000000      0.000000     -0.218845
      0.00000      4.22777      9.00000         0.000651     -0.007960      0.229331
      2.11389      6.34166      9.00000        -0.000000     -0.007220      0.229151
      0.00000      6.34166     11.11389         0.004187     -0.008925     -0.216255
      2.11389      4.22777     11.11389        -0.000000     -0.006116     -0.217928
      0.00000      8.45554      9.00000         0.011397     -0.006847      0.229234
      2.11389     10.56943      9.00000        -0.000000      0.000000      0.229235
      0.00000     10.56943     11.11389         0.014722      0.000000     -0.215213
      2.11389      8.45554     11.11389        -0.000000     -0.004599     -0.216623
      0.00000     12.68331      9.00000         0.011397      0.006847      0.229234
      2.11389     14.79720      9.00000        -0.000000      0.007220      0.229151
      0.00000     14.79720     11.11389         0.004187      0.008925     -0.216255
      2.11389     12.68331     11.11389        -0.000000      0.004599     -0.216623
      0.00000     16.91108      9.00000         0.000651      0.007960      0.229331
      2.11389     19.02497      9.00000        -0.000000      0.003669      0.229454
      0.00000     19.02497     11.11389        -0.001571      0.004021     -0.218287
      2.11389     16.91108     11.11389        -0.000000      0.006116     -0.217928
      4.22777      0.00000      9.00000         0.001109      0.000000      0.229795
      6.34166      2.11389      9.00000         0.001971     -0.005312      0.230454
      4.22777      2.11389     11.11389         0.001571     -0.004021     -0.218287
      6.34166      0.00000     11.11389         0.002886      0.000000     -0.217850
      4.22777      4.22777      9.00000        -0.000651     -0.007960      0.229331
      6.34166      6.34166      9.00000        -0.007032     -0.018343      0.228150
      4.22777      6.34166     11.11389        -0.004187     -0.008925     -0.216255
      6.34166      4.22777     11.11389         0.004029     -0.011848     -0.215404
      4.22777      8.45554      9.00000        -0.011397     -0.006847      0.229234
      6.34166     10.56943      9.00000        -0.042245      0.000000      0.230454
      4.22777     10.56943     11.11389        -0.014722      0.000000     -0.215213
      6.34166      8.45554     11.11389        -0.029322     -0.013976     -0.210748
      4.22777     12.68331      9.00000        -0.011397      0.006847      0.229234
      6.34166     14.79720      9.00000        -0.007032      0.018343      0.228150
      4.22777     14.79720     11.11389        -0.004187      0.008925     -0.216255
      6.34166     12.68331     11.11389        -0.029322      0.013976     -0.210748
      4.22777     16.91108      9.00000        -0.000651      0.007960      0.229331
      6.34166     19.02497      9.00000         0.001971      0.005312      0.230454
      4.22777     19.02497     11.11389         0.001571      0.004021     -0.218287
      6.34166     16.91108     11.11389         0.004029      0.011848     -0.215404
      8.45554      0.00000      9.00000         0.002502      0.000000      0.230843
     10.56943      2.11389      9.00000         0.002217     -0.004843      0.232396
      8.45554      2.11389     11.11389         0.004267     -0.002986     -0.215776
     10.56943      0.00000     11.11389         0.002367      0.000000     -0.216089
      8.45554      4.22777      9.00000         0.003279     -0.016032      0.233923
     10.56943      6.34166      9.00000         0.007312     -0.045039      0.252997
      8.45554      6.34166     11.11389         0.021565     -0.039238     -0.199204
     10.56943      4.22777     11.11389         0.007622      0.001765     -0.204964
      8.45554      8.45554      9.00000        -0.029719     -0.046440      0.212626
     10.56943     10.56943      9.00000         0.011693      0.000000     -0.000140
      8.45554     10.56943     11.11389        -0.272403      0.000000     -0.229319
     10.56943      8.45554     11.11389         0.104545     -0.343149     -0.152507
      8.45554     12.68331      9.00000        -0.029719      0.046440      0.212626
     10.56943     14.79720      9.00000         0.007312      0.045039      0.252997
      8.45554     14.79720     11.11389         0.021565      0.039238     -0.199204
     10.56943     12.68331     11.11389         0.104545      0.343149     -0.152507
      8.45554     16.91108      9.00000         0.003279      0.016032      0.233923
     10.56943     19.02497      9.00000         0.002217      0.004843      0.232396
[...]
     19.02497      6.34166     11.11389        -0.011867      0.024806      0.564429
     16.91108      6.34166      9.00000        -0.004086      0.035645     -0.582078
     19.02497      4.22777      9.00000        -0.000766      0.012201     -0.581352
     16.91108      8.45554     11.11389        -0.066611      0.103954      0.567113
     19.02497     10.56943     11.11389        -0.040829      0.000000      0.564642
     16.91108     10.56943      9.00000        -0.102466      0.000000     -0.510069
     19.02497      8.45554      9.00000        -0.025608      0.021183     -0.576878
     16.91108     12.68331     11.11389        -0.066611     -0.103954      0.567113
     19.02497     14.79720     11.11389        -0.011867     -0.024806      0.564429
     16.91108     14.79720      9.00000        -0.004086     -0.035645     -0.582078
     19.02497     12.68331      9.00000        -0.025608     -0.021183     -0.576878
     16.91108     16.91108     11.11389         0.007901     -0.009723      0.561084
     19.02497     19.02497     11.11389         0.003003     -0.004117      0.567553
     16.91108     19.02497      9.00000         0.002950     -0.004908     -0.582226
     19.02497     16.91108      9.00000        -0.000766     -0.012201     -0.581352
    total drift:                               -0.109442      0.000288     -0.666083

  FREE ENERGIE OF THE ION-ELECTRON SYSTEM (eV)
  free  energy   TOTEN  =     -1125.53090000 eV

  energy  without entropy=    -1125.53090000  energy(sigma->0) =    -1125.53090000