 vasp.6.3.0 20Jan22 (build Apr  1 2022 16:44:48) complex
 executed on        HPECrayEX_GCC date 2023.01.10  00:04:14

 INCAR:
   SYSTEM = MgO-rocksalt
   ISMEAR = 0
   SIGMA = 0.05
   EDIFF = 1E-6
   ALGO = ALL
   ISTART = 0
   IBRION = -1
   NSW = 0
   ISYM = 2
   DIPOL = 0.5 0.5 0.5
   IDIPOL = 3
   LDIPOL = .TRUE.
   METAGGA = R2SCAN
   IVDW = 12
   VDW_S8 = 0.7898
   VDW_A1 = 0.4948
   VDW_A2 = 5.7308
   ENCUT = 520
   PREC = Accurate
   LASPH = .TRUE.
   LREAL = Auto
   ISPIN = 1
   NELM = 200
   NELMIN = 8
   NCORE = 4
   KPAR = 2
   LWAVE = .FALSE.
   LCHARG = .FALSE.

 POTCAR:    PAW_PBE Cu 22Jun2005
 POTCAR:    PAW_PBE Mg_pv 13Apr2007
 POTCAR:    PAW_PBE O 08Apr2002
 POTCAR:    PAW_PBE Cu 22Jun2005
   VRHFIN =Cu: d10 p1

   TITEL  = PAW_PBE Cu 22Jun2005
   POMASS =   63.546; ZVAL   =   11.000    mass and valenz
   ENMAX  =  295.446; ENMIN  =  221.585 eV

   TITEL  = PAW_PBE Mg_pv 13Apr2007
   POMASS =   24.305; ZVAL   =    8.000    mass and valenz
   ENMAX  =  403.929; ENMIN  =  302.947 eV

   TITEL  = PAW_PBE O 08Apr2002
   POMASS =   16.000; ZVAL   =    6.000    mass and valenz
   ENMAX  =  400.000; ENMIN  =  300.000 eV

 Optimization of the real space projectors (new method)

 maximal supplied QI-value         = 16.25
 optimisation between [QCUT,QGAM] = [ 11.54, 23.24] = [ 37.28,151.24] Ry
 Optimized for a Real-space Cutoff    1.53 Angstroem

   l    n(q)    QCUT    max X(q) W(low)/X(q) W(high)/X(q)  e(spline)
   2     10    11.539     4.610    0.96E-04    0.13E-03    0.19E-06
   2     10    11.539     8.522    0.16E-03    0.21E-03    0.28E-06
   0     11    11.539    51.609    0.45E-04    0.31E-04    0.11E-06
   0     11    11.539    27.747    0.39E-04    0.29E-04    0.10E-06
   1     10    11.539    20.408    0.70E-05    0.38E-04    0.18E-06
   1     10    11.539    13.425    0.66E-05    0.34E-04    0.17E-06
 Optimization of the real space projectors (new method)

[...]

   l    n(q)    QCUT    max X(q) W(low)/X(q) W(high)/X(q)  e(spline)
   1      8    11.527     2.974    0.44E-04    0.56E-04    0.12E-06
   1      8    11.527     4.279    0.12E-03    0.12E-03    0.26E-06
   0      9    11.527    16.381    0.46E-04    0.64E-04    0.78E-07
   0      9    11.527     5.611    0.26E-04    0.43E-04    0.55E-07
   2      8    11.527     4.652    0.22E-03    0.72E-04    0.47E-07
 Optimization of the real space projectors (new method)

 maximal supplied QI-value         = 24.76
 optimisation between [QCUT,QGAM] = [ 11.64, 23.27] = [ 37.91,151.63] Ry
 Optimized for a Real-space Cutoff    1.14 Angstroem

   l    n(q)    QCUT    max X(q) W(low)/X(q) W(high)/X(q)  e(spline)
   0      8    11.635    20.381    0.10E-03    0.33E-03    0.24E-06
   0      8    11.635    15.268    0.11E-03    0.35E-03    0.26E-06
   1      7    11.635     5.964    0.24E-03    0.31E-03    0.30E-06
   1      7    11.635     5.382    0.22E-03    0.25E-03    0.26E-06
  PAW_PBE Cu 22Jun2005                  :
  PAW_PBE Mg_pv 13Apr2007               :
  PAW_PBE O 08Apr2002                   :

 POSCAR: Cu Mg  O
  positions in direct lattice
  velocities in cartesian coordinates

 METAGGA = R2SCA    LMAXTAU =  6    LMIXTAU =  F

 ion  position               nearest neighbor table
   1  0.400  0.558  0.598- 157 2.29   3 2.35  55 2.43   4 2.47
   2  0.400  0.499  0.790-   3 2.25
   3  0.400  0.499  0.688-   2 2.25   1 2.35   4 2.35
   4  0.400  0.441  0.597- 153 2.26   3 2.35  55 2.43   1 2.47
   5  0.000  0.000  0.407- 107 2.11 108 2.11 123 2.11 188 2.11 105 2.11
   6  0.100  0.100  0.407- 107 2.11 108 2.11 112 2.11 127 2.11 106 2.11
   7  0.000  0.100  0.503- 105 2.11 106 2.11 109 2.11 186 2.11 107 2.11
   8  0.100  0.000  0.503- 105 2.11 106 2.11 122 2.11 125 2.11 108 2.11
   9  0.000  0.200  0.407- 111 2.11 107 2.11 112 2.11 192 2.11 109 2.11
  10  0.100  0.300  0.407- 112 2.11 111 2.11 116 2.11 131 2.11 110 2.11
  11  0.000  0.300  0.503- 109 2.11 110 2.11 113 2.11 190 2.11 111 2.11
  12  0.100  0.200  0.503- 110 2.11 109 2.11 106 2.11 129 2.11 112 2.11
  13  0.000  0.400  0.407- 111 2.11 115 2.11 116 2.11 196 2.11 113 2.11
  14  0.100  0.500  0.407- 115 2.11 116 2.11 120 2.11 135 2.11 114 2.11
  15  0.000  0.500  0.503- 113 2.11 114 2.11 117 2.11 194 2.11 115 2.11
  16  0.100  0.400  0.503- 110 2.11 113 2.11 114 2.11 133 2.11 116 2.11
  17  0.000  0.600  0.407- 115 2.11 119 2.11 120 2.11 200 2.11 117 2.11
  18  0.100  0.700  0.407- 124 2.11 120 2.11 119 2.11 139 2.11 118 2.11
  19  0.000  0.700  0.503- 121 2.11 118 2.11 117 2.11 198 2.11 119 2.11
  20  0.100  0.600  0.503- 114 2.11 117 2.11 118 2.11 137 2.11 120 2.11
  21  0.000  0.800  0.407- 119 2.11 123 2.11 124 2.11 204 2.11 121 2.11
  22  0.100  0.900  0.407- 108 2.11 123 2.11 124 2.11 143 2.11 122 2.11
  23  0.000  0.900  0.503- 105 2.11 121 2.11 122 2.11 202 2.11 123 2.11
  24  0.100  0.800  0.503- 118 2.11 121 2.11 122 2.11 141 2.11 124 2.11
  25  0.200  0.000  0.407- 128 2.11 127 2.11 108 2.11 143 2.11 125 2.11
  26  0.300  0.100  0.407- 127 2.11 128 2.11 132 2.11 147 2.11 126 2.11
  27  0.200  0.100  0.503- 126 2.11 125 2.11 106 2.11 129 2.11 127 2.11
  28  0.300  0.000  0.503- 125 2.11 126 2.11 142 2.11 145 2.11 128 2.11
  29  0.200  0.200  0.407- 131 2.11 132 2.11 112 2.11 127 2.11 129 2.11
  30  0.300  0.300  0.407- 131 2.11 132 2.11 136 2.11 151 2.11 130 2.11
  31  0.200  0.300  0.503- 129 2.11 130 2.11 110 2.11 133 2.11 131 2.11
  32  0.300  0.200  0.503- 129 2.11 130 2.11 126 2.11 149 2.11 132 2.11
  33  0.200  0.400  0.407- 136 2.11 131 2.11 135 2.11 116 2.11 133 2.11
  34  0.300  0.500  0.407- 135 2.11 136 2.11 140 2.11 155 2.11 134 2.11
  35  0.200  0.500  0.503- 134 2.11 133 2.11 114 2.11 137 2.11 135 2.11
  36  0.300  0.400  0.503- 133 2.11 130 2.11 134 2.11 153 2.11 136 2.11
  37  0.200  0.600  0.407- 140 2.11 135 2.11 139 2.11 120 2.11 137 2.11
  38  0.300  0.700  0.407- 139 2.11 144 2.11 140 2.11 159 2.11 138 2.11
  39  0.200  0.700  0.503- 138 2.11 141 2.11 118 2.11 137 2.11 139 2.11
  40  0.300  0.600  0.503- 137 2.11 134 2.11 138 2.11 157 2.11 140 2.11
  41  0.200  0.800  0.407- 139 2.11 144 2.11 143 2.11 124 2.11 141 2.11
  42  0.300  0.900  0.407- 143 2.11 128 2.11 144 2.11 163 2.11 142 2.11
  43  0.200  0.900  0.503- 142 2.11 125 2.11 141 2.11 122 2.11 143 2.11
  44  0.300  0.800  0.503- 138 2.11 141 2.11 142 2.11 161 2.11 144 2.11
  45  0.400  0.000  0.407- 128 2.11 147 2.11 148 2.11 163 2.11 145 2.11
  46  0.500  0.100  0.407- 147 2.11 148 2.11 152 2.11 167 2.11 146 2.11
  47  0.400  0.100  0.503- 126 2.11 145 2.11 146 2.11 149 2.11 147 2.11
  48  0.500  0.000  0.503- 145 2.11 146 2.11 162 2.11 165 2.11 148 2.11
  49  0.400  0.200  0.407- 151 2.11 147 2.11 132 2.11 152 2.11 149 2.11
  50  0.500  0.300  0.407- 152 2.11 151 2.11 156 2.11 171 2.11 150 2.11
  51  0.400  0.300  0.503- 149 2.11 130 2.11 150 2.11 153 2.11 151 2.11
  52  0.500  0.200  0.503- 150 2.11 149 2.11 146 2.11 169 2.11 152 2.11
  53  0.400  0.400  0.407- 136 2.11 151 2.11 155 2.11 156 2.11 153 2.11
  54  0.500  0.500  0.407- 155 2.11 156 2.11 160 2.11 175 2.11 154 2.11
  55  0.400  0.500  0.503- 134 2.11 153 2.11 154 2.11 157 2.11 155 2.11   4 2.43   1 2.43
  56  0.500  0.400  0.503- 150 2.11 153 2.11 154 2.11 173 2.11 156 2.11
  57  0.400  0.600  0.407- 140 2.11 155 2.11 159 2.11 160 2.11 157 2.11
  58  0.500  0.700  0.407- 164 2.11 160 2.11 159 2.11 179 2.11 158 2.11
  59  0.400  0.700  0.503- 161 2.11 157 2.11 158 2.11 138 2.11 159 2.11
  60  0.500  0.600  0.503- 154 2.11 157 2.11 158 2.11 177 2.11 160 2.11
[...]
 190  0.900  0.300  0.503-  92 2.11  91 2.11  11 2.11  96 2.11  90 2.11
 191  0.800  0.300  0.407-  70 2.11  89 2.11  90 2.11  93 2.11  91 2.11
 192  0.900  0.200  0.407-  90 2.11  86 2.11  89 2.11   9 2.11  92 2.11
 193  0.800  0.400  0.503-  76 2.11  91 2.11  95 2.11  96 2.11  93 2.11
 194  0.900  0.500  0.503-  15 2.11  95 2.11  96 2.11 100 2.11  94 2.11
 195  0.800  0.500  0.407-  74 2.11  93 2.11  94 2.11  97 2.11  95 2.11
 196  0.900  0.400  0.407-  13 2.11  90 2.11  93 2.11  94 2.11  96 2.11
 197  0.800  0.600  0.503-  80 2.11  95 2.11  99 2.11 100 2.11  97 2.11
 198  0.900  0.700  0.503- 104 2.11  99 2.11 100 2.11  19 2.11  98 2.11
 199  0.800  0.700  0.407-  78 2.11 101 2.11  98 2.11  97 2.11  99 2.11
 200  0.900  0.600  0.407-  17 2.11  94 2.11  97 2.11  98 2.11 100 2.11
 201  0.800  0.800  0.503-  84 2.11  99 2.11 103 2.11 104 2.11 101 2.11
 202  0.900  0.900  0.503-  23 2.11  88 2.11 103 2.11 104 2.11 102 2.11
 203  0.800  0.900  0.407-  82 2.11  85 2.11 101 2.11 102 2.11 103 2.11
 204  0.900  0.800  0.407-  98 2.11  21 2.11 101 2.11 102 2.11 104 2.11

  LATTYP: Found a simple tetragonal cell.
 ALAT       =    21.1388521970
 C/A-ratio  =     1.0461251639

  Lattice vectors:

 A1 = (  21.1388521970,   0.0000000000,   0.0000000000)
 A2 = (   0.0000000000,  21.1388521970,   0.0000000000)
 A3 = (   0.0000000000,   0.0000000000,  22.1138852197)

Analysis of symmetry for initial positions (statically):
 Subroutine PRICEL returns:
 Original cell was already a primitive cell.

 Routine SETGRP: Setting up the symmetry group for a
 simple tetragonal supercell.

 Subroutine GETGRP returns: Found  1 space group operations
 (whereof  1 operations were pure point group operations)
 out of a pool of 16 trial point group operations.

The static configuration has the point symmetry C_1 .

Analysis of symmetry for dynamics (positions and initial velocities):
 Subroutine PRICEL returns:
 Original cell was already a primitive cell.

[...]

The dynamic configuration has the point symmetry C_1 .

Analysis of constrained symmetry for selective dynamics:
 Subroutine PRICEL returns:
 Original cell was already a primitive cell.

 Routine SETGRP: Setting up the symmetry group for a
 simple tetragonal supercell.

 Subroutine GETGRP returns: Found  1 space group operations
 (whereof  1 operations were pure point group operations)
 out of a pool of 16 trial point group operations.

The constrained configuration has the point symmetry C_1 .

 Subroutine INISYM returns: Found  1 space group operations
 (whereof  1 operations are pure point group operations),
 and found     1 'primitive' translations

                                     Primitive cell

  volume of cell :    9881.6133

  direct lattice vectors                    reciprocal lattice vectors
    21.138852197  0.000000000  0.000000000     0.047306258  0.000000000  0.000000000
     0.000000000 21.138852197  0.000000000     0.000000000  0.047306258  0.000000000
     0.000000000  0.000000000 22.113885220     0.000000000  0.000000000  0.045220457

  length of vectors
    21.138852197 21.138852197 22.113885220     0.047306258  0.047306258  0.045220457

  position of ions in fractional coordinates (direct lattice)
     0.399799103  0.557704010  0.597819508
     0.399656041  0.499161715  0.789905234
     0.399599063  0.498964654  0.687952686
     0.399792629  0.441052696  0.597113492
     0.000000000  0.000000000  0.406984115
     0.100000000  0.100000000  0.406984115
     0.000000000  0.100000000  0.502574971
     0.100000000  0.000000000  0.502574971
     0.000000000  0.200000000  0.406984115
     0.100000000  0.300000000  0.406984115
     0.000000000  0.300000000  0.502574971
[...]
    957       7.1281      0.00000
    958       7.1779      0.00000
    959       7.3094      0.00000
    960       7.3397      0.00000

 soft charge-density along one line, spin component           1
         0         1         2         3         4         5         6         7         8         9
 total charge-density along one line

------------------------ aborting loop because EDIFF is reached ----------------------------------------

 WARNING: Using user supplied parameters
     VDW_A1 = 0.495
     VDW_A2 = 5.731
     VDW_S8 = 0.79
     because the xc functional is not supported. Required parameters not
     defined in the INCAR file will be replaced with PBE defaults ones.

         DFTD3 V3.0 Rev 1
 IVDW         = 12
 DF unknown
 parameters
 VDW_S6       =    1.0000
 VDW_S8       =    0.7898
 VDW_A1       =    0.4948
 VDW_A2       =    5.7308
 k1-k3        =   16.0000    1.3333   -4.0000
 VDW_RADIUS   =   50.2022 A
 VDW_CNRADIUS =   21.1671 A
 Edisp (eV)  -12.81197

 E6    (eV) :    -8.6730
 E8    (eV) :    -4.1389
 % E8        : 32.31

  FORCE on cell =-STRESS in cart. coord.  units (eV):
  Direction    XX          YY          ZZ          XY          YZ          ZX
  Alpha Z  1394.80054  1394.80054  1394.80054
  Ewald  476789.57733478031.49515************     0.08233     1.75104    -2.53842
  Hartree506847.49893507817.14239************     0.06366     1.10712    -2.01019
  E(xc)   -8555.03995 -8554.76472 -8555.17897    -0.00001     0.00275    -0.00020
  Local  ************************************    -0.14463    -2.85995     4.51807
  n-local -8772.92046 -8774.23065 -8896.51496    -0.00040     0.00965    -0.00018
  augment  4091.16181  4083.87218  4020.38505     0.00265    -0.01295     0.01391
  Kinetic 23105.05281 23097.50834 23317.87958    -0.00069    -0.00873     0.02892
  Fock        0.00000     0.00000     0.00000     0.00000     0.00000     0.00000
  vdW       -13.35398   -13.35472    -2.67743    -0.00000    -0.00000     0.00003
  Total    -233.69950  -235.93352   -21.11583     0.00291    -0.01106     0.01193
  in kB     -37.89139   -38.25361    -3.42366     0.00047    -0.00179     0.00193

 VOLUME and BASIS-vectors are now :
  energy-cutoff  :      520.00
  volume of cell :     9881.61
      direct lattice vectors                 reciprocal lattice vectors
    21.138852197  0.000000000  0.000000000     0.047306258  0.000000000  0.000000000
     0.000000000 21.138852197  0.000000000     0.000000000  0.047306258  0.000000000
     0.000000000  0.000000000 22.113885220     0.000000000  0.000000000  0.045220457

  length of vectors
    21.138852197 21.138852197 22.113885220     0.047306258  0.047306258  0.045220457

 FORCES acting on ions:
    Electron-Ion                     Ewald-Force                    Non-Local-Force
   -.595E+00 -.490E+03 -.187E+04   0.583E+00 0.479E+03 0.188E+04   0.149E-01 0.108E+02 -.570E+01
   -.854E-01 -.294E+00 -.155E+04   0.676E-01 0.246E+00 0.153E+04   0.250E-01 0.649E-01 0.125E+02
   0.132E+01 0.390E+01 -.186E+04   -.129E+01 -.384E+01 0.186E+04   -.190E-01 -.653E-01 0.816E+00
   -.534E+00 0.486E+03 -.187E+04   0.524E+00 -.475E+03 0.188E+04   0.119E-01 -.106E+02 -.572E+01
   0.647E+01 0.579E-01 0.935E+03   -.650E+01 -.582E-01 -.927E+03   0.254E-01 0.297E-03 -.757E+01
   0.127E+02 0.987E+01 0.939E+03   -.128E+02 -.990E+01 -.931E+03   0.562E-01 0.216E-01 -.757E+01
   0.929E+01 0.884E+01 -.918E+03   -.932E+01 -.884E+01 0.910E+03   0.288E-01 0.222E-02 0.752E+01
   0.135E+02 0.103E+00 -.917E+03   -.135E+02 -.103E+00 0.909E+03   0.400E-01 0.520E-03 0.752E+01
   0.102E+02 0.119E+02 0.939E+03   -.102E+02 -.120E+02 -.931E+03   0.448E-01 0.945E-02 -.758E+01
   0.270E+02 0.195E+02 0.951E+03   -.272E+02 -.195E+02 -.943E+03   0.146E+00 0.261E-01 -.760E+01
   0.197E+02 0.165E+02 -.912E+03   -.198E+02 -.165E+02 0.904E+03   0.474E-01 -.205E-02 0.751E+01
   0.251E+02 0.238E+02 -.911E+03   -.252E+02 -.238E+02 0.903E+03   0.931E-01 0.141E-01 0.751E+01
   0.180E+02 0.821E+01 0.946E+03   -.181E+02 -.821E+01 -.937E+03   0.702E-01 0.328E-02 -.759E+01
   0.401E+02 -.121E+00 0.961E+03   -.403E+02 0.122E+00 -.953E+03   0.178E+00 -.685E-03 -.762E+01
   0.287E+02 -.947E-01 -.908E+03   -.288E+02 0.949E-01 0.900E+03   0.449E-01 -.204E-03 0.750E+01
   0.573E+02 0.201E+02 -.895E+03   -.575E+02 -.201E+02 0.887E+03   0.134E+00 -.493E-02 0.748E+01
   0.180E+02 -.832E+01 0.945E+03   -.181E+02 0.832E+01 -.937E+03   0.696E-01 -.370E-02 -.759E+01
   0.269E+02 -.195E+02 0.951E+03   -.271E+02 0.196E+02 -.942E+03   0.144E+00 -.264E-01 -.760E+01
   0.196E+02 -.165E+02 -.912E+03   -.197E+02 0.165E+02 0.904E+03   0.469E-01 0.193E-02 0.751E+01
   0.571E+02 -.203E+02 -.895E+03   -.573E+02 0.203E+02 0.887E+03   0.133E+00 0.417E-02 0.748E+01
   0.101E+02 -.119E+02 0.939E+03   -.102E+02 0.119E+02 -.931E+03   0.441E-01 -.925E-02 -.758E+01
   0.127E+02 -.973E+01 0.939E+03   -.128E+02 0.975E+01 -.931E+03   0.556E-01 -.207E-01 -.757E+01
   0.924E+01 -.871E+01 -.918E+03   -.928E+01 0.871E+01 0.910E+03   0.285E-01 -.190E-02 0.752E+01
   0.249E+02 -.237E+02 -.911E+03   -.250E+02 0.237E+02 0.903E+03   0.916E-01 -.138E-01 0.751E+01
   0.115E+02 0.113E+00 0.940E+03   -.116E+02 -.114E+00 -.932E+03   0.474E-01 0.909E-03 -.758E+01
   0.919E+01 0.186E+02 0.947E+03   -.925E+01 -.187E+02 -.939E+03   0.444E-01 0.106E+00 -.758E+01
   0.182E+02 0.199E+02 -.912E+03   -.183E+02 -.200E+02 0.904E+03   0.586E-01 0.542E-01 0.751E+01
   0.947E+01 0.203E+00 -.912E+03   -.950E+01 -.204E+00 0.904E+03   0.285E-01 0.113E-02 0.751E+01
   0.213E+02 0.265E+02 0.951E+03   -.215E+02 -.266E+02 -.943E+03   0.128E+00 0.944E-01 -.758E+01
   0.281E+02 0.498E+02 0.989E+03   -.284E+02 -.501E+02 -.981E+03   0.269E+00 0.263E+00 -.748E+01
   0.592E+02 0.544E+02 -.884E+03   -.596E+02 -.545E+02 0.876E+03   0.341E+00 0.239E-01 0.748E+01
   0.244E+02 0.605E+02 -.892E+03   -.245E+02 -.609E+02 0.884E+03   0.928E-01 0.296E+00 0.750E+01
   0.507E+02 0.239E+02 0.985E+03   -.512E+02 -.239E+02 -.977E+03   0.395E+00 0.405E-01 -.766E+01
   0.559E+02 -.445E+00 0.105E+04   -.565E+02 0.454E+00 -.104E+04   0.419E+00 -.645E-02 -.765E+01
   0.121E+03 -.448E+00 -.843E+03   -.122E+03 0.449E+00 0.836E+03   0.287E+00 -.104E-02 0.740E+01
   0.142E+03 0.108E+03 -.751E+03   -.144E+03 -.108E+03 0.743E+03   0.171E+01 -.306E-01 0.726E+01
   0.505E+02 -.241E+02 0.985E+03   -.510E+02 0.242E+02 -.976E+03   0.389E+00 -.431E-01 -.766E+01
   0.278E+02 -.496E+02 0.988E+03   -.281E+02 0.500E+02 -.980E+03   0.264E+00 -.260E+00 -.748E+01
   0.586E+02 -.543E+02 -.884E+03   -.590E+02 0.543E+02 0.876E+03   0.334E+00 -.249E-01 0.748E+01
   0.140E+03 -.109E+03 -.753E+03   -.142E+03 0.109E+03 0.745E+03   0.166E+01 0.225E-01 0.726E+01
   0.212E+02 -.263E+02 0.951E+03   -.213E+02 0.264E+02 -.943E+03   0.126E+00 -.927E-01 -.758E+01
   0.914E+01 -.183E+02 0.947E+03   -.919E+01 0.184E+02 -.939E+03   0.439E-01 -.103E+00 -.758E+01
   0.181E+02 -.196E+02 -.912E+03   -.181E+02 0.197E+02 0.904E+03   0.580E-01 -.525E-01 0.751E+01
   0.241E+02 -.599E+02 -.892E+03   -.242E+02 0.603E+02 0.884E+03   0.914E-01 -.290E+00 0.750E+01
   -.222E-01 0.159E+00 0.944E+03   0.220E-01 -.161E+00 -.936E+03   0.165E-03 0.149E-02 -.758E+01
   -.923E+01 0.186E+02 0.947E+03   0.929E+01 -.187E+02 -.939E+03   -.442E-01 0.106E+00 -.758E+01
   -.377E-01 0.308E+02 -.906E+03   0.375E-01 -.310E+02 0.898E+03   0.283E-03 0.134E+00 0.751E+01
   -.951E+01 0.202E+00 -.912E+03   0.955E+01 -.204E+00 0.904E+03   -.284E-01 0.117E-02 0.751E+01
   -.458E-01 0.417E+02 0.965E+03   0.456E-01 -.421E+02 -.957E+03   0.113E-03 0.354E+00 -.760E+01
   -.281E+02 0.497E+02 0.989E+03   0.285E+02 -.500E+02 -.981E+03   -.269E+00 0.263E+00 -.748E+01
   -.207E+00 0.140E+03 -.821E+03   0.206E+00 -.142E+03 0.813E+03   0.286E-03 0.166E+01 0.763E+01
   -.245E+02 0.604E+02 -.892E+03   0.246E+02 -.608E+02 0.884E+03   -.925E-01 0.297E+00 0.750E+01
   -.150E+00 0.509E+02 0.106E+04   0.149E+00 -.511E+02 -.105E+04   0.861E-03 0.164E+00 -.569E+01
   -.560E+02 -.443E+00 0.105E+04   0.566E+02 0.452E+00 -.104E+04   -.418E+00 -.650E-02 -.765E+01
   -.937E+00 -.271E+01 -.455E+03   0.939E+00 0.279E+01 0.451E+03   0.142E-02 -.503E-01 0.265E+01
   -.142E+03 0.108E+03 -.752E+03   0.144E+03 -.108E+03 0.744E+03   -.171E+01 -.310E-01 0.726E+01
   -.147E+00 -.514E+02 0.106E+04   0.146E+00 0.516E+02 -.105E+04   0.800E-03 -.172E+00 -.574E+01
   -.279E+02 -.496E+02 0.988E+03   0.282E+02 0.499E+02 -.980E+03   -.264E+00 -.260E+00 -.748E+01
   -.200E+00 -.138E+03 -.823E+03   0.200E+00 0.140E+03 0.815E+03   0.384E-03 -.162E+01 0.763E+01
   -.140E+03 -.109E+03 -.753E+03   0.142E+03 0.109E+03 0.746E+03   -.166E+01 0.230E-01 0.727E+01
[...]
   -.106E+02 0.948E+01 0.708E+03   0.106E+02 -.949E+01 -.712E+03   -.547E-01 0.105E-01 0.338E+01
   0.214E-01 0.764E+01 0.705E+03   -.213E-01 -.764E+01 -.708E+03   -.126E-03 0.682E-02 0.339E+01
   -.194E+02 0.814E+01 -.683E+03   0.194E+02 -.813E+01 0.687E+03   -.490E-01 -.283E-02 -.360E+01
   0.564E-01 -.545E-01 -.686E+03   -.562E-01 0.546E-01 0.689E+03   -.298E-03 -.218E-03 -.359E+01
   -.147E+02 -.537E-01 0.712E+03   0.147E+02 0.539E-01 -.716E+03   -.621E-01 -.380E-03 0.338E+01
   0.363E-01 0.505E+01 0.708E+03   -.361E-01 -.505E+01 -.712E+03   -.233E-03 0.159E-02 0.338E+01
   -.194E+02 -.824E+01 -.683E+03   0.194E+02 0.824E+01 0.687E+03   -.487E-01 0.235E-02 -.360E+01
   0.398E-01 -.991E+01 -.688E+03   -.397E-01 0.991E+01 0.692E+03   -.230E-03 0.124E-02 -.357E+01
   -.106E+02 -.950E+01 0.708E+03   0.106E+02 0.951E+01 -.712E+03   -.542E-01 -.107E-01 0.338E+01
   0.361E-01 -.512E+01 0.708E+03   -.360E-01 0.512E+01 -.712E+03   -.231E-03 -.198E-02 0.338E+01
   -.995E+01 -.113E+02 -.688E+03   0.998E+01 0.113E+02 0.692E+03   -.384E-01 -.660E-02 -.357E+01
   0.199E-01 -.551E+01 -.691E+03   -.198E-01 0.552E+01 0.695E+03   -.103E-03 -.197E-02 -.356E+01
   -.552E+01 -.522E+01 0.704E+03   0.555E+01 0.522E+01 -.708E+03   -.330E-01 -.932E-02 0.339E+01
   0.213E-01 -.761E+01 0.705E+03   -.211E-01 0.761E+01 -.708E+03   -.159E-03 -.664E-02 0.339E+01
   0.410E-02 -.272E+00 0.695E+01   0.223E-11 0.853E-12 0.182E-11   0.977E-02 0.304E+00 -.417E+01

 POSITION                                       TOTAL-FORCE (eV/Angst)
      8.45129     11.78922     13.22011         0.002806     -0.167356     -0.060212
      8.44827     10.55171     17.46787         0.007180      0.017217     -0.203759
      8.44707     10.54754     15.21331         0.006003     -0.001433     -0.114187
      8.45116      9.32335     13.20450         0.002105      0.187714     -0.058247
      0.00000      0.00000      9.00000        -0.007212     -0.000217      0.547760
      2.11389      2.11389      9.00000        -0.015991     -0.006433      0.547863
      0.00000      2.11389     11.11389        -0.008001     -0.000775     -0.480666
      2.11389      0.00000     11.11389        -0.011492     -0.000200     -0.479926
      0.00000      4.22777      9.00000        -0.012375     -0.002847      0.549223
      2.11389      6.34166      9.00000        -0.039550     -0.007421      0.552894
      0.00000      6.34166     11.11389        -0.012394      0.000828     -0.474701
      2.11389      4.22777     11.11389        -0.025155     -0.003876     -0.474036
      0.00000      8.45554      9.00000        -0.018891     -0.000782      0.552091
      2.11389     10.56943      9.00000        -0.048925      0.000056      0.557726
      0.00000     10.56943     11.11389        -0.010905     -0.000081     -0.469726
      2.11389      8.45554     11.11389        -0.032153      0.002834     -0.455692
      0.00000     12.68331      9.00000        -0.018762      0.000649      0.552041
      2.11389     14.79720      9.00000        -0.038925      0.007179      0.552717
      0.00000     14.79720     11.11389        -0.012240     -0.001078     -0.474796
      2.11389     12.68331     11.11389        -0.031942     -0.003007     -0.455895
      0.00000     16.91108      9.00000        -0.012229      0.002467      0.549207
      2.11389     19.02497      9.00000        -0.015856      0.005797      0.547921
      0.00000     19.02497     11.11389        -0.007939      0.000326     -0.480715
      2.11389     16.91108     11.11389        -0.024798      0.003468     -0.474214
      4.22777      0.00000      9.00000        -0.013805     -0.000394      0.548042
      6.34166      2.11389      9.00000        -0.013226     -0.028807      0.548101
      4.22777      2.11389     11.11389        -0.017030     -0.014534     -0.475518
      6.34166      0.00000     11.11389        -0.008420     -0.000466     -0.476074
      4.22777      4.22777      9.00000        -0.037216     -0.027675      0.545266
      6.34166      6.34166      9.00000        -0.087697     -0.083682      0.505391
      4.22777      6.34166     11.11389        -0.089586     -0.003464     -0.448207
      6.34166      4.22777     11.11389        -0.027688     -0.078769     -0.462280
      4.22777      8.45554      9.00000        -0.103019     -0.009425      0.563805
      6.34166     10.56943      9.00000        -0.136878      0.002192      0.517914
      4.22777     10.56943     11.11389        -0.074604     -0.000042     -0.390483
      6.34166      8.45554     11.11389        -0.590363      0.021160     -0.448259
      4.22777     12.68331      9.00000        -0.101357      0.009838      0.563564
      6.34166     14.79720      9.00000        -0.085925      0.082046      0.506469
      4.22777     14.79720     11.11389        -0.087822      0.003417     -0.448934
      6.34166     12.68331     11.11389        -0.570993     -0.020267     -0.446871
      4.22777     16.91108      9.00000        -0.036568      0.026860      0.545360
      6.34166     19.02497      9.00000        -0.013085      0.027597      0.548146
      4.22777     19.02497     11.11389        -0.016810      0.013702     -0.475601
      6.34166     16.91108     11.11389        -0.027324      0.076778     -0.462756
      8.45554      0.00000      9.00000        -0.000037     -0.000566      0.548291
     10.56943      2.11389      9.00000         0.013051     -0.028841      0.548122
      8.45554      2.11389     11.11389         0.000043     -0.034908     -0.471904
     10.56943      0.00000     11.11389         0.008244     -0.000417     -0.476101
      8.45554      4.22777      9.00000        -0.000151     -0.092011      0.547255
     10.56943      6.34166      9.00000         0.087415     -0.083769      0.505445
      8.45554      6.34166     11.11389        -0.000277     -0.523238     -0.499631
     10.56943      4.22777     11.11389         0.027478     -0.078857     -0.462340
      8.45554      8.45554      9.00000        -0.000283     -0.028633      0.105161
     10.56943     10.56943      9.00000         0.136682      0.002132      0.518279
      8.45554     10.56943     11.11389         0.003349      0.024052     -1.474115
     10.56943      8.45554     11.11389         0.588363      0.022147     -0.447077
      8.45554     12.68331      9.00000        -0.000287      0.030260      0.116479
     10.56943     14.79720      9.00000         0.085737      0.082211      0.506539
      8.45554     14.79720     11.11389        -0.000191      0.508075     -0.497894
     10.56943     12.68331     11.11389         0.569041     -0.021104     -0.445793
[...]
     19.02497      6.34166     11.11389        -0.000151     -0.000516      0.315458
     16.91108      6.34166      9.00000        -0.015321      0.002810     -0.388573
     19.02497      4.22777      9.00000        -0.000097      0.001767     -0.387076
     16.91108      8.45554     11.11389        -0.013854     -0.000891      0.309067
     19.02497     10.56943     11.11389        -0.000161     -0.000219      0.312178
     16.91108     10.56943      9.00000        -0.017402     -0.000270     -0.390737
     19.02497      8.45554      9.00000        -0.000148      0.000315     -0.388883
     16.91108     12.68331     11.11389        -0.013764      0.000459      0.309125
     19.02497     14.79720     11.11389        -0.000129      0.000144      0.315536
     16.91108     14.79720      9.00000        -0.015157     -0.003197     -0.388542
     19.02497     12.68331      9.00000        -0.000128     -0.000739     -0.388883
     16.91108     16.91108     11.11389        -0.010777     -0.002054      0.316754
     19.02497     19.02497     11.11389        -0.000089     -0.000730      0.320037
     16.91108     19.02497      9.00000        -0.009215     -0.002739     -0.386529
     19.02497     16.91108      9.00000        -0.000111     -0.002040     -0.387090
    total drift:                                0.013864      0.032286      2.779568

  FREE ENERGIE OF THE ION-ELECTRON SYSTEM (eV)
  free  energy   TOTEN  =     -1598.27281014 eV

  energy  without entropy=    -1598.27281014  energy(sigma->0) =    -1598.27281014