 vasp.6.3.0 20Jan22 (build Apr  1 2022 16:44:48) complex
 executed on        HPECrayEX_GCC date 2022.08.15  20:19:03

 INCAR:
   SYSTEM = MgO-rocksalt
   ISMEAR = 0
   SIGMA = 0.05
   EDIFF = 1E-6
   ALGO = ALL
   ISTART = 0
   IBRION = -1
   NSW = 0
   ISYM = 2
   DIPOL = 0.5 0.5 0.5
   IDIPOL = 3
   LDIPOL = .TRUE.
   GGA = ML
   LUSE_VDW = .TRUE.
   ZAB_VDW = -1.8867
   AGGAC = 0.0000
   ENCUT = 520
   PREC = Accurate
   LASPH = .TRUE.
   LREAL = Auto
   ISPIN = 1
   NELM = 200
   NELMIN = 8
   NCORE = 4
   KPAR = 2
   LWAVE = .FALSE.
   LCHARG = .FALSE.

 POTCAR:    PAW_PBE Au 04Oct2007
 POTCAR:    PAW_PBE Mg_pv 13Apr2007
 POTCAR:    PAW_PBE O 08Apr2002
|               ----> ADVICE to this user running VASP <----                  |
|     You have switched on vdW-DFT.                                           |
|     This routine was written and supplied by Jiri Klimes. We recommend      |
|     that you carefully read and cite the following publications:            |
|       J. Klimes, D.R. Bowler, A. Michelides                                 |
|          J. Phys.: Cond Matt. 22 022201 (2010)                              |
|       J. Klimes, D.R. Bowler, A. Michelides                                 |
|          Phys. Rev. B. 83, 195131 (2011)                                    |
|     and references therein.                                                 |

   TITEL  = PAW_PBE Au 04Oct2007
   POMASS =  196.966; ZVAL   =   11.000    mass and valenz
   ENMAX  =  229.943; ENMIN  =  172.457 eV

   TITEL  = PAW_PBE Mg_pv 13Apr2007
   POMASS =   24.305; ZVAL   =    8.000    mass and valenz
   ENMAX  =  403.929; ENMIN  =  302.947 eV

   TITEL  = PAW_PBE O 08Apr2002
   POMASS =   16.000; ZVAL   =    6.000    mass and valenz
   ENMAX  =  400.000; ENMIN  =  300.000 eV

 Optimization of the real space projectors (new method)

 maximal supplied QI-value         = 15.12
 optimisation between [QCUT,QGAM] = [ 11.64, 23.28] = [ 37.95,151.78] Ry
 Optimized for a Real-space Cutoff    1.49 Angstroem

   l    n(q)    QCUT    max X(q) W(low)/X(q) W(high)/X(q)  e(spline)
   2      9    11.641    60.898    0.24E-03    0.10E-03    0.19E-06
   2      9    11.641    58.894    0.25E-03    0.10E-03    0.19E-06
   0     10    11.641   109.617    0.73E-04    0.33E-04    0.11E-06
   0     10    11.641    75.026    0.71E-04    0.32E-04    0.11E-06
   1     10    11.641    16.344    0.27E-04    0.97E-04    0.16E-06
   1     10    11.641    10.160    0.23E-04    0.77E-04    0.13E-06
 Optimization of the real space projectors (new method)

[...]

   l    n(q)    QCUT    max X(q) W(low)/X(q) W(high)/X(q)  e(spline)
   1      8    11.527     2.974    0.44E-04    0.56E-04    0.12E-06
   1      8    11.527     4.279    0.12E-03    0.12E-03    0.26E-06
   0      9    11.527    16.381    0.46E-04    0.64E-04    0.78E-07
   0      9    11.527     5.611    0.26E-04    0.43E-04    0.55E-07
   2      8    11.527     4.652    0.22E-03    0.72E-04    0.47E-07
 Optimization of the real space projectors (new method)

 maximal supplied QI-value         = 24.76
 optimisation between [QCUT,QGAM] = [ 11.64, 23.27] = [ 37.91,151.63] Ry
 Optimized for a Real-space Cutoff    1.14 Angstroem

   l    n(q)    QCUT    max X(q) W(low)/X(q) W(high)/X(q)  e(spline)
   0      8    11.635    20.381    0.10E-03    0.33E-03    0.24E-06
   0      8    11.635    15.268    0.11E-03    0.35E-03    0.26E-06
   1      7    11.635     5.964    0.24E-03    0.31E-03    0.30E-06
   1      7    11.635     5.382    0.22E-03    0.25E-03    0.26E-06
|               ----> ADVICE to this user running VASP <----                  |
|     You enforced a specific xc type in the INCAR file but a different       |
|     type was found in the POTCAR file.                                      |
|     I HOPE YOU KNOW WHAT YOU ARE DOING!                                     |

  PAW_PBE Au 04Oct2007                  :
  PAW_PBE Mg_pv 13Apr2007               :
  PAW_PBE O 08Apr2002                   :

 POSCAR: Au Mg  O
  positions in direct lattice
 exchange correlation table for  LEXCH =       44
   RHO(1)=    0.500       N(1)  =     2000
   RHO(2)=  100.500       N(2)  =     4000

 ion  position               nearest neighbor table
   1  0.543  0.557  0.621-   2 2.56  58 2.91
   2  0.457  0.643  0.621-   1 2.56  58 2.91
   3  0.000  0.000  0.407- 105 2.11 106 2.11 121 2.11 186 2.11 103 2.11
   4  0.100  0.100  0.407- 105 2.11 106 2.11 110 2.11 125 2.11 104 2.11
   5  0.000  0.100  0.503- 103 2.11 104 2.11 107 2.11 184 2.11 105 2.11
   6  0.100  0.000  0.503- 103 2.11 104 2.11 120 2.11 123 2.11 106 2.11
   7  0.000  0.200  0.407- 109 2.11 105 2.11 110 2.11 190 2.11 107 2.11
   8  0.100  0.300  0.407- 110 2.11 109 2.11 114 2.11 129 2.11 108 2.11
   9  0.000  0.300  0.503- 107 2.11 108 2.11 111 2.11 188 2.11 109 2.11
  10  0.100  0.200  0.503- 108 2.11 107 2.11 104 2.11 127 2.11 110 2.11
  11  0.000  0.400  0.407- 109 2.11 113 2.11 114 2.11 194 2.11 111 2.11
  12  0.100  0.500  0.407- 113 2.11 114 2.11 118 2.11 133 2.11 112 2.11
  13  0.000  0.500  0.503- 111 2.11 112 2.11 115 2.11 192 2.11 113 2.11
  14  0.100  0.400  0.503- 108 2.11 111 2.11 112 2.11 131 2.11 114 2.11
  15  0.000  0.600  0.407- 113 2.11 117 2.11 118 2.11 198 2.11 115 2.11
  16  0.100  0.700  0.407- 122 2.11 118 2.11 117 2.11 137 2.11 116 2.11
  17  0.000  0.700  0.503- 119 2.11 116 2.11 115 2.11 196 2.11 117 2.11
  18  0.100  0.600  0.503- 112 2.11 115 2.11 116 2.11 135 2.11 118 2.11
  19  0.000  0.800  0.407- 117 2.11 121 2.11 122 2.11 202 2.11 119 2.11
  20  0.100  0.900  0.407- 106 2.11 121 2.11 122 2.11 141 2.11 120 2.11
  21  0.000  0.900  0.503- 103 2.11 119 2.11 120 2.11 200 2.11 121 2.11
  22  0.100  0.800  0.503- 116 2.11 119 2.11 120 2.11 139 2.11 122 2.11
  23  0.200  0.000  0.407- 126 2.11 125 2.11 106 2.11 141 2.11 123 2.11
  24  0.300  0.100  0.407- 125 2.11 126 2.11 130 2.11 145 2.11 124 2.11
  25  0.200  0.100  0.503- 124 2.11 123 2.11 104 2.11 127 2.11 125 2.11
  26  0.300  0.000  0.503- 123 2.11 124 2.11 140 2.11 143 2.11 126 2.11
  27  0.200  0.200  0.407- 129 2.11 130 2.11 110 2.11 125 2.11 127 2.11
  28  0.300  0.300  0.407- 129 2.11 130 2.11 134 2.11 149 2.11 128 2.11
  29  0.200  0.300  0.503- 127 2.11 128 2.11 108 2.11 131 2.11 129 2.11
  30  0.300  0.200  0.503- 127 2.11 128 2.11 124 2.11 147 2.11 130 2.11
  31  0.200  0.400  0.407- 134 2.11 129 2.11 133 2.11 114 2.11 131 2.11
  32  0.300  0.500  0.407- 133 2.11 134 2.11 138 2.11 153 2.11 132 2.11
  33  0.200  0.500  0.503- 132 2.11 131 2.11 112 2.11 135 2.11 133 2.11
  34  0.300  0.400  0.503- 131 2.11 128 2.11 132 2.11 151 2.11 134 2.11
  35  0.200  0.600  0.407- 138 2.11 133 2.11 137 2.11 118 2.11 135 2.11
  36  0.300  0.700  0.407- 137 2.11 142 2.11 138 2.11 157 2.11 136 2.11
  37  0.200  0.700  0.503- 136 2.11 139 2.11 116 2.11 135 2.11 137 2.11
  38  0.300  0.600  0.503- 135 2.11 132 2.11 136 2.11 155 2.11 138 2.11
  39  0.200  0.800  0.407- 137 2.11 142 2.11 141 2.11 122 2.11 139 2.11
  40  0.300  0.900  0.407- 141 2.11 126 2.11 142 2.11 161 2.11 140 2.11
  41  0.200  0.900  0.503- 140 2.11 123 2.11 139 2.11 120 2.11 141 2.11
  42  0.300  0.800  0.503- 136 2.11 139 2.11 140 2.11 159 2.11 142 2.11
  43  0.400  0.000  0.407- 126 2.11 145 2.11 146 2.11 161 2.11 143 2.11
  44  0.500  0.100  0.407- 145 2.11 146 2.11 150 2.11 165 2.11 144 2.11
  45  0.400  0.100  0.503- 124 2.11 143 2.11 144 2.11 147 2.11 145 2.11
  46  0.500  0.000  0.503- 143 2.11 144 2.11 160 2.11 163 2.11 146 2.11
  47  0.400  0.200  0.407- 149 2.11 145 2.11 130 2.11 150 2.11 147 2.11
  48  0.500  0.300  0.407- 150 2.11 149 2.11 154 2.11 169 2.11 148 2.11
  49  0.400  0.300  0.503- 147 2.11 128 2.11 148 2.11 151 2.11 149 2.11
  50  0.500  0.200  0.503- 148 2.11 147 2.11 144 2.11 167 2.11 150 2.11
  51  0.400  0.400  0.407- 134 2.11 149 2.11 153 2.11 154 2.11 151 2.11
  52  0.500  0.500  0.407- 153 2.11 154 2.11 158 2.11 173 2.11 152 2.11
  53  0.400  0.500  0.503- 132 2.11 151 2.11 152 2.11 155 2.11 153 2.11
  54  0.500  0.400  0.503- 148 2.11 151 2.11 152 2.11 171 2.11 154 2.11
  55  0.400  0.600  0.407- 138 2.11 153 2.11 157 2.11 158 2.11 155 2.11
  56  0.500  0.700  0.407- 162 2.11 158 2.11 157 2.11 177 2.11 156 2.11
  57  0.400  0.700  0.503- 159 2.11 155 2.11 156 2.11 136 2.11 157 2.11
  58  0.500  0.600  0.503- 152 2.11 155 2.11 156 2.11 175 2.11 158 2.11   2 2.91   1 2.91
  59  0.400  0.800  0.407- 157 2.11 142 2.11 161 2.11 162 2.11 159 2.11
  60  0.500  0.900  0.407- 146 2.11 161 2.11 162 2.11 181 2.11 160 2.11
[...]
 188  0.900  0.300  0.503-  90 2.11  89 2.11   9 2.11  94 2.11  88 2.11
 189  0.800  0.300  0.407-  68 2.11  87 2.11  88 2.11  91 2.11  89 2.11
 190  0.900  0.200  0.407-  88 2.11  84 2.11  87 2.11   7 2.11  90 2.11
 191  0.800  0.400  0.503-  74 2.11  89 2.11  93 2.11  94 2.11  91 2.11
 192  0.900  0.500  0.503-  13 2.11  93 2.11  94 2.11  98 2.11  92 2.11
 193  0.800  0.500  0.407-  72 2.11  91 2.11  92 2.11  95 2.11  93 2.11
 194  0.900  0.400  0.407-  11 2.11  88 2.11  91 2.11  92 2.11  94 2.11
 195  0.800  0.600  0.503-  78 2.11  93 2.11  97 2.11  98 2.11  95 2.11
 196  0.900  0.700  0.503- 102 2.11  97 2.11  98 2.11  17 2.11  96 2.11
 197  0.800  0.700  0.407-  76 2.11  99 2.11  96 2.11  95 2.11  97 2.11
 198  0.900  0.600  0.407-  15 2.11  92 2.11  95 2.11  96 2.11  98 2.11
 199  0.800  0.800  0.503-  82 2.11  97 2.11 101 2.11 102 2.11  99 2.11
 200  0.900  0.900  0.503-  21 2.11  86 2.11 101 2.11 102 2.11 100 2.11
 201  0.800  0.900  0.407-  80 2.11  83 2.11  99 2.11 100 2.11 101 2.11
 202  0.900  0.800  0.407-  96 2.11  19 2.11  99 2.11 100 2.11 102 2.11

  LATTYP: Found a simple tetragonal cell.
 ALAT       =    21.1388521970
 C/A-ratio  =     1.0461251639

  Lattice vectors:

 A1 = (  21.1388521970,   0.0000000000,   0.0000000000)
 A2 = (   0.0000000000,  21.1388521970,   0.0000000000)
 A3 = (   0.0000000000,   0.0000000000,  22.1138852197)

Analysis of symmetry for initial positions (statically):
 Subroutine PRICEL returns:
 Original cell was already a primitive cell.

 Routine SETGRP: Setting up the symmetry group for a
 simple tetragonal supercell.

 Subroutine GETGRP returns: Found  4 space group operations
 (whereof  1 operations were pure point group operations)
 out of a pool of 16 trial point group operations.

The static configuration has the point symmetry C_1 .
 The point group associated with its full space group is C_2v.

Analysis of symmetry for dynamics (positions and initial velocities):
 Subroutine PRICEL returns:
 Original cell was already a primitive cell.

 Routine SETGRP: Setting up the symmetry group for a
 simple tetragonal supercell.

 Subroutine GETGRP returns: Found  4 space group operations
 (whereof  1 operations were pure point group operations)
 out of a pool of 16 trial point group operations.

The dynamic configuration has the point symmetry C_1 .
 The point group associated with its full space group is C_2v.

 Subroutine INISYM returns: Found  4 space group operations
 (whereof  1 operations are pure point group operations),
 and found     1 'primitive' translations

                                     Primitive cell

  volume of cell :    9881.6133

[...]
     52     -43.9806      2.00000
     53     -43.9792      2.00000
     54     -43.9789      2.00000
     55     -43.9788      2.00000
     56     -43.9784      2.00000
     57     -43.9781      2.00000
     58     -43.9771      2.00000
     59     -43.9771      2.00000
     60     -43.9770      2.00000
[...]
    882       4.0284      0.00000
    883       4.1308      0.00000
    884       4.1708      0.00000
    885       4.1915      0.00000
    886       4.1967      0.00000
    887       4.2142      0.00000
    888       4.2564      0.00000
    889       4.5044      0.00000
    890       4.5994      0.00000
    891       4.7068      0.00000
    892       4.8113      0.00000
    893       4.8930      0.00000
    894       4.9701      0.00000
    895       4.9919      0.00000
    896       5.0554      0.00000

 soft charge-density along one line, spin component           1
         0         1         2         3         4         5         6         7         8         9
 total charge-density along one line

------------------------ aborting loop because EDIFF is reached ----------------------------------------

  FORCE on cell =-STRESS in cart. coord.  units (eV):
  Direction    XX          YY          ZZ          XY          YZ          ZX
  Alpha Z  1365.75682  1365.75682  1365.75682
  Ewald  479770.72537479770.72537************  -347.00501     0.00001    -0.00001
  Hartree508043.17820508043.17820************  -231.78074     0.00000    -0.00002
  E(xc)   -8047.10763 -8047.10763 -8056.11492    -0.35093    -0.00000     0.00000
  Local  ************************************   566.35918    -0.00001     0.00003
  n-local -8839.81828 -8839.81829 -8940.25506     5.22258     0.00001     0.00000
  augment  3570.90002  3570.90001  3516.46211     1.73714     0.00000    -0.00001
  Kinetic 23108.61128 23108.61124 23319.46045     4.71193    -0.00001     0.00000
  Fock        0.00000     0.00000     0.00000     0.00000     0.00000     0.00000
  Total    -122.75601  -122.75601    41.24937    -1.10585     0.00000     0.00000
  in kB     -19.90332   -19.90332     6.68806    -0.17930     0.00000     0.00000

 VOLUME and BASIS-vectors are now :
  energy-cutoff  :      520.00
  volume of cell :     9881.61
      direct lattice vectors                 reciprocal lattice vectors
    21.138852197  0.000000000  0.000000000     0.047306258  0.000000000  0.000000000
     0.000000000 21.138852197  0.000000000     0.000000000  0.047306258  0.000000000
     0.000000000  0.000000000 22.113885220     0.000000000  0.000000000  0.045220457

  length of vectors
    21.138852197 21.138852197 22.113885220     0.047306258  0.047306258  0.045220457

 FORCES acting on ions:
    Electron-Ion                     Ewald-Force                    Non-Local-Force
   -.191E+03 0.191E+03 -.208E+04   0.188E+03 -.188E+03 0.208E+04   0.360E+01 -.360E+01 0.218E-01
   0.191E+03 -.191E+03 -.208E+04   -.188E+03 0.188E+03 0.208E+04   -.360E+01 0.360E+01 0.218E-01
   0.203E+00 -.347E+01 0.930E+03   -.205E+00 0.348E+01 -.923E+03   0.194E-02 -.471E-02 -.617E+01
   0.347E+01 -.203E+00 0.930E+03   -.348E+01 0.205E+00 -.923E+03   0.471E-02 -.194E-02 -.617E+01
   -.117E-07 -.187E-03 -.921E+03   0.101E-06 -.159E-05 0.915E+03   0.000E+00 0.000E+00 0.613E+01
   0.533E+01 -.533E+01 -.921E+03   -.533E+01 0.533E+01 0.914E+03   0.669E-02 -.669E-02 0.613E+01
   -.203E+00 0.347E+01 0.930E+03   0.205E+00 -.348E+01 -.923E+03   -.194E-02 0.471E-02 -.617E+01
   0.527E+01 0.675E+01 0.932E+03   -.528E+01 -.676E+01 -.925E+03   0.744E-02 0.975E-02 -.617E+01
   -.565E+00 0.719E+01 -.920E+03   0.571E+00 -.720E+01 0.914E+03   -.449E-02 0.548E-02 0.612E+01
   0.472E+01 0.472E+01 -.921E+03   -.473E+01 -.473E+01 0.915E+03   0.228E-02 0.228E-02 0.613E+01
   -.470E+00 0.617E+01 0.932E+03   0.476E+00 -.618E+01 -.926E+03   -.484E-02 0.816E-02 -.617E+01
   0.102E+02 0.522E+01 0.936E+03   -.103E+02 -.523E+01 -.930E+03   0.270E-01 0.103E-01 -.617E+01
   -.543E+00 0.503E+01 -.918E+03   0.548E+00 -.503E+01 0.912E+03   -.414E-02 0.347E-02 0.612E+01
   0.105E+02 0.972E+01 -.918E+03   -.105E+02 -.973E+01 0.912E+03   0.746E-02 0.794E-02 0.612E+01
   0.239E-06 -.190E-03 0.934E+03   -.146E-06 0.155E-05 -.928E+03   0.000E+00 0.000E+00 -.617E+01
   0.111E+02 -.468E+01 0.936E+03   -.112E+02 0.469E+01 -.930E+03   0.384E-01 -.559E-02 -.617E+01
   0.543E+00 -.503E+01 -.918E+03   -.548E+00 0.503E+01 0.912E+03   0.414E-02 -.347E-02 0.612E+01
   0.175E+02 0.742E+00 -.915E+03   -.175E+02 -.747E+00 0.909E+03   0.241E-01 0.382E-02 0.612E+01
   0.470E+00 -.617E+01 0.932E+03   -.476E+00 0.618E+01 -.926E+03   0.484E-02 -.816E-02 -.617E+01
   0.610E+01 -.709E+01 0.932E+03   -.612E+01 0.710E+01 -.926E+03   0.149E-01 -.125E-01 -.617E+01
   0.565E+00 -.719E+01 -.920E+03   -.571E+00 0.720E+01 0.914E+03   0.449E-02 -.548E-02 0.612E+01
   0.124E+02 -.985E+01 -.917E+03   -.124E+02 0.986E+01 0.911E+03   0.217E-01 -.737E-02 0.612E+01
   0.709E+01 -.610E+01 0.932E+03   -.710E+01 0.612E+01 -.926E+03   0.125E-01 -.149E-01 -.617E+01
   0.617E+01 -.470E+00 0.932E+03   -.618E+01 0.476E+00 -.926E+03   0.816E-02 -.484E-02 -.617E+01
   0.719E+01 -.565E+00 -.920E+03   -.720E+01 0.571E+00 0.914E+03   0.548E-02 -.449E-02 0.612E+01
   0.985E+01 -.124E+02 -.917E+03   -.986E+01 0.124E+02 0.911E+03   0.737E-02 -.217E-01 0.612E+01
   0.675E+01 0.527E+01 0.932E+03   -.676E+01 -.528E+01 -.925E+03   0.975E-02 0.744E-02 -.617E+01
   0.117E+02 0.149E+02 0.938E+03   -.117E+02 -.150E+02 -.932E+03   0.275E-01 0.374E-01 -.618E+01
   0.133E+02 0.133E+02 -.917E+03   -.133E+02 -.133E+02 0.911E+03   0.106E-01 0.106E-01 0.612E+01
   0.972E+01 0.105E+02 -.918E+03   -.973E+01 -.105E+02 0.912E+03   0.794E-02 0.746E-02 0.612E+01
   0.149E+02 0.117E+02 0.938E+03   -.150E+02 -.117E+02 -.932E+03   0.374E-01 0.275E-01 -.618E+01
   0.290E+02 0.162E+02 0.959E+03   -.292E+02 -.163E+02 -.953E+03   0.146E+00 0.738E-01 -.620E+01
   0.333E+02 0.141E+02 -.908E+03   -.334E+02 -.142E+02 0.902E+03   0.465E-01 0.173E-01 0.610E+01
   0.320E+02 0.320E+02 -.904E+03   -.321E+02 -.321E+02 0.898E+03   0.412E-01 0.412E-01 0.609E+01
   0.243E+02 0.113E+01 0.946E+03   -.244E+02 -.115E+01 -.940E+03   0.103E+00 0.848E-02 -.619E+01
   0.309E+02 -.144E+02 0.963E+03   -.310E+02 0.145E+02 -.957E+03   0.107E+00 -.557E-01 -.615E+01
   0.374E+02 -.120E+02 -.906E+03   -.375E+02 0.120E+02 0.900E+03   0.800E-01 -.375E-02 0.611E+01
   0.793E+02 0.826E+01 -.869E+03   -.797E+02 -.832E+01 0.863E+03   0.289E+00 0.418E-01 0.609E+01
   0.164E+02 -.120E+02 0.940E+03   -.165E+02 0.120E+02 -.934E+03   0.475E-01 -.289E-01 -.617E+01
   0.120E+02 -.164E+02 0.940E+03   -.120E+02 0.165E+02 -.934E+03   0.289E-01 -.475E-01 -.617E+01
   0.149E+02 -.149E+02 -.916E+03   -.149E+02 0.149E+02 0.910E+03   0.200E-01 -.200E-01 0.612E+01
   0.369E+02 -.369E+02 -.898E+03   -.370E+02 0.370E+02 0.892E+03   0.670E-01 -.670E-01 0.611E+01
   0.468E+01 -.111E+02 0.936E+03   -.469E+01 0.112E+02 -.930E+03   0.559E-02 -.384E-01 -.617E+01
   0.235E-06 -.185E-03 0.934E+03   -.139E-06 -.416E-05 -.928E+03   0.000E+00 0.000E+00 -.617E+01
   0.503E+01 -.543E+00 -.918E+03   -.503E+01 0.548E+00 0.912E+03   0.347E-02 -.414E-02 0.612E+01
   -.742E+00 -.175E+02 -.915E+03   0.747E+00 0.175E+02 0.909E+03   -.382E-02 -.241E-01 0.612E+01
   0.522E+01 0.102E+02 0.936E+03   -.523E+01 -.103E+02 -.930E+03   0.103E-01 0.270E-01 -.617E+01
   0.113E+01 0.243E+02 0.946E+03   -.115E+01 -.244E+02 -.940E+03   0.848E-02 0.103E+00 -.619E+01
   0.141E+02 0.333E+02 -.908E+03   -.142E+02 -.334E+02 0.902E+03   0.173E-01 0.465E-01 0.610E+01
   0.742E+00 0.175E+02 -.915E+03   -.747E+00 -.175E+02 0.909E+03   0.382E-02 0.241E-01 0.612E+01
   0.162E+02 0.290E+02 0.959E+03   -.163E+02 -.292E+02 -.953E+03   0.738E-01 0.146E+00 -.620E+01
   0.315E+01 0.311E+02 0.100E+04   -.309E+01 -.313E+02 -.995E+03   -.430E-01 0.129E+00 -.586E+01
   0.710E+02 0.710E+02 -.835E+03   -.714E+02 -.714E+02 0.830E+03   0.300E+00 0.300E+00 0.599E+01
   0.826E+01 0.793E+02 -.869E+03   -.832E+01 -.797E+02 0.863E+03   0.418E-01 0.289E+00 0.609E+01
   0.311E+02 0.315E+01 0.100E+04   -.313E+02 -.309E+01 -.995E+03   0.129E+00 -.430E-01 -.586E+01
   -.315E+01 -.311E+02 0.100E+04   0.309E+01 0.313E+02 -.995E+03   0.430E-01 -.129E+00 -.586E+01
   0.780E+02 -.780E+02 -.792E+03   -.784E+02 0.784E+02 0.786E+03   0.261E+00 -.261E+00 0.576E+01
   -.222E-04 -.245E-03 -.657E+03   0.225E-04 0.543E-04 0.653E+03   0.000E+00 0.000E+00 0.424E+01
   0.144E+02 -.309E+02 0.963E+03   -.145E+02 0.310E+02 -.957E+03   0.557E-01 -.107E+00 -.615E+01
   -.113E+01 -.243E+02 0.946E+03   0.115E+01 0.244E+02 -.940E+03   -.848E-02 -.103E+00 -.619E+01
[...]
   -.799E+01 0.799E+01 0.704E+03   0.801E+01 -.801E+01 -.708E+03   -.266E-01 0.266E-01 0.361E+01
   -.318E+01 0.317E+01 0.700E+03   0.318E+01 -.318E+01 -.705E+03   -.883E-02 0.883E-02 0.361E+01
   -.190E+02 0.134E+02 -.686E+03   0.191E+02 -.135E+02 0.691E+03   -.445E-01 0.308E-01 -.368E+01
   -.123E+02 0.466E+01 -.689E+03   0.123E+02 -.466E+01 0.694E+03   -.243E-01 0.427E-02 -.368E+01
   -.167E+02 0.580E+01 0.711E+03   0.168E+02 -.581E+01 -.716E+03   -.743E-01 0.222E-01 0.361E+01
   -.657E+01 0.562E+01 0.703E+03   0.658E+01 -.564E+01 -.708E+03   -.241E-01 0.157E-01 0.361E+01
   -.309E+02 -.184E+01 -.681E+03   0.310E+02 0.185E+01 0.685E+03   -.637E-01 -.162E-01 -.371E+01
   -.111E+02 -.530E+01 -.690E+03   0.111E+02 0.531E+01 0.694E+03   -.161E-01 -.105E-01 -.368E+01
   -.156E+02 -.671E+01 0.710E+03   0.157E+02 0.673E+01 -.714E+03   -.589E-01 -.339E-01 0.359E+01
   -.883E+01 -.324E+00 0.706E+03   0.885E+01 0.327E+00 -.710E+03   -.295E-01 -.477E-02 0.360E+01
   -.165E+02 -.126E+02 -.688E+03   0.165E+02 0.127E+02 0.692E+03   -.268E-01 -.242E-01 -.369E+01
   -.513E+01 -.639E+01 -.693E+03   0.514E+01 0.639E+01 0.697E+03   -.506E-02 -.808E-02 -.367E+01
   -.736E+01 -.736E+01 0.703E+03   0.738E+01 0.738E+01 -.707E+03   -.194E-01 -.194E-01 0.360E+01
   -.573E+01 -.561E+01 0.703E+03   0.574E+01 0.562E+01 -.707E+03   -.142E-01 -.149E-01 0.360E+01
   -.146E-04 -.111E+00 0.104E+02   0.189E-11 0.696E-12 -.557E-11   -.503E-16 0.404E-15 -.109E+02

 POSITION                                       TOTAL-FORCE (eV/Angst)
     11.47450     11.77823     13.73072         0.550373     -0.550373      0.356321
      9.66435     13.58839     13.73072        -0.550373      0.550373      0.356321
      0.00000      0.00000      9.00000        -0.000544      0.001328      0.088846
      2.11389      2.11389      9.00000        -0.001328      0.000544      0.088846
      0.00000      2.11389     11.11389         0.000000     -0.000000     -0.076264
      2.11389      0.00000     11.11389        -0.001856      0.001856     -0.075712
      0.00000      4.22777      9.00000         0.000544     -0.001328      0.088846
      2.11389      6.34166      9.00000        -0.002086     -0.002763      0.089426
      0.00000      6.34166     11.11389         0.001245     -0.001531     -0.075278
      2.11389      4.22777     11.11389        -0.000610     -0.000610     -0.075612
      0.00000      8.45554      9.00000         0.001319     -0.002338      0.089489
      2.11389     10.56943      9.00000        -0.007424     -0.002980      0.090532
      0.00000     10.56943     11.11389         0.001118     -0.000975     -0.073331
      2.11389      8.45554     11.11389        -0.001871     -0.002174     -0.072767
      0.00000     12.68331      9.00000         0.000000     -0.000000      0.090019
      2.11389     14.79720      9.00000        -0.010365      0.001626      0.090495
      0.00000     14.79720     11.11389        -0.001118      0.000975     -0.073331
      2.11389     12.68331     11.11389        -0.005973     -0.001171     -0.070583
      0.00000     16.91108      9.00000        -0.001319      0.002338      0.089489
      2.11389     19.02497      9.00000        -0.004179      0.003556      0.089036
      0.00000     19.02497     11.11389        -0.001245      0.001531     -0.075278
      2.11389     16.91108     11.11389        -0.005839      0.002102     -0.073144
      4.22777      0.00000      9.00000        -0.003556      0.004179      0.089036
      6.34166      2.11389      9.00000        -0.002338      0.001319      0.089489
      4.22777      2.11389     11.11389        -0.001531      0.001245     -0.075278
      6.34166      0.00000     11.11389        -0.002102      0.005839     -0.073144
      4.22777      4.22777      9.00000        -0.002763     -0.002086      0.089426
      6.34166      6.34166      9.00000        -0.007856     -0.010441      0.091206
      4.22777      6.34166     11.11389        -0.002751     -0.002751     -0.072034
      6.34166      4.22777     11.11389        -0.002174     -0.001871     -0.072767
      4.22777      8.45554      9.00000        -0.010441     -0.007856      0.091206
      6.34166     10.56943      9.00000        -0.040940     -0.023319      0.094661
      4.22777     10.56943     11.11389        -0.010923     -0.004662     -0.062236
      6.34166      8.45554     11.11389        -0.009700     -0.009700     -0.055155
      4.22777     12.68331      9.00000        -0.028403     -0.002575      0.093805
      6.34166     14.79720      9.00000        -0.030601      0.017533      0.079622
      4.22777     14.79720     11.11389        -0.022718      0.000845     -0.063922
      6.34166     12.68331     11.11389        -0.091322     -0.011473     -0.032688
      4.22777     16.91108      9.00000        -0.013486      0.008557      0.089519
      6.34166     19.02497      9.00000        -0.008557      0.013486      0.089519
      4.22777     19.02497     11.11389        -0.005499      0.005499     -0.072833
      6.34166     16.91108     11.11389        -0.017860      0.017860     -0.061488
      8.45554      0.00000      9.00000        -0.001626      0.010365      0.090495
     10.56943      2.11389      9.00000         0.000000     -0.000000      0.090019
      8.45554      2.11389     11.11389        -0.000975      0.001118     -0.073331
     10.56943      0.00000     11.11389         0.001171      0.005973     -0.070583
      8.45554      4.22777      9.00000        -0.002980     -0.007424      0.090532
     10.56943      6.34166      9.00000        -0.002575     -0.028403      0.093805
      8.45554      6.34166     11.11389        -0.004662     -0.010923     -0.062236
     10.56943      4.22777     11.11389        -0.001171     -0.005973     -0.070583
      8.45554      8.45554      9.00000        -0.023319     -0.040940      0.094661
     10.56943     10.56943      9.00000         0.016920     -0.035984     -0.006844
      8.45554     10.56943     11.11389        -0.080160     -0.080160      0.044567
     10.56943      8.45554     11.11389        -0.011473     -0.091322     -0.032688
      8.45554     12.68331      9.00000        -0.035984      0.016920     -0.006844
     10.56943     14.79720      9.00000        -0.016920      0.035984     -0.006844
      8.45554     14.79720     11.11389        -0.108485      0.108485     -0.093854
     10.56943     12.68331     11.11389         0.000000     -0.000000      0.035641
      8.45554     16.91108      9.00000        -0.017533      0.030601      0.079622
     10.56943     19.02497      9.00000         0.002575      0.028403      0.093805
[...]
     19.02497      6.34166     11.11389        -0.003835      0.003446      0.468905
     16.91108      6.34166      9.00000        -0.007500      0.007500     -0.484228
     19.02497      4.22777      9.00000        -0.002498      0.002498     -0.483582
     16.91108      8.45554     11.11389        -0.012847      0.008989      0.465019
     19.02497     10.56943     11.11389        -0.006857      0.001253      0.465580
     16.91108     10.56943      9.00000        -0.021014      0.006314     -0.483692
     19.02497      8.45554      9.00000        -0.006733      0.004519     -0.484324
     16.91108     12.68331     11.11389        -0.019127     -0.004705      0.456665
     19.02497     14.79720     11.11389        -0.004561     -0.003003      0.465071
     16.91108     14.79720      9.00000        -0.017197     -0.009783     -0.487639
     19.02497     12.68331      9.00000        -0.008357     -0.001337     -0.485343
     16.91108     16.91108     11.11389        -0.007711     -0.006877      0.462110
     19.02497     19.02497     11.11389        -0.001405     -0.002279      0.468535
     16.91108     19.02497      9.00000        -0.005499     -0.005499     -0.485027
     19.02497     16.91108      9.00000        -0.003995     -0.004262     -0.484781
    total drift:                               -0.000015     -0.111348     -0.544973

  FREE ENERGIE OF THE ION-ELECTRON SYSTEM (eV)
  free  energy   TOTEN  =      -749.94793493 eV

  energy  without entropy=     -749.94793493  energy(sigma->0) =     -749.94793493