 vasp.6.3.0 20Jan22 (build Apr  1 2022 16:44:48) complex
 executed on        HPECrayEX_GCC date 2022.11.18  13:00:47

 INCAR:
   SYSTEM = MgO-rocksalt
   ISMEAR = 0
   SIGMA = 0.05
   EDIFF = 1E-6
   ALGO = ALL
   ISTART = 0
   IBRION = -1
   NSW = 0
   ISYM = 2
   DIPOL = 0.5 0.5 0.5
   IDIPOL = 3
   LDIPOL = .TRUE.
   GGA = RE
   IVDW = 13
   VDW_S8 = 1.7468
   VDW_A1 = 0.5363
   VDW_A2 = 3.0726
   ENCUT = 520
   PREC = Accurate
   LASPH = .TRUE.
   LREAL = Auto
   ISPIN = 1
   NELM = 200
   NELMIN = 8
   NCORE = 4
   KPAR = 2
   LWAVE = .FALSE.
   LCHARG = .FALSE.

 POTCAR:    PAW_PBE Cu 22Jun2005
 POTCAR:    PAW_PBE Mg_pv 13Apr2007
 POTCAR:    PAW_PBE O 08Apr2002
 POTCAR:    PAW_PBE Cu 22Jun2005
   VRHFIN =Cu: d10 p1

   TITEL  = PAW_PBE Cu 22Jun2005
   POMASS =   63.546; ZVAL   =   11.000    mass and valenz
   ENMAX  =  295.446; ENMIN  =  221.585 eV

   TITEL  = PAW_PBE Mg_pv 13Apr2007
   POMASS =   24.305; ZVAL   =    8.000    mass and valenz
   ENMAX  =  403.929; ENMIN  =  302.947 eV

   TITEL  = PAW_PBE O 08Apr2002
   POMASS =   16.000; ZVAL   =    6.000    mass and valenz
   ENMAX  =  400.000; ENMIN  =  300.000 eV

 Optimization of the real space projectors (new method)

 maximal supplied QI-value         = 16.25
 optimisation between [QCUT,QGAM] = [ 11.54, 23.24] = [ 37.28,151.24] Ry
 Optimized for a Real-space Cutoff    1.53 Angstroem

   l    n(q)    QCUT    max X(q) W(low)/X(q) W(high)/X(q)  e(spline)
   2     10    11.539     4.610    0.96E-04    0.13E-03    0.19E-06
   2     10    11.539     8.522    0.16E-03    0.21E-03    0.28E-06
   0     11    11.539    51.609    0.45E-04    0.31E-04    0.11E-06
   0     11    11.539    27.747    0.39E-04    0.29E-04    0.10E-06
   1     10    11.539    20.408    0.70E-05    0.38E-04    0.18E-06
   1     10    11.539    13.425    0.66E-05    0.34E-04    0.17E-06
 Optimization of the real space projectors (new method)

[...]

   l    n(q)    QCUT    max X(q) W(low)/X(q) W(high)/X(q)  e(spline)
   1      8    11.527     2.974    0.44E-04    0.56E-04    0.12E-06
   1      8    11.527     4.279    0.12E-03    0.12E-03    0.26E-06
   0      9    11.527    16.381    0.46E-04    0.64E-04    0.78E-07
   0      9    11.527     5.611    0.26E-04    0.43E-04    0.55E-07
   2      8    11.527     4.652    0.22E-03    0.72E-04    0.47E-07
 Optimization of the real space projectors (new method)

 maximal supplied QI-value         = 24.76
 optimisation between [QCUT,QGAM] = [ 11.64, 23.27] = [ 37.91,151.63] Ry
 Optimized for a Real-space Cutoff    1.14 Angstroem

   l    n(q)    QCUT    max X(q) W(low)/X(q) W(high)/X(q)  e(spline)
   0      8    11.635    20.381    0.10E-03    0.33E-03    0.24E-06
   0      8    11.635    15.268    0.11E-03    0.35E-03    0.26E-06
   1      7    11.635     5.964    0.24E-03    0.31E-03    0.30E-06
   1      7    11.635     5.382    0.22E-03    0.25E-03    0.26E-06
|               ----> ADVICE to this user running VASP <----                  |
|     You enforced a specific xc type in the INCAR file but a different       |
|     type was found in the POTCAR file.                                      |
|     I HOPE YOU KNOW WHAT YOU ARE DOING!                                     |

  PAW_PBE Cu 22Jun2005                  :
  PAW_PBE Mg_pv 13Apr2007               :
  PAW_PBE O 08Apr2002                   :

 POSCAR: Cu Mg  O
  positions in direct lattice
|           W    W    AA    RRRRR   N    N  II  N    N   GGGG   !!!           |
|           W    W   A  A   R    R  NN   N  II  NN   N  G    G  !!!           |
|           W    W  A    A  R    R  N N  N  II  N N  N  G       !!!           |
|           W WW W  AAAAAA  RRRRR   N  N N  II  N  N N  G  GGG   !            |
|           WW  WW  A    A  R   R   N   NN  II  N   NN  G    G                |
|           W    W  A    A  R    R  N    N  II  N    N   GGGG   !!!           |
|     Specifying the vdW parameters                                           |
|     VDW_S8 = 1.747                                                          |
|     VDW_A1 = 0.536                                                          |
|     VDW_A2 = 3.073                                                          |
|     in the INCAR file will overwrite the defaults for revpbe. Please        |
|     make sure that is what you intended.                                    |

 ion  position               nearest neighbor table
   1  0.450  0.450  0.699-   2 2.23
   2  0.450  0.450  0.598-   1 2.23  53 2.59  54 2.59
   3  0.000  0.000  0.407- 105 2.11 106 2.11 121 2.11 186 2.11 103 2.11
   4  0.100  0.100  0.407- 105 2.11 106 2.11 110 2.11 125 2.11 104 2.11
   5  0.000  0.100  0.503- 103 2.11 104 2.11 107 2.11 184 2.11 105 2.11
   6  0.100  0.000  0.503- 103 2.11 104 2.11 120 2.11 123 2.11 106 2.11
   7  0.000  0.200  0.407- 109 2.11 105 2.11 110 2.11 190 2.11 107 2.11
   8  0.100  0.300  0.407- 110 2.11 109 2.11 114 2.11 129 2.11 108 2.11
   9  0.000  0.300  0.503- 107 2.11 108 2.11 111 2.11 188 2.11 109 2.11
  10  0.100  0.200  0.503- 108 2.11 107 2.11 104 2.11 127 2.11 110 2.11
  11  0.000  0.400  0.407- 109 2.11 113 2.11 114 2.11 194 2.11 111 2.11
  12  0.100  0.500  0.407- 113 2.11 114 2.11 118 2.11 133 2.11 112 2.11
  13  0.000  0.500  0.503- 111 2.11 112 2.11 115 2.11 192 2.11 113 2.11
  14  0.100  0.400  0.503- 108 2.11 111 2.11 112 2.11 131 2.11 114 2.11
  15  0.000  0.600  0.407- 113 2.11 117 2.11 118 2.11 198 2.11 115 2.11
  16  0.100  0.700  0.407- 122 2.11 118 2.11 117 2.11 137 2.11 116 2.11
  17  0.000  0.700  0.503- 119 2.11 116 2.11 115 2.11 196 2.11 117 2.11
  18  0.100  0.600  0.503- 112 2.11 115 2.11 116 2.11 135 2.11 118 2.11
  19  0.000  0.800  0.407- 117 2.11 121 2.11 122 2.11 202 2.11 119 2.11
  20  0.100  0.900  0.407- 106 2.11 121 2.11 122 2.11 141 2.11 120 2.11
  21  0.000  0.900  0.503- 103 2.11 119 2.11 120 2.11 200 2.11 121 2.11
  22  0.100  0.800  0.503- 116 2.11 119 2.11 120 2.11 139 2.11 122 2.11
  23  0.200  0.000  0.407- 126 2.11 125 2.11 106 2.11 141 2.11 123 2.11
  24  0.300  0.100  0.407- 125 2.11 126 2.11 130 2.11 145 2.11 124 2.11
  25  0.200  0.100  0.503- 124 2.11 123 2.11 104 2.11 127 2.11 125 2.11
  26  0.300  0.000  0.503- 123 2.11 124 2.11 140 2.11 143 2.11 126 2.11
  27  0.200  0.200  0.407- 129 2.11 130 2.11 110 2.11 125 2.11 127 2.11
  28  0.300  0.300  0.407- 129 2.11 130 2.11 134 2.11 149 2.11 128 2.11
  29  0.200  0.300  0.503- 127 2.11 128 2.11 108 2.11 131 2.11 129 2.11
  30  0.300  0.200  0.503- 127 2.11 128 2.11 124 2.11 147 2.11 130 2.11
  31  0.200  0.400  0.407- 134 2.11 129 2.11 133 2.11 114 2.11 131 2.11
  32  0.300  0.500  0.407- 133 2.11 134 2.11 138 2.11 153 2.11 132 2.11
  33  0.200  0.500  0.503- 132 2.11 131 2.11 112 2.11 135 2.11 133 2.11
  34  0.300  0.400  0.503- 131 2.11 128 2.11 132 2.11 151 2.11 134 2.11
  35  0.200  0.600  0.407- 138 2.11 133 2.11 137 2.11 118 2.11 135 2.11
  36  0.300  0.700  0.407- 137 2.11 142 2.11 138 2.11 157 2.11 136 2.11
  37  0.200  0.700  0.503- 136 2.11 139 2.11 116 2.11 135 2.11 137 2.11
  38  0.300  0.600  0.503- 135 2.11 132 2.11 136 2.11 155 2.11 138 2.11
  39  0.200  0.800  0.407- 137 2.11 142 2.11 141 2.11 122 2.11 139 2.11
  40  0.300  0.900  0.407- 141 2.11 126 2.11 142 2.11 161 2.11 140 2.11
  41  0.200  0.900  0.503- 140 2.11 123 2.11 139 2.11 120 2.11 141 2.11
  42  0.300  0.800  0.503- 136 2.11 139 2.11 140 2.11 159 2.11 142 2.11
  43  0.400  0.000  0.407- 126 2.11 145 2.11 146 2.11 161 2.11 143 2.11
  44  0.500  0.100  0.407- 145 2.11 146 2.11 150 2.11 165 2.11 144 2.11
  45  0.400  0.100  0.503- 124 2.11 143 2.11 144 2.11 147 2.11 145 2.11
  46  0.500  0.000  0.503- 143 2.11 144 2.11 160 2.11 163 2.11 146 2.11
  47  0.400  0.200  0.407- 149 2.11 145 2.11 130 2.11 150 2.11 147 2.11
  48  0.500  0.300  0.407- 150 2.11 149 2.11 154 2.11 169 2.11 148 2.11
  49  0.400  0.300  0.503- 147 2.11 128 2.11 148 2.11 151 2.11 149 2.11
  50  0.500  0.200  0.503- 148 2.11 147 2.11 144 2.11 167 2.11 150 2.11
  51  0.400  0.400  0.407- 134 2.11 149 2.11 153 2.11 154 2.11 151 2.11
  52  0.500  0.500  0.407- 153 2.11 154 2.11 158 2.11 173 2.11 152 2.11
  53  0.400  0.500  0.503- 132 2.11 151 2.11 152 2.11 155 2.11 153 2.11   2 2.59
  54  0.500  0.400  0.503- 148 2.11 151 2.11 152 2.11 171 2.11 154 2.11   2 2.59
  55  0.400  0.600  0.407- 138 2.11 153 2.11 157 2.11 158 2.11 155 2.11
  56  0.500  0.700  0.407- 162 2.11 158 2.11 157 2.11 177 2.11 156 2.11
  57  0.400  0.700  0.503- 159 2.11 155 2.11 156 2.11 136 2.11 157 2.11
  58  0.500  0.600  0.503- 152 2.11 155 2.11 156 2.11 175 2.11 158 2.11
  59  0.400  0.800  0.407- 157 2.11 142 2.11 161 2.11 162 2.11 159 2.11
  60  0.500  0.900  0.407- 146 2.11 161 2.11 162 2.11 181 2.11 160 2.11
[...]
 188  0.900  0.300  0.503-  90 2.11  89 2.11   9 2.11  94 2.11  88 2.11
 189  0.800  0.300  0.407-  68 2.11  87 2.11  88 2.11  91 2.11  89 2.11
 190  0.900  0.200  0.407-  88 2.11  84 2.11  87 2.11   7 2.11  90 2.11
 191  0.800  0.400  0.503-  74 2.11  89 2.11  93 2.11  94 2.11  91 2.11
 192  0.900  0.500  0.503-  13 2.11  93 2.11  94 2.11  98 2.11  92 2.11
 193  0.800  0.500  0.407-  72 2.11  91 2.11  92 2.11  95 2.11  93 2.11
 194  0.900  0.400  0.407-  11 2.11  88 2.11  91 2.11  92 2.11  94 2.11
 195  0.800  0.600  0.503-  78 2.11  93 2.11  97 2.11  98 2.11  95 2.11
 196  0.900  0.700  0.503- 102 2.11  97 2.11  98 2.11  17 2.11  96 2.11
 197  0.800  0.700  0.407-  76 2.11  99 2.11  96 2.11  95 2.11  97 2.11
 198  0.900  0.600  0.407-  15 2.11  92 2.11  95 2.11  96 2.11  98 2.11
 199  0.800  0.800  0.503-  82 2.11  97 2.11 101 2.11 102 2.11  99 2.11
 200  0.900  0.900  0.503-  21 2.11  86 2.11 101 2.11 102 2.11 100 2.11
 201  0.800  0.900  0.407-  80 2.11  83 2.11  99 2.11 100 2.11 101 2.11
 202  0.900  0.800  0.407-  96 2.11  19 2.11  99 2.11 100 2.11 102 2.11

  LATTYP: Found a simple tetragonal cell.
 ALAT       =    21.1388521970
 C/A-ratio  =     1.0461251639

  Lattice vectors:

 A1 = (  21.1388521970,   0.0000000000,   0.0000000000)
 A2 = (   0.0000000000,  21.1388521970,   0.0000000000)
 A3 = (   0.0000000000,   0.0000000000,  22.1138852197)

Analysis of symmetry for initial positions (statically):
 Subroutine PRICEL returns:
 Original cell was already a primitive cell.

 Routine SETGRP: Setting up the symmetry group for a
 simple tetragonal supercell.

 Subroutine GETGRP returns: Found  4 space group operations
 (whereof  2 operations were pure point group operations)
 out of a pool of 16 trial point group operations.

The static configuration has the point symmetry C_1h.
 The point group associated with its full space group is C_2v.

Analysis of symmetry for dynamics (positions and initial velocities):
 Subroutine PRICEL returns:
 Original cell was already a primitive cell.

 Routine SETGRP: Setting up the symmetry group for a
 simple tetragonal supercell.

 Subroutine GETGRP returns: Found  4 space group operations
 (whereof  2 operations were pure point group operations)
 out of a pool of 16 trial point group operations.

The dynamic configuration has the point symmetry C_1h.
 The point group associated with its full space group is C_2v.

 Subroutine INISYM returns: Found  4 space group operations
 (whereof  2 operations are pure point group operations),
[...]
     54     -42.9141      2.00000
     55     -42.9137      2.00000
     56     -42.9130      2.00000
     57     -42.9130      2.00000
     58     -42.9130      2.00000
     59     -42.9128      2.00000
     60     -42.9114      2.00000
[...]
   1010       7.3350      0.00000
   1011       7.3814      0.00000
   1012       7.4154      0.00000
   1013       7.4241      0.00000
   1014       7.4477      0.00000
   1015       7.4623      0.00000
   1016       7.4802      0.00000
   1017       7.8877      0.00000
   1018       8.0131      0.00000
   1019       8.0518      0.00000
   1020       8.0705      0.00000
   1021       8.0971      0.00000
   1022       8.1357      0.00000
   1023       8.1627      0.00000
   1024       8.2227      0.00000

 soft charge-density along one line, spin component           1
         0         1         2         3         4         5         6         7         8         9
 total charge-density along one line

------------------------ aborting loop because EDIFF is reached ----------------------------------------

  FORCE on cell =-STRESS in cart. coord.  units (eV):
  Direction    XX          YY          ZZ          XY          YZ          ZX
  Alpha Z  1354.41543  1354.41543  1354.41543
  Ewald  477360.44773477360.44773************   -13.54576    -0.00002     0.00002
  Hartree506266.84380506266.84375************    -3.69160    -0.00001     0.00001
  E(xc)   -7804.28844 -7804.28844 -7853.27284     0.01412     0.00000    -0.00000
  Local  ************************************    15.79341     0.00002    -0.00002
  n-local -8755.20961 -8755.20960 -8879.73029    -0.73212     0.00000    -0.00000
  augment  3467.41854  3467.41853  3403.61985     0.96918     0.00000    -0.00000
  Kinetic 22882.10608 22882.10609 23123.12363    -0.22073     0.00001    -0.00002
  Fock        0.00000     0.00000     0.00000     0.00000     0.00000     0.00000
  vdW       -53.96127   -53.96127   -24.87320     0.02884     0.00000    -0.00000
  Total    -157.66578  -157.66578    15.75343    -1.38467     0.00000     0.00000
  in kB     -25.56349   -25.56349     2.55422    -0.22451     0.00000     0.00000

 VOLUME and BASIS-vectors are now :
  energy-cutoff  :      520.00
  volume of cell :     9881.61
      direct lattice vectors                 reciprocal lattice vectors
    21.138852197  0.000000000  0.000000000     0.047306258  0.000000000  0.000000000
     0.000000000 21.138852197  0.000000000     0.000000000  0.047306258  0.000000000
     0.000000000  0.000000000 22.113885220     0.000000000  0.000000000  0.045220457

  length of vectors
    21.138852197 21.138852197 22.113885220     0.047306258  0.047306258  0.045220457

 FORCES acting on ions:
    Electron-Ion                     Ewald-Force                    Non-Local-Force
   0.227E-04 -.995E-04 -.196E+04   0.441E-07 -.340E-07 0.195E+04   0.000E+00 -.265E-22 0.131E+02
   0.157E-04 -.909E-04 -.185E+04   0.798E-05 -.860E-05 0.186E+04   0.000E+00 0.212E-21 -.108E+02
   0.175E+01 0.175E+01 0.931E+03   -.176E+01 -.176E+01 -.923E+03   0.443E-02 0.443E-02 -.753E+01
   0.621E+01 0.621E+01 0.933E+03   -.623E+01 -.623E+01 -.925E+03   0.178E-01 0.178E-01 -.753E+01
   0.286E+01 0.585E+01 -.922E+03   -.287E+01 -.585E+01 0.914E+03   0.975E-02 0.541E-02 0.749E+01
   0.585E+01 0.286E+01 -.922E+03   -.585E+01 -.287E+01 0.914E+03   0.541E-02 0.975E-02 0.749E+01
   0.317E+01 0.617E+01 0.933E+03   -.320E+01 -.618E+01 -.925E+03   0.179E-01 0.851E-02 -.753E+01
   0.129E+02 0.759E+01 0.938E+03   -.129E+02 -.760E+01 -.930E+03   0.643E-01 0.983E-02 -.754E+01
   0.603E+01 0.673E+01 -.919E+03   -.606E+01 -.673E+01 0.912E+03   0.176E-01 0.221E-02 0.749E+01
   0.126E+02 0.113E+02 -.919E+03   -.127E+02 -.113E+02 0.911E+03   0.341E-01 0.100E-01 0.749E+01
   0.513E+01 0.209E+01 0.936E+03   -.516E+01 -.209E+01 -.928E+03   0.211E-01 -.132E-03 -.754E+01
   0.157E+02 -.310E+01 0.940E+03   -.158E+02 0.312E+01 -.932E+03   0.564E-01 -.153E-01 -.755E+01
   0.738E+01 -.269E+01 -.918E+03   -.739E+01 0.270E+01 0.911E+03   0.375E-02 -.408E-02 0.748E+01
   0.242E+02 0.449E+01 -.913E+03   -.242E+02 -.448E+01 0.906E+03   0.439E-01 -.831E-02 0.748E+01
   0.433E+01 -.527E+01 0.935E+03   -.434E+01 0.528E+01 -.927E+03   0.344E-02 -.785E-02 -.754E+01
   0.915E+01 -.845E+01 0.935E+03   -.916E+01 0.847E+01 -.927E+03   0.134E-01 -.140E-01 -.754E+01
   0.429E+01 -.774E+01 -.921E+03   -.428E+01 0.774E+01 0.913E+03   -.511E-02 -.414E-02 0.749E+01
   0.190E+02 -.106E+02 -.916E+03   -.190E+02 0.106E+02 0.908E+03   0.691E-02 -.103E-01 0.748E+01
   0.226E+01 -.474E+01 0.932E+03   -.226E+01 0.475E+01 -.924E+03   -.172E-02 -.494E-02 -.753E+01
   0.474E+01 -.226E+01 0.932E+03   -.475E+01 0.226E+01 -.924E+03   0.494E-02 0.172E-02 -.753E+01
   0.215E+01 -.215E+01 -.923E+03   -.215E+01 0.215E+01 0.915E+03   -.586E-03 0.586E-03 0.749E+01
   0.808E+01 -.808E+01 -.921E+03   -.808E+01 0.808E+01 0.913E+03   0.121E-02 -.121E-02 0.749E+01
   0.617E+01 0.317E+01 0.933E+03   -.618E+01 -.320E+01 -.925E+03   0.851E-02 0.179E-01 -.753E+01
   0.759E+01 0.129E+02 0.938E+03   -.760E+01 -.129E+02 -.930E+03   0.983E-02 0.643E-01 -.754E+01
   0.113E+02 0.126E+02 -.919E+03   -.113E+02 -.127E+02 0.911E+03   0.100E-01 0.341E-01 0.749E+01
   0.673E+01 0.604E+01 -.919E+03   -.673E+01 -.606E+01 0.912E+03   0.221E-02 0.176E-01 0.749E+01
   0.133E+02 0.133E+02 0.940E+03   -.134E+02 -.134E+02 -.932E+03   0.522E-01 0.522E-01 -.754E+01
   0.226E+02 0.226E+02 0.961E+03   -.228E+02 -.228E+02 -.953E+03   0.152E+00 0.152E+00 -.754E+01
   0.338E+02 0.214E+02 -.906E+03   -.340E+02 -.214E+02 0.898E+03   0.142E+00 0.338E-03 0.747E+01
   0.214E+02 0.338E+02 -.906E+03   -.214E+02 -.340E+02 0.898E+03   0.338E-03 0.142E+00 0.747E+01
   0.265E+02 0.578E+01 0.952E+03   -.268E+02 -.577E+01 -.944E+03   0.227E+00 -.738E-02 -.760E+01
   0.330E+02 -.111E+02 0.977E+03   -.333E+02 0.113E+02 -.969E+03   0.236E+00 -.148E+00 -.765E+01
   0.483E+02 -.101E+02 -.898E+03   -.484E+02 0.102E+02 0.890E+03   0.630E-01 -.311E-01 0.745E+01
   0.848E+02 0.290E+02 -.852E+03   -.861E+02 -.289E+02 0.845E+03   0.101E+01 -.108E+00 0.741E+01
   0.204E+02 -.131E+02 0.947E+03   -.205E+02 0.131E+02 -.939E+03   0.645E-01 -.492E-01 -.756E+01
   0.131E+02 -.204E+02 0.947E+03   -.131E+02 0.205E+02 -.939E+03   0.492E-01 -.645E-01 -.756E+01
   0.198E+02 -.198E+02 -.914E+03   -.198E+02 0.198E+02 0.906E+03   0.973E-02 -.973E-02 0.747E+01
   0.463E+02 -.463E+02 -.884E+03   -.464E+02 0.464E+02 0.877E+03   0.622E-01 -.622E-01 0.741E+01
   0.845E+01 -.915E+01 0.935E+03   -.847E+01 0.916E+01 -.927E+03   0.140E-01 -.134E-01 -.754E+01
   0.527E+01 -.433E+01 0.935E+03   -.528E+01 0.434E+01 -.927E+03   0.785E-02 -.344E-02 -.754E+01
   0.774E+01 -.429E+01 -.921E+03   -.774E+01 0.428E+01 0.913E+03   0.414E-02 0.511E-02 0.749E+01
   0.106E+02 -.190E+02 -.916E+03   -.106E+02 0.190E+02 0.908E+03   0.103E-01 -.691E-02 0.748E+01
   0.209E+01 0.513E+01 0.936E+03   -.209E+01 -.516E+01 -.928E+03   -.132E-03 0.211E-01 -.754E+01
   -.310E+01 0.157E+02 0.940E+03   0.312E+01 -.158E+02 -.932E+03   -.153E-01 0.564E-01 -.755E+01
   0.449E+01 0.242E+02 -.913E+03   -.448E+01 -.242E+02 0.906E+03   -.831E-02 0.439E-01 0.748E+01
   -.269E+01 0.738E+01 -.918E+03   0.270E+01 -.739E+01 0.911E+03   -.408E-02 0.375E-02 0.748E+01
   0.578E+01 0.265E+02 0.952E+03   -.577E+01 -.268E+02 -.944E+03   -.738E-02 0.227E+00 -.760E+01
   -.111E+02 0.330E+02 0.977E+03   0.113E+02 -.333E+02 -.969E+03   -.148E+00 0.236E+00 -.765E+01
   0.290E+02 0.848E+02 -.852E+03   -.289E+02 -.861E+02 0.845E+03   -.108E+00 0.101E+01 0.741E+01
   -.101E+02 0.483E+02 -.898E+03   0.102E+02 -.484E+02 0.890E+03   -.311E-01 0.630E-01 0.745E+01
   0.186E+02 0.186E+02 0.101E+04   -.186E+02 -.186E+02 -.100E+04   0.342E-02 0.342E-02 -.652E+01
   -.186E+02 -.186E+02 0.101E+04   0.186E+02 0.186E+02 -.100E+04   -.342E-02 -.342E-02 -.652E+01
   0.888E+02 -.888E+02 -.717E+03   -.903E+02 0.903E+02 0.710E+03   0.827E+00 -.827E+00 0.607E+01
   -.888E+02 0.888E+02 -.717E+03   0.903E+02 -.903E+02 0.710E+03   -.827E+00 0.827E+00 0.607E+01
   0.111E+02 -.330E+02 0.977E+03   -.113E+02 0.333E+02 -.969E+03   0.148E+00 -.236E+00 -.765E+01
   -.578E+01 -.265E+02 0.952E+03   0.577E+01 0.268E+02 -.944E+03   0.738E-02 -.227E+00 -.760E+01
   0.101E+02 -.483E+02 -.898E+03   -.102E+02 0.484E+02 0.890E+03   0.311E-01 -.630E-01 0.745E+01
   -.290E+02 -.848E+02 -.852E+03   0.289E+02 0.861E+02 0.845E+03   0.108E+00 -.101E+01 0.741E+01
   0.310E+01 -.157E+02 0.940E+03   -.312E+01 0.158E+02 -.932E+03   0.153E-01 -.564E-01 -.755E+01
   -.209E+01 -.513E+01 0.936E+03   0.209E+01 0.516E+01 -.928E+03   0.132E-03 -.211E-01 -.754E+01
[...]
   -.968E+01 0.569E+01 0.705E+03   0.970E+01 -.570E+01 -.709E+03   -.261E-01 0.235E-01 0.343E+01
   -.240E+01 0.463E+01 0.701E+03   0.240E+01 -.464E+01 -.705E+03   0.552E-03 0.952E-02 0.344E+01
   -.182E+02 0.335E+01 -.687E+03   0.182E+02 -.336E+01 0.691E+03   -.269E-01 0.187E-01 -.354E+01
   -.553E+01 -.202E+01 -.690E+03   0.554E+01 0.202E+01 0.694E+03   -.123E-01 0.177E-02 -.352E+01
   -.118E+02 -.234E+01 0.707E+03   0.119E+02 0.234E+01 -.711E+03   -.553E-01 0.506E-02 0.343E+01
   -.386E+01 0.156E+01 0.703E+03   0.387E+01 -.157E+01 -.707E+03   -.956E-02 0.694E-02 0.344E+01
   -.143E+02 -.795E+01 -.688E+03   0.143E+02 0.796E+01 0.692E+03   -.416E-01 -.600E-02 -.353E+01
   -.320E+01 -.580E+01 -.692E+03   0.321E+01 0.581E+01 0.696E+03   -.140E-01 -.759E-02 -.351E+01
   -.684E+01 -.633E+01 0.703E+03   0.687E+01 0.635E+01 -.707E+03   -.375E-01 -.251E-01 0.344E+01
   -.324E+01 -.396E+01 0.702E+03   0.325E+01 0.396E+01 -.707E+03   -.185E-01 -.748E-02 0.344E+01
   -.604E+01 -.604E+01 -.692E+03   0.606E+01 0.606E+01 0.696E+03   -.188E-01 -.188E-01 -.351E+01
   -.161E+01 -.161E+01 -.694E+03   0.161E+01 0.161E+01 0.698E+03   -.443E-02 -.443E-02 -.350E+01
   -.355E+01 -.168E+01 0.700E+03   0.356E+01 0.169E+01 -.704E+03   -.991E-02 -.105E-01 0.345E+01
   -.168E+01 -.355E+01 0.700E+03   0.169E+01 0.356E+01 -.704E+03   -.105E-01 -.991E-02 0.345E+01
   -.302E-01 0.151E-01 0.400E+01   0.298E-12 0.127E-11 0.114E-10   0.104E-15 -.229E-15 -.461E+01

 POSITION                                       TOTAL-FORCE (eV/Angst)
      9.51248      9.51248     15.45078         0.000000     -0.000000      0.192470
      9.51248      9.51248     13.22359         0.000000     -0.000000     -0.137126
      0.00000      0.00000      9.00000        -0.001221     -0.001221      0.314551
      2.11389      2.11389      9.00000        -0.004941     -0.004941      0.314794
      0.00000      2.11389     11.11389        -0.002569     -0.001495     -0.303495
      2.11389      0.00000     11.11389        -0.001495     -0.002569     -0.303495
      0.00000      4.22777      9.00000        -0.004703     -0.002398      0.315300
      2.11389      6.34166      9.00000        -0.016726     -0.002866      0.317488
      0.00000      6.34166     11.11389        -0.004389     -0.000607     -0.301310
      2.11389      4.22777     11.11389        -0.008632     -0.002849     -0.300399
      0.00000      8.45554      9.00000        -0.005455      0.000059      0.316401
      2.11389     10.56943      9.00000        -0.014792      0.004499      0.319055
      0.00000     10.56943     11.11389        -0.000678      0.001161     -0.300462
      2.11389      8.45554     11.11389        -0.009306      0.002554     -0.295112
      0.00000     12.68331      9.00000        -0.000918      0.002191      0.316035
      2.11389     14.79720      9.00000        -0.003524      0.003729      0.316565
      0.00000     14.79720     11.11389         0.001425      0.001094     -0.302456
      2.11389     12.68331     11.11389        -0.000882      0.002679     -0.297211
      0.00000     16.91108      9.00000         0.000461      0.001364      0.314945
      2.11389     19.02497      9.00000        -0.001364     -0.000461      0.314945
      0.00000     19.02497     11.11389         0.000155     -0.000155     -0.304095
      2.11389     16.91108     11.11389        -0.000226      0.000226     -0.302480
      4.22777      0.00000      9.00000        -0.002398     -0.004703      0.315300
      6.34166      2.11389      9.00000        -0.002866     -0.016726      0.317488
      4.22777      2.11389     11.11389        -0.002849     -0.008632     -0.300399
      6.34166      0.00000     11.11389        -0.000607     -0.004389     -0.301310
      4.22777      4.22777      9.00000        -0.014777     -0.014777      0.315024
      6.34166      6.34166      9.00000        -0.050296     -0.050296      0.306164
      4.22777      6.34166     11.11389        -0.033078      0.000109     -0.286990
      6.34166      4.22777     11.11389         0.000109     -0.033078     -0.286990
      4.22777      8.45554      9.00000        -0.055520      0.002580      0.329881
      6.34166     10.56943      9.00000        -0.063602      0.047662      0.335168
      4.22777     10.56943     11.11389        -0.009796      0.008514     -0.272851
      6.34166      8.45554     11.11389        -0.265453      0.048886     -0.194687
      4.22777     12.68331      9.00000        -0.017066      0.013278      0.322791
      6.34166     14.79720      9.00000        -0.013278      0.017066      0.322791
      4.22777     14.79720     11.11389        -0.001598      0.001598     -0.294890
      6.34166     12.68331     11.11389         0.001249     -0.001249     -0.242276
      4.22777     16.91108      9.00000        -0.003729      0.003524      0.316565
      6.34166     19.02497      9.00000        -0.002191      0.000918      0.316035
      4.22777     19.02497     11.11389        -0.001094     -0.001425     -0.302456
      6.34166     16.91108     11.11389        -0.002679      0.000882     -0.297211
      8.45554      0.00000      9.00000         0.000059     -0.005455      0.316401
     10.56943      2.11389      9.00000         0.004499     -0.014792      0.319055
      8.45554      2.11389     11.11389         0.002554     -0.009306     -0.295112
     10.56943      0.00000     11.11389         0.001161     -0.000678     -0.300462
      8.45554      4.22777      9.00000         0.002580     -0.055520      0.329881
     10.56943      6.34166      9.00000         0.047662     -0.063602      0.335168
      8.45554      6.34166     11.11389         0.048886     -0.265453     -0.194687
     10.56943      4.22777     11.11389         0.008514     -0.009796     -0.272851
      8.45554      8.45554      9.00000         0.003342      0.003342      0.070766
     10.56943     10.56943      9.00000        -0.003342     -0.003342      0.070766
      8.45554     10.56943     11.11389        -0.621057      0.621057     -0.683243
     10.56943      8.45554     11.11389         0.621057     -0.621057     -0.683243
      8.45554     12.68331      9.00000        -0.047662      0.063602      0.335168
     10.56943     14.79720      9.00000        -0.002580      0.055520      0.329881
      8.45554     14.79720     11.11389        -0.008514      0.009796     -0.272851
     10.56943     12.68331     11.11389        -0.048886      0.265453     -0.194687
      8.45554     16.91108      9.00000        -0.004499      0.014792      0.319055
     10.56943     19.02497      9.00000        -0.000059      0.005455      0.316401
[...]
     19.02497      6.34166     11.11389         0.000059      0.001840      0.494852
     16.91108      6.34166      9.00000        -0.007254      0.006533     -0.512870
     19.02497      4.22777      9.00000         0.000158      0.002639     -0.509986
     16.91108      8.45554     11.11389        -0.007818      0.005214      0.487790
     19.02497     10.56943     11.11389        -0.003470      0.000490      0.493825
     16.91108     10.56943      9.00000        -0.015406      0.001353     -0.513492
     19.02497      8.45554      9.00000        -0.002658      0.001926     -0.511121
     16.91108     12.68331     11.11389        -0.011692     -0.001735      0.490898
     19.02497     14.79720     11.11389        -0.003886     -0.002119      0.496262
     16.91108     14.79720      9.00000        -0.010371     -0.006943     -0.510215
     19.02497     12.68331      9.00000        -0.005112     -0.002088     -0.510456
     16.91108     16.91108     11.11389        -0.005183     -0.005183      0.496494
     19.02497     19.02497     11.11389        -0.001225     -0.001225      0.498010
     16.91108     19.02497      9.00000        -0.002732     -0.002892     -0.509295
     19.02497     16.91108      9.00000        -0.002892     -0.002732     -0.509295
    total drift:                               -0.030164      0.015082     -0.610517

  FREE ENERGIE OF THE ION-ELECTRON SYSTEM (eV)
  free  energy   TOTEN  =     -1131.16297150 eV

  energy  without entropy=    -1131.16297150  energy(sigma->0) =    -1131.16297150