 vasp.6.4.0 14Feb23 (build Mar 22 2023 21:21:37) complex

 executed on           IFC15_impi date 2023.05.05  18:57:52

 INCAR:
   SYSTEM = MgO-rocksalt
   ISMEAR = 0
   SIGMA = 0.05
   EDIFF = 1E-6
   ALGO = ALL
   ISTART = 0
   IBRION = -1
   NSW = 0
   ISYM = 2
   DIPOL = 0.5 0.5 0.5
   IDIPOL = 3
   LDIPOL = .TRUE.
   GGA = RE
   IVDW = 12
   VDW_A1 = 0.5238
   VDW_S8 = 2.3550
   VDW_A2 = 3.5016
   ENCUT = 520
   PREC = Accurate
   LASPH = .TRUE.
   LREAL = Auto
   ISPIN = 1
   NELM = 200
   NELMIN = 8
   NCORE = 4
   KPAR = 2
   LWAVE = .FALSE.
   LCHARG = .FALSE.

 POTCAR:    PAW_PBE Au 04Oct2007
 POTCAR:    PAW_PBE Mg_pv 13Apr2007
 POTCAR:    PAW_PBE O 08Apr2002
 POTCAR:    PAW_PBE Au 04Oct2007
   VRHFIN =Au: s1d10

   TITEL  = PAW_PBE Au 04Oct2007
   POMASS =  196.966; ZVAL   =   11.000    mass and valenz
   ENMAX  =  229.943; ENMIN  =  172.457 eV

   TITEL  = PAW_PBE Mg_pv 13Apr2007
   POMASS =   24.305; ZVAL   =    8.000    mass and valenz
   ENMAX  =  403.929; ENMIN  =  302.947 eV

   TITEL  = PAW_PBE O 08Apr2002
   POMASS =   16.000; ZVAL   =    6.000    mass and valenz
   ENMAX  =  400.000; ENMIN  =  300.000 eV

 Optimization of the real space projectors (new method)

 maximal supplied QI-value         = 15.12
 optimisation between [QCUT,QGAM] = [ 11.64, 23.28] = [ 37.95,151.78] Ry
 Optimized for a Real-space Cutoff    1.49 Angstroem

   l    n(q)    QCUT    max X(q) W(low)/X(q) W(high)/X(q)  e(spline)
   2      9    11.641    60.898    0.24E-03    0.10E-03    0.19E-06
   2      9    11.641    58.894    0.25E-03    0.10E-03    0.19E-06
   0     10    11.641   109.617    0.73E-04    0.33E-04    0.11E-06
   0     10    11.641    75.026    0.71E-04    0.32E-04    0.11E-06
   1     10    11.641    16.344    0.27E-04    0.97E-04    0.16E-06
   1     10    11.641    10.160    0.23E-04    0.77E-04    0.13E-06
 Optimization of the real space projectors (new method)

[...]

   l    n(q)    QCUT    max X(q) W(low)/X(q) W(high)/X(q)  e(spline)
   1      8    11.527     2.974    0.44E-04    0.56E-04    0.12E-06
   1      8    11.527     4.279    0.12E-03    0.12E-03    0.26E-06
   0      9    11.527    16.381    0.46E-04    0.64E-04    0.78E-07
   0      9    11.527     5.611    0.26E-04    0.43E-04    0.55E-07
   2      8    11.527     4.652    0.22E-03    0.72E-04    0.47E-07
 Optimization of the real space projectors (new method)

 maximal supplied QI-value         = 24.76
 optimisation between [QCUT,QGAM] = [ 11.64, 23.27] = [ 37.91,151.63] Ry
 Optimized for a Real-space Cutoff    1.14 Angstroem

   l    n(q)    QCUT    max X(q) W(low)/X(q) W(high)/X(q)  e(spline)
   0      8    11.635    20.381    0.10E-03    0.33E-03    0.24E-06
   0      8    11.635    15.268    0.11E-03    0.35E-03    0.26E-06
   1      7    11.635     5.964    0.24E-03    0.31E-03    0.30E-06
   1      7    11.635     5.382    0.22E-03    0.25E-03    0.26E-06
|               ----> ADVICE to this user running VASP <----                  |
|     You enforced a specific xc type in the INCAR file but a different       |
|     type was found in the POTCAR file.                                      |
|     I HOPE YOU KNOW WHAT YOU ARE DOING!                                     |

  PAW_PBE Au 04Oct2007                  :
  PAW_PBE Mg_pv 13Apr2007               :
  PAW_PBE O 08Apr2002                   :

 POSCAR: Mg  O
  positions in direct lattice
  velocities in cartesian coordinates
 exchange correlation table for  LEXCH =       40
   RHO(1)=    0.500       N(1)  =     2000
   RHO(2)=  100.500       N(2)  =     4000

 ion  position               nearest neighbor table
   1  0.498  0.433  0.611-  11 2.70  17 2.71  13 2.72   3 2.73   4 2.76   8 2.78
   2  0.326  0.314  0.579- 246 2.42  14 2.70  13 2.70  19 2.73  11 2.77  67 2.88  52 3.07
   3  0.558  0.545  0.592-   9 2.71   8 2.73   1 2.73  17 2.75  91 3.03
   4  0.567  0.324  0.619-  17 2.70   7 2.70  15 2.71  13 2.71   6 2.75   1 2.76
   5  0.449  0.096  0.604-  10 2.66  19 2.71   7 2.81
   6  0.637  0.214  0.618-   7 2.71  15 2.71  16 2.72   4 2.75  20 2.77  10 2.77
   7  0.510  0.210  0.625-  19 2.68   4 2.70   6 2.71  10 2.74  13 2.76   5 2.81
   8  0.428  0.542  0.592-  11 2.69   3 2.73   1 2.78  71 2.93
   9  0.685  0.549  0.597-  18 2.67   3 2.71  17 2.72
  10  0.574  0.099  0.611-  16 2.63   5 2.66   7 2.74   6 2.77
  11  0.370  0.431  0.607-  14 2.65   8 2.69   1 2.70   2 2.77  13 2.80
  12  0.820  0.335  0.592-  18 2.67  15 2.70  20 2.75 107 2.87
  13  0.439  0.320  0.621-   2 2.70   4 2.71   1 2.72   7 2.76  19 2.76  11 2.80
  14  0.251  0.417  0.581- 249 2.61  11 2.65   2 2.70  52 2.70
  15  0.695  0.328  0.609-  12 2.70  17 2.71   4 2.71   6 2.71  20 2.75  18 2.80
  16  0.687  0.112  0.575- 282 2.27  10 2.63   6 2.72  20 2.76  83 2.93  88 2.98
  17  0.626  0.436  0.607-   4 2.70  15 2.71   1 2.71   9 2.72   3 2.75  18 2.78
  18  0.756  0.444  0.596-   9 2.67  12 2.67  17 2.78  15 2.80
  19  0.403  0.210  0.577- 265 2.29   7 2.68   5 2.71   2 2.73  13 2.76  67 3.04
  20  0.759  0.221  0.584- 305 2.65  12 2.75  15 2.75  16 2.76   6 2.77  88 2.86
  21  0.000  1.000  0.430- 239 2.11 224 2.11 304 2.11 321 2.12 223 2.12 221 2.13
  22  0.100  0.100  0.430- 224 2.11 223 2.11 243 2.11 322 2.12 228 2.12 222 2.13
  23  0.000  0.099  0.500- 302 2.10 222 2.11 223 2.11 221 2.11 225 2.12
  24  0.100  0.999  0.500- 224 2.11 238 2.11 221 2.11 241 2.11 222 2.12
  25  1.000  0.200  0.430- 227 2.11 228 2.11 223 2.11 308 2.12 325 2.12 225 2.14
  26  0.100  0.300  0.430- 227 2.11 232 2.11 228 2.11 247 2.12 326 2.12 226 2.14
  27  0.000  0.300  0.500- 226 2.11 227 2.11 306 2.11 229 2.11 225 2.12
  28  0.099  0.200  0.500- 225 2.10 228 2.11 245 2.11 222 2.11 226 2.13
  29  1.000  0.400  0.430- 312 2.10 231 2.11 227 2.12 329 2.12 232 2.13 229 2.14
  30  0.100  0.500  0.430- 231 2.11 236 2.11 251 2.11 232 2.12 330 2.12 230 2.13
  31  1.000  0.501  0.500- 310 2.10 233 2.10 231 2.11 230 2.12 229 2.12
  32  0.098  0.401  0.500- 229 2.08 230 2.10 232 2.11 249 2.12 226 2.13
  33  1.000  0.600  0.430- 316 2.11 235 2.11 231 2.12 236 2.12 333 2.12 233 2.13
  34  0.100  0.700  0.430- 235 2.11 240 2.11 255 2.11 236 2.11 334 2.12 234 2.13
  35  1.000  0.700  0.500- 235 2.11 314 2.11 233 2.11 237 2.11 234 2.11
  36  0.100  0.601  0.500- 234 2.11 233 2.11 236 2.11 253 2.12 230 2.12
  37  1.000  0.800  0.430- 235 2.11 320 2.11 240 2.11 239 2.12 337 2.12 237 2.13
  38  0.100  0.900  0.430- 240 2.11 239 2.11 259 2.11 224 2.12 338 2.12 238 2.13
  39  0.000  0.899  0.500- 239 2.10 237 2.11 238 2.11 318 2.11 221 2.12
  40  0.100  0.800  0.500- 240 2.11 234 2.11 237 2.11 257 2.11 238 2.11
  41  0.200  1.000  0.430- 259 2.11 224 2.11 244 2.11 341 2.12 243 2.12 241 2.13
  42  0.300  0.099  0.430- 244 2.10 263 2.11 243 2.11 342 2.12 248 2.13 242 2.13
  43  0.199  0.099  0.500- 241 2.10 222 2.10 243 2.11 242 2.12 245 2.13
  44  0.300  0.999  0.500- 258 2.10 244 2.11 241 2.11 261 2.12 242 2.12
  45  0.199  0.200  0.430- 228 2.10 243 2.11 345 2.12 248 2.12 247 2.13 245 2.14
  46  0.300  0.300  0.429- 267 2.10 252 2.10 346 2.11 248 2.11 247 2.11 246 2.16
  47  0.198  0.299  0.500- 226 2.08 247 2.11 245 2.11 246 2.12 249 2.13
  48  0.297  0.198  0.500- 245 2.08 242 2.08 248 2.09 246 2.13 265 2.13
  49  0.200  0.400  0.429- 251 2.10 232 2.10 252 2.11 349 2.11 247 2.11 249 2.21
  50  0.300  0.501  0.430- 250 2.10 271 2.10 256 2.11 350 2.12 251 2.12 252 2.14
  51  0.200  0.502  0.500- 253 2.09 251 2.11 250 2.11 230 2.11 249 2.15
  52  0.302  0.402  0.499- 269 2.08 252 2.08 250 2.09 249 2.19 246 2.20  14 2.70   2 3.07
  53  0.200  0.600  0.430- 255 2.11 256 2.11 236 2.11 353 2.12 251 2.13 253 2.13
  54  0.300  0.700  0.430- 256 2.11 275 2.11 260 2.11 255 2.12 354 2.12 254 2.13
  55  0.200  0.700  0.500- 255 2.11 253 2.11 257 2.11 254 2.11 234 2.11
  56  0.300  0.601  0.500- 250 2.10 254 2.11 273 2.11 256 2.11 253 2.12
  57  0.200  0.800  0.430- 255 2.11 260 2.11 240 2.11 259 2.12 357 2.12 257 2.13
  58  0.300  0.900  0.430- 260 2.11 279 2.11 259 2.11 244 2.12 358 2.12 258 2.13
  59  0.200  0.900  0.500- 259 2.11 257 2.11 238 2.11 258 2.11 241 2.12
  60  0.300  0.800  0.500- 260 2.11 254 2.11 258 2.11 277 2.11 257 2.12
[...]
 406  0.900  0.300  0.359- 208 2.11 207 2.11 127 2.11 212 2.11 206 2.11 106 2.12
 407  0.800  0.300  0.289- 186 2.11 205 2.11 206 2.11 209 2.11 207 2.11
 408  0.900  0.200  0.289- 206 2.11 202 2.11 205 2.11 125 2.11 208 2.11
 409  0.800  0.400  0.359- 109 2.11 192 2.11 207 2.11 211 2.11 212 2.11 209 2.11
 410  0.900  0.500  0.359- 131 2.11 211 2.11 212 2.11 216 2.11 210 2.11 110 2.12
 411  0.800  0.500  0.289- 190 2.11 209 2.11 210 2.11 213 2.11 211 2.11
 412  0.900  0.400  0.289- 129 2.11 206 2.11 209 2.11 210 2.11 212 2.11
 413  0.800  0.600  0.359- 196 2.11 211 2.11 215 2.11 216 2.11 213 2.11 113 2.12
 414  0.900  0.700  0.359- 220 2.11 215 2.11 216 2.11 135 2.11 214 2.11 114 2.12
 415  0.800  0.700  0.289- 194 2.11 217 2.11 214 2.11 213 2.11 215 2.11
 416  0.900  0.600  0.289- 133 2.11 210 2.11 213 2.11 214 2.11 216 2.11
 417  0.800  0.800  0.359- 200 2.11 215 2.11 219 2.11 220 2.11 217 2.11 117 2.12
 418  0.900  0.900  0.359- 139 2.11 204 2.11 219 2.11 220 2.11 218 2.11 118 2.12
 419  0.800  0.900  0.289- 198 2.11 201 2.11 217 2.11 218 2.11 219 2.11
 420  0.900  0.800  0.289- 214 2.11 137 2.11 217 2.11 218 2.11 220 2.11

  LATTYP: Found a simple tetragonal cell.
 ALAT       =    21.1388521970
 C/A-ratio  =     1.4191877459

  Lattice vectors:

 A1 = (  21.1388521970,   0.0000000000,   0.0000000000)
 A2 = (   0.0000000000,  21.1388521970,   0.0000000000)
 A3 = (   0.0000000000,   0.0000000000,  30.0000000000)

Analysis of symmetry for initial positions (statically):
 Subroutine PRICEL returns:
 Original cell was already a primitive cell.

 Routine SETGRP: Setting up the symmetry group for a
 simple tetragonal supercell.

 Subroutine GETGRP returns: Found  1 space group operations
 (whereof  1 operations were pure point group operations)
 out of a pool of 16 trial point group operations.

The static configuration has the point symmetry C_1 .

Analysis of symmetry for dynamics (positions and initial velocities):
 Subroutine PRICEL returns:
 Original cell was already a primitive cell.

[...]

The dynamic configuration has the point symmetry C_1 .

Analysis of constrained symmetry for selective dynamics:
 Subroutine PRICEL returns:
 Original cell was already a primitive cell.

 Routine SETGRP: Setting up the symmetry group for a
 simple tetragonal supercell.

 Subroutine GETGRP returns: Found  1 space group operations
 (whereof  1 operations were pure point group operations)
 out of a pool of 16 trial point group operations.

The constrained configuration has the point symmetry C_1 .

 Subroutine INISYM returns: Found  1 space group operations
 (whereof  1 operations are pure point group operations),
 and found     1 'primitive' translations

                                     Primitive cell

  volume of cell :   13405.5322

  direct lattice vectors                    reciprocal lattice vectors
    21.138852197  0.000000000  0.000000000     0.047306258  0.000000000  0.000000000
     0.000000000 21.138852197  0.000000000     0.000000000  0.047306258  0.000000000
[...]
  329                  fftbas_plan_mpi                      19.368220                513   8
  330                    dfftw_execute                        12.473357             1539   9
  331                    map_forward                           6.531668             1026   9
  332                      map_gather                            1.435802            513  10
  333                      m_alltoallv_z                         0.993584            513  10
  334                      map_scatter                           2.271019            513  10
  335            rpromu                                5.609817                      135   5
  336              crrexp_mul_wave                       2.941106                 215460   6
  337              rpromu_gemm                           1.939887                  56700   6
  338              m_sumb_d                              0.074569                    513   6
  339          m_sumb_d                              0.000888                         10   4
  340        m_sumb_d                              0.002399                            6   3
  341        fft3d_mpi                             0.267964                           11   3
  342          fftbrc_mpi                            0.253420                         11   4
  343            fftbas_plan_mpi                       0.253379                       11   5
  344              dfftw_execute                         0.081727                     33   6
  345              map_forward                           0.071187                     10   6
  346                map_gather                            0.015625                    5   7
  347                m_alltoallv_z                         0.047125                    5   7
  348                map_scatter                           0.008292                    5   7
  349              map_backward                          0.091575                     12   6
  350                map_gather                            0.009777                    6   7
  351                m_alltoallv_z                         0.060808                    6   7
  352                map_scatter                           0.020822                    6   7
  353        ggaall_grid                           0.414576                            1   3
  354        forhar                                3.213802                            1   3
  355          m_sumb_d                              0.000190                          1   4
  356        strehar                               0.040510                            1   3
  357          m_sumb_d                              0.004931                          1   4
  358        m_bcast_d                             0.000427                            2   3
  359      potlok                                0.838165                              1   2
  360        fft3d_mpi                             0.314334                           13   3
  361          fftbrc_mpi                            0.293907                         13   4
  362            fftbas_plan_mpi                       0.293858                       13   5
  363              dfftw_execute                         0.100650                     39   6
  364              map_forward                           0.092584                     14   6
  365                map_gather                            0.018785                    8   7
  366                m_alltoallv_z                         0.054108                    8   7
  367                map_scatter                           0.019468                    8   7
  368              map_backward                          0.089514                     12   6
  369                map_gather                            0.009974                    6   7
  370                m_alltoallv_z                         0.059293                    6   7
  371                map_scatter                           0.020075                    6   7
  372        ggaall_grid                           0.415441                            1   3
  373        m_sumb_d                              0.004403                            7   3
  374        fewald                                0.001526                            2   3
  375          rsp                                   0.001412                          2   4
  376          rcp                                   0.000098                          2   4
  377        pothar                                0.004887                            1   3
  378          m_sumb_d                              0.000943                          1   4
  379        m_bcast_d                             0.012862                            1   3
  380      potlok_metagga                        0.000001                              1   2
  381      set_dd_magatom                        0.000002                              1   2
  382      set_dd_paw                            1.110326                              1   2
  383        set_rsgf_all                          0.000002                            1   3
  384        m_sumb_d                              0.800415                            8   3

 Flat profile

 edwav                                 935.256332          50
 lincom                                373.319042         157
 dfftw_execute                         326.325883       41493
 orth1                                 201.561967        7287
 eddav                                 126.047202           5
 wfinit                                 98.845724           1
 m_sumb_d                               79.988962       29676
 ggemm                                  57.179434        1251
 map_scatter                            55.147471       13934
 force_and_stress                       47.008397           1
 fftwav_mpi                             45.811291        9168
 m_alltoall_d                           43.902877       56124
 map_gather                             42.554216       13934
 choleski                               36.595031          51
 eccp                                   34.391509        5985
 total_time                             34.287282           1
 m_alltoallv_z                          33.341984       13934
 map_forward                            32.950167       19076
 eddiag                                 26.682690          26
 ggaall_grid                            22.394550          53
 crrexp_mul_work_add                    21.048201     1004220
 racc0                                  19.808110        2391
 set_dd_paw                             16.402517          53
 crrexp_mul_wave                        16.380750     1195740
 vhamil                                 15.115584        2448
 rpro1                                  14.999473        2106
 pw_charge                              14.242688        2448
 m_bcast_z                              12.768720        2881
 fftbas_plan_mpi                         9.714224       13831
 lapack                                  7.728083         966
 w1_dscal                                6.021179        1425
 redis_pw                                5.903299        8565
 fftext_mpi                              5.011540        3873
 potlok                                  4.903199          52
 setdij_                                 4.714167          79
 augmentation_charge                     4.616426          51
 rspher_all                              3.950323          14
 phaser                                  3.568325          43
 forloc                                  3.239735           1
 forhar                                  3.213612           1
 rpromu_gemm                             2.820145       81900
 stufak                                  1.973019           1
 fft3d_mpi                               1.420348       13831
 orthch                                  1.262496          51
 kinhamil                                1.031081        2448
 overl                                   1.010971        3174
 rpromu                                  0.942243         195
 w1_copy                                 0.888395        2898
 m_bcast_d                               0.862393        1988
 elmin_all                               0.756695           1
 soft_charge                             0.417133          51
 redis_proj                              0.399943        8135
 setup_precond                           0.288488         285
 depsum                                  0.237967          51
 apply_precond                           0.237860         681
 pothar                                  0.203929          52
 inisym                                  0.194247           1
 overl1                                  0.136329         966
 map_backward                            0.128969        8586
 fft_gq                                  0.095039          51
 rsp                                     0.086121         105
 set_charge                              0.063533          51
 strnlr                                  0.056492           1
 densta                                  0.056153          62
 fftbas_mpi                              0.054011       13041
 strehar                                 0.035579           1
 strkin                                  0.035176           1
 strelo                                  0.029228           1
 hamiltmu                                0.025597         966
 hamilt_local                            0.023719        1482
 newband                                 0.021206         971
 fornlr                                  0.020436           1
 fewald                                  0.012395         105
 raccmu_                                 0.011248         966
 rpro_isp                                0.010785          13
 rcp                                     0.006497         105
 w1_projall                              0.005113         681
 fftbrc_mpi                              0.003237         790
 brgrid                                  0.003097           1
 truncate_high_frequency_w1              0.001634        1251
 fordep                                  0.000862           1
 redis_pw_all                            0.000536          50
 redis_pw_over_bands                     0.000334          51
 crpa_reader                             0.000297           1
 posmap                                  0.000273           2
 set_rsgf_all                            0.000110          53
 proall                                  0.000082           1
 potlok_metagga                          0.000067          52
 vectorpot                               0.000025           1
 rotate_active_occupied_orbital          0.000021           1
 set_dd_magatom                          0.000011           2
 shift_bands_between_low_high            0.000009           1
  summed up times    2862.81374216080

 Accumulative profile

 total_time                           2862.813742           1
 elmin_all                            2606.278976           1
 edwav                                1841.463981          50
 fft3d_mpi                             501.640510       13831
 fftbas_plan_mpi                       500.162914       13831
 fftbas_mpi                            481.898279       13041
 eddav                                 422.408315           5
 fftwav_mpi                            394.967799        9168
 lincom                                373.319042         157
 dfftw_execute                         326.325883       41493
 orthch                                219.772165          51
 orth1                                 201.561967        7287
 fftext_mpi                            137.813223        3873
 set_charge                            132.234388          51
 soft_charge                           125.244259          51
 map_forward                           122.867139       19076
 wfinit                                111.063830           1
 eddiag                                105.676885          26
 force_and_stress                       98.425633           1
 kinhamil                               87.390042        2448
 m_sumb_d                               79.988962       29676
 hamilt_local                           61.804326        1482
 set_dd_paw                             58.739499          53
 hamiltmu                               58.184835         966
 ggemm                                  57.179434        1251
 map_scatter                            55.147471       13934
 potlok                                 44.433216          52
 m_alltoall_d                           43.902877       56124
 map_gather                             42.554216       13934
 racc0                                  41.393821        2391
 map_backward                           41.255668        8586
 redis_pw                               40.800091        8565
 rpro_isp                               39.912659          13
 choleski                               36.595031          51
 eccp                                   34.643441        5985
 m_alltoallv_z                          33.341984       13934
 strnlr                                 30.998180           1
 rpro1                                  28.015413        2106
 ggaall_grid                            22.394550          53
 crrexp_mul_work_add                    21.048201     1004220
 fftbrc_mpi                             18.321882         790
 raccmu_                                17.434218         966
 crrexp_mul_wave                        16.380750     1195740
 newband                                15.342952         971
 vhamil                                 15.115584        2448
 pw_charge                              14.242688        2448
 m_bcast_z                              12.768720        2881
 fornlr                                 10.380666           1
 w1_projall                              9.412534         681
 redis_proj                              9.406028        8135
 rpromu                                  8.118742         195
 lapack                                  7.728083         966
 redis_pw_over_bands                     7.680438          51
 redis_pw_all                            7.680104          50
 augmentation_charge                     6.544540          51
 w1_dscal                                6.021179        1425
 setdij_                                 5.135709          79
 rspher_all                              3.950323          14
 phaser                                  3.568325          43
 proall                                  3.244741           1
 forloc                                  3.239927           1
 forhar                                  3.213802           1
 rpromu_gemm                             2.820145       81900
 stufak                                  1.973019           1
 fft_gq                                  1.236081          51
 overl                                   1.010971        3174
 w1_copy                                 0.888395        2898
 m_bcast_d                               0.862393        1988
 fordep                                  0.383554           1
 depsum                                  0.382056          51
 setup_precond                           0.310027         285
 pothar                                  0.277783          52
 apply_precond                           0.237860         681
 densta                                  0.214734          62
 inisym                                  0.194520           1
 fewald                                  0.157182         105
 overl1                                  0.136329         966
 rsp                                     0.086121         105
 strehar                                 0.040510           1
 strelo                                  0.037107           1
 strkin                                  0.035313           1
 rcp                                     0.006497         105
 brgrid                                  0.003097           1
 truncate_high_frequency_w1              0.001634        1251
 crpa_reader                             0.000297           1
 posmap                                  0.000273           2
 set_rsgf_all                            0.000110          53
 potlok_metagga                          0.000067          52
 vectorpot                               0.000025           1
 rotate_active_occupied_orbital          0.000021           1
 set_dd_magatom                          0.000011           2
 shift_bands_between_low_high            0.000009           1

Profiling took   2.633702  0.892917  0.006779  0.006576 seconds
Profiling took   2.200428 seconds