 vasp.6.3.0 20Jan22 (build Apr  1 2022 16:44:48) complex
 executed on        HPECrayEX_GCC date 2022.11.18  11:56:13

 INCAR:
   SYSTEM = MgO-rocksalt
   ISMEAR = 0
   SIGMA = 0.05
   EDIFF = 1E-6
   ALGO = ALL
   ISTART = 0
   IBRION = -1
   NSW = 0
   ISYM = 2
   DIPOL = 0.5 0.5 0.5
   IDIPOL = 3
   LDIPOL = .TRUE.
   GGA = RE
   IVDW = 21
   VDW_SR = 0.6
   ENCUT = 520
   PREC = Accurate
   LASPH = .TRUE.
   LREAL = Auto
   ISPIN = 1
   NELM = 200
   NELMIN = 8
   NCORE = 4
   KPAR = 2
   LWAVE = .FALSE.
   LCHARG = .FALSE.

 POTCAR:    PAW_PBE Cu 22Jun2005
 POTCAR:    PAW_PBE Mg_pv 13Apr2007
 POTCAR:    PAW_PBE O 08Apr2002
 POTCAR:    PAW_PBE Cu 22Jun2005
   VRHFIN =Cu: d10 p1

   TITEL  = PAW_PBE Cu 22Jun2005
   POMASS =   63.546; ZVAL   =   11.000    mass and valenz
   ENMAX  =  295.446; ENMIN  =  221.585 eV

   TITEL  = PAW_PBE Mg_pv 13Apr2007
   POMASS =   24.305; ZVAL   =    8.000    mass and valenz
   ENMAX  =  403.929; ENMIN  =  302.947 eV

   TITEL  = PAW_PBE O 08Apr2002
   POMASS =   16.000; ZVAL   =    6.000    mass and valenz
   ENMAX  =  400.000; ENMIN  =  300.000 eV

 Optimization of the real space projectors (new method)

 maximal supplied QI-value         = 16.25
 optimisation between [QCUT,QGAM] = [ 11.54, 23.24] = [ 37.28,151.24] Ry
 Optimized for a Real-space Cutoff    1.53 Angstroem

   l    n(q)    QCUT    max X(q) W(low)/X(q) W(high)/X(q)  e(spline)
   2     10    11.539     4.610    0.96E-04    0.13E-03    0.19E-06
   2     10    11.539     8.522    0.16E-03    0.21E-03    0.28E-06
   0     11    11.539    51.609    0.45E-04    0.31E-04    0.11E-06
   0     11    11.539    27.747    0.39E-04    0.29E-04    0.10E-06
   1     10    11.539    20.408    0.70E-05    0.38E-04    0.18E-06
   1     10    11.539    13.425    0.66E-05    0.34E-04    0.17E-06
 Optimization of the real space projectors (new method)

[...]

   l    n(q)    QCUT    max X(q) W(low)/X(q) W(high)/X(q)  e(spline)
   1      8    11.527     2.974    0.44E-04    0.56E-04    0.12E-06
   1      8    11.527     4.279    0.12E-03    0.12E-03    0.26E-06
   0      9    11.527    16.381    0.46E-04    0.64E-04    0.78E-07
   0      9    11.527     5.611    0.26E-04    0.43E-04    0.55E-07
   2      8    11.527     4.652    0.22E-03    0.72E-04    0.47E-07
 Optimization of the real space projectors (new method)

 maximal supplied QI-value         = 24.76
 optimisation between [QCUT,QGAM] = [ 11.64, 23.27] = [ 37.91,151.63] Ry
 Optimized for a Real-space Cutoff    1.14 Angstroem

   l    n(q)    QCUT    max X(q) W(low)/X(q) W(high)/X(q)  e(spline)
   0      8    11.635    20.381    0.10E-03    0.33E-03    0.24E-06
   0      8    11.635    15.268    0.11E-03    0.35E-03    0.26E-06
   1      7    11.635     5.964    0.24E-03    0.31E-03    0.30E-06
   1      7    11.635     5.382    0.22E-03    0.25E-03    0.26E-06
|               ----> ADVICE to this user running VASP <----                  |
|     You enforced a specific xc type in the INCAR file but a different       |
|     type was found in the POTCAR file.                                      |
|     I HOPE YOU KNOW WHAT YOU ARE DOING!                                     |

  PAW_PBE Cu 22Jun2005                  :
  PAW_PBE Mg_pv 13Apr2007               :
  PAW_PBE O 08Apr2002                   :

 POSCAR: Cu Mg  O
  positions in direct lattice
 exchange correlation table for  LEXCH =       40
   RHO(1)=    0.500       N(1)  =     2000
   RHO(2)=  100.500       N(2)  =     4000

 ion  position               nearest neighbor table
   1  0.553  0.500  0.630-   2 2.23
   2  0.447  0.500  0.630-   1 2.23
   3  0.000  0.000  0.407- 105 2.11 106 2.11 121 2.11 186 2.11 103 2.11
   4  0.100  0.100  0.407- 105 2.11 106 2.11 110 2.11 125 2.11 104 2.11
   5  0.000  0.100  0.503- 103 2.11 104 2.11 107 2.11 184 2.11 105 2.11
   6  0.100  0.000  0.503- 103 2.11 104 2.11 120 2.11 123 2.11 106 2.11
   7  0.000  0.200  0.407- 109 2.11 105 2.11 110 2.11 190 2.11 107 2.11
   8  0.100  0.300  0.407- 110 2.11 109 2.11 114 2.11 129 2.11 108 2.11
   9  0.000  0.300  0.503- 107 2.11 108 2.11 111 2.11 188 2.11 109 2.11
  10  0.100  0.200  0.503- 108 2.11 107 2.11 104 2.11 127 2.11 110 2.11
  11  0.000  0.400  0.407- 109 2.11 113 2.11 114 2.11 194 2.11 111 2.11
  12  0.100  0.500  0.407- 113 2.11 114 2.11 118 2.11 133 2.11 112 2.11
  13  0.000  0.500  0.503- 111 2.11 112 2.11 115 2.11 192 2.11 113 2.11
  14  0.100  0.400  0.503- 108 2.11 111 2.11 112 2.11 131 2.11 114 2.11
  15  0.000  0.600  0.407- 113 2.11 117 2.11 118 2.11 198 2.11 115 2.11
  16  0.100  0.700  0.407- 122 2.11 118 2.11 117 2.11 137 2.11 116 2.11
  17  0.000  0.700  0.503- 119 2.11 116 2.11 115 2.11 196 2.11 117 2.11
  18  0.100  0.600  0.503- 112 2.11 115 2.11 116 2.11 135 2.11 118 2.11
  19  0.000  0.800  0.407- 117 2.11 121 2.11 122 2.11 202 2.11 119 2.11
  20  0.100  0.900  0.407- 106 2.11 121 2.11 122 2.11 141 2.11 120 2.11
  21  0.000  0.900  0.503- 103 2.11 119 2.11 120 2.11 200 2.11 121 2.11
  22  0.100  0.800  0.503- 116 2.11 119 2.11 120 2.11 139 2.11 122 2.11
  23  0.200  0.000  0.407- 126 2.11 125 2.11 106 2.11 141 2.11 123 2.11
  24  0.300  0.100  0.407- 125 2.11 126 2.11 130 2.11 145 2.11 124 2.11
  25  0.200  0.100  0.503- 124 2.11 123 2.11 104 2.11 127 2.11 125 2.11
  26  0.300  0.000  0.503- 123 2.11 124 2.11 140 2.11 143 2.11 126 2.11
  27  0.200  0.200  0.407- 129 2.11 130 2.11 110 2.11 125 2.11 127 2.11
  28  0.300  0.300  0.407- 129 2.11 130 2.11 134 2.11 149 2.11 128 2.11
  29  0.200  0.300  0.503- 127 2.11 128 2.11 108 2.11 131 2.11 129 2.11
  30  0.300  0.200  0.503- 127 2.11 128 2.11 124 2.11 147 2.11 130 2.11
  31  0.200  0.400  0.407- 134 2.11 129 2.11 133 2.11 114 2.11 131 2.11
  32  0.300  0.500  0.407- 133 2.11 134 2.11 138 2.11 153 2.11 132 2.11
  33  0.200  0.500  0.503- 132 2.11 131 2.11 112 2.11 135 2.11 133 2.11
  34  0.300  0.400  0.503- 131 2.11 128 2.11 132 2.11 151 2.11 134 2.11
  35  0.200  0.600  0.407- 138 2.11 133 2.11 137 2.11 118 2.11 135 2.11
  36  0.300  0.700  0.407- 137 2.11 142 2.11 138 2.11 157 2.11 136 2.11
  37  0.200  0.700  0.503- 136 2.11 139 2.11 116 2.11 135 2.11 137 2.11
  38  0.300  0.600  0.503- 135 2.11 132 2.11 136 2.11 155 2.11 138 2.11
  39  0.200  0.800  0.407- 137 2.11 142 2.11 141 2.11 122 2.11 139 2.11
  40  0.300  0.900  0.407- 141 2.11 126 2.11 142 2.11 161 2.11 140 2.11
  41  0.200  0.900  0.503- 140 2.11 123 2.11 139 2.11 120 2.11 141 2.11
  42  0.300  0.800  0.503- 136 2.11 139 2.11 140 2.11 159 2.11 142 2.11
  43  0.400  0.000  0.407- 126 2.11 145 2.11 146 2.11 161 2.11 143 2.11
  44  0.500  0.100  0.407- 145 2.11 146 2.11 150 2.11 165 2.11 144 2.11
  45  0.400  0.100  0.503- 124 2.11 143 2.11 144 2.11 147 2.11 145 2.11
  46  0.500  0.000  0.503- 143 2.11 144 2.11 160 2.11 163 2.11 146 2.11
  47  0.400  0.200  0.407- 149 2.11 145 2.11 130 2.11 150 2.11 147 2.11
  48  0.500  0.300  0.407- 150 2.11 149 2.11 154 2.11 169 2.11 148 2.11
  49  0.400  0.300  0.503- 147 2.11 128 2.11 148 2.11 151 2.11 149 2.11
  50  0.500  0.200  0.503- 148 2.11 147 2.11 144 2.11 167 2.11 150 2.11
  51  0.400  0.400  0.407- 134 2.11 149 2.11 153 2.11 154 2.11 151 2.11
  52  0.500  0.500  0.407- 153 2.11 154 2.11 158 2.11 173 2.11 152 2.11
  53  0.400  0.500  0.503- 132 2.11 151 2.11 152 2.11 155 2.11 153 2.11
  54  0.500  0.400  0.503- 148 2.11 151 2.11 152 2.11 171 2.11 154 2.11
  55  0.400  0.600  0.407- 138 2.11 153 2.11 157 2.11 158 2.11 155 2.11
  56  0.500  0.700  0.407- 162 2.11 158 2.11 157 2.11 177 2.11 156 2.11
  57  0.400  0.700  0.503- 159 2.11 155 2.11 156 2.11 136 2.11 157 2.11
  58  0.500  0.600  0.503- 152 2.11 155 2.11 156 2.11 175 2.11 158 2.11
  59  0.400  0.800  0.407- 157 2.11 142 2.11 161 2.11 162 2.11 159 2.11
  60  0.500  0.900  0.407- 146 2.11 161 2.11 162 2.11 181 2.11 160 2.11
[...]
 188  0.900  0.300  0.503-  90 2.11  89 2.11   9 2.11  94 2.11  88 2.11
 189  0.800  0.300  0.407-  68 2.11  87 2.11  88 2.11  91 2.11  89 2.11
 190  0.900  0.200  0.407-  88 2.11  84 2.11  87 2.11   7 2.11  90 2.11
 191  0.800  0.400  0.503-  74 2.11  89 2.11  93 2.11  94 2.11  91 2.11
 192  0.900  0.500  0.503-  13 2.11  93 2.11  94 2.11  98 2.11  92 2.11
 193  0.800  0.500  0.407-  72 2.11  91 2.11  92 2.11  95 2.11  93 2.11
 194  0.900  0.400  0.407-  11 2.11  88 2.11  91 2.11  92 2.11  94 2.11
 195  0.800  0.600  0.503-  78 2.11  93 2.11  97 2.11  98 2.11  95 2.11
 196  0.900  0.700  0.503- 102 2.11  97 2.11  98 2.11  17 2.11  96 2.11
 197  0.800  0.700  0.407-  76 2.11  99 2.11  96 2.11  95 2.11  97 2.11
 198  0.900  0.600  0.407-  15 2.11  92 2.11  95 2.11  96 2.11  98 2.11
 199  0.800  0.800  0.503-  82 2.11  97 2.11 101 2.11 102 2.11  99 2.11
 200  0.900  0.900  0.503-  21 2.11  86 2.11 101 2.11 102 2.11 100 2.11
 201  0.800  0.900  0.407-  80 2.11  83 2.11  99 2.11 100 2.11 101 2.11
 202  0.900  0.800  0.407-  96 2.11  19 2.11  99 2.11 100 2.11 102 2.11

  LATTYP: Found a simple tetragonal cell.
 ALAT       =    21.1388521970
 C/A-ratio  =     1.0461251639

  Lattice vectors:

 A1 = (  21.1388521970,   0.0000000000,   0.0000000000)
 A2 = (   0.0000000000,  21.1388521970,   0.0000000000)
 A3 = (   0.0000000000,   0.0000000000,  22.1138852197)

Analysis of symmetry for initial positions (statically):
 Subroutine PRICEL returns:
 Original cell was already a primitive cell.

 Routine SETGRP: Setting up the symmetry group for a
 simple tetragonal supercell.

 Subroutine GETGRP returns: Found  4 space group operations
 (whereof  4 operations were pure point group operations)
 out of a pool of 16 trial point group operations.

The static configuration has the point symmetry C_2v.

Analysis of symmetry for dynamics (positions and initial velocities):
 Subroutine PRICEL returns:
 Original cell was already a primitive cell.

 Routine SETGRP: Setting up the symmetry group for a
 simple tetragonal supercell.

 Subroutine GETGRP returns: Found  4 space group operations
 (whereof  4 operations were pure point group operations)
 out of a pool of 16 trial point group operations.

The dynamic configuration has the point symmetry C_2v.

 Subroutine INISYM returns: Found  4 space group operations
 (whereof  4 operations are pure point group operations),
 and found     1 'primitive' translations

                                     Primitive cell

  volume of cell :    9881.6133

  direct lattice vectors                    reciprocal lattice vectors
    21.138852197  0.000000000  0.000000000     0.047306258  0.000000000  0.000000000
     0.000000000 21.138852197  0.000000000     0.000000000  0.047306258  0.000000000
     0.000000000  0.000000000 22.113885220     0.000000000  0.000000000  0.045220457

  length of vectors
    21.138852197 21.138852197 22.113885220     0.047306258  0.047306258  0.045220457

  position of ions in fractional coordinates (direct lattice)
     0.552684359  0.500000000  0.630409391
     0.447315641  0.500000000  0.630409391
     0.000000000  0.000000000  0.406984115
     0.100000000  0.100000000  0.406984115
     0.000000000  0.100000000  0.502574971
     0.100000000  0.000000000  0.502574971
     0.000000000  0.200000000  0.406984115
     0.100000000  0.300000000  0.406984115
     0.000000000  0.300000000  0.502574971
[...]
   O         167.806          4.745         17.711          3.27974098
   O         167.900          4.745         17.716          3.28066457
   O         167.916          4.745         17.716          3.28081737
   O         167.764          4.745         17.708          3.27933120
   O         167.908          4.745         17.716          3.28074407
   O         167.900          4.745         17.716          3.28066457
   O         167.740          4.745         17.707          3.27909962
   O         167.779          4.745         17.709          3.27947867
   O         167.938          4.746         17.718          3.28103205
   O         167.929          4.746         17.717          3.28094301

  vdW correction parametrized for the method         

  IVDW =  21
  VDW_RADIUS =    50.000 A
  VDW_IDAMPF =  0
  VDW_S6 =     1.000
  VDW_SR =     0.600
  VDW_D =    20.000
  LVDW_ONECELL = F F F
  LVDW_SAMETYPE T T T
  LVDW_EWALD = F

  Number of pair interactions contributing to vdW energy: 1097037
  Edisp (eV):  -66.94002

  FORCE on cell =-STRESS in cart. coord.  units (eV):
  Direction    XX          YY          ZZ          XY          YZ          ZX
  Alpha Z  1354.41543  1354.41543  1354.41543
  Ewald  479351.43510478555.77928************    -0.00000     0.00000    -0.00000
  Hartree508112.96009507519.89896************    -0.00000     0.00000    -0.00000
  E(xc)   -7803.55677 -7804.25234 -7853.86600    -0.00000     0.00000    -0.00000
  Local  ************************************    -0.00000    -0.00000     0.00000
  n-local -8759.94803 -8757.19964 -8878.65339     0.00000    -0.00000    -0.00000
  augment  3461.69933  3467.26093  3408.19981    -0.00000     0.00000     0.00000
  Kinetic 22876.88988 22882.73533 23128.13634    -0.00000    -0.00000    -0.00002
  Fock        0.00000     0.00000     0.00000     0.00000     0.00000     0.00000
  vdW         7.27228     4.95493    15.96827    -0.00000     0.00000     0.00000
  Total     -96.37170   -99.40147    56.20049     0.00000     0.00000     0.00000
  in kB     -15.62544   -16.11668     9.11219     0.00000     0.00000     0.00000

 VOLUME and BASIS-vectors are now :
  energy-cutoff  :      520.00
  volume of cell :     9881.61
      direct lattice vectors                 reciprocal lattice vectors
    21.138852197  0.000000000  0.000000000     0.047306258  0.000000000  0.000000000
     0.000000000 21.138852197  0.000000000     0.000000000  0.047306258  0.000000000
     0.000000000  0.000000000 22.113885220     0.000000000  0.000000000  0.045220457

  length of vectors
    21.138852197 21.138852197 22.113885220     0.047306258  0.047306258  0.045220457

 FORCES acting on ions:
    Electron-Ion                     Ewald-Force                    Non-Local-Force
   -.360E+03 -.155E-05 -.202E+04   0.348E+03 0.874E-08 0.202E+04   0.122E+02 0.000E+00 -.203E+00
   0.360E+03 -.155E-05 -.202E+04   -.348E+03 0.874E-08 0.202E+04   -.122E+02 0.000E+00 -.203E+00
   0.136E-12 -.454E-08 0.931E+03   0.764E-13 0.700E-08 -.923E+03   0.000E+00 0.000E+00 -.752E+01
   0.378E+01 0.407E+01 0.932E+03   -.378E+01 -.408E+01 -.924E+03   -.106E-02 0.670E-02 -.752E+01
   0.139E-12 0.434E+01 -.923E+03   0.103E-12 -.434E+01 0.915E+03   0.827E-24 0.610E-02 0.750E+01
   0.396E+01 -.647E-08 -.923E+03   -.396E+01 0.998E-08 0.915E+03   -.251E-02 0.000E+00 0.750E+01
   0.132E-12 0.599E+01 0.932E+03   0.153E-10 -.601E+01 -.925E+03   0.000E+00 0.105E-01 -.752E+01
   0.785E+01 0.768E+01 0.936E+03   -.786E+01 -.770E+01 -.928E+03   0.578E-02 0.151E-01 -.752E+01
   0.129E-12 0.804E+01 -.920E+03   0.181E-11 -.806E+01 0.912E+03   -.414E-24 0.119E-01 0.750E+01
   0.716E+01 0.904E+01 -.921E+03   -.716E+01 -.906E+01 0.913E+03   -.340E-03 0.132E-01 0.750E+01
   0.131E-12 0.414E+01 0.936E+03   -.174E-10 -.415E+01 -.928E+03   0.000E+00 0.768E-02 -.752E+01
   0.115E+02 0.692E-08 0.939E+03   -.115E+02 -.107E-07 -.931E+03   0.249E-01 -.165E-23 -.752E+01
   0.151E-12 0.712E-08 -.918E+03   0.120E-12 -.110E-07 0.911E+03   0.000E+00 0.000E+00 0.750E+01
   0.155E+02 0.705E+01 -.916E+03   -.156E+02 -.706E+01 0.909E+03   0.183E-01 0.111E-01 0.750E+01
   0.130E-12 -.414E+01 0.936E+03   0.116E-11 0.415E+01 -.928E+03   0.000E+00 -.768E-02 -.752E+01
   0.785E+01 -.768E+01 0.936E+03   -.786E+01 0.770E+01 -.928E+03   0.578E-02 -.151E-01 -.752E+01
   0.149E-12 -.804E+01 -.920E+03   -.785E-12 0.806E+01 0.912E+03   0.000E+00 -.119E-01 0.750E+01
   0.155E+02 -.705E+01 -.916E+03   -.156E+02 0.706E+01 0.909E+03   0.183E-01 -.111E-01 0.750E+01
   0.120E-12 -.599E+01 0.932E+03   0.739E-12 0.601E+01 -.925E+03   0.000E+00 -.105E-01 -.752E+01
   0.378E+01 -.407E+01 0.932E+03   -.378E+01 0.408E+01 -.924E+03   -.106E-02 -.670E-02 -.752E+01
   0.141E-12 -.434E+01 -.923E+03   -.867E-12 0.434E+01 0.915E+03   0.000E+00 -.610E-02 0.750E+01
   0.716E+01 -.904E+01 -.921E+03   -.716E+01 0.906E+01 0.913E+03   -.340E-03 -.132E-01 0.750E+01
   0.544E+01 -.707E-08 0.932E+03   -.544E+01 0.109E-07 -.925E+03   -.310E-02 -.132E-22 -.752E+01
   0.687E+01 0.794E+01 0.935E+03   -.687E+01 -.795E+01 -.927E+03   -.374E-02 0.114E-01 -.753E+01
   0.821E+01 0.747E+01 -.921E+03   -.820E+01 -.748E+01 0.913E+03   -.504E-02 0.862E-02 0.750E+01
   0.708E+01 -.133E-07 -.921E+03   -.708E+01 0.205E-07 0.913E+03   -.547E-02 0.000E+00 0.750E+01
   0.955E+01 0.102E+02 0.936E+03   -.955E+01 -.102E+02 -.928E+03   0.103E-02 0.178E-01 -.752E+01
   0.181E+02 0.196E+02 0.950E+03   -.182E+02 -.197E+02 -.942E+03   0.124E-01 0.413E-01 -.753E+01
   0.226E+02 0.179E+02 -.913E+03   -.226E+02 -.180E+02 0.906E+03   0.656E-02 0.304E-01 0.750E+01
   0.157E+02 0.230E+02 -.914E+03   -.157E+02 -.230E+02 0.906E+03   -.117E-01 0.260E-01 0.749E+01
   0.207E+02 0.861E+01 0.946E+03   -.207E+02 -.864E+01 -.938E+03   0.273E-01 0.232E-01 -.752E+01
   0.330E+02 0.230E-07 0.969E+03   -.330E+02 -.354E-07 -.962E+03   0.254E-01 0.000E+00 -.744E+01
   0.414E+02 0.204E-07 -.904E+03   -.415E+02 -.315E-07 0.896E+03   0.798E-01 0.000E+00 0.750E+01
   0.586E+02 0.339E+02 -.880E+03   -.587E+02 -.340E+02 0.873E+03   0.588E-01 0.854E-01 0.752E+01
   0.207E+02 -.861E+01 0.946E+03   -.207E+02 0.864E+01 -.938E+03   0.273E-01 -.232E-01 -.752E+01
   0.181E+02 -.196E+02 0.950E+03   -.182E+02 0.197E+02 -.942E+03   0.124E-01 -.413E-01 -.753E+01
   0.226E+02 -.179E+02 -.913E+03   -.226E+02 0.180E+02 0.906E+03   0.656E-02 -.304E-01 0.750E+01
   0.586E+02 -.339E+02 -.880E+03   -.587E+02 0.340E+02 0.873E+03   0.588E-01 -.854E-01 0.752E+01
   0.955E+01 -.102E+02 0.936E+03   -.955E+01 0.102E+02 -.928E+03   0.103E-02 -.178E-01 -.752E+01
   0.687E+01 -.794E+01 0.935E+03   -.687E+01 0.795E+01 -.927E+03   -.374E-02 -.114E-01 -.753E+01
   0.821E+01 -.747E+01 -.921E+03   -.820E+01 0.748E+01 0.913E+03   -.504E-02 -.862E-02 0.750E+01
   0.157E+02 -.230E+02 -.914E+03   -.157E+02 0.230E+02 0.906E+03   -.117E-01 -.260E-01 0.749E+01
   0.364E+01 -.123E-07 0.935E+03   -.364E+01 0.189E-07 -.927E+03   -.265E-02 -.331E-23 -.752E+01
   -.199E-12 0.111E+02 0.938E+03   0.387E-11 -.111E+02 -.930E+03   0.000E+00 0.910E-02 -.753E+01
   0.597E+01 0.147E+02 -.917E+03   -.596E+01 -.147E+02 0.910E+03   -.513E-02 0.312E-02 0.749E+01
   -.261E-12 -.189E-07 -.919E+03   0.622E-14 0.292E-07 0.911E+03   0.000E+00 0.000E+00 0.750E+01
   0.742E+01 0.204E+02 0.945E+03   -.742E+01 -.205E+02 -.937E+03   -.327E-02 0.391E-01 -.754E+01
   -.215E-12 0.330E+02 0.966E+03   -.579E-11 -.331E+02 -.958E+03   0.000E+00 0.567E-01 -.758E+01
   0.259E+02 0.581E+02 -.886E+03   -.258E+02 -.582E+02 0.879E+03   -.384E-01 0.105E+00 0.747E+01
   -.251E-12 0.378E+02 -.907E+03   -.193E-10 -.378E+02 0.899E+03   0.662E-23 -.125E-01 0.748E+01
   0.224E+02 0.254E+02 0.985E+03   -.224E+02 -.254E+02 -.977E+03   0.178E-01 0.313E-01 -.742E+01
   -.208E-12 0.479E-07 0.102E+04   -.104E-12 -.740E-07 -.101E+04   0.000E+00 0.000E+00 -.744E+01
   0.964E+02 0.160E-06 -.750E+03   -.964E+02 -.246E-06 0.743E+03   -.202E-01 0.662E-23 0.652E+01
   -.269E-12 0.103E+03 -.787E+03   0.215E-10 -.103E+03 0.780E+03   -.662E-23 0.146E+00 0.711E+01
   0.224E+02 -.254E+02 0.985E+03   -.224E+02 0.254E+02 -.977E+03   0.178E-01 -.313E-01 -.742E+01
   -.208E-12 -.330E+02 0.966E+03   -.183E-10 0.331E+02 -.958E+03   -.103E-24 -.567E-01 -.758E+01
   0.259E+02 -.581E+02 -.886E+03   -.258E+02 0.582E+02 0.879E+03   -.384E-01 -.105E+00 0.747E+01
   -.260E-12 -.103E+03 -.787E+03   0.183E-10 0.103E+03 0.780E+03   0.132E-22 -.146E+00 0.711E+01
   0.742E+01 -.204E+02 0.945E+03   -.742E+01 0.205E+02 -.937E+03   -.327E-02 -.391E-01 -.754E+01
   -.211E-12 -.111E+02 0.938E+03   0.203E-10 0.111E+02 -.930E+03   0.000E+00 -.910E-02 -.753E+01
[...]
   -.111E+02 0.899E+01 0.707E+03   0.111E+02 -.901E+01 -.711E+03   -.105E-01 0.273E-01 0.346E+01
   -.403E+01 0.528E+01 0.702E+03   0.403E+01 -.529E+01 -.706E+03   -.157E-02 0.135E-01 0.346E+01
   -.261E+02 0.106E+02 -.682E+03   0.261E+02 -.106E+02 0.686E+03   -.353E-01 0.372E-01 -.348E+01
   -.132E+02 0.722E-08 -.688E+03   0.132E+02 -.111E-07 0.692E+03   -.196E-01 0.000E+00 -.349E+01
   -.176E+02 0.900E-08 0.713E+03   0.176E+02 -.139E-07 -.717E+03   -.461E-01 0.000E+00 0.349E+01
   -.779E+01 0.385E+01 0.705E+03   0.780E+01 -.386E+01 -.709E+03   -.146E-01 0.147E-01 0.346E+01
   -.261E+02 -.106E+02 -.682E+03   0.261E+02 0.106E+02 0.686E+03   -.353E-01 -.372E-01 -.348E+01
   -.836E+01 -.766E+01 -.691E+03   0.837E+01 0.767E+01 0.695E+03   -.763E-02 -.193E-01 -.349E+01
   -.111E+02 -.899E+01 0.707E+03   0.111E+02 0.901E+01 -.711E+03   -.105E-01 -.273E-01 0.346E+01
   -.779E+01 -.385E+01 0.705E+03   0.780E+01 0.386E+01 -.709E+03   -.146E-01 -.147E-01 0.346E+01
   -.989E+01 -.106E+02 -.690E+03   0.989E+01 0.106E+02 0.694E+03   -.194E-03 -.184E-01 -.349E+01
   -.355E+01 -.384E+01 -.693E+03   0.355E+01 0.385E+01 0.697E+03   0.140E-02 -.700E-02 -.349E+01
   -.483E+01 -.423E+01 0.701E+03   0.483E+01 0.424E+01 -.706E+03   0.204E-02 -.858E-02 0.346E+01
   -.403E+01 -.528E+01 0.702E+03   0.403E+01 0.529E+01 -.706E+03   -.157E-02 -.135E-01 0.346E+01
   0.504E-11 -.313E-05 0.752E+01   0.144E-11 0.113E-11 0.224E-10   0.104E-14 -.226E-16 -.816E+01

 POSITION                                       TOTAL-FORCE (eV/Angst)
     11.68311     10.56943     13.94080         1.222753     -0.000000     -0.223340
      9.45574     10.56943     13.94080        -1.222753     -0.000000     -0.223340
      0.00000      0.00000      9.00000         0.000000     -0.000000      0.294799
      2.11389      2.11389      9.00000         0.000277     -0.001807      0.294867
      0.00000      2.11389     11.11389         0.000000     -0.001642     -0.291076
      2.11389      0.00000     11.11389         0.000727     -0.000000     -0.290989
      0.00000      4.22777      9.00000         0.000000     -0.002897      0.294682
      2.11389      6.34166      9.00000        -0.001631     -0.004209      0.294409
      0.00000      6.34166     11.11389         0.000000     -0.003386     -0.291040
      2.11389      4.22777     11.11389         0.000172     -0.003570     -0.290845
      0.00000      8.45554      9.00000         0.000000     -0.002225      0.294454
      2.11389     10.56943      9.00000        -0.006191     -0.000000      0.294507
      0.00000     10.56943     11.11389         0.000000     -0.000000     -0.291219
      2.11389      8.45554     11.11389        -0.005155     -0.003358     -0.291265
      0.00000     12.68331      9.00000         0.000000      0.002225      0.294454
      2.11389     14.79720      9.00000        -0.001631      0.004209      0.294409
      0.00000     14.79720     11.11389         0.000000      0.003386     -0.291040
      2.11389     12.68331     11.11389        -0.005155      0.003358     -0.291265
      0.00000     16.91108      9.00000         0.000000      0.002897      0.294682
      2.11389     19.02497      9.00000         0.000277      0.001807      0.294867
      0.00000     19.02497     11.11389         0.000000      0.001642     -0.291076
      2.11389     16.91108     11.11389         0.000172      0.003570     -0.290845
      4.22777      0.00000      9.00000         0.000865     -0.000000      0.295147
      6.34166      2.11389      9.00000         0.001058     -0.002933      0.295787
      4.22777      2.11389     11.11389         0.001487     -0.002219     -0.290410
      6.34166      0.00000     11.11389         0.001670     -0.000000     -0.289955
      4.22777      4.22777      9.00000        -0.000345     -0.004771      0.295057
      6.34166      6.34166      9.00000        -0.004177     -0.011666      0.294958
      4.22777      6.34166     11.11389        -0.001822     -0.008754     -0.290361
      6.34166      4.22777     11.11389         0.003605     -0.006790     -0.287850
      4.22777      8.45554      9.00000        -0.007853     -0.006905      0.292476
      6.34166     10.56943      9.00000        -0.006435     -0.000000      0.268090
      4.22777     10.56943     11.11389        -0.030642     -0.000000     -0.293000
      6.34166      8.45554     11.11389        -0.024469     -0.026776     -0.290397
      4.22777     12.68331      9.00000        -0.007853      0.006905      0.292476
      6.34166     14.79720      9.00000        -0.004177      0.011666      0.294958
      4.22777     14.79720     11.11389        -0.001822      0.008754     -0.290361
      6.34166     12.68331     11.11389        -0.024469      0.026776     -0.290397
      4.22777     16.91108      9.00000        -0.000345      0.004771      0.295057
      6.34166     19.02497      9.00000         0.001058      0.002933      0.295787
      4.22777     19.02497     11.11389         0.001487      0.002219     -0.290410
      6.34166     16.91108     11.11389         0.003605      0.006790     -0.287850
      8.45554      0.00000      9.00000         0.000775     -0.000000      0.295786
     10.56943      2.11389      9.00000         0.000000     -0.002630      0.296507
      8.45554      2.11389     11.11389         0.001720     -0.000301     -0.288315
     10.56943      0.00000     11.11389         0.000000     -0.000000     -0.289045
      8.45554      4.22777      9.00000         0.001176     -0.009749      0.299281
     10.56943      6.34166      9.00000         0.000000     -0.017162      0.304786
      8.45554      6.34166     11.11389         0.014352     -0.040353     -0.267057
     10.56943      4.22777     11.11389         0.000000      0.003009     -0.281638
      8.45554      8.45554      9.00000        -0.004206     -0.007445      0.257840
     10.56943     10.56943      9.00000         0.000000     -0.000000      0.195833
      8.45554     10.56943     11.11389        -0.060911     -0.000000     -0.306501
     10.56943      8.45554     11.11389         0.000000     -0.046529     -0.084065
      8.45554     12.68331      9.00000        -0.004206      0.007445      0.257840
     10.56943     14.79720      9.00000         0.000000      0.017162      0.304786
      8.45554     14.79720     11.11389         0.014352      0.040353     -0.267057
     10.56943     12.68331     11.11389         0.000000      0.046529     -0.084065
      8.45554     16.91108      9.00000         0.001176      0.009749      0.299281
     10.56943     19.02497      9.00000         0.000000      0.002630      0.296507
[...]
     19.02497      6.34166     11.11389        -0.002253      0.005403      0.880120
     16.91108      6.34166      9.00000        -0.003312      0.007852     -0.883939
     19.02497      4.22777      9.00000        -0.000512      0.003841     -0.884432
     16.91108      8.45554     11.11389        -0.011041      0.009988      0.883118
     19.02497     10.56943     11.11389        -0.006012     -0.000000      0.880742
     16.91108     10.56943      9.00000        -0.013287     -0.000000     -0.877592
     19.02497      8.45554      9.00000        -0.004273      0.004198     -0.883528
     16.91108     12.68331     11.11389        -0.011041     -0.009988      0.883118
     19.02497     14.79720     11.11389        -0.002253     -0.005403      0.880120
     16.91108     14.79720      9.00000        -0.003312     -0.007852     -0.883939
     19.02497     12.68331      9.00000        -0.004273     -0.004198     -0.883528
     16.91108     16.91108     11.11389        -0.000255     -0.005302      0.879182
     19.02497     19.02497     11.11389         0.000335     -0.001993      0.880243
     16.91108     19.02497      9.00000         0.000488     -0.002455     -0.884850
     19.02497     16.91108      9.00000        -0.000512     -0.003841     -0.884432
    total drift:                                0.000000     -0.000003     -0.642796

  FREE ENERGIE OF THE ION-ELECTRON SYSTEM (eV)
  free  energy   TOTEN  =     -1155.88802838 eV

  energy  without entropy=    -1155.88802838  energy(sigma->0) =    -1155.88802838