 vasp.6.3.0 20Jan22 (build Apr  1 2022 16:44:48) complex
 executed on        HPECrayEX_GCC date 2023.01.09  09:08:24

 INCAR:
   SYSTEM = MgO-rocksalt
   ISMEAR = 0
   SIGMA = 0.05
   EDIFF = 1E-6
   ALGO = ALL
   ISTART = 0
   IBRION = -1
   NSW = 0
   ISYM = 2
   DIPOL = 0.5 0.5 0.5
   IDIPOL = 3
   LDIPOL = .TRUE.
   GGA = PE
   ENCUT = 520
   PREC = Accurate
   LASPH = .TRUE.
   LREAL = Auto
   ISPIN = 1
   NELM = 200
   NELMIN = 8
   NCORE = 4
   KPAR = 2
   LWAVE = .FALSE.
   LCHARG = .FALSE.

 POTCAR:    PAW_PBE Au 04Oct2007
 POTCAR:    PAW_PBE Mg_pv 13Apr2007
 POTCAR:    PAW_PBE O 08Apr2002
 POTCAR:    PAW_PBE Au 04Oct2007
   VRHFIN =Au: s1d10

   TITEL  = PAW_PBE Au 04Oct2007
   POMASS =  196.966; ZVAL   =   11.000    mass and valenz
   ENMAX  =  229.943; ENMIN  =  172.457 eV

   TITEL  = PAW_PBE Mg_pv 13Apr2007
   POMASS =   24.305; ZVAL   =    8.000    mass and valenz
   ENMAX  =  403.929; ENMIN  =  302.947 eV

   TITEL  = PAW_PBE O 08Apr2002
   POMASS =   16.000; ZVAL   =    6.000    mass and valenz
   ENMAX  =  400.000; ENMIN  =  300.000 eV

 Optimization of the real space projectors (new method)

 maximal supplied QI-value         = 15.12
 optimisation between [QCUT,QGAM] = [ 11.64, 23.28] = [ 37.95,151.78] Ry
 Optimized for a Real-space Cutoff    1.49 Angstroem

   l    n(q)    QCUT    max X(q) W(low)/X(q) W(high)/X(q)  e(spline)
   2      9    11.641    60.898    0.24E-03    0.10E-03    0.19E-06
   2      9    11.641    58.894    0.25E-03    0.10E-03    0.19E-06
   0     10    11.641   109.617    0.73E-04    0.33E-04    0.11E-06
   0     10    11.641    75.026    0.71E-04    0.32E-04    0.11E-06
   1     10    11.641    16.344    0.27E-04    0.97E-04    0.16E-06
   1     10    11.641    10.160    0.23E-04    0.77E-04    0.13E-06
 Optimization of the real space projectors (new method)

[...]

   l    n(q)    QCUT    max X(q) W(low)/X(q) W(high)/X(q)  e(spline)
   1      8    11.527     2.974    0.44E-04    0.56E-04    0.12E-06
   1      8    11.527     4.279    0.12E-03    0.12E-03    0.26E-06
   0      9    11.527    16.381    0.46E-04    0.64E-04    0.78E-07
   0      9    11.527     5.611    0.26E-04    0.43E-04    0.55E-07
   2      8    11.527     4.652    0.22E-03    0.72E-04    0.47E-07
 Optimization of the real space projectors (new method)

 maximal supplied QI-value         = 24.76
 optimisation between [QCUT,QGAM] = [ 11.64, 23.27] = [ 37.91,151.63] Ry
 Optimized for a Real-space Cutoff    1.14 Angstroem

   l    n(q)    QCUT    max X(q) W(low)/X(q) W(high)/X(q)  e(spline)
   0      8    11.635    20.381    0.10E-03    0.33E-03    0.24E-06
   0      8    11.635    15.268    0.11E-03    0.35E-03    0.26E-06
   1      7    11.635     5.964    0.24E-03    0.31E-03    0.30E-06
   1      7    11.635     5.382    0.22E-03    0.25E-03    0.26E-06
  PAW_PBE Au 04Oct2007                  :
  PAW_PBE Mg_pv 13Apr2007               :
  PAW_PBE O 08Apr2002                   :

 POSCAR: Au Mg  O
  positions in direct lattice
  velocities in cartesian coordinates
 exchange correlation table for  LEXCH =        8
   RHO(1)=    0.500       N(1)  =     2000
   RHO(2)=  100.500       N(2)  =     4000

 ion  position               nearest neighbor table
   1  0.404  0.596  0.665-   2 2.57   4 2.74
   2  0.332  0.668  0.602- 138 2.40   1 2.57  59 2.71  40 2.71
   3  0.568  0.432  0.602- 173 2.40   4 2.57  75 2.71  56 2.71
   4  0.496  0.504  0.665-   3 2.57   1 2.74
   5  0.000  0.000  0.407- 107 2.11 108 2.11 123 2.11 188 2.11 105 2.11
   6  0.100  0.100  0.407- 107 2.11 108 2.11 112 2.11 127 2.11 106 2.11
   7  0.000  0.100  0.503- 105 2.11 106 2.11 109 2.11 186 2.11 107 2.11
   8  0.100  0.000  0.503- 105 2.11 106 2.11 122 2.11 125 2.11 108 2.11
   9  0.000  0.200  0.407- 111 2.11 107 2.11 112 2.11 192 2.11 109 2.11
  10  0.100  0.300  0.407- 112 2.11 111 2.11 116 2.11 131 2.11 110 2.11
  11  0.000  0.300  0.503- 109 2.11 110 2.11 113 2.11 190 2.11 111 2.11
  12  0.100  0.200  0.503- 110 2.11 109 2.11 106 2.11 129 2.11 112 2.11
  13  0.000  0.400  0.407- 111 2.11 115 2.11 116 2.11 196 2.11 113 2.11
  14  0.100  0.500  0.407- 115 2.11 116 2.11 120 2.11 135 2.11 114 2.11
  15  0.000  0.500  0.503- 113 2.11 114 2.11 117 2.11 194 2.11 115 2.11
  16  0.100  0.400  0.503- 110 2.11 113 2.11 114 2.11 133 2.11 116 2.11
  17  0.000  0.600  0.407- 115 2.11 119 2.11 120 2.11 200 2.11 117 2.11
  18  0.100  0.700  0.407- 124 2.11 120 2.11 119 2.11 139 2.11 118 2.11
  19  0.000  0.700  0.503- 121 2.11 118 2.11 117 2.11 198 2.11 119 2.11
  20  0.100  0.600  0.503- 114 2.11 117 2.11 118 2.11 137 2.11 120 2.11
  21  0.000  0.800  0.407- 119 2.11 123 2.11 124 2.11 204 2.11 121 2.11
  22  0.100  0.900  0.407- 108 2.11 123 2.11 124 2.11 143 2.11 122 2.11
  23  0.000  0.900  0.503- 105 2.11 121 2.11 122 2.11 202 2.11 123 2.11
  24  0.100  0.800  0.503- 118 2.11 121 2.11 122 2.11 141 2.11 124 2.11
  25  0.200  0.000  0.407- 128 2.11 127 2.11 108 2.11 143 2.11 125 2.11
  26  0.300  0.100  0.407- 127 2.11 128 2.11 132 2.11 147 2.11 126 2.11
  27  0.200  0.100  0.503- 126 2.11 125 2.11 106 2.11 129 2.11 127 2.11
  28  0.300  0.000  0.503- 125 2.11 126 2.11 142 2.11 145 2.11 128 2.11
  29  0.200  0.200  0.407- 131 2.11 132 2.11 112 2.11 127 2.11 129 2.11
  30  0.300  0.300  0.407- 131 2.11 132 2.11 136 2.11 151 2.11 130 2.11
  31  0.200  0.300  0.503- 129 2.11 130 2.11 110 2.11 133 2.11 131 2.11
  32  0.300  0.200  0.503- 129 2.11 130 2.11 126 2.11 149 2.11 132 2.11
  33  0.200  0.400  0.407- 136 2.11 131 2.11 135 2.11 116 2.11 133 2.11
  34  0.300  0.500  0.407- 135 2.11 136 2.11 140 2.11 155 2.11 134 2.11
  35  0.200  0.500  0.503- 134 2.11 133 2.11 114 2.11 137 2.11 135 2.11
  36  0.300  0.400  0.503- 133 2.11 130 2.11 134 2.11 153 2.11 136 2.11
  37  0.200  0.600  0.407- 140 2.11 135 2.11 139 2.11 120 2.11 137 2.11
  38  0.300  0.700  0.407- 139 2.11 144 2.11 140 2.11 159 2.11 138 2.11
  39  0.200  0.700  0.503- 138 2.11 141 2.11 118 2.11 137 2.11 139 2.11
  40  0.300  0.600  0.503- 137 2.11 134 2.11 138 2.11 157 2.11 140 2.11   2 2.71
  41  0.200  0.800  0.407- 139 2.11 144 2.11 143 2.11 124 2.11 141 2.11
  42  0.300  0.900  0.407- 143 2.11 128 2.11 144 2.11 163 2.11 142 2.11
  43  0.200  0.900  0.503- 142 2.11 125 2.11 141 2.11 122 2.11 143 2.11
  44  0.300  0.800  0.503- 138 2.11 141 2.11 142 2.11 161 2.11 144 2.11
  45  0.400  0.000  0.407- 128 2.11 147 2.11 148 2.11 163 2.11 145 2.11
  46  0.500  0.100  0.407- 147 2.11 148 2.11 152 2.11 167 2.11 146 2.11
  47  0.400  0.100  0.503- 126 2.11 145 2.11 146 2.11 149 2.11 147 2.11
  48  0.500  0.000  0.503- 145 2.11 146 2.11 162 2.11 165 2.11 148 2.11
  49  0.400  0.200  0.407- 151 2.11 147 2.11 132 2.11 152 2.11 149 2.11
  50  0.500  0.300  0.407- 152 2.11 151 2.11 156 2.11 171 2.11 150 2.11
  51  0.400  0.300  0.503- 149 2.11 130 2.11 150 2.11 153 2.11 151 2.11
  52  0.500  0.200  0.503- 150 2.11 149 2.11 146 2.11 169 2.11 152 2.11
  53  0.400  0.400  0.407- 136 2.11 151 2.11 155 2.11 156 2.11 153 2.11
  54  0.500  0.500  0.407- 155 2.11 156 2.11 160 2.11 175 2.11 154 2.11
  55  0.400  0.500  0.503- 134 2.11 153 2.11 154 2.11 157 2.11 155 2.11
  56  0.500  0.400  0.503- 150 2.11 153 2.11 154 2.11 173 2.11 156 2.11   3 2.71
  57  0.400  0.600  0.407- 140 2.11 155 2.11 159 2.11 160 2.11 157 2.11
  58  0.500  0.700  0.407- 164 2.11 160 2.11 159 2.11 179 2.11 158 2.11
  59  0.400  0.700  0.503- 161 2.11 157 2.11 158 2.11 138 2.11 159 2.11   2 2.71
  60  0.500  0.600  0.503- 154 2.11 157 2.11 158 2.11 177 2.11 160 2.11
[...]
 190  0.900  0.300  0.503-  92 2.11  91 2.11  11 2.11  96 2.11  90 2.11
 191  0.800  0.300  0.407-  70 2.11  89 2.11  90 2.11  93 2.11  91 2.11
 192  0.900  0.200  0.407-  90 2.11  86 2.11  89 2.11   9 2.11  92 2.11
 193  0.800  0.400  0.503-  76 2.11  91 2.11  95 2.11  96 2.11  93 2.11
 194  0.900  0.500  0.503-  15 2.11  95 2.11  96 2.11 100 2.11  94 2.11
 195  0.800  0.500  0.407-  74 2.11  93 2.11  94 2.11  97 2.11  95 2.11
 196  0.900  0.400  0.407-  13 2.11  90 2.11  93 2.11  94 2.11  96 2.11
 197  0.800  0.600  0.503-  80 2.11  95 2.11  99 2.11 100 2.11  97 2.11
 198  0.900  0.700  0.503- 104 2.11  99 2.11 100 2.11  19 2.11  98 2.11
 199  0.800  0.700  0.407-  78 2.11 101 2.11  98 2.11  97 2.11  99 2.11
 200  0.900  0.600  0.407-  17 2.11  94 2.11  97 2.11  98 2.11 100 2.11
 201  0.800  0.800  0.503-  84 2.11  99 2.11 103 2.11 104 2.11 101 2.11
 202  0.900  0.900  0.503-  23 2.11  88 2.11 103 2.11 104 2.11 102 2.11
 203  0.800  0.900  0.407-  82 2.11  85 2.11 101 2.11 102 2.11 103 2.11
 204  0.900  0.800  0.407-  98 2.11  21 2.11 101 2.11 102 2.11 104 2.11

  LATTYP: Found a simple tetragonal cell.
 ALAT       =    21.1388521970
 C/A-ratio  =     1.0461251639

  Lattice vectors:

 A1 = (  21.1388521970,   0.0000000000,   0.0000000000)
 A2 = (   0.0000000000,  21.1388521970,   0.0000000000)
 A3 = (   0.0000000000,   0.0000000000,  22.1138852197)

Analysis of symmetry for initial positions (statically):
 Subroutine PRICEL returns:
 Original cell was already a primitive cell.

 Routine SETGRP: Setting up the symmetry group for a
 simple tetragonal supercell.

 Subroutine GETGRP returns: Found  2 space group operations
 (whereof  1 operations were pure point group operations)
 out of a pool of 16 trial point group operations.

The static configuration has the point symmetry C_1 .
 The point group associated with its full space group is C_1h.

Analysis of symmetry for dynamics (positions and initial velocities):
 Subroutine PRICEL returns:
 Original cell was already a primitive cell.

[...]

The dynamic configuration has the point symmetry C_1 .
 The point group associated with its full space group is C_1h.

Analysis of constrained symmetry for selective dynamics:
 Subroutine PRICEL returns:
 Original cell was already a primitive cell.

 Routine SETGRP: Setting up the symmetry group for a
 simple tetragonal supercell.

 Subroutine GETGRP returns: Found  2 space group operations
 (whereof  1 operations were pure point group operations)
 out of a pool of 16 trial point group operations.

The constrained configuration has the point symmetry C_1 .
 The point group associated with its full space group is C_1h.

 Subroutine INISYM returns: Found  2 space group operations
 (whereof  1 operations are pure point group operations),
 and found     1 'primitive' translations

                                     Primitive cell

  volume of cell :    9881.6133

  direct lattice vectors                    reciprocal lattice vectors
    21.138852197  0.000000000  0.000000000     0.047306258  0.000000000  0.000000000
     0.000000000 21.138852197  0.000000000     0.000000000  0.047306258  0.000000000
     0.000000000  0.000000000 22.113885220     0.000000000  0.000000000  0.045220457

  length of vectors
    21.138852197 21.138852197 22.113885220     0.047306258  0.047306258  0.045220457

  position of ions in fractional coordinates (direct lattice)
     0.404253373  0.595794633  0.665345618
     0.332139373  0.667908160  0.602022863
     0.567907686  0.432139846  0.602022863
     0.495794160  0.504253373  0.665345618
     0.000000000  0.000000000  0.406984115
     0.100000000  0.100000000  0.406984115
     0.000000000  0.100000000  0.502574971
[...]
     52     -43.0505      2.00000
     53     -43.0457      2.00000
     54     -43.0427      2.00000
     55     -43.0421      2.00000
     56     -43.0421      2.00000
     57     -43.0418      2.00000
     58     -43.0413      2.00000
     59     -43.0397      2.00000
     60     -43.0396      2.00000
[...]
    946       6.1522      0.00000
    947       6.2111      0.00000
    948       6.2342      0.00000
    949       6.2677      0.00000
    950       6.3453      0.00000
    951       6.4080      0.00000
    952       6.4088      0.00000
    953       6.5266      0.00000
    954       6.6006      0.00000
    955       6.6283      0.00000
    956       6.7253      0.00000
    957       6.7455      0.00000
    958       6.7997      0.00000
    959       6.8277      0.00000
    960       6.9096      0.00000

 soft charge-density along one line, spin component           1
         0         1         2         3         4         5         6         7         8         9
 total charge-density along one line

------------------------ aborting loop because EDIFF is reached ----------------------------------------

  FORCE on cell =-STRESS in cart. coord.  units (eV):
  Direction    XX          YY          ZZ          XY          YZ          ZX
  Alpha Z  1417.83424  1417.83424  1417.83424
  Ewald  482423.15860482423.15974************ -1155.82133    -0.02915    -0.03097
  Hartree511554.07805511554.07845************  -909.48379    -0.01306    -0.01362
  E(xc)   -7846.96822 -7846.96822 -7878.02988    -1.09211     0.00011     0.00012
  Local  ************************************  2048.23615     0.04094     0.04311
  n-local -8766.71558 -8766.71555 -8886.46222    11.07891    -0.00284    -0.00310
  augment  3551.39979  3551.39979  3494.91988     1.88627     0.00130     0.00131
  Kinetic 23297.66335 23297.66333 23549.15739     6.61795    -0.00031    -0.00012
  Fock        0.00000     0.00000     0.00000     0.00000     0.00000     0.00000
  Total    -148.32945  -148.32945    19.48611     1.42205    -0.00314    -0.00314
  in kB     -24.04972   -24.04972     3.15942     0.23057    -0.00051    -0.00051

 VOLUME and BASIS-vectors are now :
  energy-cutoff  :      520.00
  volume of cell :     9881.61
      direct lattice vectors                 reciprocal lattice vectors
    21.138852197  0.000000000  0.000000000     0.047306258  0.000000000  0.000000000
     0.000000000 21.138852197  0.000000000     0.000000000  0.047306258  0.000000000
     0.000000000  0.000000000 22.113885220     0.000000000  0.000000000  0.045220457

  length of vectors
    21.138852197 21.138852197 22.113885220     0.047306258  0.047306258  0.045220457

 FORCES acting on ions:
    Electron-Ion                     Ewald-Force                    Non-Local-Force
   0.492E+02 -.492E+02 -.197E+04   -.510E+02 0.510E+02 0.197E+04   0.187E+01 -.187E+01 0.265E+01
   0.221E+03 -.221E+03 -.203E+04   -.218E+03 0.218E+03 0.203E+04   -.251E+01 0.251E+01 -.215E+01
   -.221E+03 0.221E+03 -.203E+04   0.218E+03 -.218E+03 0.203E+04   0.251E+01 -.251E+01 -.215E+01
   -.492E+02 0.492E+02 -.197E+04   0.510E+02 -.510E+02 0.197E+04   -.187E+01 0.187E+01 0.265E+01
   0.457E+01 -.457E+01 0.937E+03   -.461E+01 0.461E+01 -.929E+03   0.305E-01 -.305E-01 -.744E+01
   0.896E+01 0.203E+01 0.938E+03   -.895E+01 -.195E+01 -.930E+03   -.480E-02 -.578E-01 -.744E+01
   0.331E+01 0.331E+01 -.918E+03   -.328E+01 -.328E+01 0.911E+03   -.208E-01 -.208E-01 0.735E+01
   0.139E+02 -.104E+02 -.916E+03   -.139E+02 0.105E+02 0.908E+03   0.242E-01 -.976E-01 0.735E+01
   0.202E+01 0.896E+01 0.938E+03   -.195E+01 -.895E+01 -.930E+03   -.578E-01 -.480E-02 -.744E+01
   0.143E+02 0.155E+02 0.944E+03   -.142E+02 -.155E+02 -.936E+03   -.521E-01 0.315E-03 -.746E+01
   0.314E+01 0.155E+02 -.915E+03   -.302E+01 -.155E+02 0.907E+03   -.911E-01 -.986E-03 0.735E+01
   0.132E+02 0.132E+02 -.916E+03   -.132E+02 -.132E+02 0.908E+03   -.415E-01 -.415E-01 0.735E+01
   0.487E+01 0.110E+02 0.945E+03   -.477E+01 -.110E+02 -.937E+03   -.793E-01 0.195E-01 -.745E+01
   0.281E+02 0.111E+02 0.957E+03   -.281E+02 -.113E+02 -.949E+03   -.568E-02 0.121E+00 -.747E+01
   0.128E+02 0.788E+01 -.909E+03   -.128E+02 -.792E+01 0.901E+03   -.300E-01 0.262E-01 0.734E+01
   0.306E+02 0.233E+02 -.906E+03   -.304E+02 -.233E+02 0.898E+03   -.107E+00 0.429E-01 0.733E+01
   0.121E+02 -.242E+01 0.949E+03   -.122E+02 0.238E+01 -.941E+03   0.837E-01 0.312E-01 -.746E+01
   0.318E+02 -.129E+02 0.960E+03   -.323E+02 0.128E+02 -.952E+03   0.408E+00 0.466E-01 -.752E+01
   0.203E+02 -.128E+02 -.909E+03   -.205E+02 0.128E+02 0.901E+03   0.143E+00 0.198E-01 0.734E+01
   0.581E+02 0.285E+01 -.892E+03   -.583E+02 -.301E+01 0.885E+03   0.143E+00 0.120E+00 0.731E+01
   0.108E+02 -.130E+02 0.943E+03   -.110E+02 0.130E+02 -.936E+03   0.152E+00 -.156E-01 -.745E+01
   0.158E+02 -.158E+02 0.944E+03   -.159E+02 0.159E+02 -.937E+03   0.110E+00 -.110E+00 -.743E+01
   0.104E+02 -.139E+02 -.916E+03   -.105E+02 0.139E+02 0.908E+03   0.977E-01 -.242E-01 0.735E+01
   0.387E+02 -.287E+02 -.903E+03   -.391E+02 0.288E+02 0.896E+03   0.333E+00 -.233E-01 0.734E+01
   0.130E+02 -.109E+02 0.943E+03   -.130E+02 0.110E+02 -.936E+03   0.156E-01 -.152E+00 -.745E+01
   0.110E+02 0.487E+01 0.945E+03   -.110E+02 -.477E+01 -.937E+03   0.195E-01 -.793E-01 -.745E+01
   0.155E+02 0.314E+01 -.915E+03   -.155E+02 -.302E+01 0.907E+03   -.986E-03 -.911E-01 0.735E+01
   0.128E+02 -.203E+02 -.909E+03   -.128E+02 0.205E+02 0.901E+03   -.198E-01 -.143E+00 0.734E+01
   0.155E+02 0.143E+02 0.944E+03   -.155E+02 -.142E+02 -.936E+03   0.315E-03 -.521E-01 -.746E+01
   0.252E+02 0.322E+02 0.963E+03   -.253E+02 -.321E+02 -.955E+03   0.773E-01 -.401E-01 -.751E+01
   0.329E+02 0.329E+02 -.904E+03   -.328E+02 -.328E+02 0.897E+03   -.610E-01 -.610E-01 0.732E+01
   0.233E+02 0.306E+02 -.906E+03   -.233E+02 -.304E+02 0.898E+03   0.429E-01 -.107E+00 0.733E+01
   0.322E+02 0.252E+02 0.963E+03   -.321E+02 -.253E+02 -.955E+03   -.401E-01 0.773E-01 -.751E+01
   0.425E+02 0.277E+02 0.101E+04   -.426E+02 -.282E+02 -.100E+04   0.117E-01 0.361E+00 -.779E+01
   0.791E+02 0.416E+02 -.869E+03   -.788E+02 -.419E+02 0.862E+03   -.266E+00 0.289E+00 0.724E+01
   0.671E+02 0.671E+02 -.862E+03   -.669E+02 -.669E+02 0.854E+03   -.149E+00 -.149E+00 0.722E+01
   0.499E+02 0.288E+01 0.992E+03   -.501E+02 -.338E+01 -.984E+03   0.141E+00 0.375E+00 -.746E+01
   0.342E+02 -.342E+02 0.102E+04   -.339E+02 0.339E+02 -.102E+04   -.205E+00 0.204E+00 -.498E+01
   0.109E+03 -.430E+02 -.839E+03   -.112E+03 0.427E+02 0.832E+03   0.184E+01 0.208E+00 0.739E+01
   0.120E+03 0.626E+02 -.698E+03   -.120E+03 -.655E+02 0.692E+03   -.451E+00 0.190E+01 0.532E+01
   0.312E+02 -.312E+02 0.969E+03   -.315E+02 0.315E+02 -.962E+03   0.249E+00 -.249E+00 -.735E+01
   0.129E+02 -.318E+02 0.960E+03   -.128E+02 0.323E+02 -.952E+03   -.466E-01 -.408E+00 -.752E+01
   0.287E+02 -.387E+02 -.903E+03   -.288E+02 0.391E+02 0.896E+03   0.233E-01 -.333E+00 0.734E+01
   0.431E+02 -.109E+03 -.839E+03   -.428E+02 0.112E+03 0.832E+03   -.208E+00 -.184E+01 0.739E+01
   0.242E+01 -.121E+02 0.949E+03   -.238E+01 0.122E+02 -.941E+03   -.313E-01 -.836E-01 -.746E+01
   -.242E+01 0.121E+02 0.949E+03   0.238E+01 -.122E+02 -.941E+03   0.312E-01 0.837E-01 -.746E+01
   0.788E+01 0.128E+02 -.909E+03   -.792E+01 -.128E+02 0.901E+03   0.262E-01 -.300E-01 0.734E+01
   -.788E+01 -.129E+02 -.909E+03   0.792E+01 0.128E+02 0.901E+03   -.262E-01 0.302E-01 0.734E+01
   0.111E+02 0.281E+02 0.957E+03   -.113E+02 -.281E+02 -.949E+03   0.121E+00 -.568E-02 -.747E+01
   0.288E+01 0.499E+02 0.992E+03   -.338E+01 -.501E+02 -.984E+03   0.375E+00 0.141E+00 -.746E+01
   0.416E+02 0.792E+02 -.869E+03   -.419E+02 -.788E+02 0.862E+03   0.289E+00 -.266E+00 0.724E+01
   0.285E+01 0.581E+02 -.892E+03   -.301E+01 -.583E+02 0.885E+03   0.120E+00 0.143E+00 0.731E+01
   0.277E+02 0.425E+02 0.101E+04   -.282E+02 -.426E+02 -.100E+04   0.361E+00 0.117E-01 -.779E+01
   -.764E+01 0.767E+01 0.105E+04   0.734E+01 -.737E+01 -.104E+04   0.227E+00 -.227E+00 -.772E+01
   0.665E+02 0.665E+02 -.736E+03   -.667E+02 -.667E+02 0.730E+03   0.157E+00 0.157E+00 0.675E+01
   0.626E+02 0.120E+03 -.698E+03   -.655E+02 -.120E+03 0.692E+03   0.190E+01 -.451E+00 0.532E+01
   0.766E+01 -.764E+01 0.105E+04   -.737E+01 0.734E+01 -.104E+04   -.227E+00 0.227E+00 -.772E+01
   -.277E+02 -.425E+02 0.101E+04   0.282E+02 0.426E+02 -.100E+04   -.361E+00 -.117E-01 -.779E+01
   -.626E+02 -.120E+03 -.698E+03   0.655E+02 0.120E+03 0.692E+03   -.190E+01 0.451E+00 0.532E+01
   -.665E+02 -.665E+02 -.736E+03   0.667E+02 0.667E+02 0.730E+03   -.158E+00 -.158E+00 0.675E+01
[...]
   -.181E+02 0.142E+02 0.716E+03   0.182E+02 -.143E+02 -.720E+03   -.250E+00 0.113E+00 0.352E+01
   -.563E+01 0.800E+01 0.706E+03   0.569E+01 -.802E+01 -.710E+03   -.894E-01 0.460E-01 0.350E+01
   -.423E+02 0.143E+02 -.672E+03   0.424E+02 -.143E+02 0.676E+03   -.267E+00 -.932E-01 -.373E+01
   -.142E+02 0.197E+01 -.682E+03   0.143E+02 -.193E+01 0.687E+03   -.564E-01 -.469E-01 -.367E+01
   -.251E+02 -.569E-02 0.723E+03   0.252E+02 0.151E+00 -.727E+03   -.161E+00 -.191E+00 0.347E+01
   -.984E+01 0.738E+01 0.712E+03   0.992E+01 -.736E+01 -.716E+03   -.124E+00 -.148E-01 0.349E+01
   -.339E+02 -.138E+02 -.675E+03   0.339E+02 0.139E+02 0.680E+03   -.508E-02 -.142E+00 -.371E+01
   -.496E+01 -.108E+02 -.685E+03   0.491E+01 0.108E+02 0.689E+03   0.638E-01 -.125E-01 -.366E+01
   -.155E+02 -.121E+02 0.714E+03   0.154E+02 0.122E+02 -.718E+03   0.461E-01 -.431E-01 0.347E+01
   -.646E+01 -.420E+01 0.712E+03   0.645E+01 0.424E+01 -.716E+03   0.713E-02 -.396E-01 0.348E+01
   -.147E+02 -.156E+02 -.685E+03   0.147E+02 0.156E+02 0.690E+03   0.682E-01 0.246E-01 -.366E+01
   -.171E+01 -.840E+01 -.689E+03   0.166E+01 0.840E+01 0.694E+03   0.550E-01 0.719E-02 -.364E+01
   -.770E+01 -.769E+01 0.707E+03   0.767E+01 0.767E+01 -.711E+03   0.307E-01 0.307E-01 0.349E+01
   -.194E+01 -.909E+01 0.708E+03   0.188E+01 0.910E+01 -.712E+03   0.719E-01 -.619E-02 0.349E+01
   -.731E+00 0.728E+00 0.152E+02   0.199E-11 0.119E-11 0.146E-10   0.283E-02 0.283E-02 -.157E+02

 POSITION                                       TOTAL-FORCE (eV/Angst)
      8.54545     12.59441     14.71338         0.002062     -0.001222      0.116088
      7.02105     14.11881     13.31306        -0.040365      0.039636      0.126802
     12.00492      9.13494     13.31306         0.039636     -0.040365      0.126802
     10.48052     10.65934     14.71338        -0.001222      0.002062      0.116088
      0.00000      0.00000      9.00000        -0.008468      0.008443      0.335014
      2.11389      2.11389      9.00000         0.001239      0.015391      0.336843
      0.00000      2.11389     11.11389         0.005468      0.005468     -0.304937
      2.11389      0.00000     11.11389        -0.006993      0.025748     -0.302723
      0.00000      4.22777      9.00000         0.015391      0.001239      0.336843
      2.11389      6.34166      9.00000         0.014242      0.000652      0.341028
      0.00000      6.34166     11.11389         0.024026      0.000654     -0.301586
      2.11389      4.22777     11.11389         0.011449      0.011449     -0.302564
      0.00000      8.45554      9.00000         0.020465     -0.004979      0.338785
      2.11389     10.56943      9.00000        -0.000554     -0.033768      0.341757
      0.00000     10.56943     11.11389         0.008186     -0.007144     -0.295346
      2.11389      8.45554     11.11389         0.029236     -0.009744     -0.291940
      0.00000     12.68331      9.00000        -0.022138     -0.009340      0.339879
      2.11389     14.79720      9.00000        -0.102071     -0.013854      0.348027
      0.00000     14.79720     11.11389        -0.036046     -0.005983     -0.296275
      2.11389     12.68331     11.11389        -0.037741     -0.035638     -0.275798
      0.00000     16.91108      9.00000        -0.040017      0.004616      0.337317
      2.11389     19.02497      9.00000        -0.031493      0.031482      0.330623
      0.00000     19.02497     11.11389        -0.025775      0.006976     -0.302722
      2.11389     16.91108     11.11389        -0.086609      0.008201     -0.291719
      4.22777      0.00000      9.00000        -0.004631      0.039984      0.337319
      6.34166      2.11389      9.00000        -0.004979      0.020465      0.338785
      4.22777      2.11389     11.11389         0.000654      0.024026     -0.301586
      6.34166      0.00000     11.11389         0.005976      0.035995     -0.296274
      4.22777      4.22777      9.00000         0.000652      0.014242      0.341028
      6.34166      6.34166      9.00000        -0.017785      0.012281      0.357075
      4.22777      6.34166     11.11389         0.018300      0.018300     -0.290000
      6.34166      4.22777     11.11389        -0.009744      0.029236     -0.291940
      4.22777      8.45554      9.00000         0.012281     -0.017785      0.357075
      6.34166     10.56943      9.00000         0.001040     -0.087583      0.419641
      4.22777     10.56943     11.11389         0.083477     -0.065657     -0.233188
      6.34166      8.45554     11.11389         0.048676      0.048676     -0.228248
      4.22777     12.68331      9.00000        -0.051991     -0.120788      0.320624
      6.34166     14.79720      9.00000         0.069044     -0.068950     -0.233342
      4.22777     14.79720     11.11389        -0.566997     -0.071589     -0.259104
      6.34166     12.68331     11.11389        -0.018918     -0.972700     -0.318188
      4.22777     16.91108      9.00000        -0.085183      0.085202      0.292659
      6.34166     19.02497      9.00000         0.013854      0.102024      0.348042
      4.22777     19.02497     11.11389        -0.008194      0.086588     -0.291721
      6.34166     16.91108     11.11389         0.071640      0.567007     -0.259108
      8.45554      0.00000      9.00000         0.009330      0.022095      0.339885
     10.56943      2.11389      9.00000        -0.009340     -0.022138      0.339879
      8.45554      2.11389     11.11389        -0.007144      0.008186     -0.295346
     10.56943      0.00000     11.11389         0.007136     -0.008240     -0.295338
      8.45554      4.22777      9.00000        -0.033768     -0.000554      0.341757
     10.56943      6.34166      9.00000        -0.120788     -0.051991      0.320624
      8.45554      6.34166     11.11389        -0.065657      0.083477     -0.233188
     10.56943      4.22777     11.11389        -0.035638     -0.037741     -0.275798
      8.45554      8.45554      9.00000        -0.087583      0.001040      0.419641
     10.56943     10.56943      9.00000        -0.072416      0.072472      0.362719
      8.45554     10.56943     11.11389        -0.027569     -0.027569      0.063337
     10.56943      8.45554     11.11389        -0.972700     -0.018918     -0.318188
      8.45554     12.68331      9.00000         0.072472     -0.072416      0.362719
     10.56943     14.79720      9.00000         0.087589     -0.001056      0.419713
      8.45554     14.79720     11.11389         0.973767      0.019263     -0.319359
     10.56943     12.68331     11.11389         0.027676      0.027676      0.063596
[...]
     19.02497      6.34166     11.11389        -0.033960      0.004443      0.507262
     16.91108      6.34166      9.00000        -0.068525      0.030340     -0.539802
     19.02497      4.22777      9.00000        -0.024542      0.012557     -0.544663
     16.91108      8.45554     11.11389        -0.076061     -0.025503      0.489098
     19.02497     10.56943     11.11389        -0.015768     -0.013066      0.501587
     16.91108     10.56943      9.00000        -0.043846     -0.051585     -0.551885
     19.02497      8.45554      9.00000        -0.034187     -0.004294     -0.547382
     16.91108     12.68331     11.11389        -0.001738     -0.039369      0.490891
     19.02497     14.79720     11.11389         0.017711     -0.003235      0.505993
     16.91108     14.79720      9.00000         0.012755     -0.011833     -0.553319
     19.02497     12.68331      9.00000         0.002057     -0.010791     -0.549553
     16.91108     16.91108     11.11389         0.018803      0.006822      0.505774
     19.02497     19.02497     11.11389         0.015104      0.001977      0.511916
     16.91108     19.02497      9.00000         0.008453      0.008453     -0.547529
     19.02497     16.91108      9.00000         0.019829     -0.001650     -0.547123
    total drift:                               -0.727912      0.731236     -0.594819

  FREE ENERGIE OF THE ION-ELECTRON SYSTEM (eV)
  free  energy   TOTEN  =     -1145.71760276 eV

  energy  without entropy=    -1145.71760276  energy(sigma->0) =    -1145.71760276