 vasp.6.4.0 14Feb23 (build Jul 14 2023 13:46:40) complex

 executed on             LinuxIFC date 2023.08.26  03:34:52

 INCAR:
   SYSTEM = MgO-rocksalt
   ISMEAR = 0
   SIGMA = 0.05
   EDIFF = 1E-6
   ALGO = ALL
   ISTART = 0
   IBRION = -1
   NSW = 0
   ISYM = 2
   DIPOL = 0.5 0.5 0.5
   IDIPOL = 3
   LDIPOL = .TRUE.
   LHFCALC = .TRUE.
   GGA = PE
   IVDW = 11
   VDW_S6 = 1.0
   VDW_SR = 1.287
   VDW_S8 = 0.928
   ENCUT = 520
   PREC = Accurate
   LASPH = .TRUE.
   LREAL = Auto
   ISPIN = 1
   NELM = 200
   NELMIN = 8
   NCORE = 16
   KPAR = 1
   LWAVE = .FALSE.
   LCHARG = .FALSE.

 POTCAR:    PAW_PBE Mg_pv 13Apr2007
 POTCAR:    PAW_PBE O 08Apr2002
|           W    W    AA    RRRRR   N    N  II  N    N   GGGG   !!!           |
|           W    W   A  A   R    R  NN   N  II  NN   N  G    G  !!!           |
|           W    W  A    A  R    R  N N  N  II  N N  N  G       !!!           |
|           W WW W  AAAAAA  RRRRR   N  N N  II  N  N N  G  GGG   !            |
|           WW  WW  A    A  R   R   N   NN  II  N   NN  G    G                |
|           W    W  A    A  R    R  N    N  II  N    N   GGGG   !!!           |
|     You have selected ISYM=2 for a HF type calculation. This will           |
|     symmetrize the charge density but not the exchange potential. I         |
|     suggest to use ISYM=3 instead. This uses symmetry to obtain the         |
|     orbitals at all k-points in the Brillouin zone, but does not apply      |
|     symmetry to the Hartree potential directly. The resultant charge        |
|     might have lower symmetry than the crystal but, at least, Hartree       |
|     and exchange are fully compatible.                                      |

   TITEL  = PAW_PBE Mg_pv 13Apr2007
   POMASS =   24.305; ZVAL   =    8.000    mass and valenz
   ENMAX  =  403.929; ENMIN  =  302.947 eV

   TITEL  = PAW_PBE O 08Apr2002
   POMASS =   16.000; ZVAL   =    6.000    mass and valenz
   ENMAX  =  400.000; ENMIN  =  300.000 eV

 Optimization of the real space projectors (new method)

 maximal supplied QI-value         = 18.90
 optimisation between [QCUT,QGAM] = [ 11.53, 23.24] = [ 37.21,151.29] Ry
 Optimized for a Real-space Cutoff    1.28 Angstroem

   l    n(q)    QCUT    max X(q) W(low)/X(q) W(high)/X(q)  e(spline)
   1      8    11.527     2.974    0.44E-04    0.56E-04    0.12E-06
   1      8    11.527     4.279    0.12E-03    0.12E-03    0.26E-06
   0      9    11.527    16.381    0.46E-04    0.64E-04    0.78E-07
   0      9    11.527     5.611    0.26E-04    0.43E-04    0.55E-07
   2      8    11.527     4.652    0.22E-03    0.72E-04    0.47E-07
 Optimization of the real space projectors (new method)

 maximal supplied QI-value         = 24.76
 optimisation between [QCUT,QGAM] = [ 11.64, 23.27] = [ 37.91,151.63] Ry
 Optimized for a Real-space Cutoff    1.14 Angstroem

   l    n(q)    QCUT    max X(q) W(low)/X(q) W(high)/X(q)  e(spline)
   0      8    11.635    20.381    0.10E-03    0.33E-03    0.24E-06
   0      8    11.635    15.268    0.11E-03    0.35E-03    0.26E-06
   1      7    11.635     5.964    0.24E-03    0.31E-03    0.30E-06
   1      7    11.635     5.382    0.22E-03    0.25E-03    0.26E-06
  PAW_PBE Mg_pv 13Apr2007               :
  PAW_PBE O 08Apr2002                   :

 POSCAR: Mg  O
  positions in direct lattice
 exchange correlation table for  LEXCH =        8
   RHO(1)=    0.500       N(1)  =     2000
   RHO(2)=  100.500       N(2)  =     4000

 ion  position               nearest neighbor table
   1  0.000  0.000  0.407- 103 2.11 104 2.11 119 2.11 184 2.11 101 2.11
   2  0.100  0.100  0.407- 103 2.11 104 2.11 108 2.11 123 2.11 102 2.11
   3  0.000  0.100  0.503- 101 2.11 102 2.11 105 2.11 182 2.11 103 2.11
   4  0.100  0.000  0.503- 101 2.11 102 2.11 118 2.11 121 2.11 104 2.11
   5  0.000  0.200  0.407- 107 2.11 103 2.11 108 2.11 188 2.11 105 2.11
   6  0.100  0.300  0.407- 108 2.11 107 2.11 112 2.11 127 2.11 106 2.11
   7  0.000  0.300  0.503- 105 2.11 106 2.11 109 2.11 186 2.11 107 2.11
   8  0.100  0.200  0.503- 106 2.11 105 2.11 102 2.11 125 2.11 108 2.11
   9  0.000  0.400  0.407- 107 2.11 111 2.11 112 2.11 192 2.11 109 2.11
  10  0.100  0.500  0.407- 111 2.11 112 2.11 116 2.11 131 2.11 110 2.11
  11  0.000  0.500  0.503- 109 2.11 110 2.11 113 2.11 190 2.11 111 2.11
  12  0.100  0.400  0.503- 106 2.11 109 2.11 110 2.11 129 2.11 112 2.11
  13  0.000  0.600  0.407- 111 2.11 115 2.11 116 2.11 196 2.11 113 2.11
  14  0.100  0.700  0.407- 120 2.11 116 2.11 115 2.11 135 2.11 114 2.11
  15  0.000  0.700  0.503- 117 2.11 114 2.11 113 2.11 194 2.11 115 2.11
  16  0.100  0.600  0.503- 110 2.11 113 2.11 114 2.11 133 2.11 116 2.11
  17  0.000  0.800  0.407- 115 2.11 119 2.11 120 2.11 200 2.11 117 2.11
  18  0.100  0.900  0.407- 104 2.11 119 2.11 120 2.11 139 2.11 118 2.11
  19  0.000  0.900  0.503- 101 2.11 117 2.11 118 2.11 198 2.11 119 2.11
  20  0.100  0.800  0.503- 114 2.11 117 2.11 118 2.11 137 2.11 120 2.11
  21  0.200  0.000  0.407- 124 2.11 123 2.11 104 2.11 139 2.11 121 2.11
  22  0.300  0.100  0.407- 123 2.11 124 2.11 128 2.11 143 2.11 122 2.11
  23  0.200  0.100  0.503- 122 2.11 121 2.11 102 2.11 125 2.11 123 2.11
  24  0.300  0.000  0.503- 121 2.11 122 2.11 138 2.11 141 2.11 124 2.11
  25  0.200  0.200  0.407- 127 2.11 128 2.11 108 2.11 123 2.11 125 2.11
  26  0.300  0.300  0.407- 127 2.11 128 2.11 132 2.11 147 2.11 126 2.11
  27  0.200  0.300  0.503- 125 2.11 126 2.11 106 2.11 129 2.11 127 2.11
  28  0.300  0.200  0.503- 125 2.11 126 2.11 122 2.11 145 2.11 128 2.11
  29  0.200  0.400  0.407- 132 2.11 127 2.11 131 2.11 112 2.11 129 2.11
  30  0.300  0.500  0.407- 131 2.11 132 2.11 136 2.11 151 2.11 130 2.11
  31  0.200  0.500  0.503- 130 2.11 129 2.11 110 2.11 133 2.11 131 2.11
  32  0.300  0.400  0.503- 129 2.11 126 2.11 130 2.11 149 2.11 132 2.11
  33  0.200  0.600  0.407- 136 2.11 131 2.11 135 2.11 116 2.11 133 2.11
  34  0.300  0.700  0.407- 135 2.11 140 2.11 136 2.11 155 2.11 134 2.11
  35  0.200  0.700  0.503- 134 2.11 137 2.11 114 2.11 133 2.11 135 2.11
  36  0.300  0.600  0.503- 133 2.11 130 2.11 134 2.11 153 2.11 136 2.11
  37  0.200  0.800  0.407- 135 2.11 140 2.11 139 2.11 120 2.11 137 2.11
  38  0.300  0.900  0.407- 139 2.11 124 2.11 140 2.11 159 2.11 138 2.11
  39  0.200  0.900  0.503- 138 2.11 121 2.11 137 2.11 118 2.11 139 2.11
  40  0.300  0.800  0.503- 134 2.11 137 2.11 138 2.11 157 2.11 140 2.11
  41  0.400  0.000  0.407- 124 2.11 143 2.11 144 2.11 159 2.11 141 2.11
  42  0.500  0.100  0.407- 143 2.11 144 2.11 148 2.11 163 2.11 142 2.11
  43  0.400  0.100  0.503- 122 2.11 141 2.11 142 2.11 145 2.11 143 2.11
  44  0.500  0.000  0.503- 141 2.11 142 2.11 158 2.11 161 2.11 144 2.11
  45  0.400  0.200  0.407- 147 2.11 143 2.11 128 2.11 148 2.11 145 2.11
  46  0.500  0.300  0.407- 148 2.11 147 2.11 152 2.11 167 2.11 146 2.11
  47  0.400  0.300  0.503- 145 2.11 126 2.11 146 2.11 149 2.11 147 2.11
  48  0.500  0.200  0.503- 146 2.11 145 2.11 142 2.11 165 2.11 148 2.11
  49  0.400  0.400  0.407- 132 2.11 147 2.11 151 2.11 152 2.11 149 2.11
  50  0.500  0.500  0.407- 151 2.11 152 2.11 156 2.11 171 2.11 150 2.11
  51  0.400  0.500  0.503- 130 2.11 149 2.11 150 2.11 153 2.11 151 2.11
  52  0.500  0.400  0.503- 146 2.11 149 2.11 150 2.11 169 2.11 152 2.11
  53  0.400  0.600  0.407- 136 2.11 151 2.11 155 2.11 156 2.11 153 2.11
  54  0.500  0.700  0.407- 160 2.11 156 2.11 155 2.11 175 2.11 154 2.11
  55  0.400  0.700  0.503- 157 2.11 153 2.11 154 2.11 134 2.11 155 2.11
  56  0.500  0.600  0.503- 150 2.11 153 2.11 154 2.11 173 2.11 156 2.11
  57  0.400  0.800  0.407- 155 2.11 140 2.11 159 2.11 160 2.11 157 2.11
  58  0.500  0.900  0.407- 144 2.11 159 2.11 160 2.11 179 2.11 158 2.11
  59  0.400  0.900  0.503- 138 2.11 141 2.11 157 2.11 158 2.11 159 2.11
  60  0.500  0.800  0.503- 154 2.11 157 2.11 158 2.11 177 2.11 160 2.11
[...]
 186  0.900  0.300  0.503-  88 2.11  87 2.11   7 2.11  92 2.11  86 2.11
 187  0.800  0.300  0.407-  66 2.11  85 2.11  86 2.11  89 2.11  87 2.11
 188  0.900  0.200  0.407-  86 2.11  82 2.11  85 2.11   5 2.11  88 2.11
 189  0.800  0.400  0.503-  72 2.11  87 2.11  91 2.11  92 2.11  89 2.11
 190  0.900  0.500  0.503-  11 2.11  91 2.11  92 2.11  96 2.11  90 2.11
 191  0.800  0.500  0.407-  70 2.11  89 2.11  90 2.11  93 2.11  91 2.11
 192  0.900  0.400  0.407-   9 2.11  86 2.11  89 2.11  90 2.11  92 2.11
 193  0.800  0.600  0.503-  76 2.11  91 2.11  95 2.11  96 2.11  93 2.11
 194  0.900  0.700  0.503- 100 2.11  95 2.11  96 2.11  15 2.11  94 2.11
 195  0.800  0.700  0.407-  74 2.11  97 2.11  94 2.11  93 2.11  95 2.11
 196  0.900  0.600  0.407-  13 2.11  90 2.11  93 2.11  94 2.11  96 2.11
 197  0.800  0.800  0.503-  80 2.11  95 2.11  99 2.11 100 2.11  97 2.11
 198  0.900  0.900  0.503-  19 2.11  84 2.11  99 2.11 100 2.11  98 2.11
 199  0.800  0.900  0.407-  78 2.11  81 2.11  97 2.11  98 2.11  99 2.11
 200  0.900  0.800  0.407-  94 2.11  17 2.11  97 2.11  98 2.11 100 2.11

  LATTYP: Found a simple tetragonal cell.
 ALAT       =    21.1388521970
 C/A-ratio  =     1.0461251639

  Lattice vectors:

 A1 = (  21.1388521970,   0.0000000000,   0.0000000000)
 A2 = (   0.0000000000,  21.1388521970,   0.0000000000)
 A3 = (   0.0000000000,   0.0000000000,  22.1138852197)

Analysis of symmetry for initial positions (statically):
 Subroutine PRICEL returns following result:

[...]

  50 primitive cells build up your supercell.

 Routine SETGRP: Setting up the symmetry group for a
 simple tetragonal supercell.

 Subroutine GETGRP returns: Found 16 space group operations
 (whereof  8 operations were pure point group operations)
 out of a pool of 16 trial point group operations.

The static configuration has the point symmetry C_4v.
 The point group associated with its full space group is D_4h.

Analysis of symmetry for dynamics (positions and initial velocities):
 Subroutine PRICEL returns following result:

  LATTYP: Found a simple tetragonal cell.
 ALAT       =     2.9894851470
 C/A-ratio  =     7.3972219738

  Lattice vectors:

 A1 = (   2.1138852197,  -2.1138852197,   0.0000000000)
 A2 = (   2.1138852197,   2.1138852197,   0.0000000000)
 A3 = (   0.0000000000,   0.0000000000,  22.1138852197)

  50 primitive cells build up your supercell.

 Routine SETGRP: Setting up the symmetry group for a
 simple tetragonal supercell.

 Subroutine GETGRP returns: Found 16 space group operations
 (whereof  8 operations were pure point group operations)
 out of a pool of 16 trial point group operations.

The dynamic configuration has the point symmetry C_4v.
 The point group associated with its full space group is D_4h.

 Subroutine INISYM returns: Found 16 space group operations
 (whereof  8 operations are pure point group operations),
 and found    50 'primitive' translations

                                     Primitive cell

  volume of cell :     197.6323

  direct lattice vectors                    reciprocal lattice vectors
     2.113885220 -2.113885220  0.000000000     0.236531291 -0.236531291  0.000000000
     2.113885220  2.113885220  0.000000000     0.236531291  0.236531291  0.000000000
     0.000000000  0.000000000 22.113885220     0.000000000  0.000000000  0.045220457

  length of vectors
[...]
     60     -46.9834      2.00000
[...]
    850       5.1490      0.00000
    851       5.1593      0.00000
    852       5.1629      0.00000
    853       5.1703      0.00000
    854       5.1704      0.00000
    855       5.1879      0.00000
    856       5.1909      0.00000
    857       5.2070      0.00000
    858       5.2232      0.00000
    859       5.2338      0.00000
    860       5.2439      0.00000
    861       5.2839      0.00000
    862       5.3320      0.00000
    863       5.4061      0.00000
    864       5.5763      0.00000

 soft charge-density along one line, spin component           1
         0         1         2         3         4         5         6         7         8         9
 total charge-density along one line

------------------------ aborting loop because EDIFF is reached ----------------------------------------

|           W    W    AA    RRRRR   N    N  II  N    N   GGGG   !!!           |
|           W    W   A  A   R    R  NN   N  II  NN   N  G    G  !!!           |
|           W    W  A    A  R    R  N N  N  II  N N  N  G       !!!           |
|           W WW W  AAAAAA  RRRRR   N  N N  II  N  N N  G  GGG   !            |
|           WW  WW  A    A  R   R   N   NN  II  N   NN  G    G                |
|           W    W  A    A  R    R  N    N  II  N    N   GGGG   !!!           |
|     Specifying the vdW parameters                                           |
|     VDW_S8 = 0.928                                                          |
|     VDW_SR = 1.287                                                          |
|     in the INCAR file will overwrite the defaults for pbe0. Please make     |
|     sure that is what you intended.                                         |

         DFTD3 V3.0 Rev 1
 IVDW         = 11
 DF pbe0
 parameters
 VDW_S6       =    1.0000
 VDW_S8       =    0.9280
 VDW_SR       =    1.2870
 rs18     =    1.0000
 alpha6   =   14.0000
 alpha8   =   16.0000
 k1-k3    =   16.0000    1.3333   -4.0000
 VDW_RADIUS   =   50.2022 A
 VDW_CNRADIUS =   21.1671 A
 Edisp (eV)  -20.03599

 E6    (eV) :    -6.2222
 E8    (eV) :   -13.8137
 % E8        : 68.94

 VOLUME and BASIS-vectors are now :
  energy-cutoff  :      520.00
  volume of cell :     9881.61
      direct lattice vectors                 reciprocal lattice vectors
    21.138852197  0.000000000  0.000000000     0.047306258  0.000000000  0.000000000
     0.000000000 21.138852197  0.000000000     0.000000000  0.047306258  0.000000000
     0.000000000  0.000000000 22.113885220     0.000000000  0.000000000  0.045220457

  length of vectors
    21.138852197 21.138852197 22.113885220     0.047306258  0.047306258  0.045220457

 FORCES acting on ions:
    Electron-Ion                     Ewald-Force                    Non-Local-Force
   0.157E-12 0.132E-12 0.927E+03   0.941E-13 0.746E-13 -.919E+03   -.367E-23 0.191E-23 -.708E+01
   -.268E-12 -.871E-12 0.927E+03   0.101E-09 0.101E-09 -.919E+03   -.349E-23 -.137E-24 -.708E+01
   0.184E-12 -.103E-11 -.927E+03   0.131E-12 0.101E-09 0.919E+03   0.325E-23 0.391E-23 0.708E+01
   -.209E-12 0.116E-12 -.927E+03   0.101E-09 0.515E-13 0.919E+03   0.841E-23 -.691E-24 0.708E+01
   0.161E-12 -.123E-11 0.927E+03   0.155E-10 -.470E-10 -.919E+03   -.203E-23 -.113E-24 -.708E+01
   -.285E-12 0.901E-12 0.927E+03   0.988E-10 0.268E-10 -.919E+03   -.482E-23 0.386E-23 -.708E+01
   0.160E-12 0.112E-11 -.927E+03   0.207E-11 0.268E-10 0.919E+03   -.238E-23 -.115E-23 0.708E+01
   -.223E-12 -.131E-11 -.927E+03   0.852E-10 -.471E-10 0.919E+03   0.722E-23 -.324E-23 0.708E+01
   0.158E-12 0.815E-12 0.927E+03   -.175E-10 -.803E-10 -.919E+03   -.155E-22 -.499E-23 -.708E+01
   -.280E-12 -.820E-12 0.927E+03   0.101E-09 0.123E-12 -.919E+03   0.998E-24 0.249E-24 -.708E+01
   0.164E-12 -.264E-12 -.927E+03   0.229E-12 0.266E-13 0.919E+03   0.360E-23 -.551E-23 0.708E+01
   -.234E-12 0.131E-11 -.927E+03   0.118E-09 -.804E-10 0.919E+03   -.102E-23 0.503E-24 0.708E+01
   0.151E-12 -.148E-11 0.927E+03   0.114E-11 0.950E-10 -.919E+03   -.125E-23 -.153E-23 -.708E+01
   -.289E-12 -.191E-11 0.927E+03   0.863E-10 -.402E-10 -.919E+03   -.153E-23 0.153E-23 -.708E+01
   0.152E-12 -.158E-11 -.927E+03   -.927E-12 -.402E-10 0.919E+03   -.157E-23 -.582E-23 0.708E+01
   -.213E-12 -.187E-11 -.927E+03   0.115E-09 0.843E-10 0.919E+03   -.418E-25 0.434E-23 0.708E+01
   0.139E-12 0.540E-12 0.927E+03   0.909E-12 0.253E-10 -.919E+03   0.206E-24 0.531E-23 -.708E+01
   -.289E-12 0.530E-12 0.927E+03   0.117E-09 -.800E-10 -.919E+03   -.925E-23 0.442E-23 -.708E+01
   0.162E-12 0.928E-12 -.927E+03   -.899E-12 -.799E-10 0.919E+03   -.166E-24 0.371E-23 0.708E+01
   -.238E-12 0.713E-12 -.927E+03   0.842E-10 0.360E-10 0.919E+03   -.136E-23 -.190E-23 0.708E+01
   -.567E-12 0.159E-12 0.927E+03   -.487E-10 0.293E-13 -.919E+03   -.556E-23 0.605E-24 -.708E+01
   0.325E-12 -.195E-11 0.927E+03   0.267E-10 0.993E-10 -.919E+03   0.217E-23 0.125E-23 -.708E+01
   -.664E-12 -.112E-11 -.927E+03   -.293E-10 0.892E-10 0.919E+03   0.242E-23 -.204E-23 0.708E+01
   0.294E-12 0.134E-12 -.927E+03   0.229E-10 0.528E-13 0.919E+03   0.147E-23 -.593E-23 0.708E+01
   -.570E-12 -.129E-12 0.927E+03   -.527E-10 -.477E-10 -.919E+03   -.595E-23 -.562E-23 -.708E+01
   0.327E-12 0.629E-12 0.927E+03   0.173E-10 0.245E-10 -.919E+03   0.290E-23 -.421E-23 -.708E+01
   -.647E-12 0.379E-12 -.927E+03   -.662E-10 0.274E-10 0.919E+03   0.101E-23 -.105E-22 0.708E+01
   0.313E-12 -.134E-13 -.927E+03   0.382E-11 -.448E-10 0.919E+03   0.298E-23 -.368E-23 0.708E+01
   -.588E-12 0.265E-11 0.927E+03   -.468E-10 -.689E-10 -.919E+03   -.902E-24 0.409E-23 -.708E+01
   0.339E-12 -.130E-11 0.927E+03   0.231E-10 0.426E-13 -.919E+03   0.543E-23 0.356E-23 -.708E+01
   -.657E-12 -.186E-11 -.927E+03   -.488E-10 -.853E-13 0.919E+03   -.578E-23 0.632E-24 0.708E+01
   0.315E-12 0.279E-11 -.927E+03   0.441E-10 -.788E-10 0.919E+03   0.466E-23 -.879E-23 0.708E+01
   -.576E-12 -.632E-12 0.927E+03   -.284E-10 0.833E-10 -.919E+03   0.459E-23 0.170E-23 -.708E+01
   0.325E-12 -.247E-11 0.927E+03   0.476E-11 -.380E-10 -.919E+03   -.216E-23 -.180E-23 -.708E+01
   -.658E-12 -.145E-11 -.927E+03   -.692E-10 -.410E-10 0.919E+03   0.174E-23 0.493E-24 0.708E+01
   0.317E-12 0.428E-12 -.927E+03   0.412E-10 0.828E-10 0.919E+03   -.428E-23 0.385E-24 0.708E+01
   -.574E-12 0.608E-12 0.927E+03   -.671E-10 0.258E-10 -.919E+03   -.741E-24 -.497E-23 -.708E+01
   0.340E-12 0.161E-12 0.927E+03   0.432E-10 -.785E-10 -.919E+03   0.401E-23 -.124E-23 -.708E+01
   -.665E-12 0.124E-12 -.927E+03   -.304E-10 -.686E-10 0.919E+03   0.573E-23 -.222E-23 0.708E+01
   0.308E-12 0.311E-11 -.927E+03   0.265E-11 0.337E-10 0.919E+03   0.894E-23 0.582E-23 0.708E+01
   0.276E-12 0.169E-12 0.927E+03   -.749E-10 0.857E-13 -.919E+03   0.132E-23 -.149E-23 -.708E+01
   -.243E-12 0.328E-12 0.927E+03   0.435E-11 0.991E-10 -.919E+03   -.534E-23 -.488E-24 -.708E+01
   0.380E-12 -.153E-10 -.927E+03   -.545E-10 0.890E-10 0.919E+03   -.948E-23 -.182E-23 0.708E+01
   -.225E-12 0.143E-12 -.927E+03   0.875E-13 0.546E-13 0.919E+03   -.398E-23 -.818E-23 0.708E+01
   0.279E-12 0.962E-11 0.927E+03   -.797E-10 -.471E-10 -.919E+03   -.573E-23 -.632E-23 -.708E+01
   -.239E-12 -.212E-11 0.927E+03   -.558E-11 0.243E-10 -.919E+03   0.382E-23 0.204E-23 -.708E+01
   0.380E-12 0.105E-10 -.927E+03   -.934E-10 0.267E-10 0.919E+03   -.515E-24 -.557E-23 0.708E+01
   -.229E-12 -.244E-11 -.927E+03   -.191E-10 -.447E-10 0.919E+03   -.285E-23 0.253E-23 0.708E+01
   0.259E-12 -.911E-11 0.927E+03   -.720E-10 -.686E-10 -.919E+03   -.347E-23 0.944E-23 -.708E+01
   -.246E-12 0.141E-11 0.927E+03   -.457E-13 0.941E-13 -.919E+03   0.883E-24 0.279E-23 -.708E+01
   0.374E-12 0.161E-10 -.927E+03   -.752E-10 -.200E-13 0.919E+03   0.113E-23 0.756E-23 0.708E+01
   -.247E-12 -.307E-11 -.927E+03   0.216E-10 -.786E-10 0.919E+03   0.315E-23 -.115E-23 0.708E+01
   0.290E-12 -.117E-10 0.927E+03   -.534E-10 0.832E-10 -.919E+03   -.121E-23 0.333E-23 -.708E+01
   -.218E-12 -.155E-11 0.927E+03   -.183E-10 -.378E-10 -.919E+03   -.247E-23 0.279E-23 -.708E+01
   0.397E-12 0.863E-11 -.927E+03   -.966E-10 -.403E-10 0.919E+03   0.657E-23 0.229E-23 0.708E+01
   -.242E-12 -.327E-11 -.927E+03   0.182E-10 0.826E-10 0.919E+03   -.294E-23 -.807E-23 0.708E+01
   0.310E-12 0.120E-10 0.927E+03   -.946E-10 0.252E-10 -.919E+03   0.297E-23 -.125E-23 -.708E+01
   -.223E-12 -.611E-11 0.927E+03   0.205E-10 -.784E-10 -.919E+03   -.128E-22 -.937E-23 -.708E+01
   0.379E-12 -.163E-10 -.927E+03   -.557E-10 -.683E-10 0.919E+03   -.857E-24 -.206E-23 0.708E+01
   -.211E-12 -.530E-12 -.927E+03   -.206E-10 0.335E-10 0.919E+03   -.770E-23 -.213E-23 0.708E+01
[...]
   0.543E-10 0.392E-10 0.696E+03   0.433E-10 0.495E-10 -.700E+03   -.394E-23 0.305E-23 0.310E+01
   0.313E-10 -.494E-10 0.696E+03   0.222E-11 -.613E-10 -.700E+03   -.139E-22 0.407E-23 0.310E+01
   0.544E-10 0.259E-10 -.696E+03   0.507E-10 -.136E-10 0.700E+03   0.762E-23 -.140E-22 -.310E+01
   0.313E-10 -.472E-11 -.696E+03   -.485E-11 0.104E-10 0.700E+03   0.153E-22 -.402E-23 -.310E+01
   0.543E-10 0.288E-10 0.696E+03   0.512E-10 -.166E-11 -.700E+03   0.338E-23 0.426E-23 0.310E+01
   0.313E-10 0.864E-10 0.696E+03   0.168E-11 -.149E-11 -.700E+03   -.751E-23 0.954E-24 0.310E+01
   0.544E-10 -.402E-10 -.696E+03   0.608E-10 0.120E-11 0.700E+03   -.614E-23 -.620E-24 -.310E+01
   0.313E-10 -.557E-10 -.696E+03   -.419E-11 -.488E-10 0.700E+03   0.127E-23 0.375E-24 -.310E+01
   0.543E-10 -.696E-10 0.696E+03   0.409E-10 -.598E-10 -.700E+03   0.332E-23 0.467E-23 0.310E+01
   0.314E-10 -.904E-10 0.696E+03   -.267E-12 0.700E-11 -.700E+03   -.380E-23 -.442E-23 0.310E+01
   0.544E-10 0.242E-10 -.696E+03   0.415E-10 0.415E-10 0.700E+03   0.909E-23 -.169E-22 -.310E+01
   0.313E-10 0.889E-10 -.696E+03   -.306E-11 -.298E-11 0.700E+03   0.695E-23 0.208E-22 -.310E+01
   0.543E-10 0.350E-10 0.696E+03   0.621E-10 0.568E-11 -.700E+03   0.354E-23 0.320E-23 0.310E+01
   0.313E-10 0.512E-10 0.696E+03   0.277E-12 0.562E-10 -.700E+03   -.553E-23 0.516E-23 0.310E+01
   0.120E-10 -.158E-10 -.326E-02   0.439E-11 -.322E-12 0.239E-11   -.660E-22 -.127E-21 -.655E-12

 POSITION                                       TOTAL-FORCE (eV/Angst)
      0.00000      0.00000      9.00000         0.000000      0.000000      0.549081
      2.11389      2.11389      9.00000         0.000000      0.000000      0.549081
      0.00000      2.11389     11.11389         0.000000      0.000000     -0.549081
      2.11389      0.00000     11.11389        -0.000000      0.000000     -0.549081
      0.00000      4.22777      9.00000        -0.000000      0.000000      0.549081
      2.11389      6.34166      9.00000         0.000000     -0.000000      0.549081
      0.00000      6.34166     11.11389         0.000000     -0.000000     -0.549081
      2.11389      4.22777     11.11389         0.000000      0.000000     -0.549081
      0.00000      8.45554      9.00000         0.000000      0.000000      0.549081
      2.11389     10.56943      9.00000         0.000000     -0.000000      0.549081
      0.00000     10.56943     11.11389         0.000000     -0.000000     -0.549081
      2.11389      8.45554     11.11389        -0.000000      0.000000     -0.549081
      0.00000     12.68331      9.00000         0.000000      0.000000      0.549081
      2.11389     14.79720      9.00000        -0.000000      0.000000      0.549081
      0.00000     14.79720     11.11389        -0.000000      0.000000     -0.549081
      2.11389     12.68331     11.11389        -0.000000     -0.000000     -0.549081
      0.00000     16.91108      9.00000         0.000000     -0.000000      0.549081
      2.11389     19.02497      9.00000         0.000000      0.000000      0.549081
      0.00000     19.02497     11.11389        -0.000000      0.000000     -0.549081
      2.11389     16.91108     11.11389        -0.000000     -0.000000     -0.549081
      4.22777      0.00000      9.00000        -0.000000     -0.000000      0.549081
      6.34166      2.11389      9.00000        -0.000000     -0.000000      0.549081
      4.22777      2.11389     11.11389        -0.000000      0.000000     -0.549081
      6.34166      0.00000     11.11389         0.000000      0.000000     -0.549081
      4.22777      4.22777      9.00000         0.000000      0.000000      0.549081
      6.34166      6.34166      9.00000        -0.000000     -0.000000      0.549081
      4.22777      6.34166     11.11389        -0.000000     -0.000000     -0.549081
      6.34166      4.22777     11.11389        -0.000000      0.000000     -0.549081
      4.22777      8.45554      9.00000        -0.000000      0.000000      0.549081
      6.34166     10.56943      9.00000        -0.000000      0.000000      0.549081
      4.22777     10.56943     11.11389        -0.000000     -0.000000     -0.549081
      6.34166      8.45554     11.11389        -0.000000     -0.000000     -0.549081
      4.22777     12.68331      9.00000         0.000000     -0.000000      0.549081
      6.34166     14.79720      9.00000        -0.000000      0.000000      0.549081
      4.22777     14.79720     11.11389         0.000000      0.000000     -0.549081
      6.34166     12.68331     11.11389        -0.000000      0.000000     -0.549081
      4.22777     16.91108      9.00000        -0.000000     -0.000000      0.549081
      6.34166     19.02497      9.00000        -0.000000      0.000000      0.549081
      4.22777     19.02497     11.11389        -0.000000     -0.000000     -0.549081
      6.34166     16.91108     11.11389         0.000000     -0.000000     -0.549081
      8.45554      0.00000      9.00000        -0.000000      0.000000      0.549081
     10.56943      2.11389      9.00000         0.000000     -0.000000      0.549081
      8.45554      2.11389     11.11389         0.000000      0.000000     -0.549081
     10.56943      0.00000     11.11389         0.000000      0.000000     -0.549081
      8.45554      4.22777      9.00000         0.000000     -0.000000      0.549081
     10.56943      6.34166      9.00000        -0.000000     -0.000000      0.549081
      8.45554      6.34166     11.11389         0.000000      0.000000     -0.549081
     10.56943      4.22777     11.11389         0.000000     -0.000000     -0.549081
      8.45554      8.45554      9.00000        -0.000000      0.000000      0.549081
     10.56943     10.56943      9.00000        -0.000000      0.000000      0.549081
      8.45554     10.56943     11.11389        -0.000000     -0.000000     -0.549081
     10.56943      8.45554     11.11389        -0.000000      0.000000     -0.549081
      8.45554     12.68331      9.00000         0.000000     -0.000000      0.549081
     10.56943     14.79720      9.00000        -0.000000     -0.000000      0.549081
      8.45554     14.79720     11.11389         0.000000      0.000000     -0.549081
     10.56943     12.68331     11.11389        -0.000000     -0.000000     -0.549081
      8.45554     16.91108      9.00000         0.000000     -0.000000      0.549081
     10.56943     19.02497      9.00000         0.000000      0.000000      0.549081
      8.45554     19.02497     11.11389         0.000000     -0.000000     -0.549081
     10.56943     16.91108     11.11389         0.000000     -0.000000     -0.549081
[...]
     19.02497      6.34166     11.11389         0.000000      0.000000      0.408169
     16.91108      6.34166      9.00000         0.000000     -0.000000     -0.408169
     19.02497      4.22777      9.00000        -0.000000      0.000000     -0.408169
     16.91108      8.45554     11.11389         0.000000      0.000000      0.408169
     19.02497     10.56943     11.11389         0.000000      0.000000      0.408169
     16.91108     10.56943      9.00000        -0.000000      0.000000     -0.408169
     19.02497      8.45554      9.00000        -0.000000      0.000000     -0.408169
     16.91108     12.68331     11.11389         0.000000      0.000000      0.408169
     19.02497     14.79720     11.11389         0.000000      0.000000      0.408169
     16.91108     14.79720      9.00000        -0.000000     -0.000000     -0.408169
     19.02497     12.68331      9.00000        -0.000000     -0.000000     -0.408169
     16.91108     16.91108     11.11389        -0.000000     -0.000000      0.408169
     19.02497     19.02497     11.11389        -0.000000     -0.000000      0.408169
     16.91108     19.02497      9.00000        -0.000000      0.000000     -0.408169
     19.02497     16.91108      9.00000        -0.000000     -0.000000     -0.408169
    total drift:                                0.000000     -0.000000     -0.003263

  FREE ENERGIE OF THE ION-ELECTRON SYSTEM (eV)
  free  energy   TOTEN  =     -1439.51068343 eV

  energy  without entropy=    -1439.51068343  energy(sigma->0) =    -1439.51068343