 vasp.6.4.1 05Apr23 (build May 06 2023 19:47:20) complex

 executed on             LinuxIFC date 2023.05.12  13:20:06

 INCAR:
   SYSTEM = MgO-rocksalt
   ISMEAR = 0
   SIGMA = 0.05
   EDIFF = 1E-4
   ALGO = ALL
   ISTART = 0
   IBRION = -1
   NSW = 0
   ISYM = 3
   DIPOL = 0.5 0.5 0.5
   IDIPOL = 3
   LDIPOL = .TRUE.
   LHFCALC = .TRUE.
   GGA = PE
   IVDW = 21
   VDW_SR = 0.96
   ENCUT = 520
   PREC = Normal
   LASPH = .TRUE.
   LREAL = Auto
   ISPIN = 1
   NELM = 200
   NELMIN = 8
   NCORE = 16
   KPAR = 1
   LWAVE = .FALSE.
   LCHARG = .FALSE.

 POTCAR:    PAW_PBE Au 04Oct2007
 POTCAR:    PAW_PBE Mg_pv 13Apr2007
 POTCAR:    PAW_PBE O 08Apr2002
 POTCAR:    PAW_PBE Au 04Oct2007
   VRHFIN =Au: s1d10

   TITEL  = PAW_PBE Au 04Oct2007
   POMASS =  196.966; ZVAL   =   11.000    mass and valenz
   ENMAX  =  229.943; ENMIN  =  172.457 eV

   TITEL  = PAW_PBE Mg_pv 13Apr2007
   POMASS =   24.305; ZVAL   =    8.000    mass and valenz
   ENMAX  =  403.929; ENMIN  =  302.947 eV

   TITEL  = PAW_PBE O 08Apr2002
   POMASS =   16.000; ZVAL   =    6.000    mass and valenz
   ENMAX  =  400.000; ENMIN  =  300.000 eV

 Optimization of the real space projectors (new method)

 maximal supplied QI-value         = 15.12
 optimisation between [QCUT,QGAM] = [ 11.64, 23.28] = [ 37.95,151.78] Ry
 Optimized for a Real-space Cutoff    1.36 Angstroem

   l    n(q)    QCUT    max X(q) W(low)/X(q) W(high)/X(q)  e(spline)
   2      9    11.641    60.898    0.44E-03    0.10E-02    0.32E-06
   2      9    11.641    58.894    0.45E-03    0.11E-02    0.32E-06
   0      9    11.641   109.617    0.19E-03    0.78E-04    0.11E-06
   0      9    11.641    75.026    0.19E-03    0.76E-04    0.10E-06
   1      9    11.641    16.344    0.43E-03    0.28E-03    0.32E-06
   1      9    11.641    10.160    0.36E-03    0.22E-03    0.26E-06
 Optimization of the real space projectors (new method)

[...]

   l    n(q)    QCUT    max X(q) W(low)/X(q) W(high)/X(q)  e(spline)
   1      8    11.527     2.974    0.16E-03    0.13E-03    0.98E-07
   1      8    11.527     4.279    0.42E-03    0.30E-03    0.22E-06
   0      8    11.527    16.381    0.13E-03    0.20E-03    0.72E-07
   0      8    11.527     5.611    0.88E-04    0.13E-03    0.50E-07
   2      7    11.527     4.652    0.25E-03    0.73E-04    0.51E-07
 Optimization of the real space projectors (new method)

 maximal supplied QI-value         = 24.76
 optimisation between [QCUT,QGAM] = [ 11.64, 23.27] = [ 37.91,151.63] Ry
 Optimized for a Real-space Cutoff    1.04 Angstroem

   l    n(q)    QCUT    max X(q) W(low)/X(q) W(high)/X(q)  e(spline)
   0      7    11.635    20.381    0.14E-03    0.49E-03    0.18E-06
   0      7    11.635    15.268    0.16E-03    0.52E-03    0.19E-06
   1      7    11.635     5.964    0.30E-03    0.44E-03    0.22E-06
   1      7    11.635     5.382    0.27E-03    0.34E-03    0.19E-06
  PAW_PBE Au 04Oct2007                  :
  PAW_PBE Mg_pv 13Apr2007               :
  PAW_PBE O 08Apr2002                   :

 POSCAR: Mg  O
  positions in direct lattice
  velocities in cartesian coordinates
 exchange correlation table for  LEXCH =        8
   RHO(1)=    0.500       N(1)  =     2000
   RHO(2)=  100.500       N(2)  =     4000

 ion  position               nearest neighbor table
   1  0.498  0.433  0.611-  11 2.70  17 2.71  13 2.72   3 2.73   4 2.76   8 2.78
   2  0.326  0.314  0.579- 246 2.42  14 2.70  13 2.70  19 2.73  11 2.77  67 2.88  52 3.07
   3  0.558  0.545  0.592-   9 2.71   8 2.73   1 2.73  17 2.75  91 3.03
   4  0.567  0.324  0.619-  17 2.70   7 2.70  15 2.71  13 2.71   6 2.75   1 2.76
   5  0.449  0.096  0.604-  10 2.66  19 2.71   7 2.81
   6  0.637  0.214  0.618-   7 2.71  15 2.71  16 2.72   4 2.75  20 2.77  10 2.77
   7  0.510  0.210  0.625-  19 2.68   4 2.70   6 2.71  10 2.74  13 2.76   5 2.81
   8  0.428  0.542  0.592-  11 2.69   3 2.73   1 2.78  71 2.93
   9  0.685  0.549  0.597-  18 2.67   3 2.71  17 2.72
  10  0.574  0.099  0.611-  16 2.63   5 2.66   7 2.74   6 2.77
  11  0.370  0.431  0.607-  14 2.65   8 2.69   1 2.70   2 2.77  13 2.80
  12  0.820  0.335  0.592-  18 2.67  15 2.70  20 2.75 107 2.87
  13  0.439  0.320  0.621-   2 2.70   4 2.71   1 2.72   7 2.76  19 2.76  11 2.80
  14  0.251  0.417  0.581- 249 2.61  11 2.65   2 2.70  52 2.70
  15  0.695  0.328  0.609-  12 2.70  17 2.71   4 2.71   6 2.71  20 2.75  18 2.80
  16  0.687  0.112  0.575- 282 2.27  10 2.63   6 2.72  20 2.76  83 2.93  88 2.98
  17  0.626  0.436  0.607-   4 2.70  15 2.71   1 2.71   9 2.72   3 2.75  18 2.78
  18  0.756  0.444  0.596-   9 2.67  12 2.67  17 2.78  15 2.80
  19  0.403  0.210  0.577- 265 2.29   7 2.68   5 2.71   2 2.73  13 2.76  67 3.04
  20  0.759  0.221  0.584- 305 2.65  12 2.75  15 2.75  16 2.76   6 2.77  88 2.86
  21  0.000  1.000  0.430- 239 2.11 224 2.11 304 2.11 321 2.12 223 2.12 221 2.13
  22  0.100  0.100  0.430- 224 2.11 223 2.11 243 2.11 322 2.12 228 2.12 222 2.13
  23  0.000  0.099  0.500- 302 2.10 222 2.11 223 2.11 221 2.11 225 2.12
  24  0.100  0.999  0.500- 224 2.11 238 2.11 221 2.11 241 2.11 222 2.12
  25  1.000  0.200  0.430- 227 2.11 228 2.11 223 2.11 308 2.12 325 2.12 225 2.14
  26  0.100  0.300  0.430- 227 2.11 232 2.11 228 2.11 247 2.12 326 2.12 226 2.14
  27  0.000  0.300  0.500- 226 2.11 227 2.11 306 2.11 229 2.11 225 2.12
  28  0.099  0.200  0.500- 225 2.10 228 2.11 245 2.11 222 2.11 226 2.13
  29  1.000  0.400  0.430- 312 2.10 231 2.11 227 2.12 329 2.12 232 2.13 229 2.14
  30  0.100  0.500  0.430- 231 2.11 236 2.11 251 2.11 232 2.12 330 2.12 230 2.13
  31  1.000  0.501  0.500- 310 2.10 233 2.10 231 2.11 230 2.12 229 2.12
  32  0.098  0.401  0.500- 229 2.08 230 2.10 232 2.11 249 2.12 226 2.13
  33  1.000  0.600  0.430- 316 2.11 235 2.11 231 2.12 236 2.12 333 2.12 233 2.13
  34  0.100  0.700  0.430- 235 2.11 240 2.11 255 2.11 236 2.11 334 2.12 234 2.13
  35  1.000  0.700  0.500- 235 2.11 314 2.11 233 2.11 237 2.11 234 2.11
  36  0.100  0.601  0.500- 234 2.11 233 2.11 236 2.11 253 2.12 230 2.12
  37  1.000  0.800  0.430- 235 2.11 320 2.11 240 2.11 239 2.12 337 2.12 237 2.13
  38  0.100  0.900  0.430- 240 2.11 239 2.11 259 2.11 224 2.12 338 2.12 238 2.13
  39  0.000  0.899  0.500- 239 2.10 237 2.11 238 2.11 318 2.11 221 2.12
  40  0.100  0.800  0.500- 240 2.11 234 2.11 237 2.11 257 2.11 238 2.11
  41  0.200  1.000  0.430- 259 2.11 224 2.11 244 2.11 341 2.12 243 2.12 241 2.13
  42  0.300  0.099  0.430- 244 2.10 263 2.11 243 2.11 342 2.12 248 2.13 242 2.13
  43  0.199  0.099  0.500- 241 2.10 222 2.10 243 2.11 242 2.12 245 2.13
  44  0.300  0.999  0.500- 258 2.10 244 2.11 241 2.11 261 2.12 242 2.12
  45  0.199  0.200  0.430- 228 2.10 243 2.11 345 2.12 248 2.12 247 2.13 245 2.14
  46  0.300  0.300  0.429- 267 2.10 252 2.10 346 2.11 248 2.11 247 2.11 246 2.16
  47  0.198  0.299  0.500- 226 2.08 247 2.11 245 2.11 246 2.12 249 2.13
  48  0.297  0.198  0.500- 245 2.08 242 2.08 248 2.09 246 2.13 265 2.13
  49  0.200  0.400  0.429- 251 2.10 232 2.10 252 2.11 349 2.11 247 2.11 249 2.21
  50  0.300  0.501  0.430- 250 2.10 271 2.10 256 2.11 350 2.12 251 2.12 252 2.14
  51  0.200  0.502  0.500- 253 2.09 251 2.11 250 2.11 230 2.11 249 2.15
  52  0.302  0.402  0.499- 269 2.08 252 2.08 250 2.09 249 2.19 246 2.20  14 2.70   2 3.07
  53  0.200  0.600  0.430- 255 2.11 256 2.11 236 2.11 353 2.12 251 2.13 253 2.13
  54  0.300  0.700  0.430- 256 2.11 275 2.11 260 2.11 255 2.12 354 2.12 254 2.13
  55  0.200  0.700  0.500- 255 2.11 253 2.11 257 2.11 254 2.11 234 2.11
  56  0.300  0.601  0.500- 250 2.10 254 2.11 273 2.11 256 2.11 253 2.12
  57  0.200  0.800  0.430- 255 2.11 260 2.11 240 2.11 259 2.12 357 2.12 257 2.13
  58  0.300  0.900  0.430- 260 2.11 279 2.11 259 2.11 244 2.12 358 2.12 258 2.13
  59  0.200  0.900  0.500- 259 2.11 257 2.11 238 2.11 258 2.11 241 2.12
  60  0.300  0.800  0.500- 260 2.11 254 2.11 258 2.11 277 2.11 257 2.12
[...]
 406  0.900  0.300  0.359- 208 2.11 207 2.11 127 2.11 212 2.11 206 2.11 106 2.12
 407  0.800  0.300  0.289- 186 2.11 205 2.11 206 2.11 209 2.11 207 2.11
 408  0.900  0.200  0.289- 206 2.11 202 2.11 205 2.11 125 2.11 208 2.11
 409  0.800  0.400  0.359- 109 2.11 192 2.11 207 2.11 211 2.11 212 2.11 209 2.11
 410  0.900  0.500  0.359- 131 2.11 211 2.11 212 2.11 216 2.11 210 2.11 110 2.12
 411  0.800  0.500  0.289- 190 2.11 209 2.11 210 2.11 213 2.11 211 2.11
 412  0.900  0.400  0.289- 129 2.11 206 2.11 209 2.11 210 2.11 212 2.11
 413  0.800  0.600  0.359- 196 2.11 211 2.11 215 2.11 216 2.11 213 2.11 113 2.12
 414  0.900  0.700  0.359- 220 2.11 215 2.11 216 2.11 135 2.11 214 2.11 114 2.12
 415  0.800  0.700  0.289- 194 2.11 217 2.11 214 2.11 213 2.11 215 2.11
 416  0.900  0.600  0.289- 133 2.11 210 2.11 213 2.11 214 2.11 216 2.11
 417  0.800  0.800  0.359- 200 2.11 215 2.11 219 2.11 220 2.11 217 2.11 117 2.12
 418  0.900  0.900  0.359- 139 2.11 204 2.11 219 2.11 220 2.11 218 2.11 118 2.12
 419  0.800  0.900  0.289- 198 2.11 201 2.11 217 2.11 218 2.11 219 2.11
 420  0.900  0.800  0.289- 214 2.11 137 2.11 217 2.11 218 2.11 220 2.11

  LATTYP: Found a simple tetragonal cell.
 ALAT       =    21.1388521970
 C/A-ratio  =     1.4191877459

  Lattice vectors:

 A1 = (  21.1388521970,   0.0000000000,   0.0000000000)
 A2 = (   0.0000000000,  21.1388521970,   0.0000000000)
 A3 = (   0.0000000000,   0.0000000000,  30.0000000000)

Analysis of symmetry for initial positions (statically):
 Subroutine PRICEL returns:
 Original cell was already a primitive cell.

 Routine SETGRP: Setting up the symmetry group for a
 simple tetragonal supercell.

 Subroutine GETGRP returns: Found  1 space group operations
 (whereof  1 operations were pure point group operations)
 out of a pool of 16 trial point group operations.

The static configuration has the point symmetry C_1 .

Analysis of symmetry for dynamics (positions and initial velocities):
 Subroutine PRICEL returns:
 Original cell was already a primitive cell.

[...]

The dynamic configuration has the point symmetry C_1 .

Analysis of constrained symmetry for selective dynamics:
 Subroutine PRICEL returns:
 Original cell was already a primitive cell.

 Routine SETGRP: Setting up the symmetry group for a
 simple tetragonal supercell.

 Subroutine GETGRP returns: Found  1 space group operations
 (whereof  1 operations were pure point group operations)
 out of a pool of 16 trial point group operations.

The constrained configuration has the point symmetry C_1 .

 Subroutine INISYM returns: Found  1 space group operations
 (whereof  1 operations are pure point group operations),
 and found     1 'primitive' translations

                                     Primitive cell

  volume of cell :   13405.5322

  direct lattice vectors                    reciprocal lattice vectors
    21.138852197  0.000000000  0.000000000     0.047306258  0.000000000  0.000000000
     0.000000000 21.138852197  0.000000000     0.000000000  0.047306258  0.000000000
     0.000000000  0.000000000 30.000000000     0.000000000  0.000000000  0.033333333

  length of vectors
    21.138852197 21.138852197 30.000000000     0.047306258  0.047306258  0.033333333

  position of ions in fractional coordinates (direct lattice)
     0.497653430  0.433301918  0.611398906
     0.326191035  0.313929231  0.578738456
[...]
   Mg          1.370          1.539          3.319          0.04675058
   Mg          1.387          1.542          3.340          0.04703590
   Mg          1.308          1.527          3.242          0.04566811
   Mg          1.307          1.526          3.241          0.04565459
   Mg          1.383          1.541          3.335          0.04696510
   Mg          1.371          1.539          3.319          0.04675342
   Mg          1.307          1.526          3.241          0.04565477
   Mg          1.307          1.526          3.242          0.04565528
   Mg          1.380          1.540          3.331          0.04691874
   Mg          1.385          1.541          3.337          0.04699860
[...]
   O         236.071          5.023         21.006          3.89007308
   O         197.638          4.876         19.221          3.55935940
   O         197.565          4.876         19.217          3.55869901
   O         236.466          5.024         21.024          3.89332597
   O         235.385          5.020         20.976          3.88441699
   O         197.775          4.877         19.227          3.56058695
   O         197.611          4.876         19.219          3.55911055
   O         235.491          5.021         20.981          3.88528736
   O         235.209          5.020         20.968          3.88296050
   O         197.976          4.878         19.237          3.56240262
   O         197.916          4.877         19.234          3.56185714
   O         235.257          5.020         20.970          3.88335593
   O         235.348          5.020         20.974          3.88411160
   O         197.655          4.876         19.221          3.55951084
   O         197.928          4.877         19.235          3.56197194

  vdW correction parametrized for the method        

  IVDW =  21
  VDW_RADIUS =    50.000 A
  VDW_IDAMPF =  0
  VDW_S6 =     1.000
  VDW_SR =     0.960
  VDW_D =    20.000
  LVDW_ONECELL = F F F
  LVDW_SAMETYPE T T T
  LVDW_EWALD = F

  Number of pair interactions contributing to vdW energy: 3519001
  Edisp (eV):  -27.82730

 VOLUME and BASIS-vectors are now :
  energy-cutoff  :      520.00
  volume of cell :    13405.53
      direct lattice vectors                 reciprocal lattice vectors
    21.138852197  0.000000000  0.000000000     0.047306258  0.000000000  0.000000000
     0.000000000 21.138852197  0.000000000     0.000000000  0.047306258  0.000000000
     0.000000000  0.000000000 30.000000000     0.000000000  0.000000000  0.033333333

  length of vectors
    21.138852197 21.138852197 30.000000000     0.047306258  0.047306258  0.033333333

 FORCES acting on ions:
    Electron-Ion                     Ewald-Force                    Non-Local-Force
   0.138E+03 -.324E+03 -.367E+04   -.138E+03 0.321E+03 0.367E+04   0.131E+00 0.214E+01 0.420E+00
   0.676E+03 0.242E+03 -.363E+04   -.674E+03 -.240E+03 0.364E+04   -.222E+01 -.153E+01 -.215E+01
   0.738E+01 -.786E+03 -.363E+04   -.679E+01 0.783E+03 0.363E+04   -.581E+00 0.258E+01 -.745E+00
   -.319E+02 -.565E+01 -.364E+04   0.336E+02 0.549E+01 0.364E+04   -.155E+01 0.228E+00 0.306E+00
   0.449E+03 0.762E+03 -.363E+04   -.446E+03 -.758E+03 0.363E+04   -.303E+01 -.376E+01 0.387E+00
   -.268E+03 0.330E+03 -.373E+04   0.268E+03 -.329E+03 0.373E+04   0.902E+00 -.966E+00 0.553E+00
   0.178E+03 0.349E+03 -.374E+04   -.177E+03 -.346E+03 0.374E+04   -.120E+01 -.226E+01 0.122E+01
   0.396E+03 -.763E+03 -.365E+04   -.394E+03 0.759E+03 0.366E+04   -.186E+01 0.455E+01 -.628E+00
   -.411E+03 -.767E+03 -.368E+04   0.409E+03 0.763E+03 0.368E+04   0.172E+01 0.416E+01 0.247E+00
   -.537E+02 0.811E+03 -.365E+04   0.550E+02 -.809E+03 0.365E+04   -.123E+01 -.208E+01 0.129E+01
   0.507E+03 -.378E+03 -.373E+04   -.508E+03 0.378E+03 0.373E+04   0.395E+00 -.123E-01 0.765E+00
   -.845E+03 -.145E+02 -.369E+04   0.839E+03 0.153E+02 0.369E+04   0.562E+01 -.627E+00 -.146E+00
   0.361E+03 0.564E+02 -.377E+04   -.361E+03 -.566E+02 0.377E+04   -.599E+00 0.886E-01 0.185E+01
   0.724E+03 -.252E+03 -.376E+04   -.718E+03 0.250E+03 0.376E+04   -.635E+01 0.224E+01 -.151E+01
   -.389E+03 -.956E+01 -.368E+04   0.387E+03 0.906E+01 0.368E+04   0.145E+01 0.478E+00 0.127E+00
   -.424E+03 0.691E+03 -.362E+04   0.422E+03 -.689E+03 0.362E+04   0.266E+01 -.232E+01 -.338E+01
   -.193E+03 -.320E+03 -.365E+04   0.191E+03 0.318E+03 0.365E+04   0.198E+01 0.166E+01 -.335E+00
   -.670E+03 -.426E+03 -.365E+04   0.668E+03 0.425E+03 0.365E+04   0.146E+01 0.837E+00 -.110E+00
   0.543E+03 0.426E+03 -.352E+04   -.542E+03 -.424E+03 0.352E+04   -.607E+00 -.158E+01 -.300E+01
   -.684E+03 0.389E+03 -.364E+04   0.681E+03 -.387E+03 0.364E+04   0.303E+01 -.195E+01 -.206E+01
   -.257E+02 0.476E+02 -.692E+03   0.258E+02 -.479E+02 0.692E+03   -.278E-01 0.208E+00 -.246E+00
   0.223E+02 0.580E+02 -.671E+03   -.223E+02 -.582E+02 0.672E+03   0.566E-01 0.213E+00 -.246E+00
   -.599E+02 0.887E+02 -.232E+04   0.599E+02 -.890E+02 0.232E+04   -.142E-01 0.279E+00 0.602E+01
   0.241E+02 0.658E+02 -.235E+04   -.242E+02 -.662E+02 0.234E+04   0.563E-01 0.284E+00 0.603E+01
   -.408E+02 0.482E+02 -.641E+03   0.409E+02 -.482E+02 0.642E+03   -.430E-01 -.158E-01 -.254E+00
   0.371E+02 0.200E+02 -.625E+03   -.373E+02 -.199E+02 0.625E+03   0.243E+00 -.783E-01 -.289E+00
   -.865E+02 0.293E+02 -.227E+04   0.865E+02 -.291E+02 0.226E+04   -.271E-01 -.177E+00 0.603E+01
   0.549E+02 0.802E+02 -.230E+04   -.552E+02 -.806E+02 0.229E+04   0.231E+00 0.295E+00 0.602E+01
   -.443E+02 -.233E+02 -.625E+03   0.437E+02 0.236E+02 0.625E+03   0.502E+00 -.210E+00 -.228E+00
   0.362E+02 -.533E+02 -.643E+03   -.363E+02 0.536E+02 0.643E+03   0.102E+00 -.245E+00 -.280E+00
   -.577E+02 -.854E+02 -.230E+04   0.573E+02 0.858E+02 0.229E+04   0.377E+00 -.378E+00 0.604E+01
   0.911E+02 -.304E+02 -.226E+04   -.920E+02 0.309E+02 0.225E+04   0.792E+00 -.425E+00 0.599E+01
   -.258E+02 -.598E+02 -.675E+03   0.256E+02 0.599E+02 0.675E+03   0.187E+00 -.104E+00 -.263E+00
   0.179E+02 -.444E+02 -.698E+03   -.179E+02 0.444E+02 0.698E+03   0.259E-01 -.390E-01 -.264E+00
   -.284E+02 -.625E+02 -.235E+04   0.283E+02 0.624E+02 0.235E+04   0.106E+00 0.162E-01 0.602E+01
   0.458E+02 -.954E+02 -.233E+04   -.460E+02 0.957E+02 0.232E+04   0.177E+00 -.260E+00 0.603E+01
   -.170E+02 -.129E+02 -.709E+03   0.170E+02 0.128E+02 0.710E+03   0.289E-01 0.118E+00 -.253E+00
   0.129E+02 0.193E+02 -.709E+03   -.129E+02 -.194E+02 0.709E+03   0.114E-02 0.162E+00 -.252E+00
   -.279E+02 0.297E+02 -.236E+04   0.280E+02 -.300E+02 0.235E+04   -.148E-01 0.251E+00 0.603E+01
   0.187E+02 -.201E+02 -.236E+04   -.187E+02 0.200E+02 0.236E+04   0.237E-01 0.120E+00 0.602E+01
   0.531E+02 0.568E+02 -.677E+03   -.531E+02 -.571E+02 0.678E+03   0.270E-01 0.235E+00 -.243E+00
   0.992E+02 0.962E+02 -.586E+03   -.990E+02 -.966E+02 0.587E+03   -.168E+00 0.401E+00 -.304E+00
   0.126E+03 0.118E+03 -.229E+04   -.126E+03 -.119E+03 0.229E+04   0.296E+00 0.553E+00 0.606E+01
   0.128E+03 0.135E+03 -.228E+04   -.128E+03 -.135E+03 0.228E+04   0.158E+00 0.408E+00 0.605E+01
   0.917E+02 0.619E+02 -.599E+03   -.920E+02 -.623E+02 0.600E+03   0.274E+00 0.313E+00 -.222E+00
   0.127E+03 0.319E+02 -.473E+03   -.127E+03 -.318E+02 0.472E+03   -.137E+00 -.949E-01 0.103E+01
   0.228E+03 0.733E+02 -.216E+04   -.230E+03 -.740E+02 0.215E+04   0.111E+01 0.618E+00 0.608E+01
   0.256E+03 0.175E+03 -.206E+04   -.258E+03 -.176E+03 0.205E+04   0.133E+01 0.108E+01 0.605E+01
   0.106E+03 -.244E+02 -.566E+03   -.106E+03 0.247E+02 0.564E+03   0.356E-01 -.271E+00 0.139E+01
   0.109E+03 -.890E+02 -.515E+03   -.108E+03 0.897E+02 0.516E+03   -.436E+00 -.609E+00 -.900E+00
   0.188E+03 -.150E+03 -.218E+04   -.188E+03 0.151E+03 0.217E+04   -.327E-01 -.123E+01 0.589E+01
   0.230E+03 -.742E+02 -.186E+04   -.229E+03 0.765E+02 0.185E+04   -.145E+01 -.203E+01 0.402E+01
   0.683E+02 -.770E+02 -.643E+03   -.682E+02 0.774E+02 0.643E+03   -.467E-01 -.362E+00 -.260E+00
   0.625E+02 -.737E+02 -.654E+03   -.623E+02 0.736E+02 0.655E+03   -.137E+00 0.114E+00 -.278E+00
   0.742E+02 -.877E+02 -.233E+04   -.741E+02 0.877E+02 0.233E+04   -.429E-01 -.294E-01 0.602E+01
   0.157E+03 -.202E+03 -.221E+04   -.157E+03 0.202E+03 0.221E+04   -.153E+00 -.192E-01 0.609E+01
   0.390E+02 -.174E+02 -.699E+03   -.390E+02 0.173E+02 0.700E+03   -.192E-01 0.930E-01 -.261E+00
   0.554E+02 0.338E+02 -.676E+03   -.554E+02 -.340E+02 0.676E+03   -.416E-01 0.163E+00 -.278E+00
   0.598E+02 0.359E+02 -.235E+04   -.598E+02 -.361E+02 0.234E+04   0.322E-02 0.223E+00 0.603E+01
   0.747E+02 -.330E+02 -.233E+04   -.747E+02 0.329E+02 0.233E+04   -.283E-01 0.124E+00 0.603E+01
[...]
   -.249E+02 0.458E+01 0.196E+04   0.249E+02 -.451E+01 -.197E+04   0.292E-01 -.769E-01 0.304E+01
   -.199E+02 0.141E+02 0.194E+04   0.199E+02 -.141E+02 -.195E+04   0.128E-01 -.270E-01 0.306E+01
   -.479E+02 -.158E+02 0.788E+03   0.478E+02 0.159E+02 -.788E+03   0.102E+00 -.112E+00 -.907E-01
   -.358E+02 -.289E+02 0.742E+03   0.357E+02 0.290E+02 -.742E+03   0.108E+00 -.438E-01 -.192E+00
   -.224E+02 -.191E+02 0.195E+04   0.223E+02 0.191E+02 -.196E+04   0.452E-01 -.461E-01 0.298E+01
   -.205E+02 -.752E+01 0.195E+04   0.204E+02 0.758E+01 -.195E+04   0.508E-01 -.655E-01 0.302E+01
   -.353E+02 -.405E+02 0.744E+03   0.353E+02 0.405E+02 -.744E+03   0.475E-01 0.628E-01 -.228E+00
   -.228E+02 -.236E+02 0.708E+03   0.228E+02 0.236E+02 -.708E+03   0.407E-01 0.316E-01 -.145E+00
   -.165E+02 -.160E+02 0.193E+04   0.164E+02 0.159E+02 -.193E+04   0.300E-01 0.408E-01 0.298E+01
   -.159E+02 -.187E+02 0.193E+04   0.158E+02 0.187E+02 -.193E+04   0.485E-01 -.665E-02 0.299E+01
   -.245E+02 -.736E+01 0.711E+03   0.245E+02 0.732E+01 -.711E+03   0.270E-01 0.606E-01 -.129E+00
   -.214E+02 0.127E+02 0.703E+03   0.214E+02 -.127E+02 -.702E+03   0.131E-01 0.516E-01 -.890E-01
   -.155E+02 0.897E+01 0.192E+04   0.155E+02 -.902E+01 -.193E+04   0.661E-02 0.675E-01 0.303E+01
   -.124E+02 -.380E+01 0.192E+04   0.124E+02 0.376E+01 -.192E+04   0.185E-01 0.476E-01 0.301E+01
   0.675E+00 -.199E+01 0.983E+02   0.413E-11 0.280E-11 0.113E-09   -.637E+00 0.168E+01 -.862E+02

 POSITION                                       TOTAL-FORCE (eV/Angst)
     10.51982      9.15951     18.34197         0.084999      0.047606      0.057377
      6.89530      6.63610     17.36215        -0.038780      0.181737     -0.031466
     11.78589     11.51123     17.76271        -0.003831     -0.080803      0.049984
     11.99476      6.84208     18.58028         0.007192      0.048087      0.010756
      9.48579      2.03022     18.10765        -0.021637     -0.013031      0.077213
     13.47090      4.52362     18.53956         0.000655      0.018045     -0.050364
     10.77556      4.43872     18.76227        -0.057187      0.010305      0.012469
      9.05765     11.45154     17.76924        -0.106437      0.038108      0.071134
     14.49021     11.60360     17.89950        -0.031826     -0.094695      0.066447
     12.13568      2.10124     18.33364        -0.010833      0.002871      0.039462
      7.82103      9.10348     18.20312        -0.025035     -0.008060     -0.055803
     17.32400      7.08101     17.76105        -0.081823      0.059445      0.084185
      9.28310      6.75573     18.61661        -0.011745     -0.029697      0.066646
      5.29857      8.80672     17.43494         0.027216     -0.020095      0.024532
     14.68425      6.93269     18.28341         0.080545     -0.027952      0.037962
     14.52100      2.37102     17.25502        -0.002555     -0.040657     -0.135897
     13.22743      9.21194     18.20401        -0.001884     -0.007648      0.009312
     15.97838      9.38748     17.88206         0.032591     -0.036819      0.063222
      8.52431      4.44108     17.31453         0.124552     -0.051350     -0.116551
     16.04000      4.66362     17.51572         0.014111      0.026444      0.030257
      0.00152     21.13339     12.89064        -0.002449     -0.002034     -0.005046
      2.11133      2.10918     12.89153        -0.001085     -0.001456     -0.005345
      0.00432      2.10215     14.99204        -0.003592      0.004305     -0.197540
      2.11015     21.12636     14.98933        -0.001187      0.003521     -0.190025
     21.13856      4.22827     12.89431        -0.011241      0.005779     -0.004999
      2.10652      6.34433     12.89663         0.006166      0.009149     -0.004252
      0.00102      6.34826     14.99964        -0.004423     -0.010413     -0.227002
      2.10191      4.21779     14.99505         0.001325      0.002069     -0.207406
     21.13196      8.46107     12.89385        -0.003974     -0.001939     -0.011984
      2.11015     10.57606     12.89477         0.004760     -0.005205     -0.007806
     21.13101     10.58396     14.99329         0.000346     -0.000127     -0.207839
      2.08085      8.47202     15.00276         0.026117     -0.002379     -0.230124
     21.13610     12.68615     12.89193        -0.002042      0.000151     -0.007950
      2.11288     14.79842     12.89135         0.000559     -0.000924     -0.006113
     21.13711     14.79839     14.98955         0.000300      0.001043     -0.192298
      2.10793     12.69447     14.99212        -0.000874     -0.001179     -0.203121
     21.13866     16.90784     12.89036        -0.000137     -0.002323     -0.004319
      2.11331     19.02047     12.89024        -0.000150     -0.002534     -0.004236
      0.00265     19.01430     14.98811         0.000542      0.003684     -0.187946
      2.11237     16.90741     14.98845         0.000217      0.002689     -0.190019
      4.22547     21.13250     12.89126         0.000500     -0.000715     -0.006179
      6.33993      2.10210     12.89410         0.012287      0.009052     -0.004556
      4.21167      2.09320     14.99383        -0.002183      0.000962     -0.206940
      6.33178     21.12258     14.99518        -0.001485      0.004385     -0.211513
      4.21688      4.22323     12.89185         0.008974      0.010265     -0.006086
      6.34090      6.34094     12.87746         0.000162     -0.006668      0.010947
      4.18610      6.33034     15.01017         0.019846      0.018233     -0.239443
      6.28528      4.18461     14.98782         0.025853      0.020770     -0.259955
      4.22494      8.46395     12.88217        -0.000869     -0.009063      0.009273
      6.34878     10.58512     12.88738         0.010318      0.003013      0.006328
      4.22342     10.60862     14.99541        -0.002530     -0.004887     -0.273989
      6.38673      8.50600     14.97860         0.044266     -0.018404     -0.245882
      4.22781     12.69082     12.89196         0.007229      0.000246     -0.013692
      6.34355     14.79908     12.89257         0.006004     -0.007324     -0.005692
      4.22617     14.80243     14.99069         0.002089     -0.000441     -0.197881
      6.34216     12.69668     14.99638         0.015584     -0.012807     -0.232391
      4.22716     16.90945     12.89084         0.001430     -0.002193     -0.004953
      6.34095     19.02064     12.89232         0.002080     -0.001309     -0.006459
      4.22352     19.01649     14.98922        -0.000189      0.003641     -0.189408
      6.33885     16.90970     14.99046         0.000528     -0.001376     -0.193600
[...]
     19.02497      6.34166     10.77222         0.016038     -0.038543      0.028722
     16.91108      6.34166      8.65833         0.009308     -0.025808     -0.410796
     19.02497      4.22777      8.65833         0.003594     -0.008988     -0.403983
     16.91108      8.45554     10.77222         0.039648     -0.047393     -0.013371
     19.02497     10.56943     10.77222         0.041846     -0.017617     -0.004435
     16.91108     10.56943      8.65833         0.014651     -0.015804     -0.430249
     19.02497      8.45554      8.65833         0.016393     -0.022167     -0.417623
     16.91108     12.68331     10.77222         0.018458      0.023449     -0.018672
     19.02497     14.79720     10.77222         0.014425      0.011506      0.001762
     16.91108     14.79720      8.65833         0.009702      0.013147     -0.429087
     19.02497     12.68331      8.65833         0.015895     -0.002550     -0.427327
     16.91108     16.91108     10.77222         0.008816      0.023118      0.006182
     19.02497     19.02497     10.77222         0.003069      0.021148      0.012937
     16.91108     19.02497      8.65833         0.001887      0.022512     -0.414755
     19.02497     16.91108      8.65833         0.005918      0.015612     -0.421439
    total drift:                                0.037125      0.060768     -3.018293

  FREE ENERGIE OF THE ION-ELECTRON SYSTEM (eV)
  free  energy   TOTEN  =     -2981.98915680 eV

  energy  without entropy=    -2981.98915680  energy(sigma->0) =    -2981.98915680