 vasp.6.3.0 20Jan22 (build Apr  1 2022 16:44:48) complex
 executed on        HPECrayEX_GCC date 2022.10.21  19:31:21

 INCAR:
   SYSTEM = MgO-rocksalt
   ISMEAR = 0
   SIGMA = 0.05
   EDIFF = 1E-6
   ALGO = ALL
   ISTART = 0
   IBRION = -1
   NSW = 0
   ISYM = 2
   DIPOL = 0.5 0.5 0.5
   IDIPOL = 3
   LDIPOL = .TRUE.
   LHFCALC = .TRUE.
   GGA = B5
   AEXX = 0.2
   AGGAX = 0.72
   AGGAC = 0.81
   ALDAC = 0.19
   IVDW = 12
   VDW_S8 = 1.9889
   VDW_A1 = 0.3981
   VDW_A2 = 4.4211
   ENCUT = 520
   PREC = Accurate
   LASPH = .TRUE.
   LREAL = Auto
   ISPIN = 1
   NELM = 200
   NELMIN = 8
   NCORE = 4
   KPAR = 2
   LWAVE = .FALSE.
   LCHARG = .FALSE.

 POTCAR:    PAW_PBE Ag 02Apr2005
 POTCAR:    PAW_PBE Mg_pv 13Apr2007
 POTCAR:    PAW_PBE O 08Apr2002
|           W    W    AA    RRRRR   N    N  II  N    N   GGGG   !!!           |
|           W    W   A  A   R    R  NN   N  II  NN   N  G    G  !!!           |
|           W    W  A    A  R    R  N N  N  II  N N  N  G       !!!           |
|           W WW W  AAAAAA  RRRRR   N  N N  II  N  N N  G  GGG   !            |
|           WW  WW  A    A  R   R   N   NN  II  N   NN  G    G                |
|           W    W  A    A  R    R  N    N  II  N    N   GGGG   !!!           |
|     You have selected ISYM=2 for a HF type calculation. This will           |
|     symmetrize the charge density but not the exchange potential. I         |
|     suggest to use ISYM=3 instead. This uses symmetry to obtain the         |
|     orbitals at all k-points in the Brillouin zone, but does not apply      |
|     symmetry to the Hartree potential directly. The resultant charge        |
|     might have lower symmetry than the crystal but, at least, Hartree       |
|     and exchange are fully compatible.                                      |

   TITEL  = PAW_PBE Ag 02Apr2005
   POMASS =  107.868; ZVAL   =   11.000    mass and valenz
   ENMAX  =  249.844; ENMIN  =  187.383 eV

   TITEL  = PAW_PBE Mg_pv 13Apr2007
   POMASS =   24.305; ZVAL   =    8.000    mass and valenz
   ENMAX  =  403.929; ENMIN  =  302.947 eV

   TITEL  = PAW_PBE O 08Apr2002
   POMASS =   16.000; ZVAL   =    6.000    mass and valenz
   ENMAX  =  400.000; ENMIN  =  300.000 eV

 Optimization of the real space projectors (new method)

 maximal supplied QI-value         = 15.12
 optimisation between [QCUT,QGAM] = [ 11.64, 23.28] = [ 37.95,151.78] Ry
 Optimized for a Real-space Cutoff    1.45 Angstroem

   l    n(q)    QCUT    max X(q) W(low)/X(q) W(high)/X(q)  e(spline)
   2      9    11.641    53.897    0.22E-03    0.42E-04    0.28E-06
   2      9    11.641    52.416    0.23E-03    0.44E-04    0.29E-06
   0     10    11.641   122.045    0.51E-04    0.25E-04    0.16E-06
   0     10    11.641    73.629    0.49E-04    0.24E-04    0.16E-06
   1     10    11.641    15.255    0.99E-04    0.55E-04    0.11E-06
   1     10    11.641     9.562    0.81E-04    0.47E-04    0.95E-07
 Optimization of the real space projectors (new method)

[...]

   l    n(q)    QCUT    max X(q) W(low)/X(q) W(high)/X(q)  e(spline)
   1      8    11.527     2.974    0.44E-04    0.56E-04    0.12E-06
   1      8    11.527     4.279    0.12E-03    0.12E-03    0.26E-06
   0      9    11.527    16.381    0.46E-04    0.64E-04    0.78E-07
   0      9    11.527     5.611    0.26E-04    0.43E-04    0.55E-07
   2      8    11.527     4.652    0.22E-03    0.72E-04    0.47E-07
 Optimization of the real space projectors (new method)

 maximal supplied QI-value         = 24.76
 optimisation between [QCUT,QGAM] = [ 11.64, 23.27] = [ 37.91,151.63] Ry
 Optimized for a Real-space Cutoff    1.14 Angstroem

   l    n(q)    QCUT    max X(q) W(low)/X(q) W(high)/X(q)  e(spline)
   0      8    11.635    20.381    0.10E-03    0.33E-03    0.24E-06
   0      8    11.635    15.268    0.11E-03    0.35E-03    0.26E-06
   1      7    11.635     5.964    0.24E-03    0.31E-03    0.30E-06
   1      7    11.635     5.382    0.22E-03    0.25E-03    0.26E-06
|               ----> ADVICE to this user running VASP <----                  |
|     You enforced a specific xc type in the INCAR file but a different       |
|     type was found in the POTCAR file.                                      |
|     I HOPE YOU KNOW WHAT YOU ARE DOING!                                     |

  PAW_PBE Ag 02Apr2005                  :
  PAW_PBE Mg_pv 13Apr2007               :
  PAW_PBE O 08Apr2002                   :

 POSCAR: Ag Mg  O
  positions in direct lattice
 exchange correlation table for  LEXCH =       12
   RHO(1)=    0.500       N(1)  =     2000
   RHO(2)=  100.500       N(2)  =     4000

 ion  position               nearest neighbor table
   1  0.543  0.557  0.623-   2 2.59  58 2.97
   2  0.457  0.643  0.623-   1 2.59  58 2.97
   3  0.000  0.000  0.407- 105 2.11 106 2.11 121 2.11 186 2.11 103 2.11
   4  0.100  0.100  0.407- 105 2.11 106 2.11 110 2.11 125 2.11 104 2.11
   5  0.000  0.100  0.503- 103 2.11 104 2.11 107 2.11 184 2.11 105 2.11
   6  0.100  0.000  0.503- 103 2.11 104 2.11 120 2.11 123 2.11 106 2.11
   7  0.000  0.200  0.407- 109 2.11 105 2.11 110 2.11 190 2.11 107 2.11
   8  0.100  0.300  0.407- 110 2.11 109 2.11 114 2.11 129 2.11 108 2.11
   9  0.000  0.300  0.503- 107 2.11 108 2.11 111 2.11 188 2.11 109 2.11
  10  0.100  0.200  0.503- 108 2.11 107 2.11 104 2.11 127 2.11 110 2.11
  11  0.000  0.400  0.407- 109 2.11 113 2.11 114 2.11 194 2.11 111 2.11
  12  0.100  0.500  0.407- 113 2.11 114 2.11 118 2.11 133 2.11 112 2.11
  13  0.000  0.500  0.503- 111 2.11 112 2.11 115 2.11 192 2.11 113 2.11
  14  0.100  0.400  0.503- 108 2.11 111 2.11 112 2.11 131 2.11 114 2.11
  15  0.000  0.600  0.407- 113 2.11 117 2.11 118 2.11 198 2.11 115 2.11
  16  0.100  0.700  0.407- 122 2.11 118 2.11 117 2.11 137 2.11 116 2.11
  17  0.000  0.700  0.503- 119 2.11 116 2.11 115 2.11 196 2.11 117 2.11
  18  0.100  0.600  0.503- 112 2.11 115 2.11 116 2.11 135 2.11 118 2.11
  19  0.000  0.800  0.407- 117 2.11 121 2.11 122 2.11 202 2.11 119 2.11
  20  0.100  0.900  0.407- 106 2.11 121 2.11 122 2.11 141 2.11 120 2.11
  21  0.000  0.900  0.503- 103 2.11 119 2.11 120 2.11 200 2.11 121 2.11
  22  0.100  0.800  0.503- 116 2.11 119 2.11 120 2.11 139 2.11 122 2.11
  23  0.200  0.000  0.407- 126 2.11 125 2.11 106 2.11 141 2.11 123 2.11
  24  0.300  0.100  0.407- 125 2.11 126 2.11 130 2.11 145 2.11 124 2.11
  25  0.200  0.100  0.503- 124 2.11 123 2.11 104 2.11 127 2.11 125 2.11
  26  0.300  0.000  0.503- 123 2.11 124 2.11 140 2.11 143 2.11 126 2.11
  27  0.200  0.200  0.407- 129 2.11 130 2.11 110 2.11 125 2.11 127 2.11
  28  0.300  0.300  0.407- 129 2.11 130 2.11 134 2.11 149 2.11 128 2.11
  29  0.200  0.300  0.503- 127 2.11 128 2.11 108 2.11 131 2.11 129 2.11
  30  0.300  0.200  0.503- 127 2.11 128 2.11 124 2.11 147 2.11 130 2.11
  31  0.200  0.400  0.407- 134 2.11 129 2.11 133 2.11 114 2.11 131 2.11
  32  0.300  0.500  0.407- 133 2.11 134 2.11 138 2.11 153 2.11 132 2.11
  33  0.200  0.500  0.503- 132 2.11 131 2.11 112 2.11 135 2.11 133 2.11
  34  0.300  0.400  0.503- 131 2.11 128 2.11 132 2.11 151 2.11 134 2.11
  35  0.200  0.600  0.407- 138 2.11 133 2.11 137 2.11 118 2.11 135 2.11
  36  0.300  0.700  0.407- 137 2.11 142 2.11 138 2.11 157 2.11 136 2.11
  37  0.200  0.700  0.503- 136 2.11 139 2.11 116 2.11 135 2.11 137 2.11
  38  0.300  0.600  0.503- 135 2.11 132 2.11 136 2.11 155 2.11 138 2.11
  39  0.200  0.800  0.407- 137 2.11 142 2.11 141 2.11 122 2.11 139 2.11
  40  0.300  0.900  0.407- 141 2.11 126 2.11 142 2.11 161 2.11 140 2.11
  41  0.200  0.900  0.503- 140 2.11 123 2.11 139 2.11 120 2.11 141 2.11
  42  0.300  0.800  0.503- 136 2.11 139 2.11 140 2.11 159 2.11 142 2.11
  43  0.400  0.000  0.407- 126 2.11 145 2.11 146 2.11 161 2.11 143 2.11
  44  0.500  0.100  0.407- 145 2.11 146 2.11 150 2.11 165 2.11 144 2.11
  45  0.400  0.100  0.503- 124 2.11 143 2.11 144 2.11 147 2.11 145 2.11
  46  0.500  0.000  0.503- 143 2.11 144 2.11 160 2.11 163 2.11 146 2.11
  47  0.400  0.200  0.407- 149 2.11 145 2.11 130 2.11 150 2.11 147 2.11
  48  0.500  0.300  0.407- 150 2.11 149 2.11 154 2.11 169 2.11 148 2.11
  49  0.400  0.300  0.503- 147 2.11 128 2.11 148 2.11 151 2.11 149 2.11
  50  0.500  0.200  0.503- 148 2.11 147 2.11 144 2.11 167 2.11 150 2.11
  51  0.400  0.400  0.407- 134 2.11 149 2.11 153 2.11 154 2.11 151 2.11
  52  0.500  0.500  0.407- 153 2.11 154 2.11 158 2.11 173 2.11 152 2.11
  53  0.400  0.500  0.503- 132 2.11 151 2.11 152 2.11 155 2.11 153 2.11
  54  0.500  0.400  0.503- 148 2.11 151 2.11 152 2.11 171 2.11 154 2.11
  55  0.400  0.600  0.407- 138 2.11 153 2.11 157 2.11 158 2.11 155 2.11
  56  0.500  0.700  0.407- 162 2.11 158 2.11 157 2.11 177 2.11 156 2.11
  57  0.400  0.700  0.503- 159 2.11 155 2.11 156 2.11 136 2.11 157 2.11
  58  0.500  0.600  0.503- 152 2.11 155 2.11 156 2.11 175 2.11 158 2.11   2 2.97   1 2.97
  59  0.400  0.800  0.407- 157 2.11 142 2.11 161 2.11 162 2.11 159 2.11
  60  0.500  0.900  0.407- 146 2.11 161 2.11 162 2.11 181 2.11 160 2.11
[...]
 188  0.900  0.300  0.503-  90 2.11  89 2.11   9 2.11  94 2.11  88 2.11
 189  0.800  0.300  0.407-  68 2.11  87 2.11  88 2.11  91 2.11  89 2.11
 190  0.900  0.200  0.407-  88 2.11  84 2.11  87 2.11   7 2.11  90 2.11
 191  0.800  0.400  0.503-  74 2.11  89 2.11  93 2.11  94 2.11  91 2.11
 192  0.900  0.500  0.503-  13 2.11  93 2.11  94 2.11  98 2.11  92 2.11
 193  0.800  0.500  0.407-  72 2.11  91 2.11  92 2.11  95 2.11  93 2.11
 194  0.900  0.400  0.407-  11 2.11  88 2.11  91 2.11  92 2.11  94 2.11
 195  0.800  0.600  0.503-  78 2.11  93 2.11  97 2.11  98 2.11  95 2.11
 196  0.900  0.700  0.503- 102 2.11  97 2.11  98 2.11  17 2.11  96 2.11
 197  0.800  0.700  0.407-  76 2.11  99 2.11  96 2.11  95 2.11  97 2.11
 198  0.900  0.600  0.407-  15 2.11  92 2.11  95 2.11  96 2.11  98 2.11
 199  0.800  0.800  0.503-  82 2.11  97 2.11 101 2.11 102 2.11  99 2.11
 200  0.900  0.900  0.503-  21 2.11  86 2.11 101 2.11 102 2.11 100 2.11
 201  0.800  0.900  0.407-  80 2.11  83 2.11  99 2.11 100 2.11 101 2.11
 202  0.900  0.800  0.407-  96 2.11  19 2.11  99 2.11 100 2.11 102 2.11

  LATTYP: Found a simple tetragonal cell.
 ALAT       =    21.1388521970
 C/A-ratio  =     1.0461251639

  Lattice vectors:

 A1 = (  21.1388521970,   0.0000000000,   0.0000000000)
 A2 = (   0.0000000000,  21.1388521970,   0.0000000000)
 A3 = (   0.0000000000,   0.0000000000,  22.1138852197)

Analysis of symmetry for initial positions (statically):
 Subroutine PRICEL returns:
 Original cell was already a primitive cell.

 Routine SETGRP: Setting up the symmetry group for a
 simple tetragonal supercell.

 Subroutine GETGRP returns: Found  4 space group operations
 (whereof  1 operations were pure point group operations)
 out of a pool of 16 trial point group operations.

The static configuration has the point symmetry C_1 .
 The point group associated with its full space group is C_2v.

Analysis of symmetry for dynamics (positions and initial velocities):
 Subroutine PRICEL returns:
 Original cell was already a primitive cell.

 Routine SETGRP: Setting up the symmetry group for a
 simple tetragonal supercell.

 Subroutine GETGRP returns: Found  4 space group operations
 (whereof  1 operations were pure point group operations)
[...]
     40     -46.3564      2.00000
     41     -46.3557      2.00000
     42     -46.3550      2.00000
     43     -46.3544      2.00000
     44     -46.3541      2.00000
     45     -46.3539      2.00000
     46     -46.3535      2.00000
     47     -46.3533      2.00000
     48     -46.3531      2.00000
     49     -46.3520      2.00000
     50     -46.3515      2.00000
     51     -46.3505      2.00000
     52     -46.3502      2.00000
     53     -46.3501      2.00000
     54     -46.3498      2.00000
     55     -46.3495      2.00000
     56     -46.3482      2.00000
     57     -46.3480      2.00000
     58     -46.3479      2.00000
     59     -46.3476      2.00000
     60     -46.3470      2.00000
[...]
    946       6.6481      0.00000
    947       6.6679      0.00000
    948       6.7167      0.00000
    949       6.7695      0.00000
    950       6.7790      0.00000
    951       6.8197      0.00000
    952       6.9484      0.00000
    953       7.0280      0.00000
    954       7.2026      0.00000
    955       7.2100      0.00000
    956       7.2435      0.00000
    957       7.3840      0.00000
    958       7.5035      0.00000
    959       7.5435      0.00000
    960       7.7577      0.00000

 soft charge-density along one line, spin component           1
         0         1         2         3         4         5         6         7         8         9
 total charge-density along one line

------------------------ aborting loop because EDIFF is reached ----------------------------------------

 WARNING: Using user supplied parameters
     VDW_A1 = 0.398
     VDW_A2 = 4.421
     VDW_S8 = 1.989
     because the xc functional is not supported. Required parameters not
     defined in the INCAR file will be replaced with PBE defaults ones.

         DFTD3 V3.0 Rev 1
 IVDW         = 12
 DF unknown
 parameters
 VDW_S6       =    1.0000
 VDW_S8       =    1.9889
 VDW_A1       =    0.3981
 VDW_A2       =    4.4211
 k1-k3        =   16.0000    1.3333   -4.0000
 VDW_RADIUS   =   50.2022 A
 VDW_CNRADIUS =   21.1671 A
 Edisp (eV)  -61.32786

 E6    (eV) :   -20.9635
 E8    (eV) :   -40.3643
 % E8        : 65.82

 VOLUME and BASIS-vectors are now :
  energy-cutoff  :      520.00
  volume of cell :     9881.61
      direct lattice vectors                 reciprocal lattice vectors
    21.138852197  0.000000000  0.000000000     0.047306258  0.000000000  0.000000000
     0.000000000 21.138852197  0.000000000     0.000000000  0.047306258  0.000000000
     0.000000000  0.000000000 22.113885220     0.000000000  0.000000000  0.045220457

  length of vectors
    21.138852197 21.138852197 22.113885220     0.047306258  0.047306258  0.045220457

 FORCES acting on ions:
    Electron-Ion                     Ewald-Force                    Non-Local-Force
   -.189E+03 0.189E+03 -.206E+04   0.184E+03 -.184E+03 0.206E+04   0.506E+01 -.506E+01 -.204E+00
   0.189E+03 -.189E+03 -.206E+04   -.184E+03 0.184E+03 0.206E+04   -.506E+01 0.506E+01 -.204E+00
   0.203E+00 -.345E+01 0.931E+03   -.207E+00 0.346E+01 -.923E+03   0.303E-02 -.274E-02 -.670E+01
   0.345E+01 -.203E+00 0.931E+03   -.346E+01 0.207E+00 -.923E+03   0.274E-02 -.303E-02 -.670E+01
   -.115E-07 -.185E-03 -.923E+03   0.103E-06 -.158E-05 0.915E+03   0.000E+00 0.000E+00 0.667E+01
   0.531E+01 -.531E+01 -.922E+03   -.532E+01 0.532E+01 0.914E+03   0.692E-02 -.692E-02 0.667E+01
   -.203E+00 0.345E+01 0.931E+03   0.207E+00 -.346E+01 -.923E+03   -.303E-02 0.274E-02 -.670E+01
   0.523E+01 0.671E+01 0.933E+03   -.523E+01 -.671E+01 -.925E+03   0.593E-03 0.424E-02 -.670E+01
   -.567E+00 0.716E+01 -.922E+03   0.579E+00 -.717E+01 0.914E+03   -.777E-02 0.380E-02 0.667E+01
   0.470E+01 0.470E+01 -.922E+03   -.470E+01 -.470E+01 0.915E+03   -.751E-03 -.751E-03 0.667E+01
   -.469E+00 0.613E+01 0.934E+03   0.479E+00 -.613E+01 -.926E+03   -.738E-02 0.485E-02 -.670E+01
   0.101E+02 0.518E+01 0.937E+03   -.102E+02 -.519E+01 -.930E+03   0.903E-02 0.804E-02 -.670E+01
   -.544E+00 0.501E+01 -.919E+03   0.555E+00 -.501E+01 0.912E+03   -.751E-02 0.245E-02 0.667E+01
   0.104E+02 0.967E+01 -.919E+03   -.104E+02 -.968E+01 0.912E+03   -.243E-02 0.592E-02 0.667E+01
   0.241E-06 -.189E-03 0.936E+03   -.147E-06 0.154E-05 -.928E+03   0.000E+00 0.000E+00 -.670E+01
   0.110E+02 -.464E+01 0.938E+03   -.110E+02 0.464E+01 -.930E+03   0.238E-01 -.901E-03 -.670E+01
   0.544E+00 -.501E+01 -.919E+03   -.555E+00 0.501E+01 0.912E+03   0.751E-02 -.245E-02 0.667E+01
   0.173E+02 0.745E+00 -.916E+03   -.174E+02 -.755E+00 0.909E+03   0.177E-01 0.698E-02 0.667E+01
   0.469E+00 -.613E+01 0.934E+03   -.479E+00 0.613E+01 -.926E+03   0.738E-02 -.485E-02 -.670E+01
   0.605E+01 -.704E+01 0.933E+03   -.607E+01 0.705E+01 -.926E+03   0.121E-01 -.834E-02 -.670E+01
   0.567E+00 -.716E+01 -.922E+03   -.579E+00 0.717E+01 0.914E+03   0.777E-02 -.380E-02 0.667E+01
   0.123E+02 -.980E+01 -.919E+03   -.124E+02 0.981E+01 0.911E+03   0.233E-01 -.523E-02 0.667E+01
   0.704E+01 -.605E+01 0.933E+03   -.705E+01 0.607E+01 -.926E+03   0.834E-02 -.121E-01 -.670E+01
   0.613E+01 -.469E+00 0.934E+03   -.613E+01 0.479E+00 -.926E+03   0.485E-02 -.738E-02 -.670E+01
   0.716E+01 -.568E+00 -.922E+03   -.717E+01 0.579E+00 0.914E+03   0.380E-02 -.777E-02 0.667E+01
   0.980E+01 -.123E+02 -.919E+03   -.981E+01 0.124E+02 0.911E+03   0.523E-02 -.233E-01 0.667E+01
   0.671E+01 0.523E+01 0.933E+03   -.671E+01 -.523E+01 -.925E+03   0.424E-02 0.593E-03 -.670E+01
   0.116E+02 0.148E+02 0.940E+03   -.116E+02 -.148E+02 -.932E+03   0.134E-01 0.151E-01 -.671E+01
   0.132E+02 0.132E+02 -.919E+03   -.132E+02 -.132E+02 0.911E+03   0.225E-02 0.225E-02 0.667E+01
   0.967E+01 0.104E+02 -.919E+03   -.968E+01 -.104E+02 0.912E+03   0.592E-02 -.243E-02 0.667E+01
   0.148E+02 0.116E+02 0.940E+03   -.148E+02 -.116E+02 -.932E+03   0.151E-01 0.134E-01 -.671E+01
   0.285E+02 0.160E+02 0.960E+03   -.286E+02 -.160E+02 -.953E+03   0.694E-01 0.383E-01 -.672E+01
   0.330E+02 0.140E+02 -.910E+03   -.330E+02 -.140E+02 0.902E+03   0.152E-01 0.215E-01 0.666E+01
   0.316E+02 0.316E+02 -.905E+03   -.317E+02 -.317E+02 0.897E+03   0.184E-01 0.184E-01 0.665E+01
   0.239E+02 0.112E+01 0.948E+03   -.240E+02 -.114E+01 -.940E+03   0.455E-01 0.134E-01 -.670E+01
   0.303E+02 -.142E+02 0.965E+03   -.304E+02 0.142E+02 -.957E+03   0.497E-01 -.152E-01 -.665E+01
   0.370E+02 -.119E+02 -.907E+03   -.371E+02 0.119E+02 0.900E+03   0.748E-01 0.353E-02 0.668E+01
   0.778E+02 0.813E+01 -.871E+03   -.781E+02 -.823E+01 0.863E+03   0.166E+00 0.693E-01 0.670E+01
   0.162E+02 -.119E+02 0.942E+03   -.163E+02 0.119E+02 -.934E+03   0.299E-01 -.154E-01 -.669E+01
   0.119E+02 -.162E+02 0.942E+03   -.119E+02 0.163E+02 -.934E+03   0.154E-01 -.299E-01 -.669E+01
   0.148E+02 -.148E+02 -.918E+03   -.148E+02 0.148E+02 0.910E+03   0.197E-01 -.197E-01 0.667E+01
   0.365E+02 -.365E+02 -.899E+03   -.366E+02 0.366E+02 0.891E+03   0.598E-01 -.598E-01 0.669E+01
   0.464E+01 -.110E+02 0.938E+03   -.464E+01 0.110E+02 -.930E+03   0.901E-03 -.238E-01 -.670E+01
   0.236E-06 -.183E-03 0.936E+03   -.140E-06 -.411E-05 -.928E+03   0.000E+00 0.000E+00 -.670E+01
   0.501E+01 -.544E+00 -.919E+03   -.501E+01 0.555E+00 0.912E+03   0.245E-02 -.751E-02 0.667E+01
   -.745E+00 -.173E+02 -.916E+03   0.755E+00 0.174E+02 0.909E+03   -.698E-02 -.177E-01 0.667E+01
   0.518E+01 0.101E+02 0.937E+03   -.519E+01 -.102E+02 -.930E+03   0.804E-02 0.903E-02 -.670E+01
   0.112E+01 0.239E+02 0.948E+03   -.114E+01 -.240E+02 -.940E+03   0.134E-01 0.455E-01 -.670E+01
   0.140E+02 0.330E+02 -.910E+03   -.140E+02 -.330E+02 0.902E+03   0.215E-01 0.152E-01 0.666E+01
   0.745E+00 0.173E+02 -.916E+03   -.755E+00 -.174E+02 0.909E+03   0.698E-02 0.177E-01 0.667E+01
   0.160E+02 0.285E+02 0.960E+03   -.160E+02 -.286E+02 -.953E+03   0.383E-01 0.694E-01 -.672E+01
   0.303E+01 0.303E+02 0.100E+04   -.301E+01 -.303E+02 -.994E+03   -.150E-01 0.642E-01 -.653E+01
   0.691E+02 0.691E+02 -.838E+03   -.694E+02 -.694E+02 0.830E+03   0.187E+00 0.187E+00 0.656E+01
   0.813E+01 0.778E+02 -.871E+03   -.823E+01 -.781E+02 0.863E+03   0.693E-01 0.166E+00 0.670E+01
   0.303E+02 0.303E+01 0.100E+04   -.303E+02 -.301E+01 -.994E+03   0.642E-01 -.150E-01 -.653E+01
   -.303E+01 -.303E+02 0.100E+04   0.301E+01 0.303E+02 -.994E+03   0.150E-01 -.642E-01 -.653E+01
   0.753E+02 -.753E+02 -.796E+03   -.756E+02 0.756E+02 0.788E+03   0.133E+00 -.133E+00 0.663E+01
   -.206E-04 -.241E-03 -.668E+03   0.210E-04 0.517E-04 0.662E+03   0.000E+00 0.000E+00 0.486E+01
   0.142E+02 -.303E+02 0.965E+03   -.142E+02 0.304E+02 -.957E+03   0.152E-01 -.497E-01 -.665E+01
   -.112E+01 -.239E+02 0.948E+03   0.114E+01 0.240E+02 -.940E+03   -.134E-01 -.455E-01 -.670E+01
[...]
   -.793E+01 0.792E+01 0.704E+03   0.794E+01 -.794E+01 -.708E+03   -.178E-01 0.178E-01 0.318E+01
   -.316E+01 0.316E+01 0.701E+03   0.316E+01 -.316E+01 -.705E+03   -.686E-02 0.686E-02 0.318E+01
   -.189E+02 0.133E+02 -.686E+03   0.189E+02 -.134E+02 0.690E+03   -.395E-01 0.240E-01 -.321E+01
   -.122E+02 0.463E+01 -.689E+03   0.123E+02 -.463E+01 0.693E+03   -.207E-01 -.406E-03 -.322E+01
   -.165E+02 0.573E+01 0.712E+03   0.166E+02 -.573E+01 -.716E+03   -.440E-01 0.365E-02 0.319E+01
   -.651E+01 0.558E+01 0.704E+03   0.652E+01 -.559E+01 -.708E+03   -.179E-01 0.837E-02 0.318E+01
   -.306E+02 -.183E+01 -.681E+03   0.306E+02 0.186E+01 0.685E+03   -.415E-01 -.285E-01 -.323E+01
   -.110E+02 -.527E+01 -.690E+03   0.110E+02 0.528E+01 0.694E+03   -.603E-02 -.104E-01 -.322E+01
   -.154E+02 -.664E+01 0.710E+03   0.155E+02 0.665E+01 -.714E+03   -.218E-01 -.199E-01 0.317E+01
   -.873E+01 -.324E+00 0.706E+03   0.875E+01 0.328E+00 -.710E+03   -.155E-01 -.649E-02 0.318E+01
   -.163E+02 -.125E+02 -.688E+03   0.163E+02 0.126E+02 0.692E+03   -.713E-02 -.110E-01 -.323E+01
   -.510E+01 -.636E+01 -.693E+03   0.510E+01 0.636E+01 0.697E+03   0.144E-02 -.293E-02 -.322E+01
   -.730E+01 -.730E+01 0.703E+03   0.730E+01 0.730E+01 -.707E+03   -.714E-02 -.714E-02 0.318E+01
   -.568E+01 -.557E+01 0.703E+03   0.568E+01 0.557E+01 -.707E+03   -.267E-02 -.775E-02 0.318E+01
   -.145E-04 -.110E+00 0.638E+01   0.753E-12 0.270E-12 0.830E-11   0.141E-15 -.244E-15 -.594E+01

 POSITION                                       TOTAL-FORCE (eV/Angst)
     11.48398     11.76876     13.78517         0.118908     -0.118908     -0.006933
      9.65487     13.59787     13.78517        -0.118908      0.118908     -0.006933
      0.00000      0.00000      9.00000        -0.000941      0.000846      0.529151
      2.11389      2.11389      9.00000        -0.000846      0.000941      0.529151
      0.00000      2.11389     11.11389        -0.000000     -0.000000     -0.520168
      2.11389      0.00000     11.11389        -0.002110      0.002110     -0.520070
      0.00000      4.22777      9.00000         0.000941     -0.000846      0.529151
      2.11389      6.34166      9.00000        -0.000133     -0.001266      0.529653
      0.00000      6.34166     11.11389         0.002407     -0.001135     -0.519639
      2.11389      4.22777     11.11389         0.000293      0.000293     -0.519657
      0.00000      8.45554      9.00000         0.002222     -0.001516      0.529305
      2.11389     10.56943      9.00000        -0.002644     -0.002548      0.529876
      0.00000     10.56943     11.11389         0.002259     -0.000737     -0.518740
      2.11389      8.45554     11.11389         0.001112     -0.001647     -0.517821
      0.00000     12.68331      9.00000        -0.000000     -0.000000      0.529441
      2.11389     14.79720      9.00000        -0.006900      0.000242      0.529317
      0.00000     14.79720     11.11389        -0.002259      0.000737     -0.518740
      2.11389     12.68331     11.11389        -0.004365     -0.002303     -0.517651
      0.00000     16.91108      9.00000        -0.002222      0.001516      0.529305
      2.11389     19.02497      9.00000        -0.003702      0.002624      0.528791
      0.00000     19.02497     11.11389        -0.002407      0.001135     -0.519639
      2.11389     16.91108     11.11389        -0.006738      0.001550     -0.519463
      4.22777      0.00000      9.00000        -0.002624      0.003702      0.528791
      6.34166      2.11389      9.00000        -0.001516      0.002222      0.529305
      4.22777      2.11389     11.11389        -0.001135      0.002407     -0.519639
      6.34166      0.00000     11.11389        -0.001550      0.006738     -0.519463
      4.22777      4.22777      9.00000        -0.001266     -0.000133      0.529653
      6.34166      6.34166      9.00000        -0.003955     -0.004299      0.531296
      4.22777      6.34166     11.11389        -0.000239     -0.000239     -0.517030
      6.34166      4.22777     11.11389        -0.001647      0.001112     -0.517821
      4.22777      8.45554      9.00000        -0.004299     -0.003955      0.531296
      6.34166     10.56943      9.00000        -0.019567     -0.011625      0.536786
      4.22777     10.56943     11.11389        -0.000688     -0.005571     -0.511699
      6.34166      8.45554     11.11389        -0.000522     -0.000522     -0.503679
      4.22777     12.68331      9.00000        -0.012964     -0.004483      0.530119
      6.34166     14.79720      9.00000        -0.011942      0.003914      0.520743
      4.22777     14.79720     11.11389        -0.018935     -0.002355     -0.516997
      6.34166     12.68331     11.11389        -0.035510     -0.020194     -0.495937
      4.22777     16.91108      9.00000        -0.008986      0.004891      0.527343
      6.34166     19.02497      9.00000        -0.004891      0.008986      0.527343
      4.22777     19.02497     11.11389        -0.005718      0.005718     -0.519921
      6.34166     16.91108     11.11389        -0.011340      0.011340     -0.518983
      8.45554      0.00000      9.00000        -0.000242      0.006900      0.529317
     10.56943      2.11389      9.00000        -0.000000     -0.000000      0.529441
      8.45554      2.11389     11.11389        -0.000737      0.002259     -0.518740
     10.56943      0.00000     11.11389         0.002303      0.004365     -0.517651
      8.45554      4.22777      9.00000        -0.002548     -0.002644      0.529876
     10.56943      6.34166      9.00000        -0.004483     -0.012964      0.530119
      8.45554      6.34166     11.11389        -0.005571     -0.000688     -0.511699
     10.56943      4.22777     11.11389        -0.002303     -0.004365     -0.517651
      8.45554      8.45554      9.00000        -0.011625     -0.019567      0.536786
     10.56943     10.56943      9.00000         0.009938     -0.011440      0.492367
      8.45554     10.56943     11.11389        -0.015688     -0.015688     -0.378483
     10.56943      8.45554     11.11389        -0.020194     -0.035510     -0.495937
      8.45554     12.68331      9.00000        -0.011440      0.009938      0.492367
     10.56943     14.79720      9.00000        -0.009938      0.011440      0.492367
      8.45554     14.79720     11.11389        -0.080663      0.080663     -0.681442
     10.56943     12.68331     11.11389        -0.000000     -0.000000     -0.394643
      8.45554     16.91108      9.00000        -0.003914      0.011942      0.520743
     10.56943     19.02497      9.00000         0.004483      0.012964      0.530119
[...]
     19.02497      6.34166     11.11389        -0.004438      0.003335      0.398535
     16.91108      6.34166      9.00000        -0.005836      0.005836     -0.406959
     19.02497      4.22777      9.00000        -0.002223      0.002223     -0.407988
     16.91108      8.45554     11.11389        -0.013317      0.008161      0.399661
     19.02497     10.56943     11.11389        -0.006879     -0.000093      0.397319
     16.91108     10.56943      9.00000        -0.015102      0.001362     -0.403506
     19.02497      8.45554      9.00000        -0.005854      0.002741     -0.407510
     16.91108     12.68331     11.11389        -0.014940     -0.009385      0.394650
     19.02497     14.79720     11.11389        -0.002076     -0.003407      0.395870
     16.91108     14.79720      9.00000        -0.007616     -0.006691     -0.409879
     19.02497     12.68331      9.00000        -0.005128     -0.002090     -0.408136
     16.91108     16.91108     11.11389        -0.002645     -0.003782      0.392985
     19.02497     19.02497     11.11389         0.000445     -0.000980      0.397380
     16.91108     19.02497      9.00000        -0.002360     -0.002360     -0.409286
     19.02497     16.91108      9.00000        -0.000894     -0.002539     -0.408888
    total drift:                               -0.000014     -0.109992     -0.273812

  FREE ENERGIE OF THE ION-ELECTRON SYSTEM (eV)
  free  energy   TOTEN  =     -1393.16031413 eV

  energy  without entropy=    -1393.16031413  energy(sigma->0) =    -1393.16031413