 vasp.6.3.0 20Jan22 (build Apr  1 2022 16:44:48) complex
 executed on        HPECrayEX_GCC date 2023.01.09  21:48:22

 INCAR:
   SYSTEM = MgO-rocksalt
   ISMEAR = 0
   SIGMA = 0.05
   EDIFF = 1E-6
   ALGO = ALL
   ISTART = 0
   IBRION = -1
   NSW = 0
   ISYM = 2
   DIPOL = 0.5 0.5 0.5
   IDIPOL = 3
   LDIPOL = .TRUE.
   GGA = MK
   LUSE_VDW = .TRUE.
   PARAM1 = 0.1234
   PARAM2 = 0.711357
   ZAB_VDW = -1.8867
   AGGAC = 0.0
   ENCUT = 520
   PREC = Accurate
   LASPH = .TRUE.
   LREAL = Auto
   ISPIN = 1
   NELM = 200
   NELMIN = 8
   NCORE = 4
   KPAR = 2
   LWAVE = .FALSE.
   LCHARG = .FALSE.

 POTCAR:    PAW_PBE Cu 22Jun2005
 POTCAR:    PAW_PBE Mg_pv 13Apr2007
 POTCAR:    PAW_PBE O 08Apr2002
|               ----> ADVICE to this user running VASP <----                  |
|     You have switched on vdW-DFT.                                           |
|     This routine was written and supplied by Jiri Klimes. We recommend      |
|     that you carefully read and cite the following publications:            |
|       J. Klimes, D.R. Bowler, A. Michelides                                 |
|          J. Phys.: Cond Matt. 22 022201 (2010)                              |
|       J. Klimes, D.R. Bowler, A. Michelides                                 |
|          Phys. Rev. B. 83, 195131 (2011)                                    |
|     and references therein.                                                 |

   TITEL  = PAW_PBE Cu 22Jun2005
   POMASS =   63.546; ZVAL   =   11.000    mass and valenz
   ENMAX  =  295.446; ENMIN  =  221.585 eV

   TITEL  = PAW_PBE Mg_pv 13Apr2007
   POMASS =   24.305; ZVAL   =    8.000    mass and valenz
   ENMAX  =  403.929; ENMIN  =  302.947 eV

   TITEL  = PAW_PBE O 08Apr2002
   POMASS =   16.000; ZVAL   =    6.000    mass and valenz
   ENMAX  =  400.000; ENMIN  =  300.000 eV

 Optimization of the real space projectors (new method)

 maximal supplied QI-value         = 16.25
 optimisation between [QCUT,QGAM] = [ 11.54, 23.24] = [ 37.28,151.24] Ry
 Optimized for a Real-space Cutoff    1.53 Angstroem

   l    n(q)    QCUT    max X(q) W(low)/X(q) W(high)/X(q)  e(spline)
   2     10    11.539     4.610    0.96E-04    0.13E-03    0.19E-06
   2     10    11.539     8.522    0.16E-03    0.21E-03    0.28E-06
   0     11    11.539    51.609    0.45E-04    0.31E-04    0.11E-06
   0     11    11.539    27.747    0.39E-04    0.29E-04    0.10E-06
   1     10    11.539    20.408    0.70E-05    0.38E-04    0.18E-06
   1     10    11.539    13.425    0.66E-05    0.34E-04    0.17E-06
 Optimization of the real space projectors (new method)

[...]

   l    n(q)    QCUT    max X(q) W(low)/X(q) W(high)/X(q)  e(spline)
   1      8    11.527     2.974    0.44E-04    0.56E-04    0.12E-06
   1      8    11.527     4.279    0.12E-03    0.12E-03    0.26E-06
   0      9    11.527    16.381    0.46E-04    0.64E-04    0.78E-07
   0      9    11.527     5.611    0.26E-04    0.43E-04    0.55E-07
   2      8    11.527     4.652    0.22E-03    0.72E-04    0.47E-07
 Optimization of the real space projectors (new method)

 maximal supplied QI-value         = 24.76
 optimisation between [QCUT,QGAM] = [ 11.64, 23.27] = [ 37.91,151.63] Ry
 Optimized for a Real-space Cutoff    1.14 Angstroem

   l    n(q)    QCUT    max X(q) W(low)/X(q) W(high)/X(q)  e(spline)
   0      8    11.635    20.381    0.10E-03    0.33E-03    0.24E-06
   0      8    11.635    15.268    0.11E-03    0.35E-03    0.26E-06
   1      7    11.635     5.964    0.24E-03    0.31E-03    0.30E-06
   1      7    11.635     5.382    0.22E-03    0.25E-03    0.26E-06
|               ----> ADVICE to this user running VASP <----                  |
|     You enforced a specific xc type in the INCAR file but a different       |
|     type was found in the POTCAR file.                                      |
|     I HOPE YOU KNOW WHAT YOU ARE DOING!                                     |

  PAW_PBE Cu 22Jun2005                  :
  PAW_PBE Mg_pv 13Apr2007               :
  PAW_PBE O 08Apr2002                   :

 POSCAR: Cu Mg  O
  positions in direct lattice
  velocities in cartesian coordinates
 exchange correlation table for  LEXCH =       43
   RHO(1)=    0.500       N(1)  =     2000
   RHO(2)=  100.500       N(2)  =     4000

 ion  position               nearest neighbor table
   1  0.400  0.421  0.593- 153 2.05   2 2.27  55 2.60
   2  0.401  0.506  0.657-   1 2.27   4 2.38   3 2.40
   3  0.401  0.614  0.691-   4 2.27   2 2.40
   4  0.400  0.594  0.590- 157 1.94   3 2.27   2 2.38
   5  0.000  0.000  0.407- 107 2.11 108 2.11 123 2.11 188 2.11 105 2.11
   6  0.100  0.100  0.407- 107 2.11 108 2.11 112 2.11 127 2.11 106 2.11
   7  0.000  0.100  0.503- 105 2.11 106 2.11 109 2.11 186 2.11 107 2.11
   8  0.100  0.000  0.503- 105 2.11 106 2.11 122 2.11 125 2.11 108 2.11
   9  0.000  0.200  0.407- 111 2.11 107 2.11 112 2.11 192 2.11 109 2.11
  10  0.100  0.300  0.407- 112 2.11 111 2.11 116 2.11 131 2.11 110 2.11
  11  0.000  0.300  0.503- 109 2.11 110 2.11 113 2.11 190 2.11 111 2.11
  12  0.100  0.200  0.503- 110 2.11 109 2.11 106 2.11 129 2.11 112 2.11
  13  0.000  0.400  0.407- 111 2.11 115 2.11 116 2.11 196 2.11 113 2.11
  14  0.100  0.500  0.407- 115 2.11 116 2.11 120 2.11 135 2.11 114 2.11
  15  0.000  0.500  0.503- 113 2.11 114 2.11 117 2.11 194 2.11 115 2.11
  16  0.100  0.400  0.503- 110 2.11 113 2.11 114 2.11 133 2.11 116 2.11
  17  0.000  0.600  0.407- 115 2.11 119 2.11 120 2.11 200 2.11 117 2.11
  18  0.100  0.700  0.407- 124 2.11 120 2.11 119 2.11 139 2.11 118 2.11
  19  0.000  0.700  0.503- 121 2.11 118 2.11 117 2.11 198 2.11 119 2.11
  20  0.100  0.600  0.503- 114 2.11 117 2.11 118 2.11 137 2.11 120 2.11
  21  0.000  0.800  0.407- 119 2.11 123 2.11 124 2.11 204 2.11 121 2.11
  22  0.100  0.900  0.407- 108 2.11 123 2.11 124 2.11 143 2.11 122 2.11
  23  0.000  0.900  0.503- 105 2.11 121 2.11 122 2.11 202 2.11 123 2.11
  24  0.100  0.800  0.503- 118 2.11 121 2.11 122 2.11 141 2.11 124 2.11
  25  0.200  0.000  0.407- 128 2.11 127 2.11 108 2.11 143 2.11 125 2.11
  26  0.300  0.100  0.407- 127 2.11 128 2.11 132 2.11 147 2.11 126 2.11
  27  0.200  0.100  0.503- 126 2.11 125 2.11 106 2.11 129 2.11 127 2.11
  28  0.300  0.000  0.503- 125 2.11 126 2.11 142 2.11 145 2.11 128 2.11
  29  0.200  0.200  0.407- 131 2.11 132 2.11 112 2.11 127 2.11 129 2.11
  30  0.300  0.300  0.407- 131 2.11 132 2.11 136 2.11 151 2.11 130 2.11
  31  0.200  0.300  0.503- 129 2.11 130 2.11 110 2.11 133 2.11 131 2.11
  32  0.300  0.200  0.503- 129 2.11 130 2.11 126 2.11 149 2.11 132 2.11
  33  0.200  0.400  0.407- 136 2.11 131 2.11 135 2.11 116 2.11 133 2.11
  34  0.300  0.500  0.407- 135 2.11 136 2.11 140 2.11 155 2.11 134 2.11
  35  0.200  0.500  0.503- 134 2.11 133 2.11 114 2.11 137 2.11 135 2.11
  36  0.300  0.400  0.503- 133 2.11 130 2.11 134 2.11 153 2.11 136 2.11
  37  0.200  0.600  0.407- 140 2.11 135 2.11 139 2.11 120 2.11 137 2.11
  38  0.300  0.700  0.407- 139 2.11 144 2.11 140 2.11 159 2.11 138 2.11
  39  0.200  0.700  0.503- 138 2.11 141 2.11 118 2.11 137 2.11 139 2.11
  40  0.300  0.600  0.503- 137 2.11 134 2.11 138 2.11 157 2.11 140 2.11
  41  0.200  0.800  0.407- 139 2.11 144 2.11 143 2.11 124 2.11 141 2.11
  42  0.300  0.900  0.407- 143 2.11 128 2.11 144 2.11 163 2.11 142 2.11
  43  0.200  0.900  0.503- 142 2.11 125 2.11 141 2.11 122 2.11 143 2.11
  44  0.300  0.800  0.503- 138 2.11 141 2.11 142 2.11 161 2.11 144 2.11
  45  0.400  0.000  0.407- 128 2.11 147 2.11 148 2.11 163 2.11 145 2.11
  46  0.500  0.100  0.407- 147 2.11 148 2.11 152 2.11 167 2.11 146 2.11
  47  0.400  0.100  0.503- 126 2.11 145 2.11 146 2.11 149 2.11 147 2.11
  48  0.500  0.000  0.503- 145 2.11 146 2.11 162 2.11 165 2.11 148 2.11
  49  0.400  0.200  0.407- 151 2.11 147 2.11 132 2.11 152 2.11 149 2.11
  50  0.500  0.300  0.407- 152 2.11 151 2.11 156 2.11 171 2.11 150 2.11
  51  0.400  0.300  0.503- 149 2.11 130 2.11 150 2.11 153 2.11 151 2.11
  52  0.500  0.200  0.503- 150 2.11 149 2.11 146 2.11 169 2.11 152 2.11
  53  0.400  0.400  0.407- 136 2.11 151 2.11 155 2.11 156 2.11 153 2.11
  54  0.500  0.500  0.407- 155 2.11 156 2.11 160 2.11 175 2.11 154 2.11
  55  0.400  0.500  0.503- 134 2.11 153 2.11 154 2.11 157 2.11 155 2.11   1 2.60
  56  0.500  0.400  0.503- 150 2.11 153 2.11 154 2.11 173 2.11 156 2.11
  57  0.400  0.600  0.407- 140 2.11 155 2.11 159 2.11 160 2.11 157 2.11
  58  0.500  0.700  0.407- 164 2.11 160 2.11 159 2.11 179 2.11 158 2.11
  59  0.400  0.700  0.503- 161 2.11 157 2.11 158 2.11 138 2.11 159 2.11
  60  0.500  0.600  0.503- 154 2.11 157 2.11 158 2.11 177 2.11 160 2.11
[...]
 190  0.900  0.300  0.503-  92 2.11  91 2.11  11 2.11  96 2.11  90 2.11
 191  0.800  0.300  0.407-  70 2.11  89 2.11  90 2.11  93 2.11  91 2.11
 192  0.900  0.200  0.407-  90 2.11  86 2.11  89 2.11   9 2.11  92 2.11
 193  0.800  0.400  0.503-  76 2.11  91 2.11  95 2.11  96 2.11  93 2.11
 194  0.900  0.500  0.503-  15 2.11  95 2.11  96 2.11 100 2.11  94 2.11
 195  0.800  0.500  0.407-  74 2.11  93 2.11  94 2.11  97 2.11  95 2.11
 196  0.900  0.400  0.407-  13 2.11  90 2.11  93 2.11  94 2.11  96 2.11
 197  0.800  0.600  0.503-  80 2.11  95 2.11  99 2.11 100 2.11  97 2.11
 198  0.900  0.700  0.503- 104 2.11  99 2.11 100 2.11  19 2.11  98 2.11
 199  0.800  0.700  0.407-  78 2.11 101 2.11  98 2.11  97 2.11  99 2.11
 200  0.900  0.600  0.407-  17 2.11  94 2.11  97 2.11  98 2.11 100 2.11
 201  0.800  0.800  0.503-  84 2.11  99 2.11 103 2.11 104 2.11 101 2.11
 202  0.900  0.900  0.503-  23 2.11  88 2.11 103 2.11 104 2.11 102 2.11
 203  0.800  0.900  0.407-  82 2.11  85 2.11 101 2.11 102 2.11 103 2.11
 204  0.900  0.800  0.407-  98 2.11  21 2.11 101 2.11 102 2.11 104 2.11

  LATTYP: Found a simple tetragonal cell.
 ALAT       =    21.1388521970
 C/A-ratio  =     1.0461251639

  Lattice vectors:

 A1 = (  21.1388521970,   0.0000000000,   0.0000000000)
 A2 = (   0.0000000000,  21.1388521970,   0.0000000000)
 A3 = (   0.0000000000,   0.0000000000,  22.1138852197)

Analysis of symmetry for initial positions (statically):
 Subroutine PRICEL returns:
 Original cell was already a primitive cell.

 Routine SETGRP: Setting up the symmetry group for a
 simple tetragonal supercell.

 Subroutine GETGRP returns: Found  1 space group operations
 (whereof  1 operations were pure point group operations)
 out of a pool of 16 trial point group operations.

The static configuration has the point symmetry C_1 .

Analysis of symmetry for dynamics (positions and initial velocities):
 Subroutine PRICEL returns:
 Original cell was already a primitive cell.

[...]

The dynamic configuration has the point symmetry C_1 .

Analysis of constrained symmetry for selective dynamics:
 Subroutine PRICEL returns:
 Original cell was already a primitive cell.

 Routine SETGRP: Setting up the symmetry group for a
 simple tetragonal supercell.

 Subroutine GETGRP returns: Found  1 space group operations
 (whereof  1 operations were pure point group operations)
 out of a pool of 16 trial point group operations.

The constrained configuration has the point symmetry C_1 .

 Subroutine INISYM returns: Found  1 space group operations
 (whereof  1 operations are pure point group operations),
 and found     1 'primitive' translations

[...]
     52     -43.3294      2.00000
     53     -43.3290      2.00000
     54     -43.3284      2.00000
     55     -43.3279      2.00000
     56     -43.3264      2.00000
     57     -43.3252      2.00000
     58     -43.3225      2.00000
     59     -43.3214      2.00000
     60     -43.3208      2.00000
[...]
    946       5.7040      0.00000
    947       5.7383      0.00000
    948       5.7653      0.00000
    949       5.7822      0.00000
    950       5.8187      0.00000
    951       5.8814      0.00000
    952       5.9158      0.00000
    953       5.9532      0.00000
    954       6.0203      0.00000
    955       6.0995      0.00000
    956       6.1266      0.00000
    957       6.2649      0.00000
    958       6.3022      0.00000
    959       6.4164      0.00000
    960       6.4783      0.00000

 soft charge-density along one line, spin component           1
         0         1         2         3         4         5         6         7         8         9
 total charge-density along one line

------------------------ aborting loop because EDIFF is reached ----------------------------------------

  FORCE on cell =-STRESS in cart. coord.  units (eV):
  Direction    XX          YY          ZZ          XY          YZ          ZX
  Alpha Z  1394.80054  1394.80054  1394.80054
  Ewald  481518.80809483945.56047************     3.30592   512.32742     8.74192
  Hartree511288.01034513307.62946************     2.74166   417.59043     6.62799
  E(xc)   -7907.36519 -7906.80212 -7908.24339     0.00119     0.21090     0.00431
  Local  ************************************    -6.03662  -926.96137   -15.25979
  n-local -8915.95247 -8915.26018 -9029.87066     0.00090     0.03096    -0.00621
  augment  3675.85651  3669.44285  3607.78099    -0.00737    -1.75510    -0.05179
  Kinetic 23054.00066 23047.71515 23278.55135    -0.00275    -1.43304    -0.07244
  Fock        0.00000     0.00000     0.00000     0.00000     0.00000     0.00000
  Total    -181.26104  -181.59334     1.95365     0.00292     0.01019    -0.01601
  in kB     -29.38916   -29.44304     0.31676     0.00047     0.00165    -0.00260

 VOLUME and BASIS-vectors are now :
  energy-cutoff  :      520.00
  volume of cell :     9881.61
      direct lattice vectors                 reciprocal lattice vectors
    21.138852197  0.000000000  0.000000000     0.047306258  0.000000000  0.000000000
     0.000000000 21.138852197  0.000000000     0.000000000  0.047306258  0.000000000
     0.000000000  0.000000000 22.113885220     0.000000000  0.000000000  0.045220457

  length of vectors
    21.138852197 21.138852197 22.113885220     0.047306258  0.047306258  0.045220457

 FORCES acting on ions:
    Electron-Ion                     Ewald-Force                    Non-Local-Force
   0.144E+01 0.463E+03 -.201E+04   -.141E+01 -.456E+03 0.201E+04   -.386E-01 -.658E+01 -.679E+01
   -.174E+01 0.260E+03 -.217E+04   0.169E+01 -.262E+03 0.216E+04   0.458E-01 0.212E+01 0.675E+01
   -.277E+01 -.419E+03 -.212E+04   0.270E+01 0.413E+03 0.211E+04   0.586E-01 0.592E+01 0.109E+02
   0.286E+01 -.306E+03 -.175E+04   -.282E+01 0.306E+03 0.176E+04   -.458E-01 0.243E+00 -.603E+01
   0.744E+01 -.228E+01 0.936E+03   -.746E+01 0.229E+01 -.928E+03   0.146E-01 -.634E-02 -.716E+01
   0.138E+02 0.747E+01 0.939E+03   -.138E+02 -.748E+01 -.932E+03   0.301E-01 0.746E-02 -.716E+01
   0.982E+01 0.630E+01 -.918E+03   -.984E+01 -.629E+01 0.911E+03   0.128E-01 -.507E-02 0.709E+01
   0.159E+02 -.428E+01 -.916E+03   -.160E+02 0.429E+01 0.909E+03   0.173E-01 -.861E-02 0.709E+01
   0.105E+02 0.110E+02 0.938E+03   -.105E+02 -.110E+02 -.931E+03   0.253E-01 0.383E-02 -.716E+01
   0.281E+02 0.202E+02 0.951E+03   -.282E+02 -.203E+02 -.943E+03   0.945E-01 0.205E-01 -.719E+01
   0.198E+02 0.167E+02 -.913E+03   -.198E+02 -.167E+02 0.906E+03   0.160E-01 -.128E-02 0.708E+01
   0.257E+02 0.221E+02 -.912E+03   -.257E+02 -.221E+02 0.905E+03   0.420E-01 -.288E-02 0.708E+01
   0.188E+02 0.100E+02 0.946E+03   -.189E+02 -.100E+02 -.938E+03   0.434E-01 0.855E-02 -.717E+01
   0.436E+02 0.414E+01 0.963E+03   -.438E+02 -.416E+01 -.956E+03   0.144E+00 0.154E-01 -.721E+01
   0.305E+02 0.365E+01 -.908E+03   -.306E+02 -.366E+01 0.901E+03   0.174E-01 0.756E-02 0.707E+01
   0.589E+02 0.237E+02 -.897E+03   -.590E+02 -.237E+02 0.890E+03   0.341E-01 0.302E-02 0.705E+01
   0.204E+02 -.594E+01 0.947E+03   -.205E+02 0.593E+01 -.940E+03   0.547E-01 0.337E-02 -.717E+01
   0.332E+02 -.189E+02 0.955E+03   -.334E+02 0.189E+02 -.948E+03   0.126E+00 -.187E-01 -.719E+01
   0.238E+02 -.153E+02 -.911E+03   -.239E+02 0.153E+02 0.904E+03   0.273E-01 0.426E-02 0.708E+01
   0.666E+02 -.144E+02 -.893E+03   -.667E+02 0.144E+02 0.885E+03   0.746E-01 0.166E-01 0.705E+01
   0.125E+02 -.128E+02 0.941E+03   -.126E+02 0.128E+02 -.933E+03   0.337E-01 -.941E-02 -.716E+01
   0.160E+02 -.130E+02 0.941E+03   -.160E+02 0.130E+02 -.934E+03   0.368E-01 -.248E-01 -.716E+01
   0.116E+02 -.114E+02 -.917E+03   -.116E+02 0.114E+02 0.910E+03   0.160E-01 -.546E-02 0.709E+01
   0.332E+02 -.271E+02 -.907E+03   -.333E+02 0.271E+02 0.900E+03   0.564E-01 -.808E-02 0.708E+01
   0.137E+02 -.439E+01 0.942E+03   -.138E+02 0.441E+01 -.935E+03   0.250E-01 -.135E-01 -.717E+01
   0.102E+02 0.154E+02 0.948E+03   -.102E+02 -.155E+02 -.940E+03   0.230E-01 0.620E-01 -.718E+01
   0.197E+02 0.157E+02 -.912E+03   -.198E+02 -.157E+02 0.905E+03   0.232E-01 0.187E-01 0.708E+01
   0.118E+02 -.866E+01 -.910E+03   -.118E+02 0.867E+01 0.902E+03   0.107E-01 -.803E-02 0.708E+01
   0.227E+02 0.257E+02 0.952E+03   -.228E+02 -.257E+02 -.944E+03   0.773E-01 0.646E-01 -.718E+01
   0.309E+02 0.526E+02 0.992E+03   -.312E+02 -.530E+02 -.984E+03   0.207E+00 0.253E+00 -.718E+01
   0.624E+02 0.559E+02 -.887E+03   -.627E+02 -.559E+02 0.880E+03   0.187E+00 -.222E-01 0.702E+01
   0.267E+02 0.610E+02 -.894E+03   -.268E+02 -.612E+02 0.887E+03   0.321E-01 0.159E+00 0.705E+01
   0.539E+02 0.279E+02 0.986E+03   -.543E+02 -.279E+02 -.979E+03   0.342E+00 0.615E-01 -.731E+01
   0.605E+02 0.107E+02 0.106E+04   -.612E+02 -.108E+02 -.105E+04   0.460E+00 0.906E-01 -.738E+01
   0.129E+03 0.134E+02 -.844E+03   -.129E+03 -.135E+02 0.837E+03   0.184E+00 0.357E-01 0.693E+01
   0.158E+03 0.107E+03 -.748E+03   -.160E+03 -.107E+03 0.741E+03   0.157E+01 -.120E-01 0.635E+01
   0.600E+02 -.181E+02 0.995E+03   -.605E+02 0.181E+02 -.987E+03   0.441E+00 -.181E-01 -.731E+01
   0.385E+02 -.528E+02 0.101E+04   -.389E+02 0.532E+02 -.100E+04   0.294E+00 -.307E+00 -.718E+01
   0.819E+02 -.570E+02 -.871E+03   -.822E+02 0.570E+02 0.863E+03   0.251E+00 0.105E-01 0.701E+01
   0.186E+03 -.721E+02 -.705E+03   -.189E+03 0.720E+02 0.698E+03   0.234E+01 0.489E-01 0.658E+01
   0.285E+02 -.310E+02 0.959E+03   -.286E+02 0.311E+02 -.952E+03   0.102E+00 -.938E-01 -.718E+01
   0.124E+02 -.263E+02 0.954E+03   -.124E+02 0.264E+02 -.946E+03   0.251E-01 -.107E+00 -.719E+01
   0.248E+02 -.284E+02 -.908E+03   -.248E+02 0.284E+02 0.900E+03   0.215E-01 -.442E-01 0.708E+01
   0.387E+02 -.816E+02 -.874E+03   -.387E+02 0.819E+02 0.867E+03   0.185E-02 -.239E+00 0.701E+01
   0.453E-01 -.620E+01 0.947E+03   -.449E-01 0.622E+01 -.940E+03   -.312E-03 -.158E-01 -.717E+01
   -.101E+02 0.154E+02 0.948E+03   0.102E+02 -.155E+02 -.941E+03   -.235E-01 0.617E-01 -.718E+01
   0.639E-01 0.261E+02 -.907E+03   -.634E-01 -.262E+02 0.899E+03   -.399E-03 0.557E-01 0.707E+01
   -.117E+02 -.869E+01 -.910E+03   0.117E+02 0.870E+01 0.902E+03   -.112E-01 -.791E-02 0.708E+01
   0.734E-01 0.422E+02 0.967E+03   -.727E-01 -.426E+02 -.959E+03   -.581E-03 0.283E+00 -.723E+01
   -.307E+02 0.528E+02 0.992E+03   0.310E+02 -.531E+02 -.985E+03   -.209E+00 0.252E+00 -.718E+01
   0.338E+00 0.159E+03 -.811E+03   -.335E+00 -.161E+03 0.803E+03   -.208E-02 0.159E+01 0.701E+01
   -.266E+02 0.611E+02 -.894E+03   0.266E+02 -.613E+02 0.887E+03   -.332E-01 0.157E+00 0.705E+01
   0.237E+00 0.551E+02 0.106E+04   -.235E+00 -.555E+02 -.106E+04   -.190E-02 0.362E+00 -.544E+01
   -.603E+02 0.108E+02 0.106E+04   0.609E+02 -.109E+02 -.105E+04   -.463E+00 0.902E-01 -.739E+01
   0.128E+01 0.260E+02 -.513E+03   -.127E+01 -.271E+02 0.509E+03   -.707E-02 0.980E+00 0.395E+01
   -.158E+03 0.108E+03 -.746E+03   0.160E+03 -.108E+03 0.740E+03   -.157E+01 -.161E-01 0.633E+01
   0.296E+00 -.378E+02 0.109E+04   -.293E+00 0.380E+02 -.108E+04   -.246E-02 -.202E+00 -.457E+01
   -.383E+02 -.530E+02 0.101E+04   0.387E+02 0.534E+02 -.100E+04   -.296E+00 -.306E+00 -.719E+01
   0.621E+00 -.187E+03 -.741E+03   -.616E+00 0.190E+03 0.734E+03   -.403E-02 -.228E+01 0.653E+01
   -.186E+03 -.725E+02 -.703E+03   0.189E+03 0.724E+02 0.696E+03   -.234E+01 0.502E-01 0.656E+01
[...]
   -.110E+02 0.981E+01 0.708E+03   0.110E+02 -.982E+01 -.712E+03   -.282E-01 0.853E-02 0.361E+01
   -.348E-01 0.694E+01 0.705E+03   0.344E-01 -.694E+01 -.709E+03   0.440E-03 0.198E-02 0.362E+01
   -.201E+02 0.992E+01 -.685E+03   0.201E+02 -.992E+01 0.689E+03   -.182E-01 0.399E-02 -.375E+01
   -.101E+00 0.216E+01 -.686E+03   0.100E+00 -.216E+01 0.690E+03   0.875E-03 0.741E-02 -.374E+01
   -.161E+02 0.200E+01 0.713E+03   0.161E+02 -.201E+01 -.717E+03   -.380E-01 0.104E-01 0.360E+01
   -.611E-01 0.620E+01 0.708E+03   0.606E-01 -.621E+01 -.712E+03   0.731E-03 0.711E-02 0.361E+01
   -.223E+02 -.577E+01 -.683E+03   0.223E+02 0.576E+01 0.687E+03   -.252E-01 0.101E-01 -.375E+01
   -.855E-01 -.906E+01 -.687E+03   0.850E-01 0.906E+01 0.691E+03   0.709E-03 0.334E-02 -.373E+01
   -.128E+02 -.891E+01 0.710E+03   0.129E+02 0.891E+01 -.714E+03   -.381E-01 -.642E-02 0.361E+01
   -.701E-01 -.360E+01 0.709E+03   0.695E-01 0.360E+01 -.713E+03   0.775E-03 0.434E-02 0.361E+01
   -.128E+02 -.123E+02 -.687E+03   0.128E+02 0.123E+02 0.692E+03   -.223E-01 -.539E-02 -.373E+01
   -.443E-01 -.707E+01 -.690E+03   0.441E-01 0.708E+01 0.695E+03   0.392E-03 -.569E-02 -.372E+01
   -.686E+01 -.675E+01 0.705E+03   0.687E+01 0.676E+01 -.709E+03   -.213E-01 -.132E-01 0.362E+01
   -.463E-01 -.805E+01 0.706E+03   0.459E-01 0.805E+01 -.710E+03   0.497E-03 -.734E-02 0.362E+01
   -.805E-01 -.228E+01 -.214E+01   0.165E-11 0.682E-12 0.364E-11   0.678E-01 0.228E+01 0.174E+01

 POSITION                                       TOTAL-FORCE (eV/Angst)
      8.46039      8.90641     13.11119        -0.003541      0.001481      0.004609
      8.46878     10.69052     14.51992        -0.006132      0.003223     -0.001418
      8.47353     12.97033     15.28534        -0.005350     -0.002906      0.003113
      8.46080     12.56080     13.05418        -0.003938     -0.000525      0.000845
      0.00000      0.00000      9.00000        -0.003974      0.001774      0.342078
      2.11389      2.11389      9.00000        -0.008316     -0.002140      0.343013
      0.00000      2.11389     11.11389        -0.003311      0.001439     -0.316694
      2.11389      0.00000     11.11389        -0.004743      0.002361     -0.315347
      0.00000      4.22777      9.00000        -0.006662     -0.001052      0.343543
      2.11389      6.34166      9.00000        -0.024819     -0.005540      0.349565
      0.00000      6.34166     11.11389        -0.003616      0.000579     -0.311896
      2.11389      4.22777     11.11389        -0.010495      0.000952     -0.309490
      0.00000      8.45554      9.00000        -0.011511     -0.002347      0.346203
      2.11389     10.56943      9.00000        -0.038837     -0.004599      0.354542
      0.00000     10.56943     11.11389        -0.003544     -0.002248     -0.308133
      2.11389      8.45554     11.11389        -0.005120     -0.000182     -0.292134
      0.00000     12.68331      9.00000        -0.014338     -0.001082      0.346286
      2.11389     14.79720      9.00000        -0.033272      0.005388      0.349700
      0.00000     14.79720     11.11389        -0.006575     -0.001289     -0.311570
      2.11389     12.68331     11.11389        -0.015185     -0.005269     -0.291586
      0.00000     16.91108      9.00000        -0.008946      0.002696      0.343568
      2.11389     19.02497      9.00000        -0.010232      0.006975      0.343066
      0.00000     19.02497     11.11389        -0.004197      0.001555     -0.316479
      2.11389     16.91108     11.11389        -0.014151      0.002191     -0.308098
      4.22777      0.00000      9.00000        -0.007031      0.003624      0.343975
      6.34166      2.11389      9.00000        -0.006689     -0.016502      0.346008
      4.22777      2.11389     11.11389        -0.006370     -0.004358     -0.310303
      6.34166      0.00000     11.11389        -0.002900      0.002038     -0.309962
      4.22777      4.22777      9.00000        -0.021998     -0.018496      0.345136
      6.34166      6.34166      9.00000        -0.069582     -0.080429      0.330944
      4.22777      6.34166     11.11389        -0.042960      0.010321     -0.270305
      6.34166      4.22777     11.11389        -0.009206     -0.038570     -0.286330
      4.22777      8.45554      9.00000        -0.086784     -0.015923      0.374704
      6.34166     10.56943      9.00000        -0.156291     -0.030260      0.347901
      4.22777     10.56943     11.11389        -0.035263     -0.012452     -0.215105
      6.34166      8.45554     11.11389        -0.584477      0.021777     -0.141348
      4.22777     12.68331      9.00000        -0.109817      0.003483      0.375440
      6.34166     14.79720      9.00000        -0.098138      0.101382      0.324081
      4.22777     14.79720     11.11389        -0.058554     -0.005118     -0.262860
      6.34166     12.68331     11.11389        -0.863942     -0.018827     -0.267163
      4.22777     16.91108      9.00000        -0.029137      0.026761      0.345663
      6.34166     19.02497      9.00000        -0.007116      0.028092      0.348737
      4.22777     19.02497     11.11389        -0.005917      0.010965     -0.308112
      6.34166     16.91108     11.11389         0.002252      0.054160     -0.263362
      8.45554      0.00000      9.00000         0.000161      0.004306      0.345462
     10.56943      2.11389      9.00000         0.006959     -0.016420      0.346031
      8.45554      2.11389     11.11389         0.000179     -0.012548     -0.304572
     10.56943      0.00000     11.11389         0.003187      0.002012     -0.309949
      8.45554      4.22777      9.00000         0.000237     -0.071284      0.354863
     10.56943      6.34166      9.00000         0.070076     -0.080151      0.331248
      8.45554      6.34166     11.11389         0.000700     -0.520738     -0.279170
     10.56943      4.22777     11.11389         0.009610     -0.038109     -0.286181
      8.45554      8.45554      9.00000         0.000635     -0.080095     -0.028990
     10.56943     10.56943      9.00000         0.157076     -0.030152      0.348761
      8.45554     10.56943     11.11389         0.000796     -0.131356     -0.159488
     10.56943      8.45554     11.11389         0.588309      0.022352     -0.140331
      8.45554     12.68331      9.00000         0.000772      0.041732     -0.202795
     10.56943     14.79720      9.00000         0.098733      0.101074      0.324727
      8.45554     14.79720     11.11389         0.001232      0.796320     -0.190192
     10.56943     12.68331     11.11389         0.869492     -0.018708     -0.267043
[...]
     19.02497      6.34166     11.11389         0.000241     -0.000131      0.371129
     16.91108      6.34166      9.00000        -0.007783      0.002420     -0.402830
     19.02497      4.22777      9.00000         0.000183      0.000596     -0.400513
     16.91108      8.45554     11.11389        -0.004950      0.001082      0.365247
     19.02497     10.56943     11.11389         0.000303      0.002050      0.368687
     16.91108     10.56943      9.00000        -0.010475      0.002854     -0.405089
     19.02497      8.45554      9.00000         0.000262      0.001993     -0.402417
     16.91108     12.68331     11.11389        -0.006905      0.002774      0.364947
     19.02497     14.79720     11.11389         0.000252      0.000925      0.370906
     16.91108     14.79720      9.00000        -0.010456     -0.001812     -0.402892
     19.02497     12.68331      9.00000         0.000272      0.001166     -0.402409
     16.91108     16.91108     11.11389        -0.006058     -0.001477      0.371084
     19.02497     19.02497     11.11389         0.000176     -0.001561      0.374357
     16.91108     19.02497      9.00000        -0.005782     -0.003623     -0.400195
     19.02497     16.91108      9.00000         0.000205     -0.002053     -0.400547
    total drift:                               -0.012697     -0.001659     -0.403943

  FREE ENERGIE OF THE ION-ELECTRON SYSTEM (eV)
  free  energy   TOTEN  =      -794.78006489 eV

  energy  without entropy=     -794.78006489  energy(sigma->0) =     -794.78006489