 vasp.6.3.0 20Jan22 (build Apr  1 2022 16:44:48) complex
 executed on        HPECrayEX_GCC date 2023.01.09  20:37:40

 INCAR:
   SYSTEM = MgO-rocksalt
   ISMEAR = 0
   SIGMA = 0.05
   EDIFF = 1E-6
   ALGO = ALL
   ISTART = 0
   IBRION = -1
   NSW = 0
   ISYM = 2
   DIPOL = 0.5 0.5 0.5
   IDIPOL = 3
   LDIPOL = .TRUE.
   METAGGA = R2SCAN
   ENCUT = 520
   PREC = Accurate
   LASPH = .TRUE.
   LREAL = Auto
   ISPIN = 1
   NELM = 200
   NELMIN = 8
   NCORE = 4
   KPAR = 2
   LWAVE = .FALSE.
   LCHARG = .FALSE.

 POTCAR:    PAW_PBE Cu 22Jun2005
 POTCAR:    PAW_PBE Mg_pv 13Apr2007
 POTCAR:    PAW_PBE O 08Apr2002
 POTCAR:    PAW_PBE Cu 22Jun2005
   VRHFIN =Cu: d10 p1

   TITEL  = PAW_PBE Cu 22Jun2005
   POMASS =   63.546; ZVAL   =   11.000    mass and valenz
   ENMAX  =  295.446; ENMIN  =  221.585 eV

   TITEL  = PAW_PBE Mg_pv 13Apr2007
   POMASS =   24.305; ZVAL   =    8.000    mass and valenz
   ENMAX  =  403.929; ENMIN  =  302.947 eV

   TITEL  = PAW_PBE O 08Apr2002
   POMASS =   16.000; ZVAL   =    6.000    mass and valenz
   ENMAX  =  400.000; ENMIN  =  300.000 eV

 Optimization of the real space projectors (new method)

 maximal supplied QI-value         = 16.25
 optimisation between [QCUT,QGAM] = [ 11.54, 23.24] = [ 37.28,151.24] Ry
 Optimized for a Real-space Cutoff    1.53 Angstroem

   l    n(q)    QCUT    max X(q) W(low)/X(q) W(high)/X(q)  e(spline)
   2     10    11.539     4.610    0.96E-04    0.13E-03    0.19E-06
   2     10    11.539     8.522    0.16E-03    0.21E-03    0.28E-06
   0     11    11.539    51.609    0.45E-04    0.31E-04    0.11E-06
   0     11    11.539    27.747    0.39E-04    0.29E-04    0.10E-06
   1     10    11.539    20.408    0.70E-05    0.38E-04    0.18E-06
   1     10    11.539    13.425    0.66E-05    0.34E-04    0.17E-06
 Optimization of the real space projectors (new method)

[...]

   l    n(q)    QCUT    max X(q) W(low)/X(q) W(high)/X(q)  e(spline)
   1      8    11.527     2.974    0.44E-04    0.56E-04    0.12E-06
   1      8    11.527     4.279    0.12E-03    0.12E-03    0.26E-06
   0      9    11.527    16.381    0.46E-04    0.64E-04    0.78E-07
   0      9    11.527     5.611    0.26E-04    0.43E-04    0.55E-07
   2      8    11.527     4.652    0.22E-03    0.72E-04    0.47E-07
 Optimization of the real space projectors (new method)

 maximal supplied QI-value         = 24.76
 optimisation between [QCUT,QGAM] = [ 11.64, 23.27] = [ 37.91,151.63] Ry
 Optimized for a Real-space Cutoff    1.14 Angstroem

   l    n(q)    QCUT    max X(q) W(low)/X(q) W(high)/X(q)  e(spline)
   0      8    11.635    20.381    0.10E-03    0.33E-03    0.24E-06
   0      8    11.635    15.268    0.11E-03    0.35E-03    0.26E-06
   1      7    11.635     5.964    0.24E-03    0.31E-03    0.30E-06
   1      7    11.635     5.382    0.22E-03    0.25E-03    0.26E-06
  PAW_PBE Cu 22Jun2005                  :
  PAW_PBE Mg_pv 13Apr2007               :
  PAW_PBE O 08Apr2002                   :

 POSCAR: Cu Mg  O
  positions in direct lattice
  velocities in cartesian coordinates

 METAGGA = R2SCA    LMAXTAU =  6    LMIXTAU =  F

 ion  position               nearest neighbor table
   1  0.400  0.417  0.591- 153 1.98   4 2.26   3 2.42   2 2.42  55 2.62
   2  0.490  0.488  0.600- 154 2.19   4 2.37   1 2.42
   3  0.310  0.488  0.600- 134 2.19   4 2.37   1 2.42
   4  0.400  0.492  0.664-   1 2.26   2 2.37   3 2.37
   5  0.000  0.000  0.407- 107 2.11 108 2.11 123 2.11 188 2.11 105 2.11
   6  0.100  0.100  0.407- 107 2.11 108 2.11 112 2.11 127 2.11 106 2.11
   7  0.000  0.100  0.503- 105 2.11 106 2.11 109 2.11 186 2.11 107 2.11
   8  0.100  0.000  0.503- 105 2.11 106 2.11 122 2.11 125 2.11 108 2.11
   9  0.000  0.200  0.407- 111 2.11 107 2.11 112 2.11 192 2.11 109 2.11
  10  0.100  0.300  0.407- 112 2.11 111 2.11 116 2.11 131 2.11 110 2.11
  11  0.000  0.300  0.503- 109 2.11 110 2.11 113 2.11 190 2.11 111 2.11
  12  0.100  0.200  0.503- 110 2.11 109 2.11 106 2.11 129 2.11 112 2.11
  13  0.000  0.400  0.407- 111 2.11 115 2.11 116 2.11 196 2.11 113 2.11
  14  0.100  0.500  0.407- 115 2.11 116 2.11 120 2.11 135 2.11 114 2.11
  15  0.000  0.500  0.503- 113 2.11 114 2.11 117 2.11 194 2.11 115 2.11
  16  0.100  0.400  0.503- 110 2.11 113 2.11 114 2.11 133 2.11 116 2.11
  17  0.000  0.600  0.407- 115 2.11 119 2.11 120 2.11 200 2.11 117 2.11
  18  0.100  0.700  0.407- 124 2.11 120 2.11 119 2.11 139 2.11 118 2.11
  19  0.000  0.700  0.503- 121 2.11 118 2.11 117 2.11 198 2.11 119 2.11
  20  0.100  0.600  0.503- 114 2.11 117 2.11 118 2.11 137 2.11 120 2.11
  21  0.000  0.800  0.407- 119 2.11 123 2.11 124 2.11 204 2.11 121 2.11
  22  0.100  0.900  0.407- 108 2.11 123 2.11 124 2.11 143 2.11 122 2.11
  23  0.000  0.900  0.503- 105 2.11 121 2.11 122 2.11 202 2.11 123 2.11
  24  0.100  0.800  0.503- 118 2.11 121 2.11 122 2.11 141 2.11 124 2.11
  25  0.200  0.000  0.407- 128 2.11 127 2.11 108 2.11 143 2.11 125 2.11
  26  0.300  0.100  0.407- 127 2.11 128 2.11 132 2.11 147 2.11 126 2.11
  27  0.200  0.100  0.503- 126 2.11 125 2.11 106 2.11 129 2.11 127 2.11
  28  0.300  0.000  0.503- 125 2.11 126 2.11 142 2.11 145 2.11 128 2.11
  29  0.200  0.200  0.407- 131 2.11 132 2.11 112 2.11 127 2.11 129 2.11
  30  0.300  0.300  0.407- 131 2.11 132 2.11 136 2.11 151 2.11 130 2.11
  31  0.200  0.300  0.503- 129 2.11 130 2.11 110 2.11 133 2.11 131 2.11
  32  0.300  0.200  0.503- 129 2.11 130 2.11 126 2.11 149 2.11 132 2.11
  33  0.200  0.400  0.407- 136 2.11 131 2.11 135 2.11 116 2.11 133 2.11
  34  0.300  0.500  0.407- 135 2.11 136 2.11 140 2.11 155 2.11 134 2.11
  35  0.200  0.500  0.503- 134 2.11 133 2.11 114 2.11 137 2.11 135 2.11
  36  0.300  0.400  0.503- 133 2.11 130 2.11 134 2.11 153 2.11 136 2.11
  37  0.200  0.600  0.407- 140 2.11 135 2.11 139 2.11 120 2.11 137 2.11
  38  0.300  0.700  0.407- 139 2.11 144 2.11 140 2.11 159 2.11 138 2.11
  39  0.200  0.700  0.503- 138 2.11 141 2.11 118 2.11 137 2.11 139 2.11
  40  0.300  0.600  0.503- 137 2.11 134 2.11 138 2.11 157 2.11 140 2.11
  41  0.200  0.800  0.407- 139 2.11 144 2.11 143 2.11 124 2.11 141 2.11
  42  0.300  0.900  0.407- 143 2.11 128 2.11 144 2.11 163 2.11 142 2.11
  43  0.200  0.900  0.503- 142 2.11 125 2.11 141 2.11 122 2.11 143 2.11
  44  0.300  0.800  0.503- 138 2.11 141 2.11 142 2.11 161 2.11 144 2.11
  45  0.400  0.000  0.407- 128 2.11 147 2.11 148 2.11 163 2.11 145 2.11
  46  0.500  0.100  0.407- 147 2.11 148 2.11 152 2.11 167 2.11 146 2.11
  47  0.400  0.100  0.503- 126 2.11 145 2.11 146 2.11 149 2.11 147 2.11
  48  0.500  0.000  0.503- 145 2.11 146 2.11 162 2.11 165 2.11 148 2.11
  49  0.400  0.200  0.407- 151 2.11 147 2.11 132 2.11 152 2.11 149 2.11
  50  0.500  0.300  0.407- 152 2.11 151 2.11 156 2.11 171 2.11 150 2.11
  51  0.400  0.300  0.503- 149 2.11 130 2.11 150 2.11 153 2.11 151 2.11
  52  0.500  0.200  0.503- 150 2.11 149 2.11 146 2.11 169 2.11 152 2.11
  53  0.400  0.400  0.407- 136 2.11 151 2.11 155 2.11 156 2.11 153 2.11
  54  0.500  0.500  0.407- 155 2.11 156 2.11 160 2.11 175 2.11 154 2.11
  55  0.400  0.500  0.503- 134 2.11 153 2.11 154 2.11 157 2.11 155 2.11   1 2.62
  56  0.500  0.400  0.503- 150 2.11 153 2.11 154 2.11 173 2.11 156 2.11
  57  0.400  0.600  0.407- 140 2.11 155 2.11 159 2.11 160 2.11 157 2.11
  58  0.500  0.700  0.407- 164 2.11 160 2.11 159 2.11 179 2.11 158 2.11
  59  0.400  0.700  0.503- 161 2.11 157 2.11 158 2.11 138 2.11 159 2.11
  60  0.500  0.600  0.503- 154 2.11 157 2.11 158 2.11 177 2.11 160 2.11
[...]
 190  0.900  0.300  0.503-  92 2.11  91 2.11  11 2.11  96 2.11  90 2.11
 191  0.800  0.300  0.407-  70 2.11  89 2.11  90 2.11  93 2.11  91 2.11
 192  0.900  0.200  0.407-  90 2.11  86 2.11  89 2.11   9 2.11  92 2.11
 193  0.800  0.400  0.503-  76 2.11  91 2.11  95 2.11  96 2.11  93 2.11
 194  0.900  0.500  0.503-  15 2.11  95 2.11  96 2.11 100 2.11  94 2.11
 195  0.800  0.500  0.407-  74 2.11  93 2.11  94 2.11  97 2.11  95 2.11
 196  0.900  0.400  0.407-  13 2.11  90 2.11  93 2.11  94 2.11  96 2.11
 197  0.800  0.600  0.503-  80 2.11  95 2.11  99 2.11 100 2.11  97 2.11
 198  0.900  0.700  0.503- 104 2.11  99 2.11 100 2.11  19 2.11  98 2.11
 199  0.800  0.700  0.407-  78 2.11 101 2.11  98 2.11  97 2.11  99 2.11
 200  0.900  0.600  0.407-  17 2.11  94 2.11  97 2.11  98 2.11 100 2.11
 201  0.800  0.800  0.503-  84 2.11  99 2.11 103 2.11 104 2.11 101 2.11
 202  0.900  0.900  0.503-  23 2.11  88 2.11 103 2.11 104 2.11 102 2.11
 203  0.800  0.900  0.407-  82 2.11  85 2.11 101 2.11 102 2.11 103 2.11
 204  0.900  0.800  0.407-  98 2.11  21 2.11 101 2.11 102 2.11 104 2.11

  LATTYP: Found a simple tetragonal cell.
 ALAT       =    21.1388521970
 C/A-ratio  =     1.0461251639

  Lattice vectors:

 A1 = (  21.1388521970,   0.0000000000,   0.0000000000)
 A2 = (   0.0000000000,  21.1388521970,   0.0000000000)
 A3 = (   0.0000000000,   0.0000000000,  22.1138852197)

Analysis of symmetry for initial positions (statically):
 Subroutine PRICEL returns:
 Original cell was already a primitive cell.

 Routine SETGRP: Setting up the symmetry group for a
 simple tetragonal supercell.

 Subroutine GETGRP returns: Found  2 space group operations
 (whereof  1 operations were pure point group operations)
 out of a pool of 16 trial point group operations.

The static configuration has the point symmetry C_1 .
 The point group associated with its full space group is C_1h.

Analysis of symmetry for dynamics (positions and initial velocities):
 Subroutine PRICEL returns:
 Original cell was already a primitive cell.

[...]

The dynamic configuration has the point symmetry C_1 .
 The point group associated with its full space group is C_1h.

Analysis of constrained symmetry for selective dynamics:
 Subroutine PRICEL returns:
 Original cell was already a primitive cell.

 Routine SETGRP: Setting up the symmetry group for a
 simple tetragonal supercell.

 Subroutine GETGRP returns: Found  2 space group operations
 (whereof  1 operations were pure point group operations)
 out of a pool of 16 trial point group operations.

The constrained configuration has the point symmetry C_1 .
 The point group associated with its full space group is C_1h.

 Subroutine INISYM returns: Found  2 space group operations
 (whereof  1 operations are pure point group operations),
 and found     1 'primitive' translations

                                     Primitive cell

  volume of cell :    9881.6133

  direct lattice vectors                    reciprocal lattice vectors
    21.138852197  0.000000000  0.000000000     0.047306258  0.000000000  0.000000000
     0.000000000 21.138852197  0.000000000     0.000000000  0.047306258  0.000000000
     0.000000000  0.000000000 22.113885220     0.000000000  0.000000000  0.045220457

  length of vectors
    21.138852197 21.138852197 22.113885220     0.047306258  0.047306258  0.045220457

  position of ions in fractional coordinates (direct lattice)
     0.400000448  0.417421820  0.590666055
     0.489930887  0.487828399  0.600479320
     0.310074740  0.487828788  0.600479320
     0.400005179  0.491990244  0.664187608
     0.000000000  0.000000000  0.406984115
     0.100000000  0.100000000  0.406984115
     0.000000000  0.100000000  0.502574971
     0.100000000  0.000000000  0.502574971
[...]
     52     -44.4883      2.00000
     53     -44.4883      2.00000
     54     -44.4874      2.00000
     55     -44.4869      2.00000
     56     -44.4867      2.00000
     57     -44.4860      2.00000
     58     -44.4812      2.00000
     59     -44.4769      2.00000
     60     -44.4769      2.00000
[...]
    946       6.8562      0.00000
    947       6.9430      0.00000
    948       6.9931      0.00000
    949       7.0433      0.00000
    950       7.1095      0.00000
    951       7.1438      0.00000
    952       7.2276      0.00000
    953       7.2946      0.00000
    954       7.3594      0.00000
    955       7.4513      0.00000
    956       7.4795      0.00000
    957       7.5528      0.00000
    958       7.6091      0.00000
    959       7.6211      0.00000
    960       7.6961      0.00000

 soft charge-density along one line, spin component           1
         0         1         2         3         4         5         6         7         8         9
 total charge-density along one line

------------------------ aborting loop because EDIFF is reached ----------------------------------------

  FORCE on cell =-STRESS in cart. coord.  units (eV):
  Direction    XX          YY          ZZ          XY          YZ          ZX
  Alpha Z  1394.80054  1394.80054  1394.80054
  Ewald  487008.22575485627.98407************     0.00456   493.91026     0.00668
  Hartree516753.57023515553.81938************     0.00413   374.78862     0.00122
  E(xc)   -8555.30941 -8555.69545 -8555.87019     0.00004     0.08371     0.00008
  Local  ************************************    -0.00927  -862.66394    -0.00688
  n-local -8769.34522 -8772.82838 -8896.94625     0.00047    -0.24436     0.00048
  augment  4085.47935  4085.85220  4026.88407     0.00018    -3.00182    -0.00023
  Kinetic 23102.13658 23101.00780 23322.12087     0.00064    -3.06903     0.00009
  Fock        0.00000     0.00000     0.00000     0.00000     0.00000     0.00000
  Total    -219.47200  -219.05714   -18.10237     0.00000    -0.19656     0.00000
  in kB     -35.58458   -35.51732    -2.93507     0.00000    -0.03187     0.00000

 VOLUME and BASIS-vectors are now :
  energy-cutoff  :      520.00
  volume of cell :     9881.61
      direct lattice vectors                 reciprocal lattice vectors
    21.138852197  0.000000000  0.000000000     0.047306258  0.000000000  0.000000000
     0.000000000 21.138852197  0.000000000     0.000000000  0.047306258  0.000000000
     0.000000000  0.000000000 22.113885220     0.000000000  0.000000000  0.045220457

  length of vectors
    21.138852197 21.138852197 22.113885220     0.047306258  0.047306258  0.045220457

 FORCES acting on ions:
    Electron-Ion                     Ewald-Force                    Non-Local-Force
   0.203E-01 0.600E+03 -.197E+04   -.580E-02 -.593E+03 0.198E+04   0.000E+00 -.690E+01 -.215E+01
   -.602E+03 -.173E+03 -.204E+04   0.595E+03 0.168E+03 0.205E+04   0.671E+01 0.480E+01 -.708E+01
   0.602E+03 -.173E+03 -.204E+04   -.595E+03 0.168E+03 0.205E+04   -.671E+01 0.480E+01 -.708E+01
   -.161E-01 -.265E+03 -.243E+04   0.277E-02 0.258E+03 0.242E+04   0.000E+00 0.668E+01 0.108E+02
   0.683E+01 0.257E+01 0.936E+03   -.683E+01 -.257E+01 -.928E+03   0.163E-01 0.522E-02 -.756E+01
   0.150E+02 0.152E+02 0.942E+03   -.151E+02 -.153E+02 -.933E+03   0.487E-01 0.332E-01 -.757E+01
   0.108E+02 0.133E+02 -.919E+03   -.109E+02 -.133E+02 0.911E+03   0.212E-01 0.152E-02 0.753E+01
   0.140E+02 0.454E+01 -.918E+03   -.140E+02 -.455E+01 0.910E+03   0.232E-01 0.102E-01 0.753E+01
   0.128E+02 0.160E+02 0.942E+03   -.129E+02 -.160E+02 -.934E+03   0.442E-01 0.135E-01 -.757E+01
   0.361E+02 0.255E+02 0.960E+03   -.363E+02 -.255E+02 -.951E+03   0.171E+00 0.434E-01 -.762E+01
   0.262E+02 0.207E+02 -.912E+03   -.262E+02 -.207E+02 0.904E+03   0.300E-01 -.701E-02 0.751E+01
   0.323E+02 0.330E+02 -.910E+03   -.324E+02 -.330E+02 0.902E+03   0.741E-01 0.179E-02 0.751E+01
   0.238E+02 0.841E+01 0.951E+03   -.239E+02 -.842E+01 -.943E+03   0.851E-01 0.638E-02 -.760E+01
   0.515E+02 -.622E+01 0.974E+03   -.519E+02 0.623E+01 -.965E+03   0.310E+00 -.576E-02 -.768E+01
   0.376E+02 -.453E+01 -.907E+03   -.376E+02 0.452E+01 0.899E+03   0.299E-01 0.437E-02 0.750E+01
   0.826E+02 0.251E+02 -.887E+03   -.827E+02 -.251E+02 0.879E+03   0.997E-01 -.117E-01 0.743E+01
   0.210E+02 -.134E+02 0.949E+03   -.211E+02 0.134E+02 -.941E+03   0.799E-01 -.108E-01 -.759E+01
   0.278E+02 -.260E+02 0.953E+03   -.279E+02 0.260E+02 -.945E+03   0.886E-01 -.608E-01 -.758E+01
   0.207E+02 -.217E+02 -.914E+03   -.207E+02 0.217E+02 0.906E+03   0.334E-01 0.224E-02 0.752E+01
   0.683E+02 -.363E+02 -.892E+03   -.685E+02 0.363E+02 0.885E+03   0.179E+00 0.209E-01 0.746E+01
   0.100E+02 -.135E+02 0.940E+03   -.100E+02 0.135E+02 -.932E+03   0.233E-01 -.143E-01 -.757E+01
   0.122E+02 -.855E+01 0.939E+03   -.123E+02 0.856E+01 -.931E+03   0.241E-01 -.103E-01 -.757E+01
   0.888E+01 -.777E+01 -.919E+03   -.888E+01 0.777E+01 0.911E+03   0.111E-01 -.101E-02 0.753E+01
   0.232E+02 -.261E+02 -.914E+03   -.233E+02 0.262E+02 0.906E+03   0.233E-01 -.211E-01 0.752E+01
   0.120E+02 0.515E+01 0.942E+03   -.121E+02 -.519E+01 -.933E+03   0.301E-01 0.300E-01 -.757E+01
   0.110E+02 0.289E+02 0.952E+03   -.111E+02 -.291E+02 -.943E+03   0.410E-01 0.140E+00 -.758E+01
   0.217E+02 0.305E+02 -.912E+03   -.217E+02 -.305E+02 0.904E+03   0.475E-01 0.521E-01 0.752E+01
   0.968E+01 0.905E+01 -.914E+03   -.969E+01 -.911E+01 0.906E+03   0.167E-01 0.415E-01 0.752E+01
   0.276E+02 0.372E+02 0.960E+03   -.277E+02 -.374E+02 -.952E+03   0.132E+00 0.132E+00 -.760E+01
   0.374E+02 0.673E+02 0.102E+04   -.378E+02 -.679E+02 -.101E+04   0.322E+00 0.476E+00 -.763E+01
   0.834E+02 0.800E+02 -.872E+03   -.838E+02 -.800E+02 0.864E+03   0.296E+00 0.756E-02 0.737E+01
   0.325E+02 0.871E+02 -.886E+03   -.326E+02 -.874E+02 0.878E+03   0.863E-01 0.252E+00 0.748E+01
   0.681E+02 0.278E+02 0.101E+04   -.688E+02 -.280E+02 -.100E+04   0.585E+00 0.130E+00 -.780E+01
   0.584E+02 -.240E+02 0.109E+04   -.591E+02 0.244E+02 -.108E+04   0.534E+00 -.280E+00 -.633E+01
   0.182E+03 -.295E+02 -.788E+03   -.184E+03 0.294E+02 0.781E+03   0.139E+01 0.105E+00 0.704E+01
   0.184E+03 0.160E+03 -.640E+03   -.187E+03 -.162E+03 0.634E+03   0.218E+01 0.991E+00 0.539E+01
   0.542E+02 -.416E+02 0.997E+03   -.546E+02 0.418E+02 -.989E+03   0.282E+00 -.208E+00 -.759E+01
   0.231E+02 -.585E+02 0.985E+03   -.231E+02 0.589E+02 -.977E+03   0.579E-01 -.328E+00 -.767E+01
   0.527E+02 -.687E+02 -.889E+03   -.527E+02 0.689E+02 0.881E+03   0.359E-01 -.152E+00 0.747E+01
   0.902E+02 -.176E+03 -.763E+03   -.903E+02 0.177E+03 0.755E+03   0.424E-01 -.135E+01 0.710E+01
   0.193E+02 -.283E+02 0.951E+03   -.193E+02 0.284E+02 -.943E+03   0.389E-01 -.814E-01 -.759E+01
   0.832E+01 -.148E+02 0.946E+03   -.832E+01 0.149E+02 -.938E+03   0.156E-01 -.203E-01 -.757E+01
   0.162E+02 -.161E+02 -.915E+03   -.162E+02 0.161E+02 0.907E+03   0.188E-01 -.242E-02 0.753E+01
   0.182E+02 -.562E+02 -.901E+03   -.182E+02 0.563E+02 0.893E+03   0.141E-01 -.514E-01 0.750E+01
   0.148E-01 0.732E+01 0.945E+03   -.217E-03 -.740E+01 -.937E+03   0.000E+00 0.592E-01 -.757E+01
   -.110E+02 0.289E+02 0.952E+03   0.111E+02 -.291E+02 -.943E+03   -.410E-01 0.140E+00 -.758E+01
   0.150E-01 0.470E+02 -.906E+03   -.391E-03 -.472E+02 0.898E+03   0.000E+00 0.145E+00 0.751E+01
   -.965E+01 0.905E+01 -.914E+03   0.969E+01 -.911E+01 0.906E+03   -.167E-01 0.415E-01 0.752E+01
   0.151E-01 0.590E+02 0.979E+03   -.499E-03 -.596E+02 -.970E+03   0.000E+00 0.454E+00 -.764E+01
   -.374E+02 0.673E+02 0.102E+04   0.378E+02 -.679E+02 -.101E+04   -.322E+00 0.476E+00 -.763E+01
   0.169E-01 0.207E+03 -.777E+03   -.193E-02 -.210E+03 0.769E+03   0.000E+00 0.224E+01 0.751E+01
   -.324E+02 0.871E+02 -.886E+03   0.326E+02 -.874E+02 0.878E+03   -.863E-01 0.252E+00 0.748E+01
   0.160E-01 0.519E+02 0.111E+04   -.142E-02 -.523E+02 -.110E+04   0.000E+00 0.291E+00 -.517E+01
   -.584E+02 -.240E+02 0.109E+04   0.591E+02 0.244E+02 -.108E+04   -.534E+00 -.280E+00 -.633E+01
   0.173E-01 -.151E+03 -.465E+03   -.165E-02 0.154E+03 0.460E+03   0.000E+00 -.214E+01 0.472E+01
   -.184E+03 0.160E+03 -.640E+03   0.187E+03 -.162E+03 0.634E+03   -.218E+01 0.991E+00 0.539E+01
   0.158E-01 -.757E+02 0.105E+04   -.116E-02 0.766E+02 -.105E+04   0.000E+00 -.668E+00 -.778E+01
   -.230E+02 -.585E+02 0.985E+03   0.231E+02 0.589E+02 -.977E+03   -.579E-01 -.328E+00 -.767E+01
   0.158E-01 -.124E+03 -.859E+03   -.126E-02 0.124E+03 0.851E+03   0.000E+00 -.192E+00 0.743E+01
   -.902E+02 -.176E+03 -.763E+03   0.902E+02 0.177E+03 0.755E+03   -.424E-01 -.135E+01 0.710E+01
[...]
   -.139E+02 0.118E+02 0.712E+03   0.140E+02 -.118E+02 -.716E+03   -.546E-01 0.161E-01 0.338E+01
   0.707E-01 0.101E+02 0.706E+03   0.250E-03 -.101E+02 -.710E+03   0.000E+00 0.960E-02 0.340E+01
   -.264E+02 0.872E+01 -.682E+03   0.264E+02 -.872E+01 0.686E+03   -.330E-01 -.186E-02 -.361E+01
   0.703E-01 -.249E+01 -.686E+03   0.726E-03 0.248E+01 0.690E+03   0.000E+00 0.364E-02 -.358E+01
   -.187E+02 -.257E+01 0.716E+03   0.188E+02 0.257E+01 -.720E+03   -.673E-01 -.119E-02 0.337E+01
   0.705E-01 0.498E+01 0.711E+03   0.461E-03 -.499E+01 -.715E+03   0.000E+00 0.460E-02 0.338E+01
   -.230E+02 -.135E+02 -.684E+03   0.231E+02 0.135E+02 0.688E+03   -.374E-01 0.480E-02 -.359E+01
   0.706E-01 -.129E+02 -.689E+03   0.440E-03 0.129E+02 0.693E+03   0.000E+00 -.192E-03 -.355E+01
   -.112E+02 -.125E+02 0.710E+03   0.113E+02 0.126E+02 -.714E+03   -.450E-01 -.252E-01 0.339E+01
   0.706E-01 -.803E+01 0.710E+03   0.431E-03 0.804E+01 -.714E+03   0.000E+00 -.765E-02 0.339E+01
   -.963E+01 -.128E+02 -.690E+03   0.971E+01 0.128E+02 0.694E+03   -.216E-01 -.100E-01 -.354E+01
   0.708E-01 -.496E+01 -.692E+03   0.195E-03 0.496E+01 0.696E+03   0.000E+00 -.111E-02 -.353E+01
   -.537E+01 -.469E+01 0.704E+03   0.545E+01 0.470E+01 -.708E+03   -.176E-01 -.506E-02 0.341E+01
   0.708E-01 -.866E+01 0.705E+03   0.219E-03 0.867E+01 -.709E+03   0.000E+00 -.107E-01 0.340E+01
   0.862E+01 -.964E+01 0.137E+02   0.261E-11 0.227E-12 0.227E-10   -.266E-14 0.965E+01 -.109E+02

 POSITION                                       TOTAL-FORCE (eV/Angst)
      8.45555      8.82382     13.06192        -0.000000      0.238553      0.012569
     10.35658     10.31213     13.27893        -0.193853     -0.056616     -0.081966
      6.55462     10.31214     13.27893         0.193853     -0.056616     -0.081966
      8.45565     10.40011     14.68777        -0.000000     -0.116520     -0.288052
      0.00000      0.00000      9.00000        -0.004611     -0.001598      0.530063
      2.11389      2.11389      9.00000        -0.013871     -0.009621      0.532264
      0.00000      2.11389     11.11389        -0.005799     -0.000448     -0.472708
      2.11389      0.00000     11.11389        -0.006570     -0.002899     -0.473276
      0.00000      4.22777      9.00000        -0.012174     -0.003900      0.533814
      2.11389      6.34166      9.00000        -0.046788     -0.012463      0.545594
      0.00000      6.34166     11.11389        -0.007145      0.002455     -0.461804
      2.11389      4.22777     11.11389        -0.019680     -0.000025     -0.460194
      0.00000      8.45554      9.00000        -0.023556     -0.001845      0.540026
      2.11389     10.56943      9.00000        -0.081872      0.001250      0.557291
      0.00000     10.56943     11.11389        -0.005832     -0.001391     -0.454505
      2.11389      8.45554     11.11389        -0.020142      0.006338     -0.412194
      0.00000     12.68331      9.00000        -0.021619      0.003104      0.538364
      2.11389     14.79720      9.00000        -0.025590      0.018042      0.535678
      0.00000     14.79720     11.11389        -0.008621     -0.000784     -0.466757
      2.11389     12.68331     11.11389        -0.044115     -0.008268     -0.431168
      0.00000     16.91108      9.00000        -0.006631      0.004091      0.531321
      2.11389     19.02497      9.00000        -0.006937      0.002701      0.531321
      0.00000     19.02497     11.11389        -0.003134      0.000070     -0.474471
      2.11389     16.91108     11.11389        -0.006531      0.005130     -0.467965
      4.22777      0.00000      9.00000        -0.008707     -0.008478      0.531851
      6.34166      2.11389      9.00000        -0.012331     -0.038771      0.535139
      4.22777      2.11389     11.11389        -0.013704     -0.013756     -0.465798
      6.34166      0.00000     11.11389        -0.004841     -0.011331     -0.470255
      4.22777      4.22777      9.00000        -0.038513     -0.038175      0.537814
      6.34166      6.34166      9.00000        -0.105584     -0.142367      0.521751
      4.22777      6.34166     11.11389        -0.067296      0.012747     -0.374601
      6.34166      4.22777     11.11389        -0.026612     -0.066408     -0.437021
      4.22777      8.45554      9.00000        -0.163052     -0.043922      0.566886
      6.34166     10.56943      9.00000        -0.154204      0.092193      0.214906
      4.22777     10.56943     11.11389        -0.469578     -0.038155     -0.339077
      6.34166      8.45554     11.11389        -0.782799     -0.438382     -0.148768
      4.22777     12.68331      9.00000        -0.087448      0.067334      0.523064
      6.34166     14.79720      9.00000        -0.015991      0.086600      0.554020
      4.22777     14.79720     11.11389        -0.008222      0.037517     -0.433680
      6.34166     12.68331     11.11389         0.005871      0.446307     -0.327812
      4.22777     16.91108      9.00000        -0.011197      0.022132      0.536688
      6.34166     19.02497      9.00000        -0.004425      0.005357      0.533478
      4.22777     19.02497     11.11389        -0.005389      0.000145     -0.470715
      6.34166     16.91108     11.11389        -0.003806      0.011339     -0.457388
      8.45554      0.00000      9.00000        -0.000000     -0.016117      0.532949
     10.56943      2.11389      9.00000         0.012331     -0.038771      0.535139
      8.45554      2.11389     11.11389        -0.000000     -0.037429     -0.461669
     10.56943      0.00000     11.11389         0.004841     -0.011331     -0.470255
      8.45554      4.22777      9.00000        -0.000000     -0.118512      0.544051
     10.56943      6.34166      9.00000         0.105584     -0.142367      0.521751
      8.45554      6.34166     11.11389        -0.000000     -0.737321     -0.507902
     10.56943      4.22777     11.11389         0.026612     -0.066408     -0.437021
      8.45554      8.45554      9.00000        -0.000000     -0.101726     -0.011130
     10.56943     10.56943      9.00000         0.154204      0.092193      0.214906
      8.45554     10.56943     11.11389        -0.000000      0.985799     -0.240946
     10.56943      8.45554     11.11389         0.782799     -0.438382     -0.148768
      8.45554     12.68331      9.00000        -0.000000      0.197378      0.548753
     10.56943     14.79720      9.00000         0.015991      0.086600      0.554020
      8.45554     14.79720     11.11389        -0.000000      0.041002     -0.404921
     10.56943     12.68331     11.11389        -0.005871      0.446307     -0.327812
[...]
     19.02497      6.34166     11.11389        -0.000000     -0.001331      0.324301
     16.91108      6.34166      9.00000        -0.015238      0.004410     -0.395808
     19.02497      4.22777      9.00000        -0.000000      0.002563     -0.391096
     16.91108      8.45554     11.11389        -0.009518     -0.000482      0.311579
     19.02497     10.56943     11.11389        -0.000000      0.001039      0.320156
     16.91108     10.56943      9.00000        -0.019070     -0.000401     -0.399690
     19.02497      8.45554      9.00000        -0.000000      0.001170     -0.395251
     16.91108     12.68331     11.11389        -0.010716      0.001223      0.316519
     19.02497     14.79720     11.11389        -0.000000     -0.000053      0.327486
     16.91108     14.79720      9.00000        -0.012529     -0.006978     -0.392556
     19.02497     12.68331      9.00000        -0.000000     -0.002058     -0.393805
     16.91108     16.91108     11.11389        -0.005990     -0.002793      0.329853
     19.02497     19.02497     11.11389        -0.000000     -0.000362      0.333111
     16.91108     19.02497      9.00000        -0.004865     -0.001436     -0.388991
     19.02497     16.91108      9.00000        -0.000000     -0.002984     -0.389669
    total drift:                                8.621380      0.008721      2.826484

  FREE ENERGIE OF THE ION-ELECTRON SYSTEM (eV)
  free  energy   TOTEN  =     -1586.64504135 eV

  energy  without entropy=    -1586.64504135  energy(sigma->0) =    -1586.64504135