 vasp.6.3.0 20Jan22 (build Apr  1 2022 16:44:48) complex
 executed on        HPECrayEX_GCC date 2023.01.09  18:53:38

 INCAR:
   SYSTEM = MgO-rocksalt
   ISMEAR = 0
   SIGMA = 0.05
   EDIFF = 1E-6
   ALGO = ALL
   ISTART = 0
   IBRION = -1
   NSW = 0
   ISYM = 2
   DIPOL = 0.5 0.5 0.5
   IDIPOL = 3
   LDIPOL = .TRUE.
   GGA = RE
   LUSE_VDW = .TRUE.
   AGGAC = 0.0
   ENCUT = 520
   PREC = Accurate
   LASPH = .TRUE.
   LREAL = Auto
   ISPIN = 1
   NELM = 200
   NELMIN = 8
   NCORE = 4
   KPAR = 2
   LWAVE = .FALSE.
   LCHARG = .FALSE.

 POTCAR:    PAW_PBE Ag 02Apr2005
 POTCAR:    PAW_PBE Mg_pv 13Apr2007
 POTCAR:    PAW_PBE O 08Apr2002
|               ----> ADVICE to this user running VASP <----                  |
|     You have switched on vdW-DFT.                                           |
|     This routine was written and supplied by Jiri Klimes. We recommend      |
|     that you carefully read and cite the following publications:            |
|       J. Klimes, D.R. Bowler, A. Michelides                                 |
|          J. Phys.: Cond Matt. 22 022201 (2010)                              |
|       J. Klimes, D.R. Bowler, A. Michelides                                 |
|          Phys. Rev. B. 83, 195131 (2011)                                    |
|     and references therein.                                                 |

   TITEL  = PAW_PBE Ag 02Apr2005
   POMASS =  107.868; ZVAL   =   11.000    mass and valenz
   ENMAX  =  249.844; ENMIN  =  187.383 eV

   TITEL  = PAW_PBE Mg_pv 13Apr2007
   POMASS =   24.305; ZVAL   =    8.000    mass and valenz
   ENMAX  =  403.929; ENMIN  =  302.947 eV

   TITEL  = PAW_PBE O 08Apr2002
   POMASS =   16.000; ZVAL   =    6.000    mass and valenz
   ENMAX  =  400.000; ENMIN  =  300.000 eV

 Optimization of the real space projectors (new method)

 maximal supplied QI-value         = 15.12
 optimisation between [QCUT,QGAM] = [ 11.64, 23.28] = [ 37.95,151.78] Ry
 Optimized for a Real-space Cutoff    1.45 Angstroem

   l    n(q)    QCUT    max X(q) W(low)/X(q) W(high)/X(q)  e(spline)
   2      9    11.641    53.897    0.22E-03    0.42E-04    0.28E-06
   2      9    11.641    52.416    0.23E-03    0.44E-04    0.29E-06
   0     10    11.641   122.045    0.51E-04    0.25E-04    0.16E-06
   0     10    11.641    73.629    0.49E-04    0.24E-04    0.16E-06
   1     10    11.641    15.255    0.99E-04    0.55E-04    0.11E-06
   1     10    11.641     9.562    0.81E-04    0.47E-04    0.95E-07
 Optimization of the real space projectors (new method)

[...]

   l    n(q)    QCUT    max X(q) W(low)/X(q) W(high)/X(q)  e(spline)
   1      8    11.527     2.974    0.44E-04    0.56E-04    0.12E-06
   1      8    11.527     4.279    0.12E-03    0.12E-03    0.26E-06
   0      9    11.527    16.381    0.46E-04    0.64E-04    0.78E-07
   0      9    11.527     5.611    0.26E-04    0.43E-04    0.55E-07
   2      8    11.527     4.652    0.22E-03    0.72E-04    0.47E-07
 Optimization of the real space projectors (new method)

 maximal supplied QI-value         = 24.76
 optimisation between [QCUT,QGAM] = [ 11.64, 23.27] = [ 37.91,151.63] Ry
 Optimized for a Real-space Cutoff    1.14 Angstroem

   l    n(q)    QCUT    max X(q) W(low)/X(q) W(high)/X(q)  e(spline)
   0      8    11.635    20.381    0.10E-03    0.33E-03    0.24E-06
   0      8    11.635    15.268    0.11E-03    0.35E-03    0.26E-06
   1      7    11.635     5.964    0.24E-03    0.31E-03    0.30E-06
   1      7    11.635     5.382    0.22E-03    0.25E-03    0.26E-06
|               ----> ADVICE to this user running VASP <----                  |
|     You enforced a specific xc type in the INCAR file but a different       |
|     type was found in the POTCAR file.                                      |
|     I HOPE YOU KNOW WHAT YOU ARE DOING!                                     |

  PAW_PBE Ag 02Apr2005                  :
  PAW_PBE Mg_pv 13Apr2007               :
  PAW_PBE O 08Apr2002                   :

 POSCAR: Ag Mg  O
  positions in direct lattice
  velocities in cartesian coordinates
 exchange correlation table for  LEXCH =       40
   RHO(1)=    0.500       N(1)  =     2000
   RHO(2)=  100.500       N(2)  =     4000

 ion  position               nearest neighbor table
   1  0.404  0.596  0.628-   2 2.63   4 2.74 157 2.77
   2  0.317  0.683  0.613- 138 2.50   1 2.63  59 3.04  40 3.04
   3  0.583  0.417  0.613- 173 2.50   4 2.63  75 3.04  56 3.04
   4  0.496  0.504  0.628-   3 2.63   1 2.74 154 2.77
   5  0.000  0.000  0.407- 107 2.11 108 2.11 123 2.11 188 2.11 105 2.11
   6  0.100  0.100  0.407- 107 2.11 108 2.11 112 2.11 127 2.11 106 2.11
   7  0.000  0.100  0.503- 105 2.11 106 2.11 109 2.11 186 2.11 107 2.11
   8  0.100  0.000  0.503- 105 2.11 106 2.11 122 2.11 125 2.11 108 2.11
   9  0.000  0.200  0.407- 111 2.11 107 2.11 112 2.11 192 2.11 109 2.11
  10  0.100  0.300  0.407- 112 2.11 111 2.11 116 2.11 131 2.11 110 2.11
  11  0.000  0.300  0.503- 109 2.11 110 2.11 113 2.11 190 2.11 111 2.11
  12  0.100  0.200  0.503- 110 2.11 109 2.11 106 2.11 129 2.11 112 2.11
  13  0.000  0.400  0.407- 111 2.11 115 2.11 116 2.11 196 2.11 113 2.11
  14  0.100  0.500  0.407- 115 2.11 116 2.11 120 2.11 135 2.11 114 2.11
  15  0.000  0.500  0.503- 113 2.11 114 2.11 117 2.11 194 2.11 115 2.11
  16  0.100  0.400  0.503- 110 2.11 113 2.11 114 2.11 133 2.11 116 2.11
  17  0.000  0.600  0.407- 115 2.11 119 2.11 120 2.11 200 2.11 117 2.11
  18  0.100  0.700  0.407- 124 2.11 120 2.11 119 2.11 139 2.11 118 2.11
  19  0.000  0.700  0.503- 121 2.11 118 2.11 117 2.11 198 2.11 119 2.11
  20  0.100  0.600  0.503- 114 2.11 117 2.11 118 2.11 137 2.11 120 2.11
  21  0.000  0.800  0.407- 119 2.11 123 2.11 124 2.11 204 2.11 121 2.11
  22  0.100  0.900  0.407- 108 2.11 123 2.11 124 2.11 143 2.11 122 2.11
  23  0.000  0.900  0.503- 105 2.11 121 2.11 122 2.11 202 2.11 123 2.11
  24  0.100  0.800  0.503- 118 2.11 121 2.11 122 2.11 141 2.11 124 2.11
  25  0.200  0.000  0.407- 128 2.11 127 2.11 108 2.11 143 2.11 125 2.11
  26  0.300  0.100  0.407- 127 2.11 128 2.11 132 2.11 147 2.11 126 2.11
  27  0.200  0.100  0.503- 126 2.11 125 2.11 106 2.11 129 2.11 127 2.11
  28  0.300  0.000  0.503- 125 2.11 126 2.11 142 2.11 145 2.11 128 2.11
  29  0.200  0.200  0.407- 131 2.11 132 2.11 112 2.11 127 2.11 129 2.11
  30  0.300  0.300  0.407- 131 2.11 132 2.11 136 2.11 151 2.11 130 2.11
  31  0.200  0.300  0.503- 129 2.11 130 2.11 110 2.11 133 2.11 131 2.11
  32  0.300  0.200  0.503- 129 2.11 130 2.11 126 2.11 149 2.11 132 2.11
  33  0.200  0.400  0.407- 136 2.11 131 2.11 135 2.11 116 2.11 133 2.11
  34  0.300  0.500  0.407- 135 2.11 136 2.11 140 2.11 155 2.11 134 2.11
  35  0.200  0.500  0.503- 134 2.11 133 2.11 114 2.11 137 2.11 135 2.11
  36  0.300  0.400  0.503- 133 2.11 130 2.11 134 2.11 153 2.11 136 2.11
  37  0.200  0.600  0.407- 140 2.11 135 2.11 139 2.11 120 2.11 137 2.11
  38  0.300  0.700  0.407- 139 2.11 144 2.11 140 2.11 159 2.11 138 2.11
  39  0.200  0.700  0.503- 138 2.11 141 2.11 118 2.11 137 2.11 139 2.11
  40  0.300  0.600  0.503- 137 2.11 134 2.11 138 2.11 157 2.11 140 2.11   2 3.04
  41  0.200  0.800  0.407- 139 2.11 144 2.11 143 2.11 124 2.11 141 2.11
  42  0.300  0.900  0.407- 143 2.11 128 2.11 144 2.11 163 2.11 142 2.11
  43  0.200  0.900  0.503- 142 2.11 125 2.11 141 2.11 122 2.11 143 2.11
  44  0.300  0.800  0.503- 138 2.11 141 2.11 142 2.11 161 2.11 144 2.11
  45  0.400  0.000  0.407- 128 2.11 147 2.11 148 2.11 163 2.11 145 2.11
  46  0.500  0.100  0.407- 147 2.11 148 2.11 152 2.11 167 2.11 146 2.11
  47  0.400  0.100  0.503- 126 2.11 145 2.11 146 2.11 149 2.11 147 2.11
  48  0.500  0.000  0.503- 145 2.11 146 2.11 162 2.11 165 2.11 148 2.11
  49  0.400  0.200  0.407- 151 2.11 147 2.11 132 2.11 152 2.11 149 2.11
  50  0.500  0.300  0.407- 152 2.11 151 2.11 156 2.11 171 2.11 150 2.11
  51  0.400  0.300  0.503- 149 2.11 130 2.11 150 2.11 153 2.11 151 2.11
  52  0.500  0.200  0.503- 150 2.11 149 2.11 146 2.11 169 2.11 152 2.11
  53  0.400  0.400  0.407- 136 2.11 151 2.11 155 2.11 156 2.11 153 2.11
  54  0.500  0.500  0.407- 155 2.11 156 2.11 160 2.11 175 2.11 154 2.11
  55  0.400  0.500  0.503- 134 2.11 153 2.11 154 2.11 157 2.11 155 2.11
  56  0.500  0.400  0.503- 150 2.11 153 2.11 154 2.11 173 2.11 156 2.11   3 3.04
  57  0.400  0.600  0.407- 140 2.11 155 2.11 159 2.11 160 2.11 157 2.11
  58  0.500  0.700  0.407- 164 2.11 160 2.11 159 2.11 179 2.11 158 2.11
  59  0.400  0.700  0.503- 161 2.11 157 2.11 158 2.11 138 2.11 159 2.11   2 3.04
  60  0.500  0.600  0.503- 154 2.11 157 2.11 158 2.11 177 2.11 160 2.11
[...]
 190  0.900  0.300  0.503-  92 2.11  91 2.11  11 2.11  96 2.11  90 2.11
 191  0.800  0.300  0.407-  70 2.11  89 2.11  90 2.11  93 2.11  91 2.11
 192  0.900  0.200  0.407-  90 2.11  86 2.11  89 2.11   9 2.11  92 2.11
 193  0.800  0.400  0.503-  76 2.11  91 2.11  95 2.11  96 2.11  93 2.11
 194  0.900  0.500  0.503-  15 2.11  95 2.11  96 2.11 100 2.11  94 2.11
 195  0.800  0.500  0.407-  74 2.11  93 2.11  94 2.11  97 2.11  95 2.11
 196  0.900  0.400  0.407-  13 2.11  90 2.11  93 2.11  94 2.11  96 2.11
 197  0.800  0.600  0.503-  80 2.11  95 2.11  99 2.11 100 2.11  97 2.11
 198  0.900  0.700  0.503- 104 2.11  99 2.11 100 2.11  19 2.11  98 2.11
 199  0.800  0.700  0.407-  78 2.11 101 2.11  98 2.11  97 2.11  99 2.11
 200  0.900  0.600  0.407-  17 2.11  94 2.11  97 2.11  98 2.11 100 2.11
 201  0.800  0.800  0.503-  84 2.11  99 2.11 103 2.11 104 2.11 101 2.11
 202  0.900  0.900  0.503-  23 2.11  88 2.11 103 2.11 104 2.11 102 2.11
 203  0.800  0.900  0.407-  82 2.11  85 2.11 101 2.11 102 2.11 103 2.11
 204  0.900  0.800  0.407-  98 2.11  21 2.11 101 2.11 102 2.11 104 2.11

  LATTYP: Found a simple tetragonal cell.
 ALAT       =    21.1388521970
 C/A-ratio  =     1.0461251639

  Lattice vectors:

 A1 = (  21.1388521970,   0.0000000000,   0.0000000000)
 A2 = (   0.0000000000,  21.1388521970,   0.0000000000)
 A3 = (   0.0000000000,   0.0000000000,  22.1138852197)

Analysis of symmetry for initial positions (statically):
 Subroutine PRICEL returns:
 Original cell was already a primitive cell.

 Routine SETGRP: Setting up the symmetry group for a
 simple tetragonal supercell.

 Subroutine GETGRP returns: Found  2 space group operations
 (whereof  1 operations were pure point group operations)
 out of a pool of 16 trial point group operations.

The static configuration has the point symmetry C_1 .
 The point group associated with its full space group is C_1h.

Analysis of symmetry for dynamics (positions and initial velocities):
 Subroutine PRICEL returns:
 Original cell was already a primitive cell.

[...]

The dynamic configuration has the point symmetry C_1 .
 The point group associated with its full space group is C_1h.

Analysis of constrained symmetry for selective dynamics:
 Subroutine PRICEL returns:
 Original cell was already a primitive cell.

 Routine SETGRP: Setting up the symmetry group for a
 simple tetragonal supercell.

 Subroutine GETGRP returns: Found  2 space group operations
 (whereof  1 operations were pure point group operations)
 out of a pool of 16 trial point group operations.

The constrained configuration has the point symmetry C_1 .
 The point group associated with its full space group is C_1h.

[...]
     52     -43.5784      2.00000
     53     -43.5775      2.00000
     54     -43.5768      2.00000
     55     -43.5768      2.00000
     56     -43.5760      2.00000
     57     -43.5759      2.00000
     58     -43.5758      2.00000
     59     -43.5757      2.00000
     60     -43.5757      2.00000
[...]
    946       5.5162      0.00000
    947       5.5361      0.00000
    948       5.5429      0.00000
    949       5.5602      0.00000
    950       5.5685      0.00000
    951       5.5903      0.00000
    952       5.6022      0.00000
    953       5.6218      0.00000
    954       5.6624      0.00000
    955       5.7269      0.00000
    956       5.8401      0.00000
    957       5.9124      0.00000
    958       6.0857      0.00000
    959       6.0907      0.00000
    960       6.2483      0.00000

 soft charge-density along one line, spin component           1
         0         1         2         3         4         5         6         7         8         9
 total charge-density along one line

------------------------ aborting loop because EDIFF is reached ----------------------------------------

  FORCE on cell =-STRESS in cart. coord.  units (eV):
  Direction    XX          YY          ZZ          XY          YZ          ZX
  Alpha Z  1401.13727  1401.13727  1401.13727
  Ewald  484692.10145484692.10210************ -1322.16574    -0.00388    -0.00457
  Hartree513837.24022513837.24055************ -1066.74264     0.00131     0.00136
  E(xc)   -8093.43216 -8093.43217 -8110.50301    -0.85427     0.00012     0.00012
  Local  ************************************  2380.36801     0.00071     0.00118
  n-local -8808.53694 -8808.53694 -8921.82884     1.43009    -0.00025    -0.00035
  augment  3746.35748  3746.35748  3695.06592     1.70922     0.00115     0.00118
  Kinetic 23306.32404 23306.32411 23523.83143     5.12285     0.00083     0.00081
  Fock        0.00000     0.00000     0.00000     0.00000     0.00000     0.00000
  Total    -117.38778  -117.38778    40.36562    -1.13247    -0.00014    -0.00014
  in kB     -19.03293   -19.03293     6.54477    -0.18362    -0.00002    -0.00002

 VOLUME and BASIS-vectors are now :
  energy-cutoff  :      520.00
  volume of cell :     9881.61
      direct lattice vectors                 reciprocal lattice vectors
    21.138852197  0.000000000  0.000000000     0.047306258  0.000000000  0.000000000
     0.000000000 21.138852197  0.000000000     0.000000000  0.047306258  0.000000000
     0.000000000  0.000000000 22.113885220     0.000000000  0.000000000  0.045220457

  length of vectors
    21.138852197 21.138852197 22.113885220     0.047306258  0.047306258  0.045220457

 FORCES acting on ions:
    Electron-Ion                     Ewald-Force                    Non-Local-Force
   0.256E+02 -.256E+02 -.207E+04   -.273E+02 0.273E+02 0.207E+04   0.174E+01 -.174E+01 -.192E+00
   0.234E+03 -.234E+03 -.209E+04   -.231E+03 0.231E+03 0.209E+04   -.362E+01 0.362E+01 -.553E+00
   -.234E+03 0.234E+03 -.209E+04   0.231E+03 -.231E+03 0.209E+04   0.362E+01 -.362E+01 -.553E+00
   -.256E+02 0.256E+02 -.207E+04   0.273E+02 -.273E+02 0.207E+04   -.174E+01 0.174E+01 -.192E+00
   0.489E+01 -.489E+01 0.937E+03   -.492E+01 0.492E+01 -.930E+03   0.199E-01 -.199E-01 -.682E+01
   0.905E+01 0.160E+01 0.938E+03   -.905E+01 -.156E+01 -.931E+03   -.993E-03 -.349E-01 -.683E+01
   0.313E+01 0.313E+01 -.918E+03   -.312E+01 -.312E+01 0.911E+03   -.129E-01 -.129E-01 0.675E+01
   0.146E+02 -.117E+02 -.915E+03   -.146E+02 0.118E+02 0.908E+03   0.185E-01 -.668E-01 0.675E+01
   0.160E+01 0.905E+01 0.938E+03   -.156E+01 -.905E+01 -.931E+03   -.349E-01 -.993E-03 -.683E+01
   0.143E+02 0.157E+02 0.944E+03   -.142E+02 -.157E+02 -.937E+03   -.249E-01 0.505E-02 -.684E+01
   0.210E+01 0.156E+02 -.914E+03   -.203E+01 -.156E+02 0.907E+03   -.577E-01 0.351E-03 0.674E+01
   0.130E+02 0.130E+02 -.915E+03   -.129E+02 -.129E+02 0.908E+03   -.237E-01 -.237E-01 0.674E+01
   0.444E+01 0.112E+02 0.945E+03   -.438E+01 -.112E+02 -.938E+03   -.445E-01 0.129E-01 -.683E+01
   0.288E+02 0.120E+02 0.957E+03   -.289E+02 -.121E+02 -.950E+03   0.177E-01 0.720E-01 -.684E+01
   0.127E+02 0.836E+01 -.908E+03   -.127E+02 -.838E+01 0.901E+03   -.152E-01 0.179E-01 0.673E+01
   0.305E+02 0.240E+02 -.906E+03   -.304E+02 -.241E+02 0.899E+03   -.523E-01 0.294E-01 0.673E+01
   0.128E+02 -.212E+01 0.949E+03   -.129E+02 0.210E+01 -.942E+03   0.518E-01 0.197E-01 -.683E+01
   0.337E+02 -.125E+02 0.962E+03   -.340E+02 0.125E+02 -.955E+03   0.223E+00 0.278E-01 -.684E+01
   0.225E+02 -.126E+02 -.908E+03   -.226E+02 0.125E+02 0.901E+03   0.103E+00 0.131E-01 0.674E+01
   0.606E+02 0.530E+01 -.891E+03   -.608E+02 -.541E+01 0.884E+03   0.118E+00 0.858E-01 0.672E+01
   0.120E+02 -.133E+02 0.944E+03   -.121E+02 0.133E+02 -.937E+03   0.953E-01 -.118E-01 -.683E+01
   0.168E+02 -.168E+02 0.945E+03   -.169E+02 0.169E+02 -.938E+03   0.700E-01 -.700E-01 -.681E+01
   0.117E+02 -.146E+02 -.915E+03   -.118E+02 0.146E+02 0.908E+03   0.669E-01 -.185E-01 0.675E+01
   0.428E+02 -.304E+02 -.900E+03   -.431E+02 0.304E+02 0.893E+03   0.244E+00 -.247E-01 0.675E+01
   0.133E+02 -.120E+02 0.944E+03   -.133E+02 0.122E+02 -.937E+03   0.118E-01 -.952E-01 -.683E+01
   0.112E+02 0.444E+01 0.945E+03   -.112E+02 -.438E+01 -.938E+03   0.129E-01 -.445E-01 -.683E+01
   0.156E+02 0.211E+01 -.914E+03   -.156E+02 -.203E+01 0.907E+03   0.351E-03 -.577E-01 0.674E+01
   0.126E+02 -.225E+02 -.908E+03   -.125E+02 0.226E+02 0.901E+03   -.131E-01 -.103E+00 0.674E+01
   0.157E+02 0.143E+02 0.944E+03   -.157E+02 -.142E+02 -.937E+03   0.505E-02 -.249E-01 -.684E+01
   0.264E+02 0.335E+02 0.963E+03   -.264E+02 -.335E+02 -.956E+03   0.607E-01 -.804E-03 -.687E+01
   0.333E+02 0.333E+02 -.905E+03   -.333E+02 -.333E+02 0.898E+03   -.255E-01 -.255E-01 0.672E+01
   0.240E+02 0.305E+02 -.906E+03   -.241E+02 -.304E+02 0.899E+03   0.294E-01 -.523E-01 0.673E+01
   0.335E+02 0.264E+02 0.963E+03   -.335E+02 -.264E+02 -.956E+03   -.804E-03 0.607E-01 -.687E+01
   0.466E+02 0.293E+02 0.101E+04   -.467E+02 -.296E+02 -.101E+04   0.792E-01 0.257E+00 -.702E+01
   0.816E+02 0.439E+02 -.870E+03   -.814E+02 -.441E+02 0.863E+03   -.966E-01 0.191E+00 0.665E+01
   0.719E+02 0.719E+02 -.862E+03   -.718E+02 -.718E+02 0.856E+03   -.361E-01 -.361E-01 0.664E+01
   0.514E+02 0.401E+01 0.993E+03   -.516E+02 -.427E+01 -.986E+03   0.162E+00 0.199E+00 -.682E+01
   0.340E+02 -.340E+02 0.103E+04   -.340E+02 0.339E+02 -.102E+04   -.934E-02 0.918E-02 -.548E+01
   0.116E+03 -.392E+02 -.826E+03   -.117E+03 0.391E+02 0.819E+03   0.117E+01 0.135E+00 0.689E+01
   0.123E+03 0.488E+02 -.709E+03   -.123E+03 -.506E+02 0.703E+03   0.241E+00 0.132E+01 0.605E+01
   0.324E+02 -.324E+02 0.973E+03   -.326E+02 0.326E+02 -.966E+03   0.138E+00 -.138E+00 -.670E+01
   0.125E+02 -.337E+02 0.962E+03   -.125E+02 0.340E+02 -.955E+03   -.278E-01 -.223E+00 -.684E+01
   0.304E+02 -.428E+02 -.900E+03   -.304E+02 0.431E+02 0.893E+03   0.246E-01 -.244E+00 0.675E+01
   0.393E+02 -.116E+03 -.826E+03   -.391E+02 0.117E+03 0.819E+03   -.135E+00 -.117E+01 0.689E+01
   0.212E+01 -.128E+02 0.949E+03   -.210E+01 0.129E+02 -.942E+03   -.197E-01 -.518E-01 -.683E+01
   -.212E+01 0.128E+02 0.949E+03   0.210E+01 -.129E+02 -.942E+03   0.197E-01 0.518E-01 -.683E+01
   0.835E+01 0.127E+02 -.908E+03   -.838E+01 -.127E+02 0.901E+03   0.179E-01 -.152E-01 0.673E+01
   -.836E+01 -.128E+02 -.908E+03   0.838E+01 0.127E+02 0.901E+03   -.179E-01 0.153E-01 0.673E+01
   0.120E+02 0.288E+02 0.957E+03   -.121E+02 -.289E+02 -.950E+03   0.720E-01 0.177E-01 -.684E+01
   0.401E+01 0.514E+02 0.993E+03   -.427E+01 -.516E+02 -.986E+03   0.199E+00 0.162E+00 -.682E+01
   0.439E+02 0.816E+02 -.870E+03   -.441E+02 -.814E+02 0.863E+03   0.191E+00 -.966E-01 0.665E+01
   0.530E+01 0.606E+02 -.891E+03   -.541E+01 -.608E+02 0.884E+03   0.858E-01 0.118E+00 0.672E+01
   0.293E+02 0.466E+02 0.101E+04   -.296E+02 -.467E+02 -.101E+04   0.257E+00 0.792E-01 -.702E+01
   -.111E+02 0.111E+02 0.106E+04   0.109E+02 -.109E+02 -.105E+04   0.136E+00 -.136E+00 -.659E+01
   0.857E+02 0.857E+02 -.703E+03   -.863E+02 -.863E+02 0.697E+03   0.495E+00 0.495E+00 0.639E+01
   0.488E+02 0.123E+03 -.709E+03   -.506E+02 -.123E+03 0.703E+03   0.132E+01 0.241E+00 0.605E+01
   0.111E+02 -.111E+02 0.106E+04   -.109E+02 0.109E+02 -.105E+04   -.136E+00 0.136E+00 -.659E+01
   -.293E+02 -.466E+02 0.101E+04   0.296E+02 0.467E+02 -.101E+04   -.257E+00 -.793E-01 -.702E+01
   -.488E+02 -.123E+03 -.709E+03   0.506E+02 0.123E+03 0.703E+03   -.132E+01 -.241E+00 0.605E+01
   -.856E+02 -.856E+02 -.703E+03   0.863E+02 0.863E+02 0.697E+03   -.495E+00 -.495E+00 0.639E+01
[...]
   -.193E+02 0.147E+02 0.717E+03   0.194E+02 -.148E+02 -.722E+03   -.156E+00 0.614E-01 0.359E+01
   -.622E+01 0.833E+01 0.707E+03   0.625E+01 -.834E+01 -.711E+03   -.568E-01 0.300E-01 0.356E+01
   -.458E+02 0.136E+02 -.670E+03   0.460E+02 -.135E+02 0.674E+03   -.189E+00 -.622E-01 -.369E+01
   -.151E+02 0.147E+01 -.682E+03   0.151E+02 -.144E+01 0.686E+03   -.406E-01 -.317E-01 -.369E+01
   -.261E+02 -.714E+00 0.724E+03   0.261E+02 0.794E+00 -.728E+03   -.975E-01 -.102E+00 0.355E+01
   -.107E+02 0.733E+01 0.713E+03   0.107E+02 -.732E+01 -.717E+03   -.790E-01 -.928E-02 0.356E+01
   -.345E+02 -.150E+02 -.676E+03   0.345E+02 0.151E+02 0.680E+03   -.178E-01 -.898E-01 -.372E+01
   -.431E+01 -.110E+02 -.685E+03   0.428E+01 0.110E+02 0.690E+03   0.385E-01 -.833E-02 -.368E+01
   -.157E+02 -.126E+02 0.715E+03   0.157E+02 0.126E+02 -.719E+03   0.164E-01 -.312E-01 0.354E+01
   -.649E+01 -.442E+01 0.713E+03   0.649E+01 0.444E+01 -.717E+03   0.245E-02 -.228E-01 0.355E+01
   -.145E+02 -.157E+02 -.686E+03   0.144E+02 0.157E+02 0.690E+03   0.354E-01 0.971E-02 -.368E+01
   -.118E+01 -.845E+01 -.689E+03   0.115E+01 0.845E+01 0.694E+03   0.343E-01 0.224E-02 -.366E+01
   -.765E+01 -.764E+01 0.707E+03   0.763E+01 0.763E+01 -.711E+03   0.153E-01 0.153E-01 0.355E+01
   -.152E+01 -.923E+01 0.708E+03   0.148E+01 0.924E+01 -.712E+03   0.431E-01 -.622E-02 0.355E+01
   -.733E+00 0.733E+00 0.109E+02   0.193E-11 0.134E-11 0.728E-11   -.709E-03 -.709E-03 -.118E+02

 POSITION                                       TOTAL-FORCE (eV/Angst)
      8.54453     12.59533     13.88470         0.037264     -0.037650      0.276439
      6.69899     14.44084     13.56395        -0.212875      0.212343      0.323658
     12.32695      8.81289     13.56395         0.212343     -0.212875      0.323658
     10.48144     10.65841     13.88470        -0.037650      0.037264      0.276439
      0.00000      0.00000      9.00000        -0.005591      0.005598      0.167711
      2.11389      2.11389      9.00000         0.000213      0.009377      0.169066
      0.00000      2.11389     11.11389         0.003421      0.003421     -0.148246
      2.11389      0.00000     11.11389        -0.005334      0.017857     -0.147083
      0.00000      4.22777      9.00000         0.009377      0.000213      0.169066
      2.11389      6.34166      9.00000         0.006837     -0.001023      0.171898
      0.00000      6.34166     11.11389         0.015388      0.000163     -0.145486
      2.11389      4.22777     11.11389         0.006634      0.006634     -0.146023
      0.00000      8.45554      9.00000         0.011595     -0.003377      0.170446
      2.11389     10.56943      9.00000        -0.006144     -0.020426      0.171844
      0.00000     10.56943     11.11389         0.004375     -0.004808     -0.140571
      2.11389      8.45554     11.11389         0.014735     -0.006828     -0.137033
      0.00000     12.68331      9.00000        -0.014054     -0.005944      0.170347
      2.11389     14.79720      9.00000        -0.057798     -0.008409      0.167746
      0.00000     14.79720     11.11389        -0.026527     -0.004065     -0.142265
      2.11389     12.68331     11.11389        -0.030991     -0.025707     -0.128872
      0.00000     16.91108      9.00000        -0.025306      0.003521      0.168544
      2.11389     19.02497      9.00000        -0.020529      0.020535      0.163236
      0.00000     19.02497     11.11389        -0.017859      0.005340     -0.147078
      2.11389     16.91108     11.11389        -0.066231      0.008203     -0.143272
      4.22777      0.00000      9.00000        -0.003515      0.025300      0.168542
      6.34166      2.11389      9.00000        -0.003377      0.011595      0.170446
      4.22777      2.11389     11.11389         0.000163      0.015388     -0.145486
      6.34166      0.00000     11.11389         0.004078      0.026510     -0.142261
      4.22777      4.22777      9.00000        -0.001023      0.006837      0.171898
      6.34166      6.34166      9.00000        -0.015161      0.000662      0.180636
      4.22777      6.34166     11.11389         0.008261      0.008261     -0.135567
      6.34166      4.22777     11.11389        -0.006828      0.014735     -0.137033
      4.22777      8.45554      9.00000         0.000662     -0.015161      0.180636
      6.34166     10.56943      9.00000        -0.021723     -0.068568      0.208011
      4.22777     10.56943     11.11389         0.033886     -0.045583     -0.092810
      6.34166      8.45554     11.11389         0.015850      0.015850     -0.091401
      4.22777     12.68331      9.00000        -0.051704     -0.064473      0.153991
      6.34166     14.79720      9.00000         0.003207     -0.003142     -0.158891
      4.22777     14.79720     11.11389        -0.388417     -0.044237     -0.212813
      6.34166     12.68331     11.11389        -0.086267     -0.509833     -0.043073
      4.22777     16.91108      9.00000        -0.046933      0.046957      0.125009
      6.34166     19.02497      9.00000         0.008425      0.057790      0.167750
      4.22777     19.02497     11.11389        -0.008198      0.066237     -0.143266
      6.34166     16.91108     11.11389         0.044263      0.388500     -0.212889
      8.45554      0.00000      9.00000         0.005963      0.014044      0.170354
     10.56943      2.11389      9.00000        -0.005944     -0.014054      0.170347
      8.45554      2.11389     11.11389        -0.004808      0.004375     -0.140571
     10.56943      0.00000     11.11389         0.004821     -0.004398     -0.140566
      8.45554      4.22777      9.00000        -0.020426     -0.006144      0.171844
     10.56943      6.34166      9.00000        -0.064473     -0.051704      0.153991
      8.45554      6.34166     11.11389        -0.045583      0.033886     -0.092810
     10.56943      4.22777     11.11389        -0.025707     -0.030991     -0.128872
      8.45554      8.45554      9.00000        -0.068568     -0.021723      0.208011
     10.56943     10.56943      9.00000        -0.045096      0.045151      0.071852
      8.45554     10.56943     11.11389        -0.170859     -0.170859     -0.041131
     10.56943      8.45554     11.11389        -0.509833     -0.086267     -0.043073
      8.45554     12.68331      9.00000         0.045151     -0.045096      0.071852
     10.56943     14.79720      9.00000         0.068591      0.021736      0.208061
      8.45554     14.79720     11.11389         0.510192      0.086317     -0.043188
     10.56943     12.68331     11.11389         0.171006      0.171006     -0.041085
[...]
     19.02497      6.34166     11.11389        -0.023623      0.003823      0.533644
     16.91108      6.34166      9.00000        -0.044665      0.017373     -0.548027
     19.02497      4.22777      9.00000        -0.015855      0.008392     -0.556796
     16.91108      8.45554     11.11389        -0.057372     -0.016830      0.530244
     19.02497     10.56943     11.11389        -0.011705     -0.008951      0.528870
     16.91108     10.56943      9.00000        -0.029765     -0.028685     -0.559247
     19.02497      8.45554      9.00000        -0.022399     -0.002632     -0.557612
     16.91108     12.68331     11.11389        -0.006274     -0.025897      0.521167
     19.02497     14.79720     11.11389         0.010737     -0.002256      0.531011
     16.91108     14.79720      9.00000         0.004299     -0.008932     -0.562830
     19.02497     12.68331      9.00000         0.000561     -0.006370     -0.560265
     16.91108     16.91108     11.11389         0.009751      0.002618      0.530512
     19.02497     19.02497     11.11389         0.009542      0.000577      0.535430
     16.91108     19.02497      9.00000         0.004207      0.004207     -0.559370
     19.02497     16.91108      9.00000         0.011995     -0.001757     -0.558893
    total drift:                               -0.733424      0.731977     -0.965950

  FREE ENERGIE OF THE ION-ELECTRON SYSTEM (eV)
  free  energy   TOTEN  =      -676.14020103 eV

  energy  without entropy=     -676.14020103  energy(sigma->0) =     -676.14020103