 vasp.6.3.0 20Jan22 (build Apr  1 2022 16:44:48) complex
 executed on        HPECrayEX_GCC date 2022.08.15  15:34:56

 INCAR:
   SYSTEM = MgO-rocksalt
   ISMEAR = 0
   SIGMA = 0.05
   EDIFF = 1E-6
   ALGO = ALL
   ISTART = 0
   IBRION = -1
   NSW = 0
   ISYM = 2
   DIPOL = 0.5 0.5 0.5
   IDIPOL = 3
   LDIPOL = .TRUE.
   GGA = PE
   IVDW = 1
   ENCUT = 520
   PREC = Accurate
   LASPH = .TRUE.
   LREAL = Auto
   ISPIN = 1
   NELM = 200
   NELMIN = 8
   NCORE = 4
   KPAR = 2
   LWAVE = .FALSE.
   LCHARG = .FALSE.

 POTCAR:    PAW_PBE Au 04Oct2007
 POTCAR:    PAW_PBE Mg_pv 13Apr2007
 POTCAR:    PAW_PBE O 08Apr2002
 POTCAR:    PAW_PBE Au 04Oct2007
   VRHFIN =Au: s1d10

   TITEL  = PAW_PBE Au 04Oct2007
   POMASS =  196.966; ZVAL   =   11.000    mass and valenz
   ENMAX  =  229.943; ENMIN  =  172.457 eV

   TITEL  = PAW_PBE Mg_pv 13Apr2007
   POMASS =   24.305; ZVAL   =    8.000    mass and valenz
   ENMAX  =  403.929; ENMIN  =  302.947 eV

   TITEL  = PAW_PBE O 08Apr2002
   POMASS =   16.000; ZVAL   =    6.000    mass and valenz
   ENMAX  =  400.000; ENMIN  =  300.000 eV

 Optimization of the real space projectors (new method)

 maximal supplied QI-value         = 15.12
 optimisation between [QCUT,QGAM] = [ 11.64, 23.28] = [ 37.95,151.78] Ry
 Optimized for a Real-space Cutoff    1.49 Angstroem

   l    n(q)    QCUT    max X(q) W(low)/X(q) W(high)/X(q)  e(spline)
   2      9    11.641    60.898    0.24E-03    0.10E-03    0.19E-06
   2      9    11.641    58.894    0.25E-03    0.10E-03    0.19E-06
   0     10    11.641   109.617    0.73E-04    0.33E-04    0.11E-06
   0     10    11.641    75.026    0.71E-04    0.32E-04    0.11E-06
   1     10    11.641    16.344    0.27E-04    0.97E-04    0.16E-06
   1     10    11.641    10.160    0.23E-04    0.77E-04    0.13E-06
 Optimization of the real space projectors (new method)

[...]

   l    n(q)    QCUT    max X(q) W(low)/X(q) W(high)/X(q)  e(spline)
   1      8    11.527     2.974    0.44E-04    0.56E-04    0.12E-06
   1      8    11.527     4.279    0.12E-03    0.12E-03    0.26E-06
   0      9    11.527    16.381    0.46E-04    0.64E-04    0.78E-07
   0      9    11.527     5.611    0.26E-04    0.43E-04    0.55E-07
   2      8    11.527     4.652    0.22E-03    0.72E-04    0.47E-07
 Optimization of the real space projectors (new method)

 maximal supplied QI-value         = 24.76
 optimisation between [QCUT,QGAM] = [ 11.64, 23.27] = [ 37.91,151.63] Ry
 Optimized for a Real-space Cutoff    1.14 Angstroem

   l    n(q)    QCUT    max X(q) W(low)/X(q) W(high)/X(q)  e(spline)
   0      8    11.635    20.381    0.10E-03    0.33E-03    0.24E-06
   0      8    11.635    15.268    0.11E-03    0.35E-03    0.26E-06
   1      7    11.635     5.964    0.24E-03    0.31E-03    0.30E-06
   1      7    11.635     5.382    0.22E-03    0.25E-03    0.26E-06
  PAW_PBE Au 04Oct2007                  :
  PAW_PBE Mg_pv 13Apr2007               :
  PAW_PBE O 08Apr2002                   :

 POSCAR: Au Mg  O
  positions in direct lattice
 exchange correlation table for  LEXCH =        8
   RHO(1)=    0.500       N(1)  =     2000
   RHO(2)=  100.500       N(2)  =     4000

 ion  position               nearest neighbor table
   1  0.661  0.500  0.614-   2 2.57 172 2.59  73 2.77
   2  0.539  0.500  0.614-   1 2.57 152 2.59  73 2.77
   3  0.000  0.000  0.407- 105 2.11 106 2.11 121 2.11 186 2.11 103 2.11
   4  0.100  0.100  0.407- 105 2.11 106 2.11 110 2.11 125 2.11 104 2.11
   5  0.000  0.100  0.503- 103 2.11 104 2.11 107 2.11 184 2.11 105 2.11
   6  0.100  0.000  0.503- 103 2.11 104 2.11 120 2.11 123 2.11 106 2.11
   7  0.000  0.200  0.407- 109 2.11 105 2.11 110 2.11 190 2.11 107 2.11
   8  0.100  0.300  0.407- 110 2.11 109 2.11 114 2.11 129 2.11 108 2.11
   9  0.000  0.300  0.503- 107 2.11 108 2.11 111 2.11 188 2.11 109 2.11
  10  0.100  0.200  0.503- 108 2.11 107 2.11 104 2.11 127 2.11 110 2.11
  11  0.000  0.400  0.407- 109 2.11 113 2.11 114 2.11 194 2.11 111 2.11
  12  0.100  0.500  0.407- 113 2.11 114 2.11 118 2.11 133 2.11 112 2.11
  13  0.000  0.500  0.503- 111 2.11 112 2.11 115 2.11 192 2.11 113 2.11
  14  0.100  0.400  0.503- 108 2.11 111 2.11 112 2.11 131 2.11 114 2.11
  15  0.000  0.600  0.407- 113 2.11 117 2.11 118 2.11 198 2.11 115 2.11
  16  0.100  0.700  0.407- 122 2.11 118 2.11 117 2.11 137 2.11 116 2.11
  17  0.000  0.700  0.503- 119 2.11 116 2.11 115 2.11 196 2.11 117 2.11
  18  0.100  0.600  0.503- 112 2.11 115 2.11 116 2.11 135 2.11 118 2.11
  19  0.000  0.800  0.407- 117 2.11 121 2.11 122 2.11 202 2.11 119 2.11
  20  0.100  0.900  0.407- 106 2.11 121 2.11 122 2.11 141 2.11 120 2.11
  21  0.000  0.900  0.503- 103 2.11 119 2.11 120 2.11 200 2.11 121 2.11
  22  0.100  0.800  0.503- 116 2.11 119 2.11 120 2.11 139 2.11 122 2.11
  23  0.200  0.000  0.407- 126 2.11 125 2.11 106 2.11 141 2.11 123 2.11
  24  0.300  0.100  0.407- 125 2.11 126 2.11 130 2.11 145 2.11 124 2.11
  25  0.200  0.100  0.503- 124 2.11 123 2.11 104 2.11 127 2.11 125 2.11
  26  0.300  0.000  0.503- 123 2.11 124 2.11 140 2.11 143 2.11 126 2.11
  27  0.200  0.200  0.407- 129 2.11 130 2.11 110 2.11 125 2.11 127 2.11
  28  0.300  0.300  0.407- 129 2.11 130 2.11 134 2.11 149 2.11 128 2.11
  29  0.200  0.300  0.503- 127 2.11 128 2.11 108 2.11 131 2.11 129 2.11
  30  0.300  0.200  0.503- 127 2.11 128 2.11 124 2.11 147 2.11 130 2.11
  31  0.200  0.400  0.407- 134 2.11 129 2.11 133 2.11 114 2.11 131 2.11
  32  0.300  0.500  0.407- 133 2.11 134 2.11 138 2.11 153 2.11 132 2.11
  33  0.200  0.500  0.503- 132 2.11 131 2.11 112 2.11 135 2.11 133 2.11
  34  0.300  0.400  0.503- 131 2.11 128 2.11 132 2.11 151 2.11 134 2.11
  35  0.200  0.600  0.407- 138 2.11 133 2.11 137 2.11 118 2.11 135 2.11
  36  0.300  0.700  0.407- 137 2.11 142 2.11 138 2.11 157 2.11 136 2.11
  37  0.200  0.700  0.503- 136 2.11 139 2.11 116 2.11 135 2.11 137 2.11
  38  0.300  0.600  0.503- 135 2.11 132 2.11 136 2.11 155 2.11 138 2.11
  39  0.200  0.800  0.407- 137 2.11 142 2.11 141 2.11 122 2.11 139 2.11
  40  0.300  0.900  0.407- 141 2.11 126 2.11 142 2.11 161 2.11 140 2.11
  41  0.200  0.900  0.503- 140 2.11 123 2.11 139 2.11 120 2.11 141 2.11
  42  0.300  0.800  0.503- 136 2.11 139 2.11 140 2.11 159 2.11 142 2.11
  43  0.400  0.000  0.407- 126 2.11 145 2.11 146 2.11 161 2.11 143 2.11
  44  0.500  0.100  0.407- 145 2.11 146 2.11 150 2.11 165 2.11 144 2.11
  45  0.400  0.100  0.503- 124 2.11 143 2.11 144 2.11 147 2.11 145 2.11
  46  0.500  0.000  0.503- 143 2.11 144 2.11 160 2.11 163 2.11 146 2.11
  47  0.400  0.200  0.407- 149 2.11 145 2.11 130 2.11 150 2.11 147 2.11
  48  0.500  0.300  0.407- 150 2.11 149 2.11 154 2.11 169 2.11 148 2.11
  49  0.400  0.300  0.503- 147 2.11 128 2.11 148 2.11 151 2.11 149 2.11
  50  0.500  0.200  0.503- 148 2.11 147 2.11 144 2.11 167 2.11 150 2.11
  51  0.400  0.400  0.407- 134 2.11 149 2.11 153 2.11 154 2.11 151 2.11
  52  0.500  0.500  0.407- 153 2.11 154 2.11 158 2.11 173 2.11 152 2.11
  53  0.400  0.500  0.503- 132 2.11 151 2.11 152 2.11 155 2.11 153 2.11
  54  0.500  0.400  0.503- 148 2.11 151 2.11 152 2.11 171 2.11 154 2.11
  55  0.400  0.600  0.407- 138 2.11 153 2.11 157 2.11 158 2.11 155 2.11
  56  0.500  0.700  0.407- 162 2.11 158 2.11 157 2.11 177 2.11 156 2.11
  57  0.400  0.700  0.503- 159 2.11 155 2.11 156 2.11 136 2.11 157 2.11
  58  0.500  0.600  0.503- 152 2.11 155 2.11 156 2.11 175 2.11 158 2.11
  59  0.400  0.800  0.407- 157 2.11 142 2.11 161 2.11 162 2.11 159 2.11
  60  0.500  0.900  0.407- 146 2.11 161 2.11 162 2.11 181 2.11 160 2.11
[...]
 188  0.900  0.300  0.503-  90 2.11  89 2.11   9 2.11  94 2.11  88 2.11
 189  0.800  0.300  0.407-  68 2.11  87 2.11  88 2.11  91 2.11  89 2.11
 190  0.900  0.200  0.407-  88 2.11  84 2.11  87 2.11   7 2.11  90 2.11
 191  0.800  0.400  0.503-  74 2.11  89 2.11  93 2.11  94 2.11  91 2.11
 192  0.900  0.500  0.503-  13 2.11  93 2.11  94 2.11  98 2.11  92 2.11
 193  0.800  0.500  0.407-  72 2.11  91 2.11  92 2.11  95 2.11  93 2.11
 194  0.900  0.400  0.407-  11 2.11  88 2.11  91 2.11  92 2.11  94 2.11
 195  0.800  0.600  0.503-  78 2.11  93 2.11  97 2.11  98 2.11  95 2.11
 196  0.900  0.700  0.503- 102 2.11  97 2.11  98 2.11  17 2.11  96 2.11
 197  0.800  0.700  0.407-  76 2.11  99 2.11  96 2.11  95 2.11  97 2.11
 198  0.900  0.600  0.407-  15 2.11  92 2.11  95 2.11  96 2.11  98 2.11
 199  0.800  0.800  0.503-  82 2.11  97 2.11 101 2.11 102 2.11  99 2.11
 200  0.900  0.900  0.503-  21 2.11  86 2.11 101 2.11 102 2.11 100 2.11
 201  0.800  0.900  0.407-  80 2.11  83 2.11  99 2.11 100 2.11 101 2.11
 202  0.900  0.800  0.407-  96 2.11  19 2.11  99 2.11 100 2.11 102 2.11

  LATTYP: Found a simple tetragonal cell.
 ALAT       =    21.1388521970
 C/A-ratio  =     1.0461251639

  Lattice vectors:

 A1 = (  21.1388521970,   0.0000000000,   0.0000000000)
 A2 = (   0.0000000000,  21.1388521970,   0.0000000000)
 A3 = (   0.0000000000,   0.0000000000,  22.1138852197)

Analysis of symmetry for initial positions (statically):
 Subroutine PRICEL returns:
 Original cell was already a primitive cell.

 Routine SETGRP: Setting up the symmetry group for a
 simple tetragonal supercell.

 Subroutine GETGRP returns: Found  4 space group operations
 (whereof  2 operations were pure point group operations)
 out of a pool of 16 trial point group operations.

The static configuration has the point symmetry C_1h.
 The point group associated with its full space group is C_2v.

Analysis of symmetry for dynamics (positions and initial velocities):
 Subroutine PRICEL returns:
 Original cell was already a primitive cell.

 Routine SETGRP: Setting up the symmetry group for a
 simple tetragonal supercell.

 Subroutine GETGRP returns: Found  4 space group operations
 (whereof  2 operations were pure point group operations)
 out of a pool of 16 trial point group operations.

The dynamic configuration has the point symmetry C_1h.
 The point group associated with its full space group is C_2v.

 Subroutine INISYM returns: Found  4 space group operations
 (whereof  2 operations are pure point group operations),
 and found     1 'primitive' translations

                                     Primitive cell

  volume of cell :    9881.6133

  direct lattice vectors                    reciprocal lattice vectors
    21.138852197  0.000000000  0.000000000     0.047306258  0.000000000  0.000000000
     0.000000000 21.138852197  0.000000000     0.000000000  0.047306258  0.000000000
     0.000000000  0.000000000 22.113885220     0.000000000  0.000000000  0.045220457

  length of vectors
    21.138852197 21.138852197 22.113885220     0.047306258  0.047306258  0.045220457

  position of ions in fractional coordinates (direct lattice)
     0.660731451  0.500000000  0.613578390
     0.539268477  0.500000000  0.613578390
     0.000000000  0.000000000  0.406984115
     0.100000000  0.100000000  0.406984115
     0.000000000  0.100000000  0.502574971
     0.100000000  0.000000000  0.502574971
     0.000000000  0.200000000  0.406984115
     0.100000000  0.300000000  0.406984115
     0.000000000  0.300000000  0.502574971
     0.100000000  0.200000000  0.502574971
     0.000000000  0.400000000  0.406984115
     0.100000000  0.500000000  0.406984115
     0.000000000  0.500000000  0.502574971
[...]
    889       5.4526      0.00000
    890       5.5224      0.00000
    891       5.5421      0.00000
    892       5.5942      0.00000
    893       5.6278      0.00000
    894       5.6713      0.00000
    895       5.6763      0.00000
    896       5.6929      0.00000

 soft charge-density along one line, spin component           1
         0         1         2         3         4         5         6         7         8         9
 total charge-density along one line

------------------------ aborting loop because EDIFF is reached ----------------------------------------

  DFT-D2 method for vdW energy calculation

  Parameters of vdW forcefield:
         C6(Jnm^6/mol)     R0(A)
   Au      81.240          1.772
   Mg       5.710          1.364
   O        0.700          1.342

  vdW correction parametrized for the method pbe

  IVDW =   1
  VDW_RADIUS =    50.000 A
  VDW_S6 =     0.750
  VDW_SR =     1.000
  VDW_D =    20.000
  LVDW_EWALD = F

  Number of pair interactions contributing to vdW energy: 1097025
  Edisp (eV):  -35.02741

  FORCE on cell =-STRESS in cart. coord.  units (eV):
  Direction    XX          YY          ZZ          XY          YZ          ZX
  Alpha Z  1365.75682  1365.75682  1365.75682
  Ewald  480802.96044480097.24197************    -0.00000     0.00000     0.00003
  Hartree509200.20198508716.06889************     0.00000    -0.00000     0.00001
  E(xc)   -7747.58290 -7748.51264 -7779.48614     0.00000     0.00000    -0.00000
  Local  ************************************     0.00000    -0.00000    -0.00003
  n-local -8771.89330 -8758.69914 -8884.88564    -0.00001     0.00000    -0.00000
  augment  3416.71597  3418.53402  3361.93392     0.00000    -0.00000    -0.00000
  Kinetic 22984.75379 22991.46878 23242.78097    -0.00001    -0.00000     0.00001
  Fock        0.00000     0.00000     0.00000     0.00000     0.00000     0.00000
  vdW       -48.45773   -48.57092   -26.39066    -0.00000    -0.00000    -0.00000
  Total    -197.01286  -197.59372    -7.69988     0.00000     0.00000     0.00000
  in kB     -31.94312   -32.03730    -1.24844     0.00000     0.00000     0.00000

 VOLUME and BASIS-vectors are now :
  energy-cutoff  :      520.00
  volume of cell :     9881.61
      direct lattice vectors                 reciprocal lattice vectors
    21.138852197  0.000000000  0.000000000     0.047306258  0.000000000  0.000000000
     0.000000000 21.138852197  0.000000000     0.000000000  0.047306258  0.000000000
     0.000000000  0.000000000 22.113885220     0.000000000  0.000000000  0.045220457

  length of vectors
    21.138852197 21.138852197 22.113885220     0.047306258  0.047306258  0.045220457

 FORCES acting on ions:
    Electron-Ion                     Ewald-Force                    Non-Local-Force
   -.269E+03 -.141E-05 -.213E+04   0.264E+03 0.167E-07 0.213E+04   0.549E+01 0.000E+00 -.773E+00
   0.269E+03 -.105E-05 -.213E+04   -.264E+03 0.167E-07 0.213E+04   -.549E+01 0.000E+00 -.773E+00
   -.334E+01 0.488E-06 0.931E+03   0.333E+01 0.847E-08 -.923E+03   0.372E-02 0.000E+00 -.742E+01
   -.185E-03 0.373E+01 0.931E+03   -.146E-05 -.375E+01 -.923E+03   0.339E-20 0.149E-01 -.742E+01
   -.483E+01 0.534E+01 -.922E+03   0.482E+01 -.536E+01 0.915E+03   0.580E-02 0.164E-01 0.737E+01
   -.185E-03 0.486E-06 -.923E+03   -.150E-05 0.890E-08 0.915E+03   0.000E+00 0.000E+00 0.737E+01
   -.565E+01 0.749E+01 0.933E+03   0.565E+01 -.753E+01 -.926E+03   -.383E-02 0.325E-01 -.742E+01
   -.184E-03 0.677E+01 0.934E+03   -.302E-05 -.681E+01 -.926E+03   0.000E+00 0.278E-01 -.742E+01
   -.117E+02 0.108E+02 -.919E+03   0.117E+02 -.109E+02 0.911E+03   -.189E-01 0.335E-01 0.737E+01
   -.184E-03 0.778E+01 -.922E+03   -.268E-05 -.781E+01 0.914E+03   0.339E-20 0.236E-01 0.737E+01
   -.112E+02 0.557E+01 0.938E+03   0.113E+02 -.560E+01 -.931E+03   -.543E-01 0.258E-01 -.743E+01
   -.183E-03 0.499E-06 0.936E+03   -.440E-05 -.915E-08 -.929E+03   0.000E+00 0.000E+00 -.743E+01
   -.189E+02 0.465E-06 -.916E+03   0.190E+02 -.161E-07 0.908E+03   -.636E-01 0.000E+00 0.737E+01
   -.181E-03 0.562E+01 -.919E+03   -.565E-05 -.565E+01 0.912E+03   -.339E-20 0.169E-01 0.737E+01
   -.112E+02 -.557E+01 0.938E+03   0.113E+02 0.560E+01 -.931E+03   -.543E-01 -.258E-01 -.743E+01
   -.184E-03 -.677E+01 0.934E+03   -.302E-05 0.681E+01 -.926E+03   0.000E+00 -.278E-01 -.742E+01
   -.117E+02 -.108E+02 -.919E+03   0.117E+02 0.109E+02 0.911E+03   -.189E-01 -.335E-01 0.737E+01
   -.181E-03 -.562E+01 -.919E+03   -.565E-05 0.565E+01 0.912E+03   -.339E-20 -.169E-01 0.737E+01
   -.565E+01 -.749E+01 0.933E+03   0.565E+01 0.753E+01 -.926E+03   -.383E-02 -.325E-01 -.742E+01
   -.185E-03 -.373E+01 0.931E+03   -.146E-05 0.375E+01 -.923E+03   0.339E-20 -.149E-01 -.742E+01
   -.483E+01 -.534E+01 -.922E+03   0.482E+01 0.536E+01 0.915E+03   0.580E-02 -.164E-01 0.737E+01
   -.184E-03 -.778E+01 -.922E+03   -.268E-05 0.781E+01 0.914E+03   0.339E-20 -.236E-01 0.737E+01
   0.334E+01 0.486E-06 0.931E+03   -.333E+01 0.847E-08 -.923E+03   -.372E-02 0.000E+00 -.742E+01
   0.666E+01 0.599E+01 0.933E+03   -.665E+01 -.602E+01 -.925E+03   -.612E-02 0.235E-01 -.742E+01
   0.483E+01 0.534E+01 -.922E+03   -.482E+01 -.536E+01 0.915E+03   -.580E-02 0.164E-01 0.737E+01
   0.678E+01 0.481E-06 -.922E+03   -.676E+01 0.148E-07 0.914E+03   -.102E-01 0.000E+00 0.737E+01
   0.564E+01 0.749E+01 0.933E+03   -.565E+01 -.753E+01 -.926E+03   0.383E-02 0.325E-01 -.742E+01
   0.159E+02 0.131E+02 0.941E+03   -.159E+02 -.132E+02 -.933E+03   0.326E-01 0.758E-01 -.743E+01
   0.117E+02 0.108E+02 -.919E+03   -.117E+02 -.109E+02 0.911E+03   0.189E-01 0.335E-01 0.737E+01
   0.136E+02 0.150E+02 -.919E+03   -.136E+02 -.150E+02 0.911E+03   -.147E-01 0.498E-01 0.737E+01
   0.112E+02 0.557E+01 0.938E+03   -.113E+02 -.560E+01 -.931E+03   0.543E-01 0.258E-01 -.743E+01
   0.259E+02 0.552E-06 0.950E+03   -.262E+02 -.210E-07 -.942E+03   0.216E+00 0.000E+00 -.746E+01
   0.189E+02 0.541E-06 -.916E+03   -.190E+02 -.161E-07 0.908E+03   0.636E-01 0.000E+00 0.737E+01
   0.378E+02 0.157E+02 -.908E+03   -.380E+02 -.157E+02 0.900E+03   0.133E+00 0.505E-01 0.736E+01
   0.112E+02 -.557E+01 0.938E+03   -.113E+02 0.560E+01 -.931E+03   0.543E-01 -.258E-01 -.743E+01
   0.159E+02 -.131E+02 0.941E+03   -.159E+02 0.132E+02 -.933E+03   0.326E-01 -.758E-01 -.743E+01
   0.117E+02 -.108E+02 -.919E+03   -.117E+02 0.109E+02 0.911E+03   0.189E-01 -.335E-01 0.737E+01
   0.378E+02 -.157E+02 -.908E+03   -.380E+02 0.157E+02 0.900E+03   0.133E+00 -.505E-01 0.736E+01
   0.564E+01 -.749E+01 0.933E+03   -.565E+01 0.753E+01 -.926E+03   0.383E-02 -.325E-01 -.742E+01
   0.666E+01 -.599E+01 0.933E+03   -.665E+01 0.602E+01 -.925E+03   -.612E-02 -.235E-01 -.742E+01
   0.483E+01 -.534E+01 -.922E+03   -.482E+01 0.536E+01 0.915E+03   -.580E-02 -.164E-01 0.737E+01
   0.136E+02 -.150E+02 -.919E+03   -.136E+02 0.150E+02 0.911E+03   -.147E-01 -.498E-01 0.737E+01
   0.583E+01 0.480E-06 0.934E+03   -.582E+01 0.160E-07 -.926E+03   -.808E-02 0.000E+00 -.742E+01
   0.464E+01 0.108E+02 0.937E+03   -.463E+01 -.109E+02 -.929E+03   -.652E-02 0.245E-01 -.743E+01
   0.910E+01 0.116E+02 -.920E+03   -.908E+01 -.116E+02 0.912E+03   -.144E-01 0.143E-01 0.737E+01
   0.462E+01 0.473E-06 -.920E+03   -.461E+01 0.276E-07 0.912E+03   -.790E-02 0.000E+00 0.737E+01
   0.114E+02 0.165E+02 0.940E+03   -.114E+02 -.166E+02 -.933E+03   -.783E-02 0.767E-01 -.744E+01
   0.146E+02 0.321E+02 0.962E+03   -.146E+02 -.324E+02 -.954E+03   -.782E-02 0.244E+00 -.754E+01
   0.332E+02 0.378E+02 -.903E+03   -.331E+02 -.380E+02 0.896E+03   -.635E-01 0.186E+00 0.734E+01
   0.116E+02 0.351E+02 -.911E+03   -.116E+02 -.351E+02 0.903E+03   -.224E-01 0.886E-02 0.735E+01
   0.310E+02 0.180E+02 0.966E+03   -.312E+02 -.183E+02 -.958E+03   0.126E+00 0.176E+00 -.739E+01
   0.316E+02 0.663E-06 0.101E+04   -.317E+02 -.741E-07 -.100E+04   0.127E+00 0.000E+00 -.604E+01
   0.915E+02 0.746E-06 -.859E+03   -.928E+02 -.109E-06 0.851E+03   0.988E+00 0.000E+00 0.744E+01
   0.678E+02 0.939E+02 -.814E+03   -.674E+02 -.953E+02 0.807E+03   -.264E+00 0.105E+01 0.692E+01
   0.310E+02 -.180E+02 0.966E+03   -.312E+02 0.183E+02 -.958E+03   0.126E+00 -.176E+00 -.739E+01
   0.146E+02 -.321E+02 0.962E+03   -.146E+02 0.324E+02 -.954E+03   -.782E-02 -.244E+00 -.754E+01
   0.332E+02 -.378E+02 -.903E+03   -.331E+02 0.380E+02 0.896E+03   -.635E-01 -.186E+00 0.734E+01
   0.678E+02 -.939E+02 -.814E+03   -.674E+02 0.953E+02 0.807E+03   -.264E+00 -.105E+01 0.692E+01
   0.114E+02 -.165E+02 0.940E+03   -.114E+02 0.166E+02 -.933E+03   -.783E-02 -.767E-01 -.744E+01
   0.464E+01 -.108E+02 0.937E+03   -.463E+01 0.109E+02 -.929E+03   -.652E-02 -.245E-01 -.743E+01
[...]
   -.148E+02 0.164E+02 0.715E+03   0.148E+02 -.165E+02 -.719E+03   -.269E-01 0.149E+00 0.350E+01
   -.754E+01 0.824E+01 0.704E+03   0.754E+01 -.828E+01 -.708E+03   -.676E-02 0.509E-01 0.352E+01
   -.495E+02 0.299E+02 -.661E+03   0.496E+02 -.302E+02 0.665E+03   -.212E+00 0.380E+00 -.370E+01
   -.343E+02 0.232E-05 -.680E+03   0.344E+02 -.268E-07 0.684E+03   -.149E+00 0.000E+00 -.364E+01
   -.280E+02 0.232E-05 0.732E+03   0.283E+02 -.316E-07 -.736E+03   -.382E+00 0.000E+00 0.379E+01
   -.170E+02 0.720E+01 0.712E+03   0.171E+02 -.727E+01 -.716E+03   -.112E+00 0.906E-01 0.353E+01
   -.495E+02 -.299E+02 -.661E+03   0.496E+02 0.302E+02 0.665E+03   -.212E+00 -.380E+00 -.370E+01
   -.179E+02 -.145E+02 -.687E+03   0.179E+02 0.146E+02 0.691E+03   -.469E-01 -.959E-01 -.362E+01
   -.148E+02 -.164E+02 0.715E+03   0.148E+02 0.165E+02 -.719E+03   -.269E-01 -.149E+00 0.350E+01
   -.170E+02 -.720E+01 0.712E+03   0.171E+02 0.727E+01 -.716E+03   -.112E+00 -.906E-01 0.353E+01
   -.122E+02 -.183E+02 -.688E+03   0.122E+02 0.184E+02 0.692E+03   0.293E-01 -.381E-01 -.363E+01
   -.626E+01 -.586E+01 -.693E+03   0.625E+01 0.587E+01 0.697E+03   0.107E-01 -.165E-01 -.360E+01
   -.533E+01 -.636E+01 0.703E+03   0.532E+01 0.638E+01 -.707E+03   0.952E-02 -.212E-01 0.351E+01
   -.754E+01 -.824E+01 0.704E+03   0.754E+01 0.828E+01 -.708E+03   -.676E-02 -.509E-01 0.352E+01
   -.109E+00 0.287E-03 0.120E+02   0.128E-11 0.734E-12 0.284E-11   -.103E-14 -.194E-15 -.126E+02

 POSITION                                       TOTAL-FORCE (eV/Angst)
     13.96710     10.56943     13.56860         0.160341      0.000000     -0.058698
     11.39952     10.56943     13.56860        -0.160341      0.000000     -0.058698
      0.00000      0.00000      9.00000        -0.001025      0.000000      0.521644
      2.11389      2.11389      9.00000         0.000000     -0.004081      0.521385
      0.00000      2.11389     11.11389        -0.001590     -0.004334     -0.506611
      2.11389      0.00000     11.11389         0.000000      0.000000     -0.507298
      0.00000      4.22777      9.00000         0.001150     -0.008936      0.521602
      2.11389      6.34166      9.00000         0.000000     -0.007847      0.521705
      0.00000      6.34166     11.11389         0.004605     -0.009291     -0.503775
      2.11389      4.22777     11.11389         0.000000     -0.006482     -0.506194
      0.00000      8.45554      9.00000         0.014156     -0.007496      0.522557
      2.11389     10.56943      9.00000         0.000000      0.000000      0.522202
      0.00000     10.56943     11.11389         0.015119      0.000000     -0.501905
      2.11389      8.45554     11.11389         0.000000     -0.004803     -0.504370
      0.00000     12.68331      9.00000         0.014156      0.007496      0.522557
      2.11389     14.79720      9.00000         0.000000      0.007847      0.521705
      0.00000     14.79720     11.11389         0.004605      0.009291     -0.503775
      2.11389     12.68331     11.11389         0.000000      0.004803     -0.504370
      0.00000     16.91108      9.00000         0.001150      0.008936      0.521602
      2.11389     19.02497      9.00000         0.000000      0.004081      0.521385
      0.00000     19.02497     11.11389        -0.001590      0.004334     -0.506611
      2.11389     16.91108     11.11389         0.000000      0.006482     -0.506194
      4.22777      0.00000      9.00000         0.001025      0.000000      0.521644
      6.34166      2.11389      9.00000         0.001723     -0.006141      0.522591
      4.22777      2.11389     11.11389         0.001590     -0.004334     -0.506611
      6.34166      0.00000     11.11389         0.002903      0.000000     -0.506233
      4.22777      4.22777      9.00000        -0.001150     -0.008936      0.521602
      6.34166      6.34166      9.00000        -0.009602     -0.021257      0.521670
      4.22777      6.34166     11.11389        -0.004605     -0.009291     -0.503775
      6.34166      4.22777     11.11389         0.004126     -0.012650     -0.502765
      4.22777      8.45554      9.00000        -0.014156     -0.007496      0.522557
      6.34166     10.56943      9.00000        -0.053625      0.000000      0.527281
      4.22777     10.56943     11.11389        -0.015119      0.000000     -0.501905
      6.34166      8.45554     11.11389        -0.031748     -0.013983     -0.493662
      4.22777     12.68331      9.00000        -0.014156      0.007496      0.522557
      6.34166     14.79720      9.00000        -0.009602      0.021257      0.521670
      4.22777     14.79720     11.11389        -0.004605      0.009291     -0.503775
      6.34166     12.68331     11.11389        -0.031748      0.013983     -0.493662
      4.22777     16.91108      9.00000        -0.001150      0.008936      0.521602
      6.34166     19.02497      9.00000         0.001723      0.006141      0.522591
      4.22777     19.02497     11.11389         0.001590      0.004334     -0.506611
      6.34166     16.91108     11.11389         0.004126      0.012650     -0.502765
      8.45554      0.00000      9.00000         0.002369      0.000000      0.522882
     10.56943      2.11389      9.00000         0.002035     -0.006289      0.524738
      8.45554      2.11389     11.11389         0.004298     -0.003221     -0.503474
     10.56943      0.00000     11.11389         0.002364      0.000000     -0.503873
      8.45554      4.22777      9.00000         0.002584     -0.019377      0.527283
     10.56943      6.34166      9.00000         0.005126     -0.058077      0.550915
      8.45554      6.34166     11.11389         0.022597     -0.042267     -0.480472
     10.56943      4.22777     11.11389         0.007643      0.001832     -0.490467
      8.45554      8.45554      9.00000        -0.040554     -0.056153      0.506763
     10.56943     10.56943      9.00000        -0.013038      0.000000      0.219326
      8.45554     10.56943     11.11389        -0.254678      0.000000     -0.450276
     10.56943      8.45554     11.11389         0.133352     -0.292581     -0.283415
      8.45554     12.68331      9.00000        -0.040554      0.056153      0.506763
     10.56943     14.79720      9.00000         0.005126      0.058077      0.550915
      8.45554     14.79720     11.11389         0.022597      0.042267     -0.480472
     10.56943     12.68331     11.11389         0.133352      0.292581     -0.283415
      8.45554     16.91108      9.00000         0.002584      0.019377      0.527283
     10.56943     19.02497      9.00000         0.002035      0.006289      0.524738
[...]
     19.02497      6.34166     11.11389        -0.013664      0.027034      0.471245
     16.91108      6.34166      9.00000        -0.007999      0.042143     -0.497721
     19.02497      4.22777      9.00000        -0.001959      0.014142     -0.495240
     16.91108      8.45554     11.11389        -0.074457      0.115149      0.463675
     19.02497     10.56943     11.11389        -0.044900      0.000000      0.467316
     16.91108     10.56943      9.00000        -0.123795      0.000000     -0.419152
     19.02497      8.45554      9.00000        -0.031393      0.024908     -0.492436
     16.91108     12.68331     11.11389        -0.074457     -0.115149      0.463675
     19.02497     14.79720     11.11389        -0.013664     -0.027034      0.471245
     16.91108     14.79720      9.00000        -0.007999     -0.042143     -0.497721
     19.02497     12.68331      9.00000        -0.031393     -0.024908     -0.492436
     16.91108     16.91108     11.11389         0.007736     -0.011092      0.468626
     19.02497     19.02497     11.11389         0.002897     -0.004589      0.477046
     16.91108     19.02497      9.00000         0.002527     -0.005938     -0.495890
     19.02497     16.91108      9.00000        -0.001959     -0.014142     -0.495240
    total drift:                               -0.109365      0.000287     -0.613791

  FREE ENERGIE OF THE ION-ELECTRON SYSTEM (eV)
  free  energy   TOTEN  =     -1176.40301914 eV

  energy  without entropy=    -1176.40301914  energy(sigma->0) =    -1176.40301914