 vasp.6.4.0 14Feb23 (build Jul 14 2023 13:46:40) complex

 executed on             LinuxIFC date 2023.07.30  10:40:24

 INCAR:
   SYSTEM = MgO-rocksalt
   ISMEAR = 0
   SIGMA = 0.05
   EDIFF = 1E-6
   ALGO = ALL
   ISTART = 0
   IBRION = -1
   NSW = 0
   ISYM = 2
   DIPOL = 0.5 0.5 0.5
   IDIPOL = 3
   LDIPOL = .TRUE.
   METAGGA = R2SCAN
   LUSE_VDW = .TRUE.
   BPARAM = 11.95
   CPARAM = 0.0093
   ENCUT = 520
   PREC = Accurate
   LASPH = .TRUE.
   LREAL = Auto
   ISPIN = 1
   NELM = 200
   NELMIN = 8
   NCORE = 16
   KPAR = 1
   LWAVE = .FALSE.
   LCHARG = .FALSE.

 POTCAR:    PAW_PBE Au 04Oct2007
 POTCAR:    PAW_PBE Mg_pv 13Apr2007
 POTCAR:    PAW_PBE O 08Apr2002
|               ----> ADVICE to this user running VASP <----                  |
|     You have switched on vdW-DFT.                                           |
|     This routine was written and supplied by Jiri Klimes. We recommend      |
|     that you carefully read and cite the following publications:            |
|       J. Klimes, D.R. Bowler, A. Michelides                                 |
|          J. Phys.: Cond Matt. 22 022201 (2010)                              |
|       J. Klimes, D.R. Bowler, A. Michelides                                 |
|          Phys. Rev. B. 83, 195131 (2011)                                    |
|     and references therein.                                                 |

   TITEL  = PAW_PBE Au 04Oct2007
   POMASS =  196.966; ZVAL   =   11.000    mass and valenz
   ENMAX  =  229.943; ENMIN  =  172.457 eV

   TITEL  = PAW_PBE Mg_pv 13Apr2007
   POMASS =   24.305; ZVAL   =    8.000    mass and valenz
   ENMAX  =  403.929; ENMIN  =  302.947 eV

   TITEL  = PAW_PBE O 08Apr2002
   POMASS =   16.000; ZVAL   =    6.000    mass and valenz
   ENMAX  =  400.000; ENMIN  =  300.000 eV

 Optimization of the real space projectors (new method)

 maximal supplied QI-value         = 15.12
 optimisation between [QCUT,QGAM] = [ 11.64, 23.28] = [ 37.95,151.78] Ry
 Optimized for a Real-space Cutoff    1.49 Angstroem

   l    n(q)    QCUT    max X(q) W(low)/X(q) W(high)/X(q)  e(spline)
   2      9    11.641    60.898    0.24E-03    0.10E-03    0.19E-06
   2      9    11.641    58.894    0.25E-03    0.10E-03    0.19E-06
   0     10    11.641   109.617    0.73E-04    0.33E-04    0.11E-06
   0     10    11.641    75.026    0.71E-04    0.32E-04    0.11E-06
   1     10    11.641    16.344    0.27E-04    0.97E-04    0.16E-06
   1     10    11.641    10.160    0.23E-04    0.77E-04    0.13E-06
 Optimization of the real space projectors (new method)

[...]

   l    n(q)    QCUT    max X(q) W(low)/X(q) W(high)/X(q)  e(spline)
   1      8    11.527     2.974    0.44E-04    0.56E-04    0.12E-06
   1      8    11.527     4.279    0.12E-03    0.12E-03    0.26E-06
   0      9    11.527    16.381    0.46E-04    0.64E-04    0.78E-07
   0      9    11.527     5.611    0.26E-04    0.43E-04    0.55E-07
   2      8    11.527     4.652    0.22E-03    0.72E-04    0.47E-07
 Optimization of the real space projectors (new method)

 maximal supplied QI-value         = 24.76
 optimisation between [QCUT,QGAM] = [ 11.64, 23.27] = [ 37.91,151.63] Ry
 Optimized for a Real-space Cutoff    1.14 Angstroem

   l    n(q)    QCUT    max X(q) W(low)/X(q) W(high)/X(q)  e(spline)
   0      8    11.635    20.381    0.10E-03    0.33E-03    0.24E-06
   0      8    11.635    15.268    0.11E-03    0.35E-03    0.26E-06
   1      7    11.635     5.964    0.24E-03    0.31E-03    0.30E-06
   1      7    11.635     5.382    0.22E-03    0.25E-03    0.26E-06
  PAW_PBE Au 04Oct2007                  :
  PAW_PBE Mg_pv 13Apr2007               :
  PAW_PBE O 08Apr2002                   :

 POSCAR: Au Mg  O
  positions in direct lattice

 METAGGA = R2SCAN                                      LMAXTAU =  6    LMIXTAU =  F

 ion  position               nearest neighbor table
   1  0.543  0.557  0.621-   2 2.56  58 2.91
   2  0.457  0.643  0.621-   1 2.56  58 2.91
   3  0.000  0.000  0.407- 105 2.11 106 2.11 121 2.11 186 2.11 103 2.11
   4  0.100  0.100  0.407- 105 2.11 106 2.11 110 2.11 125 2.11 104 2.11
   5  0.000  0.100  0.503- 103 2.11 104 2.11 107 2.11 184 2.11 105 2.11
   6  0.100  0.000  0.503- 103 2.11 104 2.11 120 2.11 123 2.11 106 2.11
   7  0.000  0.200  0.407- 109 2.11 105 2.11 110 2.11 190 2.11 107 2.11
   8  0.100  0.300  0.407- 110 2.11 109 2.11 114 2.11 129 2.11 108 2.11
   9  0.000  0.300  0.503- 107 2.11 108 2.11 111 2.11 188 2.11 109 2.11
  10  0.100  0.200  0.503- 108 2.11 107 2.11 104 2.11 127 2.11 110 2.11
  11  0.000  0.400  0.407- 109 2.11 113 2.11 114 2.11 194 2.11 111 2.11
  12  0.100  0.500  0.407- 113 2.11 114 2.11 118 2.11 133 2.11 112 2.11
  13  0.000  0.500  0.503- 111 2.11 112 2.11 115 2.11 192 2.11 113 2.11
  14  0.100  0.400  0.503- 108 2.11 111 2.11 112 2.11 131 2.11 114 2.11
  15  0.000  0.600  0.407- 113 2.11 117 2.11 118 2.11 198 2.11 115 2.11
  16  0.100  0.700  0.407- 122 2.11 118 2.11 117 2.11 137 2.11 116 2.11
  17  0.000  0.700  0.503- 119 2.11 116 2.11 115 2.11 196 2.11 117 2.11
  18  0.100  0.600  0.503- 112 2.11 115 2.11 116 2.11 135 2.11 118 2.11
  19  0.000  0.800  0.407- 117 2.11 121 2.11 122 2.11 202 2.11 119 2.11
  20  0.100  0.900  0.407- 106 2.11 121 2.11 122 2.11 141 2.11 120 2.11
  21  0.000  0.900  0.503- 103 2.11 119 2.11 120 2.11 200 2.11 121 2.11
  22  0.100  0.800  0.503- 116 2.11 119 2.11 120 2.11 139 2.11 122 2.11
  23  0.200  0.000  0.407- 126 2.11 125 2.11 106 2.11 141 2.11 123 2.11
  24  0.300  0.100  0.407- 125 2.11 126 2.11 130 2.11 145 2.11 124 2.11
  25  0.200  0.100  0.503- 124 2.11 123 2.11 104 2.11 127 2.11 125 2.11
  26  0.300  0.000  0.503- 123 2.11 124 2.11 140 2.11 143 2.11 126 2.11
  27  0.200  0.200  0.407- 129 2.11 130 2.11 110 2.11 125 2.11 127 2.11
  28  0.300  0.300  0.407- 129 2.11 130 2.11 134 2.11 149 2.11 128 2.11
  29  0.200  0.300  0.503- 127 2.11 128 2.11 108 2.11 131 2.11 129 2.11
  30  0.300  0.200  0.503- 127 2.11 128 2.11 124 2.11 147 2.11 130 2.11
  31  0.200  0.400  0.407- 134 2.11 129 2.11 133 2.11 114 2.11 131 2.11
  32  0.300  0.500  0.407- 133 2.11 134 2.11 138 2.11 153 2.11 132 2.11
  33  0.200  0.500  0.503- 132 2.11 131 2.11 112 2.11 135 2.11 133 2.11
  34  0.300  0.400  0.503- 131 2.11 128 2.11 132 2.11 151 2.11 134 2.11
  35  0.200  0.600  0.407- 138 2.11 133 2.11 137 2.11 118 2.11 135 2.11
  36  0.300  0.700  0.407- 137 2.11 142 2.11 138 2.11 157 2.11 136 2.11
  37  0.200  0.700  0.503- 136 2.11 139 2.11 116 2.11 135 2.11 137 2.11
  38  0.300  0.600  0.503- 135 2.11 132 2.11 136 2.11 155 2.11 138 2.11
  39  0.200  0.800  0.407- 137 2.11 142 2.11 141 2.11 122 2.11 139 2.11
  40  0.300  0.900  0.407- 141 2.11 126 2.11 142 2.11 161 2.11 140 2.11
  41  0.200  0.900  0.503- 140 2.11 123 2.11 139 2.11 120 2.11 141 2.11
  42  0.300  0.800  0.503- 136 2.11 139 2.11 140 2.11 159 2.11 142 2.11
  43  0.400  0.000  0.407- 126 2.11 145 2.11 146 2.11 161 2.11 143 2.11
  44  0.500  0.100  0.407- 145 2.11 146 2.11 150 2.11 165 2.11 144 2.11
  45  0.400  0.100  0.503- 124 2.11 143 2.11 144 2.11 147 2.11 145 2.11
  46  0.500  0.000  0.503- 143 2.11 144 2.11 160 2.11 163 2.11 146 2.11
  47  0.400  0.200  0.407- 149 2.11 145 2.11 130 2.11 150 2.11 147 2.11
  48  0.500  0.300  0.407- 150 2.11 149 2.11 154 2.11 169 2.11 148 2.11
  49  0.400  0.300  0.503- 147 2.11 128 2.11 148 2.11 151 2.11 149 2.11
  50  0.500  0.200  0.503- 148 2.11 147 2.11 144 2.11 167 2.11 150 2.11
  51  0.400  0.400  0.407- 134 2.11 149 2.11 153 2.11 154 2.11 151 2.11
  52  0.500  0.500  0.407- 153 2.11 154 2.11 158 2.11 173 2.11 152 2.11
  53  0.400  0.500  0.503- 132 2.11 151 2.11 152 2.11 155 2.11 153 2.11
  54  0.500  0.400  0.503- 148 2.11 151 2.11 152 2.11 171 2.11 154 2.11
  55  0.400  0.600  0.407- 138 2.11 153 2.11 157 2.11 158 2.11 155 2.11
  56  0.500  0.700  0.407- 162 2.11 158 2.11 157 2.11 177 2.11 156 2.11
  57  0.400  0.700  0.503- 159 2.11 155 2.11 156 2.11 136 2.11 157 2.11
  58  0.500  0.600  0.503- 152 2.11 155 2.11 156 2.11 175 2.11 158 2.11   2 2.91   1 2.91
  59  0.400  0.800  0.407- 157 2.11 142 2.11 161 2.11 162 2.11 159 2.11
  60  0.500  0.900  0.407- 146 2.11 161 2.11 162 2.11 181 2.11 160 2.11
[...]
 188  0.900  0.300  0.503-  90 2.11  89 2.11   9 2.11  94 2.11  88 2.11
 189  0.800  0.300  0.407-  68 2.11  87 2.11  88 2.11  91 2.11  89 2.11
 190  0.900  0.200  0.407-  88 2.11  84 2.11  87 2.11   7 2.11  90 2.11
 191  0.800  0.400  0.503-  74 2.11  89 2.11  93 2.11  94 2.11  91 2.11
 192  0.900  0.500  0.503-  13 2.11  93 2.11  94 2.11  98 2.11  92 2.11
 193  0.800  0.500  0.407-  72 2.11  91 2.11  92 2.11  95 2.11  93 2.11
 194  0.900  0.400  0.407-  11 2.11  88 2.11  91 2.11  92 2.11  94 2.11
 195  0.800  0.600  0.503-  78 2.11  93 2.11  97 2.11  98 2.11  95 2.11
 196  0.900  0.700  0.503- 102 2.11  97 2.11  98 2.11  17 2.11  96 2.11
 197  0.800  0.700  0.407-  76 2.11  99 2.11  96 2.11  95 2.11  97 2.11
 198  0.900  0.600  0.407-  15 2.11  92 2.11  95 2.11  96 2.11  98 2.11
 199  0.800  0.800  0.503-  82 2.11  97 2.11 101 2.11 102 2.11  99 2.11
 200  0.900  0.900  0.503-  21 2.11  86 2.11 101 2.11 102 2.11 100 2.11
 201  0.800  0.900  0.407-  80 2.11  83 2.11  99 2.11 100 2.11 101 2.11
 202  0.900  0.800  0.407-  96 2.11  19 2.11  99 2.11 100 2.11 102 2.11

  LATTYP: Found a simple tetragonal cell.
 ALAT       =    21.1388521970
 C/A-ratio  =     1.0461251639

  Lattice vectors:

 A1 = (  21.1388521970,   0.0000000000,   0.0000000000)
 A2 = (   0.0000000000,  21.1388521970,   0.0000000000)
 A3 = (   0.0000000000,   0.0000000000,  22.1138852197)

Analysis of symmetry for initial positions (statically):
 Subroutine PRICEL returns:
 Original cell was already a primitive cell.

 Routine SETGRP: Setting up the symmetry group for a
 simple tetragonal supercell.

 Subroutine GETGRP returns: Found  4 space group operations
 (whereof  1 operations were pure point group operations)
 out of a pool of 16 trial point group operations.

The static configuration has the point symmetry C_1 .
 The point group associated with its full space group is C_2v.

Analysis of symmetry for dynamics (positions and initial velocities):
 Subroutine PRICEL returns:
 Original cell was already a primitive cell.

 Routine SETGRP: Setting up the symmetry group for a
 simple tetragonal supercell.

 Subroutine GETGRP returns: Found  4 space group operations
 (whereof  1 operations were pure point group operations)
 out of a pool of 16 trial point group operations.

The dynamic configuration has the point symmetry C_1 .
 The point group associated with its full space group is C_2v.

 Subroutine INISYM returns: Found  4 space group operations
 (whereof  1 operations are pure point group operations),
 and found     1 'primitive' translations

                                     Primitive cell

  volume of cell :    9881.6133

  direct lattice vectors                    reciprocal lattice vectors
    21.138852197  0.000000000  0.000000000     0.047306258  0.000000000  0.000000000
     0.000000000 21.138852197  0.000000000     0.000000000  0.047306258  0.000000000
     0.000000000  0.000000000 22.113885220     0.000000000  0.000000000  0.045220457

  length of vectors
[...]
     52     -44.3971      2.00000
     53     -44.3970      2.00000
     54     -44.3954      2.00000
     55     -44.3953      2.00000
     56     -44.3952      2.00000
     57     -44.3951      2.00000
     58     -44.3937      2.00000
     59     -44.3934      2.00000
     60     -44.3933      2.00000
[...]
    850       4.7774      0.00000
    851       4.7959      0.00000
    852       4.8276      0.00000
    853       4.8304      0.00000
    854       4.8410      0.00000
    855       4.8686      0.00000
    856       4.8775      0.00000
    857       5.0337      0.00000
    858       5.0801      0.00000
    859       5.1018      0.00000
    860       5.1032      0.00000
    861       5.1581      0.00000
    862       5.1590      0.00000
    863       5.2673      0.00000
    864       5.5529      0.00000

 soft charge-density along one line, spin component           1
         0         1         2         3         4         5         6         7         8         9
 total charge-density along one line

------------------------ aborting loop because EDIFF is reached ----------------------------------------

  FORCE on cell =-STRESS in cart. coord.  units (eV):
  Direction    XX          YY          ZZ          XY          YZ          ZX
  Alpha Z  1365.75682  1365.75682  1365.75682
  Ewald  479770.72537479770.72537************  -347.00501     0.00001    -0.00001
  Hartree508493.18576508493.18576************  -232.93654     0.00000    -0.00002
  E(xc)   -8375.00518 -8375.00518 -8366.24906    -0.12755     0.00000     0.00000
  Local  ************************************   567.26208    -0.00001     0.00003
  n-local -8693.48023 -8693.48022 -8810.85346     6.45088    -0.00000     0.00000
  augment  3830.09853  3830.09851  3772.36175     1.51714     0.00000    -0.00000
  Kinetic 23041.48660 23041.48658 23266.92745     4.97200     0.00003     0.00001
  Fock        0.00000     0.00000     0.00000     0.00000     0.00000     0.00000
  Total    -231.67966  -231.67966   -20.14739     0.13301     0.00000     0.00000
  in kB     -37.56390   -37.56390    -3.26664     0.02157     0.00000     0.00000

 VOLUME and BASIS-vectors are now :
  energy-cutoff  :      520.00
  volume of cell :     9881.61
      direct lattice vectors                 reciprocal lattice vectors
    21.138852197  0.000000000  0.000000000     0.047306258  0.000000000  0.000000000
     0.000000000 21.138852197  0.000000000     0.000000000  0.047306258  0.000000000
     0.000000000  0.000000000 22.113885220     0.000000000  0.000000000  0.045220457

  length of vectors
    21.138852197 21.138852197 22.113885220     0.047306258  0.047306258  0.045220457

 FORCES acting on ions:
    Electron-Ion                     Ewald-Force                    Non-Local-Force
   -.192E+03 0.192E+03 -.208E+04   0.188E+03 -.188E+03 0.208E+04   0.466E+01 -.466E+01 -.299E-02
   0.192E+03 -.192E+03 -.208E+04   -.188E+03 0.188E+03 0.208E+04   -.466E+01 0.466E+01 -.299E-02
   0.202E+00 -.347E+01 0.931E+03   -.205E+00 0.348E+01 -.923E+03   0.292E-02 -.423E-02 -.750E+01
   0.347E+01 -.202E+00 0.931E+03   -.348E+01 0.205E+00 -.923E+03   0.423E-02 -.292E-02 -.750E+01
   -.103E-07 -.184E-03 -.923E+03   0.101E-06 -.159E-05 0.915E+03   -.737E-21 0.749E-21 0.752E+01
   0.533E+01 -.533E+01 -.922E+03   -.533E+01 0.533E+01 0.914E+03   0.761E-02 -.761E-02 0.752E+01
   -.202E+00 0.347E+01 0.931E+03   0.205E+00 -.348E+01 -.923E+03   -.292E-02 0.423E-02 -.750E+01
   0.528E+01 0.675E+01 0.933E+03   -.528E+01 -.676E+01 -.925E+03   0.457E-02 0.790E-02 -.750E+01
   -.562E+00 0.719E+01 -.922E+03   0.571E+00 -.720E+01 0.914E+03   -.710E-02 0.494E-02 0.752E+01
   0.472E+01 0.472E+01 -.923E+03   -.473E+01 -.473E+01 0.915E+03   0.630E-03 0.630E-03 0.752E+01
   -.467E+00 0.617E+01 0.934E+03   0.476E+00 -.618E+01 -.926E+03   -.735E-02 0.724E-02 -.750E+01
   0.102E+02 0.522E+01 0.938E+03   -.103E+02 -.523E+01 -.930E+03   0.216E-01 0.105E-01 -.751E+01
   -.540E+00 0.503E+01 -.920E+03   0.548E+00 -.503E+01 0.912E+03   -.672E-02 0.299E-02 0.752E+01
   0.105E+02 0.972E+01 -.920E+03   -.105E+02 -.973E+01 0.912E+03   0.203E-02 0.719E-02 0.752E+01
   0.240E-06 -.187E-03 0.936E+03   -.146E-06 0.155E-05 -.928E+03   0.139E-20 0.116E-20 -.750E+01
   0.111E+02 -.468E+01 0.938E+03   -.112E+02 0.469E+01 -.930E+03   0.385E-01 -.339E-02 -.751E+01
   0.540E+00 -.503E+01 -.920E+03   -.548E+00 0.503E+01 0.912E+03   0.672E-02 -.299E-02 0.752E+01
   0.175E+02 0.739E+00 -.917E+03   -.175E+02 -.747E+00 0.909E+03   0.209E-01 0.614E-02 0.751E+01
   0.467E+00 -.617E+01 0.934E+03   -.476E+00 0.618E+01 -.926E+03   0.735E-02 -.724E-02 -.750E+01
   0.610E+01 -.709E+01 0.934E+03   -.612E+01 0.710E+01 -.926E+03   0.158E-01 -.120E-01 -.750E+01
   0.562E+00 -.719E+01 -.922E+03   -.571E+00 0.720E+01 0.914E+03   0.710E-02 -.494E-02 0.752E+01
   0.124E+02 -.985E+01 -.919E+03   -.124E+02 0.986E+01 0.911E+03   0.250E-01 -.634E-02 0.752E+01
   0.709E+01 -.610E+01 0.934E+03   -.710E+01 0.612E+01 -.926E+03   0.120E-01 -.158E-01 -.750E+01
   0.617E+01 -.467E+00 0.934E+03   -.618E+01 0.476E+00 -.926E+03   0.724E-02 -.735E-02 -.750E+01
   0.719E+01 -.562E+00 -.922E+03   -.720E+01 0.571E+00 0.914E+03   0.494E-02 -.710E-02 0.752E+01
   0.985E+01 -.124E+02 -.919E+03   -.986E+01 0.124E+02 0.911E+03   0.634E-02 -.250E-01 0.752E+01
   0.675E+01 0.528E+01 0.933E+03   -.676E+01 -.528E+01 -.925E+03   0.790E-02 0.457E-02 -.750E+01
   0.117E+02 0.149E+02 0.940E+03   -.117E+02 -.150E+02 -.932E+03   0.240E-01 0.315E-01 -.751E+01
   0.133E+02 0.133E+02 -.919E+03   -.133E+02 -.133E+02 0.911E+03   0.640E-02 0.640E-02 0.751E+01
   0.972E+01 0.105E+02 -.920E+03   -.973E+01 -.105E+02 0.912E+03   0.719E-02 0.203E-02 0.752E+01
   0.149E+02 0.117E+02 0.940E+03   -.150E+02 -.117E+02 -.932E+03   0.315E-01 0.240E-01 -.751E+01
   0.290E+02 0.163E+02 0.961E+03   -.292E+02 -.163E+02 -.953E+03   0.136E+00 0.697E-01 -.755E+01
   0.334E+02 0.141E+02 -.910E+03   -.334E+02 -.142E+02 0.902E+03   0.306E-01 0.194E-01 0.750E+01
   0.320E+02 0.320E+02 -.906E+03   -.321E+02 -.321E+02 0.898E+03   0.295E-01 0.295E-01 0.749E+01
   0.243E+02 0.113E+01 0.948E+03   -.244E+02 -.115E+01 -.940E+03   0.939E-01 0.138E-01 -.752E+01
   0.309E+02 -.144E+02 0.965E+03   -.310E+02 0.145E+02 -.957E+03   0.918E-01 -.445E-01 -.747E+01
   0.374E+02 -.120E+02 -.908E+03   -.375E+02 0.120E+02 0.900E+03   0.871E-01 0.278E-02 0.751E+01
   0.794E+02 0.824E+01 -.871E+03   -.797E+02 -.832E+01 0.863E+03   0.252E+00 0.585E-01 0.746E+01
   0.164E+02 -.120E+02 0.942E+03   -.165E+02 0.120E+02 -.934E+03   0.466E-01 -.270E-01 -.750E+01
   0.120E+02 -.164E+02 0.942E+03   -.120E+02 0.165E+02 -.934E+03   0.270E-01 -.466E-01 -.750E+01
   0.149E+02 -.149E+02 -.918E+03   -.149E+02 0.149E+02 0.910E+03   0.217E-01 -.217E-01 0.752E+01
   0.369E+02 -.369E+02 -.900E+03   -.370E+02 0.370E+02 0.892E+03   0.683E-01 -.683E-01 0.751E+01
   0.468E+01 -.111E+02 0.938E+03   -.469E+01 0.112E+02 -.930E+03   0.339E-02 -.385E-01 -.751E+01
   0.237E-06 -.181E-03 0.936E+03   -.139E-06 -.416E-05 -.928E+03   -.116E-20 -.139E-20 -.750E+01
   0.503E+01 -.540E+00 -.920E+03   -.503E+01 0.548E+00 0.912E+03   0.299E-02 -.672E-02 0.752E+01
   -.739E+00 -.175E+02 -.917E+03   0.747E+00 0.175E+02 0.909E+03   -.614E-02 -.209E-01 0.751E+01
   0.522E+01 0.102E+02 0.938E+03   -.523E+01 -.103E+02 -.930E+03   0.105E-01 0.216E-01 -.751E+01
   0.113E+01 0.243E+02 0.948E+03   -.115E+01 -.244E+02 -.940E+03   0.138E-01 0.939E-01 -.752E+01
   0.141E+02 0.334E+02 -.910E+03   -.142E+02 -.334E+02 0.902E+03   0.194E-01 0.306E-01 0.750E+01
   0.739E+00 0.175E+02 -.917E+03   -.747E+00 -.175E+02 0.909E+03   0.614E-02 0.209E-01 0.751E+01
   0.163E+02 0.290E+02 0.961E+03   -.163E+02 -.292E+02 -.953E+03   0.697E-01 0.136E+00 -.755E+01
   0.315E+01 0.312E+02 0.100E+04   -.309E+01 -.313E+02 -.995E+03   -.414E-01 0.112E+00 -.721E+01
   0.710E+02 0.710E+02 -.837E+03   -.714E+02 -.714E+02 0.830E+03   0.264E+00 0.264E+00 0.727E+01
   0.824E+01 0.794E+02 -.871E+03   -.832E+01 -.797E+02 0.863E+03   0.585E-01 0.252E+00 0.746E+01
   0.312E+02 0.315E+01 0.100E+04   -.313E+02 -.309E+01 -.995E+03   0.112E+00 -.414E-01 -.721E+01
   -.315E+01 -.312E+02 0.100E+04   0.309E+01 0.313E+02 -.995E+03   0.414E-01 -.112E+00 -.721E+01
   0.782E+02 -.782E+02 -.793E+03   -.784E+02 0.784E+02 0.786E+03   0.127E+00 -.127E+00 0.689E+01
   -.224E-04 -.242E-03 -.657E+03   0.225E-04 0.543E-04 0.653E+03   0.916E-21 -.921E-21 0.459E+01
   0.144E+02 -.309E+02 0.965E+03   -.145E+02 0.310E+02 -.957E+03   0.445E-01 -.918E-01 -.747E+01
   -.113E+01 -.243E+02 0.948E+03   0.115E+01 0.244E+02 -.940E+03   -.138E-01 -.939E-01 -.752E+01
[...]
   -.799E+01 0.799E+01 0.704E+03   0.801E+01 -.801E+01 -.708E+03   -.270E-01 0.270E-01 0.346E+01
   -.318E+01 0.317E+01 0.701E+03   0.318E+01 -.318E+01 -.705E+03   -.935E-02 0.935E-02 0.346E+01
   -.190E+02 0.134E+02 -.687E+03   0.191E+02 -.135E+02 0.691E+03   -.482E-01 0.317E-01 -.352E+01
   -.123E+02 0.466E+01 -.690E+03   0.123E+02 -.466E+01 0.694E+03   -.256E-01 0.122E-02 -.352E+01
   -.167E+02 0.580E+01 0.712E+03   0.168E+02 -.581E+01 -.716E+03   -.767E-01 0.168E-01 0.347E+01
   -.656E+01 0.562E+01 0.704E+03   0.658E+01 -.564E+01 -.708E+03   -.257E-01 0.148E-01 0.346E+01
   -.309E+02 -.183E+01 -.681E+03   0.310E+02 0.185E+01 0.685E+03   -.560E-01 -.269E-01 -.356E+01
   -.111E+02 -.530E+01 -.690E+03   0.111E+02 0.531E+01 0.694E+03   -.119E-01 -.115E-01 -.353E+01
   -.157E+02 -.671E+01 0.711E+03   0.157E+02 0.673E+01 -.714E+03   -.508E-01 -.339E-01 0.344E+01
   -.883E+01 -.322E+00 0.706E+03   0.885E+01 0.327E+00 -.710E+03   -.273E-01 -.725E-02 0.345E+01
   -.165E+02 -.126E+02 -.688E+03   0.165E+02 0.127E+02 0.692E+03   -.187E-01 -.194E-01 -.354E+01
   -.514E+01 -.639E+01 -.693E+03   0.514E+01 0.639E+01 0.697E+03   -.173E-02 -.599E-02 -.351E+01
   -.737E+01 -.737E+01 0.704E+03   0.738E+01 0.738E+01 -.707E+03   -.160E-01 -.160E-01 0.345E+01
   -.574E+01 -.561E+01 0.703E+03   0.574E+01 0.562E+01 -.707E+03   -.101E-01 -.135E-01 0.346E+01
   -.140E-04 -.110E+00 0.124E+02   0.348E-11 -.155E-11 -.739E-11   -.361E-15 0.572E-16 -.958E+01

 POSITION                                       TOTAL-FORCE (eV/Angst)
     11.47450     11.77823     13.73072        -0.191796      0.191796     -0.062280
      9.66435     13.58839     13.73072         0.191796     -0.191796     -0.062280
      0.00000      0.00000      9.00000        -0.000816      0.001200      0.515421
      2.11389      2.11389      9.00000        -0.001200      0.000816      0.515421
      0.00000      2.11389     11.11389         0.000000      0.000000     -0.479811
      2.11389      0.00000     11.11389        -0.002147      0.002147     -0.479426
      0.00000      4.22777      9.00000         0.000816     -0.001200      0.515421
      2.11389      6.34166      9.00000        -0.001258     -0.002217      0.516066
      0.00000      6.34166     11.11389         0.001999     -0.001397     -0.478949
      2.11389      4.22777     11.11389        -0.000142     -0.000142     -0.479159
      0.00000      8.45554      9.00000         0.001996     -0.002080      0.515939
      2.11389     10.56943      9.00000        -0.005910     -0.003072      0.516988
      0.00000     10.56943     11.11389         0.001849     -0.000937     -0.477273
      2.11389      8.45554     11.11389        -0.000324     -0.001972     -0.476544
      0.00000     12.68331      9.00000         0.000000      0.000000      0.516362
      2.11389     14.79720      9.00000        -0.010226      0.001028      0.516782
      0.00000     14.79720     11.11389        -0.001849      0.000937     -0.477273
      2.11389     12.68331     11.11389        -0.005230     -0.001877     -0.474962
      0.00000     16.91108      9.00000        -0.001996      0.002080      0.515939
      2.11389     19.02497      9.00000        -0.004396      0.003441      0.515408
      0.00000     19.02497     11.11389        -0.001999      0.001397     -0.478949
      2.11389     16.91108     11.11389        -0.006799      0.001855     -0.477469
      4.22777      0.00000      9.00000        -0.003441      0.004396      0.515408
      6.34166      2.11389      9.00000        -0.002080      0.001996      0.515939
      4.22777      2.11389     11.11389        -0.001397      0.001999     -0.478949
      6.34166      0.00000     11.11389        -0.001855      0.006799     -0.477469
      4.22777      4.22777      9.00000        -0.002217     -0.001258      0.516066
      6.34166      6.34166      9.00000        -0.006761     -0.008663      0.518323
      4.22777      6.34166     11.11389        -0.001548     -0.001548     -0.475679
      6.34166      4.22777     11.11389        -0.001972     -0.000324     -0.476544
      4.22777      8.45554      9.00000        -0.008663     -0.006761      0.518323
      6.34166     10.56943      9.00000        -0.038064     -0.021926      0.523682
      4.22777     10.56943     11.11389        -0.006556     -0.005386     -0.466634
      6.34166      8.45554     11.11389        -0.006135     -0.006135     -0.458422
      4.22777     12.68331      9.00000        -0.025616     -0.004253      0.520091
      6.34166     14.79720      9.00000        -0.025857      0.014207      0.501991
      4.22777     14.79720     11.11389        -0.025258     -0.001070     -0.469390
      6.34166     12.68331     11.11389        -0.078345     -0.015318     -0.426557
      4.22777     16.91108      9.00000        -0.013133      0.008046      0.515370
      6.34166     19.02497      9.00000        -0.008046      0.013133      0.515370
      4.22777     19.02497     11.11389        -0.006028      0.006028     -0.477533
      6.34166     16.91108     11.11389        -0.017759      0.017759     -0.467941
      8.45554      0.00000      9.00000        -0.001028      0.010226      0.516782
     10.56943      2.11389      9.00000         0.000000      0.000000      0.516362
      8.45554      2.11389     11.11389        -0.000937      0.001849     -0.477273
     10.56943      0.00000     11.11389         0.001877      0.005230     -0.474962
      8.45554      4.22777      9.00000        -0.003072     -0.005910      0.516988
     10.56943      6.34166      9.00000        -0.004253     -0.025616      0.520091
      8.45554      6.34166     11.11389        -0.005386     -0.006556     -0.466634
     10.56943      4.22777     11.11389        -0.001877     -0.005230     -0.474962
      8.45554      8.45554      9.00000        -0.021926     -0.038064      0.523682
     10.56943     10.56943      9.00000         0.017177     -0.030429      0.419283
      8.45554     10.56943     11.11389        -0.057083     -0.057083     -0.304614
     10.56943      8.45554     11.11389        -0.015318     -0.078345     -0.426557
      8.45554     12.68331      9.00000        -0.030429      0.017177      0.419283
     10.56943     14.79720      9.00000        -0.017177      0.030429      0.419283
      8.45554     14.79720     11.11389        -0.062268      0.062268     -0.474112
     10.56943     12.68331     11.11389         0.000000      0.000000     -0.059377
      8.45554     16.91108      9.00000        -0.014207      0.025857      0.501991
     10.56943     19.02497      9.00000         0.004253      0.025616      0.520091
[...]
     19.02497      6.34166     11.11389        -0.004420      0.003570      0.317383
     16.91108      6.34166      9.00000        -0.007515      0.007515     -0.353569
     19.02497      4.22777      9.00000        -0.002601      0.002601     -0.353417
     16.91108      8.45554     11.11389        -0.013799      0.009114      0.314429
     19.02497     10.56943     11.11389        -0.007246      0.000358      0.314389
     16.91108     10.56943      9.00000        -0.021407      0.004575     -0.351648
     19.02497      8.45554      9.00000        -0.007140      0.004138     -0.353887
     16.91108     12.68331     11.11389        -0.016665     -0.007617      0.305135
     19.02497     14.79720     11.11389        -0.003397     -0.003193      0.313514
     16.91108     14.79720      9.00000        -0.014428     -0.009482     -0.357939
     19.02497     12.68331      9.00000        -0.007612     -0.001997     -0.355121
     16.91108     16.91108     11.11389        -0.005435     -0.005506      0.310004
     19.02497     19.02497     11.11389        -0.000493     -0.001681      0.316654
     16.91108     19.02497      9.00000        -0.004471     -0.004471     -0.355114
     19.02497     16.91108      9.00000        -0.002817     -0.003766     -0.354750
    total drift:                               -0.000014     -0.109657      2.786236

  FREE ENERGIE OF THE ION-ELECTRON SYSTEM (eV)
  free  energy   TOTEN  =     -1595.67433736 eV

  energy  without entropy=    -1595.67433736  energy(sigma->0) =    -1595.67433736