 vasp.6.3.0 20Jan22 (build Apr  1 2022 16:44:48) complex
 executed on        HPECrayEX_GCC date 2023.01.10  06:53:00

 INCAR:
   SYSTEM = MgO-rocksalt
   ISMEAR = 0
   SIGMA = 0.05
   EDIFF = 1E-6
   ALGO = ALL
   ISTART = 0
   IBRION = -1
   NSW = 0
   ISYM = 2
   DIPOL = 0.5 0.5 0.5
   IDIPOL = 3
   LDIPOL = .TRUE.
   LHFCALC = .TRUE.
   GGA = PE
   IVDW = 12
   VDW_S8 = 1.2177
   VDW_A1 = 0.4145
   VDW_A2 = 4.8593
   ENCUT = 520
   PREC = Accurate
   LASPH = .TRUE.
   LREAL = Auto
   ISPIN = 1
   NELM = 200
   NELMIN = 8
   NCORE = 4
   KPAR = 2
   LWAVE = .FALSE.
   LCHARG = .FALSE.

 POTCAR:    PAW_PBE Au 04Oct2007
 POTCAR:    PAW_PBE Mg_pv 13Apr2007
 POTCAR:    PAW_PBE O 08Apr2002
|           W    W    AA    RRRRR   N    N  II  N    N   GGGG   !!!           |
|           W    W   A  A   R    R  NN   N  II  NN   N  G    G  !!!           |
|           W    W  A    A  R    R  N N  N  II  N N  N  G       !!!           |
|           W WW W  AAAAAA  RRRRR   N  N N  II  N  N N  G  GGG   !            |
|           WW  WW  A    A  R   R   N   NN  II  N   NN  G    G                |
|           W    W  A    A  R    R  N    N  II  N    N   GGGG   !!!           |
|     You have selected ISYM=2 for a HF type calculation. This will           |
|     symmetrize the charge density but not the exchange potential. I         |
|     suggest to use ISYM=3 instead. This uses symmetry to obtain the         |
|     orbitals at all k-points in the Brillouin zone, but does not apply      |
|     symmetry to the Hartree potential directly. The resultant charge        |
|     might have lower symmetry than the crystal but, at least, Hartree       |
|     and exchange are fully compatible.                                      |

   TITEL  = PAW_PBE Au 04Oct2007
   POMASS =  196.966; ZVAL   =   11.000    mass and valenz
   ENMAX  =  229.943; ENMIN  =  172.457 eV

   TITEL  = PAW_PBE Mg_pv 13Apr2007
   POMASS =   24.305; ZVAL   =    8.000    mass and valenz
   ENMAX  =  403.929; ENMIN  =  302.947 eV

   TITEL  = PAW_PBE O 08Apr2002
   POMASS =   16.000; ZVAL   =    6.000    mass and valenz
   ENMAX  =  400.000; ENMIN  =  300.000 eV

 Optimization of the real space projectors (new method)

 maximal supplied QI-value         = 15.12
 optimisation between [QCUT,QGAM] = [ 11.64, 23.28] = [ 37.95,151.78] Ry
 Optimized for a Real-space Cutoff    1.49 Angstroem

   l    n(q)    QCUT    max X(q) W(low)/X(q) W(high)/X(q)  e(spline)
   2      9    11.641    60.898    0.24E-03    0.10E-03    0.19E-06
   2      9    11.641    58.894    0.25E-03    0.10E-03    0.19E-06
   0     10    11.641   109.617    0.73E-04    0.33E-04    0.11E-06
   0     10    11.641    75.026    0.71E-04    0.32E-04    0.11E-06
   1     10    11.641    16.344    0.27E-04    0.97E-04    0.16E-06
   1     10    11.641    10.160    0.23E-04    0.77E-04    0.13E-06
 Optimization of the real space projectors (new method)

[...]

   l    n(q)    QCUT    max X(q) W(low)/X(q) W(high)/X(q)  e(spline)
   1      8    11.527     2.974    0.44E-04    0.56E-04    0.12E-06
   1      8    11.527     4.279    0.12E-03    0.12E-03    0.26E-06
   0      9    11.527    16.381    0.46E-04    0.64E-04    0.78E-07
   0      9    11.527     5.611    0.26E-04    0.43E-04    0.55E-07
   2      8    11.527     4.652    0.22E-03    0.72E-04    0.47E-07
 Optimization of the real space projectors (new method)

 maximal supplied QI-value         = 24.76
 optimisation between [QCUT,QGAM] = [ 11.64, 23.27] = [ 37.91,151.63] Ry
 Optimized for a Real-space Cutoff    1.14 Angstroem

   l    n(q)    QCUT    max X(q) W(low)/X(q) W(high)/X(q)  e(spline)
   0      8    11.635    20.381    0.10E-03    0.33E-03    0.24E-06
   0      8    11.635    15.268    0.11E-03    0.35E-03    0.26E-06
   1      7    11.635     5.964    0.24E-03    0.31E-03    0.30E-06
   1      7    11.635     5.382    0.22E-03    0.25E-03    0.26E-06
  PAW_PBE Au 04Oct2007                  :
  PAW_PBE Mg_pv 13Apr2007               :
  PAW_PBE O 08Apr2002                   :

 POSCAR: Au Mg  O
  positions in direct lattice
  velocities in cartesian coordinates
 exchange correlation table for  LEXCH =        8
   RHO(1)=    0.500       N(1)  =     2000
   RHO(2)=  100.500       N(2)  =     4000

 ion  position               nearest neighbor table
   1  0.400  0.565  0.604- 157 2.36   3 2.61  55 2.63   4 2.77
   2  0.400  0.500  0.818-   3 2.52
   3  0.400  0.500  0.704-   2 2.52   4 2.61   1 2.61
   4  0.400  0.434  0.604- 153 2.35   3 2.61  55 2.64   1 2.77
   5  0.000  0.000  0.407- 107 2.11 108 2.11 123 2.11 188 2.11 105 2.11
   6  0.100  0.100  0.407- 107 2.11 108 2.11 112 2.11 127 2.11 106 2.11
   7  0.000  0.100  0.503- 105 2.11 106 2.11 109 2.11 186 2.11 107 2.11
   8  0.100  0.000  0.503- 105 2.11 106 2.11 122 2.11 125 2.11 108 2.11
   9  0.000  0.200  0.407- 111 2.11 107 2.11 112 2.11 192 2.11 109 2.11
  10  0.100  0.300  0.407- 112 2.11 111 2.11 116 2.11 131 2.11 110 2.11
  11  0.000  0.300  0.503- 109 2.11 110 2.11 113 2.11 190 2.11 111 2.11
  12  0.100  0.200  0.503- 110 2.11 109 2.11 106 2.11 129 2.11 112 2.11
  13  0.000  0.400  0.407- 111 2.11 115 2.11 116 2.11 196 2.11 113 2.11
  14  0.100  0.500  0.407- 115 2.11 116 2.11 120 2.11 135 2.11 114 2.11
  15  0.000  0.500  0.503- 113 2.11 114 2.11 117 2.11 194 2.11 115 2.11
  16  0.100  0.400  0.503- 110 2.11 113 2.11 114 2.11 133 2.11 116 2.11
  17  0.000  0.600  0.407- 115 2.11 119 2.11 120 2.11 200 2.11 117 2.11
  18  0.100  0.700  0.407- 124 2.11 120 2.11 119 2.11 139 2.11 118 2.11
  19  0.000  0.700  0.503- 121 2.11 118 2.11 117 2.11 198 2.11 119 2.11
  20  0.100  0.600  0.503- 114 2.11 117 2.11 118 2.11 137 2.11 120 2.11
  21  0.000  0.800  0.407- 119 2.11 123 2.11 124 2.11 204 2.11 121 2.11
  22  0.100  0.900  0.407- 108 2.11 123 2.11 124 2.11 143 2.11 122 2.11
  23  0.000  0.900  0.503- 105 2.11 121 2.11 122 2.11 202 2.11 123 2.11
  24  0.100  0.800  0.503- 118 2.11 121 2.11 122 2.11 141 2.11 124 2.11
  25  0.200  0.000  0.407- 128 2.11 127 2.11 108 2.11 143 2.11 125 2.11
  26  0.300  0.100  0.407- 127 2.11 128 2.11 132 2.11 147 2.11 126 2.11
  27  0.200  0.100  0.503- 126 2.11 125 2.11 106 2.11 129 2.11 127 2.11
  28  0.300  0.000  0.503- 125 2.11 126 2.11 142 2.11 145 2.11 128 2.11
  29  0.200  0.200  0.407- 131 2.11 132 2.11 112 2.11 127 2.11 129 2.11
  30  0.300  0.300  0.407- 131 2.11 132 2.11 136 2.11 151 2.11 130 2.11
  31  0.200  0.300  0.503- 129 2.11 130 2.11 110 2.11 133 2.11 131 2.11
  32  0.300  0.200  0.503- 129 2.11 130 2.11 126 2.11 149 2.11 132 2.11
  33  0.200  0.400  0.407- 136 2.11 131 2.11 135 2.11 116 2.11 133 2.11
  34  0.300  0.500  0.407- 135 2.11 136 2.11 140 2.11 155 2.11 134 2.11
  35  0.200  0.500  0.503- 134 2.11 133 2.11 114 2.11 137 2.11 135 2.11
  36  0.300  0.400  0.503- 133 2.11 130 2.11 134 2.11 153 2.11 136 2.11
  37  0.200  0.600  0.407- 140 2.11 135 2.11 139 2.11 120 2.11 137 2.11
  38  0.300  0.700  0.407- 139 2.11 144 2.11 140 2.11 159 2.11 138 2.11
  39  0.200  0.700  0.503- 138 2.11 141 2.11 118 2.11 137 2.11 139 2.11
  40  0.300  0.600  0.503- 137 2.11 134 2.11 138 2.11 157 2.11 140 2.11
  41  0.200  0.800  0.407- 139 2.11 144 2.11 143 2.11 124 2.11 141 2.11
  42  0.300  0.900  0.407- 143 2.11 128 2.11 144 2.11 163 2.11 142 2.11
  43  0.200  0.900  0.503- 142 2.11 125 2.11 141 2.11 122 2.11 143 2.11
  44  0.300  0.800  0.503- 138 2.11 141 2.11 142 2.11 161 2.11 144 2.11
  45  0.400  0.000  0.407- 128 2.11 147 2.11 148 2.11 163 2.11 145 2.11
  46  0.500  0.100  0.407- 147 2.11 148 2.11 152 2.11 167 2.11 146 2.11
  47  0.400  0.100  0.503- 126 2.11 145 2.11 146 2.11 149 2.11 147 2.11
  48  0.500  0.000  0.503- 145 2.11 146 2.11 162 2.11 165 2.11 148 2.11
  49  0.400  0.200  0.407- 151 2.11 147 2.11 132 2.11 152 2.11 149 2.11
  50  0.500  0.300  0.407- 152 2.11 151 2.11 156 2.11 171 2.11 150 2.11
  51  0.400  0.300  0.503- 149 2.11 130 2.11 150 2.11 153 2.11 151 2.11
  52  0.500  0.200  0.503- 150 2.11 149 2.11 146 2.11 169 2.11 152 2.11
  53  0.400  0.400  0.407- 136 2.11 151 2.11 155 2.11 156 2.11 153 2.11
  54  0.500  0.500  0.407- 155 2.11 156 2.11 160 2.11 175 2.11 154 2.11
  55  0.400  0.500  0.503- 134 2.11 153 2.11 154 2.11 157 2.11 155 2.11   1 2.63   4 2.64
  56  0.500  0.400  0.503- 150 2.11 153 2.11 154 2.11 173 2.11 156 2.11
  57  0.400  0.600  0.407- 140 2.11 155 2.11 159 2.11 160 2.11 157 2.11
  58  0.500  0.700  0.407- 164 2.11 160 2.11 159 2.11 179 2.11 158 2.11
  59  0.400  0.700  0.503- 161 2.11 157 2.11 158 2.11 138 2.11 159 2.11
  60  0.500  0.600  0.503- 154 2.11 157 2.11 158 2.11 177 2.11 160 2.11
[...]
 190  0.900  0.300  0.503-  92 2.11  91 2.11  11 2.11  96 2.11  90 2.11
 191  0.800  0.300  0.407-  70 2.11  89 2.11  90 2.11  93 2.11  91 2.11
 192  0.900  0.200  0.407-  90 2.11  86 2.11  89 2.11   9 2.11  92 2.11
 193  0.800  0.400  0.503-  76 2.11  91 2.11  95 2.11  96 2.11  93 2.11
 194  0.900  0.500  0.503-  15 2.11  95 2.11  96 2.11 100 2.11  94 2.11
 195  0.800  0.500  0.407-  74 2.11  93 2.11  94 2.11  97 2.11  95 2.11
 196  0.900  0.400  0.407-  13 2.11  90 2.11  93 2.11  94 2.11  96 2.11
 197  0.800  0.600  0.503-  80 2.11  95 2.11  99 2.11 100 2.11  97 2.11
 198  0.900  0.700  0.503- 104 2.11  99 2.11 100 2.11  19 2.11  98 2.11
 199  0.800  0.700  0.407-  78 2.11 101 2.11  98 2.11  97 2.11  99 2.11
 200  0.900  0.600  0.407-  17 2.11  94 2.11  97 2.11  98 2.11 100 2.11
 201  0.800  0.800  0.503-  84 2.11  99 2.11 103 2.11 104 2.11 101 2.11
 202  0.900  0.900  0.503-  23 2.11  88 2.11 103 2.11 104 2.11 102 2.11
 203  0.800  0.900  0.407-  82 2.11  85 2.11 101 2.11 102 2.11 103 2.11
 204  0.900  0.800  0.407-  98 2.11  21 2.11 101 2.11 102 2.11 104 2.11

  LATTYP: Found a simple tetragonal cell.
 ALAT       =    21.1388521970
 C/A-ratio  =     1.0461251639

  Lattice vectors:

 A1 = (  21.1388521970,   0.0000000000,   0.0000000000)
 A2 = (   0.0000000000,  21.1388521970,   0.0000000000)
 A3 = (   0.0000000000,   0.0000000000,  22.1138852197)

Analysis of symmetry for initial positions (statically):
 Subroutine PRICEL returns:
 Original cell was already a primitive cell.

 Routine SETGRP: Setting up the symmetry group for a
 simple tetragonal supercell.

 Subroutine GETGRP returns: Found  1 space group operations
 (whereof  1 operations were pure point group operations)
 out of a pool of 16 trial point group operations.

The static configuration has the point symmetry C_1 .

Analysis of symmetry for dynamics (positions and initial velocities):
 Subroutine PRICEL returns:
 Original cell was already a primitive cell.

[...]

The dynamic configuration has the point symmetry C_1 .

Analysis of constrained symmetry for selective dynamics:
 Subroutine PRICEL returns:
 Original cell was already a primitive cell.

 Routine SETGRP: Setting up the symmetry group for a
 simple tetragonal supercell.

 Subroutine GETGRP returns: Found  1 space group operations
 (whereof  1 operations were pure point group operations)
 out of a pool of 16 trial point group operations.

The constrained configuration has the point symmetry C_1 .

 Subroutine INISYM returns: Found  1 space group operations
 (whereof  1 operations are pure point group operations),
 and found     1 'primitive' translations

[...]
[...]
   1010       7.2784      0.00000
   1011       7.5185      0.00000
   1012       7.5265      0.00000
   1013       7.5392      0.00000
   1014       7.6037      0.00000
   1015       7.6778      0.00000
   1016       7.7050      0.00000
   1017       7.8586      0.00000
   1018       7.8884      0.00000
   1019       7.9151      0.00000
   1020       7.9375      0.00000
   1021       8.0289      0.00000
   1022       8.1384      0.00000
   1023       8.1883      0.00000
   1024       8.2857      0.00000

 soft charge-density along one line, spin component           1
         0         1         2         3         4         5         6         7         8         9
 total charge-density along one line

------------------------ aborting loop because EDIFF is reached ----------------------------------------

|           W    W    AA    RRRRR   N    N  II  N    N   GGGG   !!!           |
|           W    W   A  A   R    R  NN   N  II  NN   N  G    G  !!!           |
|           W    W  A    A  R    R  N N  N  II  N N  N  G       !!!           |
|           W WW W  AAAAAA  RRRRR   N  N N  II  N  N N  G  GGG   !            |
|           WW  WW  A    A  R   R   N   NN  II  N   NN  G    G                |
|           W    W  A    A  R    R  N    N  II  N    N   GGGG   !!!           |
|     Specifying the vdW parameters                                           |
|     VDW_A1 = 0.414                                                          |
|     VDW_A2 = 4.859                                                          |
|     VDW_S8 = 1.218                                                          |
|     in the INCAR file will overwrite the defaults for pbe0. Please make     |
|     sure that is what you intended.                                         |

         DFTD3 V3.0 Rev 1
 IVDW         = 12
 DF pbe0
 parameters
 VDW_S6       =    1.0000
 VDW_S8       =    1.2177
 VDW_A1       =    0.4145
 VDW_A2       =    4.8593
 k1-k3        =   16.0000    1.3333   -4.0000
 VDW_RADIUS   =   50.2022 A
 VDW_CNRADIUS =   21.1671 A
 Edisp (eV)  -33.04072

 E6    (eV) :   -16.3124
 E8    (eV) :   -16.7283
 % E8        : 50.63

 VOLUME and BASIS-vectors are now :
  energy-cutoff  :      520.00
  volume of cell :     9881.61
      direct lattice vectors                 reciprocal lattice vectors
    21.138852197  0.000000000  0.000000000     0.047306258  0.000000000  0.000000000
     0.000000000 21.138852197  0.000000000     0.000000000  0.047306258  0.000000000
     0.000000000  0.000000000 22.113885220     0.000000000  0.000000000  0.045220457

  length of vectors
    21.138852197 21.138852197 22.113885220     0.047306258  0.047306258  0.045220457

 FORCES acting on ions:
    Electron-Ion                     Ewald-Force                    Non-Local-Force
   -.145E+00 -.385E+03 -.190E+04   0.143E+00 0.380E+03 0.191E+04   0.317E-02 0.453E+01 -.295E+01
   0.316E-01 -.107E+00 -.126E+04   -.320E-01 0.987E-01 0.126E+04   0.484E-03 0.694E-02 0.760E+01
   0.161E+00 0.645E+00 -.172E+04   -.160E+00 -.643E+00 0.172E+04   -.111E-02 0.214E-02 0.198E+01
   -.295E-01 0.384E+03 -.190E+04   0.285E-01 -.379E+03 0.191E+04   0.209E-02 -.449E+01 -.294E+01
   0.633E+01 0.232E-01 0.936E+03   -.637E+01 -.232E-01 -.927E+03   0.264E-01 0.471E-04 -.714E+01
   0.124E+02 0.940E+01 0.939E+03   -.125E+02 -.943E+01 -.930E+03   0.582E-01 0.240E-01 -.714E+01
   0.906E+01 0.847E+01 -.918E+03   -.910E+01 -.848E+01 0.910E+03   0.300E-01 0.409E-02 0.701E+01
   0.132E+02 0.415E-01 -.917E+03   -.133E+02 -.416E-01 0.909E+03   0.418E-01 0.759E-04 0.701E+01
   0.979E+01 0.114E+02 0.939E+03   -.986E+01 -.114E+02 -.930E+03   0.468E-01 0.123E-01 -.715E+01
   0.257E+02 0.183E+02 0.950E+03   -.259E+02 -.184E+02 -.941E+03   0.153E+00 0.312E-01 -.717E+01
   0.189E+02 0.157E+02 -.913E+03   -.189E+02 -.157E+02 0.904E+03   0.516E-01 0.185E-02 0.700E+01
   0.243E+02 0.227E+02 -.911E+03   -.244E+02 -.227E+02 0.903E+03   0.966E-01 0.198E-01 0.700E+01
   0.170E+02 0.780E+01 0.945E+03   -.172E+02 -.781E+01 -.936E+03   0.747E-01 0.551E-02 -.716E+01
   0.374E+02 -.459E-01 0.960E+03   -.377E+02 0.461E-01 -.951E+03   0.190E+00 -.140E-03 -.718E+01
   0.272E+02 -.373E-01 -.908E+03   -.272E+02 0.374E-01 0.900E+03   0.530E-01 -.244E-04 0.700E+01
   0.539E+02 0.187E+02 -.896E+03   -.541E+02 -.187E+02 0.887E+03   0.144E+00 0.771E-03 0.698E+01
   0.170E+02 -.784E+01 0.945E+03   -.171E+02 0.785E+01 -.936E+03   0.746E-01 -.559E-02 -.716E+01
   0.256E+02 -.184E+02 0.950E+03   -.258E+02 0.184E+02 -.941E+03   0.153E+00 -.313E-01 -.717E+01
   0.188E+02 -.157E+02 -.913E+03   -.189E+02 0.157E+02 0.904E+03   0.515E-01 -.187E-02 0.700E+01
   0.538E+02 -.188E+02 -.896E+03   -.541E+02 0.188E+02 0.887E+03   0.144E+00 -.881E-03 0.698E+01
   0.977E+01 -.114E+02 0.939E+03   -.984E+01 0.114E+02 -.930E+03   0.467E-01 -.123E-01 -.715E+01
   0.124E+02 -.934E+01 0.939E+03   -.125E+02 0.938E+01 -.930E+03   0.581E-01 -.238E-01 -.714E+01
   0.904E+01 -.842E+01 -.918E+03   -.909E+01 0.843E+01 0.910E+03   0.299E-01 -.405E-02 0.701E+01
   0.242E+02 -.226E+02 -.911E+03   -.243E+02 0.227E+02 0.903E+03   0.963E-01 -.197E-01 0.700E+01
   0.113E+02 0.446E-01 0.940E+03   -.114E+02 -.449E-01 -.932E+03   0.492E-01 0.185E-03 -.715E+01
   0.896E+01 0.176E+02 0.947E+03   -.903E+01 -.178E+02 -.938E+03   0.456E-01 0.111E+00 -.715E+01
   0.178E+02 0.190E+02 -.912E+03   -.179E+02 -.191E+02 0.904E+03   0.610E-01 0.580E-01 0.701E+01
   0.934E+01 0.817E-01 -.912E+03   -.939E+01 -.820E-01 0.904E+03   0.297E-01 0.207E-03 0.701E+01
   0.205E+02 0.249E+02 0.951E+03   -.207E+02 -.251E+02 -.942E+03   0.133E+00 0.102E+00 -.715E+01
   0.263E+02 0.455E+02 0.986E+03   -.267E+02 -.460E+02 -.977E+03   0.287E+00 0.290E+00 -.706E+01
   0.564E+02 0.507E+02 -.884E+03   -.569E+02 -.507E+02 0.876E+03   0.346E+00 0.347E-01 0.698E+01
   0.238E+02 0.576E+02 -.892E+03   -.239E+02 -.580E+02 0.884E+03   0.942E-01 0.303E+00 0.700E+01
   0.468E+02 0.217E+02 0.982E+03   -.474E+02 -.217E+02 -.973E+03   0.425E+00 0.468E-01 -.724E+01
   0.496E+02 -.146E+00 0.104E+04   -.504E+02 0.149E+00 -.103E+04   0.467E+00 -.172E-02 -.725E+01
   0.110E+03 -.160E+00 -.847E+03   -.111E+03 0.160E+00 0.839E+03   0.301E+00 -.136E-03 0.692E+01
   0.128E+03 0.923E+02 -.760E+03   -.131E+03 -.922E+02 0.752E+03   0.177E+01 -.302E-01 0.673E+01
   0.467E+02 -.218E+02 0.981E+03   -.474E+02 0.218E+02 -.973E+03   0.423E+00 -.474E-01 -.724E+01
   0.262E+02 -.455E+02 0.986E+03   -.266E+02 0.460E+02 -.977E+03   0.286E+00 -.289E+00 -.706E+01
   0.562E+02 -.507E+02 -.885E+03   -.567E+02 0.507E+02 0.876E+03   0.344E+00 -.349E-01 0.698E+01
   0.128E+03 -.927E+02 -.761E+03   -.130E+03 0.926E+02 0.753E+03   0.176E+01 0.285E-01 0.673E+01
   0.204E+02 -.249E+02 0.951E+03   -.206E+02 0.250E+02 -.942E+03   0.132E+00 -.102E+00 -.715E+01
   0.894E+01 -.175E+02 0.947E+03   -.901E+01 0.176E+02 -.938E+03   0.455E-01 -.110E+00 -.715E+01
   0.177E+02 -.189E+02 -.912E+03   -.178E+02 0.190E+02 0.904E+03   0.609E-01 -.576E-01 0.701E+01
   0.236E+02 -.573E+02 -.892E+03   -.238E+02 0.578E+02 0.884E+03   0.939E-01 -.302E+00 0.700E+01
   -.638E-02 0.626E-01 0.944E+03   0.633E-02 -.631E-01 -.935E+03   0.332E-04 0.314E-03 -.715E+01
   -.898E+01 0.176E+02 0.947E+03   0.904E+01 -.178E+02 -.938E+03   -.455E-01 0.111E+00 -.715E+01
   -.111E-01 0.296E+02 -.906E+03   0.110E-01 -.298E+02 0.898E+03   0.469E-04 0.138E+00 0.701E+01
   -.936E+01 0.812E-01 -.912E+03   0.940E+01 -.815E-01 0.904E+03   -.297E-01 0.207E-03 0.701E+01
   -.134E-01 0.391E+02 0.964E+03   0.133E-01 -.396E+02 -.955E+03   0.581E-04 0.381E+00 -.718E+01
   -.263E+02 0.455E+02 0.986E+03   0.268E+02 -.460E+02 -.977E+03   -.287E+00 0.290E+00 -.706E+01
   -.632E-01 0.130E+03 -.821E+03   0.629E-01 -.132E+03 0.812E+03   0.184E-03 0.174E+01 0.713E+01
   -.238E+02 0.575E+02 -.892E+03   0.239E+02 -.580E+02 0.884E+03   -.940E-01 0.303E+00 0.700E+01
   -.417E-01 0.441E+02 0.104E+04   0.411E-01 -.444E+02 -.104E+04   0.408E-03 0.219E+00 -.507E+01
   -.497E+02 -.143E+00 0.104E+04   0.504E+02 0.146E+00 -.103E+04   -.466E+00 -.176E-02 -.725E+01
   -.224E+00 -.540E+00 -.532E+03   0.224E+00 0.562E+00 0.527E+03   0.917E-03 -.182E-01 0.327E+01
   -.128E+03 0.922E+02 -.760E+03   0.131E+03 -.921E+02 0.752E+03   -.177E+01 -.298E-01 0.673E+01
   -.384E-01 -.443E+02 0.104E+04   0.379E-01 0.446E+02 -.104E+04   0.300E-03 -.220E+00 -.508E+01
   -.262E+02 -.455E+02 0.986E+03   0.267E+02 0.459E+02 -.977E+03   -.285E+00 -.289E+00 -.706E+01
   -.542E-01 -.129E+03 -.821E+03   0.540E-01 0.132E+03 0.813E+03   0.185E-03 -.173E+01 0.713E+01
   -.128E+03 -.926E+02 -.761E+03   0.130E+03 0.925E+02 0.753E+03   -.176E+01 0.282E-01 0.673E+01
[...]
   -.101E+02 0.905E+01 0.708E+03   0.102E+02 -.906E+01 -.712E+03   -.559E-01 0.138E-01 0.302E+01
   0.617E-02 0.733E+01 0.704E+03   -.613E-02 -.734E+01 -.708E+03   -.518E-04 0.922E-02 0.303E+01
   -.185E+02 0.775E+01 -.683E+03   0.185E+02 -.775E+01 0.687E+03   -.521E-01 0.348E-03 -.325E+01
   0.157E-01 -.216E-01 -.685E+03   -.156E-01 0.217E-01 0.689E+03   -.106E-03 -.241E-04 -.324E+01
   -.139E+02 -.208E-01 0.711E+03   0.140E+02 0.209E-01 -.715E+03   -.654E-01 -.694E-04 0.301E+01
   0.102E-01 0.484E+01 0.707E+03   -.101E-01 -.484E+01 -.711E+03   -.843E-04 0.367E-02 0.302E+01
   -.185E+02 -.779E+01 -.683E+03   0.185E+02 0.779E+01 0.687E+03   -.520E-01 -.415E-03 -.325E+01
   0.110E-01 -.949E+01 -.688E+03   -.110E-01 0.949E+01 0.692E+03   -.799E-04 -.190E-02 -.323E+01
   -.101E+02 -.905E+01 0.708E+03   0.102E+02 0.907E+01 -.712E+03   -.558E-01 -.138E-01 0.302E+01
   0.100E-01 -.487E+01 0.707E+03   -.994E-02 0.487E+01 -.711E+03   -.842E-04 -.374E-02 0.302E+01
   -.969E+01 -.109E+02 -.688E+03   0.972E+01 0.109E+02 0.692E+03   -.393E-01 -.982E-02 -.323E+01
   0.564E-02 -.534E+01 -.691E+03   -.560E-02 0.535E+01 0.695E+03   -.423E-04 -.365E-02 -.321E+01
   -.541E+01 -.504E+01 0.703E+03   0.543E+01 0.505E+01 -.707E+03   -.331E-01 -.111E-01 0.303E+01
   0.595E-02 -.732E+01 0.704E+03   -.591E-02 0.733E+01 -.708E+03   -.522E-04 -.919E-02 0.303E+01
   0.642E-02 -.425E-01 0.421E+01   0.152E-11 0.136E-11 0.200E-10   -.413E-02 0.378E-01 -.359E+01

 POSITION                                       TOTAL-FORCE (eV/Angst)
      8.45440     11.94847     13.35506         0.000827     -0.105988     -0.142698
      8.45328     10.56231     18.09008        -0.000024     -0.001082      0.118571
      8.45334     10.56083     15.56737         0.000369      0.003324     -0.093517
      8.45399      9.17859     13.35199         0.001270      0.117154     -0.144424
      0.00000      0.00000      9.00000        -0.008470     -0.000010      0.622315
      2.11389      2.11389      9.00000        -0.018743     -0.007776      0.622094
      0.00000      2.11389     11.11389        -0.009350     -0.001252     -0.566865
      2.11389      0.00000     11.11389        -0.013404     -0.000015     -0.565638
      0.00000      4.22777      9.00000        -0.014558     -0.003956      0.623545
      2.11389      6.34166      9.00000        -0.046726     -0.009792      0.627213
      0.00000      6.34166     11.11389        -0.015106     -0.000154     -0.560060
      2.11389      4.22777     11.11389        -0.029219     -0.005891     -0.558738
      0.00000      8.45554      9.00000        -0.022762     -0.001581      0.626409
      2.11389     10.56943      9.00000        -0.058433      0.000048      0.632336
      0.00000     10.56943     11.11389        -0.014676      0.000010     -0.554499
      2.11389      8.45554     11.11389        -0.037989      0.001608     -0.539180
      0.00000     12.68331      9.00000        -0.022724      0.001617      0.626390
      2.11389     14.79720      9.00000        -0.046562      0.009822      0.627251
      0.00000     14.79720     11.11389        -0.015076      0.000174     -0.560105
      2.11389     12.68331     11.11389        -0.037956     -0.001564     -0.539251
      0.00000     16.91108      9.00000        -0.014514      0.003958      0.623543
      2.11389     19.02497      9.00000        -0.018703      0.007728      0.622086
      0.00000     19.02497     11.11389        -0.009331      0.001248     -0.566883
      2.11389     16.91108     11.11389        -0.029132      0.005896     -0.558810
      4.22777      0.00000      9.00000        -0.016094     -0.000052      0.622166
      6.34166      2.11389      9.00000        -0.015286     -0.033922      0.622592
      4.22777      2.11389     11.11389        -0.019607     -0.017228     -0.560306
      6.34166      0.00000     11.11389        -0.009739     -0.000050     -0.560893
      4.22777      4.22777      9.00000        -0.043294     -0.033441      0.619364
      6.34166      6.34166      9.00000        -0.104071     -0.101820      0.581291
      4.22777      6.34166     11.11389        -0.097157     -0.004547     -0.528219
      6.34166      4.22777     11.11389        -0.030060     -0.086606     -0.543437
      4.22777      8.45554      9.00000        -0.123617     -0.012068      0.643682
      6.34166     10.56943      9.00000        -0.167421      0.000650      0.616850
      4.22777     10.56943     11.11389        -0.067877      0.000013     -0.469218
      6.34166      8.45554     11.11389        -0.669669      0.035291     -0.476276
      4.22777     12.68331      9.00000        -0.123150      0.012281      0.643696
      6.34166     14.79720      9.00000        -0.103627      0.101452      0.581557
      4.22777     14.79720     11.11389        -0.096719      0.004671     -0.528465
      6.34166     12.68331     11.11389        -0.663574     -0.035007     -0.476091
      4.22777     16.91108      9.00000        -0.043134      0.033316      0.619388
      6.34166     19.02497      9.00000        -0.015246      0.033719      0.622581
      4.22777     19.02497     11.11389        -0.019571      0.017135     -0.560346
      6.34166     16.91108     11.11389        -0.030028      0.086202     -0.543717
      8.45554      0.00000      9.00000        -0.000010     -0.000093      0.622974
     10.56943      2.11389      9.00000         0.015255     -0.033929      0.622592
      8.45554      2.11389     11.11389        -0.000019     -0.039522     -0.556113
     10.56943      0.00000     11.11389         0.009713     -0.000052     -0.560901
      8.45554      4.22777      9.00000        -0.000020     -0.111626      0.623749
     10.56943      6.34166      9.00000         0.104008     -0.101878      0.581244
      8.45554      6.34166     11.11389        -0.000072     -0.608056     -0.569281
     10.56943      4.22777     11.11389         0.030012     -0.086644     -0.543455
      8.45554      8.45554      9.00000        -0.000164     -0.044180      0.090037
     10.56943     10.56943      9.00000         0.167333      0.000665      0.616810
      8.45554     10.56943     11.11389         0.000602      0.001177     -1.151850
     10.56943      8.45554     11.11389         0.668944      0.035403     -0.475979
      8.45554     12.68331      9.00000        -0.000129      0.044290      0.093713
     10.56943     14.79720      9.00000         0.103575      0.101507      0.581505
      8.45554     14.79720     11.11389        -0.000077      0.603208     -0.568750
     10.56943     12.68331     11.11389         0.662977     -0.035083     -0.475997
[...]
     19.02497      6.34166     11.11389        -0.000030      0.000673      0.374052
     16.91108      6.34166      9.00000        -0.018565      0.004591     -0.436592
     19.02497      4.22777      9.00000        -0.000024      0.003081     -0.435253
     16.91108      8.45554     11.11389        -0.017495      0.000177      0.366908
     19.02497     10.56943     11.11389        -0.000038     -0.000002      0.370332
     16.91108     10.56943      9.00000        -0.021707     -0.000017     -0.438665
     19.02497      8.45554      9.00000        -0.000032      0.001239     -0.436945
     16.91108     12.68331     11.11389        -0.017474     -0.000191      0.366934
     19.02497     14.79720     11.11389        -0.000031     -0.000664      0.374077
     16.91108     14.79720      9.00000        -0.018529     -0.004584     -0.436583
     19.02497     12.68331      9.00000        -0.000031     -0.001250     -0.436940
     16.91108     16.91108     11.11389        -0.013091     -0.003298      0.375387
     19.02497     19.02497     11.11389        -0.000018     -0.001221      0.379256
     16.91108     19.02497      9.00000        -0.010987     -0.003664     -0.434677
     19.02497     16.91108      9.00000        -0.000019     -0.003061     -0.435246
    total drift:                                0.000711     -0.001171     -0.544740

  FREE ENERGIE OF THE ION-ELECTRON SYSTEM (eV)
  free  energy   TOTEN  =     -1462.10793822 eV

  energy  without entropy=    -1462.10793822  energy(sigma->0) =    -1462.10793822