 vasp.6.4.0 14Feb23 (build Dec 05 2023 14:15:48) complex

 executed on             LinuxIFC date 2023.12.07  18:21:52

 INCAR:
   SYSTEM = MgO-rocksalt
   ISMEAR = 0
   SIGMA = 0.05
   EDIFF = 1E-4
   ALGO = ALL
   ISTART = 0
   IBRION = -1
   NSW = 0
   ISYM = 3
   DIPOL = 0.5 0.5 0.5
   IDIPOL = 3
   LDIPOL = .TRUE.
   LHFCALC = .TRUE.
   GGA = B5
   AEXX = 0.2
   AGGAX = 0.72
   AGGAC = 0.81
   ALDAC = 0.19
   IVDW = 13
   VDW_S8 = 2.0293
   VDW_A1 = 0.4087
   VDW_A2 = 4.5381
   ENCUT = 520
   PREC = Normal
   LASPH = .TRUE.
   LREAL = Auto
   ISPIN = 1
   NELM = 2000
   NELMIN = 8
   NCORE = 32
   LWAVE = .FALSE.
   LCHARG = .FALSE.

 POTCAR:    PAW_PBE Cu 22Jun2005
 POTCAR:    PAW_PBE Mg_pv 13Apr2007
 POTCAR:    PAW_PBE O 08Apr2002
 POTCAR:    PAW_PBE Cu 22Jun2005
   VRHFIN =Cu: d10 p1

   TITEL  = PAW_PBE Cu 22Jun2005
   POMASS =   63.546; ZVAL   =   11.000    mass and valenz
   ENMAX  =  295.446; ENMIN  =  221.585 eV

   TITEL  = PAW_PBE Mg_pv 13Apr2007
   POMASS =   24.305; ZVAL   =    8.000    mass and valenz
   ENMAX  =  403.929; ENMIN  =  302.947 eV

   TITEL  = PAW_PBE O 08Apr2002
   POMASS =   16.000; ZVAL   =    6.000    mass and valenz
   ENMAX  =  400.000; ENMIN  =  300.000 eV

 Optimization of the real space projectors (new method)

 maximal supplied QI-value         = 16.25
 optimisation between [QCUT,QGAM] = [ 11.54, 23.24] = [ 37.28,151.24] Ry
 Optimized for a Real-space Cutoff    1.49 Angstroem

   l    n(q)    QCUT    max X(q) W(low)/X(q) W(high)/X(q)  e(spline)
   2      9    11.539     4.610    0.25E-03    0.13E-03    0.22E-06
   2      9    11.539     8.522    0.41E-03    0.21E-03    0.31E-06
   0     10    11.539    51.609    0.73E-04    0.38E-04    0.12E-06
   0     10    11.539    27.747    0.69E-04    0.36E-04    0.11E-06
   1     10    11.539    20.408    0.24E-04    0.93E-04    0.21E-06
   1     10    11.539    13.425    0.21E-04    0.81E-04    0.19E-06
 Optimization of the real space projectors (new method)

[...]

   l    n(q)    QCUT    max X(q) W(low)/X(q) W(high)/X(q)  e(spline)
   1      8    11.527     2.974    0.16E-03    0.13E-03    0.98E-07
   1      8    11.527     4.279    0.42E-03    0.30E-03    0.22E-06
   0      8    11.527    16.381    0.13E-03    0.20E-03    0.72E-07
   0      8    11.527     5.611    0.88E-04    0.13E-03    0.50E-07
   2      7    11.527     4.652    0.25E-03    0.73E-04    0.51E-07
 Optimization of the real space projectors (new method)

 maximal supplied QI-value         = 24.76
 optimisation between [QCUT,QGAM] = [ 11.64, 23.27] = [ 37.91,151.63] Ry
 Optimized for a Real-space Cutoff    1.04 Angstroem

   l    n(q)    QCUT    max X(q) W(low)/X(q) W(high)/X(q)  e(spline)
   0      7    11.635    20.381    0.14E-03    0.49E-03    0.18E-06
   0      7    11.635    15.268    0.16E-03    0.52E-03    0.19E-06
   1      7    11.635     5.964    0.30E-03    0.44E-03    0.22E-06
   1      7    11.635     5.382    0.27E-03    0.34E-03    0.19E-06
|               ----> ADVICE to this user running VASP <----                  |
|     You enforced a specific xc type in the INCAR file but a different       |
|     type was found in the POTCAR file.                                      |
|     I HOPE YOU KNOW WHAT YOU ARE DOING!                                     |

  PAW_PBE Cu 22Jun2005                  :
  PAW_PBE Mg_pv 13Apr2007               :
  PAW_PBE O 08Apr2002                   :

 POSCAR: Cu Mg  O
  positions in direct lattice
 WARNING: Using user supplied parameters
     VDW_S8 = 2.029
     VDW_A1 = 0.409
     VDW_A2 = 4.538
     because the xc functional is not supported. Required parameters not
     defined in the INCAR file will be replaced with PBE defaults ones.

 ion  position               nearest neighbor table
   1  0.500  0.600  0.727-   2 2.22
   2  0.500  0.600  0.627-   1 2.22
   3  0.000  0.000  0.407- 105 2.11 106 2.11 121 2.11 186 2.11 103 2.11
   4  0.100  0.100  0.407- 105 2.11 106 2.11 110 2.11 125 2.11 104 2.11
   5  0.000  0.100  0.503- 103 2.11 104 2.11 107 2.11 184 2.11 105 2.11
   6  0.100  0.000  0.503- 103 2.11 104 2.11 120 2.11 123 2.11 106 2.11
   7  0.000  0.200  0.407- 109 2.11 105 2.11 110 2.11 190 2.11 107 2.11
   8  0.100  0.300  0.407- 110 2.11 109 2.11 114 2.11 129 2.11 108 2.11
   9  0.000  0.300  0.503- 107 2.11 108 2.11 111 2.11 188 2.11 109 2.11
  10  0.100  0.200  0.503- 108 2.11 107 2.11 104 2.11 127 2.11 110 2.11
  11  0.000  0.400  0.407- 109 2.11 113 2.11 114 2.11 194 2.11 111 2.11
  12  0.100  0.500  0.407- 113 2.11 114 2.11 118 2.11 133 2.11 112 2.11
  13  0.000  0.500  0.503- 111 2.11 112 2.11 115 2.11 192 2.11 113 2.11
  14  0.100  0.400  0.503- 108 2.11 111 2.11 112 2.11 131 2.11 114 2.11
  15  0.000  0.600  0.407- 113 2.11 117 2.11 118 2.11 198 2.11 115 2.11
  16  0.100  0.700  0.407- 122 2.11 118 2.11 117 2.11 137 2.11 116 2.11
  17  0.000  0.700  0.503- 119 2.11 116 2.11 115 2.11 196 2.11 117 2.11
  18  0.100  0.600  0.503- 112 2.11 115 2.11 116 2.11 135 2.11 118 2.11
  19  0.000  0.800  0.407- 117 2.11 121 2.11 122 2.11 202 2.11 119 2.11
  20  0.100  0.900  0.407- 106 2.11 121 2.11 122 2.11 141 2.11 120 2.11
  21  0.000  0.900  0.503- 103 2.11 119 2.11 120 2.11 200 2.11 121 2.11
  22  0.100  0.800  0.503- 116 2.11 119 2.11 120 2.11 139 2.11 122 2.11
  23  0.200  0.000  0.407- 126 2.11 125 2.11 106 2.11 141 2.11 123 2.11
  24  0.300  0.100  0.407- 125 2.11 126 2.11 130 2.11 145 2.11 124 2.11
  25  0.200  0.100  0.503- 124 2.11 123 2.11 104 2.11 127 2.11 125 2.11
  26  0.300  0.000  0.503- 123 2.11 124 2.11 140 2.11 143 2.11 126 2.11
  27  0.200  0.200  0.407- 129 2.11 130 2.11 110 2.11 125 2.11 127 2.11
  28  0.300  0.300  0.407- 129 2.11 130 2.11 134 2.11 149 2.11 128 2.11
  29  0.200  0.300  0.503- 127 2.11 128 2.11 108 2.11 131 2.11 129 2.11
  30  0.300  0.200  0.503- 127 2.11 128 2.11 124 2.11 147 2.11 130 2.11
  31  0.200  0.400  0.407- 134 2.11 129 2.11 133 2.11 114 2.11 131 2.11
  32  0.300  0.500  0.407- 133 2.11 134 2.11 138 2.11 153 2.11 132 2.11
  33  0.200  0.500  0.503- 132 2.11 131 2.11 112 2.11 135 2.11 133 2.11
  34  0.300  0.400  0.503- 131 2.11 128 2.11 132 2.11 151 2.11 134 2.11
  35  0.200  0.600  0.407- 138 2.11 133 2.11 137 2.11 118 2.11 135 2.11
  36  0.300  0.700  0.407- 137 2.11 142 2.11 138 2.11 157 2.11 136 2.11
  37  0.200  0.700  0.503- 136 2.11 139 2.11 116 2.11 135 2.11 137 2.11
  38  0.300  0.600  0.503- 135 2.11 132 2.11 136 2.11 155 2.11 138 2.11
  39  0.200  0.800  0.407- 137 2.11 142 2.11 141 2.11 122 2.11 139 2.11
  40  0.300  0.900  0.407- 141 2.11 126 2.11 142 2.11 161 2.11 140 2.11
  41  0.200  0.900  0.503- 140 2.11 123 2.11 139 2.11 120 2.11 141 2.11
  42  0.300  0.800  0.503- 136 2.11 139 2.11 140 2.11 159 2.11 142 2.11
  43  0.400  0.000  0.407- 126 2.11 145 2.11 146 2.11 161 2.11 143 2.11
  44  0.500  0.100  0.407- 145 2.11 146 2.11 150 2.11 165 2.11 144 2.11
  45  0.400  0.100  0.503- 124 2.11 143 2.11 144 2.11 147 2.11 145 2.11
  46  0.500  0.000  0.503- 143 2.11 144 2.11 160 2.11 163 2.11 146 2.11
  47  0.400  0.200  0.407- 149 2.11 145 2.11 130 2.11 150 2.11 147 2.11
  48  0.500  0.300  0.407- 150 2.11 149 2.11 154 2.11 169 2.11 148 2.11
  49  0.400  0.300  0.503- 147 2.11 128 2.11 148 2.11 151 2.11 149 2.11
  50  0.500  0.200  0.503- 148 2.11 147 2.11 144 2.11 167 2.11 150 2.11
  51  0.400  0.400  0.407- 134 2.11 149 2.11 153 2.11 154 2.11 151 2.11
  52  0.500  0.500  0.407- 153 2.11 154 2.11 158 2.11 173 2.11 152 2.11
  53  0.400  0.500  0.503- 132 2.11 151 2.11 152 2.11 155 2.11 153 2.11
  54  0.500  0.400  0.503- 148 2.11 151 2.11 152 2.11 171 2.11 154 2.11
  55  0.400  0.600  0.407- 138 2.11 153 2.11 157 2.11 158 2.11 155 2.11
  56  0.500  0.700  0.407- 162 2.11 158 2.11 157 2.11 177 2.11 156 2.11
  57  0.400  0.700  0.503- 159 2.11 155 2.11 156 2.11 136 2.11 157 2.11
  58  0.500  0.600  0.503- 152 2.11 155 2.11 156 2.11 175 2.11 158 2.11
  59  0.400  0.800  0.407- 157 2.11 142 2.11 161 2.11 162 2.11 159 2.11
  60  0.500  0.900  0.407- 146 2.11 161 2.11 162 2.11 181 2.11 160 2.11
[...]
 188  0.900  0.300  0.503-  90 2.11  89 2.11   9 2.11  94 2.11  88 2.11
 189  0.800  0.300  0.407-  68 2.11  87 2.11  88 2.11  91 2.11  89 2.11
 190  0.900  0.200  0.407-  88 2.11  84 2.11  87 2.11   7 2.11  90 2.11
 191  0.800  0.400  0.503-  74 2.11  89 2.11  93 2.11  94 2.11  91 2.11
 192  0.900  0.500  0.503-  13 2.11  93 2.11  94 2.11  98 2.11  92 2.11
 193  0.800  0.500  0.407-  72 2.11  91 2.11  92 2.11  95 2.11  93 2.11
 194  0.900  0.400  0.407-  11 2.11  88 2.11  91 2.11  92 2.11  94 2.11
 195  0.800  0.600  0.503-  78 2.11  93 2.11  97 2.11  98 2.11  95 2.11
 196  0.900  0.700  0.503- 102 2.11  97 2.11  98 2.11  17 2.11  96 2.11
 197  0.800  0.700  0.407-  76 2.11  99 2.11  96 2.11  95 2.11  97 2.11
 198  0.900  0.600  0.407-  15 2.11  92 2.11  95 2.11  96 2.11  98 2.11
 199  0.800  0.800  0.503-  82 2.11  97 2.11 101 2.11 102 2.11  99 2.11
 200  0.900  0.900  0.503-  21 2.11  86 2.11 101 2.11 102 2.11 100 2.11
 201  0.800  0.900  0.407-  80 2.11  83 2.11  99 2.11 100 2.11 101 2.11
 202  0.900  0.800  0.407-  96 2.11  19 2.11  99 2.11 100 2.11 102 2.11

  LATTYP: Found a simple tetragonal cell.
 ALAT       =    21.1388521970
 C/A-ratio  =     1.0461251639

  Lattice vectors:

 A1 = (  21.1388521970,   0.0000000000,   0.0000000000)
 A2 = (   0.0000000000,  21.1388521970,   0.0000000000)
 A3 = (   0.0000000000,   0.0000000000,  22.1138852197)

Analysis of symmetry for initial positions (statically):
 Subroutine PRICEL returns:
 Original cell was already a primitive cell.

 Routine SETGRP: Setting up the symmetry group for a
 simple tetragonal supercell.

 Subroutine GETGRP returns: Found  8 space group operations
 (whereof  2 operations were pure point group operations)
 out of a pool of 16 trial point group operations.

The static configuration has the point symmetry C_1h.
 The point group associated with its full space group is C_4v.

Analysis of symmetry for dynamics (positions and initial velocities):
 Subroutine PRICEL returns:
 Original cell was already a primitive cell.

 Routine SETGRP: Setting up the symmetry group for a
 simple tetragonal supercell.

 Subroutine GETGRP returns: Found  8 space group operations
 (whereof  2 operations were pure point group operations)
 out of a pool of 16 trial point group operations.

The dynamic configuration has the point symmetry C_1h.
 The point group associated with its full space group is C_4v.

 Subroutine INISYM returns: Found  8 space group operations
 (whereof  2 operations are pure point group operations),
 and found     1 'primitive' translations

                                     Primitive cell

  volume of cell :    9881.6133

  direct lattice vectors                    reciprocal lattice vectors
    21.138852197  0.000000000  0.000000000     0.047306258  0.000000000  0.000000000
     0.000000000 21.138852197  0.000000000     0.000000000  0.047306258  0.000000000
     0.000000000  0.000000000 22.113885220     0.000000000  0.000000000  0.045220457

  length of vectors
    21.138852197 21.138852197 22.113885220     0.047306258  0.047306258  0.045220457

  position of ions in fractional coordinates (direct lattice)
     0.499999974  0.599999938  0.727338351
[...]
     22     -46.3663      2.00000
     23     -46.3661      2.00000
     24     -46.3657      2.00000
     25     -46.3657      2.00000
     26     -46.3640      2.00000
     27     -46.3640      2.00000
     28     -46.3627      2.00000
     29     -46.3627      2.00000
     30     -46.3626      2.00000
     31     -46.3625      2.00000
     32     -46.3603      2.00000
     33     -46.3593      2.00000
     34     -46.3592      2.00000
     35     -46.3590      2.00000
     36     -46.3589      2.00000
     37     -46.3588      2.00000
     38     -46.3567      2.00000
     39     -46.3566      2.00000
     40     -46.3563      2.00000
     41     -46.3553      2.00000
     42     -46.3553      2.00000
     43     -46.3550      2.00000
     44     -46.3542      2.00000
     45     -46.3538      2.00000
     46     -46.3536      2.00000
     47     -46.3527      2.00000
     48     -46.3526      2.00000
     49     -46.3517      2.00000
     50     -46.3516      2.00000
     51     -46.3512      2.00000
     52     -46.3506      2.00000
     53     -46.3499      2.00000
     54     -46.3498      2.00000
     55     -46.3498      2.00000
     56     -46.3491      2.00000
     57     -46.3489      2.00000
     58     -46.3489      2.00000
     59     -46.3488      2.00000
     60     -46.3484      2.00000
[...]
    850       4.8848      0.00000
    851       4.8948      0.00000
    852       4.9397      0.00000
    853       4.9606      0.00000
    854       5.0111      0.00000
    855       5.0410      0.00000
    856       5.0619      0.00000
    857       5.0922      0.00000
    858       5.1102      0.00000
    859       5.1213      0.00000
    860       5.1849      0.00000
    861       5.3987      0.00000
    862       5.4313      0.00000
    863       5.4536      0.00000
    864       5.4778      0.00000

 soft charge-density along one line, spin component           1
         0         1         2         3         4         5         6         7         8         9
 total charge-density along one line

------------------------ aborting loop because EDIFF is reached ----------------------------------------

 VOLUME and BASIS-vectors are now :
  energy-cutoff  :      520.00
  volume of cell :     9881.61
      direct lattice vectors                 reciprocal lattice vectors
    21.138852197  0.000000000  0.000000000     0.047306258  0.000000000  0.000000000
     0.000000000 21.138852197  0.000000000     0.000000000  0.047306258  0.000000000
     0.000000000  0.000000000 22.113885220     0.000000000  0.000000000  0.045220457

  length of vectors
    21.138852197 21.138852197 22.113885220     0.047306258  0.047306258  0.045220457

 FORCES acting on ions:
    Electron-Ion                     Ewald-Force                    Non-Local-Force
   0.127E-03 0.103E-04 -.178E+04   -.169E-07 -.399E-07 0.177E+04   -.421E-20 0.401E-20 0.118E+02
   -.859E-04 0.127E-03 -.169E+04   -.312E-05 -.740E-05 0.170E+04   -.916E-21 0.714E-21 -.118E+02
   0.105E-04 -.303E+01 0.931E+03   -.952E-06 0.304E+01 -.923E+03   0.164E-20 -.207E-02 -.668E+01
   0.304E+01 0.555E-04 0.931E+03   -.304E+01 -.226E-05 -.923E+03   0.207E-02 -.535E-20 -.668E+01
   0.413E-03 0.571E-03 -.922E+03   -.103E-05 -.245E-05 0.915E+03   0.431E-20 0.894E-20 0.668E+01
   0.443E+01 -.443E+01 -.922E+03   -.443E+01 0.443E+01 0.914E+03   0.126E-02 -.126E-02 0.668E+01
   0.185E-03 0.304E+01 0.931E+03   -.952E-06 -.304E+01 -.923E+03   -.152E-20 0.207E-02 -.668E+01
   0.474E+01 0.591E+01 0.933E+03   -.475E+01 -.591E+01 -.925E+03   0.501E-02 0.508E-02 -.668E+01
   0.289E-03 0.639E+01 -.921E+03   -.171E-05 -.639E+01 0.913E+03   0.328E-20 0.159E-02 0.668E+01
   0.443E+01 0.443E+01 -.922E+03   -.443E+01 -.443E+01 0.914E+03   0.126E-02 0.126E-02 0.668E+01
   0.149E-03 0.532E+01 0.933E+03   -.177E-05 -.533E+01 -.925E+03   0.464E-20 0.371E-02 -.669E+01
   0.848E+01 0.414E+01 0.936E+03   -.851E+01 -.414E+01 -.929E+03   0.162E-01 0.390E-02 -.669E+01
   0.128E-03 0.441E+01 -.918E+03   -.324E-05 -.441E+01 0.911E+03   0.148E-20 0.143E-02 0.668E+01
   0.953E+01 0.843E+01 -.918E+03   -.954E+01 -.844E+01 0.911E+03   0.553E-02 0.271E-02 0.668E+01
   -.132E-04 0.101E-03 0.935E+03   -.242E-05 0.230E-05 -.927E+03   -.478E-21 0.863E-20 -.669E+01
   0.848E+01 -.414E+01 0.936E+03   -.851E+01 0.414E+01 -.929E+03   0.162E-01 -.390E-02 -.669E+01
   -.162E-04 -.441E+01 -.918E+03   -.324E-05 0.441E+01 0.911E+03   -.144E-20 -.143E-02 0.668E+01
   0.142E+02 0.307E-04 -.915E+03   -.142E+02 0.387E-05 0.908E+03   0.103E-01 0.130E-20 0.667E+01
   0.137E-03 -.532E+01 0.933E+03   -.177E-05 0.533E+01 -.925E+03   -.493E-21 -.371E-02 -.669E+01
   0.474E+01 -.591E+01 0.933E+03   -.475E+01 0.591E+01 -.925E+03   0.501E-02 -.508E-02 -.668E+01
   -.200E-03 -.639E+01 -.921E+03   -.171E-05 0.639E+01 0.913E+03   -.328E-20 -.159E-02 0.668E+01
   0.953E+01 -.843E+01 -.918E+03   -.954E+01 0.844E+01 0.911E+03   0.553E-02 -.271E-02 0.668E+01
   0.591E+01 -.474E+01 0.933E+03   -.591E+01 0.475E+01 -.925E+03   0.508E-02 -.501E-02 -.668E+01
   0.532E+01 -.148E-04 0.933E+03   -.533E+01 -.419E-05 -.925E+03   0.371E-02 0.782E-22 -.669E+01
   0.639E+01 0.126E-03 -.921E+03   -.639E+01 -.406E-05 0.913E+03   0.159E-02 -.223E-20 0.668E+01
   0.843E+01 -.953E+01 -.918E+03   -.844E+01 0.954E+01 0.911E+03   0.271E-02 -.553E-02 0.668E+01
   0.591E+01 0.474E+01 0.933E+03   -.591E+01 -.475E+01 -.925E+03   0.508E-02 0.501E-02 -.668E+01
   0.951E+01 0.124E+02 0.939E+03   -.953E+01 -.124E+02 -.931E+03   0.142E-01 0.212E-01 -.669E+01
   0.118E+02 0.118E+02 -.918E+03   -.118E+02 -.118E+02 0.910E+03   0.561E-02 0.561E-02 0.668E+01
   0.843E+01 0.953E+01 -.918E+03   -.844E+01 -.954E+01 0.911E+03   0.271E-02 0.553E-02 0.668E+01
   0.124E+02 0.951E+01 0.939E+03   -.124E+02 -.953E+01 -.931E+03   0.212E-01 0.142E-01 -.669E+01
   0.221E+02 0.115E+02 0.955E+03   -.223E+02 -.115E+02 -.947E+03   0.714E-01 0.397E-01 -.670E+01
   0.275E+02 0.104E+02 -.908E+03   -.276E+02 -.104E+02 0.901E+03   0.289E-01 0.448E-02 0.667E+01
   0.262E+02 0.262E+02 -.903E+03   -.263E+02 -.263E+02 0.896E+03   0.248E-01 0.248E-01 0.666E+01
   0.185E+02 0.360E-04 0.944E+03   -.186E+02 0.458E-05 -.936E+03   0.632E-01 -.205E-20 -.670E+01
   0.221E+02 -.115E+02 0.955E+03   -.223E+02 0.115E+02 -.947E+03   0.714E-01 -.397E-01 -.670E+01
   0.275E+02 -.104E+02 -.908E+03   -.276E+02 0.104E+02 0.901E+03   0.289E-01 -.448E-02 0.667E+01
   0.561E+02 0.230E-03 -.880E+03   -.564E+02 0.178E-04 0.872E+03   0.229E+00 0.207E-20 0.665E+01
   0.124E+02 -.951E+01 0.939E+03   -.124E+02 0.953E+01 -.931E+03   0.212E-01 -.142E-01 -.669E+01
   0.951E+01 -.124E+02 0.939E+03   -.953E+01 0.124E+02 -.931E+03   0.142E-01 -.212E-01 -.669E+01
   0.118E+02 -.118E+02 -.918E+03   -.118E+02 0.118E+02 0.910E+03   0.561E-02 -.561E-02 0.668E+01
   0.262E+02 -.262E+02 -.903E+03   -.263E+02 0.263E+02 0.896E+03   0.248E-01 -.248E-01 0.666E+01
   0.414E+01 -.848E+01 0.936E+03   -.414E+01 0.851E+01 -.929E+03   0.390E-02 -.162E-01 -.669E+01
   0.131E-03 0.600E-04 0.935E+03   0.970E-06 -.573E-05 -.927E+03   -.388E-20 0.321E-21 -.669E+01
   0.441E+01 -.396E-04 -.918E+03   -.441E+01 -.767E-05 0.911E+03   0.143E-02 -.294E-21 0.668E+01
   0.346E-03 -.142E+02 -.915E+03   0.164E-05 0.142E+02 0.908E+03   -.175E-20 -.103E-01 0.667E+01
   0.414E+01 0.848E+01 0.936E+03   -.414E+01 -.851E+01 -.929E+03   0.390E-02 0.162E-01 -.669E+01
   -.872E-04 0.185E+02 0.944E+03   0.193E-05 -.186E+02 -.936E+03   -.430E-21 0.632E-01 -.670E+01
   0.104E+02 0.275E+02 -.908E+03   -.104E+02 -.276E+02 0.901E+03   0.448E-02 0.289E-01 0.667E+01
   0.131E-03 0.142E+02 -.915E+03   0.163E-05 -.142E+02 0.908E+03   -.208E-20 0.103E-01 0.667E+01
   0.115E+02 0.221E+02 0.955E+03   -.115E+02 -.223E+02 -.947E+03   0.397E-01 0.714E-01 -.670E+01
   0.733E-04 0.229E+02 0.983E+03   0.603E-05 -.229E+02 -.975E+03   0.677E-21 0.473E-01 -.650E+01
   0.514E+02 0.514E+02 -.846E+03   -.517E+02 -.517E+02 0.838E+03   0.194E+00 0.194E+00 0.667E+01
   0.213E-03 0.561E+02 -.880E+03   0.753E-05 -.564E+02 0.872E+03   0.210E-20 0.229E+00 0.665E+01
   0.229E+02 0.507E-04 0.983E+03   -.229E+02 0.143E-04 -.975E+03   0.473E-01 -.140E-20 -.650E+01
   0.344E-04 -.229E+02 0.983E+03   0.603E-05 0.229E+02 -.975E+03   -.112E-20 -.473E-01 -.650E+01
   0.514E+02 -.514E+02 -.846E+03   -.517E+02 0.517E+02 0.838E+03   0.194E+00 -.194E+00 0.667E+01
   -.115E-03 -.171E-04 -.711E+03   0.389E-04 0.922E-04 0.703E+03   0.901E-21 0.940E-21 0.640E+01
   0.115E+02 -.221E+02 0.955E+03   -.115E+02 0.223E+02 -.947E+03   0.397E-01 -.714E-01 -.670E+01
   0.176E-03 -.185E+02 0.944E+03   0.193E-05 0.186E+02 -.936E+03   0.131E-20 -.632E-01 -.670E+01
[...]
   -.630E+01 0.630E+01 0.703E+03   0.631E+01 -.631E+01 -.707E+03   -.106E-01 0.106E-01 0.318E+01
   -.260E+01 0.260E+01 0.700E+03   0.261E+01 -.261E+01 -.704E+03   -.278E-02 0.278E-02 0.318E+01
   -.143E+02 0.106E+02 -.687E+03   0.143E+02 -.106E+02 0.691E+03   -.158E-01 0.127E-01 -.323E+01
   -.956E+01 0.424E+01 -.689E+03   0.956E+01 -.425E+01 0.693E+03   -.826E-02 0.307E-02 -.322E+01
   -.125E+02 0.493E+01 0.709E+03   0.125E+02 -.495E+01 -.713E+03   -.345E-01 0.170E-01 0.317E+01
   -.498E+01 0.474E+01 0.703E+03   0.499E+01 -.474E+01 -.707E+03   -.880E-02 0.702E-02 0.318E+01
   -.238E+02 -.525E-04 -.681E+03   0.238E+02 0.558E-05 0.685E+03   -.325E-01 0.435E-21 -.325E+01
   -.956E+01 -.424E+01 -.689E+03   0.956E+01 0.425E+01 0.693E+03   -.826E-02 -.307E-02 -.322E+01
   -.125E+02 -.493E+01 0.709E+03   0.125E+02 0.495E+01 -.713E+03   -.345E-01 -.170E-01 0.317E+01
   -.697E+01 -.625E-04 0.704E+03   0.698E+01 0.210E-05 -.708E+03   -.144E-01 -.614E-21 0.317E+01
   -.143E+02 -.106E+02 -.687E+03   0.143E+02 0.106E+02 0.691E+03   -.158E-01 -.127E-01 -.323E+01
   -.481E+01 -.576E+01 -.692E+03   0.481E+01 0.576E+01 0.696E+03   -.335E-02 -.364E-02 -.322E+01
   -.630E+01 -.630E+01 0.703E+03   0.631E+01 0.631E+01 -.707E+03   -.106E-01 -.106E-01 0.318E+01
   -.498E+01 -.474E+01 0.703E+03   0.499E+01 0.474E+01 -.707E+03   -.880E-02 -.702E-02 0.318E+01
   -.393E-03 -.236E-03 0.299E+01   0.383E-11 -.137E-11 -.671E-11   0.231E-15 0.103E-15 -.244E+01

 POSITION                                       TOTAL-FORCE (eV/Angst)
     10.56943     12.68331     16.08428        -0.000000     -0.000000      0.242901
     10.56943     12.68331     13.86085        -0.000000     -0.000000     -0.189236
      0.00000      0.00000      9.00000        -0.000000      0.000511      0.486377
      2.11389      2.11389      9.00000        -0.000511     -0.000000      0.486377
      0.00000      2.11389     11.11389        -0.000000     -0.000000     -0.465604
      2.11389      0.00000     11.11389        -0.000431      0.000431     -0.468165
      0.00000      4.22777      9.00000        -0.000000     -0.000511      0.486377
      2.11389      6.34166      9.00000        -0.001774     -0.001576      0.487242
      0.00000      6.34166     11.11389        -0.000000     -0.000568     -0.468544
      2.11389      4.22777     11.11389        -0.000431     -0.000431     -0.468165
      0.00000      8.45554      9.00000        -0.000000     -0.001219      0.487603
      2.11389     10.56943      9.00000        -0.004925     -0.001308      0.489029
      0.00000     10.56943     11.11389        -0.000000     -0.000366     -0.468319
      2.11389      8.45554     11.11389        -0.001494     -0.000792     -0.466995
      0.00000     12.68331      9.00000        -0.000000     -0.000000      0.488600
      2.11389     14.79720      9.00000        -0.004925      0.001308      0.489029
      0.00000     14.79720     11.11389        -0.000000      0.000366     -0.468319
      2.11389     12.68331     11.11389        -0.002647     -0.000000     -0.464899
      0.00000     16.91108      9.00000        -0.000000      0.001219      0.487603
      2.11389     19.02497      9.00000        -0.001774      0.001576      0.487242
      0.00000     19.02497     11.11389        -0.000000      0.000568     -0.468544
      2.11389     16.91108     11.11389        -0.001494      0.000792     -0.466995
      4.22777      0.00000      9.00000        -0.001576      0.001774      0.487242
      6.34166      2.11389      9.00000        -0.001219     -0.000000      0.487603
      4.22777      2.11389     11.11389        -0.000568     -0.000000     -0.468544
      6.34166      0.00000     11.11389        -0.000792      0.001494     -0.466995
      4.22777      4.22777      9.00000        -0.001576     -0.001774      0.487242
      6.34166      6.34166      9.00000        -0.004686     -0.006756      0.490109
      4.22777      6.34166     11.11389        -0.001615     -0.001615     -0.467418
      6.34166      4.22777     11.11389        -0.000792     -0.001494     -0.466995
      4.22777      8.45554      9.00000        -0.006756     -0.004686      0.490109
      6.34166     10.56943      9.00000        -0.022933     -0.014203      0.493091
      4.22777     10.56943     11.11389        -0.007493     -0.001516     -0.462218
      6.34166      8.45554     11.11389        -0.005971     -0.005971     -0.457465
      4.22777     12.68331      9.00000        -0.018787     -0.000000      0.493637
      6.34166     14.79720      9.00000        -0.022933      0.014203      0.493091
      4.22777     14.79720     11.11389        -0.007493      0.001516     -0.462218
      6.34166     12.68331     11.11389        -0.065665     -0.000000     -0.432937
      4.22777     16.91108      9.00000        -0.006756      0.004686      0.490109
      6.34166     19.02497      9.00000        -0.004686      0.006756      0.490109
      4.22777     19.02497     11.11389        -0.001615      0.001615     -0.467418
      6.34166     16.91108     11.11389        -0.005971      0.005971     -0.457465
      8.45554      0.00000      9.00000        -0.001308      0.004925      0.489029
     10.56943      2.11389      9.00000        -0.000000     -0.000000      0.488600
      8.45554      2.11389     11.11389        -0.000366     -0.000000     -0.468319
     10.56943      0.00000     11.11389        -0.000000      0.002647     -0.464899
      8.45554      4.22777      9.00000        -0.001308     -0.004925      0.489029
     10.56943      6.34166      9.00000        -0.000000     -0.018787      0.493637
      8.45554      6.34166     11.11389        -0.001516     -0.007493     -0.462218
     10.56943      4.22777     11.11389        -0.000000     -0.002647     -0.464899
      8.45554      8.45554      9.00000        -0.014203     -0.022933      0.493091
     10.56943     10.56943      9.00000        -0.000000     -0.011608      0.437267
      8.45554     10.56943     11.11389        -0.056719     -0.056719     -0.415592
     10.56943      8.45554     11.11389        -0.000000     -0.065665     -0.432937
      8.45554     12.68331      9.00000        -0.011608     -0.000000      0.437267
     10.56943     14.79720      9.00000        -0.000000      0.011608      0.437267
      8.45554     14.79720     11.11389        -0.056719      0.056719     -0.415592
     10.56943     12.68331     11.11389        -0.000000     -0.000000     -1.037478
      8.45554     16.91108      9.00000        -0.014203      0.022933      0.493091
     10.56943     19.02497      9.00000        -0.000000      0.018787      0.493637
[...]
     19.02497      6.34166     11.11389        -0.000962      0.001078      0.375391
     16.91108      6.34166      9.00000        -0.003170      0.003170     -0.395666
     19.02497      4.22777      9.00000        -0.000806      0.000806     -0.394763
     16.91108      8.45554     11.11389        -0.004999      0.004029      0.371035
     19.02497     10.56943     11.11389        -0.002543      0.001135      0.373273
     16.91108     10.56943      9.00000        -0.010984      0.005294     -0.398036
     19.02497      8.45554      9.00000        -0.002618      0.002020     -0.395539
     16.91108     12.68331     11.11389        -0.010295     -0.000000      0.365454
     19.02497     14.79720     11.11389        -0.002543     -0.001135      0.373273
     16.91108     14.79720      9.00000        -0.010984     -0.005294     -0.398036
     19.02497     12.68331      9.00000        -0.004644     -0.000000     -0.395839
     16.91108     16.91108     11.11389        -0.004999     -0.004029      0.371035
     19.02497     19.02497     11.11389        -0.000962     -0.001078      0.375391
     16.91108     19.02497      9.00000        -0.003170     -0.003170     -0.395666
     19.02497     16.91108      9.00000        -0.002618     -0.002020     -0.395539
    total drift:                               -0.000393     -0.000236      0.240235

  FREE ENERGIE OF THE ION-ELECTRON SYSTEM (eV)
  free  energy   TOTEN  =     -1362.67716572 eV

  energy  without entropy=    -1362.67716572  energy(sigma->0) =    -1362.67716572