 vasp.6.4.0 14Feb23 (build Dec 05 2023 14:15:48) complex

 executed on             LinuxIFC date 2023.12.07  23:01:35

 INCAR:
   SYSTEM = MgO-rocksalt
   ISMEAR = 0
   SIGMA = 0.05
   EDIFF = 1E-4
   ALGO = ALL
   ISTART = 0
   IBRION = -1
   NSW = 0
   ISYM = 3
   DIPOL = 0.5 0.5 0.5
   IDIPOL = 3
   LDIPOL = .TRUE.
   LHFCALC = .TRUE.
   GGA = B5
   AEXX = 0.2
   AGGAX = 0.72
   AGGAC = 0.81
   ALDAC = 0.19
   IVDW = 13
   VDW_S8 = 2.0293
   VDW_A1 = 0.4087
   VDW_A2 = 4.5381
   ENCUT = 520
   PREC = Normal
   LASPH = .TRUE.
   LREAL = Auto
   ISPIN = 1
   NELM = 2000
   NELMIN = 8
   NCORE = 32
   LWAVE = .FALSE.
   LCHARG = .FALSE.

 POTCAR:    PAW_PBE Cu 22Jun2005
 POTCAR:    PAW_PBE Mg_pv 13Apr2007
 POTCAR:    PAW_PBE O 08Apr2002
 POTCAR:    PAW_PBE Cu 22Jun2005
   VRHFIN =Cu: d10 p1

   TITEL  = PAW_PBE Cu 22Jun2005
   POMASS =   63.546; ZVAL   =   11.000    mass and valenz
   ENMAX  =  295.446; ENMIN  =  221.585 eV

   TITEL  = PAW_PBE Mg_pv 13Apr2007
   POMASS =   24.305; ZVAL   =    8.000    mass and valenz
   ENMAX  =  403.929; ENMIN  =  302.947 eV

   TITEL  = PAW_PBE O 08Apr2002
   POMASS =   16.000; ZVAL   =    6.000    mass and valenz
   ENMAX  =  400.000; ENMIN  =  300.000 eV

 Optimization of the real space projectors (new method)

 maximal supplied QI-value         = 16.25
 optimisation between [QCUT,QGAM] = [ 11.54, 23.24] = [ 37.28,151.24] Ry
 Optimized for a Real-space Cutoff    1.49 Angstroem

   l    n(q)    QCUT    max X(q) W(low)/X(q) W(high)/X(q)  e(spline)
   2      9    11.539     4.610    0.25E-03    0.13E-03    0.22E-06
   2      9    11.539     8.522    0.41E-03    0.21E-03    0.31E-06
   0     10    11.539    51.609    0.73E-04    0.38E-04    0.12E-06
   0     10    11.539    27.747    0.69E-04    0.36E-04    0.11E-06
   1     10    11.539    20.408    0.24E-04    0.93E-04    0.21E-06
   1     10    11.539    13.425    0.21E-04    0.81E-04    0.19E-06
 Optimization of the real space projectors (new method)

[...]

   l    n(q)    QCUT    max X(q) W(low)/X(q) W(high)/X(q)  e(spline)
   1      8    11.527     2.974    0.16E-03    0.13E-03    0.98E-07
   1      8    11.527     4.279    0.42E-03    0.30E-03    0.22E-06
   0      8    11.527    16.381    0.13E-03    0.20E-03    0.72E-07
   0      8    11.527     5.611    0.88E-04    0.13E-03    0.50E-07
   2      7    11.527     4.652    0.25E-03    0.73E-04    0.51E-07
 Optimization of the real space projectors (new method)

 maximal supplied QI-value         = 24.76
 optimisation between [QCUT,QGAM] = [ 11.64, 23.27] = [ 37.91,151.63] Ry
 Optimized for a Real-space Cutoff    1.04 Angstroem

   l    n(q)    QCUT    max X(q) W(low)/X(q) W(high)/X(q)  e(spline)
   0      7    11.635    20.381    0.14E-03    0.49E-03    0.18E-06
   0      7    11.635    15.268    0.16E-03    0.52E-03    0.19E-06
   1      7    11.635     5.964    0.30E-03    0.44E-03    0.22E-06
   1      7    11.635     5.382    0.27E-03    0.34E-03    0.19E-06
|               ----> ADVICE to this user running VASP <----                  |
|     You enforced a specific xc type in the INCAR file but a different       |
|     type was found in the POTCAR file.                                      |
|     I HOPE YOU KNOW WHAT YOU ARE DOING!                                     |

  PAW_PBE Cu 22Jun2005                  :
  PAW_PBE Mg_pv 13Apr2007               :
  PAW_PBE O 08Apr2002                   :

 POSCAR: Cu Mg  O
  positions in direct lattice
  velocities in cartesian coordinates
 WARNING: Using user supplied parameters
     VDW_S8 = 2.029
     VDW_A1 = 0.409
     VDW_A2 = 4.538
     because the xc functional is not supported. Required parameters not
     defined in the INCAR file will be replaced with PBE defaults ones.

 ion  position               nearest neighbor table
   1  0.400  0.421  0.593- 153 2.05   2 2.27  55 2.60
   2  0.401  0.506  0.657-   1 2.27   4 2.38   3 2.40
   3  0.401  0.614  0.691-   4 2.27   2 2.40
   4  0.400  0.594  0.590- 157 1.94   3 2.27   2 2.38
   5  0.000  0.000  0.407- 107 2.11 108 2.11 123 2.11 188 2.11 105 2.11
   6  0.100  0.100  0.407- 107 2.11 108 2.11 112 2.11 127 2.11 106 2.11
   7  0.000  0.100  0.503- 105 2.11 106 2.11 109 2.11 186 2.11 107 2.11
   8  0.100  0.000  0.503- 105 2.11 106 2.11 122 2.11 125 2.11 108 2.11
   9  0.000  0.200  0.407- 111 2.11 107 2.11 112 2.11 192 2.11 109 2.11
  10  0.100  0.300  0.407- 112 2.11 111 2.11 116 2.11 131 2.11 110 2.11
  11  0.000  0.300  0.503- 109 2.11 110 2.11 113 2.11 190 2.11 111 2.11
  12  0.100  0.200  0.503- 110 2.11 109 2.11 106 2.11 129 2.11 112 2.11
  13  0.000  0.400  0.407- 111 2.11 115 2.11 116 2.11 196 2.11 113 2.11
  14  0.100  0.500  0.407- 115 2.11 116 2.11 120 2.11 135 2.11 114 2.11
  15  0.000  0.500  0.503- 113 2.11 114 2.11 117 2.11 194 2.11 115 2.11
  16  0.100  0.400  0.503- 110 2.11 113 2.11 114 2.11 133 2.11 116 2.11
  17  0.000  0.600  0.407- 115 2.11 119 2.11 120 2.11 200 2.11 117 2.11
  18  0.100  0.700  0.407- 124 2.11 120 2.11 119 2.11 139 2.11 118 2.11
  19  0.000  0.700  0.503- 121 2.11 118 2.11 117 2.11 198 2.11 119 2.11
  20  0.100  0.600  0.503- 114 2.11 117 2.11 118 2.11 137 2.11 120 2.11
  21  0.000  0.800  0.407- 119 2.11 123 2.11 124 2.11 204 2.11 121 2.11
  22  0.100  0.900  0.407- 108 2.11 123 2.11 124 2.11 143 2.11 122 2.11
  23  0.000  0.900  0.503- 105 2.11 121 2.11 122 2.11 202 2.11 123 2.11
  24  0.100  0.800  0.503- 118 2.11 121 2.11 122 2.11 141 2.11 124 2.11
  25  0.200  0.000  0.407- 128 2.11 127 2.11 108 2.11 143 2.11 125 2.11
  26  0.300  0.100  0.407- 127 2.11 128 2.11 132 2.11 147 2.11 126 2.11
  27  0.200  0.100  0.503- 126 2.11 125 2.11 106 2.11 129 2.11 127 2.11
  28  0.300  0.000  0.503- 125 2.11 126 2.11 142 2.11 145 2.11 128 2.11
  29  0.200  0.200  0.407- 131 2.11 132 2.11 112 2.11 127 2.11 129 2.11
  30  0.300  0.300  0.407- 131 2.11 132 2.11 136 2.11 151 2.11 130 2.11
  31  0.200  0.300  0.503- 129 2.11 130 2.11 110 2.11 133 2.11 131 2.11
  32  0.300  0.200  0.503- 129 2.11 130 2.11 126 2.11 149 2.11 132 2.11
  33  0.200  0.400  0.407- 136 2.11 131 2.11 135 2.11 116 2.11 133 2.11
  34  0.300  0.500  0.407- 135 2.11 136 2.11 140 2.11 155 2.11 134 2.11
  35  0.200  0.500  0.503- 134 2.11 133 2.11 114 2.11 137 2.11 135 2.11
  36  0.300  0.400  0.503- 133 2.11 130 2.11 134 2.11 153 2.11 136 2.11
  37  0.200  0.600  0.407- 140 2.11 135 2.11 139 2.11 120 2.11 137 2.11
  38  0.300  0.700  0.407- 139 2.11 144 2.11 140 2.11 159 2.11 138 2.11
  39  0.200  0.700  0.503- 138 2.11 141 2.11 118 2.11 137 2.11 139 2.11
  40  0.300  0.600  0.503- 137 2.11 134 2.11 138 2.11 157 2.11 140 2.11
  41  0.200  0.800  0.407- 139 2.11 144 2.11 143 2.11 124 2.11 141 2.11
  42  0.300  0.900  0.407- 143 2.11 128 2.11 144 2.11 163 2.11 142 2.11
  43  0.200  0.900  0.503- 142 2.11 125 2.11 141 2.11 122 2.11 143 2.11
  44  0.300  0.800  0.503- 138 2.11 141 2.11 142 2.11 161 2.11 144 2.11
  45  0.400  0.000  0.407- 128 2.11 147 2.11 148 2.11 163 2.11 145 2.11
  46  0.500  0.100  0.407- 147 2.11 148 2.11 152 2.11 167 2.11 146 2.11
  47  0.400  0.100  0.503- 126 2.11 145 2.11 146 2.11 149 2.11 147 2.11
  48  0.500  0.000  0.503- 145 2.11 146 2.11 162 2.11 165 2.11 148 2.11
  49  0.400  0.200  0.407- 151 2.11 147 2.11 132 2.11 152 2.11 149 2.11
  50  0.500  0.300  0.407- 152 2.11 151 2.11 156 2.11 171 2.11 150 2.11
  51  0.400  0.300  0.503- 149 2.11 130 2.11 150 2.11 153 2.11 151 2.11
  52  0.500  0.200  0.503- 150 2.11 149 2.11 146 2.11 169 2.11 152 2.11
  53  0.400  0.400  0.407- 136 2.11 151 2.11 155 2.11 156 2.11 153 2.11
  54  0.500  0.500  0.407- 155 2.11 156 2.11 160 2.11 175 2.11 154 2.11
  55  0.400  0.500  0.503- 134 2.11 153 2.11 154 2.11 157 2.11 155 2.11   1 2.60
  56  0.500  0.400  0.503- 150 2.11 153 2.11 154 2.11 173 2.11 156 2.11
  57  0.400  0.600  0.407- 140 2.11 155 2.11 159 2.11 160 2.11 157 2.11
  58  0.500  0.700  0.407- 164 2.11 160 2.11 159 2.11 179 2.11 158 2.11
  59  0.400  0.700  0.503- 161 2.11 157 2.11 158 2.11 138 2.11 159 2.11
  60  0.500  0.600  0.503- 154 2.11 157 2.11 158 2.11 177 2.11 160 2.11
[...]
 190  0.900  0.300  0.503-  92 2.11  91 2.11  11 2.11  96 2.11  90 2.11
 191  0.800  0.300  0.407-  70 2.11  89 2.11  90 2.11  93 2.11  91 2.11
 192  0.900  0.200  0.407-  90 2.11  86 2.11  89 2.11   9 2.11  92 2.11
 193  0.800  0.400  0.503-  76 2.11  91 2.11  95 2.11  96 2.11  93 2.11
 194  0.900  0.500  0.503-  15 2.11  95 2.11  96 2.11 100 2.11  94 2.11
 195  0.800  0.500  0.407-  74 2.11  93 2.11  94 2.11  97 2.11  95 2.11
 196  0.900  0.400  0.407-  13 2.11  90 2.11  93 2.11  94 2.11  96 2.11
 197  0.800  0.600  0.503-  80 2.11  95 2.11  99 2.11 100 2.11  97 2.11
 198  0.900  0.700  0.503- 104 2.11  99 2.11 100 2.11  19 2.11  98 2.11
 199  0.800  0.700  0.407-  78 2.11 101 2.11  98 2.11  97 2.11  99 2.11
 200  0.900  0.600  0.407-  17 2.11  94 2.11  97 2.11  98 2.11 100 2.11
 201  0.800  0.800  0.503-  84 2.11  99 2.11 103 2.11 104 2.11 101 2.11
 202  0.900  0.900  0.503-  23 2.11  88 2.11 103 2.11 104 2.11 102 2.11
 203  0.800  0.900  0.407-  82 2.11  85 2.11 101 2.11 102 2.11 103 2.11
 204  0.900  0.800  0.407-  98 2.11  21 2.11 101 2.11 102 2.11 104 2.11

  LATTYP: Found a simple tetragonal cell.
 ALAT       =    21.1388521970
 C/A-ratio  =     1.0461251639

  Lattice vectors:

 A1 = (  21.1388521970,   0.0000000000,   0.0000000000)
 A2 = (   0.0000000000,  21.1388521970,   0.0000000000)
 A3 = (   0.0000000000,   0.0000000000,  22.1138852197)

Analysis of symmetry for initial positions (statically):
 Subroutine PRICEL returns:
 Original cell was already a primitive cell.

 Routine SETGRP: Setting up the symmetry group for a
 simple tetragonal supercell.

 Subroutine GETGRP returns: Found  1 space group operations
 (whereof  1 operations were pure point group operations)
 out of a pool of 16 trial point group operations.

The static configuration has the point symmetry C_1 .

Analysis of symmetry for dynamics (positions and initial velocities):
 Subroutine PRICEL returns:
 Original cell was already a primitive cell.

[...]

The dynamic configuration has the point symmetry C_1 .

Analysis of constrained symmetry for selective dynamics:
 Subroutine PRICEL returns:
 Original cell was already a primitive cell.

 Routine SETGRP: Setting up the symmetry group for a
 simple tetragonal supercell.

 Subroutine GETGRP returns: Found  1 space group operations
 (whereof  1 operations were pure point group operations)
 out of a pool of 16 trial point group operations.

The constrained configuration has the point symmetry C_1 .

 Subroutine INISYM returns: Found  1 space group operations
 (whereof  1 operations are pure point group operations),
 and found     1 'primitive' translations

                                     Primitive cell

  volume of cell :    9881.6133

  direct lattice vectors                    reciprocal lattice vectors
    21.138852197  0.000000000  0.000000000     0.047306258  0.000000000  0.000000000
     0.000000000 21.138852197  0.000000000     0.000000000  0.047306258  0.000000000
     0.000000000  0.000000000 22.113885220     0.000000000  0.000000000  0.045220457

  length of vectors
    21.138852197 21.138852197 22.113885220     0.047306258  0.047306258  0.045220457

[...]
     22     -46.5837      2.00000
     23     -46.5816      2.00000
     24     -46.5715      2.00000
     25     -46.5547      2.00000
     26     -46.5510      2.00000
     27     -46.5499      2.00000
     28     -46.5290      2.00000
     29     -46.5264      2.00000
     30     -46.5128      2.00000
     31     -46.5092      2.00000
     32     -46.5002      2.00000
     33     -46.4989      2.00000
     34     -46.4938      2.00000
     35     -46.4924      2.00000
     36     -46.4924      2.00000
     37     -46.4909      2.00000
     38     -46.4903      2.00000
     39     -46.4897      2.00000
     40     -46.4889      2.00000
     41     -46.4626      2.00000
     42     -46.4613      2.00000
     43     -46.4608      2.00000
     44     -46.4601      2.00000
     45     -46.4600      2.00000
     46     -46.4589      2.00000
     47     -46.4580      2.00000
     48     -46.4394      2.00000
     49     -46.4383      2.00000
     50     -46.4337      2.00000
     51     -46.4325      2.00000
     52     -46.4270      2.00000
     53     -46.4260      2.00000
     54     -46.4254      2.00000
     55     -46.4236      2.00000
     56     -46.4216      2.00000
     57     -46.4204      2.00000
     58     -46.4193      2.00000
     59     -46.4179      2.00000
     60     -46.4174      2.00000
[...]
    882       5.0823      0.00000
    883       5.1341      0.00000
    884       5.1694      0.00000
    885       5.2148      0.00000
    886       5.2758      0.00000
    887       5.3452      0.00000
    888       5.4025      0.00000
    889       5.4534      0.00000
    890       5.4806      0.00000
    891       5.4875      0.00000
    892       5.5073      0.00000
    893       5.6151      0.00000
    894       5.6680      0.00000
    895       5.7153      0.00000
    896       5.7930      0.00000

 soft charge-density along one line, spin component           1
         0         1         2         3         4         5         6         7         8         9
 total charge-density along one line

------------------------ aborting loop because EDIFF is reached ----------------------------------------

 VOLUME and BASIS-vectors are now :
  energy-cutoff  :      520.00
  volume of cell :     9881.61
      direct lattice vectors                 reciprocal lattice vectors
    21.138852197  0.000000000  0.000000000     0.047306258  0.000000000  0.000000000
     0.000000000 21.138852197  0.000000000     0.000000000  0.047306258  0.000000000
     0.000000000  0.000000000 22.113885220     0.000000000  0.000000000  0.045220457

  length of vectors
    21.138852197 21.138852197 22.113885220     0.047306258  0.047306258  0.045220457

 FORCES acting on ions:
    Electron-Ion                     Ewald-Force                    Non-Local-Force
   0.144E+01 0.463E+03 -.201E+04   -.141E+01 -.456E+03 0.201E+04   -.257E-01 -.702E+01 -.714E+01
   -.175E+01 0.258E+03 -.217E+04   0.169E+01 -.262E+03 0.216E+04   0.472E-01 0.302E+01 0.699E+01
   -.277E+01 -.419E+03 -.212E+04   0.270E+01 0.413E+03 0.211E+04   0.570E-01 0.549E+01 0.109E+02
   0.285E+01 -.306E+03 -.175E+04   -.282E+01 0.306E+03 0.176E+04   -.245E-01 -.118E+00 -.586E+01
   0.744E+01 -.228E+01 0.936E+03   -.746E+01 0.229E+01 -.928E+03   0.144E-01 -.618E-02 -.671E+01
   0.138E+02 0.747E+01 0.940E+03   -.138E+02 -.748E+01 -.932E+03   0.297E-01 0.773E-02 -.671E+01
   0.982E+01 0.630E+01 -.918E+03   -.984E+01 -.629E+01 0.911E+03   0.126E-01 -.420E-02 0.665E+01
   0.159E+02 -.427E+01 -.916E+03   -.160E+02 0.429E+01 0.909E+03   0.175E-01 -.818E-02 0.665E+01
   0.105E+02 0.110E+02 0.939E+03   -.105E+02 -.110E+02 -.931E+03   0.245E-01 0.486E-02 -.671E+01
   0.281E+02 0.202E+02 0.951E+03   -.282E+02 -.203E+02 -.943E+03   0.898E-01 0.212E-01 -.674E+01
   0.198E+02 0.167E+02 -.914E+03   -.198E+02 -.167E+02 0.906E+03   0.167E-01 -.240E-03 0.664E+01
   0.257E+02 0.221E+02 -.913E+03   -.257E+02 -.221E+02 0.905E+03   0.412E-01 -.282E-03 0.664E+01
   0.188E+02 0.100E+02 0.946E+03   -.189E+02 -.100E+02 -.938E+03   0.419E-01 0.909E-02 -.672E+01
   0.436E+02 0.414E+01 0.963E+03   -.438E+02 -.416E+01 -.956E+03   0.136E+00 0.153E-01 -.675E+01
   0.305E+02 0.365E+01 -.908E+03   -.306E+02 -.366E+01 0.901E+03   0.193E-01 0.763E-02 0.663E+01
   0.589E+02 0.237E+02 -.898E+03   -.590E+02 -.237E+02 0.890E+03   0.400E-01 0.532E-02 0.661E+01
   0.204E+02 -.594E+01 0.947E+03   -.205E+02 0.593E+01 -.940E+03   0.529E-01 0.243E-02 -.672E+01
   0.332E+02 -.189E+02 0.956E+03   -.334E+02 0.189E+02 -.948E+03   0.120E+00 -.202E-01 -.674E+01
   0.238E+02 -.153E+02 -.911E+03   -.239E+02 0.153E+02 0.904E+03   0.283E-01 0.272E-02 0.665E+01
   0.666E+02 -.144E+02 -.893E+03   -.667E+02 0.144E+02 0.885E+03   0.834E-01 0.144E-01 0.662E+01
   0.125E+02 -.128E+02 0.941E+03   -.126E+02 0.128E+02 -.933E+03   0.324E-01 -.102E-01 -.671E+01
   0.160E+02 -.130E+02 0.942E+03   -.160E+02 0.130E+02 -.934E+03   0.360E-01 -.242E-01 -.671E+01
   0.116E+02 -.114E+02 -.917E+03   -.116E+02 0.114E+02 0.910E+03   0.156E-01 -.601E-02 0.665E+01
   0.332E+02 -.271E+02 -.908E+03   -.333E+02 0.271E+02 0.900E+03   0.549E-01 -.112E-01 0.664E+01
   0.137E+02 -.439E+01 0.943E+03   -.138E+02 0.441E+01 -.935E+03   0.256E-01 -.125E-01 -.672E+01
   0.102E+02 0.154E+02 0.948E+03   -.102E+02 -.155E+02 -.940E+03   0.236E-01 0.594E-01 -.673E+01
   0.197E+02 0.157E+02 -.912E+03   -.198E+02 -.157E+02 0.905E+03   0.250E-01 0.189E-01 0.665E+01
   0.118E+02 -.866E+01 -.910E+03   -.118E+02 0.867E+01 0.902E+03   0.114E-01 -.783E-02 0.664E+01
   0.226E+02 0.256E+02 0.952E+03   -.228E+02 -.257E+02 -.944E+03   0.756E-01 0.620E-01 -.673E+01
   0.309E+02 0.526E+02 0.992E+03   -.312E+02 -.530E+02 -.984E+03   0.197E+00 0.236E+00 -.671E+01
   0.624E+02 0.559E+02 -.887E+03   -.627E+02 -.559E+02 0.880E+03   0.188E+00 -.109E-01 0.659E+01
   0.267E+02 0.610E+02 -.894E+03   -.268E+02 -.612E+02 0.887E+03   0.415E-01 0.162E+00 0.662E+01
   0.539E+02 0.279E+02 0.987E+03   -.543E+02 -.279E+02 -.979E+03   0.311E+00 0.579E-01 -.684E+01
   0.605E+02 0.107E+02 0.106E+04   -.612E+02 -.108E+02 -.105E+04   0.437E+00 0.908E-01 -.690E+01
   0.129E+03 0.134E+02 -.844E+03   -.129E+03 -.135E+02 0.837E+03   0.190E+00 0.416E-01 0.653E+01
   0.157E+03 0.107E+03 -.748E+03   -.160E+03 -.107E+03 0.741E+03   0.152E+01 0.158E-01 0.618E+01
   0.600E+02 -.181E+02 0.995E+03   -.605E+02 0.181E+02 -.987E+03   0.405E+00 -.162E-01 -.683E+01
   0.385E+02 -.528E+02 0.101E+04   -.389E+02 0.532E+02 -.100E+04   0.281E+00 -.293E+00 -.671E+01
   0.818E+02 -.570E+02 -.871E+03   -.822E+02 0.570E+02 0.863E+03   0.255E+00 -.769E-02 0.659E+01
   0.186E+03 -.721E+02 -.706E+03   -.189E+03 0.720E+02 0.698E+03   0.227E+01 0.359E-01 0.646E+01
   0.285E+02 -.310E+02 0.960E+03   -.286E+02 0.311E+02 -.952E+03   0.991E-01 -.909E-01 -.673E+01
   0.124E+02 -.263E+02 0.954E+03   -.124E+02 0.264E+02 -.946E+03   0.260E-01 -.101E+00 -.673E+01
   0.248E+02 -.284E+02 -.908E+03   -.248E+02 0.284E+02 0.900E+03   0.238E-01 -.431E-01 0.663E+01
   0.387E+02 -.816E+02 -.875E+03   -.387E+02 0.819E+02 0.867E+03   0.179E-01 -.244E+00 0.659E+01
   0.455E-01 -.620E+01 0.948E+03   -.449E-01 0.622E+01 -.940E+03   -.453E-03 -.151E-01 -.672E+01
   -.101E+02 0.154E+02 0.948E+03   0.102E+02 -.155E+02 -.941E+03   -.243E-01 0.592E-01 -.673E+01
   0.640E-01 0.261E+02 -.907E+03   -.634E-01 -.262E+02 0.899E+03   -.382E-03 0.604E-01 0.663E+01
   -.117E+02 -.868E+01 -.910E+03   0.117E+02 0.870E+01 0.902E+03   -.120E-01 -.776E-02 0.664E+01
   0.737E-01 0.422E+02 0.967E+03   -.727E-01 -.426E+02 -.959E+03   -.720E-03 0.258E+00 -.676E+01
   -.307E+02 0.528E+02 0.992E+03   0.310E+02 -.531E+02 -.985E+03   -.198E+00 0.235E+00 -.671E+01
   0.338E+00 0.159E+03 -.811E+03   -.335E+00 -.161E+03 0.803E+03   -.207E-02 0.149E+01 0.670E+01
   -.266E+02 0.611E+02 -.894E+03   0.266E+02 -.613E+02 0.887E+03   -.426E-01 0.160E+00 0.662E+01
   0.238E+00 0.550E+02 0.106E+04   -.235E+00 -.555E+02 -.106E+04   -.182E-02 0.330E+00 -.521E+01
   -.602E+02 0.108E+02 0.106E+04   0.609E+02 -.109E+02 -.105E+04   -.439E+00 0.907E-01 -.691E+01
   0.127E+01 0.259E+02 -.514E+03   -.127E+01 -.271E+02 0.509E+03   -.584E-02 0.946E+00 0.421E+01
   -.157E+03 0.108E+03 -.747E+03   0.160E+03 -.108E+03 0.740E+03   -.152E+01 0.121E-01 0.617E+01
   0.296E+00 -.378E+02 0.109E+04   -.293E+00 0.380E+02 -.108E+04   -.198E-02 -.180E+00 -.439E+01
   -.383E+02 -.529E+02 0.101E+04   0.387E+02 0.534E+02 -.100E+04   -.283E+00 -.292E+00 -.671E+01
   0.621E+00 -.187E+03 -.741E+03   -.616E+00 0.190E+03 0.734E+03   -.345E-02 -.220E+01 0.635E+01
   -.186E+03 -.725E+02 -.704E+03   0.189E+03 0.724E+02 0.696E+03   -.227E+01 0.371E-01 0.645E+01
[...]
   -.110E+02 0.981E+01 0.708E+03   0.110E+02 -.982E+01 -.712E+03   -.268E-01 0.894E-02 0.314E+01
   -.347E-01 0.694E+01 0.705E+03   0.344E-01 -.694E+01 -.709E+03   0.517E-03 0.294E-02 0.314E+01
   -.201E+02 0.992E+01 -.685E+03   0.201E+02 -.992E+01 0.689E+03   -.176E-01 0.447E-02 -.329E+01
   -.101E+00 0.216E+01 -.686E+03   0.100E+00 -.216E+01 0.690E+03   0.895E-03 0.695E-02 -.328E+01
   -.161E+02 0.200E+01 0.713E+03   0.161E+02 -.201E+01 -.717E+03   -.370E-01 0.962E-02 0.313E+01
   -.610E-01 0.620E+01 0.708E+03   0.606E-01 -.621E+01 -.712E+03   0.705E-03 0.711E-02 0.314E+01
   -.223E+02 -.577E+01 -.683E+03   0.223E+02 0.576E+01 0.687E+03   -.250E-01 0.877E-02 -.329E+01
   -.859E-01 -.906E+01 -.687E+03   0.850E-01 0.906E+01 0.691E+03   0.687E-03 0.212E-02 -.327E+01
   -.128E+02 -.891E+01 0.710E+03   0.129E+02 0.891E+01 -.714E+03   -.364E-01 -.739E-02 0.314E+01
   -.698E-01 -.360E+01 0.709E+03   0.695E-01 0.360E+01 -.713E+03   0.796E-03 0.330E-02 0.314E+01
   -.128E+02 -.123E+02 -.688E+03   0.128E+02 0.123E+02 0.692E+03   -.211E-01 -.633E-02 -.327E+01
   -.445E-01 -.707E+01 -.690E+03   0.441E-01 0.708E+01 0.695E+03   0.416E-03 -.575E-02 -.326E+01
   -.686E+01 -.675E+01 0.705E+03   0.687E+01 0.676E+01 -.709E+03   -.197E-01 -.124E-01 0.315E+01
   -.462E-01 -.805E+01 0.706E+03   0.459E-01 0.805E+01 -.710E+03   0.389E-03 -.757E-02 0.314E+01
   -.878E-01 -.203E+01 -.273E+01   0.164E-11 -.104E-11 -.762E-11   0.954E-01 0.182E+01 0.326E+01

 POSITION                                       TOTAL-FORCE (eV/Angst)
      8.46039      8.90641     13.11119        -0.003224     -0.132688      0.080069
      8.46878     10.69052     14.51992        -0.011580     -0.193506      0.143881
      8.47353     12.97033     15.28534        -0.002410      0.258731      0.273109
      8.46080     12.56080     13.05418        -0.004153      0.097130     -0.112798
      0.00000      0.00000      9.00000        -0.004441      0.001912      0.494568
      2.11389      2.11389      9.00000        -0.009920     -0.002704      0.496232
      0.00000      2.11389     11.11389        -0.003780      0.001068     -0.452638
      2.11389      0.00000     11.11389        -0.005677      0.002507     -0.446936
      0.00000      4.22777      9.00000        -0.007548     -0.001706      0.495527
      2.11389      6.34166      9.00000        -0.027043     -0.006413      0.502194
      0.00000      6.34166     11.11389        -0.004639      0.000197     -0.441929
      2.11389      4.22777     11.11389        -0.012418      0.000159     -0.446129
      0.00000      8.45554      9.00000        -0.013083     -0.003045      0.499389
      2.11389     10.56943      9.00000        -0.041286     -0.005218      0.507713
      0.00000     10.56943     11.11389        -0.004862     -0.002323     -0.440216
      2.11389      8.45554     11.11389        -0.007587     -0.001082     -0.426499
      0.00000     12.68331      9.00000        -0.016010     -0.000897      0.499720
      2.11389     14.79720      9.00000        -0.036037      0.006475      0.502542
      0.00000     14.79720     11.11389        -0.008142     -0.000800     -0.449152
      2.11389     12.68331     11.11389        -0.019475     -0.005392     -0.428179
      0.00000     16.91108      9.00000        -0.010078      0.003535      0.497187
      2.11389     19.02497      9.00000        -0.011520      0.007712      0.496802
      0.00000     19.02497     11.11389        -0.004603      0.001790     -0.452769
      2.11389     16.91108     11.11389        -0.016067      0.003863     -0.444922
      4.22777      0.00000      9.00000        -0.008349      0.003829      0.497302
      6.34166      2.11389      9.00000        -0.007805     -0.017931      0.498354
      4.22777      2.11389     11.11389        -0.007967     -0.005609     -0.447399
      6.34166      0.00000     11.11389        -0.003771      0.002060     -0.446770
      4.22777      4.22777      9.00000        -0.024230     -0.020151      0.496824
      6.34166      6.34166      9.00000        -0.071698     -0.080812      0.481447
      4.22777      6.34166     11.11389        -0.046633      0.009632     -0.400963
      6.34166      4.22777     11.11389        -0.012484     -0.041861     -0.418930
      4.22777      8.45554      9.00000        -0.088296     -0.016355      0.527825
      6.34166     10.56943      9.00000        -0.160115     -0.033757      0.512921
      4.22777     10.56943     11.11389        -0.027387     -0.015588     -0.348739
      6.34166      8.45554     11.11389        -0.621367      0.025897     -0.325387
      4.22777     12.68331      9.00000        -0.113741      0.002946      0.527349
      6.34166     14.79720      9.00000        -0.102620      0.105089      0.475991
      4.22777     14.79720     11.11389        -0.062923     -0.001960     -0.397356
      6.34166     12.68331     11.11389        -0.921050     -0.026193     -0.476473
      4.22777     16.91108      9.00000        -0.032217      0.029307      0.498341
      6.34166     19.02497      9.00000        -0.008449      0.030218      0.502285
      4.22777     19.02497     11.11389        -0.007590      0.012296     -0.440301
      6.34166     16.91108     11.11389        -0.001126      0.057969     -0.395870
      8.45554      0.00000      9.00000         0.000250      0.004647      0.499198
     10.56943      2.11389      9.00000         0.008102     -0.017800      0.498047
      8.45554      2.11389     11.11389         0.000299     -0.015780     -0.437561
     10.56943      0.00000     11.11389         0.003879      0.002062     -0.441212
      8.45554      4.22777      9.00000         0.000368     -0.073473      0.505654
     10.56943      6.34166      9.00000         0.072262     -0.080653      0.482756
      8.45554      6.34166     11.11389         0.000772     -0.541390     -0.454827
     10.56943      4.22777     11.11389         0.012942     -0.041164     -0.423108
      8.45554      8.45554      9.00000         0.000817     -0.081939      0.133669
     10.56943     10.56943      9.00000         0.161118     -0.033783      0.514801
      8.45554     10.56943     11.11389         0.000703     -0.164232     -0.393617
     10.56943      8.45554     11.11389         0.626904      0.026292     -0.325974
      8.45554     12.68331      9.00000         0.000834      0.039293     -0.051808
     10.56943     14.79720      9.00000         0.103489      0.105092      0.477372
      8.45554     14.79720     11.11389         0.001334      0.846336     -0.384193
     10.56943     12.68331     11.11389         0.926652     -0.026018     -0.475266
[...]
     19.02497      6.34166     11.11389         0.000018      0.000253      0.358314
     16.91108      6.34166      9.00000        -0.008246      0.002968     -0.408119
     19.02497      4.22777      9.00000         0.000383      0.000703     -0.404678
     16.91108      8.45554     11.11389        -0.005610      0.001315      0.352608
     19.02497     10.56943     11.11389         0.000413      0.002535      0.355870
     16.91108     10.56943      9.00000        -0.011447      0.003055     -0.409436
     19.02497      8.45554      9.00000         0.000530      0.002256     -0.408268
     16.91108     12.68331     11.11389        -0.008010      0.002698      0.352324
     19.02497     14.79720     11.11389        -0.000015      0.000660      0.358560
     16.91108     14.79720      9.00000        -0.011381     -0.002171     -0.407865
     19.02497     12.68331      9.00000         0.000654      0.000977     -0.407458
     16.91108     16.91108     11.11389        -0.006951     -0.002003      0.359013
     19.02497     19.02497     11.11389         0.000136     -0.001913      0.362133
     16.91108     19.02497      9.00000        -0.006144     -0.003909     -0.404844
     19.02497     16.91108      9.00000         0.000212     -0.002616     -0.404990
    total drift:                               -0.014176      0.002145      0.193904

  FREE ENERGIE OF THE ION-ELECTRON SYSTEM (eV)
  free  energy   TOTEN  =     -1368.98010790 eV

  energy  without entropy=    -1368.98010790  energy(sigma->0) =    -1368.98010790