 vasp.6.3.0 20Jan22 (build Apr  1 2022 16:44:48) complex
 executed on        HPECrayEX_GCC date 2023.01.09  19:19:38

 INCAR:
   SYSTEM = MgO-rocksalt
   ISMEAR = 0
   SIGMA = 0.05
   EDIFF = 1E-6
   ALGO = ALL
   ISTART = 0
   IBRION = -1
   NSW = 0
   ISYM = 2
   DIPOL = 0.5 0.5 0.5
   IDIPOL = 3
   LDIPOL = .TRUE.
   GGA = MK
   LUSE_VDW = .TRUE.
   PARAM1 = 0.1234
   PARAM2 = 0.711357
   ZAB_VDW = -1.8867
   AGGAC = 0.0
   ENCUT = 520
   PREC = Accurate
   LASPH = .TRUE.
   LREAL = Auto
   ISPIN = 1
   NELM = 200
   NELMIN = 8
   NCORE = 4
   KPAR = 2
   LWAVE = .FALSE.
   LCHARG = .FALSE.

 POTCAR:    PAW_PBE Ag 02Apr2005
 POTCAR:    PAW_PBE Mg_pv 13Apr2007
 POTCAR:    PAW_PBE O 08Apr2002
|               ----> ADVICE to this user running VASP <----                  |
|     You have switched on vdW-DFT.                                           |
|     This routine was written and supplied by Jiri Klimes. We recommend      |
|     that you carefully read and cite the following publications:            |
|       J. Klimes, D.R. Bowler, A. Michelides                                 |
|          J. Phys.: Cond Matt. 22 022201 (2010)                              |
|       J. Klimes, D.R. Bowler, A. Michelides                                 |
|          Phys. Rev. B. 83, 195131 (2011)                                    |
|     and references therein.                                                 |

   TITEL  = PAW_PBE Ag 02Apr2005
   POMASS =  107.868; ZVAL   =   11.000    mass and valenz
   ENMAX  =  249.844; ENMIN  =  187.383 eV

   TITEL  = PAW_PBE Mg_pv 13Apr2007
   POMASS =   24.305; ZVAL   =    8.000    mass and valenz
   ENMAX  =  403.929; ENMIN  =  302.947 eV

   TITEL  = PAW_PBE O 08Apr2002
   POMASS =   16.000; ZVAL   =    6.000    mass and valenz
   ENMAX  =  400.000; ENMIN  =  300.000 eV

 Optimization of the real space projectors (new method)

 maximal supplied QI-value         = 15.12
 optimisation between [QCUT,QGAM] = [ 11.64, 23.28] = [ 37.95,151.78] Ry
 Optimized for a Real-space Cutoff    1.45 Angstroem

   l    n(q)    QCUT    max X(q) W(low)/X(q) W(high)/X(q)  e(spline)
   2      9    11.641    53.897    0.22E-03    0.42E-04    0.28E-06
   2      9    11.641    52.416    0.23E-03    0.44E-04    0.29E-06
   0     10    11.641   122.045    0.51E-04    0.25E-04    0.16E-06
   0     10    11.641    73.629    0.49E-04    0.24E-04    0.16E-06
   1     10    11.641    15.255    0.99E-04    0.55E-04    0.11E-06
   1     10    11.641     9.562    0.81E-04    0.47E-04    0.95E-07
 Optimization of the real space projectors (new method)

[...]

   l    n(q)    QCUT    max X(q) W(low)/X(q) W(high)/X(q)  e(spline)
   1      8    11.527     2.974    0.44E-04    0.56E-04    0.12E-06
   1      8    11.527     4.279    0.12E-03    0.12E-03    0.26E-06
   0      9    11.527    16.381    0.46E-04    0.64E-04    0.78E-07
   0      9    11.527     5.611    0.26E-04    0.43E-04    0.55E-07
   2      8    11.527     4.652    0.22E-03    0.72E-04    0.47E-07
 Optimization of the real space projectors (new method)

 maximal supplied QI-value         = 24.76
 optimisation between [QCUT,QGAM] = [ 11.64, 23.27] = [ 37.91,151.63] Ry
 Optimized for a Real-space Cutoff    1.14 Angstroem

   l    n(q)    QCUT    max X(q) W(low)/X(q) W(high)/X(q)  e(spline)
   0      8    11.635    20.381    0.10E-03    0.33E-03    0.24E-06
   0      8    11.635    15.268    0.11E-03    0.35E-03    0.26E-06
   1      7    11.635     5.964    0.24E-03    0.31E-03    0.30E-06
   1      7    11.635     5.382    0.22E-03    0.25E-03    0.26E-06
|               ----> ADVICE to this user running VASP <----                  |
|     You enforced a specific xc type in the INCAR file but a different       |
|     type was found in the POTCAR file.                                      |
|     I HOPE YOU KNOW WHAT YOU ARE DOING!                                     |

  PAW_PBE Ag 02Apr2005                  :
  PAW_PBE Mg_pv 13Apr2007               :
  PAW_PBE O 08Apr2002                   :

 POSCAR: Ag Mg  O
  positions in direct lattice
  velocities in cartesian coordinates
 exchange correlation table for  LEXCH =       43
   RHO(1)=    0.500       N(1)  =     2000
   RHO(2)=  100.500       N(2)  =     4000

 ion  position               nearest neighbor table
   1  0.404  0.596  0.628-   2 2.63   4 2.74 157 2.77
   2  0.317  0.683  0.613- 138 2.50   1 2.63  59 3.04  40 3.04
   3  0.583  0.417  0.613- 173 2.50   4 2.63  75 3.04  56 3.04
   4  0.496  0.504  0.628-   3 2.63   1 2.74 154 2.77
   5  0.000  0.000  0.407- 107 2.11 108 2.11 123 2.11 188 2.11 105 2.11
   6  0.100  0.100  0.407- 107 2.11 108 2.11 112 2.11 127 2.11 106 2.11
   7  0.000  0.100  0.503- 105 2.11 106 2.11 109 2.11 186 2.11 107 2.11
   8  0.100  0.000  0.503- 105 2.11 106 2.11 122 2.11 125 2.11 108 2.11
   9  0.000  0.200  0.407- 111 2.11 107 2.11 112 2.11 192 2.11 109 2.11
  10  0.100  0.300  0.407- 112 2.11 111 2.11 116 2.11 131 2.11 110 2.11
  11  0.000  0.300  0.503- 109 2.11 110 2.11 113 2.11 190 2.11 111 2.11
  12  0.100  0.200  0.503- 110 2.11 109 2.11 106 2.11 129 2.11 112 2.11
  13  0.000  0.400  0.407- 111 2.11 115 2.11 116 2.11 196 2.11 113 2.11
  14  0.100  0.500  0.407- 115 2.11 116 2.11 120 2.11 135 2.11 114 2.11
  15  0.000  0.500  0.503- 113 2.11 114 2.11 117 2.11 194 2.11 115 2.11
  16  0.100  0.400  0.503- 110 2.11 113 2.11 114 2.11 133 2.11 116 2.11
  17  0.000  0.600  0.407- 115 2.11 119 2.11 120 2.11 200 2.11 117 2.11
  18  0.100  0.700  0.407- 124 2.11 120 2.11 119 2.11 139 2.11 118 2.11
  19  0.000  0.700  0.503- 121 2.11 118 2.11 117 2.11 198 2.11 119 2.11
  20  0.100  0.600  0.503- 114 2.11 117 2.11 118 2.11 137 2.11 120 2.11
  21  0.000  0.800  0.407- 119 2.11 123 2.11 124 2.11 204 2.11 121 2.11
  22  0.100  0.900  0.407- 108 2.11 123 2.11 124 2.11 143 2.11 122 2.11
  23  0.000  0.900  0.503- 105 2.11 121 2.11 122 2.11 202 2.11 123 2.11
  24  0.100  0.800  0.503- 118 2.11 121 2.11 122 2.11 141 2.11 124 2.11
  25  0.200  0.000  0.407- 128 2.11 127 2.11 108 2.11 143 2.11 125 2.11
  26  0.300  0.100  0.407- 127 2.11 128 2.11 132 2.11 147 2.11 126 2.11
  27  0.200  0.100  0.503- 126 2.11 125 2.11 106 2.11 129 2.11 127 2.11
  28  0.300  0.000  0.503- 125 2.11 126 2.11 142 2.11 145 2.11 128 2.11
  29  0.200  0.200  0.407- 131 2.11 132 2.11 112 2.11 127 2.11 129 2.11
  30  0.300  0.300  0.407- 131 2.11 132 2.11 136 2.11 151 2.11 130 2.11
  31  0.200  0.300  0.503- 129 2.11 130 2.11 110 2.11 133 2.11 131 2.11
  32  0.300  0.200  0.503- 129 2.11 130 2.11 126 2.11 149 2.11 132 2.11
  33  0.200  0.400  0.407- 136 2.11 131 2.11 135 2.11 116 2.11 133 2.11
  34  0.300  0.500  0.407- 135 2.11 136 2.11 140 2.11 155 2.11 134 2.11
  35  0.200  0.500  0.503- 134 2.11 133 2.11 114 2.11 137 2.11 135 2.11
  36  0.300  0.400  0.503- 133 2.11 130 2.11 134 2.11 153 2.11 136 2.11
  37  0.200  0.600  0.407- 140 2.11 135 2.11 139 2.11 120 2.11 137 2.11
  38  0.300  0.700  0.407- 139 2.11 144 2.11 140 2.11 159 2.11 138 2.11
  39  0.200  0.700  0.503- 138 2.11 141 2.11 118 2.11 137 2.11 139 2.11
  40  0.300  0.600  0.503- 137 2.11 134 2.11 138 2.11 157 2.11 140 2.11   2 3.04
  41  0.200  0.800  0.407- 139 2.11 144 2.11 143 2.11 124 2.11 141 2.11
  42  0.300  0.900  0.407- 143 2.11 128 2.11 144 2.11 163 2.11 142 2.11
  43  0.200  0.900  0.503- 142 2.11 125 2.11 141 2.11 122 2.11 143 2.11
  44  0.300  0.800  0.503- 138 2.11 141 2.11 142 2.11 161 2.11 144 2.11
  45  0.400  0.000  0.407- 128 2.11 147 2.11 148 2.11 163 2.11 145 2.11
  46  0.500  0.100  0.407- 147 2.11 148 2.11 152 2.11 167 2.11 146 2.11
  47  0.400  0.100  0.503- 126 2.11 145 2.11 146 2.11 149 2.11 147 2.11
  48  0.500  0.000  0.503- 145 2.11 146 2.11 162 2.11 165 2.11 148 2.11
  49  0.400  0.200  0.407- 151 2.11 147 2.11 132 2.11 152 2.11 149 2.11
  50  0.500  0.300  0.407- 152 2.11 151 2.11 156 2.11 171 2.11 150 2.11
  51  0.400  0.300  0.503- 149 2.11 130 2.11 150 2.11 153 2.11 151 2.11
  52  0.500  0.200  0.503- 150 2.11 149 2.11 146 2.11 169 2.11 152 2.11
  53  0.400  0.400  0.407- 136 2.11 151 2.11 155 2.11 156 2.11 153 2.11
  54  0.500  0.500  0.407- 155 2.11 156 2.11 160 2.11 175 2.11 154 2.11
  55  0.400  0.500  0.503- 134 2.11 153 2.11 154 2.11 157 2.11 155 2.11
  56  0.500  0.400  0.503- 150 2.11 153 2.11 154 2.11 173 2.11 156 2.11   3 3.04
  57  0.400  0.600  0.407- 140 2.11 155 2.11 159 2.11 160 2.11 157 2.11
  58  0.500  0.700  0.407- 164 2.11 160 2.11 159 2.11 179 2.11 158 2.11
  59  0.400  0.700  0.503- 161 2.11 157 2.11 158 2.11 138 2.11 159 2.11   2 3.04
  60  0.500  0.600  0.503- 154 2.11 157 2.11 158 2.11 177 2.11 160 2.11
[...]
 190  0.900  0.300  0.503-  92 2.11  91 2.11  11 2.11  96 2.11  90 2.11
 191  0.800  0.300  0.407-  70 2.11  89 2.11  90 2.11  93 2.11  91 2.11
 192  0.900  0.200  0.407-  90 2.11  86 2.11  89 2.11   9 2.11  92 2.11
 193  0.800  0.400  0.503-  76 2.11  91 2.11  95 2.11  96 2.11  93 2.11
 194  0.900  0.500  0.503-  15 2.11  95 2.11  96 2.11 100 2.11  94 2.11
 195  0.800  0.500  0.407-  74 2.11  93 2.11  94 2.11  97 2.11  95 2.11
 196  0.900  0.400  0.407-  13 2.11  90 2.11  93 2.11  94 2.11  96 2.11
 197  0.800  0.600  0.503-  80 2.11  95 2.11  99 2.11 100 2.11  97 2.11
 198  0.900  0.700  0.503- 104 2.11  99 2.11 100 2.11  19 2.11  98 2.11
 199  0.800  0.700  0.407-  78 2.11 101 2.11  98 2.11  97 2.11  99 2.11
 200  0.900  0.600  0.407-  17 2.11  94 2.11  97 2.11  98 2.11 100 2.11
 201  0.800  0.800  0.503-  84 2.11  99 2.11 103 2.11 104 2.11 101 2.11
 202  0.900  0.900  0.503-  23 2.11  88 2.11 103 2.11 104 2.11 102 2.11
 203  0.800  0.900  0.407-  82 2.11  85 2.11 101 2.11 102 2.11 103 2.11
 204  0.900  0.800  0.407-  98 2.11  21 2.11 101 2.11 102 2.11 104 2.11

  LATTYP: Found a simple tetragonal cell.
 ALAT       =    21.1388521970
 C/A-ratio  =     1.0461251639

  Lattice vectors:

 A1 = (  21.1388521970,   0.0000000000,   0.0000000000)
 A2 = (   0.0000000000,  21.1388521970,   0.0000000000)
 A3 = (   0.0000000000,   0.0000000000,  22.1138852197)

Analysis of symmetry for initial positions (statically):
 Subroutine PRICEL returns:
 Original cell was already a primitive cell.

 Routine SETGRP: Setting up the symmetry group for a
 simple tetragonal supercell.

 Subroutine GETGRP returns: Found  2 space group operations
 (whereof  1 operations were pure point group operations)
 out of a pool of 16 trial point group operations.

The static configuration has the point symmetry C_1 .
 The point group associated with its full space group is C_1h.

Analysis of symmetry for dynamics (positions and initial velocities):
 Subroutine PRICEL returns:
 Original cell was already a primitive cell.

[...]

The dynamic configuration has the point symmetry C_1 .
 The point group associated with its full space group is C_1h.

Analysis of constrained symmetry for selective dynamics:
 Subroutine PRICEL returns:
 Original cell was already a primitive cell.

 Routine SETGRP: Setting up the symmetry group for a
 simple tetragonal supercell.

 Subroutine GETGRP returns: Found  2 space group operations
 (whereof  1 operations were pure point group operations)
 out of a pool of 16 trial point group operations.

The constrained configuration has the point symmetry C_1 .
[...]
     52     -43.2985      2.00000
     53     -43.2930      2.00000
     54     -43.2930      2.00000
     55     -43.2913      2.00000
     56     -43.2913      2.00000
     57     -43.2909      2.00000
     58     -43.2904      2.00000
     59     -43.2869      2.00000
     60     -43.2869      2.00000
[...]
    946       5.5035      0.00000
    947       5.5598      0.00000
    948       5.5738      0.00000
    949       5.5942      0.00000
    950       5.6318      0.00000
    951       5.6869      0.00000
    952       5.7149      0.00000
    953       5.7561      0.00000
    954       5.8356      0.00000
    955       5.9288      0.00000
    956       5.9966      0.00000
    957       6.0641      0.00000
    958       6.1132      0.00000
    959       6.2796      0.00000
    960       6.2961      0.00000

 soft charge-density along one line, spin component           1
         0         1         2         3         4         5         6         7         8         9
 total charge-density along one line

------------------------ aborting loop because EDIFF is reached ----------------------------------------

  FORCE on cell =-STRESS in cart. coord.  units (eV):
  Direction    XX          YY          ZZ          XY          YZ          ZX
  Alpha Z  1401.13727  1401.13727  1401.13727
  Ewald  484692.10145484692.10210************ -1322.16574    -0.00388    -0.00457
  Hartree513808.49476513808.49509************ -1067.17600     0.00108     0.00114
  E(xc)   -7881.44797 -7881.44797 -7883.47230    -0.33800     0.00007     0.00007
  Local  ************************************  2381.22316     0.00087     0.00133
  n-local -8868.49479 -8868.49480 -8981.76092     1.40394    -0.00022    -0.00033
  augment  3662.90855  3662.90855  3608.84488     1.76782     0.00112     0.00115
  Kinetic 23233.40903 23233.40907 23476.12935     5.38734     0.00081     0.00082
  Fock        0.00000     0.00000     0.00000     0.00000     0.00000     0.00000
  Total    -182.64913  -182.64913     2.29801     0.10252    -0.00027    -0.00027
  in kB     -29.61422   -29.61422     0.37259     0.01662    -0.00004    -0.00004

 VOLUME and BASIS-vectors are now :
  energy-cutoff  :      520.00
  volume of cell :     9881.61
      direct lattice vectors                 reciprocal lattice vectors
    21.138852197  0.000000000  0.000000000     0.047306258  0.000000000  0.000000000
     0.000000000 21.138852197  0.000000000     0.000000000  0.047306258  0.000000000
     0.000000000  0.000000000 22.113885220     0.000000000  0.000000000  0.045220457

  length of vectors
    21.138852197 21.138852197 22.113885220     0.047306258  0.047306258  0.045220457

 FORCES acting on ions:
    Electron-Ion                     Ewald-Force                    Non-Local-Force
   0.256E+02 -.256E+02 -.207E+04   -.273E+02 0.273E+02 0.207E+04   0.175E+01 -.175E+01 -.692E-02
   0.234E+03 -.234E+03 -.209E+04   -.231E+03 0.231E+03 0.209E+04   -.374E+01 0.374E+01 -.318E+00
   -.234E+03 0.234E+03 -.209E+04   0.231E+03 -.231E+03 0.209E+04   0.374E+01 -.374E+01 -.318E+00
   -.256E+02 0.256E+02 -.207E+04   0.273E+02 -.273E+02 0.207E+04   -.175E+01 0.175E+01 -.692E-02
   0.489E+01 -.489E+01 0.937E+03   -.492E+01 0.492E+01 -.930E+03   0.200E-01 -.200E-01 -.715E+01
   0.905E+01 0.161E+01 0.938E+03   -.905E+01 -.156E+01 -.931E+03   -.201E-02 -.363E-01 -.716E+01
   0.313E+01 0.313E+01 -.918E+03   -.312E+01 -.312E+01 0.911E+03   -.135E-01 -.135E-01 0.709E+01
   0.146E+02 -.117E+02 -.915E+03   -.146E+02 0.118E+02 0.908E+03   0.175E-01 -.673E-01 0.709E+01
   0.160E+01 0.905E+01 0.938E+03   -.156E+01 -.905E+01 -.931E+03   -.363E-01 -.201E-02 -.716E+01
   0.143E+02 0.157E+02 0.944E+03   -.142E+02 -.157E+02 -.937E+03   -.278E-01 0.342E-02 -.717E+01
   0.211E+01 0.156E+02 -.914E+03   -.203E+01 -.156E+02 0.907E+03   -.595E-01 -.708E-03 0.709E+01
   0.130E+02 0.130E+02 -.916E+03   -.129E+02 -.129E+02 0.908E+03   -.257E-01 -.257E-01 0.709E+01
   0.444E+01 0.112E+02 0.945E+03   -.438E+01 -.112E+02 -.938E+03   -.469E-01 0.123E-01 -.716E+01
   0.288E+02 0.120E+02 0.958E+03   -.289E+02 -.121E+02 -.950E+03   0.148E-01 0.738E-01 -.717E+01
   0.127E+02 0.836E+01 -.909E+03   -.127E+02 -.838E+01 0.901E+03   -.174E-01 0.176E-01 0.708E+01
   0.305E+02 0.240E+02 -.906E+03   -.304E+02 -.241E+02 0.899E+03   -.587E-01 0.282E-01 0.707E+01
   0.128E+02 -.212E+01 0.949E+03   -.129E+02 0.210E+01 -.942E+03   0.526E-01 0.205E-01 -.717E+01
   0.337E+02 -.125E+02 0.962E+03   -.340E+02 0.125E+02 -.955E+03   0.225E+00 0.294E-01 -.718E+01
   0.225E+02 -.126E+02 -.908E+03   -.226E+02 0.125E+02 0.901E+03   0.102E+00 0.142E-01 0.708E+01
   0.606E+02 0.530E+01 -.891E+03   -.608E+02 -.541E+01 0.884E+03   0.113E+00 0.858E-01 0.706E+01
   0.120E+02 -.133E+02 0.944E+03   -.121E+02 0.133E+02 -.937E+03   0.973E-01 -.109E-01 -.716E+01
   0.168E+02 -.168E+02 0.945E+03   -.169E+02 0.169E+02 -.938E+03   0.704E-01 -.704E-01 -.714E+01
   0.117E+02 -.146E+02 -.915E+03   -.118E+02 0.146E+02 0.908E+03   0.674E-01 -.175E-01 0.709E+01
   0.428E+02 -.304E+02 -.900E+03   -.431E+02 0.304E+02 0.893E+03   0.243E+00 -.210E-01 0.709E+01
   0.133E+02 -.120E+02 0.944E+03   -.133E+02 0.122E+02 -.937E+03   0.109E-01 -.972E-01 -.716E+01
   0.112E+02 0.444E+01 0.945E+03   -.112E+02 -.438E+01 -.938E+03   0.123E-01 -.469E-01 -.716E+01
   0.156E+02 0.211E+01 -.914E+03   -.156E+02 -.203E+01 0.907E+03   -.708E-03 -.595E-01 0.709E+01
   0.126E+02 -.225E+02 -.908E+03   -.125E+02 0.226E+02 0.901E+03   -.142E-01 -.102E+00 0.708E+01
   0.157E+02 0.143E+02 0.944E+03   -.157E+02 -.142E+02 -.937E+03   0.342E-02 -.278E-01 -.717E+01
   0.264E+02 0.335E+02 0.964E+03   -.264E+02 -.335E+02 -.956E+03   0.605E-01 -.501E-02 -.720E+01
   0.333E+02 0.333E+02 -.905E+03   -.333E+02 -.333E+02 0.898E+03   -.308E-01 -.308E-01 0.707E+01
   0.240E+02 0.305E+02 -.906E+03   -.241E+02 -.304E+02 0.899E+03   0.282E-01 -.587E-01 0.707E+01
   0.335E+02 0.264E+02 0.964E+03   -.335E+02 -.264E+02 -.956E+03   -.501E-02 0.605E-01 -.720E+01
   0.466E+02 0.293E+02 0.101E+04   -.467E+02 -.296E+02 -.101E+04   0.712E-01 0.259E+00 -.736E+01
   0.816E+02 0.439E+02 -.870E+03   -.814E+02 -.441E+02 0.863E+03   -.115E+00 0.191E+00 0.699E+01
   0.719E+02 0.719E+02 -.863E+03   -.718E+02 -.718E+02 0.856E+03   -.494E-01 -.494E-01 0.698E+01
   0.514E+02 0.400E+01 0.994E+03   -.516E+02 -.427E+01 -.986E+03   0.156E+00 0.203E+00 -.715E+01
   0.340E+02 -.340E+02 0.103E+04   -.340E+02 0.339E+02 -.102E+04   -.161E-01 0.159E-01 -.578E+01
   0.116E+03 -.393E+02 -.827E+03   -.117E+03 0.391E+02 0.819E+03   0.113E+01 0.148E+00 0.714E+01
   0.123E+03 0.488E+02 -.709E+03   -.123E+03 -.506E+02 0.703E+03   0.170E+00 0.128E+01 0.612E+01
   0.324E+02 -.324E+02 0.973E+03   -.326E+02 0.326E+02 -.966E+03   0.138E+00 -.138E+00 -.703E+01
   0.125E+02 -.337E+02 0.962E+03   -.125E+02 0.340E+02 -.955E+03   -.295E-01 -.225E+00 -.718E+01
   0.304E+02 -.428E+02 -.900E+03   -.304E+02 0.431E+02 0.893E+03   0.210E-01 -.243E+00 0.709E+01
   0.393E+02 -.116E+03 -.827E+03   -.391E+02 0.117E+03 0.819E+03   -.148E+00 -.113E+01 0.714E+01
   0.212E+01 -.128E+02 0.949E+03   -.210E+01 0.129E+02 -.942E+03   -.206E-01 -.526E-01 -.717E+01
   -.212E+01 0.128E+02 0.949E+03   0.210E+01 -.129E+02 -.942E+03   0.205E-01 0.526E-01 -.717E+01
   0.835E+01 0.127E+02 -.909E+03   -.838E+01 -.127E+02 0.901E+03   0.176E-01 -.174E-01 0.708E+01
   -.836E+01 -.128E+02 -.909E+03   0.838E+01 0.127E+02 0.901E+03   -.176E-01 0.175E-01 0.708E+01
   0.120E+02 0.289E+02 0.958E+03   -.121E+02 -.289E+02 -.950E+03   0.738E-01 0.148E-01 -.717E+01
   0.400E+01 0.514E+02 0.994E+03   -.427E+01 -.516E+02 -.986E+03   0.203E+00 0.156E+00 -.715E+01
   0.439E+02 0.816E+02 -.870E+03   -.441E+02 -.814E+02 0.863E+03   0.191E+00 -.115E+00 0.699E+01
   0.530E+01 0.606E+02 -.891E+03   -.541E+01 -.608E+02 0.884E+03   0.858E-01 0.113E+00 0.706E+01
   0.293E+02 0.466E+02 0.101E+04   -.296E+02 -.467E+02 -.101E+04   0.259E+00 0.712E-01 -.736E+01
   -.111E+02 0.111E+02 0.106E+04   0.109E+02 -.109E+02 -.105E+04   0.144E+00 -.144E+00 -.693E+01
   0.857E+02 0.857E+02 -.704E+03   -.863E+02 -.863E+02 0.697E+03   0.446E+00 0.446E+00 0.650E+01
   0.488E+02 0.123E+03 -.709E+03   -.506E+02 -.123E+03 0.703E+03   0.128E+01 0.170E+00 0.612E+01
   0.111E+02 -.111E+02 0.106E+04   -.109E+02 0.109E+02 -.105E+04   -.144E+00 0.144E+00 -.693E+01
   -.293E+02 -.466E+02 0.101E+04   0.296E+02 0.467E+02 -.101E+04   -.259E+00 -.712E-01 -.736E+01
   -.488E+02 -.123E+03 -.709E+03   0.506E+02 0.123E+03 0.703E+03   -.128E+01 -.171E+00 0.612E+01
   -.857E+02 -.857E+02 -.704E+03   0.863E+02 0.863E+02 0.697E+03   -.446E+00 -.446E+00 0.650E+01
[...]
   -.193E+02 0.147E+02 0.718E+03   0.194E+02 -.148E+02 -.722E+03   -.159E+00 0.613E-01 0.366E+01
   -.621E+01 0.833E+01 0.707E+03   0.625E+01 -.834E+01 -.711E+03   -.581E-01 0.300E-01 0.363E+01
   -.458E+02 0.136E+02 -.670E+03   0.460E+02 -.135E+02 0.674E+03   -.179E+00 -.659E-01 -.376E+01
   -.151E+02 0.147E+01 -.682E+03   0.151E+02 -.144E+01 0.686E+03   -.396E-01 -.326E-01 -.375E+01
   -.261E+02 -.711E+00 0.724E+03   0.261E+02 0.794E+00 -.728E+03   -.983E-01 -.106E+00 0.362E+01
   -.107E+02 0.733E+01 0.713E+03   0.107E+02 -.732E+01 -.717E+03   -.804E-01 -.105E-01 0.362E+01
   -.345E+02 -.150E+02 -.676E+03   0.345E+02 0.151E+02 0.680E+03   -.125E-01 -.912E-01 -.378E+01
   -.431E+01 -.110E+02 -.685E+03   0.428E+01 0.110E+02 0.690E+03   0.406E-01 -.752E-02 -.374E+01
   -.157E+02 -.126E+02 0.715E+03   0.157E+02 0.126E+02 -.719E+03   0.203E-01 -.307E-01 0.360E+01
   -.650E+01 -.442E+01 0.713E+03   0.649E+01 0.444E+01 -.717E+03   0.365E-02 -.234E-01 0.361E+01
   -.145E+02 -.157E+02 -.686E+03   0.144E+02 0.157E+02 0.690E+03   0.393E-01 0.125E-01 -.374E+01
   -.118E+01 -.845E+01 -.690E+03   0.115E+01 0.845E+01 0.694E+03   0.359E-01 0.349E-02 -.372E+01
   -.765E+01 -.764E+01 0.707E+03   0.763E+01 0.763E+01 -.711E+03   0.174E-01 0.174E-01 0.362E+01
   -.152E+01 -.923E+01 0.708E+03   0.148E+01 0.924E+01 -.712E+03   0.452E-01 -.511E-02 0.362E+01
   -.729E+00 0.729E+00 0.120E+02   0.193E-11 0.134E-11 0.728E-11   -.616E-03 -.616E-03 -.124E+02

 POSITION                                       TOTAL-FORCE (eV/Angst)
      8.54453     12.59533     13.88470        -0.001072      0.000669      0.004520
      6.69899     14.44084     13.56395         0.002838     -0.003392      0.004838
     12.32695      8.81289     13.56395        -0.003392      0.002838      0.004838
     10.48144     10.65841     13.88470         0.000669     -0.001072      0.004520
      0.00000      0.00000      9.00000        -0.005627      0.005629      0.341171
      2.11389      2.11389      9.00000         0.000485      0.009750      0.342537
      0.00000      2.11389     11.11389         0.003597      0.003597     -0.318854
      2.11389      0.00000     11.11389        -0.005093      0.018008     -0.317708
      0.00000      4.22777      9.00000         0.009750      0.000485      0.342537
      2.11389      6.34166      9.00000         0.007627     -0.000566      0.345529
      0.00000      6.34166     11.11389         0.015897      0.000455     -0.316161
      2.11389      4.22777     11.11389         0.007168      0.007168     -0.316661
      0.00000      8.45554      9.00000         0.012218     -0.003208      0.344031
      2.11389     10.56943      9.00000        -0.005447     -0.020986      0.345947
      0.00000     10.56943     11.11389         0.004959     -0.004732     -0.311318
      2.11389      8.45554     11.11389         0.016477     -0.006442     -0.307671
      0.00000     12.68331      9.00000        -0.014267     -0.006176      0.344152
      2.11389     14.79720      9.00000        -0.058367     -0.008851      0.342644
      0.00000     14.79720     11.11389        -0.026336     -0.004376     -0.312776
      2.11389     12.68331     11.11389        -0.029877     -0.025352     -0.297015
      0.00000     16.91108      9.00000        -0.025811      0.003271      0.342254
      2.11389     19.02497      9.00000        -0.020687      0.020696      0.336896
      0.00000     19.02497     11.11389        -0.018009      0.005101     -0.317708
      2.11389     16.91108     11.11389        -0.066125      0.006879     -0.312475
      4.22777      0.00000      9.00000        -0.003271      0.025809      0.342256
      6.34166      2.11389      9.00000        -0.003208      0.012218      0.344031
      4.22777      2.11389     11.11389         0.000455      0.015897     -0.316161
      6.34166      0.00000     11.11389         0.004394      0.026322     -0.312773
      4.22777      4.22777      9.00000        -0.000566      0.007627      0.345529
      6.34166      6.34166      9.00000        -0.015071      0.001774      0.355440
      4.22777      6.34166     11.11389         0.009732      0.009732     -0.306140
      6.34166      4.22777     11.11389        -0.006442      0.016477     -0.307671
      4.22777      8.45554      9.00000         0.001774     -0.015071      0.355440
      6.34166     10.56943      9.00000        -0.019219     -0.068686      0.383632
      4.22777     10.56943     11.11389         0.040003     -0.044597     -0.256561
      6.34166      8.45554     11.11389         0.020446      0.020446     -0.254738
      4.22777     12.68331      9.00000        -0.049992     -0.065631      0.327240
      6.34166     14.79720      9.00000         0.005433     -0.005374      0.006063
      4.22777     14.79720     11.11389        -0.374865     -0.049145     -0.355486
      6.34166     12.68331     11.11389        -0.059574     -0.493747     -0.128587
      4.22777     16.91108      9.00000        -0.046743      0.046765      0.299024
      6.34166     19.02497      9.00000         0.008869      0.058356      0.342647
      4.22777     19.02497     11.11389        -0.006867      0.066128     -0.312472
      6.34166     16.91108     11.11389         0.049174      0.374937     -0.355542
      8.45554      0.00000      9.00000         0.006194      0.014256      0.344155
     10.56943      2.11389      9.00000        -0.006176     -0.014267      0.344152
      8.45554      2.11389     11.11389        -0.004732      0.004959     -0.311318
     10.56943      0.00000     11.11389         0.004744     -0.004980     -0.311316
      8.45554      4.22777      9.00000        -0.020986     -0.005447      0.345947
     10.56943      6.34166      9.00000        -0.065631     -0.049992      0.327240
      8.45554      6.34166     11.11389        -0.044597      0.040003     -0.256561
     10.56943      4.22777     11.11389        -0.025352     -0.029877     -0.297015
      8.45554      8.45554      9.00000        -0.068686     -0.019219      0.383632
     10.56943     10.56943      9.00000        -0.047200      0.047253      0.244561
      8.45554     10.56943     11.11389        -0.152653     -0.152653     -0.133486
     10.56943      8.45554     11.11389        -0.493747     -0.059574     -0.128587
      8.45554     12.68331      9.00000         0.047253     -0.047200      0.244561
     10.56943     14.79720      9.00000         0.068713      0.019228      0.383678
      8.45554     14.79720     11.11389         0.494100      0.059622     -0.128632
     10.56943     12.68331     11.11389         0.152801      0.152801     -0.133381
[...]
     19.02497      6.34166     11.11389        -0.023596      0.003368      0.371684
     16.91108      6.34166      9.00000        -0.045195      0.017123     -0.388892
     19.02497      4.22777      9.00000        -0.016076      0.008298     -0.397543
     16.91108      8.45554     11.11389        -0.054586     -0.017707      0.366344
     19.02497     10.56943     11.11389        -0.011291     -0.009123      0.366784
     16.91108     10.56943      9.00000        -0.029952     -0.029395     -0.400145
     19.02497      8.45554      9.00000        -0.022614     -0.002943     -0.398582
     16.91108     12.68331     11.11389        -0.004574     -0.025953      0.358213
     19.02497     14.79720     11.11389         0.011254     -0.001986      0.369178
     16.91108     14.79720      9.00000         0.005334     -0.008713     -0.403931
     19.02497     12.68331      9.00000         0.000902     -0.006455     -0.401206
     16.91108     16.91108     11.11389         0.010760      0.003363      0.368629
     19.02497     19.02497     11.11389         0.009892      0.000924      0.373640
     16.91108     19.02497      9.00000         0.004728      0.004728     -0.400096
     19.02497     16.91108      9.00000         0.012493     -0.001436     -0.399648
    total drift:                               -0.729862      0.728440     -0.363185

  FREE ENERGIE OF THE ION-ELECTRON SYSTEM (eV)
  free  energy   TOTEN  =      -790.61219257 eV

  energy  without entropy=     -790.61219257  energy(sigma->0) =     -790.61219257