 vasp.6.3.0 20Jan22 (build Apr  1 2022 16:44:48) complex
 executed on        HPECrayEX_GCC date 2023.01.09  22:47:15

 INCAR:
   SYSTEM = MgO-rocksalt
   ISMEAR = 0
   SIGMA = 0.05
   EDIFF = 1E-6
   ALGO = ALL
   ISTART = 0
   IBRION = -1
   NSW = 0
   ISYM = 2
   DIPOL = 0.5 0.5 0.5
   IDIPOL = 3
   LDIPOL = .TRUE.
   METAGGA = R2SCAN
   ENCUT = 520
   PREC = Accurate
   LASPH = .TRUE.
   LREAL = Auto
   ISPIN = 1
   NELM = 200
   NELMIN = 8
   NCORE = 4
   KPAR = 2
   LWAVE = .FALSE.
   LCHARG = .FALSE.

 POTCAR:    PAW_PBE Ag 02Apr2005
 POTCAR:    PAW_PBE Mg_pv 13Apr2007
 POTCAR:    PAW_PBE O 08Apr2002
 POTCAR:    PAW_PBE Ag 02Apr2005
   VRHFIN =Ag : s1 d10

   TITEL  = PAW_PBE Ag 02Apr2005
   POMASS =  107.868; ZVAL   =   11.000    mass and valenz
   ENMAX  =  249.844; ENMIN  =  187.383 eV

   TITEL  = PAW_PBE Mg_pv 13Apr2007
   POMASS =   24.305; ZVAL   =    8.000    mass and valenz
   ENMAX  =  403.929; ENMIN  =  302.947 eV

   TITEL  = PAW_PBE O 08Apr2002
   POMASS =   16.000; ZVAL   =    6.000    mass and valenz
   ENMAX  =  400.000; ENMIN  =  300.000 eV

 Optimization of the real space projectors (new method)

 maximal supplied QI-value         = 15.12
 optimisation between [QCUT,QGAM] = [ 11.64, 23.28] = [ 37.95,151.78] Ry
 Optimized for a Real-space Cutoff    1.45 Angstroem

   l    n(q)    QCUT    max X(q) W(low)/X(q) W(high)/X(q)  e(spline)
   2      9    11.641    53.897    0.22E-03    0.42E-04    0.28E-06
   2      9    11.641    52.416    0.23E-03    0.44E-04    0.29E-06
   0     10    11.641   122.045    0.51E-04    0.25E-04    0.16E-06
   0     10    11.641    73.629    0.49E-04    0.24E-04    0.16E-06
   1     10    11.641    15.255    0.99E-04    0.55E-04    0.11E-06
   1     10    11.641     9.562    0.81E-04    0.47E-04    0.95E-07
 Optimization of the real space projectors (new method)

[...]

   l    n(q)    QCUT    max X(q) W(low)/X(q) W(high)/X(q)  e(spline)
   1      8    11.527     2.974    0.44E-04    0.56E-04    0.12E-06
   1      8    11.527     4.279    0.12E-03    0.12E-03    0.26E-06
   0      9    11.527    16.381    0.46E-04    0.64E-04    0.78E-07
   0      9    11.527     5.611    0.26E-04    0.43E-04    0.55E-07
   2      8    11.527     4.652    0.22E-03    0.72E-04    0.47E-07
 Optimization of the real space projectors (new method)

 maximal supplied QI-value         = 24.76
 optimisation between [QCUT,QGAM] = [ 11.64, 23.27] = [ 37.91,151.63] Ry
 Optimized for a Real-space Cutoff    1.14 Angstroem

   l    n(q)    QCUT    max X(q) W(low)/X(q) W(high)/X(q)  e(spline)
   0      8    11.635    20.381    0.10E-03    0.33E-03    0.24E-06
   0      8    11.635    15.268    0.11E-03    0.35E-03    0.26E-06
   1      7    11.635     5.964    0.24E-03    0.31E-03    0.30E-06
   1      7    11.635     5.382    0.22E-03    0.25E-03    0.26E-06
  PAW_PBE Ag 02Apr2005                  :
  PAW_PBE Mg_pv 13Apr2007               :
  PAW_PBE O 08Apr2002                   :

 POSCAR: Ag Mg  O
  positions in direct lattice
  velocities in cartesian coordinates

 METAGGA = R2SCA    LMAXTAU =  6    LMIXTAU =  F

 ion  position               nearest neighbor table
   1  0.286  0.505  0.630-   2 2.73   3 2.73
   2  0.398  0.441  0.622-   3 2.68   4 2.73   1 2.73 153 2.78  55 2.91
   3  0.398  0.568  0.615- 157 2.59   2 2.68   1 2.73   4 2.73  55 2.88
   4  0.510  0.505  0.629-   2 2.73   3 2.73
   5  0.000  0.000  0.407- 107 2.11 108 2.11 123 2.11 188 2.11 105 2.11
   6  0.100  0.100  0.407- 107 2.11 108 2.11 112 2.11 127 2.11 106 2.11
   7  0.000  0.100  0.503- 105 2.11 106 2.11 109 2.11 186 2.11 107 2.11
   8  0.100  0.000  0.503- 105 2.11 106 2.11 122 2.11 125 2.11 108 2.11
   9  0.000  0.200  0.407- 111 2.11 107 2.11 112 2.11 192 2.11 109 2.11
  10  0.100  0.300  0.407- 112 2.11 111 2.11 116 2.11 131 2.11 110 2.11
  11  0.000  0.300  0.503- 109 2.11 110 2.11 113 2.11 190 2.11 111 2.11
  12  0.100  0.200  0.503- 110 2.11 109 2.11 106 2.11 129 2.11 112 2.11
  13  0.000  0.400  0.407- 111 2.11 115 2.11 116 2.11 196 2.11 113 2.11
  14  0.100  0.500  0.407- 115 2.11 116 2.11 120 2.11 135 2.11 114 2.11
  15  0.000  0.500  0.503- 113 2.11 114 2.11 117 2.11 194 2.11 115 2.11
  16  0.100  0.400  0.503- 110 2.11 113 2.11 114 2.11 133 2.11 116 2.11
  17  0.000  0.600  0.407- 115 2.11 119 2.11 120 2.11 200 2.11 117 2.11
  18  0.100  0.700  0.407- 124 2.11 120 2.11 119 2.11 139 2.11 118 2.11
  19  0.000  0.700  0.503- 121 2.11 118 2.11 117 2.11 198 2.11 119 2.11
  20  0.100  0.600  0.503- 114 2.11 117 2.11 118 2.11 137 2.11 120 2.11
  21  0.000  0.800  0.407- 119 2.11 123 2.11 124 2.11 204 2.11 121 2.11
  22  0.100  0.900  0.407- 108 2.11 123 2.11 124 2.11 143 2.11 122 2.11
  23  0.000  0.900  0.503- 105 2.11 121 2.11 122 2.11 202 2.11 123 2.11
  24  0.100  0.800  0.503- 118 2.11 121 2.11 122 2.11 141 2.11 124 2.11
  25  0.200  0.000  0.407- 128 2.11 127 2.11 108 2.11 143 2.11 125 2.11
  26  0.300  0.100  0.407- 127 2.11 128 2.11 132 2.11 147 2.11 126 2.11
  27  0.200  0.100  0.503- 126 2.11 125 2.11 106 2.11 129 2.11 127 2.11
  28  0.300  0.000  0.503- 125 2.11 126 2.11 142 2.11 145 2.11 128 2.11
  29  0.200  0.200  0.407- 131 2.11 132 2.11 112 2.11 127 2.11 129 2.11
  30  0.300  0.300  0.407- 131 2.11 132 2.11 136 2.11 151 2.11 130 2.11
  31  0.200  0.300  0.503- 129 2.11 130 2.11 110 2.11 133 2.11 131 2.11
  32  0.300  0.200  0.503- 129 2.11 130 2.11 126 2.11 149 2.11 132 2.11
  33  0.200  0.400  0.407- 136 2.11 131 2.11 135 2.11 116 2.11 133 2.11
  34  0.300  0.500  0.407- 135 2.11 136 2.11 140 2.11 155 2.11 134 2.11
  35  0.200  0.500  0.503- 134 2.11 133 2.11 114 2.11 137 2.11 135 2.11
  36  0.300  0.400  0.503- 133 2.11 130 2.11 134 2.11 153 2.11 136 2.11
  37  0.200  0.600  0.407- 140 2.11 135 2.11 139 2.11 120 2.11 137 2.11
  38  0.300  0.700  0.407- 139 2.11 144 2.11 140 2.11 159 2.11 138 2.11
  39  0.200  0.700  0.503- 138 2.11 141 2.11 118 2.11 137 2.11 139 2.11
  40  0.300  0.600  0.503- 137 2.11 134 2.11 138 2.11 157 2.11 140 2.11
  41  0.200  0.800  0.407- 139 2.11 144 2.11 143 2.11 124 2.11 141 2.11
  42  0.300  0.900  0.407- 143 2.11 128 2.11 144 2.11 163 2.11 142 2.11
  43  0.200  0.900  0.503- 142 2.11 125 2.11 141 2.11 122 2.11 143 2.11
  44  0.300  0.800  0.503- 138 2.11 141 2.11 142 2.11 161 2.11 144 2.11
  45  0.400  0.000  0.407- 128 2.11 147 2.11 148 2.11 163 2.11 145 2.11
  46  0.500  0.100  0.407- 147 2.11 148 2.11 152 2.11 167 2.11 146 2.11
  47  0.400  0.100  0.503- 126 2.11 145 2.11 146 2.11 149 2.11 147 2.11
  48  0.500  0.000  0.503- 145 2.11 146 2.11 162 2.11 165 2.11 148 2.11
  49  0.400  0.200  0.407- 151 2.11 147 2.11 132 2.11 152 2.11 149 2.11
  50  0.500  0.300  0.407- 152 2.11 151 2.11 156 2.11 171 2.11 150 2.11
  51  0.400  0.300  0.503- 149 2.11 130 2.11 150 2.11 153 2.11 151 2.11
  52  0.500  0.200  0.503- 150 2.11 149 2.11 146 2.11 169 2.11 152 2.11
  53  0.400  0.400  0.407- 136 2.11 151 2.11 155 2.11 156 2.11 153 2.11
  54  0.500  0.500  0.407- 155 2.11 156 2.11 160 2.11 175 2.11 154 2.11
  55  0.400  0.500  0.503- 134 2.11 153 2.11 154 2.11 157 2.11 155 2.11   3 2.88   2 2.91
  56  0.500  0.400  0.503- 150 2.11 153 2.11 154 2.11 173 2.11 156 2.11
  57  0.400  0.600  0.407- 140 2.11 155 2.11 159 2.11 160 2.11 157 2.11
  58  0.500  0.700  0.407- 164 2.11 160 2.11 159 2.11 179 2.11 158 2.11
  59  0.400  0.700  0.503- 161 2.11 157 2.11 158 2.11 138 2.11 159 2.11
  60  0.500  0.600  0.503- 154 2.11 157 2.11 158 2.11 177 2.11 160 2.11
[...]
 190  0.900  0.300  0.503-  92 2.11  91 2.11  11 2.11  96 2.11  90 2.11
 191  0.800  0.300  0.407-  70 2.11  89 2.11  90 2.11  93 2.11  91 2.11
 192  0.900  0.200  0.407-  90 2.11  86 2.11  89 2.11   9 2.11  92 2.11
 193  0.800  0.400  0.503-  76 2.11  91 2.11  95 2.11  96 2.11  93 2.11
 194  0.900  0.500  0.503-  15 2.11  95 2.11  96 2.11 100 2.11  94 2.11
 195  0.800  0.500  0.407-  74 2.11  93 2.11  94 2.11  97 2.11  95 2.11
 196  0.900  0.400  0.407-  13 2.11  90 2.11  93 2.11  94 2.11  96 2.11
 197  0.800  0.600  0.503-  80 2.11  95 2.11  99 2.11 100 2.11  97 2.11
 198  0.900  0.700  0.503- 104 2.11  99 2.11 100 2.11  19 2.11  98 2.11
 199  0.800  0.700  0.407-  78 2.11 101 2.11  98 2.11  97 2.11  99 2.11
 200  0.900  0.600  0.407-  17 2.11  94 2.11  97 2.11  98 2.11 100 2.11
 201  0.800  0.800  0.503-  84 2.11  99 2.11 103 2.11 104 2.11 101 2.11
 202  0.900  0.900  0.503-  23 2.11  88 2.11 103 2.11 104 2.11 102 2.11
 203  0.800  0.900  0.407-  82 2.11  85 2.11 101 2.11 102 2.11 103 2.11
 204  0.900  0.800  0.407-  98 2.11  21 2.11 101 2.11 102 2.11 104 2.11

  LATTYP: Found a simple tetragonal cell.
 ALAT       =    21.1388521970
 C/A-ratio  =     1.0461251639

  Lattice vectors:

 A1 = (  21.1388521970,   0.0000000000,   0.0000000000)
 A2 = (   0.0000000000,  21.1388521970,   0.0000000000)
 A3 = (   0.0000000000,   0.0000000000,  22.1138852197)

Analysis of symmetry for initial positions (statically):
 Subroutine PRICEL returns:
 Original cell was already a primitive cell.

 Routine SETGRP: Setting up the symmetry group for a
 simple tetragonal supercell.

 Subroutine GETGRP returns: Found  1 space group operations
 (whereof  1 operations were pure point group operations)
 out of a pool of 16 trial point group operations.

The static configuration has the point symmetry C_1 .

Analysis of symmetry for dynamics (positions and initial velocities):
 Subroutine PRICEL returns:
 Original cell was already a primitive cell.

[...]

The dynamic configuration has the point symmetry C_1 .

Analysis of constrained symmetry for selective dynamics:
 Subroutine PRICEL returns:
 Original cell was already a primitive cell.

 Routine SETGRP: Setting up the symmetry group for a
 simple tetragonal supercell.

 Subroutine GETGRP returns: Found  1 space group operations
 (whereof  1 operations were pure point group operations)
 out of a pool of 16 trial point group operations.

The constrained configuration has the point symmetry C_1 .

 Subroutine INISYM returns: Found  1 space group operations
 (whereof  1 operations are pure point group operations),
 and found     1 'primitive' translations

                                     Primitive cell

  volume of cell :    9881.6133

  direct lattice vectors                    reciprocal lattice vectors
    21.138852197  0.000000000  0.000000000     0.047306258  0.000000000  0.000000000
     0.000000000 21.138852197  0.000000000     0.000000000  0.047306258  0.000000000
     0.000000000  0.000000000 22.113885220     0.000000000  0.000000000  0.045220457

  length of vectors
    21.138852197 21.138852197 22.113885220     0.047306258  0.047306258  0.045220457

  position of ions in fractional coordinates (direct lattice)
     0.285624611  0.505285429  0.629857969
     0.397515318  0.441309787  0.621723730
     0.397782759  0.567771369  0.615378518
     0.509772545  0.504527893  0.628685236
     0.000000000  0.000000000  0.406984115
     0.100000000  0.100000000  0.406984115
     0.000000000  0.100000000  0.502574971
     0.100000000  0.000000000  0.502574971
     0.000000000  0.200000000  0.406984115
     0.100000000  0.300000000  0.406984115
     0.000000000  0.300000000  0.502574971
     0.100000000  0.200000000  0.502574971
     0.000000000  0.400000000  0.406984115
[...]
     52     -44.4083      2.00000
     53     -44.4079      2.00000
     54     -44.4068      2.00000
     55     -44.4054      2.00000
     56     -44.4041      2.00000
     57     -44.4024      2.00000
     58     -44.4023      2.00000
     59     -44.3999      2.00000
     60     -44.3991      2.00000
[...]
    946       6.4621      0.00000
    947       6.5138      0.00000
    948       6.5259      0.00000
    949       6.5744      0.00000
    950       6.6382      0.00000
    951       6.6794      0.00000
    952       6.7899      0.00000
    953       6.8231      0.00000
    954       6.9089      0.00000
    955       6.9396      0.00000
    956       7.0580      0.00000
    957       7.0850      0.00000
    958       7.1282      0.00000
    959       7.3617      0.00000
    960       7.3745      0.00000

 soft charge-density along one line, spin component           1
         0         1         2         3         4         5         6         7         8         9
 total charge-density along one line

------------------------ aborting loop because EDIFF is reached ----------------------------------------

  FORCE on cell =-STRESS in cart. coord.  units (eV):
  Direction    XX          YY          ZZ          XY          YZ          ZX
  Alpha Z  1401.13727  1401.13727  1401.13727
  Ewald  484953.40071483912.36336************    -3.45277   -66.40944   -12.81358
  Hartree514367.78662513466.32293************    -3.24512   -48.76210   -10.11148
  E(xc)   -8525.15741 -8525.52294 -8526.36845    -0.00078    -0.03848    -0.00859
  Local  ************************************     6.75158   114.32578    22.92193
  n-local -8723.95201 -8726.97973 -8848.74866    -0.02077     0.16753     0.05247
  augment  4074.47653  4074.85018  4020.76747    -0.00592     0.19160    -0.03332
  Kinetic 23285.36387 23284.64933 23519.42242    -0.02367     0.54036     0.04902
  Fock        0.00000     0.00000     0.00000     0.00000     0.00000     0.00000
  Total    -221.24523  -221.81323   -17.09318     0.00254     0.01526     0.05646
  in kB     -35.87209   -35.96418    -2.77144     0.00041     0.00247     0.00915

 VOLUME and BASIS-vectors are now :
  energy-cutoff  :      520.00
  volume of cell :     9881.61
      direct lattice vectors                 reciprocal lattice vectors
    21.138852197  0.000000000  0.000000000     0.047306258  0.000000000  0.000000000
     0.000000000 21.138852197  0.000000000     0.000000000  0.047306258  0.000000000
     0.000000000  0.000000000 22.113885220     0.000000000  0.000000000  0.045220457

  length of vectors
    21.138852197 21.138852197 22.113885220     0.047306258  0.047306258  0.045220457

 FORCES acting on ions:
    Electron-Ion                     Ewald-Force                    Non-Local-Force
   0.480E+03 -.317E+01 -.207E+04   -.474E+03 0.321E+01 0.207E+04   -.586E+01 -.459E-01 -.256E+00
   0.198E+01 0.478E+03 -.206E+04   -.191E+01 -.471E+03 0.206E+04   -.683E-01 -.707E+01 -.509E-01
   -.110E+01 -.473E+03 -.205E+04   0.107E+01 0.466E+03 0.205E+04   0.363E-01 0.664E+01 -.328E+00
   -.481E+03 -.524E+00 -.207E+04   0.475E+03 0.553E+00 0.207E+04   0.596E+01 -.409E-01 -.381E+00
   0.656E+01 -.442E+00 0.937E+03   -.659E+01 0.445E+00 -.929E+03   0.183E-01 -.220E-02 -.755E+01
   0.126E+02 0.111E+02 0.941E+03   -.127E+02 -.111E+02 -.933E+03   0.384E-01 0.498E-03 -.755E+01
   0.948E+01 0.103E+02 -.918E+03   -.951E+01 -.103E+02 0.910E+03   0.192E-01 -.106E-01 0.755E+01
   0.134E+02 -.781E+00 -.917E+03   -.134E+02 0.786E+00 0.909E+03   0.322E-01 -.343E-02 0.755E+01
   0.107E+02 0.145E+02 0.941E+03   -.108E+02 -.145E+02 -.933E+03   0.263E-01 -.962E-02 -.756E+01
   0.289E+02 0.252E+02 0.957E+03   -.291E+02 -.251E+02 -.949E+03   0.885E-01 -.435E-02 -.758E+01
   0.229E+02 0.221E+02 -.911E+03   -.229E+02 -.221E+02 0.903E+03   0.156E-01 -.252E-01 0.754E+01
   0.259E+02 0.293E+02 -.910E+03   -.260E+02 -.292E+02 0.902E+03   0.570E-01 -.227E-01 0.754E+01
   0.213E+02 0.114E+02 0.952E+03   -.213E+02 -.114E+02 -.944E+03   0.346E-01 -.744E-02 -.757E+01
   0.473E+02 0.111E+01 0.976E+03   -.474E+02 -.112E+01 -.967E+03   0.113E+00 0.520E-02 -.762E+01
   0.382E+02 0.890E+00 -.903E+03   -.382E+02 -.892E+00 0.895E+03   -.148E-01 0.155E-02 0.752E+01
   0.719E+02 0.329E+02 -.884E+03   -.719E+02 -.328E+02 0.876E+03   0.401E-01 -.438E-01 0.748E+01
   0.218E+02 -.105E+02 0.952E+03   -.218E+02 0.105E+02 -.944E+03   0.385E-01 0.111E-01 -.757E+01
   0.303E+02 -.251E+02 0.958E+03   -.304E+02 0.251E+02 -.950E+03   0.105E+00 0.614E-02 -.758E+01
   0.239E+02 -.220E+02 -.910E+03   -.240E+02 0.220E+02 0.902E+03   0.185E-01 0.265E-01 0.753E+01
   0.747E+02 -.309E+02 -.882E+03   -.748E+02 0.308E+02 0.874E+03   0.469E-01 0.486E-01 0.748E+01
   0.112E+02 -.150E+02 0.942E+03   -.112E+02 0.150E+02 -.934E+03   0.306E-01 0.817E-02 -.756E+01
   0.130E+02 -.122E+02 0.941E+03   -.131E+02 0.123E+02 -.933E+03   0.429E-01 -.747E-02 -.755E+01
   0.982E+01 -.113E+02 -.918E+03   -.985E+01 0.112E+02 0.910E+03   0.212E-01 0.784E-02 0.755E+01
   0.274E+02 -.306E+02 -.910E+03   -.275E+02 0.306E+02 0.902E+03   0.673E-01 0.215E-01 0.754E+01
   0.112E+02 -.838E+00 0.942E+03   -.112E+02 0.846E+00 -.934E+03   0.372E-01 -.684E-02 -.755E+01
   0.854E+01 0.195E+02 0.949E+03   -.858E+01 -.196E+02 -.940E+03   0.324E-01 0.472E-01 -.755E+01
   0.174E+02 0.217E+02 -.912E+03   -.174E+02 -.218E+02 0.904E+03   0.450E-01 0.128E-01 0.755E+01
   0.894E+01 -.145E+01 -.913E+03   -.897E+01 0.146E+01 0.905E+03   0.251E-01 -.955E-02 0.755E+01
   0.207E+02 0.305E+02 0.955E+03   -.208E+02 -.305E+02 -.947E+03   0.818E-01 0.372E-01 -.756E+01
   0.247E+02 0.559E+02 0.995E+03   -.249E+02 -.561E+02 -.987E+03   0.158E+00 0.145E+00 -.751E+01
   0.597E+02 0.712E+02 -.877E+03   -.599E+02 -.712E+02 0.869E+03   0.201E+00 -.477E-01 0.749E+01
   0.217E+02 0.656E+02 -.893E+03   -.218E+02 -.658E+02 0.885E+03   0.711E-01 0.134E+00 0.754E+01
   0.519E+02 0.328E+02 0.100E+04   -.522E+02 -.328E+02 -.994E+03   0.250E+00 0.203E-01 -.764E+01
   0.471E+02 0.348E+01 0.107E+04   -.476E+02 -.354E+01 -.106E+04   0.343E+00 0.444E-01 -.760E+01
   0.154E+03 0.590E+01 -.775E+03   -.154E+03 -.590E+01 0.768E+03   0.296E+00 0.283E-02 0.693E+01
   0.103E+03 0.138E+03 -.725E+03   -.105E+03 -.138E+03 0.718E+03   0.939E+00 0.715E-01 0.698E+01
   0.538E+02 -.306E+02 0.100E+04   -.542E+02 0.306E+02 -.996E+03   0.292E+00 -.900E-03 -.765E+01
   0.264E+02 -.570E+02 0.100E+04   -.267E+02 0.573E+02 -.992E+03   0.192E+00 -.163E+00 -.749E+01
   0.643E+02 -.736E+02 -.873E+03   -.646E+02 0.735E+02 0.865E+03   0.249E+00 0.544E-01 0.748E+01
   0.113E+03 -.135E+03 -.706E+03   -.115E+03 0.135E+03 0.699E+03   0.124E+01 -.118E-01 0.679E+01
   0.219E+02 -.319E+02 0.957E+03   -.220E+02 0.320E+02 -.949E+03   0.977E-01 -.498E-01 -.756E+01
   0.890E+01 -.217E+02 0.949E+03   -.895E+01 0.218E+02 -.941E+03   0.371E-01 -.708E-01 -.755E+01
   0.182E+02 -.241E+02 -.912E+03   -.183E+02 0.242E+02 0.904E+03   0.506E-01 -.258E-01 0.754E+01
   0.236E+02 -.704E+02 -.890E+03   -.237E+02 0.707E+02 0.882E+03   0.859E-01 -.177E+00 0.754E+01
   -.177E+00 -.113E+01 0.946E+03   0.176E+00 0.115E+01 -.938E+03   0.103E-02 -.121E-01 -.755E+01
   -.885E+01 0.194E+02 0.948E+03   0.889E+01 -.194E+02 -.940E+03   -.305E-01 0.474E-01 -.755E+01
   -.282E+00 0.315E+02 -.908E+03   0.281E+00 -.316E+02 0.900E+03   0.111E-02 0.680E-01 0.755E+01
   -.928E+01 -.142E+01 -.913E+03   0.931E+01 0.143E+01 0.905E+03   -.234E-01 -.101E-01 0.755E+01
   -.334E+00 0.442E+02 0.967E+03   0.332E+00 -.445E+02 -.959E+03   0.139E-02 0.184E+00 -.756E+01
   -.254E+02 0.553E+02 0.994E+03   0.256E+02 -.555E+02 -.986E+03   -.152E+00 0.156E+00 -.751E+01
   -.132E+01 0.139E+03 -.826E+03   0.132E+01 -.140E+03 0.818E+03   -.768E-03 0.832E+00 0.764E+01
   -.224E+02 0.650E+02 -.893E+03   0.225E+02 -.651E+02 0.885E+03   -.685E-01 0.133E+00 0.754E+01
   -.929E+00 0.558E+02 0.106E+04   0.910E+00 -.560E+02 -.105E+04   0.140E-01 0.193E+00 -.658E+01
   -.485E+02 0.336E+01 0.107E+04   0.489E+02 -.342E+01 -.106E+04   -.332E+00 0.445E-01 -.755E+01
   -.349E+01 0.172E+02 -.518E+03   0.345E+01 -.177E+02 0.512E+03   0.377E-01 0.330E+00 0.584E+01
   -.105E+03 0.137E+03 -.730E+03   0.106E+03 -.137E+03 0.722E+03   -.912E+00 0.117E+00 0.698E+01
   -.104E+01 -.521E+02 0.107E+04   0.102E+01 0.523E+02 -.106E+04   0.149E-01 -.136E+00 -.624E+01
   -.273E+02 -.564E+02 0.999E+03   0.275E+02 0.567E+02 -.991E+03   -.185E+00 -.173E+00 -.749E+01
   -.166E+01 -.149E+03 -.814E+03   0.165E+01 0.151E+03 0.805E+03   0.351E-02 -.110E+01 0.769E+01
   -.115E+03 -.133E+03 -.712E+03   0.116E+03 0.133E+03 0.705E+03   -.120E+01 -.542E-01 0.683E+01
[...]
   -.114E+02 0.121E+02 0.711E+03   0.114E+02 -.121E+02 -.715E+03   -.323E-01 -.912E-02 0.341E+01
   0.178E+00 0.927E+01 0.706E+03   -.177E+00 -.926E+01 -.710E+03   -.216E-02 -.104E-01 0.342E+01
   -.236E+02 0.118E+02 -.681E+03   0.236E+02 -.118E+02 0.685E+03   -.149E-01 -.190E-01 -.355E+01
   0.590E+00 0.464E+00 -.684E+03   -.586E+00 -.466E+00 0.688E+03   -.611E-02 0.173E-02 -.354E+01
   -.172E+02 0.444E+00 0.717E+03   0.173E+02 -.447E+00 -.721E+03   -.323E-01 0.339E-02 0.340E+01
   0.339E+00 0.683E+01 0.712E+03   -.336E+00 -.683E+01 -.715E+03   -.465E-02 -.757E-02 0.341E+01
   -.242E+02 -.110E+02 -.681E+03   0.242E+02 0.110E+02 0.685E+03   -.173E-01 0.233E-01 -.355E+01
   0.403E+00 -.128E+02 -.687E+03   -.400E+00 0.128E+02 0.691E+03   -.434E-02 0.221E-01 -.352E+01
   -.118E+02 -.119E+02 0.712E+03   0.119E+02 0.119E+02 -.716E+03   -.369E-01 0.105E-01 0.341E+01
   0.356E+00 -.630E+01 0.712E+03   -.353E+00 0.629E+01 -.716E+03   -.494E-02 0.111E-01 0.341E+01
   -.108E+02 -.144E+02 -.688E+03   0.109E+02 0.144E+02 0.692E+03   -.270E-01 0.134E-01 -.352E+01
   0.177E+00 -.711E+01 -.691E+03   -.175E+00 0.711E+01 0.695E+03   -.181E-02 0.635E-02 -.351E+01
   -.560E+01 -.658E+01 0.705E+03   0.562E+01 0.658E+01 -.709E+03   -.261E-01 -.797E-03 0.342E+01
   0.196E+00 -.952E+01 0.706E+03   -.195E+00 0.951E+01 -.710E+03   -.253E-02 0.896E-02 0.342E+01
   0.164E-01 0.601E+00 0.138E+02   0.171E-11 0.114E-12 0.637E-11   -.173E-01 -.608E+00 -.112E+02

 POSITION                                       TOTAL-FORCE (eV/Angst)
      6.03778     10.68115     13.92861         0.108065     -0.007732     -0.053767
      8.40302      9.32878     13.74873         0.002233      0.120113     -0.004007
      8.40867     12.00204     13.60841         0.006996     -0.107770      0.003855
     10.77601     10.66514     13.90267        -0.101544     -0.010316     -0.060619
      0.00000      0.00000      9.00000        -0.005164      0.000667      0.519154
      2.11389      2.11389      9.00000        -0.010919     -0.000250      0.519339
      0.00000      2.11389     11.11389        -0.005362      0.003054     -0.474348
      2.11389      0.00000     11.11389        -0.009264      0.001003     -0.474133
      0.00000      4.22777      9.00000        -0.007166      0.002756      0.520946
      2.11389      6.34166      9.00000        -0.023970      0.001240      0.526850
      0.00000      6.34166     11.11389        -0.003693      0.007628     -0.468401
      2.11389      4.22777     11.11389        -0.015542      0.006572     -0.469194
      0.00000      8.45554      9.00000        -0.009342      0.002373      0.525798
      2.11389     10.56943      9.00000        -0.031035     -0.001515      0.535695
      0.00000     10.56943     11.11389         0.004767     -0.000364     -0.460426
      2.11389      8.45554     11.11389        -0.006335      0.016396     -0.436330
      0.00000     12.68331      9.00000        -0.010388     -0.003347      0.526091
      2.11389     14.79720      9.00000        -0.028390     -0.001639      0.527706
      0.00000     14.79720     11.11389        -0.004374     -0.007953     -0.467668
      2.11389     12.68331     11.11389        -0.008465     -0.017817     -0.433815
      0.00000     16.91108      9.00000        -0.008322     -0.002259      0.521139
      2.11389     19.02497      9.00000        -0.012200      0.002317      0.519397
      0.00000     19.02497     11.11389        -0.005887     -0.002175     -0.474045
      2.11389     16.91108     11.11389        -0.018216     -0.006167     -0.467974
      4.22777      0.00000      9.00000        -0.010819      0.001942      0.518907
      6.34166      2.11389      9.00000        -0.009672     -0.012841      0.518676
      4.22777      2.11389     11.11389        -0.013181     -0.003397     -0.472357
      6.34166      0.00000     11.11389        -0.007532      0.002642     -0.473261
      4.22777      4.22777      9.00000        -0.023888     -0.011318      0.519387
      6.34166      6.34166      9.00000        -0.051056     -0.046052      0.497627
      4.22777      6.34166     11.11389        -0.052200      0.017497     -0.435926
      6.34166      4.22777     11.11389        -0.022476     -0.037774     -0.468020
      4.22777      8.45554      9.00000        -0.066950     -0.004915      0.533665
      6.34166     10.56943      9.00000        -0.109404     -0.014173      0.463902
      4.22777     10.56943     11.11389        -0.108448     -0.001959     -0.335426
      6.34166      8.45554     11.11389        -0.319930     -0.010485     -0.310694
      4.22777     12.68331      9.00000        -0.077320     -0.000784      0.534365
      6.34166     14.79720      9.00000        -0.062310      0.053120      0.489106
      4.22777     14.79720     11.11389        -0.063510     -0.020281     -0.426742
      6.34166     12.68331     11.11389        -0.427174      0.001235     -0.295017
      4.22777     16.91108      9.00000        -0.028580      0.015208      0.519193
      6.34166     19.02497      9.00000        -0.011114      0.019440      0.518698
      4.22777     19.02497     11.11389        -0.014795      0.007005     -0.471622
      6.34166     16.91108     11.11389        -0.026994      0.049734     -0.465416
      8.45554      0.00000      9.00000        -0.000303      0.003344      0.518793
     10.56943      2.11389      9.00000         0.009143     -0.012905      0.518678
      8.45554      2.11389     11.11389        -0.000256     -0.018192     -0.472787
     10.56943      0.00000     11.11389         0.006963      0.002770     -0.473345
      8.45554      4.22777      9.00000        -0.000379     -0.048097      0.517046
     10.56943      6.34166      9.00000         0.049418     -0.048955      0.499215
      8.45554      6.34166     11.11389         0.000906     -0.267940     -0.515935
     10.56943      4.22777     11.11389         0.021550     -0.037170     -0.467848
      8.45554      8.45554      9.00000        -0.004642     -0.047595      0.274934
     10.56943     10.56943      9.00000         0.106644     -0.014072      0.452661
      8.45554     10.56943     11.11389         0.000800     -0.130529     -0.500547
     10.56943      8.45554     11.11389         0.301293     -0.025098     -0.299339
      8.45554     12.68331      9.00000        -0.004804      0.033603      0.198353
     10.56943     14.79720      9.00000         0.060331      0.055901      0.489836
      8.45554     14.79720     11.11389        -0.000502      0.360031     -0.544199
     10.56943     12.68331     11.11389         0.404911      0.014717     -0.291599
[...]
     19.02497      6.34166     11.11389        -0.001054     -0.005785      0.335409
     16.91108      6.34166      9.00000        -0.009032     -0.002505     -0.385932
     19.02497      4.22777      9.00000        -0.000590     -0.002868     -0.383421
     16.91108      8.45554     11.11389        -0.004453     -0.005185      0.327943
     19.02497     10.56943     11.11389        -0.001682      0.000504      0.331503
     16.91108     10.56943      9.00000        -0.009407      0.000972     -0.390043
     19.02497      8.45554      9.00000        -0.001280     -0.002164     -0.386697
     16.91108     12.68331     11.11389        -0.005167      0.006440      0.327337
     19.02497     14.79720     11.11389        -0.001196      0.006209      0.334943
     16.91108     14.79720      9.00000        -0.010329      0.002969     -0.386138
     19.02497     12.68331      9.00000        -0.001363      0.003219     -0.386819
     16.91108     16.91108     11.11389        -0.007518      0.003765      0.336422
     19.02497     19.02497     11.11389        -0.000495      0.001813      0.339416
     16.91108     19.02497      9.00000        -0.007241     -0.000174     -0.382568
     19.02497     16.91108      9.00000        -0.000697      0.002557     -0.383537
    total drift:                               -0.000953     -0.007388      2.654483

  FREE ENERGIE OF THE ION-ELECTRON SYSTEM (eV)
  free  energy   TOTEN  =     -1629.92401121 eV

  energy  without entropy=    -1629.92401121  energy(sigma->0) =    -1629.92401121