 vasp.6.4.0 14Feb23 (build Mar 22 2023 21:21:37) complex

 executed on           IFC15_impi date 2023.05.05  18:22:46

 INCAR:
   SYSTEM = MgO-rocksalt
   ISMEAR = 0
   SIGMA = 0.05
   EDIFF = 1E-6
   ALGO = ALL
   ISTART = 0
   IBRION = -1
   NSW = 0
   ISYM = 2
   DIPOL = 0.5 0.5 0.5
   IDIPOL = 3
   LDIPOL = .TRUE.
   METAGGA = SCAN
   LUSE_VDW = .TRUE.
   BPARAM = 15.7
   CPARAM = 0.0093
   ENCUT = 520
   PREC = Accurate
   LASPH = .TRUE.
   LREAL = Auto
   ISPIN = 1
   NELM = 200
   NELMIN = 8
   NCORE = 4
   KPAR = 2
   LWAVE = .FALSE.
   LCHARG = .FALSE.

 POTCAR:    PAW_PBE Au 04Oct2007
 POTCAR:    PAW_PBE Mg_pv 13Apr2007
 POTCAR:    PAW_PBE O 08Apr2002
|               ----> ADVICE to this user running VASP <----                  |
|     You have switched on vdW-DFT.                                           |
|     This routine was written and supplied by Jiri Klimes. We recommend      |
|     that you carefully read and cite the following publications:            |
|       J. Klimes, D.R. Bowler, A. Michelides                                 |
|          J. Phys.: Cond Matt. 22 022201 (2010)                              |
|       J. Klimes, D.R. Bowler, A. Michelides                                 |
|          Phys. Rev. B. 83, 195131 (2011)                                    |
|     and references therein.                                                 |

   TITEL  = PAW_PBE Au 04Oct2007
   POMASS =  196.966; ZVAL   =   11.000    mass and valenz
   ENMAX  =  229.943; ENMIN  =  172.457 eV

   TITEL  = PAW_PBE Mg_pv 13Apr2007
   POMASS =   24.305; ZVAL   =    8.000    mass and valenz
   ENMAX  =  403.929; ENMIN  =  302.947 eV

   TITEL  = PAW_PBE O 08Apr2002
   POMASS =   16.000; ZVAL   =    6.000    mass and valenz
   ENMAX  =  400.000; ENMIN  =  300.000 eV

 Optimization of the real space projectors (new method)

 maximal supplied QI-value         = 15.12
 optimisation between [QCUT,QGAM] = [ 11.64, 23.28] = [ 37.95,151.78] Ry
 Optimized for a Real-space Cutoff    1.49 Angstroem

   l    n(q)    QCUT    max X(q) W(low)/X(q) W(high)/X(q)  e(spline)
   2      9    11.641    60.898    0.24E-03    0.10E-03    0.19E-06
   2      9    11.641    58.894    0.25E-03    0.10E-03    0.19E-06
   0     10    11.641   109.617    0.73E-04    0.33E-04    0.11E-06
   0     10    11.641    75.026    0.71E-04    0.32E-04    0.11E-06
   1     10    11.641    16.344    0.27E-04    0.97E-04    0.16E-06
   1     10    11.641    10.160    0.23E-04    0.77E-04    0.13E-06
 Optimization of the real space projectors (new method)

[...]

   l    n(q)    QCUT    max X(q) W(low)/X(q) W(high)/X(q)  e(spline)
   1      8    11.527     2.974    0.44E-04    0.56E-04    0.12E-06
   1      8    11.527     4.279    0.12E-03    0.12E-03    0.26E-06
   0      9    11.527    16.381    0.46E-04    0.64E-04    0.78E-07
   0      9    11.527     5.611    0.26E-04    0.43E-04    0.55E-07
   2      8    11.527     4.652    0.22E-03    0.72E-04    0.47E-07
 Optimization of the real space projectors (new method)

 maximal supplied QI-value         = 24.76
 optimisation between [QCUT,QGAM] = [ 11.64, 23.27] = [ 37.91,151.63] Ry
 Optimized for a Real-space Cutoff    1.14 Angstroem

   l    n(q)    QCUT    max X(q) W(low)/X(q) W(high)/X(q)  e(spline)
   0      8    11.635    20.381    0.10E-03    0.33E-03    0.24E-06
   0      8    11.635    15.268    0.11E-03    0.35E-03    0.26E-06
   1      7    11.635     5.964    0.24E-03    0.31E-03    0.30E-06
   1      7    11.635     5.382    0.22E-03    0.25E-03    0.26E-06
  PAW_PBE Au 04Oct2007                  :
  PAW_PBE Mg_pv 13Apr2007               :
  PAW_PBE O 08Apr2002                   :

 POSCAR: Mg  O
  positions in direct lattice
  velocities in cartesian coordinates

 METAGGA = SCAN                                        LMAXTAU =  6    LMIXTAU =  F

 ion  position               nearest neighbor table
   1  0.431  0.227  0.583- 265 2.50   2 2.73   5 2.74  11 2.75  68 2.95  67 3.01
   2  0.559  0.237  0.590-   3 2.65   1 2.73  12 2.78  11 2.83   6 2.87   5 2.95  68 3.06
   3  0.683  0.252  0.593-   2 2.65   4 2.67  12 2.79   6 2.82  13 2.87   7 2.91  88 3.01
   4  0.809  0.260  0.596-   3 2.67   7 2.72  13 2.76 107 2.99
   5  0.476  0.348  0.587-   8 2.70   1 2.74  14 2.75  11 2.81   6 2.86  72 2.89   2 2.95
   6  0.610  0.363  0.590-   3 2.82   9 2.82   8 2.86   5 2.86   2 2.87  15 2.93   7 2.93  14 2.96
                            12 2.99  87 3.02
   7  0.748  0.373  0.593-   9 2.67   4 2.72  15 2.80  13 2.87   3 2.91   6 2.93  92 3.00
   8  0.524  0.467  0.585- 270 2.69   5 2.70  10 2.76  14 2.76  16 2.84   6 2.86  72 2.98   9 3.28

   9  0.678  0.478  0.587- 290 2.66   7 2.67  10 2.73  15 2.77   6 2.82  16 2.89   8 3.28
  10  0.595  0.576  0.580- 293 2.37  16 2.68   9 2.73   8 2.76  91 2.91
  11  0.480  0.269  0.662-  17 2.70   1 2.75   5 2.81  12 2.83   2 2.83  14 2.91
  12  0.613  0.277  0.669-  17 2.75  18 2.76   2 2.78   3 2.79  11 2.83  13 2.83   6 2.99  14 3.17
                            15 3.18
  13  0.745  0.297  0.672-  18 2.67   4 2.76  15 2.82  12 2.83   7 2.87   3 2.87
  14  0.525  0.399  0.664-   5 2.75  19 2.75  17 2.76   8 2.76  16 2.86  11 2.91   6 2.96  12 3.17
                            15 3.26
  15  0.679  0.413  0.667-   9 2.77  19 2.77  18 2.78   7 2.80  16 2.81  13 2.82   6 2.93  12 3.18
                            14 3.26
  16  0.595  0.515  0.658-  10 2.68  19 2.70  15 2.81   8 2.84  14 2.86   9 2.89
  17  0.533  0.318  0.736-  11 2.70  20 2.70  12 2.75  14 2.76  18 2.98  19 3.01
  18  0.673  0.333  0.741-  20 2.67  13 2.67  12 2.76  15 2.78  19 2.91  17 2.98
  19  0.595  0.446  0.734-  16 2.70  20 2.72  14 2.75  15 2.77  18 2.91  17 3.01
  20  0.595  0.368  0.806-  18 2.67  17 2.70  19 2.72
  21  0.000  1.000  0.430- 304 2.11 223 2.11 239 2.11 224 2.11 321 2.12 221 2.13
  22  0.100  0.100  0.430- 223 2.11 224 2.11 228 2.11 243 2.12 322 2.12 222 2.13
  23  0.000  0.100  0.500- 223 2.11 302 2.11 222 2.11 221 2.11 225 2.12
  24  0.100  1.000  0.500- 224 2.10 221 2.11 238 2.11 241 2.11 222 2.11
  25  1.000  0.200  0.430- 308 2.11 223 2.11 228 2.11 227 2.11 325 2.12 225 2.13
  26  0.100  0.300  0.430- 227 2.11 232 2.11 228 2.11 247 2.12 326 2.12 226 2.13
  27  0.000  0.300  0.500- 227 2.11 226 2.11 306 2.11 225 2.12 229 2.12
  28  0.100  0.200  0.500- 228 2.11 225 2.11 245 2.11 222 2.11 226 2.12
  29  1.000  0.400  0.430- 312 2.11 232 2.11 227 2.11 231 2.12 329 2.12 229 2.13
  30  0.100  0.500  0.430- 231 2.11 251 2.11 236 2.11 232 2.11 330 2.12 230 2.13
  31  0.000  0.500  0.500- 231 2.11 230 2.11 310 2.11 233 2.12 229 2.12
  32  0.100  0.400  0.500- 232 2.11 229 2.11 249 2.11 230 2.12 226 2.12
  33  0.000  0.600  0.430- 236 2.11 235 2.11 231 2.11 316 2.11 333 2.12 233 2.13
  34  0.100  0.700  0.430- 235 2.11 240 2.11 255 2.11 236 2.11 334 2.12 234 2.13
  35  0.000  0.700  0.500- 235 2.11 234 2.11 237 2.11 314 2.11 233 2.11
  36  0.100  0.600  0.500- 236 2.11 233 2.11 253 2.11 234 2.11 230 2.11
  37  0.000  0.800  0.430- 239 2.11 240 2.11 235 2.11 320 2.11 337 2.12 237 2.13
  38  0.100  0.900  0.430- 239 2.11 240 2.11 224 2.11 259 2.11 338 2.12 238 2.13
  39  0.000  0.900  0.500- 239 2.10 221 2.11 238 2.11 237 2.11 318 2.11
  40  0.100  0.800  0.500- 240 2.10 237 2.11 238 2.11 257 2.11 234 2.11
  41  0.200  1.000  0.430- 224 2.11 259 2.11 243 2.12 244 2.12 341 2.12 241 2.13
  42  0.300  0.100  0.430- 243 2.11 244 2.11 263 2.11 248 2.11 342 2.13 242 2.13
  43  0.200  0.100  0.500- 243 2.11 222 2.11 241 2.11 245 2.12 242 2.12
  44  0.300  1.000  0.500- 244 2.11 241 2.11 258 2.11 261 2.12 242 2.12
  45  0.200  0.200  0.430- 228 2.11 243 2.11 247 2.11 345 2.12 248 2.13 245 2.14
  46  0.300  0.300  0.430- 267 2.11 247 2.11 252 2.11 248 2.12 346 2.12 246 2.13
  47  0.200  0.300  0.500- 226 2.11 247 2.11 249 2.11 246 2.12 245 2.12
  48  0.298  0.200  0.500- 245 2.09 248 2.11 246 2.11 242 2.11 265 2.13
  49  0.200  0.400  0.430- 232 2.11 252 2.11 251 2.11 247 2.12 349 2.12 249 2.13
  50  0.300  0.500  0.430- 251 2.11 256 2.11 252 2.11 271 2.12 350 2.12 250 2.13
  51  0.200  0.500  0.500- 251 2.11 230 2.11 250 2.11 253 2.11 249 2.12
  52  0.299  0.400  0.500- 249 2.10 252 2.11 269 2.11 250 2.11 246 2.12
  53  0.200  0.600  0.430- 236 2.11 255 2.11 251 2.11 256 2.11 353 2.12 253 2.13
  54  0.300  0.700  0.430- 255 2.11 260 2.11 256 2.11 275 2.12 354 2.12 254 2.13
  55  0.200  0.700  0.500- 255 2.11 234 2.11 257 2.11 253 2.11 254 2.11
  56  0.299  0.600  0.500- 253 2.11 256 2.11 254 2.11 273 2.11 250 2.12
  57  0.200  0.800  0.430- 240 2.11 255 2.11 259 2.11 260 2.12 357 2.12 257 2.13
  58  0.300  0.900  0.430- 259 2.11 260 2.11 279 2.11 244 2.12 358 2.12 258 2.13
  59  0.200  0.900  0.500- 259 2.10 238 2.11 257 2.11 241 2.11 258 2.11
  60  0.300  0.800  0.500- 260 2.10 257 2.11 258 2.11 254 2.11 277 2.12
  61  0.400  1.000  0.430- 264 2.11 244 2.11 279 2.11 361 2.12 263 2.13 261 2.13
  62  0.500  0.100  0.430- 268 2.11 264 2.11 283 2.11 263 2.12 362 2.12 262 2.12
  63  0.400  0.098  0.500- 261 2.09 263 2.11 262 2.11 242 2.11 265 2.14
  64  0.500  1.000  0.500- 264 2.11 278 2.11 262 2.11 281 2.11 261 2.12
  65  0.400  0.200  0.429- 268 2.10 267 2.10 248 2.10 263 2.10 365 2.11
  66  0.500  0.300  0.429- 266 2.07 366 2.10 287 2.11 268 2.12 267 2.12 272 2.13
  67  0.399  0.302  0.500- 269 2.09 246 2.11 267 2.12 266 2.12 265 2.16   1 3.01
  68  0.501  0.199  0.500- 285 2.09 262 2.11 268 2.11 266 2.13 265 2.16   1 2.95   2 3.06
  69  0.400  0.400  0.430- 269 2.11 252 2.11 369 2.11 272 2.11 271 2.12 267 2.13
  70  0.500  0.500  0.429- 272 2.10 271 2.11 370 2.11 276 2.12 291 2.12 270 2.14
  71  0.399  0.500  0.500- 250 2.10 269 2.10 271 2.11 273 2.12 270 2.13
  72  0.500  0.399  0.500- 266 2.11 272 2.11 269 2.13 289 2.13 270 2.15   5 2.89   8 2.98
  73  0.400  0.600  0.430- 256 2.11 271 2.11 275 2.11 373 2.12 276 2.13 273 2.13
  74  0.500  0.700  0.430- 280 2.11 275 2.11 295 2.12 276 2.12 374 2.12 274 2.13
  75  0.399  0.701  0.500- 254 2.10 277 2.11 275 2.11 273 2.12 274 2.12
[...]
 406  0.900  0.300  0.359- 208 2.11 207 2.11 127 2.11 212 2.11 206 2.11 106 2.12
 407  0.800  0.300  0.289- 186 2.11 205 2.11 206 2.11 209 2.11 207 2.11
 408  0.900  0.200  0.289- 206 2.11 202 2.11 205 2.11 125 2.11 208 2.11
 409  0.800  0.400  0.359- 192 2.11 207 2.11 211 2.11 212 2.11 209 2.11 109 2.12
 410  0.900  0.500  0.359- 131 2.11 211 2.11 212 2.11 216 2.11 210 2.11 110 2.12
 411  0.800  0.500  0.289- 190 2.11 209 2.11 210 2.11 213 2.11 211 2.11
 412  0.900  0.400  0.289- 129 2.11 206 2.11 209 2.11 210 2.11 212 2.11
 413  0.800  0.600  0.359- 196 2.11 211 2.11 215 2.11 216 2.11 213 2.11 113 2.12
 414  0.900  0.700  0.359- 220 2.11 215 2.11 216 2.11 135 2.11 214 2.11 114 2.12
 415  0.800  0.700  0.289- 194 2.11 217 2.11 214 2.11 213 2.11 215 2.11
 416  0.900  0.600  0.289- 133 2.11 210 2.11 213 2.11 214 2.11 216 2.11
 417  0.800  0.800  0.359- 200 2.11 215 2.11 219 2.11 220 2.11 217 2.11 117 2.12
 418  0.900  0.900  0.359- 139 2.11 204 2.11 219 2.11 220 2.11 218 2.11 118 2.12
 419  0.800  0.900  0.289- 198 2.11 201 2.11 217 2.11 218 2.11 219 2.11
 420  0.900  0.800  0.289- 214 2.11 137 2.11 217 2.11 218 2.11 220 2.11

  LATTYP: Found a simple tetragonal cell.
[...]
  506                  m_alltoallv_z                         0.289291                 30   8
  507                  map_scatter                           0.095940                 30   8
  508          m_sumb_d                              0.006341                          5   4
  509        fortau                                3.018136                            1   3
  510          m_sumb_d                              0.012216                          1   4
  511        forhar                                2.971075                            1   3
  512          m_sumb_d                              0.000196                          1   4
  513        strehar                               0.034227                            1   3
  514          m_sumb_d                              0.001506                          1   4
  515        m_bcast_d                             1.800952                            2   3
  516      potlok                                0.170016                              1   2
  517        fft3d_mpi                             0.115150                            5   3
  518          fftbrc_mpi                            0.106043                          5   4
  519            fftbas_plan_mpi                       0.106025                        5   5
  520              dfftw_execute                         0.038436                     15   6
  521              map_backward                          0.023914                      4   6
  522                map_gather                            0.003246                    2   7
  523                m_alltoallv_z                         0.014162                    2   7
  524                map_scatter                           0.006448                    2   7
  525              map_forward                           0.039422                      6   6
  526                map_gather                            0.006383                    4   7
  527                m_alltoallv_z                         0.022218                    4   7
  528                map_scatter                           0.010628                    4   7
  529        m_sumb_d                              0.000655                            2   3
  530        fewald                                0.001469                            2   3
  531          rsp                                   0.001303                          2   4
  532          rcp                                   0.000128                          2   4
  533        pothar                                0.006003                            1   3
  534          m_sumb_d                              0.002242                          1   4
  535        m_bcast_d                             0.012411                            1   3
  536      potlok_metagga                       39.324713                              1   2
  537        fft3d_mpi                             1.445950                           65   3
  538          fftbrc_mpi                            1.358976                         65   4
  539            fftbas_plan_mpi                       1.358661                       65   5
  540              dfftw_execute                         0.458439                    195   6
  541              map_forward                           0.455963                     70   6
  542                map_gather                            0.096322                   37   7
  543                m_alltoallv_z                         0.293079                   37   7
  544                map_scatter                           0.065522                   37   7
  545              map_backward                          0.394093                     60   6
  546                map_gather                            0.048355                   30   7
  547                m_alltoallv_z                         0.247989                   30   7
  548                map_scatter                           0.096661                   30   7
  549        m_sumb_d                              0.000929                            5   3
  550        m_bcast_d                             0.025884                            2   3
  551      set_dd_magatom                        0.000002                              1   2
  552      set_dd_paw                            7.566721                              1   2
  553        set_rsgf_all                          0.000002                            1   3
  554        m_sumb_d                              6.153894                            8   3

 Flat profile

 potlok_metagga                       2049.527728          54
 dfftw_execute                        2002.282483      265752
 edwav                                 837.360128          52
 m_sumb_d                              405.819881       30390
 map_scatter                           326.579623       88871
 lincom                                320.160474         145
 kinhamil_tau                          306.219723        8742
 map_gather                            280.861766       88871
 fftwav_mpi                            234.912126       48021
 m_alltoallv_z                         193.054255       88871
 orth1                                 184.875419        7188
 map_forward                           171.715809      100396
 eddav                                 156.152215           5
 wfinit                                 91.786737           1
 set_kineden                            86.663149          72
 set_dd_paw                             77.241534          55
 eccp_tau                               62.047137        6213
 m_alltoall_d                           59.104633       55836
 fftbas_plan_mpi                        57.065387       88584
 ggemm                                  55.487997        1275
 potxc_metagga                          37.825399           1
 fftext_mpi                             34.305785       36450
 choleski                               31.346725          47
 eddiag                                 21.866389          27
 total_time                             21.096817           1
 crrexp_mul_work_add                    20.834577     1038240
 m_bcast_z                              18.800791        2906
 crrexp_mul_wave                        16.401204     1229760
 vhamil                                 16.193121        2529
 rpro1                                  15.662807        2187
 pw_charge                              14.194958        2544
 racc0                                  12.690825        1482
 gemm                                    7.622237      415800
 lapack                                  7.529654         990
 fft3d_mpi                               6.374299       88584
 w1_dscal                                6.273527        1482
 redis_pw                                5.998835        8870
 setdij_                                 4.520668          81
 augmentation_charge                     4.476305          53
 m_bcast_d                               4.048867        2146
 rspher_all                              3.715333          14
 phaser                                  3.385733          44
 fortau                                  3.005920           1
 forloc                                  3.001731           1
 forhar                                  2.970879           1
 rpromu_gemm                             2.720257       81900
 potlok                                  2.044424          54
 racc0mu                                 1.957944         990
 stufak                                  1.829091           1
 orthch                                  1.175711          47
 map_backward                            1.126393       76772
 overl                                   0.954753        3277
 rpromu                                  0.874116         195
 w1_copy                                 0.873098        2970
 stretau                                 0.621115           1
 elmin_all                               0.450662           1
 soft_charge                             0.448285          53
 redis_proj                              0.381258        8382
 fftbas_mpi                              0.339822       84471
 setup_precond                           0.272933         285
 apply_precond                           0.252779         705
 depsum                                  0.231543          53
 pothar                                  0.200263          54
 inisym                                  0.181300           1
 overl1                                  0.129556         990
 fft_gq                                  0.096413          53
 rsp                                     0.082404         109
 set_charge                              0.066849          53
 strnlr                                  0.053049           1
 densta                                  0.044019          64
 strkin                                  0.033068           1
 strehar                                 0.032721           1
 hamiltmu_tau                            0.030811         990
 force_and_stress                        0.029743           1
 strelo                                  0.027762           1
 hamilt_local_tau                        0.027457        1539
 newband                                 0.021650         995
 fornlr                                  0.017783           1
 fftbrc_mpi                              0.015042        4113
 raccmu_                                 0.013898         990
 fewald                                  0.012186         109
 rpro_isp                                0.010174          13
 rcp                                     0.006358         109
 w1_projall                              0.004651         705
 brgrid                                  0.002871           1
 truncate_high_frequency_w1              0.001371        1275
 fordep                                  0.000751           1
 redis_pw_all                            0.000597          52
 posmap                                  0.000276           2
 crpa_reader                             0.000265           1
 redis_pw_over_bands                     0.000236          53
 set_rsgf_all                            0.000154          55
 proall                                  0.000069           1
 vectorpot                               0.000025           1
 rotate_active_occupied_orbital          0.000018           1
 set_dd_magatom                          0.000010           2
 shift_bands_between_low_high            0.000008           1
  summed up times    8300.75958490372

 Accumulative profile

 total_time                           8300.759585           1
 elmin_all                            7853.307054           1
 edwav                                3404.861817          52
 fft3d_mpi                            3039.414880       88584
 fftbas_plan_mpi                      3032.685717       88584
 fftbas_mpi                           2946.649345       84471
 kinhamil_tau                         2572.798167        8742
 potlok_metagga                       2129.449240          54
 dfftw_execute                        2002.282483      265752
 fftwav_mpi                           1988.081656       48021
 eccp_tau                             1885.482723        6213
 fftext_mpi                           1228.155699       36450
 eddav                                 801.490424           5
 map_forward                           631.325333      100396
 set_kineden                           609.432079          72
 eddiag                                551.707541          27
 hamilt_local_tau                      465.068453        1539
 set_dd_paw                            425.661522          55
 m_sumb_d                              405.819881       30390
 map_backward                          342.012513       76772
 map_scatter                           326.579623       88871
 lincom                                320.160474         145
 hamiltmu_tau                          319.396152         990
 map_gather                            280.861766       88871
 force_and_stress                      259.080617           1
 m_alltoallv_z                         193.054255       88871
 orthch                                189.328760          47
 orth1                                 184.875419        7188
 stretau                               161.624609           1
 set_charge                            130.813273          53
 soft_charge                           124.543065          53
 wfinit                                109.994573           1
 newband                               100.809315         995
 fftbrc_mpi                             86.391236        4113
 m_alltoall_d                           59.104633       55836
 ggemm                                  55.487997        1275
 redis_pw                               51.540466        8870
 potxc_metagga                          39.314122           1
 rpro_isp                               38.454909          13
 choleski                               31.346725          47
 strnlr                                 29.840971           1
 rpro1                                  28.543380        2187
 racc0                                  25.676279        1482
 crrexp_mul_work_add                    20.834577     1038240
 m_bcast_z                              18.800791        2906
 raccmu_                                18.207274         990
 racc0mu                                18.063820         990
 crrexp_mul_wave                        16.401204     1229760
 vhamil                                 16.193121        2529
 pw_charge                              14.194958        2544
 redis_proj                             13.944261        8382
 fornlr                                  9.921766           1
 w1_projall                              9.575426         705
 potlok                                  9.539635          54
 redis_pw_over_bands                     8.011689          53
 redis_pw_all                            8.011453          52
 rpromu                                  7.860925         195
 gemm                                    7.622237      415800
 lapack                                  7.529654         990
 w1_dscal                                6.273527        1482
 augmentation_charge                     5.821121          53
 setdij_                                 4.913431          81
 m_bcast_d                               4.048867        2146
 rspher_all                              3.715333          14
 phaser                                  3.385733          44
 proall                                  3.105482           1
 fortau                                  3.018136           1
 forloc                                  3.008045           1
 forhar                                  2.971075           1
 rpromu_gemm                             2.720257       81900
 stufak                                  1.829091           1
 fft_gq                                  1.245613          53
 overl                                   0.954753        3277
 w1_copy                                 0.873098        2970
 depsum                                  0.382238          53
 fordep                                  0.356121           1
 setup_precond                           0.286345         285
 pothar                                  0.277762          54
 apply_precond                           0.252779         705
 densta                                  0.181878          64
 inisym                                  0.181576           1
 overl1                                  0.129556         990
 fewald                                  0.126510         109
 rsp                                     0.082404         109
 strkin                                  0.034417           1
 strehar                                 0.034227           1
 strelo                                  0.028314           1
 rcp                                     0.006358         109
 brgrid                                  0.002871           1
 truncate_high_frequency_w1              0.001371        1275
 posmap                                  0.000276           2
 crpa_reader                             0.000265           1
 set_rsgf_all                            0.000154          55
 vectorpot                               0.000025           1
 rotate_active_occupied_orbital          0.000018           1
 set_dd_magatom                          0.000010           2
 shift_bands_between_low_high            0.000008           1

Profiling took   5.545437  1.349647  0.006654  0.006320 seconds
Profiling took   4.670248 seconds