 vasp.6.3.0 20Jan22 (build Apr  1 2022 16:44:48) complex
 executed on        HPECrayEX_GCC date 2023.01.09  09:39:59

 INCAR:
   SYSTEM = MgO-rocksalt
   ISMEAR = 0
   SIGMA = 0.05
   EDIFF = 1E-6
   ALGO = ALL
   ISTART = 0
   IBRION = -1
   NSW = 0
   ISYM = 2
   DIPOL = 0.5 0.5 0.5
   IDIPOL = 3
   LDIPOL = .TRUE.
   GGA = PE
   IVDW = 4
   ENCUT = 520
   PREC = Accurate
   LASPH = .TRUE.
   LREAL = Auto
   ISPIN = 1
   NELM = 200
   NELMIN = 8
   NCORE = 4
   KPAR = 2
   LWAVE = .FALSE.
   LCHARG = .FALSE.

 POTCAR:    PAW_PBE Ag 02Apr2005
 POTCAR:    PAW_PBE Mg_pv 13Apr2007
 POTCAR:    PAW_PBE O 08Apr2002
 POTCAR:    PAW_PBE Ag 02Apr2005
   VRHFIN =Ag : s1 d10

   TITEL  = PAW_PBE Ag 02Apr2005
   POMASS =  107.868; ZVAL   =   11.000    mass and valenz
   ENMAX  =  249.844; ENMIN  =  187.383 eV

   TITEL  = PAW_PBE Mg_pv 13Apr2007
   POMASS =   24.305; ZVAL   =    8.000    mass and valenz
   ENMAX  =  403.929; ENMIN  =  302.947 eV

   TITEL  = PAW_PBE O 08Apr2002
   POMASS =   16.000; ZVAL   =    6.000    mass and valenz
   ENMAX  =  400.000; ENMIN  =  300.000 eV

 Optimization of the real space projectors (new method)

 maximal supplied QI-value         = 15.12
 optimisation between [QCUT,QGAM] = [ 11.64, 23.28] = [ 37.95,151.78] Ry
 Optimized for a Real-space Cutoff    1.45 Angstroem

   l    n(q)    QCUT    max X(q) W(low)/X(q) W(high)/X(q)  e(spline)
   2      9    11.641    53.897    0.22E-03    0.42E-04    0.28E-06
   2      9    11.641    52.416    0.23E-03    0.44E-04    0.29E-06
   0     10    11.641   122.045    0.51E-04    0.25E-04    0.16E-06
   0     10    11.641    73.629    0.49E-04    0.24E-04    0.16E-06
   1     10    11.641    15.255    0.99E-04    0.55E-04    0.11E-06
   1     10    11.641     9.562    0.81E-04    0.47E-04    0.95E-07
 Optimization of the real space projectors (new method)

[...]

   l    n(q)    QCUT    max X(q) W(low)/X(q) W(high)/X(q)  e(spline)
   1      8    11.527     2.974    0.44E-04    0.56E-04    0.12E-06
   1      8    11.527     4.279    0.12E-03    0.12E-03    0.26E-06
   0      9    11.527    16.381    0.46E-04    0.64E-04    0.78E-07
   0      9    11.527     5.611    0.26E-04    0.43E-04    0.55E-07
   2      8    11.527     4.652    0.22E-03    0.72E-04    0.47E-07
 Optimization of the real space projectors (new method)

 maximal supplied QI-value         = 24.76
 optimisation between [QCUT,QGAM] = [ 11.64, 23.27] = [ 37.91,151.63] Ry
 Optimized for a Real-space Cutoff    1.14 Angstroem

   l    n(q)    QCUT    max X(q) W(low)/X(q) W(high)/X(q)  e(spline)
   0      8    11.635    20.381    0.10E-03    0.33E-03    0.24E-06
   0      8    11.635    15.268    0.11E-03    0.35E-03    0.26E-06
   1      7    11.635     5.964    0.24E-03    0.31E-03    0.30E-06
   1      7    11.635     5.382    0.22E-03    0.25E-03    0.26E-06
  PAW_PBE Ag 02Apr2005                  :
  PAW_PBE Mg_pv 13Apr2007               :
  PAW_PBE O 08Apr2002                   :

 POSCAR: Ag Mg  O
  positions in direct lattice
  velocities in cartesian coordinates
 exchange correlation table for  LEXCH =        8
   RHO(1)=    0.500       N(1)  =     2000
   RHO(2)=  100.500       N(2)  =     4000

 ion  position               nearest neighbor table
   1  0.404  0.596  0.628-   2 2.63   4 2.74 157 2.77
   2  0.317  0.683  0.613- 138 2.50   1 2.63  59 3.04  40 3.04
   3  0.583  0.417  0.613- 173 2.50   4 2.63  75 3.04  56 3.04
   4  0.496  0.504  0.628-   3 2.63   1 2.74 154 2.77
   5  0.000  0.000  0.407- 107 2.11 108 2.11 123 2.11 188 2.11 105 2.11
   6  0.100  0.100  0.407- 107 2.11 108 2.11 112 2.11 127 2.11 106 2.11
   7  0.000  0.100  0.503- 105 2.11 106 2.11 109 2.11 186 2.11 107 2.11
   8  0.100  0.000  0.503- 105 2.11 106 2.11 122 2.11 125 2.11 108 2.11
   9  0.000  0.200  0.407- 111 2.11 107 2.11 112 2.11 192 2.11 109 2.11
  10  0.100  0.300  0.407- 112 2.11 111 2.11 116 2.11 131 2.11 110 2.11
  11  0.000  0.300  0.503- 109 2.11 110 2.11 113 2.11 190 2.11 111 2.11
  12  0.100  0.200  0.503- 110 2.11 109 2.11 106 2.11 129 2.11 112 2.11
  13  0.000  0.400  0.407- 111 2.11 115 2.11 116 2.11 196 2.11 113 2.11
  14  0.100  0.500  0.407- 115 2.11 116 2.11 120 2.11 135 2.11 114 2.11
  15  0.000  0.500  0.503- 113 2.11 114 2.11 117 2.11 194 2.11 115 2.11
  16  0.100  0.400  0.503- 110 2.11 113 2.11 114 2.11 133 2.11 116 2.11
  17  0.000  0.600  0.407- 115 2.11 119 2.11 120 2.11 200 2.11 117 2.11
  18  0.100  0.700  0.407- 124 2.11 120 2.11 119 2.11 139 2.11 118 2.11
  19  0.000  0.700  0.503- 121 2.11 118 2.11 117 2.11 198 2.11 119 2.11
  20  0.100  0.600  0.503- 114 2.11 117 2.11 118 2.11 137 2.11 120 2.11
  21  0.000  0.800  0.407- 119 2.11 123 2.11 124 2.11 204 2.11 121 2.11
  22  0.100  0.900  0.407- 108 2.11 123 2.11 124 2.11 143 2.11 122 2.11
  23  0.000  0.900  0.503- 105 2.11 121 2.11 122 2.11 202 2.11 123 2.11
  24  0.100  0.800  0.503- 118 2.11 121 2.11 122 2.11 141 2.11 124 2.11
  25  0.200  0.000  0.407- 128 2.11 127 2.11 108 2.11 143 2.11 125 2.11
  26  0.300  0.100  0.407- 127 2.11 128 2.11 132 2.11 147 2.11 126 2.11
  27  0.200  0.100  0.503- 126 2.11 125 2.11 106 2.11 129 2.11 127 2.11
  28  0.300  0.000  0.503- 125 2.11 126 2.11 142 2.11 145 2.11 128 2.11
  29  0.200  0.200  0.407- 131 2.11 132 2.11 112 2.11 127 2.11 129 2.11
  30  0.300  0.300  0.407- 131 2.11 132 2.11 136 2.11 151 2.11 130 2.11
  31  0.200  0.300  0.503- 129 2.11 130 2.11 110 2.11 133 2.11 131 2.11
  32  0.300  0.200  0.503- 129 2.11 130 2.11 126 2.11 149 2.11 132 2.11
  33  0.200  0.400  0.407- 136 2.11 131 2.11 135 2.11 116 2.11 133 2.11
  34  0.300  0.500  0.407- 135 2.11 136 2.11 140 2.11 155 2.11 134 2.11
  35  0.200  0.500  0.503- 134 2.11 133 2.11 114 2.11 137 2.11 135 2.11
  36  0.300  0.400  0.503- 133 2.11 130 2.11 134 2.11 153 2.11 136 2.11
  37  0.200  0.600  0.407- 140 2.11 135 2.11 139 2.11 120 2.11 137 2.11
  38  0.300  0.700  0.407- 139 2.11 144 2.11 140 2.11 159 2.11 138 2.11
  39  0.200  0.700  0.503- 138 2.11 141 2.11 118 2.11 137 2.11 139 2.11
  40  0.300  0.600  0.503- 137 2.11 134 2.11 138 2.11 157 2.11 140 2.11   2 3.04
  41  0.200  0.800  0.407- 139 2.11 144 2.11 143 2.11 124 2.11 141 2.11
  42  0.300  0.900  0.407- 143 2.11 128 2.11 144 2.11 163 2.11 142 2.11
  43  0.200  0.900  0.503- 142 2.11 125 2.11 141 2.11 122 2.11 143 2.11
  44  0.300  0.800  0.503- 138 2.11 141 2.11 142 2.11 161 2.11 144 2.11
  45  0.400  0.000  0.407- 128 2.11 147 2.11 148 2.11 163 2.11 145 2.11
  46  0.500  0.100  0.407- 147 2.11 148 2.11 152 2.11 167 2.11 146 2.11
  47  0.400  0.100  0.503- 126 2.11 145 2.11 146 2.11 149 2.11 147 2.11
  48  0.500  0.000  0.503- 145 2.11 146 2.11 162 2.11 165 2.11 148 2.11
  49  0.400  0.200  0.407- 151 2.11 147 2.11 132 2.11 152 2.11 149 2.11
  50  0.500  0.300  0.407- 152 2.11 151 2.11 156 2.11 171 2.11 150 2.11
  51  0.400  0.300  0.503- 149 2.11 130 2.11 150 2.11 153 2.11 151 2.11
  52  0.500  0.200  0.503- 150 2.11 149 2.11 146 2.11 169 2.11 152 2.11
  53  0.400  0.400  0.407- 136 2.11 151 2.11 155 2.11 156 2.11 153 2.11
  54  0.500  0.500  0.407- 155 2.11 156 2.11 160 2.11 175 2.11 154 2.11
  55  0.400  0.500  0.503- 134 2.11 153 2.11 154 2.11 157 2.11 155 2.11
  56  0.500  0.400  0.503- 150 2.11 153 2.11 154 2.11 173 2.11 156 2.11   3 3.04
  57  0.400  0.600  0.407- 140 2.11 155 2.11 159 2.11 160 2.11 157 2.11
  58  0.500  0.700  0.407- 164 2.11 160 2.11 159 2.11 179 2.11 158 2.11
  59  0.400  0.700  0.503- 161 2.11 157 2.11 158 2.11 138 2.11 159 2.11   2 3.04
  60  0.500  0.600  0.503- 154 2.11 157 2.11 158 2.11 177 2.11 160 2.11
[...]
 190  0.900  0.300  0.503-  92 2.11  91 2.11  11 2.11  96 2.11  90 2.11
 191  0.800  0.300  0.407-  70 2.11  89 2.11  90 2.11  93 2.11  91 2.11
 192  0.900  0.200  0.407-  90 2.11  86 2.11  89 2.11   9 2.11  92 2.11
 193  0.800  0.400  0.503-  76 2.11  91 2.11  95 2.11  96 2.11  93 2.11
 194  0.900  0.500  0.503-  15 2.11  95 2.11  96 2.11 100 2.11  94 2.11
 195  0.800  0.500  0.407-  74 2.11  93 2.11  94 2.11  97 2.11  95 2.11
 196  0.900  0.400  0.407-  13 2.11  90 2.11  93 2.11  94 2.11  96 2.11
 197  0.800  0.600  0.503-  80 2.11  95 2.11  99 2.11 100 2.11  97 2.11
 198  0.900  0.700  0.503- 104 2.11  99 2.11 100 2.11  19 2.11  98 2.11
 199  0.800  0.700  0.407-  78 2.11 101 2.11  98 2.11  97 2.11  99 2.11
 200  0.900  0.600  0.407-  17 2.11  94 2.11  97 2.11  98 2.11 100 2.11
 201  0.800  0.800  0.503-  84 2.11  99 2.11 103 2.11 104 2.11 101 2.11
 202  0.900  0.900  0.503-  23 2.11  88 2.11 103 2.11 104 2.11 102 2.11
 203  0.800  0.900  0.407-  82 2.11  85 2.11 101 2.11 102 2.11 103 2.11
 204  0.900  0.800  0.407-  98 2.11  21 2.11 101 2.11 102 2.11 104 2.11

  LATTYP: Found a simple tetragonal cell.
 ALAT       =    21.1388521970
 C/A-ratio  =     1.0461251639

  Lattice vectors:

 A1 = (  21.1388521970,   0.0000000000,   0.0000000000)
 A2 = (   0.0000000000,  21.1388521970,   0.0000000000)
 A3 = (   0.0000000000,   0.0000000000,  22.1138852197)

Analysis of symmetry for initial positions (statically):
 Subroutine PRICEL returns:
 Original cell was already a primitive cell.

 Routine SETGRP: Setting up the symmetry group for a
 simple tetragonal supercell.

 Subroutine GETGRP returns: Found  2 space group operations
 (whereof  1 operations were pure point group operations)
 out of a pool of 16 trial point group operations.

The static configuration has the point symmetry C_1 .
 The point group associated with its full space group is C_1h.

Analysis of symmetry for dynamics (positions and initial velocities):
 Subroutine PRICEL returns:
 Original cell was already a primitive cell.

[...]

The dynamic configuration has the point symmetry C_1 .
 The point group associated with its full space group is C_1h.

Analysis of constrained symmetry for selective dynamics:
 Subroutine PRICEL returns:
 Original cell was already a primitive cell.

 Routine SETGRP: Setting up the symmetry group for a
 simple tetragonal supercell.

 Subroutine GETGRP returns: Found  2 space group operations
 (whereof  1 operations were pure point group operations)
 out of a pool of 16 trial point group operations.

The constrained configuration has the point symmetry C_1 .
 The point group associated with its full space group is C_1h.

 Subroutine INISYM returns: Found  2 space group operations
 (whereof  1 operations are pure point group operations),
 and found     1 'primitive' translations

                                     Primitive cell

  volume of cell :    9881.6133

  direct lattice vectors                    reciprocal lattice vectors
    21.138852197  0.000000000  0.000000000     0.047306258  0.000000000  0.000000000
     0.000000000 21.138852197  0.000000000     0.000000000  0.047306258  0.000000000
     0.000000000  0.000000000 22.113885220     0.000000000  0.000000000  0.045220457

  length of vectors
    21.138852197 21.138852197 22.113885220     0.047306258  0.047306258  0.045220457

  position of ions in fractional coordinates (direct lattice)
     0.404209587  0.595838152  0.627872356
     0.316904301  0.683142271  0.613368187
     0.583141798  0.416904774  0.613368187
     0.495837679  0.504209587  0.627872356
     0.000000000  0.000000000  0.406984115
     0.100000000  0.100000000  0.406984115
[...]
   O          40.825          7.449          6.550          1.213
   O          40.636          7.432          6.534          1.210
   O          40.641          7.433          6.534          1.210
   O          40.823          7.449          6.549          1.213
   O          40.826          7.449          6.550          1.213
   O          40.629          7.431          6.534          1.210
   O          40.644          7.433          6.534          1.210
   O          40.829          7.450          6.550          1.213
   O          40.827          7.450          6.550          1.213
   O          40.644          7.433          6.534          1.210
   O          40.648          7.434          6.535          1.210
   O          40.828          7.450          6.550          1.213
   O          40.827          7.449          6.550          1.213

  IVDW =   4
  VDW_RADIUS =    50.000 A
  VDW_S6 aka ATT0 =    13.960
  VDW_SR aka BTT0 =     1.320
  LVDW_ONECELL = F F F

  Number of pair interactions contributing to vdW energy: 1118630
  Edisp (eV):  -15.31314

  FORCE on cell =-STRESS in cart. coord.  units (eV):
  Direction    XX          YY          ZZ          XY          YZ          ZX
  Alpha Z  1401.13727  1401.13727  1401.13727
  Ewald  484692.10145484692.10210************ -1322.16574    -0.00388    -0.00457
  Hartree513949.84873513949.84907************ -1068.60178     0.00105     0.00111
  E(xc)   -7881.23330 -7881.23330 -7912.43997    -0.89860     0.00008     0.00008
  Local  ************************************  2382.86771     0.00083     0.00130
  n-local -8804.26848 -8804.26850 -8924.36510     1.41697    -0.00019    -0.00030
  augment  3649.19408  3649.19408  3595.96660     1.67470     0.00113     0.00116
  Kinetic 23226.70762 23226.70764 23486.35661     5.53550     0.00085     0.00085
  Fock        0.00000     0.00000     0.00000     0.00000     0.00000     0.00000
  vdW       -23.80051   -23.80051   -10.08967     0.07367     0.00003     0.00004
  Total    -171.88004  -171.88004     9.21888    -0.09757    -0.00021    -0.00021
  in kB     -27.86815   -27.86815     1.49472    -0.01582    -0.00003    -0.00003

 VOLUME and BASIS-vectors are now :
  energy-cutoff  :      520.00
  volume of cell :     9881.61
      direct lattice vectors                 reciprocal lattice vectors
    21.138852197  0.000000000  0.000000000     0.047306258  0.000000000  0.000000000
     0.000000000 21.138852197  0.000000000     0.000000000  0.047306258  0.000000000
     0.000000000  0.000000000 22.113885220     0.000000000  0.000000000  0.045220457

  length of vectors
    21.138852197 21.138852197 22.113885220     0.047306258  0.047306258  0.045220457

 FORCES acting on ions:
    Electron-Ion                     Ewald-Force                    Non-Local-Force
   0.255E+02 -.255E+02 -.207E+04   -.273E+02 0.273E+02 0.207E+04   0.182E+01 -.182E+01 -.106E-01
   0.234E+03 -.234E+03 -.209E+04   -.231E+03 0.231E+03 0.209E+04   -.390E+01 0.390E+01 -.287E+00
   -.234E+03 0.234E+03 -.209E+04   0.231E+03 -.231E+03 0.209E+04   0.390E+01 -.390E+01 -.287E+00
   -.255E+02 0.255E+02 -.207E+04   0.273E+02 -.273E+02 0.207E+04   -.182E+01 0.182E+01 -.106E-01
   0.489E+01 -.489E+01 0.938E+03   -.492E+01 0.492E+01 -.930E+03   0.204E-01 -.204E-01 -.743E+01
   0.905E+01 0.161E+01 0.939E+03   -.905E+01 -.156E+01 -.931E+03   -.244E-02 -.375E-01 -.743E+01
   0.313E+01 0.313E+01 -.918E+03   -.312E+01 -.312E+01 0.911E+03   -.141E-01 -.141E-01 0.736E+01
   0.146E+02 -.117E+02 -.916E+03   -.146E+02 0.118E+02 0.908E+03   0.176E-01 -.691E-01 0.736E+01
   0.160E+01 0.905E+01 0.939E+03   -.156E+01 -.905E+01 -.931E+03   -.375E-01 -.244E-02 -.743E+01
   0.143E+02 0.157E+02 0.944E+03   -.142E+02 -.157E+02 -.937E+03   -.296E-01 0.288E-02 -.744E+01
   0.211E+01 0.156E+02 -.915E+03   -.203E+01 -.156E+02 0.907E+03   -.615E-01 -.839E-03 0.736E+01
   0.130E+02 0.130E+02 -.916E+03   -.129E+02 -.129E+02 0.908E+03   -.268E-01 -.268E-01 0.736E+01
   0.444E+01 0.112E+02 0.945E+03   -.438E+01 -.112E+02 -.938E+03   -.488E-01 0.124E-01 -.744E+01
   0.288E+02 0.120E+02 0.958E+03   -.289E+02 -.121E+02 -.950E+03   0.146E-01 0.762E-01 -.745E+01
   0.127E+02 0.836E+01 -.909E+03   -.127E+02 -.838E+01 0.901E+03   -.186E-01 0.180E-01 0.735E+01
   0.305E+02 0.240E+02 -.907E+03   -.304E+02 -.241E+02 0.899E+03   -.625E-01 0.287E-01 0.735E+01
   0.128E+02 -.212E+01 0.950E+03   -.129E+02 0.210E+01 -.942E+03   0.545E-01 0.211E-01 -.744E+01
   0.337E+02 -.125E+02 0.962E+03   -.340E+02 0.125E+02 -.955E+03   0.233E+00 0.302E-01 -.746E+01
   0.225E+02 -.126E+02 -.909E+03   -.226E+02 0.125E+02 0.901E+03   0.103E+00 0.145E-01 0.736E+01
   0.606E+02 0.530E+01 -.891E+03   -.608E+02 -.541E+01 0.884E+03   0.115E+00 0.875E-01 0.734E+01
   0.120E+02 -.133E+02 0.944E+03   -.121E+02 0.133E+02 -.937E+03   0.100E+00 -.107E-01 -.744E+01
   0.168E+02 -.168E+02 0.946E+03   -.169E+02 0.169E+02 -.938E+03   0.718E-01 -.718E-01 -.742E+01
   0.117E+02 -.146E+02 -.916E+03   -.118E+02 0.146E+02 0.908E+03   0.691E-01 -.176E-01 0.736E+01
   0.428E+02 -.304E+02 -.901E+03   -.431E+02 0.304E+02 0.893E+03   0.249E+00 -.203E-01 0.737E+01
   0.133E+02 -.120E+02 0.944E+03   -.133E+02 0.122E+02 -.937E+03   0.107E-01 -.100E+00 -.744E+01
   0.112E+02 0.445E+01 0.945E+03   -.112E+02 -.438E+01 -.938E+03   0.124E-01 -.488E-01 -.744E+01
   0.156E+02 0.211E+01 -.915E+03   -.156E+02 -.203E+01 0.907E+03   -.839E-03 -.615E-01 0.736E+01
   0.126E+02 -.225E+02 -.909E+03   -.125E+02 0.226E+02 0.901E+03   -.145E-01 -.103E+00 0.736E+01
   0.157E+02 0.143E+02 0.944E+03   -.157E+02 -.142E+02 -.937E+03   0.288E-02 -.296E-01 -.744E+01
   0.263E+02 0.335E+02 0.964E+03   -.264E+02 -.335E+02 -.956E+03   0.629E-01 -.584E-02 -.748E+01
   0.333E+02 0.333E+02 -.906E+03   -.333E+02 -.333E+02 0.898E+03   -.333E-01 -.333E-01 0.734E+01
   0.240E+02 0.305E+02 -.907E+03   -.241E+02 -.304E+02 0.899E+03   0.287E-01 -.625E-01 0.735E+01
   0.335E+02 0.264E+02 0.964E+03   -.335E+02 -.264E+02 -.956E+03   -.584E-02 0.629E-01 -.748E+01
   0.466E+02 0.293E+02 0.101E+04   -.467E+02 -.296E+02 -.101E+04   0.741E-01 0.269E+00 -.764E+01
   0.816E+02 0.439E+02 -.870E+03   -.814E+02 -.441E+02 0.863E+03   -.120E+00 0.202E+00 0.728E+01
   0.719E+02 0.719E+02 -.863E+03   -.718E+02 -.718E+02 0.856E+03   -.518E-01 -.518E-01 0.727E+01
   0.514E+02 0.400E+01 0.994E+03   -.516E+02 -.427E+01 -.986E+03   0.160E+00 0.208E+00 -.743E+01
   0.340E+02 -.340E+02 0.103E+04   -.340E+02 0.339E+02 -.102E+04   -.150E-01 0.148E-01 -.600E+01
   0.116E+03 -.393E+02 -.827E+03   -.117E+03 0.391E+02 0.819E+03   0.115E+01 0.151E+00 0.738E+01
   0.123E+03 0.488E+02 -.709E+03   -.123E+03 -.506E+02 0.703E+03   0.160E+00 0.128E+01 0.622E+01
   0.324E+02 -.324E+02 0.973E+03   -.326E+02 0.326E+02 -.966E+03   0.140E+00 -.140E+00 -.731E+01
   0.125E+02 -.337E+02 0.962E+03   -.125E+02 0.340E+02 -.955E+03   -.302E-01 -.233E+00 -.746E+01
   0.304E+02 -.428E+02 -.901E+03   -.304E+02 0.431E+02 0.893E+03   0.203E-01 -.249E+00 0.737E+01
   0.393E+02 -.116E+03 -.827E+03   -.391E+02 0.117E+03 0.819E+03   -.151E+00 -.115E+01 0.738E+01
   0.212E+01 -.128E+02 0.950E+03   -.210E+01 0.129E+02 -.942E+03   -.211E-01 -.545E-01 -.744E+01
   -.212E+01 0.128E+02 0.950E+03   0.210E+01 -.129E+02 -.942E+03   0.211E-01 0.545E-01 -.744E+01
   0.835E+01 0.127E+02 -.909E+03   -.838E+01 -.127E+02 0.901E+03   0.180E-01 -.186E-01 0.735E+01
   -.836E+01 -.128E+02 -.909E+03   0.838E+01 0.127E+02 0.901E+03   -.180E-01 0.187E-01 0.735E+01
   0.120E+02 0.289E+02 0.958E+03   -.121E+02 -.289E+02 -.950E+03   0.762E-01 0.146E-01 -.745E+01
   0.400E+01 0.514E+02 0.994E+03   -.427E+01 -.516E+02 -.986E+03   0.208E+00 0.160E+00 -.743E+01
   0.439E+02 0.816E+02 -.870E+03   -.441E+02 -.814E+02 0.863E+03   0.202E+00 -.120E+00 0.728E+01
   0.530E+01 0.606E+02 -.891E+03   -.541E+01 -.608E+02 0.884E+03   0.875E-01 0.115E+00 0.734E+01
   0.293E+02 0.466E+02 0.101E+04   -.296E+02 -.467E+02 -.101E+04   0.269E+00 0.741E-01 -.764E+01
   -.111E+02 0.111E+02 0.106E+04   0.109E+02 -.109E+02 -.105E+04   0.148E+00 -.148E+00 -.718E+01
   0.857E+02 0.857E+02 -.704E+03   -.863E+02 -.863E+02 0.697E+03   0.446E+00 0.446E+00 0.667E+01
   0.488E+02 0.123E+03 -.709E+03   -.506E+02 -.123E+03 0.703E+03   0.128E+01 0.160E+00 0.622E+01
   0.111E+02 -.111E+02 0.106E+04   -.109E+02 0.109E+02 -.105E+04   -.148E+00 0.148E+00 -.718E+01
   -.293E+02 -.466E+02 0.101E+04   0.296E+02 0.467E+02 -.101E+04   -.269E+00 -.741E-01 -.764E+01
   -.488E+02 -.123E+03 -.709E+03   0.506E+02 0.123E+03 0.703E+03   -.128E+01 -.160E+00 0.622E+01
   -.857E+02 -.857E+02 -.704E+03   0.863E+02 0.863E+02 0.697E+03   -.446E+00 -.446E+00 0.667E+01
[...]
   -.193E+02 0.147E+02 0.718E+03   0.194E+02 -.148E+02 -.722E+03   -.163E+00 0.621E-01 0.355E+01
   -.621E+01 0.833E+01 0.707E+03   0.625E+01 -.834E+01 -.711E+03   -.592E-01 0.303E-01 0.351E+01
   -.458E+02 0.136E+02 -.670E+03   0.460E+02 -.135E+02 0.674E+03   -.176E+00 -.681E-01 -.366E+01
   -.151E+02 0.147E+01 -.682E+03   0.151E+02 -.144E+01 0.686E+03   -.403E-01 -.332E-01 -.364E+01
   -.261E+02 -.709E+00 0.724E+03   0.261E+02 0.794E+00 -.728E+03   -.101E+00 -.109E+00 0.350E+01
   -.107E+02 0.733E+01 0.713E+03   0.107E+02 -.732E+01 -.717E+03   -.817E-01 -.109E-01 0.351E+01
   -.345E+02 -.150E+02 -.676E+03   0.345E+02 0.151E+02 0.680E+03   -.121E-01 -.934E-01 -.367E+01
   -.431E+01 -.110E+02 -.685E+03   0.428E+01 0.110E+02 0.690E+03   0.419E-01 -.742E-02 -.363E+01
   -.157E+02 -.126E+02 0.715E+03   0.157E+02 0.126E+02 -.719E+03   0.221E-01 -.310E-01 0.349E+01
   -.650E+01 -.442E+01 0.713E+03   0.649E+01 0.444E+01 -.717E+03   0.424E-02 -.240E-01 0.350E+01
   -.145E+02 -.157E+02 -.686E+03   0.144E+02 0.157E+02 0.690E+03   0.412E-01 0.136E-01 -.363E+01
   -.118E+01 -.845E+01 -.690E+03   0.115E+01 0.845E+01 0.694E+03   0.369E-01 0.393E-02 -.361E+01
   -.765E+01 -.764E+01 0.707E+03   0.763E+01 0.763E+01 -.711E+03   0.184E-01 0.184E-01 0.351E+01
   -.152E+01 -.923E+01 0.708E+03   0.148E+01 0.924E+01 -.712E+03   0.465E-01 -.477E-02 0.351E+01
   -.729E+00 0.729E+00 0.133E+02   0.193E-11 0.134E-11 0.728E-11   -.583E-03 -.583E-03 -.139E+02

 POSITION                                       TOTAL-FORCE (eV/Angst)
      8.54453     12.59533     13.88470         0.007058     -0.007454     -0.000193
      6.69899     14.44084     13.56395        -0.034974      0.034418      0.010093
     12.32695      8.81289     13.56395         0.034418     -0.034974      0.010093
     10.48144     10.65841     13.88470        -0.007454      0.007058     -0.000193
      0.00000      0.00000      9.00000        -0.005633      0.005636      0.359431
      2.11389      2.11389      9.00000         0.000672      0.010000      0.360907
      0.00000      2.11389     11.11389         0.003733      0.003733     -0.338263
      2.11389      0.00000     11.11389        -0.004904      0.018093     -0.337353
      0.00000      4.22777      9.00000         0.010000      0.000672      0.360907
      2.11389      6.34166      9.00000         0.008199     -0.000246      0.364156
      0.00000      6.34166     11.11389         0.016242      0.000594     -0.335819
      2.11389      4.22777     11.11389         0.007513      0.007513     -0.336246
      0.00000      8.45554      9.00000         0.012646     -0.003132      0.362474
      2.11389     10.56943      9.00000        -0.004781     -0.021243      0.365225
      0.00000     10.56943     11.11389         0.005553     -0.004707     -0.331117
      2.11389      8.45554     11.11389         0.017969     -0.006089     -0.327742
      0.00000     12.68331      9.00000        -0.014286     -0.006241      0.362793
      2.11389     14.79720      9.00000        -0.058620     -0.009144      0.362841
      0.00000     14.79720     11.11389        -0.025619     -0.004506     -0.332740
      2.11389     12.68331     11.11389        -0.027810     -0.024760     -0.317142
      0.00000     16.91108      9.00000        -0.026029      0.003071      0.360898
      2.11389     19.02497      9.00000        -0.020658      0.020674      0.355544
      0.00000     19.02497     11.11389        -0.018092      0.004924     -0.337330
      2.11389     16.91108     11.11389        -0.065469      0.005576     -0.332748
      4.22777      0.00000      9.00000        -0.003075      0.026017      0.360900
      6.34166      2.11389      9.00000        -0.003132      0.012646      0.362474
      4.22777      2.11389     11.11389         0.000594      0.016242     -0.335819
      6.34166      0.00000     11.11389         0.004518      0.025596     -0.332731
      4.22777      4.22777      9.00000        -0.000246      0.008199      0.364156
      6.34166      6.34166      9.00000        -0.014858      0.002752      0.375633
      4.22777      6.34166     11.11389         0.010964      0.010964     -0.326301
      6.34166      4.22777     11.11389        -0.006089      0.017969     -0.327742
      4.22777      8.45554      9.00000         0.002752     -0.014858      0.375633
      6.34166     10.56943      9.00000        -0.017730     -0.068979      0.408216
      4.22777     10.56943     11.11389         0.046400     -0.042963     -0.275593
      6.34166      8.45554     11.11389         0.025424      0.025424     -0.274573
      4.22777     12.68331      9.00000        -0.048825     -0.066413      0.348073
      6.34166     14.79720      9.00000         0.006273     -0.006205      0.021695
      4.22777     14.79720     11.11389        -0.372263     -0.052344     -0.366295
      6.34166     12.68331     11.11389        -0.048720     -0.501917     -0.114357
      4.22777     16.91108      9.00000        -0.046485      0.046517      0.318697
      6.34166     19.02497      9.00000         0.009156      0.058608      0.362855
      4.22777     19.02497     11.11389        -0.005554      0.065478     -0.332764
      6.34166     16.91108     11.11389         0.052383      0.372336     -0.366369
      8.45554      0.00000      9.00000         0.006254      0.014276      0.362816
     10.56943      2.11389      9.00000        -0.006241     -0.014286      0.362793
      8.45554      2.11389     11.11389        -0.004707      0.005553     -0.331117
     10.56943      0.00000     11.11389         0.004723     -0.005568     -0.331118
      8.45554      4.22777      9.00000        -0.021243     -0.004781      0.365225
     10.56943      6.34166      9.00000        -0.066413     -0.048825      0.348073
      8.45554      6.34166     11.11389        -0.042963      0.046400     -0.275593
     10.56943      4.22777     11.11389        -0.024760     -0.027810     -0.317142
      8.45554      8.45554      9.00000        -0.068979     -0.017730      0.408216
     10.56943     10.56943      9.00000        -0.048672      0.048740      0.266273
      8.45554     10.56943     11.11389        -0.148456     -0.148456     -0.120863
     10.56943      8.45554     11.11389        -0.501917     -0.048720     -0.114357
      8.45554     12.68331      9.00000         0.048740     -0.048672      0.266273
     10.56943     14.79720      9.00000         0.068990      0.017723      0.408276
      8.45554     14.79720     11.11389         0.502285      0.048781     -0.114415
     10.56943     12.68331     11.11389         0.148611      0.148611     -0.120765
[...]
     19.02497      6.34166     11.11389        -0.024212      0.003348      0.461820
     16.91108      6.34166      9.00000        -0.046458      0.017524     -0.477430
     19.02497      4.22777      9.00000        -0.016419      0.008460     -0.486416
     16.91108      8.45554     11.11389        -0.054565     -0.018104      0.454835
     19.02497     10.56943     11.11389        -0.011775     -0.009330      0.456953
     16.91108     10.56943      9.00000        -0.031141     -0.030217     -0.488645
     19.02497      8.45554      9.00000        -0.023053     -0.003051     -0.487550
     16.91108     12.68331     11.11389        -0.005224     -0.026901      0.447927
     19.02497     14.79720     11.11389         0.011557     -0.001997      0.459321
     16.91108     14.79720      9.00000         0.005693     -0.008838     -0.493017
     19.02497     12.68331      9.00000         0.001003     -0.006625     -0.490169
     16.91108     16.91108     11.11389         0.011146      0.003561      0.458677
     19.02497     19.02497     11.11389         0.010137      0.000980      0.463670
     16.91108     19.02497      9.00000         0.004954      0.004954     -0.488978
     19.02497     16.91108      9.00000         0.012816     -0.001384     -0.488518
    total drift:                               -0.729964      0.728574     -0.591671

  FREE ENERGIE OF THE ION-ELECTRON SYSTEM (eV)
  free  energy   TOTEN  =     -1158.93926122 eV

  energy  without entropy=    -1158.93926122  energy(sigma->0) =    -1158.93926122