 vasp.6.3.0 20Jan22 (build Apr  1 2022 16:44:48) complex
 executed on        HPECrayEX_GCC date 2023.01.10  02:15:26

 INCAR:
   SYSTEM = MgO-rocksalt
   ISMEAR = 0
   SIGMA = 0.05
   EDIFF = 1E-6
   ALGO = ALL
   ISTART = 0
   IBRION = -1
   NSW = 0
   ISYM = 2
   DIPOL = 0.5 0.5 0.5
   IDIPOL = 3
   LDIPOL = .TRUE.
   LHFCALC = .TRUE.
   GGA = B5
   AEXX = 0.2
   AGGAX = 0.72
   AGGAC = 0.81
   ALDAC = 0.19
   IVDW = 12
   VDW_S8 = 1.9889
   VDW_A1 = 0.3981
   VDW_A2 = 4.4211
   ENCUT = 520
   PREC = Accurate
   LASPH = .TRUE.
   LREAL = Auto
   ISPIN = 1
   NELM = 200
   NELMIN = 8
   NCORE = 4
   KPAR = 2
   LWAVE = .FALSE.
   LCHARG = .FALSE.

 POTCAR:    PAW_PBE Au 04Oct2007
 POTCAR:    PAW_PBE Mg_pv 13Apr2007
 POTCAR:    PAW_PBE O 08Apr2002
|           W    W    AA    RRRRR   N    N  II  N    N   GGGG   !!!           |
|           W    W   A  A   R    R  NN   N  II  NN   N  G    G  !!!           |
|           W    W  A    A  R    R  N N  N  II  N N  N  G       !!!           |
|           W WW W  AAAAAA  RRRRR   N  N N  II  N  N N  G  GGG   !            |
|           WW  WW  A    A  R   R   N   NN  II  N   NN  G    G                |
|           W    W  A    A  R    R  N    N  II  N    N   GGGG   !!!           |
|     You have selected ISYM=2 for a HF type calculation. This will           |
|     symmetrize the charge density but not the exchange potential. I         |
|     suggest to use ISYM=3 instead. This uses symmetry to obtain the         |
|     orbitals at all k-points in the Brillouin zone, but does not apply      |
|     symmetry to the Hartree potential directly. The resultant charge        |
|     might have lower symmetry than the crystal but, at least, Hartree       |
|     and exchange are fully compatible.                                      |

   TITEL  = PAW_PBE Au 04Oct2007
   POMASS =  196.966; ZVAL   =   11.000    mass and valenz
   ENMAX  =  229.943; ENMIN  =  172.457 eV

   TITEL  = PAW_PBE Mg_pv 13Apr2007
   POMASS =   24.305; ZVAL   =    8.000    mass and valenz
   ENMAX  =  403.929; ENMIN  =  302.947 eV

   TITEL  = PAW_PBE O 08Apr2002
   POMASS =   16.000; ZVAL   =    6.000    mass and valenz
   ENMAX  =  400.000; ENMIN  =  300.000 eV

 Optimization of the real space projectors (new method)

 maximal supplied QI-value         = 15.12
 optimisation between [QCUT,QGAM] = [ 11.64, 23.28] = [ 37.95,151.78] Ry
 Optimized for a Real-space Cutoff    1.49 Angstroem

   l    n(q)    QCUT    max X(q) W(low)/X(q) W(high)/X(q)  e(spline)
   2      9    11.641    60.898    0.24E-03    0.10E-03    0.19E-06
   2      9    11.641    58.894    0.25E-03    0.10E-03    0.19E-06
   0     10    11.641   109.617    0.73E-04    0.33E-04    0.11E-06
   0     10    11.641    75.026    0.71E-04    0.32E-04    0.11E-06
   1     10    11.641    16.344    0.27E-04    0.97E-04    0.16E-06
   1     10    11.641    10.160    0.23E-04    0.77E-04    0.13E-06
 Optimization of the real space projectors (new method)

[...]

   l    n(q)    QCUT    max X(q) W(low)/X(q) W(high)/X(q)  e(spline)
   1      8    11.527     2.974    0.44E-04    0.56E-04    0.12E-06
   1      8    11.527     4.279    0.12E-03    0.12E-03    0.26E-06
   0      9    11.527    16.381    0.46E-04    0.64E-04    0.78E-07
   0      9    11.527     5.611    0.26E-04    0.43E-04    0.55E-07
   2      8    11.527     4.652    0.22E-03    0.72E-04    0.47E-07
 Optimization of the real space projectors (new method)

 maximal supplied QI-value         = 24.76
 optimisation between [QCUT,QGAM] = [ 11.64, 23.27] = [ 37.91,151.63] Ry
 Optimized for a Real-space Cutoff    1.14 Angstroem

   l    n(q)    QCUT    max X(q) W(low)/X(q) W(high)/X(q)  e(spline)
   0      8    11.635    20.381    0.10E-03    0.33E-03    0.24E-06
   0      8    11.635    15.268    0.11E-03    0.35E-03    0.26E-06
   1      7    11.635     5.964    0.24E-03    0.31E-03    0.30E-06
   1      7    11.635     5.382    0.22E-03    0.25E-03    0.26E-06
|               ----> ADVICE to this user running VASP <----                  |
|     You enforced a specific xc type in the INCAR file but a different       |
|     type was found in the POTCAR file.                                      |
|     I HOPE YOU KNOW WHAT YOU ARE DOING!                                     |

  PAW_PBE Au 04Oct2007                  :
  PAW_PBE Mg_pv 13Apr2007               :
  PAW_PBE O 08Apr2002                   :

 POSCAR: Au Mg  O
  positions in direct lattice
  velocities in cartesian coordinates
 exchange correlation table for  LEXCH =       12
   RHO(1)=    0.500       N(1)  =     2000
   RHO(2)=  100.500       N(2)  =     4000

 ion  position               nearest neighbor table
   1  0.400  0.425  0.603- 153 2.29   2 2.53  55 2.73
   2  0.400  0.510  0.684-   1 2.53   3 2.68   4 2.74
   3  0.400  0.633  0.713-   4 2.57   2 2.68
   4  0.400  0.605  0.600- 157 2.16   3 2.57   2 2.74  59 2.95  40 3.02  60 3.02
   5  0.000  0.000  0.407- 107 2.11 108 2.11 123 2.11 188 2.11 105 2.11
   6  0.100  0.100  0.407- 107 2.11 108 2.11 112 2.11 127 2.11 106 2.11
   7  0.000  0.100  0.503- 105 2.11 106 2.11 109 2.11 186 2.11 107 2.11
   8  0.100  0.000  0.503- 105 2.11 106 2.11 122 2.11 125 2.11 108 2.11
   9  0.000  0.200  0.407- 111 2.11 107 2.11 112 2.11 192 2.11 109 2.11
  10  0.100  0.300  0.407- 112 2.11 111 2.11 116 2.11 131 2.11 110 2.11
  11  0.000  0.300  0.503- 109 2.11 110 2.11 113 2.11 190 2.11 111 2.11
  12  0.100  0.200  0.503- 110 2.11 109 2.11 106 2.11 129 2.11 112 2.11
  13  0.000  0.400  0.407- 111 2.11 115 2.11 116 2.11 196 2.11 113 2.11
  14  0.100  0.500  0.407- 115 2.11 116 2.11 120 2.11 135 2.11 114 2.11
  15  0.000  0.500  0.503- 113 2.11 114 2.11 117 2.11 194 2.11 115 2.11
  16  0.100  0.400  0.503- 110 2.11 113 2.11 114 2.11 133 2.11 116 2.11
  17  0.000  0.600  0.407- 115 2.11 119 2.11 120 2.11 200 2.11 117 2.11
  18  0.100  0.700  0.407- 124 2.11 120 2.11 119 2.11 139 2.11 118 2.11
  19  0.000  0.700  0.503- 121 2.11 118 2.11 117 2.11 198 2.11 119 2.11
  20  0.100  0.600  0.503- 114 2.11 117 2.11 118 2.11 137 2.11 120 2.11
  21  0.000  0.800  0.407- 119 2.11 123 2.11 124 2.11 204 2.11 121 2.11
  22  0.100  0.900  0.407- 108 2.11 123 2.11 124 2.11 143 2.11 122 2.11
  23  0.000  0.900  0.503- 105 2.11 121 2.11 122 2.11 202 2.11 123 2.11
  24  0.100  0.800  0.503- 118 2.11 121 2.11 122 2.11 141 2.11 124 2.11
  25  0.200  0.000  0.407- 128 2.11 127 2.11 108 2.11 143 2.11 125 2.11
  26  0.300  0.100  0.407- 127 2.11 128 2.11 132 2.11 147 2.11 126 2.11
  27  0.200  0.100  0.503- 126 2.11 125 2.11 106 2.11 129 2.11 127 2.11
  28  0.300  0.000  0.503- 125 2.11 126 2.11 142 2.11 145 2.11 128 2.11
  29  0.200  0.200  0.407- 131 2.11 132 2.11 112 2.11 127 2.11 129 2.11
  30  0.300  0.300  0.407- 131 2.11 132 2.11 136 2.11 151 2.11 130 2.11
  31  0.200  0.300  0.503- 129 2.11 130 2.11 110 2.11 133 2.11 131 2.11
  32  0.300  0.200  0.503- 129 2.11 130 2.11 126 2.11 149 2.11 132 2.11
  33  0.200  0.400  0.407- 136 2.11 131 2.11 135 2.11 116 2.11 133 2.11
  34  0.300  0.500  0.407- 135 2.11 136 2.11 140 2.11 155 2.11 134 2.11
  35  0.200  0.500  0.503- 134 2.11 133 2.11 114 2.11 137 2.11 135 2.11
  36  0.300  0.400  0.503- 133 2.11 130 2.11 134 2.11 153 2.11 136 2.11
  37  0.200  0.600  0.407- 140 2.11 135 2.11 139 2.11 120 2.11 137 2.11
  38  0.300  0.700  0.407- 139 2.11 144 2.11 140 2.11 159 2.11 138 2.11
  39  0.200  0.700  0.503- 138 2.11 141 2.11 118 2.11 137 2.11 139 2.11
  40  0.300  0.600  0.503- 137 2.11 134 2.11 138 2.11 157 2.11 140 2.11   4 3.02
  41  0.200  0.800  0.407- 139 2.11 144 2.11 143 2.11 124 2.11 141 2.11
  42  0.300  0.900  0.407- 143 2.11 128 2.11 144 2.11 163 2.11 142 2.11
  43  0.200  0.900  0.503- 142 2.11 125 2.11 141 2.11 122 2.11 143 2.11
  44  0.300  0.800  0.503- 138 2.11 141 2.11 142 2.11 161 2.11 144 2.11
  45  0.400  0.000  0.407- 128 2.11 147 2.11 148 2.11 163 2.11 145 2.11
  46  0.500  0.100  0.407- 147 2.11 148 2.11 152 2.11 167 2.11 146 2.11
  47  0.400  0.100  0.503- 126 2.11 145 2.11 146 2.11 149 2.11 147 2.11
  48  0.500  0.000  0.503- 145 2.11 146 2.11 162 2.11 165 2.11 148 2.11
  49  0.400  0.200  0.407- 151 2.11 147 2.11 132 2.11 152 2.11 149 2.11
  50  0.500  0.300  0.407- 152 2.11 151 2.11 156 2.11 171 2.11 150 2.11
  51  0.400  0.300  0.503- 149 2.11 130 2.11 150 2.11 153 2.11 151 2.11
  52  0.500  0.200  0.503- 150 2.11 149 2.11 146 2.11 169 2.11 152 2.11
  53  0.400  0.400  0.407- 136 2.11 151 2.11 155 2.11 156 2.11 153 2.11
  54  0.500  0.500  0.407- 155 2.11 156 2.11 160 2.11 175 2.11 154 2.11
  55  0.400  0.500  0.503- 134 2.11 153 2.11 154 2.11 157 2.11 155 2.11   1 2.73
  56  0.500  0.400  0.503- 150 2.11 153 2.11 154 2.11 173 2.11 156 2.11
  57  0.400  0.600  0.407- 140 2.11 155 2.11 159 2.11 160 2.11 157 2.11
  58  0.500  0.700  0.407- 164 2.11 160 2.11 159 2.11 179 2.11 158 2.11
  59  0.400  0.700  0.503- 161 2.11 157 2.11 158 2.11 138 2.11 159 2.11   4 2.95
  60  0.500  0.600  0.503- 154 2.11 157 2.11 158 2.11 177 2.11 160 2.11   4 3.02
[...]
 190  0.900  0.300  0.503-  92 2.11  91 2.11  11 2.11  96 2.11  90 2.11
 191  0.800  0.300  0.407-  70 2.11  89 2.11  90 2.11  93 2.11  91 2.11
 192  0.900  0.200  0.407-  90 2.11  86 2.11  89 2.11   9 2.11  92 2.11
 193  0.800  0.400  0.503-  76 2.11  91 2.11  95 2.11  96 2.11  93 2.11
 194  0.900  0.500  0.503-  15 2.11  95 2.11  96 2.11 100 2.11  94 2.11
 195  0.800  0.500  0.407-  74 2.11  93 2.11  94 2.11  97 2.11  95 2.11
 196  0.900  0.400  0.407-  13 2.11  90 2.11  93 2.11  94 2.11  96 2.11
 197  0.800  0.600  0.503-  80 2.11  95 2.11  99 2.11 100 2.11  97 2.11
 198  0.900  0.700  0.503- 104 2.11  99 2.11 100 2.11  19 2.11  98 2.11
 199  0.800  0.700  0.407-  78 2.11 101 2.11  98 2.11  97 2.11  99 2.11
 200  0.900  0.600  0.407-  17 2.11  94 2.11  97 2.11  98 2.11 100 2.11
 201  0.800  0.800  0.503-  84 2.11  99 2.11 103 2.11 104 2.11 101 2.11
 202  0.900  0.900  0.503-  23 2.11  88 2.11 103 2.11 104 2.11 102 2.11
 203  0.800  0.900  0.407-  82 2.11  85 2.11 101 2.11 102 2.11 103 2.11
 204  0.900  0.800  0.407-  98 2.11  21 2.11 101 2.11 102 2.11 104 2.11

  LATTYP: Found a simple tetragonal cell.
 ALAT       =    21.1388521970
 C/A-ratio  =     1.0461251639

  Lattice vectors:

 A1 = (  21.1388521970,   0.0000000000,   0.0000000000)
 A2 = (   0.0000000000,  21.1388521970,   0.0000000000)
 A3 = (   0.0000000000,   0.0000000000,  22.1138852197)

Analysis of symmetry for initial positions (statically):
 Subroutine PRICEL returns:
 Original cell was already a primitive cell.

 Routine SETGRP: Setting up the symmetry group for a
 simple tetragonal supercell.

 Subroutine GETGRP returns: Found  1 space group operations
 (whereof  1 operations were pure point group operations)
 out of a pool of 16 trial point group operations.

The static configuration has the point symmetry C_1 .

Analysis of symmetry for dynamics (positions and initial velocities):
 Subroutine PRICEL returns:
 Original cell was already a primitive cell.

[...]

The dynamic configuration has the point symmetry C_1 .

Analysis of constrained symmetry for selective dynamics:
 Subroutine PRICEL returns:
 Original cell was already a primitive cell.

 Routine SETGRP: Setting up the symmetry group for a
[...]
     40     -46.4864      2.00000
     41     -46.4711      2.00000
     42     -46.4710      2.00000
     43     -46.4696      2.00000
     44     -46.4692      2.00000
     45     -46.4634      2.00000
     46     -46.4632      2.00000
     47     -46.4496      2.00000
     48     -46.4284      2.00000
     49     -46.4280      2.00000
     50     -46.4231      2.00000
     51     -46.4226      2.00000
     52     -46.4210      2.00000
     53     -46.4207      2.00000
     54     -46.4161      2.00000
     55     -46.4154      2.00000
     56     -46.4128      2.00000
     57     -46.4113      2.00000
     58     -46.4100      2.00000
     59     -46.4093      2.00000
     60     -46.4078      2.00000
[...]
   1010       7.2105      0.00000
   1011       7.3960      0.00000
   1012       7.5055      0.00000
   1013       7.5488      0.00000
   1014       7.5555      0.00000
   1015       7.6139      0.00000
   1016       7.7069      0.00000
   1017       7.7315      0.00000
   1018       7.7828      0.00000
   1019       7.7851      0.00000
   1020       7.9580      0.00000
   1021       8.1690      0.00000
   1022       8.2760      0.00000
   1023       8.3550      0.00000
   1024       8.4118      0.00000

 soft charge-density along one line, spin component           1
         0         1         2         3         4         5         6         7         8         9
 total charge-density along one line

------------------------ aborting loop because EDIFF is reached ----------------------------------------

 WARNING: Using user supplied parameters
     VDW_A1 = 0.398
     VDW_A2 = 4.421
     VDW_S8 = 1.989
     because the xc functional is not supported. Required parameters not
     defined in the INCAR file will be replaced with PBE defaults ones.

         DFTD3 V3.0 Rev 1
 IVDW         = 12
 DF unknown
 parameters
 VDW_S6       =    1.0000
 VDW_S8       =    1.9889
 VDW_A1       =    0.3981
 VDW_A2       =    4.4211
 k1-k3        =   16.0000    1.3333   -4.0000
 VDW_RADIUS   =   50.2022 A
 VDW_CNRADIUS =   21.1671 A
 Edisp (eV)  -62.46205

 E6    (eV) :   -21.3321
 E8    (eV) :   -41.1300
 % E8        : 65.85

 VOLUME and BASIS-vectors are now :
  energy-cutoff  :      520.00
  volume of cell :     9881.61
      direct lattice vectors                 reciprocal lattice vectors
    21.138852197  0.000000000  0.000000000     0.047306258  0.000000000  0.000000000
     0.000000000 21.138852197  0.000000000     0.000000000  0.047306258  0.000000000
     0.000000000  0.000000000 22.113885220     0.000000000  0.000000000  0.045220457

  length of vectors
    21.138852197 21.138852197 22.113885220     0.047306258  0.047306258  0.045220457

 FORCES acting on ions:
    Electron-Ion                     Ewald-Force                    Non-Local-Force
   0.615E-01 0.369E+03 -.196E+04   -.629E-01 -.366E+03 0.197E+04   0.214E-02 -.381E+01 -.456E+01
   0.196E+00 0.208E+03 -.198E+04   -.196E+00 -.211E+03 0.198E+04   0.915E-03 0.247E+01 0.426E+01
   -.393E+00 -.355E+03 -.186E+04   0.386E+00 0.351E+03 0.185E+04   0.686E-02 0.402E+01 0.605E+01
   0.139E+00 -.226E+03 -.180E+04   -.137E+00 0.227E+03 0.180E+04   -.917E-03 -.991E+00 -.257E+01
   0.728E+01 -.275E+01 0.936E+03   -.731E+01 0.276E+01 -.929E+03   0.156E-01 -.685E-02 -.673E+01
   0.131E+02 0.618E+01 0.939E+03   -.131E+02 -.620E+01 -.932E+03   0.324E-01 0.112E-01 -.673E+01
   0.949E+01 0.529E+01 -.918E+03   -.951E+01 -.529E+01 0.910E+03   0.131E-01 -.220E-02 0.664E+01
   0.158E+02 -.519E+01 -.915E+03   -.158E+02 0.521E+01 0.908E+03   0.184E-01 -.905E-02 0.664E+01
   0.977E+01 0.992E+01 0.938E+03   -.981E+01 -.994E+01 -.931E+03   0.273E-01 0.946E-02 -.673E+01
   0.254E+02 0.185E+02 0.950E+03   -.256E+02 -.186E+02 -.942E+03   0.102E+00 0.327E-01 -.676E+01
   0.184E+02 0.158E+02 -.913E+03   -.185E+02 -.158E+02 0.906E+03   0.209E-01 0.437E-02 0.663E+01
   0.240E+02 0.201E+02 -.912E+03   -.240E+02 -.201E+02 0.904E+03   0.437E-01 0.633E-02 0.662E+01
   0.172E+02 0.972E+01 0.945E+03   -.173E+02 -.974E+01 -.937E+03   0.525E-01 0.135E-01 -.674E+01
   0.394E+02 0.476E+01 0.962E+03   -.396E+02 -.479E+01 -.954E+03   0.172E+00 0.181E-01 -.678E+01
   0.286E+02 0.429E+01 -.908E+03   -.286E+02 -.430E+01 0.900E+03   0.295E-01 0.826E-02 0.662E+01
   0.538E+02 0.225E+02 -.897E+03   -.538E+02 -.225E+02 0.889E+03   0.603E-01 0.128E-01 0.659E+01
   0.191E+02 -.486E+01 0.947E+03   -.192E+02 0.486E+01 -.939E+03   0.655E-01 -.322E-03 -.674E+01
   0.313E+02 -.168E+02 0.955E+03   -.315E+02 0.168E+02 -.948E+03   0.142E+00 -.310E-01 -.676E+01
   0.231E+02 -.140E+02 -.910E+03   -.232E+02 0.140E+02 0.902E+03   0.342E-01 -.161E-02 0.663E+01
   0.622E+02 -.117E+02 -.892E+03   -.623E+02 0.117E+02 0.884E+03   0.108E+00 0.925E-02 0.659E+01
   0.122E+02 -.120E+02 0.941E+03   -.122E+02 0.121E+02 -.933E+03   0.373E-01 -.158E-01 -.673E+01
   0.157E+02 -.127E+02 0.942E+03   -.157E+02 0.128E+02 -.934E+03   0.403E-01 -.309E-01 -.673E+01
   0.116E+02 -.114E+02 -.916E+03   -.117E+02 0.114E+02 0.909E+03   0.166E-01 -.881E-02 0.664E+01
   0.329E+02 -.257E+02 -.906E+03   -.330E+02 0.258E+02 0.898E+03   0.611E-01 -.193E-01 0.662E+01
   0.133E+02 -.528E+01 0.943E+03   -.134E+02 0.530E+01 -.935E+03   0.276E-01 -.152E-01 -.674E+01
   0.951E+01 0.126E+02 0.948E+03   -.955E+01 -.127E+02 -.940E+03   0.254E-01 0.676E-01 -.675E+01
   0.188E+02 0.132E+02 -.911E+03   -.188E+02 -.132E+02 0.904E+03   0.255E-01 0.225E-01 0.663E+01
   0.117E+02 -.106E+02 -.908E+03   -.117E+02 0.106E+02 0.901E+03   0.118E-01 -.874E-02 0.662E+01
   0.206E+02 0.226E+02 0.951E+03   -.207E+02 -.227E+02 -.943E+03   0.822E-01 0.766E-01 -.675E+01
   0.265E+02 0.457E+02 0.986E+03   -.268E+02 -.462E+02 -.978E+03   0.221E+00 0.284E+00 -.676E+01
   0.559E+02 0.505E+02 -.887E+03   -.561E+02 -.506E+02 0.880E+03   0.186E+00 0.110E-01 0.657E+01
   0.240E+02 0.539E+02 -.894E+03   -.241E+02 -.542E+02 0.886E+03   0.393E-01 0.166E+00 0.659E+01
   0.470E+02 0.254E+02 0.982E+03   -.475E+02 -.255E+02 -.974E+03   0.357E+00 0.844E-01 -.686E+01
   0.504E+02 0.115E+02 0.104E+04   -.512E+02 -.117E+02 -.103E+04   0.511E+00 0.126E+00 -.690E+01
   0.113E+03 0.144E+02 -.846E+03   -.113E+03 -.145E+02 0.839E+03   0.279E+00 0.458E-01 0.650E+01
   0.128E+03 0.927E+02 -.764E+03   -.130E+03 -.928E+02 0.757E+03   0.153E+01 0.108E+00 0.612E+01
   0.535E+02 -.141E+02 0.991E+03   -.541E+02 0.141E+02 -.983E+03   0.488E+00 -.318E-01 -.687E+01
   0.350E+02 -.448E+02 0.101E+04   -.355E+02 0.454E+02 -.100E+04   0.329E+00 -.366E+00 -.675E+01
   0.779E+02 -.504E+02 -.868E+03   -.783E+02 0.504E+02 0.860E+03   0.275E+00 -.297E-01 0.656E+01
   0.155E+03 -.488E+02 -.722E+03   -.159E+03 0.489E+02 0.714E+03   0.252E+01 -.215E-01 0.633E+01
   0.274E+02 -.286E+02 0.960E+03   -.275E+02 0.288E+02 -.952E+03   0.113E+00 -.113E+00 -.675E+01
   0.121E+02 -.255E+02 0.954E+03   -.121E+02 0.257E+02 -.947E+03   0.282E-01 -.120E+00 -.676E+01
   0.250E+02 -.284E+02 -.906E+03   -.250E+02 0.285E+02 0.898E+03   0.241E-01 -.516E-01 0.662E+01
   0.386E+02 -.776E+02 -.869E+03   -.386E+02 0.779E+02 0.862E+03   0.946E-02 -.274E+00 0.656E+01
   -.174E-02 -.744E+01 0.948E+03   0.172E-02 0.747E+01 -.940E+03   0.187E-04 -.183E-01 -.674E+01
   -.952E+01 0.126E+02 0.948E+03   0.955E+01 -.127E+02 -.940E+03   -.253E-01 0.677E-01 -.675E+01
   -.410E-02 0.219E+02 -.906E+03   0.401E-02 -.220E+02 0.898E+03   0.561E-04 0.622E-01 0.662E+01
   -.117E+02 -.106E+02 -.908E+03   0.117E+02 0.106E+02 0.901E+03   -.117E-01 -.871E-02 0.662E+01
   -.588E-02 0.364E+02 0.964E+03   0.574E-02 -.368E+02 -.956E+03   0.104E-03 0.300E+00 -.680E+01
   -.265E+02 0.457E+02 0.986E+03   0.268E+02 -.461E+02 -.978E+03   -.221E+00 0.284E+00 -.676E+01
   -.364E-01 0.133E+03 -.820E+03   0.361E-01 -.135E+03 0.813E+03   0.238E-03 0.152E+01 0.663E+01
   -.240E+02 0.539E+02 -.894E+03   0.241E+02 -.542E+02 0.886E+03   -.391E-01 0.166E+00 0.659E+01
   -.202E-01 0.474E+02 0.105E+04   0.198E-01 -.480E+02 -.104E+04   0.317E-03 0.411E+00 -.507E+01
   -.505E+02 0.115E+02 0.104E+04   0.512E+02 -.117E+02 -.103E+04   -.511E+00 0.126E+00 -.690E+01
   -.977E-01 0.195E+02 -.584E+03   0.971E-01 -.212E+02 0.579E+03   0.620E-03 0.129E+01 0.465E+01
   -.128E+03 0.926E+02 -.764E+03   0.130E+03 -.928E+02 0.757E+03   -.153E+01 0.109E+00 0.613E+01
   -.162E-01 -.272E+02 0.107E+04   0.157E-01 0.276E+02 -.106E+04   0.343E-03 -.260E+00 -.389E+01
   -.351E+02 -.448E+02 0.101E+04   0.355E+02 0.454E+02 -.100E+04   -.329E+00 -.366E+00 -.675E+01
   -.275E-01 -.162E+03 -.734E+03   0.275E-01 0.166E+03 0.727E+03   0.203E-04 -.245E+01 0.593E+01
   -.155E+03 -.488E+02 -.722E+03   0.159E+03 0.488E+02 0.715E+03   -.252E+01 -.219E-01 0.634E+01
[...]
   -.101E+02 0.914E+01 0.708E+03   0.101E+02 -.915E+01 -.712E+03   -.340E-01 0.162E-01 0.313E+01
   0.210E-02 0.632E+01 0.704E+03   -.206E-02 -.632E+01 -.708E+03   -.396E-04 0.703E-02 0.314E+01
   -.185E+02 0.966E+01 -.684E+03   0.185E+02 -.967E+01 0.688E+03   -.268E-01 0.947E-02 -.330E+01
   0.473E-02 0.256E+01 -.686E+03   -.466E-02 -.257E+01 0.690E+03   -.718E-04 0.760E-02 -.329E+01
   -.147E+02 0.235E+01 0.712E+03   0.147E+02 -.236E+01 -.716E+03   -.496E-01 0.111E-01 0.312E+01
   0.347E-02 0.607E+01 0.708E+03   -.342E-02 -.608E+01 -.712E+03   -.542E-04 0.112E-01 0.313E+01
   -.210E+02 -.474E+01 -.682E+03   0.210E+02 0.474E+01 0.687E+03   -.353E-01 0.512E-02 -.331E+01
   0.252E-02 -.831E+01 -.687E+03   -.247E-02 0.831E+01 0.691E+03   -.565E-04 -.206E-02 -.328E+01
   -.121E+02 -.801E+01 0.710E+03   0.121E+02 0.803E+01 -.714E+03   -.454E-01 -.141E-01 0.313E+01
   0.290E-02 -.296E+01 0.709E+03   -.287E-02 0.296E+01 -.713E+03   -.519E-04 0.696E-03 0.313E+01
   -.126E+02 -.117E+02 -.687E+03   0.126E+02 0.117E+02 0.691E+03   -.257E-01 -.120E-01 -.328E+01
   0.110E-02 -.709E+01 -.690E+03   -.107E-02 0.710E+01 0.694E+03   -.286E-04 -.841E-02 -.327E+01
   -.669E+01 -.666E+01 0.705E+03   0.671E+01 0.667E+01 -.709E+03   -.229E-01 -.168E-01 0.314E+01
   0.138E-02 -.762E+01 0.706E+03   -.135E-02 0.763E+01 -.710E+03   -.360E-04 -.127E-01 0.314E+01
   -.594E-03 -.375E+01 0.247E+00   0.958E-12 0.122E-11 0.209E-10   0.599E-03 0.326E+01 0.336E-01

 POSITION                                       TOTAL-FORCE (eV/Angst)
      8.45451      8.98915     13.34135         0.000779     -0.229746     -0.116576
      8.45464     10.77395     15.12987        -0.000001     -0.264030      0.210709
      8.45667     13.37210     15.77041        -0.000569      0.385692      0.301251
      8.45496     12.78393     13.26751         0.001237      0.132428     -0.337801
      0.00000      0.00000      9.00000        -0.004831      0.002165      0.540445
      2.11389      2.11389      9.00000        -0.010077     -0.003484      0.542002
      0.00000      2.11389     11.11389        -0.003852      0.000795     -0.502090
      2.11389      0.00000     11.11389        -0.005602      0.002720     -0.500282
      0.00000      4.22777      9.00000        -0.008159     -0.002877      0.542328
      2.11389      6.34166      9.00000        -0.029846     -0.009727      0.549991
      0.00000      6.34166     11.11389        -0.005311     -0.000957     -0.496013
      2.11389      4.22777     11.11389        -0.011964     -0.001223     -0.493525
      0.00000      8.45554      9.00000        -0.015472     -0.004147      0.545521
      2.11389     10.56943      9.00000        -0.050272     -0.005951      0.556822
      0.00000     10.56943     11.11389        -0.006914     -0.002642     -0.490802
      2.11389      8.45554     11.11389        -0.009887     -0.002443     -0.473038
      0.00000     12.68331      9.00000        -0.019152     -0.000048      0.545811
      2.11389     14.79720      9.00000        -0.041588      0.009651      0.550981
      0.00000     14.79720     11.11389        -0.009056      0.000214     -0.495366
      2.11389     12.68331     11.11389        -0.022595     -0.004062     -0.472125
      0.00000     16.91108      9.00000        -0.011203      0.004971      0.542961
      2.11389     19.02497      9.00000        -0.012546      0.009593      0.542252
      0.00000     19.02497     11.11389        -0.004902      0.002684     -0.501583
      2.11389     16.91108     11.11389        -0.016450      0.005143     -0.491257
      4.22777      0.00000      9.00000        -0.008688      0.004534      0.543292
      6.34166      2.11389      9.00000        -0.008191     -0.019887      0.546693
      4.22777      2.11389     11.11389        -0.007596     -0.005706     -0.494359
      6.34166      0.00000     11.11389        -0.003474      0.002098     -0.493732
      4.22777      4.22777      9.00000        -0.025627     -0.023531      0.546198
      6.34166      6.34166      9.00000        -0.076508     -0.091777      0.545385
      4.22777      6.34166     11.11389        -0.037742      0.008200     -0.448032
      6.34166      4.22777     11.11389        -0.008904     -0.035722     -0.465604
      4.22777      8.45554      9.00000        -0.098771     -0.024173      0.581054
      6.34166     10.56943      9.00000        -0.175501     -0.046100      0.571394
      4.22777     10.56943     11.11389        -0.030944     -0.015507     -0.380471
      6.34166      8.45554     11.11389        -0.555918      0.010750     -0.277993
      4.22777     12.68331      9.00000        -0.133423      0.007955      0.583033
      6.34166     14.79720      9.00000        -0.112946      0.123855      0.537006
      4.22777     14.79720     11.11389        -0.056595     -0.001694     -0.435420
      6.34166     12.68331     11.11389        -0.937780     -0.030161     -0.407305
      4.22777     16.91108      9.00000        -0.034986      0.034959      0.548720
      6.34166     19.02497      9.00000        -0.008725      0.034814      0.551334
      4.22777     19.02497     11.11389        -0.006746      0.013496     -0.491466
      6.34166     16.91108     11.11389         0.010105      0.052102     -0.431156
      8.45554      0.00000      9.00000        -0.000002      0.005429      0.545952
     10.56943      2.11389      9.00000         0.008173     -0.019925      0.546701
      8.45554      2.11389     11.11389        -0.000019     -0.014558     -0.487999
     10.56943      0.00000     11.11389         0.003470      0.002092     -0.493756
      8.45554      4.22777      9.00000        -0.000026     -0.082923      0.559606
     10.56943      6.34166      9.00000         0.076451     -0.091832      0.545531
      8.45554      6.34166     11.11389        -0.000081     -0.507104     -0.431280
     10.56943      4.22777     11.11389         0.008866     -0.035787     -0.465599
      8.45554      8.45554      9.00000        -0.000116     -0.096670      0.168189
     10.56943     10.56943      9.00000         0.175497     -0.046075      0.571575
      8.45554     10.56943     11.11389         0.000019     -0.186825     -0.342848
     10.56943      8.45554     11.11389         0.555353      0.010724     -0.278153
      8.45554     12.68331      9.00000        -0.000127      0.064320     -0.115138
     10.56943     14.79720      9.00000         0.112984      0.123983      0.537427
      8.45554     14.79720     11.11389         0.000056      0.972019     -0.371089
     10.56943     12.68331     11.11389         0.937209     -0.029961     -0.406886
[...]
     19.02497      6.34166     11.11389        -0.000017      0.001555      0.377598
     16.91108      6.34166      9.00000        -0.011004      0.005264     -0.423279
     19.02497      4.22777      9.00000        -0.000011      0.002292     -0.420746
     16.91108      8.45554     11.11389        -0.008880      0.003114      0.370486
     19.02497     10.56943     11.11389        -0.000019      0.002474      0.374228
     16.91108     10.56943      9.00000        -0.016035      0.003582     -0.425756
     19.02497      8.45554      9.00000        -0.000016      0.003632     -0.422940
     16.91108     12.68331     11.11389        -0.011636      0.001635      0.369837
     19.02497     14.79720     11.11389        -0.000020     -0.000674      0.376983
     16.91108     14.79720      9.00000        -0.014688     -0.004554     -0.423423
     19.02497     12.68331      9.00000        -0.000018      0.000221     -0.422967
     16.91108     16.91108     11.11389        -0.008376     -0.003886      0.377279
     19.02497     19.02497     11.11389        -0.000006     -0.002724      0.381535
     16.91108     19.02497      9.00000        -0.007391     -0.005420     -0.420469
     19.02497     16.91108      9.00000        -0.000010     -0.004085     -0.420871
    total drift:                               -0.000259     -0.002712     -0.245774

  FREE ENERGIE OF THE ION-ELECTRON SYSTEM (eV)
  free  energy   TOTEN  =     -1400.29264441 eV

  energy  without entropy=    -1400.29264441  energy(sigma->0) =    -1400.29264441