 vasp.6.3.0 20Jan22 (build Apr  1 2022 16:44:48) complex
 executed on        HPECrayEX_GCC date 2023.01.09  17:41:41

 INCAR:
   SYSTEM = MgO-rocksalt
   ISMEAR = 0
   SIGMA = 0.05
   EDIFF = 1E-6
   ALGO = ALL
   ISTART = 0
   IBRION = -1
   NSW = 0
   ISYM = 2
   DIPOL = 0.5 0.5 0.5
   IDIPOL = 3
   LDIPOL = .TRUE.
   GGA = MK
   LUSE_VDW = .TRUE.
   PARAM1 = 0.1234
   PARAM2 = 0.711357
   ZAB_VDW = -1.8867
   AGGAC = 0.0
   ENCUT = 520
   PREC = Accurate
   LASPH = .TRUE.
   LREAL = Auto
   ISPIN = 1
   NELM = 200
   NELMIN = 8
   NCORE = 4
   KPAR = 2
   LWAVE = .FALSE.
   LCHARG = .FALSE.

 POTCAR:    PAW_PBE Cu 22Jun2005
 POTCAR:    PAW_PBE Mg_pv 13Apr2007
 POTCAR:    PAW_PBE O 08Apr2002
|               ----> ADVICE to this user running VASP <----                  |
|     You have switched on vdW-DFT.                                           |
|     This routine was written and supplied by Jiri Klimes. We recommend      |
|     that you carefully read and cite the following publications:            |
|       J. Klimes, D.R. Bowler, A. Michelides                                 |
|          J. Phys.: Cond Matt. 22 022201 (2010)                              |
|       J. Klimes, D.R. Bowler, A. Michelides                                 |
|          Phys. Rev. B. 83, 195131 (2011)                                    |
|     and references therein.                                                 |

   TITEL  = PAW_PBE Cu 22Jun2005
   POMASS =   63.546; ZVAL   =   11.000    mass and valenz
   ENMAX  =  295.446; ENMIN  =  221.585 eV

   TITEL  = PAW_PBE Mg_pv 13Apr2007
   POMASS =   24.305; ZVAL   =    8.000    mass and valenz
   ENMAX  =  403.929; ENMIN  =  302.947 eV

   TITEL  = PAW_PBE O 08Apr2002
   POMASS =   16.000; ZVAL   =    6.000    mass and valenz
   ENMAX  =  400.000; ENMIN  =  300.000 eV

 Optimization of the real space projectors (new method)

 maximal supplied QI-value         = 16.25
 optimisation between [QCUT,QGAM] = [ 11.54, 23.24] = [ 37.28,151.24] Ry
 Optimized for a Real-space Cutoff    1.53 Angstroem

   l    n(q)    QCUT    max X(q) W(low)/X(q) W(high)/X(q)  e(spline)
   2     10    11.539     4.610    0.96E-04    0.13E-03    0.19E-06
   2     10    11.539     8.522    0.16E-03    0.21E-03    0.28E-06
   0     11    11.539    51.609    0.45E-04    0.31E-04    0.11E-06
   0     11    11.539    27.747    0.39E-04    0.29E-04    0.10E-06
   1     10    11.539    20.408    0.70E-05    0.38E-04    0.18E-06
   1     10    11.539    13.425    0.66E-05    0.34E-04    0.17E-06
 Optimization of the real space projectors (new method)

[...]

   l    n(q)    QCUT    max X(q) W(low)/X(q) W(high)/X(q)  e(spline)
   1      8    11.527     2.974    0.44E-04    0.56E-04    0.12E-06
   1      8    11.527     4.279    0.12E-03    0.12E-03    0.26E-06
   0      9    11.527    16.381    0.46E-04    0.64E-04    0.78E-07
   0      9    11.527     5.611    0.26E-04    0.43E-04    0.55E-07
   2      8    11.527     4.652    0.22E-03    0.72E-04    0.47E-07
 Optimization of the real space projectors (new method)

 maximal supplied QI-value         = 24.76
 optimisation between [QCUT,QGAM] = [ 11.64, 23.27] = [ 37.91,151.63] Ry
 Optimized for a Real-space Cutoff    1.14 Angstroem

   l    n(q)    QCUT    max X(q) W(low)/X(q) W(high)/X(q)  e(spline)
   0      8    11.635    20.381    0.10E-03    0.33E-03    0.24E-06
   0      8    11.635    15.268    0.11E-03    0.35E-03    0.26E-06
   1      7    11.635     5.964    0.24E-03    0.31E-03    0.30E-06
   1      7    11.635     5.382    0.22E-03    0.25E-03    0.26E-06
|               ----> ADVICE to this user running VASP <----                  |
|     You enforced a specific xc type in the INCAR file but a different       |
|     type was found in the POTCAR file.                                      |
|     I HOPE YOU KNOW WHAT YOU ARE DOING!                                     |

  PAW_PBE Cu 22Jun2005                  :
  PAW_PBE Mg_pv 13Apr2007               :
  PAW_PBE O 08Apr2002                   :

 POSCAR: Cu Mg  O
  positions in direct lattice
  velocities in cartesian coordinates
 exchange correlation table for  LEXCH =       43
   RHO(1)=    0.500       N(1)  =     2000
   RHO(2)=  100.500       N(2)  =     4000

 ion  position               nearest neighbor table
   1  0.400  0.417  0.591- 153 1.98   4 2.26   3 2.42   2 2.42  55 2.62
   2  0.490  0.488  0.600- 154 2.19   4 2.37   1 2.42
   3  0.310  0.488  0.600- 134 2.19   4 2.37   1 2.42
   4  0.400  0.492  0.664-   1 2.26   2 2.37   3 2.37
   5  0.000  0.000  0.407- 107 2.11 108 2.11 123 2.11 188 2.11 105 2.11
   6  0.100  0.100  0.407- 107 2.11 108 2.11 112 2.11 127 2.11 106 2.11
   7  0.000  0.100  0.503- 105 2.11 106 2.11 109 2.11 186 2.11 107 2.11
   8  0.100  0.000  0.503- 105 2.11 106 2.11 122 2.11 125 2.11 108 2.11
   9  0.000  0.200  0.407- 111 2.11 107 2.11 112 2.11 192 2.11 109 2.11
  10  0.100  0.300  0.407- 112 2.11 111 2.11 116 2.11 131 2.11 110 2.11
  11  0.000  0.300  0.503- 109 2.11 110 2.11 113 2.11 190 2.11 111 2.11
  12  0.100  0.200  0.503- 110 2.11 109 2.11 106 2.11 129 2.11 112 2.11
  13  0.000  0.400  0.407- 111 2.11 115 2.11 116 2.11 196 2.11 113 2.11
  14  0.100  0.500  0.407- 115 2.11 116 2.11 120 2.11 135 2.11 114 2.11
  15  0.000  0.500  0.503- 113 2.11 114 2.11 117 2.11 194 2.11 115 2.11
  16  0.100  0.400  0.503- 110 2.11 113 2.11 114 2.11 133 2.11 116 2.11
  17  0.000  0.600  0.407- 115 2.11 119 2.11 120 2.11 200 2.11 117 2.11
  18  0.100  0.700  0.407- 124 2.11 120 2.11 119 2.11 139 2.11 118 2.11
  19  0.000  0.700  0.503- 121 2.11 118 2.11 117 2.11 198 2.11 119 2.11
  20  0.100  0.600  0.503- 114 2.11 117 2.11 118 2.11 137 2.11 120 2.11
  21  0.000  0.800  0.407- 119 2.11 123 2.11 124 2.11 204 2.11 121 2.11
  22  0.100  0.900  0.407- 108 2.11 123 2.11 124 2.11 143 2.11 122 2.11
  23  0.000  0.900  0.503- 105 2.11 121 2.11 122 2.11 202 2.11 123 2.11
  24  0.100  0.800  0.503- 118 2.11 121 2.11 122 2.11 141 2.11 124 2.11
  25  0.200  0.000  0.407- 128 2.11 127 2.11 108 2.11 143 2.11 125 2.11
  26  0.300  0.100  0.407- 127 2.11 128 2.11 132 2.11 147 2.11 126 2.11
  27  0.200  0.100  0.503- 126 2.11 125 2.11 106 2.11 129 2.11 127 2.11
  28  0.300  0.000  0.503- 125 2.11 126 2.11 142 2.11 145 2.11 128 2.11
  29  0.200  0.200  0.407- 131 2.11 132 2.11 112 2.11 127 2.11 129 2.11
  30  0.300  0.300  0.407- 131 2.11 132 2.11 136 2.11 151 2.11 130 2.11
  31  0.200  0.300  0.503- 129 2.11 130 2.11 110 2.11 133 2.11 131 2.11
  32  0.300  0.200  0.503- 129 2.11 130 2.11 126 2.11 149 2.11 132 2.11
  33  0.200  0.400  0.407- 136 2.11 131 2.11 135 2.11 116 2.11 133 2.11
  34  0.300  0.500  0.407- 135 2.11 136 2.11 140 2.11 155 2.11 134 2.11
  35  0.200  0.500  0.503- 134 2.11 133 2.11 114 2.11 137 2.11 135 2.11
  36  0.300  0.400  0.503- 133 2.11 130 2.11 134 2.11 153 2.11 136 2.11
  37  0.200  0.600  0.407- 140 2.11 135 2.11 139 2.11 120 2.11 137 2.11
  38  0.300  0.700  0.407- 139 2.11 144 2.11 140 2.11 159 2.11 138 2.11
  39  0.200  0.700  0.503- 138 2.11 141 2.11 118 2.11 137 2.11 139 2.11
  40  0.300  0.600  0.503- 137 2.11 134 2.11 138 2.11 157 2.11 140 2.11
  41  0.200  0.800  0.407- 139 2.11 144 2.11 143 2.11 124 2.11 141 2.11
  42  0.300  0.900  0.407- 143 2.11 128 2.11 144 2.11 163 2.11 142 2.11
  43  0.200  0.900  0.503- 142 2.11 125 2.11 141 2.11 122 2.11 143 2.11
  44  0.300  0.800  0.503- 138 2.11 141 2.11 142 2.11 161 2.11 144 2.11
  45  0.400  0.000  0.407- 128 2.11 147 2.11 148 2.11 163 2.11 145 2.11
  46  0.500  0.100  0.407- 147 2.11 148 2.11 152 2.11 167 2.11 146 2.11
  47  0.400  0.100  0.503- 126 2.11 145 2.11 146 2.11 149 2.11 147 2.11
  48  0.500  0.000  0.503- 145 2.11 146 2.11 162 2.11 165 2.11 148 2.11
  49  0.400  0.200  0.407- 151 2.11 147 2.11 132 2.11 152 2.11 149 2.11
  50  0.500  0.300  0.407- 152 2.11 151 2.11 156 2.11 171 2.11 150 2.11
  51  0.400  0.300  0.503- 149 2.11 130 2.11 150 2.11 153 2.11 151 2.11
  52  0.500  0.200  0.503- 150 2.11 149 2.11 146 2.11 169 2.11 152 2.11
  53  0.400  0.400  0.407- 136 2.11 151 2.11 155 2.11 156 2.11 153 2.11
  54  0.500  0.500  0.407- 155 2.11 156 2.11 160 2.11 175 2.11 154 2.11
  55  0.400  0.500  0.503- 134 2.11 153 2.11 154 2.11 157 2.11 155 2.11   1 2.62
  56  0.500  0.400  0.503- 150 2.11 153 2.11 154 2.11 173 2.11 156 2.11
  57  0.400  0.600  0.407- 140 2.11 155 2.11 159 2.11 160 2.11 157 2.11
  58  0.500  0.700  0.407- 164 2.11 160 2.11 159 2.11 179 2.11 158 2.11
  59  0.400  0.700  0.503- 161 2.11 157 2.11 158 2.11 138 2.11 159 2.11
  60  0.500  0.600  0.503- 154 2.11 157 2.11 158 2.11 177 2.11 160 2.11
[...]
 190  0.900  0.300  0.503-  92 2.11  91 2.11  11 2.11  96 2.11  90 2.11
 191  0.800  0.300  0.407-  70 2.11  89 2.11  90 2.11  93 2.11  91 2.11
 192  0.900  0.200  0.407-  90 2.11  86 2.11  89 2.11   9 2.11  92 2.11
 193  0.800  0.400  0.503-  76 2.11  91 2.11  95 2.11  96 2.11  93 2.11
 194  0.900  0.500  0.503-  15 2.11  95 2.11  96 2.11 100 2.11  94 2.11
 195  0.800  0.500  0.407-  74 2.11  93 2.11  94 2.11  97 2.11  95 2.11
 196  0.900  0.400  0.407-  13 2.11  90 2.11  93 2.11  94 2.11  96 2.11
 197  0.800  0.600  0.503-  80 2.11  95 2.11  99 2.11 100 2.11  97 2.11
 198  0.900  0.700  0.503- 104 2.11  99 2.11 100 2.11  19 2.11  98 2.11
 199  0.800  0.700  0.407-  78 2.11 101 2.11  98 2.11  97 2.11  99 2.11
 200  0.900  0.600  0.407-  17 2.11  94 2.11  97 2.11  98 2.11 100 2.11
 201  0.800  0.800  0.503-  84 2.11  99 2.11 103 2.11 104 2.11 101 2.11
 202  0.900  0.900  0.503-  23 2.11  88 2.11 103 2.11 104 2.11 102 2.11
 203  0.800  0.900  0.407-  82 2.11  85 2.11 101 2.11 102 2.11 103 2.11
 204  0.900  0.800  0.407-  98 2.11  21 2.11 101 2.11 102 2.11 104 2.11

  LATTYP: Found a simple tetragonal cell.
 ALAT       =    21.1388521970
 C/A-ratio  =     1.0461251639

  Lattice vectors:

 A1 = (  21.1388521970,   0.0000000000,   0.0000000000)
 A2 = (   0.0000000000,  21.1388521970,   0.0000000000)
 A3 = (   0.0000000000,   0.0000000000,  22.1138852197)

Analysis of symmetry for initial positions (statically):
 Subroutine PRICEL returns:
 Original cell was already a primitive cell.

 Routine SETGRP: Setting up the symmetry group for a
 simple tetragonal supercell.

 Subroutine GETGRP returns: Found  2 space group operations
 (whereof  1 operations were pure point group operations)
 out of a pool of 16 trial point group operations.

The static configuration has the point symmetry C_1 .
 The point group associated with its full space group is C_1h.

Analysis of symmetry for dynamics (positions and initial velocities):
 Subroutine PRICEL returns:
 Original cell was already a primitive cell.

[...]

The dynamic configuration has the point symmetry C_1 .
 The point group associated with its full space group is C_1h.

Analysis of constrained symmetry for selective dynamics:
 Subroutine PRICEL returns:
 Original cell was already a primitive cell.

 Routine SETGRP: Setting up the symmetry group for a
 simple tetragonal supercell.

 Subroutine GETGRP returns: Found  2 space group operations
 (whereof  1 operations were pure point group operations)
 out of a pool of 16 trial point group operations.

The constrained configuration has the point symmetry C_1 .
[...]
     52     -43.3447      2.00000
     53     -43.3437      2.00000
     54     -43.3434      2.00000
     55     -43.3422      2.00000
     56     -43.3384      2.00000
     57     -43.3384      2.00000
     58     -43.3335      2.00000
     59     -43.3323      2.00000
     60     -43.3317      2.00000
[...]
    946       5.6532      0.00000
    947       5.7125      0.00000
    948       5.7273      0.00000
    949       5.7546      0.00000
    950       5.8106      0.00000
    951       5.8450      0.00000
    952       5.8934      0.00000
    953       5.9485      0.00000
    954       6.0294      0.00000
    955       6.1105      0.00000
    956       6.1688      0.00000
    957       6.2408      0.00000
    958       6.3043      0.00000
    959       6.3906      0.00000
    960       6.5196      0.00000

 soft charge-density along one line, spin component           1
         0         1         2         3         4         5         6         7         8         9
 total charge-density along one line

------------------------ aborting loop because EDIFF is reached ----------------------------------------

  FORCE on cell =-STRESS in cart. coord.  units (eV):
  Direction    XX          YY          ZZ          XY          YZ          ZX
  Alpha Z  1394.80054  1394.80054  1394.80054
  Ewald  487008.22575485627.98407************     0.00456   493.91026     0.00668
  Hartree516385.67827515191.56821************     0.00410   374.08265     0.00123
  E(xc)   -7907.09854 -7907.36790 -7908.60092     0.00001     0.16205     0.00001
  Local  ************************************    -0.00924  -861.83505    -0.00689
  n-local -8914.48174 -8917.40568 -9030.39932     0.00069    -0.27158     0.00064
  augment  3670.70853  3671.04024  3612.10172     0.00016    -2.93789    -0.00020
  Kinetic 23051.11205 23049.96178 23281.83178     0.00059    -3.10522    -0.00011
  Fock        0.00000     0.00000     0.00000     0.00000     0.00000     0.00000
  Total    -180.51789  -180.44958     2.02302     0.00000     0.00522     0.00000
  in kB     -29.26867   -29.25759     0.32801     0.00000     0.00085     0.00000

 VOLUME and BASIS-vectors are now :
  energy-cutoff  :      520.00
  volume of cell :     9881.61
      direct lattice vectors                 reciprocal lattice vectors
    21.138852197  0.000000000  0.000000000     0.047306258  0.000000000  0.000000000
     0.000000000 21.138852197  0.000000000     0.000000000  0.047306258  0.000000000
     0.000000000  0.000000000 22.113885220     0.000000000  0.000000000  0.045220457

  length of vectors
    21.138852197 21.138852197 22.113885220     0.047306258  0.047306258  0.045220457

 FORCES acting on ions:
    Electron-Ion                     Ewald-Force                    Non-Local-Force
   0.206E-01 0.599E+03 -.198E+04   -.580E-02 -.593E+03 0.198E+04   0.000E+00 -.602E+01 -.203E+01
   -.601E+03 -.172E+03 -.205E+04   0.595E+03 0.168E+03 0.205E+04   0.575E+01 0.401E+01 -.587E+01
   0.601E+03 -.172E+03 -.205E+04   -.595E+03 0.168E+03 0.205E+04   -.575E+01 0.401E+01 -.587E+01
   -.165E-01 -.264E+03 -.243E+04   0.277E-02 0.258E+03 0.242E+04   0.000E+00 0.599E+01 0.956E+01
   0.683E+01 0.256E+01 0.936E+03   -.683E+01 -.257E+01 -.928E+03   0.158E-01 0.689E-02 -.716E+01
   0.150E+02 0.152E+02 0.941E+03   -.151E+02 -.153E+02 -.933E+03   0.476E-01 0.317E-01 -.717E+01
   0.108E+02 0.133E+02 -.918E+03   -.109E+02 -.133E+02 0.911E+03   0.216E-01 0.151E-02 0.708E+01
   0.140E+02 0.453E+01 -.918E+03   -.140E+02 -.455E+01 0.910E+03   0.228E-01 0.130E-01 0.709E+01
   0.128E+02 0.160E+02 0.941E+03   -.129E+02 -.160E+02 -.934E+03   0.431E-01 0.972E-02 -.717E+01
   0.361E+02 0.255E+02 0.959E+03   -.363E+02 -.255E+02 -.951E+03   0.164E+00 0.321E-01 -.721E+01
   0.262E+02 0.207E+02 -.911E+03   -.262E+02 -.207E+02 0.904E+03   0.292E-01 -.116E-01 0.707E+01
   0.323E+02 0.330E+02 -.909E+03   -.324E+02 -.330E+02 0.902E+03   0.753E-01 -.193E-02 0.706E+01
   0.238E+02 0.841E+01 0.951E+03   -.239E+02 -.842E+01 -.943E+03   0.770E-01 0.428E-03 -.719E+01
   0.515E+02 -.622E+01 0.973E+03   -.519E+02 0.623E+01 -.965E+03   0.290E+00 -.889E-02 -.728E+01
   0.376E+02 -.452E+01 -.906E+03   -.376E+02 0.452E+01 0.899E+03   0.178E-01 0.107E-02 0.705E+01
   0.827E+02 0.251E+02 -.886E+03   -.827E+02 -.251E+02 0.879E+03   0.781E-01 -.260E-01 0.699E+01
   0.211E+02 -.134E+02 0.949E+03   -.211E+02 0.134E+02 -.941E+03   0.704E-01 -.794E-02 -.719E+01
   0.278E+02 -.260E+02 0.953E+03   -.279E+02 0.260E+02 -.945E+03   0.796E-01 -.499E-01 -.718E+01
   0.207E+02 -.217E+02 -.913E+03   -.207E+02 0.217E+02 0.906E+03   0.286E-01 0.623E-02 0.707E+01
   0.684E+02 -.363E+02 -.892E+03   -.685E+02 0.363E+02 0.885E+03   0.148E+00 0.280E-01 0.702E+01
   0.100E+02 -.135E+02 0.939E+03   -.100E+02 0.135E+02 -.932E+03   0.211E-01 -.907E-02 -.716E+01
   0.122E+02 -.856E+01 0.939E+03   -.123E+02 0.856E+01 -.931E+03   0.226E-01 -.509E-02 -.716E+01
   0.888E+01 -.777E+01 -.919E+03   -.888E+01 0.777E+01 0.911E+03   0.104E-01 0.273E-02 0.709E+01
   0.233E+02 -.261E+02 -.913E+03   -.233E+02 0.262E+02 0.906E+03   0.209E-01 -.130E-01 0.708E+01
   0.120E+02 0.515E+01 0.941E+03   -.121E+02 -.519E+01 -.933E+03   0.290E-01 0.323E-01 -.717E+01
   0.110E+02 0.289E+02 0.951E+03   -.111E+02 -.291E+02 -.943E+03   0.393E-01 0.135E+00 -.718E+01
   0.217E+02 0.305E+02 -.911E+03   -.217E+02 -.305E+02 0.904E+03   0.465E-01 0.535E-01 0.707E+01
   0.969E+01 0.905E+01 -.913E+03   -.969E+01 -.911E+01 0.906E+03   0.162E-01 0.447E-01 0.708E+01
   0.276E+02 0.372E+02 0.959E+03   -.277E+02 -.374E+02 -.952E+03   0.128E+00 0.120E+00 -.719E+01
   0.374E+02 0.673E+02 0.102E+04   -.378E+02 -.679E+02 -.101E+04   0.308E+00 0.444E+00 -.723E+01
   0.835E+02 0.800E+02 -.871E+03   -.838E+02 -.800E+02 0.864E+03   0.286E+00 -.205E-01 0.694E+01
   0.325E+02 0.871E+02 -.886E+03   -.326E+02 -.874E+02 0.878E+03   0.792E-01 0.239E+00 0.704E+01
   0.681E+02 0.278E+02 0.101E+04   -.688E+02 -.280E+02 -.100E+04   0.563E+00 0.110E+00 -.741E+01
   0.584E+02 -.240E+02 0.109E+04   -.591E+02 0.244E+02 -.108E+04   0.511E+00 -.274E+00 -.599E+01
   0.182E+03 -.295E+02 -.788E+03   -.184E+03 0.294E+02 0.781E+03   0.131E+01 0.928E-01 0.663E+01
   0.184E+03 0.161E+03 -.639E+03   -.187E+03 -.162E+03 0.634E+03   0.212E+01 0.885E+00 0.511E+01
   0.543E+02 -.416E+02 0.996E+03   -.546E+02 0.418E+02 -.989E+03   0.262E+00 -.192E+00 -.721E+01
   0.231E+02 -.585E+02 0.984E+03   -.231E+02 0.589E+02 -.977E+03   0.542E-01 -.304E+00 -.726E+01
   0.527E+02 -.688E+02 -.888E+03   -.527E+02 0.689E+02 0.881E+03   0.296E-01 -.118E+00 0.702E+01
   0.902E+02 -.176E+03 -.762E+03   -.903E+02 0.177E+03 0.755E+03   0.404E-01 -.127E+01 0.670E+01
   0.193E+02 -.284E+02 0.950E+03   -.193E+02 0.284E+02 -.943E+03   0.354E-01 -.682E-01 -.718E+01
   0.832E+01 -.149E+02 0.945E+03   -.832E+01 0.149E+02 -.938E+03   0.146E-01 -.126E-01 -.717E+01
   0.162E+02 -.161E+02 -.914E+03   -.162E+02 0.161E+02 0.907E+03   0.180E-01 0.357E-02 0.708E+01
   0.182E+02 -.563E+02 -.901E+03   -.182E+02 0.563E+02 0.893E+03   0.132E-01 -.380E-01 0.706E+01
   0.150E-01 0.732E+01 0.945E+03   -.217E-03 -.740E+01 -.937E+03   0.000E+00 0.609E-01 -.717E+01
   -.110E+02 0.289E+02 0.951E+03   0.111E+02 -.291E+02 -.943E+03   -.393E-01 0.135E+00 -.718E+01
   0.152E-01 0.470E+02 -.905E+03   -.391E-03 -.472E+02 0.898E+03   0.000E+00 0.141E+00 0.707E+01
   -.966E+01 0.905E+01 -.913E+03   0.969E+01 -.911E+01 0.906E+03   -.162E-01 0.447E-01 0.708E+01
   0.153E-01 0.590E+02 0.978E+03   -.499E-03 -.596E+02 -.970E+03   0.000E+00 0.436E+00 -.724E+01
   -.374E+02 0.673E+02 0.102E+04   0.378E+02 -.679E+02 -.101E+04   -.308E+00 0.444E+00 -.723E+01
   0.171E-01 0.207E+03 -.776E+03   -.193E-02 -.210E+03 0.769E+03   0.000E+00 0.217E+01 0.710E+01
   -.325E+02 0.871E+02 -.886E+03   0.326E+02 -.874E+02 0.878E+03   -.792E-01 0.239E+00 0.704E+01
   0.163E-01 0.519E+02 0.111E+04   -.142E-02 -.523E+02 -.110E+04   0.000E+00 0.255E+00 -.478E+01
   -.584E+02 -.240E+02 0.109E+04   0.591E+02 0.244E+02 -.108E+04   -.511E+00 -.274E+00 -.599E+01
   0.175E-01 -.151E+03 -.464E+03   -.165E-02 0.154E+03 0.460E+03   0.000E+00 -.205E+01 0.445E+01
   -.184E+03 0.161E+03 -.639E+03   0.187E+03 -.162E+03 0.634E+03   -.212E+01 0.885E+00 0.511E+01
   0.160E-01 -.758E+02 0.105E+04   -.116E-02 0.766E+02 -.105E+04   0.000E+00 -.635E+00 -.739E+01
   -.230E+02 -.585E+02 0.984E+03   0.231E+02 0.589E+02 -.977E+03   -.542E-01 -.304E+00 -.726E+01
   0.160E-01 -.124E+03 -.858E+03   -.126E-02 0.124E+03 0.851E+03   0.000E+00 -.161E+00 0.698E+01
   -.902E+02 -.176E+03 -.762E+03   0.902E+02 0.177E+03 0.755E+03   -.404E-01 -.127E+01 0.670E+01
[...]
   -.139E+02 0.118E+02 0.712E+03   0.140E+02 -.118E+02 -.716E+03   -.501E-01 0.908E-02 0.359E+01
   0.707E-01 0.101E+02 0.706E+03   0.250E-03 -.101E+02 -.710E+03   0.000E+00 0.655E-02 0.361E+01
   -.264E+02 0.872E+01 -.682E+03   0.264E+02 -.872E+01 0.686E+03   -.272E-01 -.942E-02 -.380E+01
   0.702E-01 -.249E+01 -.685E+03   0.726E-03 0.248E+01 0.690E+03   0.000E+00 0.582E-03 -.377E+01
   -.187E+02 -.257E+01 0.716E+03   0.188E+02 0.257E+01 -.720E+03   -.546E-01 -.366E-02 0.358E+01
   0.704E-01 0.499E+01 0.711E+03   0.461E-03 -.499E+01 -.715E+03   0.000E+00 -.801E-03 0.359E+01
   -.230E+02 -.135E+02 -.683E+03   0.231E+02 0.135E+02 0.688E+03   -.287E-01 0.727E-02 -.378E+01
   0.705E-01 -.129E+02 -.688E+03   0.440E-03 0.129E+02 0.693E+03   0.000E+00 0.314E-02 -.374E+01
   -.112E+02 -.126E+02 0.710E+03   0.113E+02 0.126E+02 -.714E+03   -.393E-01 -.190E-01 0.360E+01
   0.705E-01 -.803E+01 0.710E+03   0.431E-03 0.804E+01 -.714E+03   0.000E+00 -.558E-02 0.360E+01
   -.963E+01 -.128E+02 -.689E+03   0.971E+01 0.128E+02 0.694E+03   -.192E-01 -.490E-02 -.374E+01
   0.707E-01 -.497E+01 -.692E+03   0.195E-03 0.496E+01 0.696E+03   0.000E+00 0.226E-02 -.372E+01
   -.537E+01 -.470E+01 0.704E+03   0.545E+01 0.470E+01 -.708E+03   -.165E-01 -.108E-02 0.361E+01
   0.707E-01 -.867E+01 0.705E+03   0.219E-03 0.867E+01 -.709E+03   0.000E+00 -.610E-02 0.361E+01
   0.866E+01 -.829E+01 0.971E+01   0.261E-11 0.227E-12 0.227E-10   0.000E+00 0.828E+01 -.101E+02

 POSITION                                       TOTAL-FORCE (eV/Angst)
      8.45555      8.82382     13.06192        -0.000000      0.007678     -0.000288
     10.35658     10.31213     13.27893         0.002010     -0.001849     -0.000683
      6.55462     10.31214     13.27893        -0.002010     -0.001849     -0.000683
      8.45565     10.40011     14.68777        -0.000000     -0.004695     -0.000069
      0.00000      0.00000      9.00000        -0.004413     -0.001931      0.343805
      2.11389      2.11389      9.00000        -0.013242     -0.008789      0.345092
      0.00000      2.11389     11.11389        -0.005761     -0.000352     -0.314500
      2.11389      0.00000     11.11389        -0.006368     -0.003494     -0.314851
      0.00000      4.22777      9.00000        -0.011484     -0.002636      0.346792
      2.11389      6.34166      9.00000        -0.043221     -0.008667      0.357040
      0.00000      6.34166     11.11389        -0.006590      0.003742     -0.304600
      2.11389      4.22777     11.11389        -0.019305      0.001108     -0.302750
      0.00000      8.45554      9.00000        -0.020676     -0.000010      0.352337
      2.11389     10.56943      9.00000        -0.074137      0.002078      0.370351
      0.00000     10.56943     11.11389        -0.002228     -0.000518     -0.297743
      2.11389      8.45554     11.11389        -0.013334      0.009858     -0.258079
      0.00000     12.68331      9.00000        -0.018495      0.002144      0.350915
      2.11389     14.79720      9.00000        -0.022327      0.014426      0.348471
      0.00000     14.79720     11.11389        -0.007057     -0.001832     -0.308901
      2.11389     12.68331     11.11389        -0.034064     -0.009820     -0.274773
      0.00000     16.91108      9.00000        -0.005851      0.002570      0.344909
      2.11389     19.02497      9.00000        -0.006376      0.001289      0.344616
      0.00000     19.02497     11.11389        -0.002913     -0.000830     -0.315941
      2.11389     16.91108     11.11389        -0.005732      0.002869     -0.309769
      4.22777      0.00000      9.00000        -0.008241     -0.008735      0.344806
      6.34166      2.11389      9.00000        -0.011573     -0.036207      0.347195
      4.22777      2.11389     11.11389        -0.013086     -0.013486     -0.307864
      6.34166      0.00000     11.11389        -0.004659     -0.011663     -0.311818
      4.22777      4.22777      9.00000        -0.036222     -0.033978      0.348684
      6.34166      6.34166      9.00000        -0.099870     -0.130436      0.336192
      4.22777      6.34166     11.11389        -0.063231      0.019544     -0.225196
      6.34166      4.22777     11.11389        -0.024312     -0.060487     -0.280644
      4.22777      8.45554      9.00000        -0.152491     -0.037265      0.384099
      6.34166     10.56943      9.00000        -0.142665      0.088340      0.057182
      4.22777     10.56943     11.11389        -0.433932     -0.033592     -0.172568
      6.34166      8.45554     11.11389        -0.769291     -0.422780     -0.043555
      4.22777     12.68331      9.00000        -0.080162      0.061237      0.343181
      6.34166     14.79720      9.00000        -0.014474      0.077466      0.366470
      4.22777     14.79720     11.11389        -0.006604      0.027045     -0.277039
      6.34166     12.68331     11.11389         0.004675      0.410748     -0.170571
      4.22777     16.91108      9.00000        -0.009979      0.018063      0.348965
      6.34166     19.02497      9.00000        -0.004147      0.003244      0.346257
      4.22777     19.02497     11.11389        -0.005041     -0.001366     -0.312370
      6.34166     16.91108     11.11389        -0.003649      0.007369     -0.299698
      8.45554      0.00000      9.00000        -0.000000     -0.016050      0.345592
     10.56943      2.11389      9.00000         0.011573     -0.036207      0.347195
      8.45554      2.11389     11.11389        -0.000000     -0.035084     -0.303639
     10.56943      0.00000     11.11389         0.004659     -0.011663     -0.311818
      8.45554      4.22777      9.00000        -0.000000     -0.110192      0.357094
     10.56943      6.34166      9.00000         0.099870     -0.130436      0.336192
      8.45554      6.34166     11.11389        -0.000000     -0.700599     -0.345543
     10.56943      4.22777     11.11389         0.024312     -0.060487     -0.280644
      8.45554      8.45554      9.00000        -0.000000     -0.089274     -0.166560
     10.56943     10.56943      9.00000         0.142665      0.088340      0.057182
      8.45554     10.56943     11.11389        -0.000000      0.983883     -0.180629
     10.56943      8.45554     11.11389         0.769291     -0.422780     -0.043555
      8.45554     12.68331      9.00000        -0.000000      0.183024      0.368855
     10.56943     14.79720      9.00000         0.014474      0.077466      0.366470
      8.45554     14.79720     11.11389        -0.000000      0.031718     -0.252202
     10.56943     12.68331     11.11389        -0.004675      0.410748     -0.170571
[...]
     19.02497      6.34166     11.11389        -0.000000     -0.002441      0.365069
     16.91108      6.34166      9.00000        -0.014132      0.002588     -0.407090
     19.02497      4.22777      9.00000        -0.000000      0.001767     -0.402891
     16.91108      8.45554     11.11389        -0.007998     -0.002509      0.353625
     19.02497     10.56943     11.11389        -0.000000      0.000219      0.361388
     16.91108     10.56943      9.00000        -0.015963     -0.001044     -0.411581
     19.02497      8.45554      9.00000        -0.000000     -0.000290     -0.406676
     16.91108     12.68331     11.11389        -0.008388      0.002001      0.357828
     19.02497     14.79720     11.11389        -0.000000      0.001022      0.367796
     16.91108     14.79720      9.00000        -0.010986     -0.005207     -0.404448
     19.02497     12.68331      9.00000        -0.000000     -0.001379     -0.405523
     16.91108     16.91108     11.11389        -0.005285     -0.001244      0.369910
     19.02497     19.02497     11.11389        -0.000000      0.000691      0.372913
     16.91108     19.02497      9.00000        -0.004553     -0.000254     -0.401093
     19.02497     16.91108      9.00000        -0.000000     -0.001593     -0.401738
    total drift:                                8.657042     -0.006440     -0.353958

  FREE ENERGIE OF THE ION-ELECTRON SYSTEM (eV)
  free  energy   TOTEN  =      -794.70941179 eV

  energy  without entropy=     -794.70941179  energy(sigma->0) =     -794.70941179