 vasp.6.3.0 20Jan22 (build Apr  1 2022 16:44:48) complex
 executed on        HPECrayEX_GCC date 2023.01.09  20:26:22

 INCAR:
   SYSTEM = MgO-rocksalt
   ISMEAR = 0
   SIGMA = 0.05
   EDIFF = 1E-6
   ALGO = ALL
   ISTART = 0
   IBRION = -1
   NSW = 0
   ISYM = 2
   DIPOL = 0.5 0.5 0.5
   IDIPOL = 3
   LDIPOL = .TRUE.
   METAGGA = M06L
   ENCUT = 520
   PREC = Accurate
   LASPH = .TRUE.
   LREAL = Auto
   ISPIN = 1
   NELM = 200
   NELMIN = 8
   NCORE = 4
   KPAR = 2
   LWAVE = .FALSE.
   LCHARG = .FALSE.

 POTCAR:    PAW_PBE Cu 22Jun2005
 POTCAR:    PAW_PBE Mg_pv 13Apr2007
 POTCAR:    PAW_PBE O 08Apr2002
 POTCAR:    PAW_PBE Cu 22Jun2005
   VRHFIN =Cu: d10 p1

   TITEL  = PAW_PBE Cu 22Jun2005
   POMASS =   63.546; ZVAL   =   11.000    mass and valenz
   ENMAX  =  295.446; ENMIN  =  221.585 eV

   TITEL  = PAW_PBE Mg_pv 13Apr2007
   POMASS =   24.305; ZVAL   =    8.000    mass and valenz
   ENMAX  =  403.929; ENMIN  =  302.947 eV

   TITEL  = PAW_PBE O 08Apr2002
   POMASS =   16.000; ZVAL   =    6.000    mass and valenz
   ENMAX  =  400.000; ENMIN  =  300.000 eV

 Optimization of the real space projectors (new method)

 maximal supplied QI-value         = 16.25
 optimisation between [QCUT,QGAM] = [ 11.54, 23.24] = [ 37.28,151.24] Ry
 Optimized for a Real-space Cutoff    1.53 Angstroem

   l    n(q)    QCUT    max X(q) W(low)/X(q) W(high)/X(q)  e(spline)
   2     10    11.539     4.610    0.96E-04    0.13E-03    0.19E-06
   2     10    11.539     8.522    0.16E-03    0.21E-03    0.28E-06
   0     11    11.539    51.609    0.45E-04    0.31E-04    0.11E-06
   0     11    11.539    27.747    0.39E-04    0.29E-04    0.10E-06
   1     10    11.539    20.408    0.70E-05    0.38E-04    0.18E-06
   1     10    11.539    13.425    0.66E-05    0.34E-04    0.17E-06
 Optimization of the real space projectors (new method)

[...]

   l    n(q)    QCUT    max X(q) W(low)/X(q) W(high)/X(q)  e(spline)
   1      8    11.527     2.974    0.44E-04    0.56E-04    0.12E-06
   1      8    11.527     4.279    0.12E-03    0.12E-03    0.26E-06
   0      9    11.527    16.381    0.46E-04    0.64E-04    0.78E-07
   0      9    11.527     5.611    0.26E-04    0.43E-04    0.55E-07
   2      8    11.527     4.652    0.22E-03    0.72E-04    0.47E-07
 Optimization of the real space projectors (new method)

 maximal supplied QI-value         = 24.76
 optimisation between [QCUT,QGAM] = [ 11.64, 23.27] = [ 37.91,151.63] Ry
 Optimized for a Real-space Cutoff    1.14 Angstroem

   l    n(q)    QCUT    max X(q) W(low)/X(q) W(high)/X(q)  e(spline)
   0      8    11.635    20.381    0.10E-03    0.33E-03    0.24E-06
   0      8    11.635    15.268    0.11E-03    0.35E-03    0.26E-06
   1      7    11.635     5.964    0.24E-03    0.31E-03    0.30E-06
   1      7    11.635     5.382    0.22E-03    0.25E-03    0.26E-06
  PAW_PBE Cu 22Jun2005                  :
  PAW_PBE Mg_pv 13Apr2007               :
  PAW_PBE O 08Apr2002                   :

 POSCAR: Cu Mg  O
  positions in direct lattice
  velocities in cartesian coordinates

 METAGGA = M06L     LMAXTAU =  6    LMIXTAU =  F

 ion  position               nearest neighbor table
   1  0.398  0.602  0.598- 157 2.11   2 2.32
   2  0.321  0.679  0.599- 138 2.22   1 2.32
   3  0.579  0.421  0.599- 173 2.22   4 2.32
   4  0.502  0.498  0.598- 154 2.11   3 2.32
   5  0.000  0.000  0.407- 107 2.11 108 2.11 123 2.11 188 2.11 105 2.11
   6  0.100  0.100  0.407- 107 2.11 108 2.11 112 2.11 127 2.11 106 2.11
   7  0.000  0.100  0.503- 105 2.11 106 2.11 109 2.11 186 2.11 107 2.11
   8  0.100  0.000  0.503- 105 2.11 106 2.11 122 2.11 125 2.11 108 2.11
   9  0.000  0.200  0.407- 111 2.11 107 2.11 112 2.11 192 2.11 109 2.11
  10  0.100  0.300  0.407- 112 2.11 111 2.11 116 2.11 131 2.11 110 2.11
  11  0.000  0.300  0.503- 109 2.11 110 2.11 113 2.11 190 2.11 111 2.11
  12  0.100  0.200  0.503- 110 2.11 109 2.11 106 2.11 129 2.11 112 2.11
  13  0.000  0.400  0.407- 111 2.11 115 2.11 116 2.11 196 2.11 113 2.11
  14  0.100  0.500  0.407- 115 2.11 116 2.11 120 2.11 135 2.11 114 2.11
  15  0.000  0.500  0.503- 113 2.11 114 2.11 117 2.11 194 2.11 115 2.11
  16  0.100  0.400  0.503- 110 2.11 113 2.11 114 2.11 133 2.11 116 2.11
  17  0.000  0.600  0.407- 115 2.11 119 2.11 120 2.11 200 2.11 117 2.11
  18  0.100  0.700  0.407- 124 2.11 120 2.11 119 2.11 139 2.11 118 2.11
  19  0.000  0.700  0.503- 121 2.11 118 2.11 117 2.11 198 2.11 119 2.11
  20  0.100  0.600  0.503- 114 2.11 117 2.11 118 2.11 137 2.11 120 2.11
  21  0.000  0.800  0.407- 119 2.11 123 2.11 124 2.11 204 2.11 121 2.11
  22  0.100  0.900  0.407- 108 2.11 123 2.11 124 2.11 143 2.11 122 2.11
  23  0.000  0.900  0.503- 105 2.11 121 2.11 122 2.11 202 2.11 123 2.11
  24  0.100  0.800  0.503- 118 2.11 121 2.11 122 2.11 141 2.11 124 2.11
  25  0.200  0.000  0.407- 128 2.11 127 2.11 108 2.11 143 2.11 125 2.11
  26  0.300  0.100  0.407- 127 2.11 128 2.11 132 2.11 147 2.11 126 2.11
  27  0.200  0.100  0.503- 126 2.11 125 2.11 106 2.11 129 2.11 127 2.11
  28  0.300  0.000  0.503- 125 2.11 126 2.11 142 2.11 145 2.11 128 2.11
  29  0.200  0.200  0.407- 131 2.11 132 2.11 112 2.11 127 2.11 129 2.11
  30  0.300  0.300  0.407- 131 2.11 132 2.11 136 2.11 151 2.11 130 2.11
  31  0.200  0.300  0.503- 129 2.11 130 2.11 110 2.11 133 2.11 131 2.11
  32  0.300  0.200  0.503- 129 2.11 130 2.11 126 2.11 149 2.11 132 2.11
  33  0.200  0.400  0.407- 136 2.11 131 2.11 135 2.11 116 2.11 133 2.11
  34  0.300  0.500  0.407- 135 2.11 136 2.11 140 2.11 155 2.11 134 2.11
  35  0.200  0.500  0.503- 134 2.11 133 2.11 114 2.11 137 2.11 135 2.11
  36  0.300  0.400  0.503- 133 2.11 130 2.11 134 2.11 153 2.11 136 2.11
  37  0.200  0.600  0.407- 140 2.11 135 2.11 139 2.11 120 2.11 137 2.11
  38  0.300  0.700  0.407- 139 2.11 144 2.11 140 2.11 159 2.11 138 2.11
  39  0.200  0.700  0.503- 138 2.11 141 2.11 118 2.11 137 2.11 139 2.11
  40  0.300  0.600  0.503- 137 2.11 134 2.11 138 2.11 157 2.11 140 2.11
  41  0.200  0.800  0.407- 139 2.11 144 2.11 143 2.11 124 2.11 141 2.11
  42  0.300  0.900  0.407- 143 2.11 128 2.11 144 2.11 163 2.11 142 2.11
  43  0.200  0.900  0.503- 142 2.11 125 2.11 141 2.11 122 2.11 143 2.11
  44  0.300  0.800  0.503- 138 2.11 141 2.11 142 2.11 161 2.11 144 2.11
  45  0.400  0.000  0.407- 128 2.11 147 2.11 148 2.11 163 2.11 145 2.11
  46  0.500  0.100  0.407- 147 2.11 148 2.11 152 2.11 167 2.11 146 2.11
  47  0.400  0.100  0.503- 126 2.11 145 2.11 146 2.11 149 2.11 147 2.11
  48  0.500  0.000  0.503- 145 2.11 146 2.11 162 2.11 165 2.11 148 2.11
  49  0.400  0.200  0.407- 151 2.11 147 2.11 132 2.11 152 2.11 149 2.11
  50  0.500  0.300  0.407- 152 2.11 151 2.11 156 2.11 171 2.11 150 2.11
  51  0.400  0.300  0.503- 149 2.11 130 2.11 150 2.11 153 2.11 151 2.11
  52  0.500  0.200  0.503- 150 2.11 149 2.11 146 2.11 169 2.11 152 2.11
  53  0.400  0.400  0.407- 136 2.11 151 2.11 155 2.11 156 2.11 153 2.11
  54  0.500  0.500  0.407- 155 2.11 156 2.11 160 2.11 175 2.11 154 2.11
  55  0.400  0.500  0.503- 134 2.11 153 2.11 154 2.11 157 2.11 155 2.11
  56  0.500  0.400  0.503- 150 2.11 153 2.11 154 2.11 173 2.11 156 2.11
  57  0.400  0.600  0.407- 140 2.11 155 2.11 159 2.11 160 2.11 157 2.11
  58  0.500  0.700  0.407- 164 2.11 160 2.11 159 2.11 179 2.11 158 2.11
  59  0.400  0.700  0.503- 161 2.11 157 2.11 158 2.11 138 2.11 159 2.11
  60  0.500  0.600  0.503- 154 2.11 157 2.11 158 2.11 177 2.11 160 2.11
[...]
 190  0.900  0.300  0.503-  92 2.11  91 2.11  11 2.11  96 2.11  90 2.11
 191  0.800  0.300  0.407-  70 2.11  89 2.11  90 2.11  93 2.11  91 2.11
 192  0.900  0.200  0.407-  90 2.11  86 2.11  89 2.11   9 2.11  92 2.11
 193  0.800  0.400  0.503-  76 2.11  91 2.11  95 2.11  96 2.11  93 2.11
 194  0.900  0.500  0.503-  15 2.11  95 2.11  96 2.11 100 2.11  94 2.11
 195  0.800  0.500  0.407-  74 2.11  93 2.11  94 2.11  97 2.11  95 2.11
 196  0.900  0.400  0.407-  13 2.11  90 2.11  93 2.11  94 2.11  96 2.11
 197  0.800  0.600  0.503-  80 2.11  95 2.11  99 2.11 100 2.11  97 2.11
 198  0.900  0.700  0.503- 104 2.11  99 2.11 100 2.11  19 2.11  98 2.11
 199  0.800  0.700  0.407-  78 2.11 101 2.11  98 2.11  97 2.11  99 2.11
 200  0.900  0.600  0.407-  17 2.11  94 2.11  97 2.11  98 2.11 100 2.11
 201  0.800  0.800  0.503-  84 2.11  99 2.11 103 2.11 104 2.11 101 2.11
 202  0.900  0.900  0.503-  23 2.11  88 2.11 103 2.11 104 2.11 102 2.11
 203  0.800  0.900  0.407-  82 2.11  85 2.11 101 2.11 102 2.11 103 2.11
 204  0.900  0.800  0.407-  98 2.11  21 2.11 101 2.11 102 2.11 104 2.11

  LATTYP: Found a simple tetragonal cell.
 ALAT       =    21.1388521970
 C/A-ratio  =     1.0461251639

  Lattice vectors:

 A1 = (  21.1388521970,   0.0000000000,   0.0000000000)
 A2 = (   0.0000000000,  21.1388521970,   0.0000000000)
 A3 = (   0.0000000000,   0.0000000000,  22.1138852197)

Analysis of symmetry for initial positions (statically):
 Subroutine PRICEL returns:
 Original cell was already a primitive cell.

 Routine SETGRP: Setting up the symmetry group for a
 simple tetragonal supercell.

 Subroutine GETGRP returns: Found  2 space group operations
 (whereof  1 operations were pure point group operations)
 out of a pool of 16 trial point group operations.

The static configuration has the point symmetry C_1 .
 The point group associated with its full space group is C_1h.

Analysis of symmetry for dynamics (positions and initial velocities):
 Subroutine PRICEL returns:
 Original cell was already a primitive cell.

[...]

The dynamic configuration has the point symmetry C_1 .
 The point group associated with its full space group is C_1h.

Analysis of constrained symmetry for selective dynamics:
 Subroutine PRICEL returns:
 Original cell was already a primitive cell.

 Routine SETGRP: Setting up the symmetry group for a
 simple tetragonal supercell.

 Subroutine GETGRP returns: Found  2 space group operations
 (whereof  1 operations were pure point group operations)
 out of a pool of 16 trial point group operations.

The constrained configuration has the point symmetry C_1 .
 The point group associated with its full space group is C_1h.

 Subroutine INISYM returns: Found  2 space group operations
 (whereof  1 operations are pure point group operations),
 and found     1 'primitive' translations

                                     Primitive cell

  volume of cell :    9881.6133

  direct lattice vectors                    reciprocal lattice vectors
    21.138852197  0.000000000  0.000000000     0.047306258  0.000000000  0.000000000
     0.000000000 21.138852197  0.000000000     0.000000000  0.047306258  0.000000000
     0.000000000  0.000000000 22.113885220     0.000000000  0.000000000  0.045220457

  length of vectors
    21.138852197 21.138852197 22.113885220     0.047306258  0.047306258  0.045220457

  position of ions in fractional coordinates (direct lattice)
     0.398329241  0.601718395  0.597737471
     0.320617240  0.679428851  0.599224153
     0.579428377  0.420617713  0.599224153
     0.501717922  0.498329241  0.597737471
     0.000000000  0.000000000  0.406984115
     0.100000000  0.100000000  0.406984115
     0.000000000  0.100000000  0.502574971
     0.100000000  0.000000000  0.502574971
     0.000000000  0.200000000  0.406984115
     0.100000000  0.300000000  0.406984115
[...]
     52     -45.8945      2.00000
     53     -45.8890      2.00000
     54     -45.8866      2.00000
     55     -45.8866      2.00000
     56     -45.8771      2.00000
     57     -45.8688      2.00000
     58     -45.8662      2.00000
     59     -45.8531      2.00000
     60     -45.8507      2.00000
[...]
    946       5.4810      0.00000
    947       5.5051      0.00000
    948       5.5087      0.00000
    949       5.5336      0.00000
    950       5.5393      0.00000
    951       5.5487      0.00000
    952       5.5657      0.00000
    953       5.5846      0.00000
    954       5.5921      0.00000
    955       5.5965      0.00000
    956       5.6001      0.00000
    957       5.6322      0.00000
    958       5.6604      0.00000
    959       5.6672      0.00000
    960       5.6807      0.00000

 soft charge-density along one line, spin component           1
         0         1         2         3         4         5         6         7         8         9
 total charge-density along one line

------------------------ aborting loop EDIFF was not reached (unconverged)  ----------------------------

  FORCE on cell =-STRESS in cart. coord.  units (eV):
  Direction    XX          YY          ZZ          XY          YZ          ZX
  Alpha Z  1394.80054  1394.80054  1394.80054
  Ewald  488949.61640488949.61538************ -1381.09674     0.00920     0.00911
  Hartree518803.63342518803.63300************ -1166.97433     0.03340     0.03408
  E(xc)   -8904.43048 -8904.42280 -8908.05580    -0.39717    -0.00159     0.00169
  Local  ************************************  2541.36018    -0.04630    -0.04713
  n-local -8724.29309 -8724.56079 -8863.22832     0.59439    -0.01194    -0.01047
  augment  4367.72493  4367.72499  4321.88094     5.00601    -0.03488    -0.03475
  Kinetic 23208.34013 23209.14206 23431.80174     4.96013    -0.11543     0.02947
  Fock        0.00000     0.00000     0.00000     0.00000     0.00000     0.00000
  Total    -227.78503  -227.78503    -8.07143     3.45241    -0.09281    -0.09282
  in kB     -36.93243   -36.93243    -1.30868     0.55976    -0.01505    -0.01505

 VOLUME and BASIS-vectors are now :
  energy-cutoff  :      520.00
  volume of cell :     9881.61
      direct lattice vectors                 reciprocal lattice vectors
    21.138852197  0.000000000  0.000000000     0.047306258  0.000000000  0.000000000
     0.000000000 21.138852197  0.000000000     0.000000000  0.047306258  0.000000000
     0.000000000  0.000000000 22.113885220     0.000000000  0.000000000  0.045220457

  length of vectors
    21.138852197 21.138852197 22.113885220     0.047306258  0.047306258  0.045220457

 FORCES acting on ions:
    Electron-Ion                     Ewald-Force                    Non-Local-Force
   -.637E+02 0.637E+02 -.222E+04   0.602E+02 -.602E+02 0.222E+04   0.313E+01 -.316E+01 0.493E+00
   0.286E+03 -.286E+03 -.222E+04   -.281E+03 0.281E+03 0.222E+04   0.750E+00 -.686E+00 -.204E+00
   -.286E+03 0.286E+03 -.222E+04   0.281E+03 -.281E+03 0.222E+04   -.686E+00 0.750E+00 -.204E+00
   0.637E+02 -.637E+02 -.222E+04   -.602E+02 0.602E+02 0.222E+04   -.316E+01 0.313E+01 0.493E+00
   0.518E+01 -.519E+01 0.938E+03   -.521E+01 0.522E+01 -.930E+03   0.121E+00 -.125E+00 -.887E+01
   0.962E+01 0.175E+01 0.939E+03   -.963E+01 -.171E+01 -.931E+03   0.227E+00 0.341E-01 -.868E+01
   0.327E+01 0.327E+01 -.921E+03   -.325E+01 -.325E+01 0.912E+03   0.859E-01 0.859E-01 0.789E+01
   0.151E+02 -.121E+02 -.919E+03   -.151E+02 0.122E+02 0.910E+03   0.316E+00 -.245E+00 0.793E+01
   0.175E+01 0.963E+01 0.939E+03   -.171E+01 -.963E+01 -.931E+03   0.341E-01 0.227E+00 -.868E+01
   0.156E+02 0.171E+02 0.945E+03   -.156E+02 -.171E+02 -.936E+03   0.297E+00 0.347E+00 -.783E+01
   0.234E+01 0.163E+02 -.918E+03   -.230E+01 -.163E+02 0.909E+03   0.522E-01 0.323E+00 0.816E+01
   0.136E+02 0.136E+02 -.919E+03   -.136E+02 -.136E+02 0.910E+03   0.269E+00 0.269E+00 0.850E+01
   0.495E+01 0.121E+02 0.946E+03   -.495E+01 -.121E+02 -.937E+03   0.757E-01 0.265E+00 -.774E+01
   0.327E+02 0.134E+02 0.959E+03   -.329E+02 -.135E+02 -.950E+03   0.674E+00 0.312E+00 -.692E+01
   0.137E+02 0.883E+01 -.913E+03   -.137E+02 -.883E+01 0.904E+03   0.263E+00 0.167E+00 0.889E+01
   0.328E+02 0.257E+02 -.911E+03   -.328E+02 -.257E+02 0.902E+03   0.573E+00 0.455E+00 0.883E+01
   0.143E+02 -.227E+01 0.951E+03   -.144E+02 0.226E+01 -.942E+03   0.333E+00 -.474E-01 -.737E+01
   0.382E+02 -.141E+02 0.964E+03   -.386E+02 0.141E+02 -.955E+03   0.995E+00 -.282E+00 -.707E+01
   0.238E+02 -.133E+02 -.913E+03   -.239E+02 0.133E+02 0.903E+03   0.429E+00 -.268E+00 0.849E+01
   0.667E+02 0.556E+01 -.897E+03   -.669E+02 -.560E+01 0.888E+03   0.114E+01 0.693E-01 0.889E+01
   0.131E+02 -.143E+02 0.945E+03   -.132E+02 0.143E+02 -.936E+03   0.329E+00 -.295E+00 -.814E+01
   0.182E+02 -.182E+02 0.947E+03   -.183E+02 0.183E+02 -.938E+03   0.429E+00 -.411E+00 -.816E+01
   0.122E+02 -.151E+02 -.919E+03   -.122E+02 0.151E+02 0.910E+03   0.283E+00 -.281E+00 0.814E+01
   0.455E+02 -.324E+02 -.905E+03   -.458E+02 0.324E+02 0.896E+03   0.988E+00 -.531E+00 0.917E+01
   0.143E+02 -.131E+02 0.945E+03   -.143E+02 0.132E+02 -.936E+03   0.302E+00 -.317E+00 -.837E+01
   0.121E+02 0.496E+01 0.946E+03   -.121E+02 -.494E+01 -.937E+03   0.265E+00 0.757E-01 -.774E+01
   0.163E+02 0.234E+01 -.918E+03   -.163E+02 -.230E+01 0.909E+03   0.323E+00 0.522E-01 0.816E+01
   0.133E+02 -.238E+02 -.913E+03   -.133E+02 0.239E+02 0.903E+03   0.268E+00 -.411E+00 0.878E+01
   0.171E+02 0.156E+02 0.945E+03   -.171E+02 -.156E+02 -.936E+03   0.347E+00 0.297E+00 -.783E+01
   0.300E+02 0.381E+02 0.966E+03   -.302E+02 -.383E+02 -.957E+03   0.646E+00 0.761E+00 -.701E+01
   0.357E+02 0.357E+02 -.910E+03   -.357E+02 -.357E+02 0.901E+03   0.608E+00 0.608E+00 0.878E+01
   0.257E+02 0.328E+02 -.911E+03   -.257E+02 -.328E+02 0.902E+03   0.455E+00 0.573E+00 0.883E+01
   0.381E+02 0.300E+02 0.966E+03   -.383E+02 -.302E+02 -.957E+03   0.761E+00 0.646E+00 -.701E+01
   0.576E+02 0.372E+02 0.103E+04   -.581E+02 -.377E+02 -.102E+04   0.142E+01 0.105E+01 -.552E+01
   0.928E+02 0.506E+02 -.876E+03   -.929E+02 -.507E+02 0.867E+03   0.148E+01 0.825E+00 0.931E+01
   0.820E+02 0.820E+02 -.870E+03   -.821E+02 -.821E+02 0.861E+03   0.133E+01 0.133E+01 0.956E+01
   0.619E+02 0.501E+01 0.100E+04   -.624E+02 -.523E+01 -.992E+03   0.151E+01 0.296E+00 -.612E+01
   0.431E+02 -.430E+02 0.105E+04   -.433E+02 0.433E+02 -.104E+04   0.919E+00 -.930E+00 -.375E+01
   0.136E+03 -.474E+02 -.830E+03   -.138E+03 0.472E+02 0.822E+03   0.358E+01 -.571E+00 0.960E+01
   0.176E+03 0.724E+02 -.669E+03   -.178E+03 -.740E+02 0.663E+03   0.382E+01 0.186E+01 0.857E+01
   0.373E+02 -.373E+02 0.976E+03   -.375E+02 0.375E+02 -.967E+03   0.896E+00 -.918E+00 -.659E+01
   0.141E+02 -.382E+02 0.964E+03   -.141E+02 0.386E+02 -.955E+03   0.233E+00 -.101E+01 -.708E+01
   0.324E+02 -.455E+02 -.905E+03   -.324E+02 0.458E+02 0.896E+03   0.561E+00 -.960E+00 0.906E+01
   0.475E+02 -.136E+03 -.830E+03   -.473E+02 0.138E+03 0.821E+03   0.561E+00 -.355E+01 0.960E+01
   0.227E+01 -.143E+02 0.951E+03   -.227E+01 0.144E+02 -.942E+03   0.155E-01 -.310E+00 -.702E+01
   -.227E+01 0.143E+02 0.951E+03   0.226E+01 -.144E+02 -.942E+03   -.474E-01 0.333E+00 -.737E+01
   0.883E+01 0.137E+02 -.913E+03   -.883E+01 -.137E+02 0.904E+03   0.167E+00 0.263E+00 0.889E+01
   -.883E+01 -.137E+02 -.913E+03   0.883E+01 0.137E+02 0.904E+03   -.162E+00 -.205E+00 0.878E+01
   0.134E+02 0.327E+02 0.959E+03   -.135E+02 -.329E+02 -.950E+03   0.312E+00 0.674E+00 -.692E+01
   0.501E+01 0.619E+02 0.100E+04   -.523E+01 -.624E+02 -.992E+03   0.296E+00 0.151E+01 -.612E+01
   0.506E+02 0.928E+02 -.876E+03   -.507E+02 -.929E+02 0.867E+03   0.825E+00 0.148E+01 0.931E+01
   0.556E+01 0.667E+02 -.897E+03   -.560E+01 -.669E+02 0.888E+03   0.693E-01 0.114E+01 0.889E+01
   0.372E+02 0.576E+02 0.103E+04   -.377E+02 -.581E+02 -.102E+04   0.105E+01 0.142E+01 -.552E+01
   -.134E+02 0.134E+02 0.109E+04   0.134E+02 -.134E+02 -.108E+04   -.183E+00 0.197E+00 -.268E+01
   0.120E+03 0.120E+03 -.680E+03   -.122E+03 -.122E+03 0.673E+03   0.339E+01 0.339E+01 0.967E+01
   0.724E+02 0.176E+03 -.669E+03   -.740E+02 -.178E+03 0.663E+03   0.186E+01 0.382E+01 0.857E+01
   0.134E+02 -.134E+02 0.109E+04   -.134E+02 0.134E+02 -.108E+04   0.197E+00 -.183E+00 -.268E+01
   -.372E+02 -.576E+02 0.103E+04   0.377E+02 0.581E+02 -.102E+04   -.107E+01 -.146E+01 -.593E+01
   -.724E+02 -.176E+03 -.669E+03   0.740E+02 0.178E+03 0.663E+03   -.187E+01 -.382E+01 0.845E+01
   -.120E+03 -.120E+03 -.680E+03   0.122E+03 0.122E+03 0.673E+03   -.337E+01 -.337E+01 0.960E+01
[...]
   -.215E+02 0.163E+02 0.718E+03   0.216E+02 -.163E+02 -.722E+03   -.442E+00 0.281E+00 0.353E+01
   -.670E+01 0.889E+01 0.707E+03   0.669E+01 -.890E+01 -.711E+03   -.989E-01 0.184E+00 0.305E+01
   -.499E+02 0.150E+02 -.674E+03   0.499E+02 -.149E+02 0.677E+03   -.604E+00 0.111E+00 -.304E+01
   -.162E+02 0.158E+01 -.685E+03   0.162E+02 -.157E+01 0.688E+03   -.191E+00 0.263E-01 -.300E+01
   -.299E+02 -.826E+00 0.725E+03   0.300E+02 0.895E+00 -.729E+03   -.472E+00 -.127E+00 0.358E+01
   -.118E+02 0.791E+01 0.713E+03   0.118E+02 -.793E+01 -.717E+03   -.194E+00 0.117E+00 0.339E+01
   -.377E+02 -.162E+02 -.679E+03   0.377E+02 0.163E+02 0.683E+03   -.444E+00 -.269E+00 -.307E+01
   -.469E+01 -.116E+02 -.688E+03   0.468E+01 0.116E+02 0.691E+03   -.471E-01 -.176E+00 -.316E+01
   -.175E+02 -.139E+02 0.715E+03   0.175E+02 0.139E+02 -.719E+03   -.275E+00 -.225E+00 0.333E+01
   -.727E+01 -.485E+01 0.713E+03   0.728E+01 0.483E+01 -.717E+03   -.119E+00 -.805E-01 0.342E+01
   -.154E+02 -.166E+02 -.688E+03   0.153E+02 0.166E+02 0.692E+03   -.177E+00 -.216E+00 -.326E+01
   -.130E+01 -.881E+01 -.691E+03   0.127E+01 0.878E+01 0.695E+03   0.240E-01 -.119E+00 -.329E+01
   -.824E+01 -.823E+01 0.707E+03   0.823E+01 0.823E+01 -.711E+03   -.104E+00 -.104E+00 0.311E+01
   -.175E+01 -.986E+01 0.708E+03   0.168E+01 0.989E+01 -.712E+03   0.747E-02 -.161E+00 0.304E+01
   -.102E+01 0.353E+00 -.208E+02   0.165E-11 -.114E-12 0.819E-11   -.388E-01 -.388E-01 0.129E+03

 POSITION                                       TOTAL-FORCE (eV/Angst)
      8.42022     12.71964     13.21830        -0.269941      0.268047      2.130329
      6.77748     14.36235     13.25117         5.706662     -5.676757      1.401174
     12.24845      8.89138     13.25117        -5.676757      5.706662      1.401174
     10.60574     10.53411     13.21830         0.268047     -0.269941      2.130329
      0.00000      0.00000      9.00000         0.094416     -0.098622     -0.901751
      2.11389      2.11389      9.00000         0.223677      0.067494     -0.553112
      0.00000      2.11389     11.11389         0.101392      0.101392     -1.872775
      2.11389      0.00000     11.11389         0.313555     -0.165304     -2.173766
      0.00000      4.22777      9.00000         0.067494      0.223677     -0.553112
      2.11389      6.34166      9.00000         0.287817      0.307673      0.302125
      0.00000      6.34166     11.11389         0.089167      0.317833     -1.766387
      2.11389      4.22777     11.11389         0.283922      0.283922     -1.225472
      0.00000      8.45554      9.00000         0.089363      0.227571      0.228704
      2.11389     10.56943      9.00000         0.535812      0.233066      1.245538
      0.00000     10.56943     11.11389         0.261998      0.176848     -0.900178
      2.11389      8.45554     11.11389         0.561911      0.441691     -0.837362
      0.00000     12.68331      9.00000         0.241127     -0.050841      0.815427
      2.11389     14.79720      9.00000         0.597584     -0.280960      0.984370
      0.00000     14.79720     11.11389         0.344407     -0.284792     -1.226688
      2.11389     12.68331     11.11389         0.986304      0.025587     -0.782828
      0.00000     16.91108      9.00000         0.213959     -0.276662     -0.131535
      2.11389     19.02497      9.00000         0.330436     -0.311044     -0.364173
      0.00000     19.02497     11.11389         0.235631     -0.291146     -2.316124
      2.11389     16.91108     11.11389         0.688949     -0.559928     -0.485368
      4.22777      0.00000      9.00000         0.287622     -0.190439     -0.310499
      6.34166      2.11389      9.00000         0.227571      0.089363      0.228704
      4.22777      2.11389     11.11389         0.317833      0.089167     -1.766387
      6.34166      0.00000     11.11389         0.274036     -0.337020     -0.918218
      4.22777      4.22777      9.00000         0.307673      0.287817      0.302125
      6.34166      6.34166      9.00000         0.487991      0.602020      1.299295
      4.22777      6.34166     11.11389         0.614723      0.614723     -1.172478
      6.34166      4.22777     11.11389         0.441691      0.561911     -0.837362
      4.22777      8.45554      9.00000         0.602020      0.487991      1.299295
      6.34166     10.56943      9.00000         0.898651      0.543020      2.905533
      4.22777     10.56943     11.11389         1.423866      0.711925     -0.064216
      6.34166      8.45554     11.11389         1.261274      1.261274      0.173601
      4.22777     12.68331      9.00000         0.954216      0.076453      2.170886
      6.34166     14.79720      9.00000         0.666018     -0.673273      2.625319
      4.22777     14.79720     11.11389         1.702213     -0.789309      0.223703
      6.34166     12.68331     11.11389         2.084274      0.238003      2.202629
      4.22777     16.91108      9.00000         0.640464     -0.643662      1.380271
      6.34166     19.02497      9.00000         0.259168     -0.609111      1.197915
      4.22777     19.02497     11.11389         0.598156     -0.655477     -0.720661
      6.34166     16.91108     11.11389         0.788390     -1.655221      0.219152
      8.45554      0.00000      9.00000         0.023233     -0.231872      1.111722
     10.56943      2.11389      9.00000        -0.050841      0.241127      0.815427
      8.45554      2.11389     11.11389         0.176848      0.261998     -0.900178
     10.56943      0.00000     11.11389        -0.144113     -0.197121     -0.966926
      8.45554      4.22777      9.00000         0.233066      0.535812      1.245538
     10.56943      6.34166      9.00000         0.076453      0.954216      2.170886
      8.45554      6.34166     11.11389         0.711925      1.423866     -0.064216
     10.56943      4.22777     11.11389         0.025587      0.986304     -0.782828
      8.45554      8.45554      9.00000         0.543020      0.898651      2.905533
     10.56943     10.56943      9.00000        -0.216998      0.225191      3.719680
      8.45554     10.56943     11.11389         1.279137      1.279137      1.988553
     10.56943      8.45554     11.11389         0.238003      2.084274      2.202629
      8.45554     12.68331      9.00000         0.225191     -0.216998      3.719680
     10.56943     14.79720      9.00000        -0.567727     -0.926489      2.472239
      8.45554     14.79720     11.11389        -0.224344     -2.064138      2.125870
     10.56943     12.68331     11.11389        -1.280332     -1.280332      1.906602
[...]
     19.02497      6.34166     11.11389        -0.195221      0.220160     -0.414935
     16.91108      6.34166      9.00000        -0.356012      0.232321     -0.481559
     19.02497      4.22777      9.00000        -0.096384      0.177218     -0.948307
     16.91108      8.45554     11.11389        -0.574844      0.146224     -0.106828
     19.02497     10.56943     11.11389        -0.181830      0.036137     -0.138745
     16.91108     10.56943      9.00000        -0.433304     -0.064086     -0.376238
     19.02497      8.45554      9.00000        -0.183156      0.096906     -0.644292
     16.91108     12.68331     11.11389        -0.438779     -0.213598     -0.226339
     19.02497     14.79720     11.11389        -0.051153     -0.176900     -0.316241
     16.91108     14.79720      9.00000        -0.271113     -0.229498     -0.684402
     19.02497     12.68331      9.00000        -0.096839     -0.104272     -0.574463
     16.91108     16.91108     11.11389        -0.201921     -0.220057     -0.476904
     19.02497     19.02497     11.11389         0.003967     -0.147012     -0.490449
     16.91108     19.02497      9.00000        -0.101759     -0.101759     -0.946417
     19.02497     16.91108      9.00000        -0.044948     -0.134762     -0.971614
    total drift:                               -1.056818      0.313831    108.053732

  FREE ENERGIE OF THE ION-ELECTRON SYSTEM (eV)
  free  energy   TOTEN  =     -1685.37644534 eV

  energy  without entropy=    -1685.36411537  energy(sigma->0) =    -1685.37028035