 vasp.6.3.0 20Jan22 (build Apr  1 2022 16:44:48) complex
 executed on        HPECrayEX_GCC date 2023.01.09  19:28:19

 INCAR:
   SYSTEM = MgO-rocksalt
   ISMEAR = 0
   SIGMA = 0.05
   EDIFF = 1E-6
   ALGO = ALL
   ISTART = 0
   IBRION = -1
   NSW = 0
   ISYM = 2
   DIPOL = 0.5 0.5 0.5
   IDIPOL = 3
   LDIPOL = .TRUE.
   METAGGA = M06L
   ENCUT = 520
   PREC = Accurate
   LASPH = .TRUE.
   LREAL = Auto
   ISPIN = 1
   NELM = 200
   NELMIN = 8
   NCORE = 4
   KPAR = 2
   LWAVE = .FALSE.
   LCHARG = .FALSE.

 POTCAR:    PAW_PBE Ag 02Apr2005
 POTCAR:    PAW_PBE Mg_pv 13Apr2007
 POTCAR:    PAW_PBE O 08Apr2002
 POTCAR:    PAW_PBE Ag 02Apr2005
   VRHFIN =Ag : s1 d10

   TITEL  = PAW_PBE Ag 02Apr2005
   POMASS =  107.868; ZVAL   =   11.000    mass and valenz
   ENMAX  =  249.844; ENMIN  =  187.383 eV

   TITEL  = PAW_PBE Mg_pv 13Apr2007
   POMASS =   24.305; ZVAL   =    8.000    mass and valenz
   ENMAX  =  403.929; ENMIN  =  302.947 eV

   TITEL  = PAW_PBE O 08Apr2002
   POMASS =   16.000; ZVAL   =    6.000    mass and valenz
   ENMAX  =  400.000; ENMIN  =  300.000 eV

 Optimization of the real space projectors (new method)

 maximal supplied QI-value         = 15.12
 optimisation between [QCUT,QGAM] = [ 11.64, 23.28] = [ 37.95,151.78] Ry
 Optimized for a Real-space Cutoff    1.45 Angstroem

   l    n(q)    QCUT    max X(q) W(low)/X(q) W(high)/X(q)  e(spline)
   2      9    11.641    53.897    0.22E-03    0.42E-04    0.28E-06
   2      9    11.641    52.416    0.23E-03    0.44E-04    0.29E-06
   0     10    11.641   122.045    0.51E-04    0.25E-04    0.16E-06
   0     10    11.641    73.629    0.49E-04    0.24E-04    0.16E-06
   1     10    11.641    15.255    0.99E-04    0.55E-04    0.11E-06
   1     10    11.641     9.562    0.81E-04    0.47E-04    0.95E-07
 Optimization of the real space projectors (new method)

[...]

   l    n(q)    QCUT    max X(q) W(low)/X(q) W(high)/X(q)  e(spline)
   1      8    11.527     2.974    0.44E-04    0.56E-04    0.12E-06
   1      8    11.527     4.279    0.12E-03    0.12E-03    0.26E-06
   0      9    11.527    16.381    0.46E-04    0.64E-04    0.78E-07
   0      9    11.527     5.611    0.26E-04    0.43E-04    0.55E-07
   2      8    11.527     4.652    0.22E-03    0.72E-04    0.47E-07
 Optimization of the real space projectors (new method)

 maximal supplied QI-value         = 24.76
 optimisation between [QCUT,QGAM] = [ 11.64, 23.27] = [ 37.91,151.63] Ry
 Optimized for a Real-space Cutoff    1.14 Angstroem

   l    n(q)    QCUT    max X(q) W(low)/X(q) W(high)/X(q)  e(spline)
   0      8    11.635    20.381    0.10E-03    0.33E-03    0.24E-06
   0      8    11.635    15.268    0.11E-03    0.35E-03    0.26E-06
   1      7    11.635     5.964    0.24E-03    0.31E-03    0.30E-06
   1      7    11.635     5.382    0.22E-03    0.25E-03    0.26E-06
  PAW_PBE Ag 02Apr2005                  :
  PAW_PBE Mg_pv 13Apr2007               :
  PAW_PBE O 08Apr2002                   :

 POSCAR: Ag Mg  O
  positions in direct lattice
  velocities in cartesian coordinates

 METAGGA = M06L     LMAXTAU =  6    LMIXTAU =  F

 ion  position               nearest neighbor table
   1  0.404  0.596  0.628-   2 2.63   4 2.74 157 2.77
   2  0.317  0.683  0.613- 138 2.50   1 2.63  59 3.04  40 3.04
   3  0.583  0.417  0.613- 173 2.50   4 2.63  75 3.04  56 3.04
   4  0.496  0.504  0.628-   3 2.63   1 2.74 154 2.77
   5  0.000  0.000  0.407- 107 2.11 108 2.11 123 2.11 188 2.11 105 2.11
   6  0.100  0.100  0.407- 107 2.11 108 2.11 112 2.11 127 2.11 106 2.11
   7  0.000  0.100  0.503- 105 2.11 106 2.11 109 2.11 186 2.11 107 2.11
   8  0.100  0.000  0.503- 105 2.11 106 2.11 122 2.11 125 2.11 108 2.11
   9  0.000  0.200  0.407- 111 2.11 107 2.11 112 2.11 192 2.11 109 2.11
  10  0.100  0.300  0.407- 112 2.11 111 2.11 116 2.11 131 2.11 110 2.11
  11  0.000  0.300  0.503- 109 2.11 110 2.11 113 2.11 190 2.11 111 2.11
  12  0.100  0.200  0.503- 110 2.11 109 2.11 106 2.11 129 2.11 112 2.11
  13  0.000  0.400  0.407- 111 2.11 115 2.11 116 2.11 196 2.11 113 2.11
  14  0.100  0.500  0.407- 115 2.11 116 2.11 120 2.11 135 2.11 114 2.11
  15  0.000  0.500  0.503- 113 2.11 114 2.11 117 2.11 194 2.11 115 2.11
  16  0.100  0.400  0.503- 110 2.11 113 2.11 114 2.11 133 2.11 116 2.11
  17  0.000  0.600  0.407- 115 2.11 119 2.11 120 2.11 200 2.11 117 2.11
  18  0.100  0.700  0.407- 124 2.11 120 2.11 119 2.11 139 2.11 118 2.11
  19  0.000  0.700  0.503- 121 2.11 118 2.11 117 2.11 198 2.11 119 2.11
  20  0.100  0.600  0.503- 114 2.11 117 2.11 118 2.11 137 2.11 120 2.11
  21  0.000  0.800  0.407- 119 2.11 123 2.11 124 2.11 204 2.11 121 2.11
  22  0.100  0.900  0.407- 108 2.11 123 2.11 124 2.11 143 2.11 122 2.11
  23  0.000  0.900  0.503- 105 2.11 121 2.11 122 2.11 202 2.11 123 2.11
  24  0.100  0.800  0.503- 118 2.11 121 2.11 122 2.11 141 2.11 124 2.11
  25  0.200  0.000  0.407- 128 2.11 127 2.11 108 2.11 143 2.11 125 2.11
  26  0.300  0.100  0.407- 127 2.11 128 2.11 132 2.11 147 2.11 126 2.11
  27  0.200  0.100  0.503- 126 2.11 125 2.11 106 2.11 129 2.11 127 2.11
  28  0.300  0.000  0.503- 125 2.11 126 2.11 142 2.11 145 2.11 128 2.11
  29  0.200  0.200  0.407- 131 2.11 132 2.11 112 2.11 127 2.11 129 2.11
  30  0.300  0.300  0.407- 131 2.11 132 2.11 136 2.11 151 2.11 130 2.11
  31  0.200  0.300  0.503- 129 2.11 130 2.11 110 2.11 133 2.11 131 2.11
  32  0.300  0.200  0.503- 129 2.11 130 2.11 126 2.11 149 2.11 132 2.11
  33  0.200  0.400  0.407- 136 2.11 131 2.11 135 2.11 116 2.11 133 2.11
  34  0.300  0.500  0.407- 135 2.11 136 2.11 140 2.11 155 2.11 134 2.11
  35  0.200  0.500  0.503- 134 2.11 133 2.11 114 2.11 137 2.11 135 2.11
  36  0.300  0.400  0.503- 133 2.11 130 2.11 134 2.11 153 2.11 136 2.11
  37  0.200  0.600  0.407- 140 2.11 135 2.11 139 2.11 120 2.11 137 2.11
  38  0.300  0.700  0.407- 139 2.11 144 2.11 140 2.11 159 2.11 138 2.11
  39  0.200  0.700  0.503- 138 2.11 141 2.11 118 2.11 137 2.11 139 2.11
  40  0.300  0.600  0.503- 137 2.11 134 2.11 138 2.11 157 2.11 140 2.11   2 3.04
  41  0.200  0.800  0.407- 139 2.11 144 2.11 143 2.11 124 2.11 141 2.11
  42  0.300  0.900  0.407- 143 2.11 128 2.11 144 2.11 163 2.11 142 2.11
  43  0.200  0.900  0.503- 142 2.11 125 2.11 141 2.11 122 2.11 143 2.11
  44  0.300  0.800  0.503- 138 2.11 141 2.11 142 2.11 161 2.11 144 2.11
  45  0.400  0.000  0.407- 128 2.11 147 2.11 148 2.11 163 2.11 145 2.11
  46  0.500  0.100  0.407- 147 2.11 148 2.11 152 2.11 167 2.11 146 2.11
  47  0.400  0.100  0.503- 126 2.11 145 2.11 146 2.11 149 2.11 147 2.11
  48  0.500  0.000  0.503- 145 2.11 146 2.11 162 2.11 165 2.11 148 2.11
  49  0.400  0.200  0.407- 151 2.11 147 2.11 132 2.11 152 2.11 149 2.11
  50  0.500  0.300  0.407- 152 2.11 151 2.11 156 2.11 171 2.11 150 2.11
  51  0.400  0.300  0.503- 149 2.11 130 2.11 150 2.11 153 2.11 151 2.11
  52  0.500  0.200  0.503- 150 2.11 149 2.11 146 2.11 169 2.11 152 2.11
  53  0.400  0.400  0.407- 136 2.11 151 2.11 155 2.11 156 2.11 153 2.11
  54  0.500  0.500  0.407- 155 2.11 156 2.11 160 2.11 175 2.11 154 2.11
  55  0.400  0.500  0.503- 134 2.11 153 2.11 154 2.11 157 2.11 155 2.11
  56  0.500  0.400  0.503- 150 2.11 153 2.11 154 2.11 173 2.11 156 2.11   3 3.04
  57  0.400  0.600  0.407- 140 2.11 155 2.11 159 2.11 160 2.11 157 2.11
  58  0.500  0.700  0.407- 164 2.11 160 2.11 159 2.11 179 2.11 158 2.11
  59  0.400  0.700  0.503- 161 2.11 157 2.11 158 2.11 138 2.11 159 2.11   2 3.04
  60  0.500  0.600  0.503- 154 2.11 157 2.11 158 2.11 177 2.11 160 2.11
[...]
 190  0.900  0.300  0.503-  92 2.11  91 2.11  11 2.11  96 2.11  90 2.11
 191  0.800  0.300  0.407-  70 2.11  89 2.11  90 2.11  93 2.11  91 2.11
 192  0.900  0.200  0.407-  90 2.11  86 2.11  89 2.11   9 2.11  92 2.11
 193  0.800  0.400  0.503-  76 2.11  91 2.11  95 2.11  96 2.11  93 2.11
 194  0.900  0.500  0.503-  15 2.11  95 2.11  96 2.11 100 2.11  94 2.11
 195  0.800  0.500  0.407-  74 2.11  93 2.11  94 2.11  97 2.11  95 2.11
 196  0.900  0.400  0.407-  13 2.11  90 2.11  93 2.11  94 2.11  96 2.11
 197  0.800  0.600  0.503-  80 2.11  95 2.11  99 2.11 100 2.11  97 2.11
 198  0.900  0.700  0.503- 104 2.11  99 2.11 100 2.11  19 2.11  98 2.11
 199  0.800  0.700  0.407-  78 2.11 101 2.11  98 2.11  97 2.11  99 2.11
 200  0.900  0.600  0.407-  17 2.11  94 2.11  97 2.11  98 2.11 100 2.11
 201  0.800  0.800  0.503-  84 2.11  99 2.11 103 2.11 104 2.11 101 2.11
 202  0.900  0.900  0.503-  23 2.11  88 2.11 103 2.11 104 2.11 102 2.11
 203  0.800  0.900  0.407-  82 2.11  85 2.11 101 2.11 102 2.11 103 2.11
 204  0.900  0.800  0.407-  98 2.11  21 2.11 101 2.11 102 2.11 104 2.11

  LATTYP: Found a simple tetragonal cell.
 ALAT       =    21.1388521970
 C/A-ratio  =     1.0461251639

  Lattice vectors:

 A1 = (  21.1388521970,   0.0000000000,   0.0000000000)
 A2 = (   0.0000000000,  21.1388521970,   0.0000000000)
 A3 = (   0.0000000000,   0.0000000000,  22.1138852197)

Analysis of symmetry for initial positions (statically):
 Subroutine PRICEL returns:
 Original cell was already a primitive cell.

 Routine SETGRP: Setting up the symmetry group for a
 simple tetragonal supercell.

 Subroutine GETGRP returns: Found  2 space group operations
 (whereof  1 operations were pure point group operations)
 out of a pool of 16 trial point group operations.

The static configuration has the point symmetry C_1 .
 The point group associated with its full space group is C_1h.

Analysis of symmetry for dynamics (positions and initial velocities):
 Subroutine PRICEL returns:
 Original cell was already a primitive cell.

[...]

The dynamic configuration has the point symmetry C_1 .
 The point group associated with its full space group is C_1h.

Analysis of constrained symmetry for selective dynamics:
 Subroutine PRICEL returns:
 Original cell was already a primitive cell.

 Routine SETGRP: Setting up the symmetry group for a
 simple tetragonal supercell.

 Subroutine GETGRP returns: Found  2 space group operations
 (whereof  1 operations were pure point group operations)
 out of a pool of 16 trial point group operations.

The constrained configuration has the point symmetry C_1 .
 The point group associated with its full space group is C_1h.

 Subroutine INISYM returns: Found  2 space group operations
 (whereof  1 operations are pure point group operations),
 and found     1 'primitive' translations

                                     Primitive cell

  volume of cell :    9881.6133

  direct lattice vectors                    reciprocal lattice vectors
    21.138852197  0.000000000  0.000000000     0.047306258  0.000000000  0.000000000
     0.000000000 21.138852197  0.000000000     0.000000000  0.047306258  0.000000000
     0.000000000  0.000000000 22.113885220     0.000000000  0.000000000  0.045220457

  length of vectors
    21.138852197 21.138852197 22.113885220     0.047306258  0.047306258  0.045220457

  position of ions in fractional coordinates (direct lattice)
     0.404209587  0.595838152  0.627872356
     0.316904301  0.683142271  0.613368187
     0.583141798  0.416904774  0.613368187
     0.495837679  0.504209587  0.627872356
     0.000000000  0.000000000  0.406984115
     0.100000000  0.100000000  0.406984115
     0.000000000  0.100000000  0.502574971
     0.100000000  0.000000000  0.502574971
[...]
     52     -44.6534      2.00000
     53     -44.6458      2.00000
     54     -44.6453      2.00000
     55     -44.6440      2.00000
     56     -44.6429      2.00000
     57     -44.6403      2.00000
     58     -44.6386      2.00000
     59     -44.6382      2.00000
     60     -44.6382      2.00000
[...]
    946       8.5858      0.00000
    947       9.0615      0.00000
    948       9.0755      0.00000
    949       9.0850      0.00000
    950       9.1203      0.00000
    951       9.1341      0.00000
    952       9.3473      0.00000
    953       9.6319      0.00000
    954       9.9397      0.00000
    955      10.1246      0.00000
    956      10.2631      0.00000
    957      10.4318      0.00000
    958      10.5976      0.00000
    959      11.2642      0.00000
    960      11.3011      0.00000

 soft charge-density along one line, spin component           1
         0         1         2         3         4         5         6         7         8         9
 total charge-density along one line

------------------------ aborting loop EDIFF was not reached (unconverged)  ----------------------------

  FORCE on cell =-STRESS in cart. coord.  units (eV):
  Direction    XX          YY          ZZ          XY          YZ          ZX
  Alpha Z  1401.13727  1401.13727  1401.13727
  Ewald  484692.10145484692.10210************ -1322.16574    -0.00388    -0.00457
  Hartree514319.47582514319.47616************ -1065.45921     0.03623     0.03628
  E(xc)   -8984.41470 -8984.41962 -8981.26780    -0.15256    -0.08629    -0.08676
  Local  ************************************  2378.68887    -0.04448    -0.04400
  n-local -8696.06733 -8696.04226 -8839.58093     1.22121    -0.03891    -0.02960
  augment  4508.52155  4508.52133  4482.33882     1.77400     0.00351     0.00305
  Kinetic 23395.18072 23395.14710 23609.84317     5.38003     0.01124     0.01746
  Fock        0.00000     0.00000     0.00000     0.00000     0.00000     0.00000
  Total    -223.89244  -223.89244     2.21315    -0.71337    -0.11535    -0.11534
  in kB     -36.30130   -36.30130     0.35883    -0.11566    -0.01870    -0.01870

 VOLUME and BASIS-vectors are now :
  energy-cutoff  :      520.00
  volume of cell :     9881.61
      direct lattice vectors                 reciprocal lattice vectors
    21.138852197  0.000000000  0.000000000     0.047306258  0.000000000  0.000000000
     0.000000000 21.138852197  0.000000000     0.000000000  0.047306258  0.000000000
     0.000000000  0.000000000 22.113885220     0.000000000  0.000000000  0.045220457

  length of vectors
    21.138852197 21.138852197 22.113885220     0.047306258  0.047306258  0.045220457

 FORCES acting on ions:
    Electron-Ion                     Ewald-Force                    Non-Local-Force
   0.254E+02 -.255E+02 -.207E+04   -.273E+02 0.273E+02 0.207E+04   0.190E+01 -.192E+01 -.887E+00
   0.234E+03 -.234E+03 -.209E+04   -.231E+03 0.231E+03 0.209E+04   -.326E+01 0.333E+01 -.113E+01
   -.234E+03 0.234E+03 -.209E+04   0.231E+03 -.231E+03 0.209E+04   0.333E+01 -.326E+01 -.113E+01
   -.255E+02 0.255E+02 -.207E+04   0.273E+02 -.273E+02 0.207E+04   -.192E+01 0.190E+01 -.887E+00
   0.489E+01 -.487E+01 0.939E+03   -.492E+01 0.492E+01 -.930E+03   0.268E-01 -.323E-01 -.800E+01
   0.904E+01 0.160E+01 0.940E+03   -.905E+01 -.156E+01 -.931E+03   0.419E-02 -.270E-01 -.799E+01
   0.312E+01 0.313E+01 -.920E+03   -.312E+01 -.312E+01 0.911E+03   -.702E-02 -.702E-02 0.915E+01
   0.146E+02 -.117E+02 -.917E+03   -.146E+02 0.118E+02 0.908E+03   0.247E-01 -.868E-01 0.942E+01
   0.160E+01 0.905E+01 0.940E+03   -.156E+01 -.905E+01 -.931E+03   -.270E-01 0.419E-02 -.799E+01
   0.142E+02 0.157E+02 0.946E+03   -.142E+02 -.157E+02 -.937E+03   -.847E-02 0.200E-01 -.831E+01
   0.210E+01 0.156E+02 -.916E+03   -.203E+01 -.156E+02 0.907E+03   -.600E-01 0.222E-01 0.894E+01
   0.129E+02 0.129E+02 -.917E+03   -.129E+02 -.129E+02 0.908E+03   -.641E-02 -.641E-02 0.942E+01
   0.446E+01 0.112E+02 0.947E+03   -.438E+01 -.112E+02 -.938E+03   -.804E-01 0.180E-01 -.755E+01
   0.288E+02 0.119E+02 0.959E+03   -.289E+02 -.121E+02 -.950E+03   0.583E-01 0.105E+00 -.766E+01
   0.127E+02 0.835E+01 -.910E+03   -.127E+02 -.838E+01 0.901E+03   -.941E-02 0.242E-01 0.953E+01
   0.304E+02 0.240E+02 -.908E+03   -.304E+02 -.241E+02 0.899E+03   -.268E-01 0.607E-01 0.915E+01
   0.128E+02 -.213E+01 0.951E+03   -.129E+02 0.210E+01 -.942E+03   0.799E-01 0.268E-01 -.698E+01
   0.336E+02 -.125E+02 0.964E+03   -.340E+02 0.125E+02 -.955E+03   0.261E+00 -.154E-02 -.740E+01
   0.224E+02 -.125E+02 -.910E+03   -.226E+02 0.125E+02 0.901E+03   0.155E+00 0.169E-03 0.912E+01
   0.605E+02 0.528E+01 -.893E+03   -.608E+02 -.541E+01 0.884E+03   0.205E+00 0.107E+00 0.946E+01
   0.120E+02 -.132E+02 0.946E+03   -.121E+02 0.133E+02 -.937E+03   0.113E+00 -.283E-01 -.751E+01
   0.168E+02 -.168E+02 0.947E+03   -.169E+02 0.169E+02 -.938E+03   0.105E+00 -.807E-01 -.749E+01
   0.117E+02 -.146E+02 -.917E+03   -.118E+02 0.146E+02 0.908E+03   0.795E-01 -.315E-01 0.888E+01
   0.427E+02 -.303E+02 -.902E+03   -.431E+02 0.304E+02 0.893E+03   0.316E+00 -.437E-01 0.886E+01
   0.132E+02 -.120E+02 0.946E+03   -.133E+02 0.122E+02 -.937E+03   0.172E-01 -.119E+00 -.762E+01
   0.112E+02 0.446E+01 0.947E+03   -.112E+02 -.438E+01 -.938E+03   0.180E-01 -.804E-01 -.755E+01
   0.156E+02 0.211E+01 -.916E+03   -.156E+02 -.203E+01 0.907E+03   0.222E-01 -.600E-01 0.894E+01
   0.125E+02 -.224E+02 -.910E+03   -.125E+02 0.226E+02 0.901E+03   -.221E-01 -.157E+00 0.923E+01
   0.157E+02 0.142E+02 0.946E+03   -.157E+02 -.142E+02 -.937E+03   0.200E-01 -.847E-02 -.831E+01
   0.263E+02 0.334E+02 0.965E+03   -.264E+02 -.335E+02 -.956E+03   0.115E+00 0.616E-01 -.804E+01
   0.333E+02 0.333E+02 -.907E+03   -.333E+02 -.333E+02 0.898E+03   0.436E-02 0.436E-02 0.944E+01
   0.240E+02 0.305E+02 -.908E+03   -.241E+02 -.304E+02 0.899E+03   0.607E-01 -.268E-01 0.915E+01
   0.334E+02 0.263E+02 0.965E+03   -.335E+02 -.264E+02 -.956E+03   0.616E-01 0.115E+00 -.804E+01
   0.465E+02 0.293E+02 0.102E+04   -.467E+02 -.296E+02 -.101E+04   0.147E+00 0.289E+00 -.828E+01
   0.814E+02 0.438E+02 -.872E+03   -.814E+02 -.441E+02 0.863E+03   -.181E-01 0.249E+00 0.945E+01
   0.718E+02 0.718E+02 -.865E+03   -.718E+02 -.718E+02 0.856E+03   0.238E-01 0.238E-01 0.958E+01
   0.513E+02 0.399E+01 0.995E+03   -.516E+02 -.427E+01 -.986E+03   0.223E+00 0.225E+00 -.777E+01
   0.339E+02 -.339E+02 0.103E+04   -.340E+02 0.339E+02 -.102E+04   0.402E-01 -.857E-02 -.626E+01
   0.116E+03 -.392E+02 -.828E+03   -.117E+03 0.391E+02 0.819E+03   0.131E+01 0.118E+00 0.942E+01
   0.123E+03 0.487E+02 -.710E+03   -.123E+03 -.506E+02 0.703E+03   0.226E+00 0.134E+01 0.769E+01
   0.324E+02 -.323E+02 0.975E+03   -.326E+02 0.326E+02 -.966E+03   0.181E+00 -.188E+00 -.765E+01
   0.125E+02 -.336E+02 0.964E+03   -.125E+02 0.340E+02 -.955E+03   -.835E-02 -.307E+00 -.769E+01
   0.303E+02 -.427E+02 -.902E+03   -.304E+02 0.431E+02 0.893E+03   0.481E-01 -.298E+00 0.934E+01
   0.393E+02 -.116E+03 -.828E+03   -.391E+02 0.117E+03 0.819E+03   -.117E+00 -.132E+01 0.922E+01
   0.212E+01 -.128E+02 0.951E+03   -.210E+01 0.129E+02 -.942E+03   -.244E-01 -.782E-01 -.817E+01
   -.214E+01 0.128E+02 0.951E+03   0.210E+01 -.129E+02 -.942E+03   0.268E-01 0.799E-01 -.698E+01
   0.835E+01 0.127E+02 -.910E+03   -.838E+01 -.127E+02 0.901E+03   0.242E-01 -.941E-02 0.953E+01
   -.835E+01 -.127E+02 -.910E+03   0.838E+01 0.127E+02 0.901E+03   -.195E-01 -.390E-02 0.948E+01
   0.119E+02 0.288E+02 0.959E+03   -.121E+02 -.289E+02 -.950E+03   0.105E+00 0.583E-01 -.766E+01
   0.399E+01 0.513E+02 0.995E+03   -.427E+01 -.516E+02 -.986E+03   0.225E+00 0.223E+00 -.777E+01
   0.438E+02 0.814E+02 -.872E+03   -.441E+02 -.814E+02 0.863E+03   0.249E+00 -.181E-01 0.945E+01
   0.528E+01 0.605E+02 -.893E+03   -.541E+01 -.608E+02 0.884E+03   0.107E+00 0.205E+00 0.946E+01
   0.293E+02 0.465E+02 0.102E+04   -.296E+02 -.467E+02 -.101E+04   0.289E+00 0.147E+00 -.828E+01
   -.111E+02 0.111E+02 0.106E+04   0.109E+02 -.109E+02 -.105E+04   0.135E+00 -.160E+00 -.756E+01
   0.855E+02 0.855E+02 -.705E+03   -.863E+02 -.863E+02 0.697E+03   0.572E+00 0.572E+00 0.800E+01
   0.487E+02 0.123E+03 -.710E+03   -.506E+02 -.123E+03 0.703E+03   0.134E+01 0.226E+00 0.769E+01
   0.111E+02 -.111E+02 0.106E+04   -.109E+02 0.109E+02 -.105E+04   -.160E+00 0.135E+00 -.756E+01
   -.293E+02 -.465E+02 0.102E+04   0.296E+02 0.467E+02 -.101E+04   -.301E+00 -.130E+00 -.814E+01
   -.487E+02 -.123E+03 -.710E+03   0.506E+02 0.123E+03 0.703E+03   -.135E+01 -.215E+00 0.746E+01
   -.855E+02 -.855E+02 -.705E+03   0.863E+02 0.863E+02 0.697E+03   -.576E+00 -.576E+00 0.791E+01
[...]
   -.193E+02 0.147E+02 0.718E+03   0.194E+02 -.148E+02 -.722E+03   -.193E+00 0.680E-01 0.343E+01
   -.620E+01 0.833E+01 0.708E+03   0.625E+01 -.834E+01 -.711E+03   -.616E-01 0.403E-01 0.330E+01
   -.458E+02 0.136E+02 -.671E+03   0.460E+02 -.135E+02 0.674E+03   -.226E+00 -.490E-01 -.310E+01
   -.151E+02 0.150E+01 -.683E+03   0.151E+02 -.144E+01 0.686E+03   -.607E-01 -.359E-01 -.317E+01
   -.260E+02 -.729E+00 0.725E+03   0.261E+02 0.794E+00 -.728E+03   -.159E+00 -.101E+00 0.327E+01
   -.107E+02 0.729E+01 0.714E+03   0.107E+02 -.732E+01 -.717E+03   -.112E+00 0.148E-01 0.324E+01
   -.344E+02 -.150E+02 -.676E+03   0.345E+02 0.151E+02 0.680E+03   -.565E-01 -.121E+00 -.310E+01
   -.432E+01 -.110E+02 -.686E+03   0.428E+01 0.110E+02 0.690E+03   0.366E-01 -.200E-01 -.308E+01
   -.156E+02 -.126E+02 0.715E+03   0.157E+02 0.126E+02 -.719E+03   -.175E-02 -.445E-01 0.315E+01
   -.648E+01 -.441E+01 0.714E+03   0.649E+01 0.444E+01 -.717E+03   -.126E-02 -.285E-01 0.344E+01
   -.144E+02 -.157E+02 -.687E+03   0.144E+02 0.157E+02 0.690E+03   0.136E-01 0.277E-02 -.312E+01
   -.119E+01 -.842E+01 -.690E+03   0.115E+01 0.845E+01 0.694E+03   0.322E-01 -.110E-02 -.311E+01
   -.765E+01 -.764E+01 0.707E+03   0.763E+01 0.763E+01 -.711E+03   0.759E-02 0.759E-02 0.324E+01
   -.151E+01 -.922E+01 0.709E+03   0.148E+01 0.924E+01 -.712E+03   0.325E-01 -.956E-02 0.328E+01
   -.549E+00 0.824E+00 -.237E+02   0.193E-11 0.134E-11 0.728E-11   -.180E+00 -.180E+00 0.740E+02

 POSITION                                       TOTAL-FORCE (eV/Angst)
      8.54453     12.59533     13.88470         0.071329     -0.089810     -0.095995
      6.69899     14.44084     13.56395        -0.150787      0.129649     -0.259840
     12.32695      8.81289     13.56395         0.129649     -0.150787     -0.259840
     10.48144     10.65841     13.88470        -0.089810      0.071329     -0.095995
      0.00000      0.00000      9.00000         0.006536      0.012356      0.354188
      2.11389      2.11389      9.00000        -0.001107      0.015811      0.488853
      0.00000      2.11389     11.11389        -0.010818     -0.010818     -0.889572
      2.11389      0.00000     11.11389        -0.029788      0.025980     -1.455370
      0.00000      4.22777      9.00000         0.015811     -0.001107      0.488853
      2.11389      6.34166      9.00000         0.000145     -0.000666      0.321510
      0.00000      6.34166     11.11389         0.018423      0.000650     -0.235612
      2.11389      4.22777     11.11389        -0.004800     -0.004800     -1.774099
      0.00000      8.45554      9.00000        -0.004438     -0.014571      1.004000
      2.11389     10.56943      9.00000        -0.041606     -0.031462      0.938769
      0.00000     10.56943     11.11389        -0.000245     -0.010316     -1.818791
      2.11389      8.45554     11.11389         0.006093      0.006835     -0.381620
      0.00000     12.68331      9.00000        -0.027573     -0.011602      1.440224
      2.11389     14.79720      9.00000        -0.057660      0.009739      1.383841
      0.00000     14.79720     11.11389        -0.027359      0.012907     -0.298124
      2.11389     12.68331     11.11389        -0.050524     -0.031363     -1.427369
      0.00000     16.91108      9.00000        -0.040570      0.001836      1.104958
      2.11389     19.02497      9.00000        -0.014686      0.045874      0.869794
      0.00000     19.02497     11.11389        -0.027625      0.008740     -0.341918
      2.11389     16.91108     11.11389        -0.085331      0.020326     -0.293890
      4.22777      0.00000      9.00000        -0.014478      0.029686      0.763041
      6.34166      2.11389      9.00000        -0.014571     -0.004438      1.004000
      4.22777      2.11389     11.11389         0.000650      0.018423     -0.235612
      6.34166      0.00000     11.11389        -0.022756      0.023843     -1.310452
      4.22777      4.22777      9.00000        -0.000666      0.000145      0.321510
      6.34166      6.34166      9.00000        -0.036258     -0.029174      0.525113
      4.22777      6.34166     11.11389        -0.000692     -0.000692     -1.372721
      6.34166      4.22777     11.11389         0.006835      0.006093     -0.381620
      4.22777      8.45554      9.00000        -0.029174     -0.036258      0.525113
      6.34166     10.56943      9.00000        -0.030625     -0.090136      0.544540
      4.22777     10.56943     11.11389         0.032792     -0.036962     -2.036891
      6.34166      8.45554     11.11389         0.097593      0.097593     -0.566371
      4.22777     12.68331      9.00000        -0.080928     -0.058526      0.726569
      6.34166     14.79720      9.00000        -0.005019      0.015053      0.659304
      4.22777     14.79720     11.11389        -0.435212     -0.037937     -0.281964
      6.34166     12.68331     11.11389        -0.133759     -0.571236     -0.018402
      4.22777     16.91108      9.00000        -0.075995      0.075964      0.719231
      6.34166     19.02497      9.00000        -0.008145      0.073058      1.081000
      4.22777     19.02497     11.11389        -0.031871      0.097798     -0.570195
      6.34166     16.91108     11.11389         0.034676      0.422799     -0.381523
      8.45554      0.00000      9.00000         0.003696      0.025808      0.584319
     10.56943      2.11389      9.00000        -0.011602     -0.027573      1.440224
      8.45554      2.11389     11.11389        -0.010316     -0.000245     -1.818791
     10.56943      0.00000     11.11389         0.002222     -0.005032     -0.232552
      8.45554      4.22777      9.00000        -0.031462     -0.041606      0.938769
     10.56943      6.34166      9.00000        -0.058526     -0.080928      0.726569
      8.45554      6.34166     11.11389        -0.036962      0.032792     -2.036891
     10.56943      4.22777     11.11389        -0.031363     -0.050524     -1.427369
      8.45554      8.45554      9.00000        -0.090136     -0.030625      0.544540
     10.56943     10.56943      9.00000        -0.041235      0.015875      0.704317
      8.45554     10.56943     11.11389        -0.230199     -0.230199     -0.143497
     10.56943      8.45554     11.11389        -0.571236     -0.133759     -0.018402
      8.45554     12.68331      9.00000         0.015875     -0.041235      0.704317
     10.56943     14.79720      9.00000         0.071597      0.043689      0.706582
      8.45554     14.79720     11.11389         0.554628      0.139362     -0.296395
     10.56943     12.68331     11.11389         0.214272      0.214272     -0.110843
[...]
     19.02497      6.34166     11.11389        -0.007625     -0.023867      0.177687
     16.91108      6.34166      9.00000        -0.046537      0.006538     -0.191204
     19.02497      4.22777      9.00000        -0.007435      0.027178     -0.152913
     16.91108      8.45554     11.11389        -0.063707     -0.031448      0.140072
     19.02497     10.56943     11.11389         0.000262      0.015110      0.129946
     16.91108     10.56943      9.00000        -0.025450     -0.042455     -0.379090
     19.02497      8.45554      9.00000        -0.056384     -0.029047     -0.321681
     16.91108     12.68331     11.11389         0.013761     -0.054025      0.189276
     19.02497     14.79720     11.11389         0.003582      0.007620      0.182538
     16.91108     14.79720      9.00000         0.029120     -0.009647     -0.468241
     19.02497     12.68331      9.00000         0.006653      0.003546     -0.129393
     16.91108     16.91108     11.11389         0.033635      0.034282      0.096041
     19.02497     19.02497     11.11389        -0.001410      0.025563      0.190845
     16.91108     19.02497      9.00000        -0.004065     -0.004065     -0.326024
     19.02497     16.91108      9.00000         0.012036      0.012743     -0.275639
    total drift:                               -0.728655      0.643475     50.342667

  FREE ENERGIE OF THE ION-ELECTRON SYSTEM (eV)
  free  energy   TOTEN  =     -1717.33560388 eV

  energy  without entropy=    -1717.32853665  energy(sigma->0) =    -1717.33207027