 vasp.6.4.0 14Feb23 (build Mar 22 2023 21:21:37) complex

 executed on           IFC15_impi date 2023.05.05  19:30:55

 INCAR:
   SYSTEM = MgO-rocksalt
   ISMEAR = 0
   SIGMA = 0.05
   EDIFF = 1E-6
   ALGO = ALL
   ISTART = 0
   IBRION = -1
   NSW = 0
   ISYM = 2
   DIPOL = 0.5 0.5 0.5
   IDIPOL = 3
   LDIPOL = .TRUE.
   GGA = MK
   LUSE_VDW = .TRUE.
   PARAM1 = 0.1234
   PARAM2 = 0.711357
   ZAB_VDW = -1.8867
   AGGAC = 0.0
   ENCUT = 520
   PREC = Accurate
   LASPH = .TRUE.
   LREAL = Auto
   ISPIN = 1
   NELM = 200
   NELMIN = 8
   NCORE = 4
   KPAR = 2
   LWAVE = .FALSE.
   LCHARG = .FALSE.

 POTCAR:    PAW_PBE Au 04Oct2007
 POTCAR:    PAW_PBE Mg_pv 13Apr2007
 POTCAR:    PAW_PBE O 08Apr2002
|               ----> ADVICE to this user running VASP <----                  |
|     You have switched on vdW-DFT.                                           |
|     This routine was written and supplied by Jiri Klimes. We recommend      |
|     that you carefully read and cite the following publications:            |
|       J. Klimes, D.R. Bowler, A. Michelides                                 |
|          J. Phys.: Cond Matt. 22 022201 (2010)                              |
|       J. Klimes, D.R. Bowler, A. Michelides                                 |
|          Phys. Rev. B. 83, 195131 (2011)                                    |
|     and references therein.                                                 |

   TITEL  = PAW_PBE Au 04Oct2007
   POMASS =  196.966; ZVAL   =   11.000    mass and valenz
   ENMAX  =  229.943; ENMIN  =  172.457 eV

   TITEL  = PAW_PBE Mg_pv 13Apr2007
   POMASS =   24.305; ZVAL   =    8.000    mass and valenz
   ENMAX  =  403.929; ENMIN  =  302.947 eV

   TITEL  = PAW_PBE O 08Apr2002
   POMASS =   16.000; ZVAL   =    6.000    mass and valenz
   ENMAX  =  400.000; ENMIN  =  300.000 eV

 Optimization of the real space projectors (new method)

 maximal supplied QI-value         = 15.12
 optimisation between [QCUT,QGAM] = [ 11.64, 23.28] = [ 37.95,151.78] Ry
 Optimized for a Real-space Cutoff    1.49 Angstroem

   l    n(q)    QCUT    max X(q) W(low)/X(q) W(high)/X(q)  e(spline)
   2      9    11.641    60.898    0.24E-03    0.10E-03    0.19E-06
   2      9    11.641    58.894    0.25E-03    0.10E-03    0.19E-06
   0     10    11.641   109.617    0.73E-04    0.33E-04    0.11E-06
   0     10    11.641    75.026    0.71E-04    0.32E-04    0.11E-06
   1     10    11.641    16.344    0.27E-04    0.97E-04    0.16E-06
   1     10    11.641    10.160    0.23E-04    0.77E-04    0.13E-06
 Optimization of the real space projectors (new method)

[...]

   l    n(q)    QCUT    max X(q) W(low)/X(q) W(high)/X(q)  e(spline)
   1      8    11.527     2.974    0.44E-04    0.56E-04    0.12E-06
   1      8    11.527     4.279    0.12E-03    0.12E-03    0.26E-06
   0      9    11.527    16.381    0.46E-04    0.64E-04    0.78E-07
   0      9    11.527     5.611    0.26E-04    0.43E-04    0.55E-07
   2      8    11.527     4.652    0.22E-03    0.72E-04    0.47E-07
 Optimization of the real space projectors (new method)

 maximal supplied QI-value         = 24.76
 optimisation between [QCUT,QGAM] = [ 11.64, 23.27] = [ 37.91,151.63] Ry
 Optimized for a Real-space Cutoff    1.14 Angstroem

   l    n(q)    QCUT    max X(q) W(low)/X(q) W(high)/X(q)  e(spline)
   0      8    11.635    20.381    0.10E-03    0.33E-03    0.24E-06
   0      8    11.635    15.268    0.11E-03    0.35E-03    0.26E-06
   1      7    11.635     5.964    0.24E-03    0.31E-03    0.30E-06
   1      7    11.635     5.382    0.22E-03    0.25E-03    0.26E-06
|               ----> ADVICE to this user running VASP <----                  |
|     You enforced a specific xc type in the INCAR file but a different       |
|     type was found in the POTCAR file.                                      |
|     I HOPE YOU KNOW WHAT YOU ARE DOING!                                     |

  PAW_PBE Au 04Oct2007                  :
  PAW_PBE Mg_pv 13Apr2007               :
  PAW_PBE O 08Apr2002                   :

 POSCAR: Mg  O
  positions in direct lattice
  velocities in cartesian coordinates
 exchange correlation table for  LEXCH =       43
   RHO(1)=    0.500       N(1)  =     2000
   RHO(2)=  100.500       N(2)  =     4000

 ion  position               nearest neighbor table
   1  0.498  0.433  0.611-  11 2.70  17 2.71  13 2.72   3 2.73   4 2.76   8 2.78
   2  0.326  0.314  0.579- 246 2.42  14 2.70  13 2.70  19 2.73  11 2.77  67 2.88  52 3.07
   3  0.558  0.545  0.592-   9 2.71   8 2.73   1 2.73  17 2.75  91 3.03
   4  0.567  0.324  0.619-  17 2.70   7 2.70  15 2.71  13 2.71   6 2.75   1 2.76
   5  0.449  0.096  0.604-  10 2.66  19 2.71   7 2.81
   6  0.637  0.214  0.618-   7 2.71  15 2.71  16 2.72   4 2.75  20 2.77  10 2.77
   7  0.510  0.210  0.625-  19 2.68   4 2.70   6 2.71  10 2.74  13 2.76   5 2.81
   8  0.428  0.542  0.592-  11 2.69   3 2.73   1 2.78  71 2.93
   9  0.685  0.549  0.597-  18 2.67   3 2.71  17 2.72
  10  0.574  0.099  0.611-  16 2.63   5 2.66   7 2.74   6 2.77
  11  0.370  0.431  0.607-  14 2.65   8 2.69   1 2.70   2 2.77  13 2.80
  12  0.820  0.335  0.592-  18 2.67  15 2.70  20 2.75 107 2.87
  13  0.439  0.320  0.621-   2 2.70   4 2.71   1 2.72   7 2.76  19 2.76  11 2.80
  14  0.251  0.417  0.581- 249 2.61  11 2.65   2 2.70  52 2.70
  15  0.695  0.328  0.609-  12 2.70  17 2.71   4 2.71   6 2.71  20 2.75  18 2.80
  16  0.687  0.112  0.575- 282 2.27  10 2.63   6 2.72  20 2.76  83 2.93  88 2.98
  17  0.626  0.436  0.607-   4 2.70  15 2.71   1 2.71   9 2.72   3 2.75  18 2.78
  18  0.756  0.444  0.596-   9 2.67  12 2.67  17 2.78  15 2.80
  19  0.403  0.210  0.577- 265 2.29   7 2.68   5 2.71   2 2.73  13 2.76  67 3.04
  20  0.759  0.221  0.584- 305 2.65  12 2.75  15 2.75  16 2.76   6 2.77  88 2.86
  21  0.000  1.000  0.430- 239 2.11 224 2.11 304 2.11 321 2.12 223 2.12 221 2.13
  22  0.100  0.100  0.430- 224 2.11 223 2.11 243 2.11 322 2.12 228 2.12 222 2.13
  23  0.000  0.099  0.500- 302 2.10 222 2.11 223 2.11 221 2.11 225 2.12
  24  0.100  0.999  0.500- 224 2.11 238 2.11 221 2.11 241 2.11 222 2.12
  25  1.000  0.200  0.430- 227 2.11 228 2.11 223 2.11 308 2.12 325 2.12 225 2.14
  26  0.100  0.300  0.430- 227 2.11 232 2.11 228 2.11 247 2.12 326 2.12 226 2.14
  27  0.000  0.300  0.500- 226 2.11 227 2.11 306 2.11 229 2.11 225 2.12
  28  0.099  0.200  0.500- 225 2.10 228 2.11 245 2.11 222 2.11 226 2.13
  29  1.000  0.400  0.430- 312 2.10 231 2.11 227 2.12 329 2.12 232 2.13 229 2.14
  30  0.100  0.500  0.430- 231 2.11 236 2.11 251 2.11 232 2.12 330 2.12 230 2.13
  31  1.000  0.501  0.500- 310 2.10 233 2.10 231 2.11 230 2.12 229 2.12
  32  0.098  0.401  0.500- 229 2.08 230 2.10 232 2.11 249 2.12 226 2.13
  33  1.000  0.600  0.430- 316 2.11 235 2.11 231 2.12 236 2.12 333 2.12 233 2.13
  34  0.100  0.700  0.430- 235 2.11 240 2.11 255 2.11 236 2.11 334 2.12 234 2.13
  35  1.000  0.700  0.500- 235 2.11 314 2.11 233 2.11 237 2.11 234 2.11
  36  0.100  0.601  0.500- 234 2.11 233 2.11 236 2.11 253 2.12 230 2.12
  37  1.000  0.800  0.430- 235 2.11 320 2.11 240 2.11 239 2.12 337 2.12 237 2.13
  38  0.100  0.900  0.430- 240 2.11 239 2.11 259 2.11 224 2.12 338 2.12 238 2.13
  39  0.000  0.899  0.500- 239 2.10 237 2.11 238 2.11 318 2.11 221 2.12
  40  0.100  0.800  0.500- 240 2.11 234 2.11 237 2.11 257 2.11 238 2.11
  41  0.200  1.000  0.430- 259 2.11 224 2.11 244 2.11 341 2.12 243 2.12 241 2.13
  42  0.300  0.099  0.430- 244 2.10 263 2.11 243 2.11 342 2.12 248 2.13 242 2.13
  43  0.199  0.099  0.500- 241 2.10 222 2.10 243 2.11 242 2.12 245 2.13
  44  0.300  0.999  0.500- 258 2.10 244 2.11 241 2.11 261 2.12 242 2.12
  45  0.199  0.200  0.430- 228 2.10 243 2.11 345 2.12 248 2.12 247 2.13 245 2.14
  46  0.300  0.300  0.429- 267 2.10 252 2.10 346 2.11 248 2.11 247 2.11 246 2.16
  47  0.198  0.299  0.500- 226 2.08 247 2.11 245 2.11 246 2.12 249 2.13
  48  0.297  0.198  0.500- 245 2.08 242 2.08 248 2.09 246 2.13 265 2.13
  49  0.200  0.400  0.429- 251 2.10 232 2.10 252 2.11 349 2.11 247 2.11 249 2.21
  50  0.300  0.501  0.430- 250 2.10 271 2.10 256 2.11 350 2.12 251 2.12 252 2.14
  51  0.200  0.502  0.500- 253 2.09 251 2.11 250 2.11 230 2.11 249 2.15
  52  0.302  0.402  0.499- 269 2.08 252 2.08 250 2.09 249 2.19 246 2.20  14 2.70   2 3.07
  53  0.200  0.600  0.430- 255 2.11 256 2.11 236 2.11 353 2.12 251 2.13 253 2.13
  54  0.300  0.700  0.430- 256 2.11 275 2.11 260 2.11 255 2.12 354 2.12 254 2.13
  55  0.200  0.700  0.500- 255 2.11 253 2.11 257 2.11 254 2.11 234 2.11
  56  0.300  0.601  0.500- 250 2.10 254 2.11 273 2.11 256 2.11 253 2.12
  57  0.200  0.800  0.430- 255 2.11 260 2.11 240 2.11 259 2.12 357 2.12 257 2.13
  58  0.300  0.900  0.430- 260 2.11 279 2.11 259 2.11 244 2.12 358 2.12 258 2.13
  59  0.200  0.900  0.500- 259 2.11 257 2.11 238 2.11 258 2.11 241 2.12
  60  0.300  0.800  0.500- 260 2.11 254 2.11 258 2.11 277 2.11 257 2.12
[...]
 406  0.900  0.300  0.359- 208 2.11 207 2.11 127 2.11 212 2.11 206 2.11 106 2.12
 407  0.800  0.300  0.289- 186 2.11 205 2.11 206 2.11 209 2.11 207 2.11
 408  0.900  0.200  0.289- 206 2.11 202 2.11 205 2.11 125 2.11 208 2.11
 409  0.800  0.400  0.359- 109 2.11 192 2.11 207 2.11 211 2.11 212 2.11 209 2.11
 410  0.900  0.500  0.359- 131 2.11 211 2.11 212 2.11 216 2.11 210 2.11 110 2.12
 411  0.800  0.500  0.289- 190 2.11 209 2.11 210 2.11 213 2.11 211 2.11
 412  0.900  0.400  0.289- 129 2.11 206 2.11 209 2.11 210 2.11 212 2.11
 413  0.800  0.600  0.359- 196 2.11 211 2.11 215 2.11 216 2.11 213 2.11 113 2.12
 414  0.900  0.700  0.359- 220 2.11 215 2.11 216 2.11 135 2.11 214 2.11 114 2.12
 415  0.800  0.700  0.289- 194 2.11 217 2.11 214 2.11 213 2.11 215 2.11
 416  0.900  0.600  0.289- 133 2.11 210 2.11 213 2.11 214 2.11 216 2.11
 417  0.800  0.800  0.359- 200 2.11 215 2.11 219 2.11 220 2.11 217 2.11 117 2.12
 418  0.900  0.900  0.359- 139 2.11 204 2.11 219 2.11 220 2.11 218 2.11 118 2.12
 419  0.800  0.900  0.289- 198 2.11 201 2.11 217 2.11 218 2.11 219 2.11
 420  0.900  0.800  0.289- 214 2.11 137 2.11 217 2.11 218 2.11 220 2.11

  LATTYP: Found a simple tetragonal cell.
 ALAT       =    21.1388521970
 C/A-ratio  =     1.4191877459

  Lattice vectors:

 A1 = (  21.1388521970,   0.0000000000,   0.0000000000)
 A2 = (   0.0000000000,  21.1388521970,   0.0000000000)
 A3 = (   0.0000000000,   0.0000000000,  30.0000000000)

Analysis of symmetry for initial positions (statically):
 Subroutine PRICEL returns:
 Original cell was already a primitive cell.

 Routine SETGRP: Setting up the symmetry group for a
 simple tetragonal supercell.

 Subroutine GETGRP returns: Found  1 space group operations
 (whereof  1 operations were pure point group operations)
 out of a pool of 16 trial point group operations.

The static configuration has the point symmetry C_1 .

Analysis of symmetry for dynamics (positions and initial velocities):
 Subroutine PRICEL returns:
 Original cell was already a primitive cell.

[...]

The dynamic configuration has the point symmetry C_1 .

Analysis of constrained symmetry for selective dynamics:
 Subroutine PRICEL returns:
 Original cell was already a primitive cell.

 Routine SETGRP: Setting up the symmetry group for a
 simple tetragonal supercell.

[...]
  329                  fftbas_plan_mpi                      18.523948                513   8
  330                    dfftw_execute                        11.821026             1539   9
  331                    map_forward                           6.361373             1026   9
  332                      map_gather                            1.401982            513  10
  333                      m_alltoallv_z                         0.951198            513  10
  334                      map_scatter                           2.207263            513  10
  335            rpromu                                5.338978                      135   5
  336              crrexp_mul_wave                       2.849431                 215460   6
  337              rpromu_gemm                           1.818178                  56700   6
  338              m_sumb_d                              0.071589                    513   6
  339          m_sumb_d                              0.159784                         10   4
  340        m_sumb_d                              0.004895                            7   3
  341        fft3d_mpi                             1.604539                           71   3
  342          fftbrc_mpi                            1.513977                         71   4
  343            fftbas_plan_mpi                       1.513734                       71   5
  344              dfftw_execute                         0.466723                    213   6
  345              map_forward                           0.471170                     70   6
  346                map_gather                            0.103366                   35   7
  347                m_alltoallv_z                         0.311241                   35   7
  348                map_scatter                           0.055496                   35   7
  349              map_backward                          0.521496                     72   6
  350                map_gather                            0.058602                   36   7
  351                m_alltoallv_z                         0.336948                   36   7
  352                map_scatter                           0.124950                   36   7
  353        ggaall_grid                           0.518731                            1   3
  354        forhar                                3.083191                            1   3
  355          m_sumb_d                              0.000184                          1   4
  356        strehar                               0.034400                            1   3
  357          m_sumb_d                              0.000129                          1   4
  358        m_bcast_d                             0.000402                            2   3
  359      potlok                               14.179263                              1   2
  360        fft3d_mpi                             1.595209                           73   3
  361          fftbrc_mpi                            1.501203                         73   4
  362            fftbas_plan_mpi                       1.500860                       73   5
  363              dfftw_execute                         0.472592                    219   6
  364              map_forward                           0.440927                     74   6
  365                map_gather                            0.107474                   38   7
  366                m_alltoallv_z                         0.267703                   38   7
  367                map_scatter                           0.064565                   38   7
  368              map_backward                          0.531334                     72   6
  369                map_gather                            0.058393                   36   7
  370                m_alltoallv_z                         0.347147                   36   7
  371                map_scatter                           0.124783                   36   7
  372        ggaall_grid                           0.517402                            1   3
  373        m_sumb_d                              0.002840                            8   3
  374        fewald                                0.001457                            2   3
  375          rsp                                   0.001347                          2   4
  376          rcp                                   0.000092                          2   4
  377        pothar                                0.004448                            1   3
  378          m_sumb_d                              0.000793                          1   4
  379        m_bcast_d                             0.011322                            1   3
  380      potlok_metagga                        0.000001                              1   2
  381      set_dd_magatom                        0.000001                              1   2
  382      set_dd_paw                            1.092892                              1   2
  383        set_rsgf_all                          0.000002                            1   3
  384        m_sumb_d                              0.787952                            8   3

 Flat profile

 edwav                                 919.141669          52
 potlok                                650.490544          54
 lincom                                359.183748         163
 dfftw_execute                         339.926412       52644
 orth1                                 192.924233        7464
 eddav                                 116.474531           5
 wfinit                                 91.488066           1
 m_sumb_d                               89.570363       30679
 m_alltoallv_z                          69.265383       17655
 map_scatter                            63.362463       17655
 m_alltoall_d                           57.015716       58076
 ggemm                                  53.639795        1253
 map_gather                             50.147469       17655
 fftwav_mpi                             44.880775        9439
 choleski                               35.298925          53
 eccp                                   34.074474        6213
 map_forward                            33.354298       22946
 ggaall_grid                            29.029804          55
 eddiag                                 24.946419          27
 total_time                             21.280240           1
 crrexp_mul_work_add                    20.929297     1029000
 m_bcast_z                              18.961612        2884
 racc0                                  18.945526        2450
 set_dd_paw                             16.774373          55
 crrexp_mul_wave                        16.441433     1220520
 vhamil                                 15.660889        2507
 rpro1                                  14.750528        2165
 pw_charge                              14.034906        2544
 force_and_stress                       12.103938           1
 fftbas_plan_mpi                        11.967203       17548
 lapack                                  7.248123         968
 w1_dscal                                5.960435        1482
 redis_pw                                5.899309        8804
 fft3d_mpi                               5.457774       17548
 fftext_mpi                              4.921944        3989
 setdij_                                 4.638684          81
 augmentation_charge                     4.435002          53
 rspher_all                              3.690037          14
 phaser                                  3.382963          44
 forhar                                  3.083007           1
 forloc                                  3.003797           1
 rpromu_gemm                             2.641491       81900
 stufak                                  1.825498           1
 orthch                                  1.187686          53
 kinhamil                                1.016855        2507
 overl                                   0.973463        3239
 m_bcast_d                               0.928308        1994
 rpromu                                  0.868149         195
 w1_copy                                 0.855447        2904
 elmin_all                               0.642984           1
 soft_charge                             0.434946          53
 redis_proj                              0.387709        8336
 setup_precond                           0.266697         285
 apply_precond                           0.241204         683
 depsum                                  0.229282          53
 pothar                                  0.200390          54
 inisym                                  0.179741           1
 map_backward                            0.178432       12150
 overl1                                  0.127941         968
 fft_gq                                  0.093816          53
 rsp                                     0.082537         109
 set_charge                              0.060770          53
 densta                                  0.058024          64
 fftbas_mpi                              0.055459       13428
 strnlr                                  0.053174           1
 strehar                                 0.034271           1
 strkin                                  0.032948           1
 strelo                                  0.027047           1
 hamiltmu                                0.023567         968
 hamilt_local                            0.023195        1539
 fornlr                                  0.019810           1
 newband                                 0.019780         973
 fftbrc_mpi                              0.015896        4120
 fewald                                  0.011684         109
 raccmu_                                 0.011320         968
 rpro_isp                                0.010902          13
 rcp                                     0.006223         109
 w1_projall                              0.004718         683
 brgrid                                  0.002836           1
 truncate_high_frequency_w1              0.001395        1253
 fordep                                  0.000940           1
 redis_pw_all                            0.000628          52
 crpa_reader                             0.000303           1
 redis_pw_over_bands                     0.000279          53
 posmap                                  0.000253           2
 set_rsgf_all                            0.000116          55
 proall                                  0.000081           1
 potlok_metagga                          0.000057          54
 vectorpot                               0.000026           1
 rotate_active_occupied_orbital          0.000019           1
 set_dd_magatom                          0.000010           2
 shift_bands_between_low_high            0.000007           1
  summed up times    3501.62441515923

 Accumulative profile

 total_time                           3501.624415           1
 elmin_all                            3282.065425           1
 edwav                                1821.446366          52
 potlok                                773.735595          54
 fft3d_mpi                             573.730789       17548
 fftbas_plan_mpi                       568.201660       17548
 fftbas_mpi                            476.344345       13428
 eddav                                 400.469782           5
 fftwav_mpi                            389.855006        9439
 lincom                                359.183748         163
 dfftw_execute                         339.926412       52644
 orthch                                214.082766          53
 orth1                                 192.924233        7464
 map_forward                           151.168614       22946
 fftext_mpi                            136.353116        3989
 set_charge                            130.653242          53
 soft_charge                           124.399749          53
 wfinit                                109.988856           1
 eddiag                                104.747342          27
 fftbrc_mpi                             91.928670        4120
 m_sumb_d                               89.570363       30679
 kinhamil                               85.837776        2507
 m_alltoallv_z                          69.265383       17655
 map_backward                           65.139431       12150
 map_scatter                            63.362463       17655
 force_and_stress                       62.807459           1
 set_dd_paw                             62.761116          55
 hamilt_local                           62.410192        1539
 m_alltoall_d                           57.015716       58076
 hamiltmu                               55.223358         968
 ggemm                                  53.639795        1253
 map_gather                             50.147469       17655
 redis_pw                               49.399745        8804
 racc0                                  40.692930        2450
 rpro_isp                               38.178063          13
 choleski                               35.298925          53
 eccp                                   34.324662        6213
 strnlr                                 29.716655           1
 ggaall_grid                            29.029804          55
 rpro1                                  27.557414        2165
 crrexp_mul_work_add                    20.929297     1029000
 m_bcast_z                              18.961612        2884
 crrexp_mul_wave                        16.441433     1220520
 raccmu_                                16.088124         968
 vhamil                                 15.660889        2507
 newband                                14.690204         973
 pw_charge                              14.034906        2544
 redis_proj                             13.902988        8336
 fornlr                                  9.963457           1
 w1_projall                              8.650693         683
 redis_pw_over_bands                     8.019350          53
 redis_pw_all                            8.019071          52
 rpromu                                  7.735646         195
 lapack                                  7.248123         968
 w1_dscal                                5.960435        1482
 augmentation_charge                     5.692152          53
 setdij_                                 5.058885          81
 rspher_all                              3.690037          14
 phaser                                  3.382963          44
 proall                                  3.111420           1
 forhar                                  3.083191           1
 forloc                                  3.007852           1
 rpromu_gemm                             2.641491       81900
 stufak                                  1.825498           1
 fft_gq                                  1.289226          53
 overl                                   0.973463        3239
 m_bcast_d                               0.928308        1994
 w1_copy                                 0.855447        2904
 densta                                  0.568383          64
 depsum                                  0.500571          53
 fordep                                  0.365452           1
 setup_precond                           0.280228         285
 pothar                                  0.269594          54
 apply_precond                           0.241204         683
 inisym                                  0.179994           1
 fewald                                  0.169105         109
 overl1                                  0.127941         968
 rsp                                     0.082537         109
 strehar                                 0.034400           1
 strkin                                  0.033159           1
 strelo                                  0.028005           1
 rcp                                     0.006223         109
 brgrid                                  0.002836           1
 truncate_high_frequency_w1              0.001395        1253
 crpa_reader                             0.000303           1
 posmap                                  0.000253           2
 set_rsgf_all                            0.000116          55
 potlok_metagga                          0.000057          54
 vectorpot                               0.000026           1
 rotate_active_occupied_orbital          0.000019           1
 set_dd_magatom                          0.000010           2
 shift_bands_between_low_high            0.000007           1

Profiling took   2.626512  0.861583  0.006714  0.006505 seconds
Profiling took   2.194844 seconds