 vasp.6.3.0 20Jan22 (build Apr  1 2022 16:44:48) complex
 executed on        HPECrayEX_GCC date 2023.01.09  23:38:53

 INCAR:
   SYSTEM = MgO-rocksalt
   ISMEAR = 0
   SIGMA = 0.05
   EDIFF = 1E-6
   ALGO = ALL
   ISTART = 0
   IBRION = -1
   NSW = 0
   ISYM = 2
   DIPOL = 0.5 0.5 0.5
   IDIPOL = 3
   LDIPOL = .TRUE.
   METAGGA = R2SCAN
   IVDW = 12
   VDW_S8 = 0.7898
   VDW_A1 = 0.4948
   VDW_A2 = 5.7308
   ENCUT = 520
   PREC = Accurate
   LASPH = .TRUE.
   LREAL = Auto
   ISPIN = 1
   NELM = 200
   NELMIN = 8
   NCORE = 4
   KPAR = 2
   LWAVE = .FALSE.
   LCHARG = .FALSE.

 POTCAR:    PAW_PBE Ag 02Apr2005
 POTCAR:    PAW_PBE Mg_pv 13Apr2007
 POTCAR:    PAW_PBE O 08Apr2002
 POTCAR:    PAW_PBE Ag 02Apr2005
   VRHFIN =Ag : s1 d10

   TITEL  = PAW_PBE Ag 02Apr2005
   POMASS =  107.868; ZVAL   =   11.000    mass and valenz
   ENMAX  =  249.844; ENMIN  =  187.383 eV

   TITEL  = PAW_PBE Mg_pv 13Apr2007
   POMASS =   24.305; ZVAL   =    8.000    mass and valenz
   ENMAX  =  403.929; ENMIN  =  302.947 eV

   TITEL  = PAW_PBE O 08Apr2002
   POMASS =   16.000; ZVAL   =    6.000    mass and valenz
   ENMAX  =  400.000; ENMIN  =  300.000 eV

 Optimization of the real space projectors (new method)

 maximal supplied QI-value         = 15.12
 optimisation between [QCUT,QGAM] = [ 11.64, 23.28] = [ 37.95,151.78] Ry
 Optimized for a Real-space Cutoff    1.45 Angstroem

   l    n(q)    QCUT    max X(q) W(low)/X(q) W(high)/X(q)  e(spline)
   2      9    11.641    53.897    0.22E-03    0.42E-04    0.28E-06
   2      9    11.641    52.416    0.23E-03    0.44E-04    0.29E-06
   0     10    11.641   122.045    0.51E-04    0.25E-04    0.16E-06
   0     10    11.641    73.629    0.49E-04    0.24E-04    0.16E-06
   1     10    11.641    15.255    0.99E-04    0.55E-04    0.11E-06
   1     10    11.641     9.562    0.81E-04    0.47E-04    0.95E-07
 Optimization of the real space projectors (new method)

[...]

   l    n(q)    QCUT    max X(q) W(low)/X(q) W(high)/X(q)  e(spline)
   1      8    11.527     2.974    0.44E-04    0.56E-04    0.12E-06
   1      8    11.527     4.279    0.12E-03    0.12E-03    0.26E-06
   0      9    11.527    16.381    0.46E-04    0.64E-04    0.78E-07
   0      9    11.527     5.611    0.26E-04    0.43E-04    0.55E-07
   2      8    11.527     4.652    0.22E-03    0.72E-04    0.47E-07
 Optimization of the real space projectors (new method)

 maximal supplied QI-value         = 24.76
 optimisation between [QCUT,QGAM] = [ 11.64, 23.27] = [ 37.91,151.63] Ry
 Optimized for a Real-space Cutoff    1.14 Angstroem

   l    n(q)    QCUT    max X(q) W(low)/X(q) W(high)/X(q)  e(spline)
   0      8    11.635    20.381    0.10E-03    0.33E-03    0.24E-06
   0      8    11.635    15.268    0.11E-03    0.35E-03    0.26E-06
   1      7    11.635     5.964    0.24E-03    0.31E-03    0.30E-06
   1      7    11.635     5.382    0.22E-03    0.25E-03    0.26E-06
  PAW_PBE Ag 02Apr2005                  :
  PAW_PBE Mg_pv 13Apr2007               :
  PAW_PBE O 08Apr2002                   :

 POSCAR: Ag Mg  O
  positions in direct lattice
  velocities in cartesian coordinates

 METAGGA = R2SCA    LMAXTAU =  6    LMIXTAU =  F

 ion  position               nearest neighbor table
   1  0.400  0.563  0.612- 157 2.54   4 2.67   3 2.71  55 2.75
   2  0.400  0.500  0.835-   3 2.58
   3  0.400  0.499  0.718-   2 2.58   1 2.71   4 2.71
   4  0.400  0.436  0.612- 153 2.53   1 2.67   3 2.71  55 2.76
   5  0.000  0.000  0.407- 107 2.11 108 2.11 123 2.11 188 2.11 105 2.11
   6  0.100  0.100  0.407- 107 2.11 108 2.11 112 2.11 127 2.11 106 2.11
   7  0.000  0.100  0.503- 105 2.11 106 2.11 109 2.11 186 2.11 107 2.11
   8  0.100  0.000  0.503- 105 2.11 106 2.11 122 2.11 125 2.11 108 2.11
   9  0.000  0.200  0.407- 111 2.11 107 2.11 112 2.11 192 2.11 109 2.11
  10  0.100  0.300  0.407- 112 2.11 111 2.11 116 2.11 131 2.11 110 2.11
  11  0.000  0.300  0.503- 109 2.11 110 2.11 113 2.11 190 2.11 111 2.11
  12  0.100  0.200  0.503- 110 2.11 109 2.11 106 2.11 129 2.11 112 2.11
  13  0.000  0.400  0.407- 111 2.11 115 2.11 116 2.11 196 2.11 113 2.11
  14  0.100  0.500  0.407- 115 2.11 116 2.11 120 2.11 135 2.11 114 2.11
  15  0.000  0.500  0.503- 113 2.11 114 2.11 117 2.11 194 2.11 115 2.11
  16  0.100  0.400  0.503- 110 2.11 113 2.11 114 2.11 133 2.11 116 2.11
  17  0.000  0.600  0.407- 115 2.11 119 2.11 120 2.11 200 2.11 117 2.11
  18  0.100  0.700  0.407- 124 2.11 120 2.11 119 2.11 139 2.11 118 2.11
  19  0.000  0.700  0.503- 121 2.11 118 2.11 117 2.11 198 2.11 119 2.11
  20  0.100  0.600  0.503- 114 2.11 117 2.11 118 2.11 137 2.11 120 2.11
  21  0.000  0.800  0.407- 119 2.11 123 2.11 124 2.11 204 2.11 121 2.11
  22  0.100  0.900  0.407- 108 2.11 123 2.11 124 2.11 143 2.11 122 2.11
  23  0.000  0.900  0.503- 105 2.11 121 2.11 122 2.11 202 2.11 123 2.11
  24  0.100  0.800  0.503- 118 2.11 121 2.11 122 2.11 141 2.11 124 2.11
  25  0.200  0.000  0.407- 128 2.11 127 2.11 108 2.11 143 2.11 125 2.11
  26  0.300  0.100  0.407- 127 2.11 128 2.11 132 2.11 147 2.11 126 2.11
  27  0.200  0.100  0.503- 126 2.11 125 2.11 106 2.11 129 2.11 127 2.11
  28  0.300  0.000  0.503- 125 2.11 126 2.11 142 2.11 145 2.11 128 2.11
  29  0.200  0.200  0.407- 131 2.11 132 2.11 112 2.11 127 2.11 129 2.11
  30  0.300  0.300  0.407- 131 2.11 132 2.11 136 2.11 151 2.11 130 2.11
  31  0.200  0.300  0.503- 129 2.11 130 2.11 110 2.11 133 2.11 131 2.11
  32  0.300  0.200  0.503- 129 2.11 130 2.11 126 2.11 149 2.11 132 2.11
  33  0.200  0.400  0.407- 136 2.11 131 2.11 135 2.11 116 2.11 133 2.11
  34  0.300  0.500  0.407- 135 2.11 136 2.11 140 2.11 155 2.11 134 2.11
  35  0.200  0.500  0.503- 134 2.11 133 2.11 114 2.11 137 2.11 135 2.11
  36  0.300  0.400  0.503- 133 2.11 130 2.11 134 2.11 153 2.11 136 2.11
  37  0.200  0.600  0.407- 140 2.11 135 2.11 139 2.11 120 2.11 137 2.11
  38  0.300  0.700  0.407- 139 2.11 144 2.11 140 2.11 159 2.11 138 2.11
  39  0.200  0.700  0.503- 138 2.11 141 2.11 118 2.11 137 2.11 139 2.11
  40  0.300  0.600  0.503- 137 2.11 134 2.11 138 2.11 157 2.11 140 2.11
  41  0.200  0.800  0.407- 139 2.11 144 2.11 143 2.11 124 2.11 141 2.11
  42  0.300  0.900  0.407- 143 2.11 128 2.11 144 2.11 163 2.11 142 2.11
  43  0.200  0.900  0.503- 142 2.11 125 2.11 141 2.11 122 2.11 143 2.11
  44  0.300  0.800  0.503- 138 2.11 141 2.11 142 2.11 161 2.11 144 2.11
  45  0.400  0.000  0.407- 128 2.11 147 2.11 148 2.11 163 2.11 145 2.11
  46  0.500  0.100  0.407- 147 2.11 148 2.11 152 2.11 167 2.11 146 2.11
  47  0.400  0.100  0.503- 126 2.11 145 2.11 146 2.11 149 2.11 147 2.11
  48  0.500  0.000  0.503- 145 2.11 146 2.11 162 2.11 165 2.11 148 2.11
  49  0.400  0.200  0.407- 151 2.11 147 2.11 132 2.11 152 2.11 149 2.11
  50  0.500  0.300  0.407- 152 2.11 151 2.11 156 2.11 171 2.11 150 2.11
  51  0.400  0.300  0.503- 149 2.11 130 2.11 150 2.11 153 2.11 151 2.11
  52  0.500  0.200  0.503- 150 2.11 149 2.11 146 2.11 169 2.11 152 2.11
  53  0.400  0.400  0.407- 136 2.11 151 2.11 155 2.11 156 2.11 153 2.11
  54  0.500  0.500  0.407- 155 2.11 156 2.11 160 2.11 175 2.11 154 2.11
  55  0.400  0.500  0.503- 134 2.11 153 2.11 154 2.11 157 2.11 155 2.11   1 2.75   4 2.76
  56  0.500  0.400  0.503- 150 2.11 153 2.11 154 2.11 173 2.11 156 2.11
  57  0.400  0.600  0.407- 140 2.11 155 2.11 159 2.11 160 2.11 157 2.11
  58  0.500  0.700  0.407- 164 2.11 160 2.11 159 2.11 179 2.11 158 2.11
  59  0.400  0.700  0.503- 161 2.11 157 2.11 158 2.11 138 2.11 159 2.11
  60  0.500  0.600  0.503- 154 2.11 157 2.11 158 2.11 177 2.11 160 2.11
[...]
 190  0.900  0.300  0.503-  92 2.11  91 2.11  11 2.11  96 2.11  90 2.11
 191  0.800  0.300  0.407-  70 2.11  89 2.11  90 2.11  93 2.11  91 2.11
 192  0.900  0.200  0.407-  90 2.11  86 2.11  89 2.11   9 2.11  92 2.11
 193  0.800  0.400  0.503-  76 2.11  91 2.11  95 2.11  96 2.11  93 2.11
 194  0.900  0.500  0.503-  15 2.11  95 2.11  96 2.11 100 2.11  94 2.11
 195  0.800  0.500  0.407-  74 2.11  93 2.11  94 2.11  97 2.11  95 2.11
 196  0.900  0.400  0.407-  13 2.11  90 2.11  93 2.11  94 2.11  96 2.11
 197  0.800  0.600  0.503-  80 2.11  95 2.11  99 2.11 100 2.11  97 2.11
 198  0.900  0.700  0.503- 104 2.11  99 2.11 100 2.11  19 2.11  98 2.11
 199  0.800  0.700  0.407-  78 2.11 101 2.11  98 2.11  97 2.11  99 2.11
 200  0.900  0.600  0.407-  17 2.11  94 2.11  97 2.11  98 2.11 100 2.11
 201  0.800  0.800  0.503-  84 2.11  99 2.11 103 2.11 104 2.11 101 2.11
 202  0.900  0.900  0.503-  23 2.11  88 2.11 103 2.11 104 2.11 102 2.11
 203  0.800  0.900  0.407-  82 2.11  85 2.11 101 2.11 102 2.11 103 2.11
 204  0.900  0.800  0.407-  98 2.11  21 2.11 101 2.11 102 2.11 104 2.11

  LATTYP: Found a simple tetragonal cell.
 ALAT       =    21.1388521970
 C/A-ratio  =     1.0461251639

  Lattice vectors:

 A1 = (  21.1388521970,   0.0000000000,   0.0000000000)
 A2 = (   0.0000000000,  21.1388521970,   0.0000000000)
 A3 = (   0.0000000000,   0.0000000000,  22.1138852197)

Analysis of symmetry for initial positions (statically):
 Subroutine PRICEL returns:
 Original cell was already a primitive cell.

 Routine SETGRP: Setting up the symmetry group for a
 simple tetragonal supercell.

 Subroutine GETGRP returns: Found  1 space group operations
 (whereof  1 operations were pure point group operations)
 out of a pool of 16 trial point group operations.

The static configuration has the point symmetry C_1 .

Analysis of symmetry for dynamics (positions and initial velocities):
 Subroutine PRICEL returns:
 Original cell was already a primitive cell.

[...]

The dynamic configuration has the point symmetry C_1 .

Analysis of constrained symmetry for selective dynamics:
 Subroutine PRICEL returns:
 Original cell was already a primitive cell.

 Routine SETGRP: Setting up the symmetry group for a
 simple tetragonal supercell.

 Subroutine GETGRP returns: Found  1 space group operations
 (whereof  1 operations were pure point group operations)
 out of a pool of 16 trial point group operations.

The constrained configuration has the point symmetry C_1 .

 Subroutine INISYM returns: Found  1 space group operations
 (whereof  1 operations are pure point group operations),
 and found     1 'primitive' translations

                                     Primitive cell

  volume of cell :    9881.6133

  direct lattice vectors                    reciprocal lattice vectors
    21.138852197  0.000000000  0.000000000     0.047306258  0.000000000  0.000000000
     0.000000000 21.138852197  0.000000000     0.000000000  0.047306258  0.000000000
     0.000000000  0.000000000 22.113885220     0.000000000  0.000000000  0.045220457

  length of vectors
    21.138852197 21.138852197 22.113885220     0.047306258  0.047306258  0.045220457

  position of ions in fractional coordinates (direct lattice)
     0.400262498  0.562644202  0.611757253
     0.400180406  0.499857897  0.835303009
     0.400101799  0.499467099  0.718499130
     0.400198249  0.436299472  0.611663944
     0.000000000  0.000000000  0.406984115
     0.100000000  0.100000000  0.406984115
     0.000000000  0.100000000  0.502574971
     0.100000000  0.000000000  0.502574971
     0.000000000  0.200000000  0.406984115
     0.100000000  0.300000000  0.406984115
     0.000000000  0.300000000  0.502574971
[...]
    957       7.2421      0.00000
    958       7.3784      0.00000
    959       7.4369      0.00000
    960       7.4876      0.00000

 soft charge-density along one line, spin component           1
         0         1         2         3         4         5         6         7         8         9
 total charge-density along one line

------------------------ aborting loop because EDIFF is reached ----------------------------------------

 WARNING: Using user supplied parameters
     VDW_A1 = 0.495
     VDW_A2 = 5.731
     VDW_S8 = 0.79
     because the xc functional is not supported. Required parameters not
     defined in the INCAR file will be replaced with PBE defaults ones.

         DFTD3 V3.0 Rev 1
 IVDW         = 12
 DF unknown
 parameters
 VDW_S6       =    1.0000
 VDW_S8       =    0.7898
 VDW_A1       =    0.4948
 VDW_A2       =    5.7308
 k1-k3        =   16.0000    1.3333   -4.0000
 VDW_RADIUS   =   50.2022 A
 VDW_CNRADIUS =   21.1671 A
 Edisp (eV)  -12.84489

 E6    (eV) :    -8.6944
 E8    (eV) :    -4.1505
 % E8        : 32.31

  FORCE on cell =-STRESS in cart. coord.  units (eV):
  Direction    XX          YY          ZZ          XY          YZ          ZX
  Alpha Z  1401.13727  1401.13727  1401.13727
  Ewald  473476.01013474520.77188************     0.52185     3.38727    -0.69588
  Hartree503192.29941503980.62249************     0.38665     2.59414    -0.59310
  E(xc)   -8525.84654 -8525.36280 -8525.44481     0.00018     0.00228    -0.00017
  Local  ************************************    -0.90110    -5.95197     1.29328
  n-local -8721.17728 -8723.59940 -8848.24656    -0.00017     0.00894    -0.00583
  augment  4077.87841  4075.42543  4015.85264    -0.00223    -0.01450     0.00407
  Kinetic 23293.42943 23286.00464 23507.26483    -0.00442    -0.00050    -0.00985
  Fock        0.00000     0.00000     0.00000     0.00000     0.00000     0.00000
  vdW       -13.37645   -13.37863    -2.77767    -0.00001    -0.00003     0.00000
  Total    -234.56676  -235.26433   -20.52355     0.00077     0.02561    -0.00749
  in kB     -38.03200   -38.14510    -3.32763     0.00012     0.00415    -0.00121

 VOLUME and BASIS-vectors are now :
  energy-cutoff  :      520.00
  volume of cell :     9881.61
      direct lattice vectors                 reciprocal lattice vectors
    21.138852197  0.000000000  0.000000000     0.047306258  0.000000000  0.000000000
     0.000000000 21.138852197  0.000000000     0.000000000  0.047306258  0.000000000
     0.000000000  0.000000000 22.113885220     0.000000000  0.000000000  0.045220457

  length of vectors
    21.138852197 21.138852197 22.113885220     0.047306258  0.047306258  0.045220457

 FORCES acting on ions:
    Electron-Ion                     Ewald-Force                    Non-Local-Force
   -.476E+00 -.383E+03 -.187E+04   0.464E+00 0.376E+03 0.187E+04   0.798E-02 0.756E+01 -.206E+01
   -.149E+00 -.993E+00 -.113E+04   0.141E+00 0.967E+00 0.113E+04   0.485E-02 0.278E-01 0.778E+01
   0.648E+00 0.109E+01 -.162E+04   -.637E+00 -.107E+01 0.162E+04   -.101E-01 -.226E-01 -.141E+01
   -.796E-01 0.383E+03 -.187E+04   0.760E-01 -.376E+03 0.187E+04   0.969E-03 -.754E+01 -.206E+01
   0.615E+01 0.323E-01 0.935E+03   -.618E+01 -.325E-01 -.927E+03   0.258E-01 0.161E-03 -.758E+01
   0.120E+02 0.911E+01 0.938E+03   -.121E+02 -.914E+01 -.930E+03   0.561E-01 0.223E-01 -.758E+01
   0.880E+01 0.829E+01 -.918E+03   -.884E+01 -.829E+01 0.910E+03   0.305E-01 0.438E-02 0.752E+01
   0.129E+02 0.589E-01 -.917E+03   -.129E+02 -.592E-01 0.909E+03   0.426E-01 0.287E-03 0.752E+01
   0.945E+01 0.111E+02 0.938E+03   -.950E+01 -.111E+02 -.930E+03   0.448E-01 0.114E-01 -.758E+01
   0.245E+02 0.176E+02 0.949E+03   -.247E+02 -.177E+02 -.941E+03   0.141E+00 0.289E-01 -.760E+01
   0.182E+02 0.153E+02 -.912E+03   -.182E+02 -.153E+02 0.904E+03   0.536E-01 0.214E-02 0.751E+01
   0.234E+02 0.220E+02 -.911E+03   -.235E+02 -.220E+02 0.903E+03   0.975E-01 0.215E-01 0.751E+01
   0.163E+02 0.757E+01 0.944E+03   -.164E+02 -.757E+01 -.936E+03   0.709E-01 0.488E-02 -.759E+01
   0.355E+02 -.655E-01 0.958E+03   -.357E+02 0.660E-01 -.950E+03   0.171E+00 -.368E-03 -.761E+01
   0.261E+02 -.528E-01 -.908E+03   -.262E+02 0.530E-01 0.900E+03   0.559E-01 -.107E-03 0.750E+01
   0.515E+02 0.180E+02 -.895E+03   -.517E+02 -.180E+02 0.887E+03   0.155E+00 0.174E-02 0.749E+01
   0.163E+02 -.763E+01 0.944E+03   -.164E+02 0.763E+01 -.936E+03   0.706E-01 -.517E-02 -.759E+01
   0.244E+02 -.177E+02 0.949E+03   -.246E+02 0.177E+02 -.940E+03   0.140E+00 -.290E-01 -.760E+01
   0.181E+02 -.153E+02 -.912E+03   -.182E+02 0.153E+02 0.904E+03   0.533E-01 -.224E-02 0.751E+01
   0.514E+02 -.181E+02 -.895E+03   -.516E+02 0.181E+02 0.887E+03   0.154E+00 -.218E-02 0.749E+01
   0.942E+01 -.111E+02 0.938E+03   -.947E+01 0.111E+02 -.930E+03   0.445E-01 -.113E-01 -.758E+01
   0.120E+02 -.903E+01 0.938E+03   -.121E+02 0.905E+01 -.930E+03   0.558E-01 -.218E-01 -.758E+01
   0.878E+01 -.822E+01 -.918E+03   -.882E+01 0.822E+01 0.910E+03   0.303E-01 -.414E-02 0.752E+01
   0.233E+02 -.219E+02 -.911E+03   -.234E+02 0.219E+02 0.903E+03   0.967E-01 -.213E-01 0.751E+01
   0.109E+02 0.636E-01 0.939E+03   -.110E+02 -.642E-01 -.931E+03   0.479E-01 0.462E-03 -.758E+01
   0.865E+01 0.168E+02 0.945E+03   -.870E+01 -.170E+02 -.937E+03   0.439E-01 0.993E-01 -.758E+01
   0.172E+02 0.184E+02 -.911E+03   -.173E+02 -.185E+02 0.903E+03   0.624E-01 0.584E-01 0.752E+01
   0.908E+01 0.118E+00 -.912E+03   -.912E+01 -.119E+00 0.904E+03   0.303E-01 0.709E-03 0.752E+01
   0.196E+02 0.238E+02 0.950E+03   -.197E+02 -.240E+02 -.941E+03   0.121E+00 0.915E-01 -.757E+01
   0.246E+02 0.427E+02 0.982E+03   -.248E+02 -.430E+02 -.974E+03   0.221E+00 0.225E+00 -.744E+01
   0.534E+02 0.482E+02 -.884E+03   -.538E+02 -.483E+02 0.876E+03   0.339E+00 0.473E-01 0.750E+01
   0.226E+02 0.547E+02 -.892E+03   -.227E+02 -.551E+02 0.884E+03   0.995E-01 0.299E+00 0.752E+01
   0.439E+02 0.205E+02 0.978E+03   -.444E+02 -.205E+02 -.970E+03   0.342E+00 0.400E-01 -.762E+01
   0.455E+02 -.205E+00 0.103E+04   -.460E+02 0.208E+00 -.102E+04   0.362E+00 -.217E-02 -.758E+01
   0.103E+03 -.235E+00 -.848E+03   -.104E+03 0.236E+00 0.841E+03   0.316E+00 -.665E-03 0.744E+01
   0.115E+03 0.852E+02 -.768E+03   -.117E+03 -.852E+02 0.760E+03   0.136E+01 0.419E-02 0.742E+01
   0.438E+02 -.206E+02 0.978E+03   -.442E+02 0.207E+02 -.970E+03   0.340E+00 -.412E-01 -.762E+01
   0.244E+02 -.426E+02 0.982E+03   -.247E+02 0.429E+02 -.974E+03   0.220E+00 -.224E+00 -.745E+01
   0.530E+02 -.482E+02 -.884E+03   -.535E+02 0.482E+02 0.877E+03   0.336E+00 -.478E-01 0.750E+01
   0.114E+03 -.858E+02 -.769E+03   -.116E+03 0.858E+02 0.761E+03   0.134E+01 -.855E-02 0.742E+01
   0.195E+02 -.238E+02 0.949E+03   -.197E+02 0.239E+02 -.941E+03   0.121E+00 -.908E-01 -.757E+01
   0.861E+01 -.167E+02 0.945E+03   -.867E+01 0.168E+02 -.937E+03   0.436E-01 -.979E-01 -.758E+01
   0.172E+02 -.182E+02 -.911E+03   -.172E+02 0.183E+02 0.904E+03   0.620E-01 -.573E-01 0.752E+01
   0.224E+02 -.543E+02 -.892E+03   -.225E+02 0.547E+02 0.884E+03   0.986E-01 -.296E+00 0.752E+01
   0.151E-01 0.897E-01 0.943E+03   -.152E-01 -.907E-01 -.935E+03   0.689E-04 0.744E-03 -.758E+01
   -.862E+01 0.169E+02 0.945E+03   0.868E+01 -.170E+02 -.937E+03   -.438E-01 0.994E-01 -.758E+01
   0.251E-01 0.284E+02 -.906E+03   -.251E-01 -.285E+02 0.898E+03   0.120E-04 0.140E+00 0.752E+01
   -.905E+01 0.117E+00 -.912E+03   0.909E+01 -.118E+00 0.904E+03   -.303E-01 0.685E-03 0.752E+01
   0.307E-01 0.370E+02 0.962E+03   -.309E-01 -.373E+02 -.953E+03   0.119E-03 0.295E+00 -.758E+01
   -.245E+02 0.427E+02 0.982E+03   0.248E+02 -.430E+02 -.974E+03   -.221E+00 0.225E+00 -.744E+01
   0.144E+00 0.119E+03 -.825E+03   -.144E+00 -.121E+03 0.816E+03   0.495E-03 0.130E+01 0.771E+01
   -.225E+02 0.547E+02 -.892E+03   0.227E+02 -.551E+02 0.884E+03   -.994E-01 0.299E+00 0.752E+01
   0.101E+00 0.406E+02 0.104E+04   -.101E+00 -.408E+02 -.103E+04   -.116E-03 0.185E+00 -.611E+01
   -.454E+02 -.198E+00 0.103E+04   0.459E+02 0.201E+00 -.102E+04   -.362E+00 -.224E-02 -.758E+01
   0.615E+00 -.670E+00 -.563E+03   -.618E+00 0.681E+00 0.558E+03   0.113E-02 -.134E-01 0.470E+01
   -.115E+03 0.855E+02 -.768E+03   0.117E+03 -.855E+02 0.760E+03   -.136E+01 0.561E-02 0.741E+01
   0.109E+00 -.409E+02 0.104E+04   -.109E+00 0.411E+02 -.103E+04   -.291E-03 -.186E+00 -.612E+01
   -.243E+02 -.427E+02 0.982E+03   0.246E+02 0.430E+02 -.974E+03   -.220E+00 -.224E+00 -.744E+01
   0.166E+00 -.119E+03 -.826E+03   -.167E+00 0.120E+03 0.818E+03   0.747E-03 -.129E+01 0.770E+01
   -.114E+03 -.861E+02 -.769E+03   0.116E+03 0.861E+02 0.761E+03   -.134E+01 -.970E-02 0.742E+01
[...]
   -.979E+01 0.881E+01 0.707E+03   0.983E+01 -.882E+01 -.711E+03   -.561E-01 0.131E-01 0.339E+01
   -.140E-01 0.717E+01 0.704E+03   0.140E-01 -.718E+01 -.708E+03   -.238E-04 0.888E-02 0.339E+01
   -.179E+02 0.755E+01 -.683E+03   0.179E+02 -.755E+01 0.687E+03   -.559E-01 0.707E-03 -.360E+01
   -.368E-01 -.301E-01 -.685E+03   0.369E-01 0.302E-01 0.689E+03   -.277E-04 -.149E-03 -.359E+01
   -.134E+02 -.289E-01 0.711E+03   0.134E+02 0.291E-01 -.714E+03   -.650E-01 -.185E-03 0.338E+01
   -.239E-01 0.472E+01 0.707E+03   0.240E-01 -.472E+01 -.711E+03   -.337E-04 0.323E-02 0.338E+01
   -.178E+02 -.761E+01 -.683E+03   0.179E+02 0.761E+01 0.687E+03   -.558E-01 -.101E-02 -.360E+01
   -.269E-01 -.930E+01 -.688E+03   0.269E-01 0.930E+01 0.692E+03   -.384E-04 -.234E-02 -.358E+01
   -.976E+01 -.882E+01 0.707E+03   0.980E+01 0.883E+01 -.711E+03   -.559E-01 -.132E-01 0.339E+01
   -.245E-01 -.476E+01 0.707E+03   0.245E-01 0.476E+01 -.711E+03   -.445E-04 -.348E-02 0.338E+01
   -.941E+01 -.106E+02 -.688E+03   0.944E+01 0.106E+02 0.692E+03   -.416E-01 -.108E-01 -.357E+01
   -.135E-01 -.523E+01 -.691E+03   0.135E-01 0.524E+01 0.695E+03   -.282E-04 -.388E-02 -.356E+01
   -.526E+01 -.491E+01 0.703E+03   0.529E+01 0.492E+01 -.707E+03   -.335E-01 -.106E-01 0.339E+01
   -.146E-01 -.716E+01 0.704E+03   0.147E-01 0.716E+01 -.708E+03   -.377E-04 -.878E-02 0.339E+01
   -.248E-01 -.908E-02 0.601E+01   0.232E-11 0.119E-11 0.182E-11   0.194E-01 0.146E-01 -.329E+01

 POSITION                                       TOTAL-FORCE (eV/Angst)
      8.46109     11.89365     13.52833        -0.004130     -0.095723     -0.027698
      8.45935     10.56642     18.47179        -0.003190      0.001081     -0.125580
      8.45769     10.55816     15.88881         0.000873      0.000871     -0.050071
      8.45973      9.22287     13.52627        -0.002446      0.113305     -0.033024
      0.00000      0.00000      9.00000        -0.007261     -0.000073      0.541945
      2.11389      2.11389      9.00000        -0.015907     -0.006405      0.541364
      0.00000      2.11389     11.11389        -0.008463     -0.001235     -0.472926
      2.11389      0.00000     11.11389        -0.012138     -0.000108     -0.472386
      0.00000      4.22777      9.00000        -0.012252     -0.003283      0.542725
      2.11389      6.34166      9.00000        -0.038114     -0.008205      0.544149
      0.00000      6.34166     11.11389        -0.014140     -0.000320     -0.467869
      2.11389      4.22777     11.11389        -0.026561     -0.005895     -0.467931
      0.00000      8.45554      9.00000        -0.019090     -0.001269      0.544633
      2.11389     10.56943      9.00000        -0.047118      0.000050      0.547305
      0.00000     10.56943     11.11389        -0.014133      0.000058     -0.463528
      2.11389      8.45554     11.11389        -0.038973      0.000897     -0.453460
      0.00000     12.68331      9.00000        -0.019013      0.001281      0.544625
      2.11389     14.79720      9.00000        -0.037860      0.008196      0.544134
      0.00000     14.79720     11.11389        -0.014056      0.000300     -0.467888
      2.11389     12.68331     11.11389        -0.038837     -0.000781     -0.453552
      0.00000     16.91108      9.00000        -0.012171      0.003196      0.542727
      2.11389     19.02497      9.00000        -0.015825      0.006211      0.541377
      0.00000     19.02497     11.11389        -0.008416      0.001110     -0.472935
      2.11389     16.91108     11.11389        -0.026338      0.005790     -0.467959
      4.22777      0.00000      9.00000        -0.013835     -0.000155      0.541266
      6.34166      2.11389      9.00000        -0.012938     -0.026887      0.540244
      4.22777      2.11389     11.11389        -0.017929     -0.015751     -0.469423
      6.34166      0.00000     11.11389        -0.008867     -0.000220     -0.469838
      4.22777      4.22777      9.00000        -0.035244     -0.026711      0.536841
      6.34166      6.34166      9.00000        -0.070191     -0.069569      0.491815
      4.22777      6.34166     11.11389        -0.091761     -0.010708     -0.452648
      6.34166      4.22777     11.11389        -0.029354     -0.081619     -0.464776
      4.22777      8.45554      9.00000        -0.089970     -0.009611      0.545940
      6.34166     10.56943      9.00000        -0.116052      0.000682      0.500651
      4.22777     10.56943     11.11389        -0.083072      0.000089     -0.407690
      6.34166      8.45554     11.11389        -0.465730      0.014495     -0.494964
      4.22777     12.68331      9.00000        -0.089491      0.009940      0.545927
      6.34166     14.79720      9.00000        -0.069900      0.069329      0.492632
      4.22777     14.79720     11.11389        -0.090762      0.010830     -0.452819
      6.34166     12.68331     11.11389        -0.460610     -0.012995     -0.494304
      4.22777     16.91108      9.00000        -0.034975      0.026435      0.536929
      6.34166     19.02497      9.00000        -0.012862      0.026436      0.540275
      4.22777     19.02497     11.11389        -0.017817      0.015403     -0.469437
      6.34166     16.91108     11.11389        -0.029090      0.080598     -0.464777
      8.45554      0.00000      9.00000         0.000049     -0.000228      0.541073
     10.56943      2.11389      9.00000         0.012972     -0.026908      0.540249
      8.45554      2.11389     11.11389        -0.000013     -0.037015     -0.468068
     10.56943      0.00000     11.11389         0.008898     -0.000214     -0.469833
      8.45554      4.22777      9.00000         0.000009     -0.077705      0.533094
     10.56943      6.34166      9.00000         0.070195     -0.069547      0.491703
      8.45554      6.34166     11.11389        -0.000124     -0.424865     -0.554268
     10.56943      4.22777     11.11389         0.029372     -0.081764     -0.464766
      8.45554      8.45554      9.00000         0.000093     -0.038975      0.179268
     10.56943     10.56943      9.00000         0.116028      0.000718      0.500045
      8.45554     10.56943     11.11389        -0.002087     -0.002362     -0.723644
     10.56943      8.45554     11.11389         0.466750      0.013730     -0.496397
      8.45554     12.68331      9.00000         0.000134      0.038962      0.182262
     10.56943     14.79720      9.00000         0.069871      0.069274      0.492393
      8.45554     14.79720     11.11389        -0.000229      0.420361     -0.551081
     10.56943     12.68331     11.11389         0.461979     -0.012164     -0.496587
[...]
     19.02497      6.34166     11.11389         0.000021      0.000624      0.314614
     16.91108      6.34166      9.00000        -0.015589      0.003639     -0.387429
     19.02497      4.22777      9.00000         0.000020      0.002451     -0.386879
     16.91108      8.45554     11.11389        -0.015663      0.000208      0.309363
     19.02497     10.56943     11.11389         0.000018     -0.000076      0.311629
     16.91108     10.56943      9.00000        -0.018110     -0.000072     -0.388892
     19.02497      8.45554      9.00000         0.000017      0.000884     -0.387974
     16.91108     12.68331     11.11389        -0.015625     -0.000361      0.309398
     19.02497     14.79720     11.11389         0.000016     -0.000703      0.314634
     16.91108     14.79720      9.00000        -0.015521     -0.003723     -0.387428
     19.02497     12.68331      9.00000         0.000014     -0.001010     -0.387966
     16.91108     16.91108     11.11389        -0.011549     -0.003071      0.315916
     19.02497     19.02497     11.11389         0.000019     -0.001116      0.318700
     16.91108     19.02497      9.00000        -0.009269     -0.002973     -0.386421
     19.02497     16.91108      9.00000         0.000016     -0.002477     -0.386881
    total drift:                               -0.005343      0.005494      2.712795

  FREE ENERGIE OF THE ION-ELECTRON SYSTEM (eV)
  free  energy   TOTEN  =     -1642.40447937 eV

  energy  without entropy=    -1642.40447937  energy(sigma->0) =    -1642.40447937