 vasp.6.3.0 20Jan22 (build Apr  1 2022 16:44:48) complex
 executed on        HPECrayEX_GCC date 2023.01.09  22:51:20

 INCAR:
   SYSTEM = MgO-rocksalt
   ISMEAR = 0
   SIGMA = 0.05
   EDIFF = 1E-6
   ALGO = ALL
   ISTART = 0
   IBRION = -1
   NSW = 0
   ISYM = 2
   DIPOL = 0.5 0.5 0.5
   IDIPOL = 3
   LDIPOL = .TRUE.
   METAGGA = R2SCAN
   IVDW = 13
   VDW_S8 = 0.6019
   VDW_A1 = 0.5156
   VDW_A2 = 5.7734
   ENCUT = 520
   PREC = Accurate
   LASPH = .TRUE.
   LREAL = Auto
   ISPIN = 1
   NELM = 200
   NELMIN = 8
   NCORE = 4
   KPAR = 2
   LWAVE = .FALSE.
   LCHARG = .FALSE.

 POTCAR:    PAW_PBE Ag 02Apr2005
 POTCAR:    PAW_PBE Mg_pv 13Apr2007
 POTCAR:    PAW_PBE O 08Apr2002
 POTCAR:    PAW_PBE Ag 02Apr2005
   VRHFIN =Ag : s1 d10

   TITEL  = PAW_PBE Ag 02Apr2005
   POMASS =  107.868; ZVAL   =   11.000    mass and valenz
   ENMAX  =  249.844; ENMIN  =  187.383 eV

   TITEL  = PAW_PBE Mg_pv 13Apr2007
   POMASS =   24.305; ZVAL   =    8.000    mass and valenz
   ENMAX  =  403.929; ENMIN  =  302.947 eV

   TITEL  = PAW_PBE O 08Apr2002
   POMASS =   16.000; ZVAL   =    6.000    mass and valenz
   ENMAX  =  400.000; ENMIN  =  300.000 eV

 Optimization of the real space projectors (new method)

 maximal supplied QI-value         = 15.12
 optimisation between [QCUT,QGAM] = [ 11.64, 23.28] = [ 37.95,151.78] Ry
 Optimized for a Real-space Cutoff    1.45 Angstroem

   l    n(q)    QCUT    max X(q) W(low)/X(q) W(high)/X(q)  e(spline)
   2      9    11.641    53.897    0.22E-03    0.42E-04    0.28E-06
   2      9    11.641    52.416    0.23E-03    0.44E-04    0.29E-06
   0     10    11.641   122.045    0.51E-04    0.25E-04    0.16E-06
   0     10    11.641    73.629    0.49E-04    0.24E-04    0.16E-06
   1     10    11.641    15.255    0.99E-04    0.55E-04    0.11E-06
   1     10    11.641     9.562    0.81E-04    0.47E-04    0.95E-07
 Optimization of the real space projectors (new method)

[...]

   l    n(q)    QCUT    max X(q) W(low)/X(q) W(high)/X(q)  e(spline)
   1      8    11.527     2.974    0.44E-04    0.56E-04    0.12E-06
   1      8    11.527     4.279    0.12E-03    0.12E-03    0.26E-06
   0      9    11.527    16.381    0.46E-04    0.64E-04    0.78E-07
   0      9    11.527     5.611    0.26E-04    0.43E-04    0.55E-07
   2      8    11.527     4.652    0.22E-03    0.72E-04    0.47E-07
 Optimization of the real space projectors (new method)

 maximal supplied QI-value         = 24.76
 optimisation between [QCUT,QGAM] = [ 11.64, 23.27] = [ 37.91,151.63] Ry
 Optimized for a Real-space Cutoff    1.14 Angstroem

   l    n(q)    QCUT    max X(q) W(low)/X(q) W(high)/X(q)  e(spline)
   0      8    11.635    20.381    0.10E-03    0.33E-03    0.24E-06
   0      8    11.635    15.268    0.11E-03    0.35E-03    0.26E-06
   1      7    11.635     5.964    0.24E-03    0.31E-03    0.30E-06
   1      7    11.635     5.382    0.22E-03    0.25E-03    0.26E-06
  PAW_PBE Ag 02Apr2005                  :
  PAW_PBE Mg_pv 13Apr2007               :
  PAW_PBE O 08Apr2002                   :

 POSCAR: Ag Mg  O
  positions in direct lattice
  velocities in cartesian coordinates

 METAGGA = R2SCA    LMAXTAU =  6    LMIXTAU =  F

 WARNING: Using user supplied parameters
     VDW_S8 = 0.602
     VDW_A1 = 0.516
     VDW_A2 = 5.773
     because the xc functional is not supported. Required parameters not
     defined in the INCAR file will be replaced with PBE defaults ones.

 ion  position               nearest neighbor table
   1  0.400  0.429  0.610- 153 2.46   2 2.60  55 2.82   4 3.42
   2  0.400  0.512  0.697-   1 2.60   4 2.64   3 2.77
   3  0.401  0.641  0.713-   4 2.63   2 2.77
   4  0.400  0.590  0.604- 157 2.26   3 2.63   2 2.64  55 2.95   1 3.42
   5  0.000  0.000  0.407- 107 2.11 108 2.11 123 2.11 188 2.11 105 2.11
   6  0.100  0.100  0.407- 107 2.11 108 2.11 112 2.11 127 2.11 106 2.11
   7  0.000  0.100  0.503- 105 2.11 106 2.11 109 2.11 186 2.11 107 2.11
   8  0.100  0.000  0.503- 105 2.11 106 2.11 122 2.11 125 2.11 108 2.11
   9  0.000  0.200  0.407- 111 2.11 107 2.11 112 2.11 192 2.11 109 2.11
  10  0.100  0.300  0.407- 112 2.11 111 2.11 116 2.11 131 2.11 110 2.11
  11  0.000  0.300  0.503- 109 2.11 110 2.11 113 2.11 190 2.11 111 2.11
  12  0.100  0.200  0.503- 110 2.11 109 2.11 106 2.11 129 2.11 112 2.11
  13  0.000  0.400  0.407- 111 2.11 115 2.11 116 2.11 196 2.11 113 2.11
  14  0.100  0.500  0.407- 115 2.11 116 2.11 120 2.11 135 2.11 114 2.11
  15  0.000  0.500  0.503- 113 2.11 114 2.11 117 2.11 194 2.11 115 2.11
  16  0.100  0.400  0.503- 110 2.11 113 2.11 114 2.11 133 2.11 116 2.11
  17  0.000  0.600  0.407- 115 2.11 119 2.11 120 2.11 200 2.11 117 2.11
  18  0.100  0.700  0.407- 124 2.11 120 2.11 119 2.11 139 2.11 118 2.11
  19  0.000  0.700  0.503- 121 2.11 118 2.11 117 2.11 198 2.11 119 2.11
  20  0.100  0.600  0.503- 114 2.11 117 2.11 118 2.11 137 2.11 120 2.11
  21  0.000  0.800  0.407- 119 2.11 123 2.11 124 2.11 204 2.11 121 2.11
  22  0.100  0.900  0.407- 108 2.11 123 2.11 124 2.11 143 2.11 122 2.11
  23  0.000  0.900  0.503- 105 2.11 121 2.11 122 2.11 202 2.11 123 2.11
  24  0.100  0.800  0.503- 118 2.11 121 2.11 122 2.11 141 2.11 124 2.11
  25  0.200  0.000  0.407- 128 2.11 127 2.11 108 2.11 143 2.11 125 2.11
  26  0.300  0.100  0.407- 127 2.11 128 2.11 132 2.11 147 2.11 126 2.11
  27  0.200  0.100  0.503- 126 2.11 125 2.11 106 2.11 129 2.11 127 2.11
  28  0.300  0.000  0.503- 125 2.11 126 2.11 142 2.11 145 2.11 128 2.11
  29  0.200  0.200  0.407- 131 2.11 132 2.11 112 2.11 127 2.11 129 2.11
  30  0.300  0.300  0.407- 131 2.11 132 2.11 136 2.11 151 2.11 130 2.11
  31  0.200  0.300  0.503- 129 2.11 130 2.11 110 2.11 133 2.11 131 2.11
  32  0.300  0.200  0.503- 129 2.11 130 2.11 126 2.11 149 2.11 132 2.11
  33  0.200  0.400  0.407- 136 2.11 131 2.11 135 2.11 116 2.11 133 2.11
  34  0.300  0.500  0.407- 135 2.11 136 2.11 140 2.11 155 2.11 134 2.11
  35  0.200  0.500  0.503- 134 2.11 133 2.11 114 2.11 137 2.11 135 2.11
  36  0.300  0.400  0.503- 133 2.11 130 2.11 134 2.11 153 2.11 136 2.11
  37  0.200  0.600  0.407- 140 2.11 135 2.11 139 2.11 120 2.11 137 2.11
  38  0.300  0.700  0.407- 139 2.11 144 2.11 140 2.11 159 2.11 138 2.11
  39  0.200  0.700  0.503- 138 2.11 141 2.11 118 2.11 137 2.11 139 2.11
  40  0.300  0.600  0.503- 137 2.11 134 2.11 138 2.11 157 2.11 140 2.11
  41  0.200  0.800  0.407- 139 2.11 144 2.11 143 2.11 124 2.11 141 2.11
  42  0.300  0.900  0.407- 143 2.11 128 2.11 144 2.11 163 2.11 142 2.11
  43  0.200  0.900  0.503- 142 2.11 125 2.11 141 2.11 122 2.11 143 2.11
  44  0.300  0.800  0.503- 138 2.11 141 2.11 142 2.11 161 2.11 144 2.11
  45  0.400  0.000  0.407- 128 2.11 147 2.11 148 2.11 163 2.11 145 2.11
  46  0.500  0.100  0.407- 147 2.11 148 2.11 152 2.11 167 2.11 146 2.11
  47  0.400  0.100  0.503- 126 2.11 145 2.11 146 2.11 149 2.11 147 2.11
  48  0.500  0.000  0.503- 145 2.11 146 2.11 162 2.11 165 2.11 148 2.11
  49  0.400  0.200  0.407- 151 2.11 147 2.11 132 2.11 152 2.11 149 2.11
  50  0.500  0.300  0.407- 152 2.11 151 2.11 156 2.11 171 2.11 150 2.11
  51  0.400  0.300  0.503- 149 2.11 130 2.11 150 2.11 153 2.11 151 2.11
  52  0.500  0.200  0.503- 150 2.11 149 2.11 146 2.11 169 2.11 152 2.11
  53  0.400  0.400  0.407- 136 2.11 151 2.11 155 2.11 156 2.11 153 2.11
  54  0.500  0.500  0.407- 155 2.11 156 2.11 160 2.11 175 2.11 154 2.11
  55  0.400  0.500  0.503- 134 2.11 153 2.11 154 2.11 157 2.11 155 2.11   1 2.82   4 2.95
  56  0.500  0.400  0.503- 150 2.11 153 2.11 154 2.11 173 2.11 156 2.11
  57  0.400  0.600  0.407- 140 2.11 155 2.11 159 2.11 160 2.11 157 2.11
  58  0.500  0.700  0.407- 164 2.11 160 2.11 159 2.11 179 2.11 158 2.11
  59  0.400  0.700  0.503- 161 2.11 157 2.11 158 2.11 138 2.11 159 2.11
  60  0.500  0.600  0.503- 154 2.11 157 2.11 158 2.11 177 2.11 160 2.11
[...]
 190  0.900  0.300  0.503-  92 2.11  91 2.11  11 2.11  96 2.11  90 2.11
 191  0.800  0.300  0.407-  70 2.11  89 2.11  90 2.11  93 2.11  91 2.11
 192  0.900  0.200  0.407-  90 2.11  86 2.11  89 2.11   9 2.11  92 2.11
 193  0.800  0.400  0.503-  76 2.11  91 2.11  95 2.11  96 2.11  93 2.11
 194  0.900  0.500  0.503-  15 2.11  95 2.11  96 2.11 100 2.11  94 2.11
 195  0.800  0.500  0.407-  74 2.11  93 2.11  94 2.11  97 2.11  95 2.11
 196  0.900  0.400  0.407-  13 2.11  90 2.11  93 2.11  94 2.11  96 2.11
 197  0.800  0.600  0.503-  80 2.11  95 2.11  99 2.11 100 2.11  97 2.11
 198  0.900  0.700  0.503- 104 2.11  99 2.11 100 2.11  19 2.11  98 2.11
 199  0.800  0.700  0.407-  78 2.11 101 2.11  98 2.11  97 2.11  99 2.11
 200  0.900  0.600  0.407-  17 2.11  94 2.11  97 2.11  98 2.11 100 2.11
 201  0.800  0.800  0.503-  84 2.11  99 2.11 103 2.11 104 2.11 101 2.11
 202  0.900  0.900  0.503-  23 2.11  88 2.11 103 2.11 104 2.11 102 2.11
 203  0.800  0.900  0.407-  82 2.11  85 2.11 101 2.11 102 2.11 103 2.11
 204  0.900  0.800  0.407-  98 2.11  21 2.11 101 2.11 102 2.11 104 2.11

  LATTYP: Found a simple tetragonal cell.
 ALAT       =    21.1388521970
 C/A-ratio  =     1.0461251639

  Lattice vectors:

 A1 = (  21.1388521970,   0.0000000000,   0.0000000000)
 A2 = (   0.0000000000,  21.1388521970,   0.0000000000)
 A3 = (   0.0000000000,   0.0000000000,  22.1138852197)

Analysis of symmetry for initial positions (statically):
 Subroutine PRICEL returns:
 Original cell was already a primitive cell.

 Routine SETGRP: Setting up the symmetry group for a
 simple tetragonal supercell.

 Subroutine GETGRP returns: Found  1 space group operations
 (whereof  1 operations were pure point group operations)
 out of a pool of 16 trial point group operations.

The static configuration has the point symmetry C_1 .

Analysis of symmetry for dynamics (positions and initial velocities):
 Subroutine PRICEL returns:
 Original cell was already a primitive cell.

[...]

The dynamic configuration has the point symmetry C_1 .

Analysis of constrained symmetry for selective dynamics:
 Subroutine PRICEL returns:
 Original cell was already a primitive cell.

 Routine SETGRP: Setting up the symmetry group for a
 simple tetragonal supercell.

 Subroutine GETGRP returns: Found  1 space group operations
 (whereof  1 operations were pure point group operations)
 out of a pool of 16 trial point group operations.

The constrained configuration has the point symmetry C_1 .

 Subroutine INISYM returns: Found  1 space group operations
 (whereof  1 operations are pure point group operations),
 and found     1 'primitive' translations

                                     Primitive cell

  volume of cell :    9881.6133

  direct lattice vectors                    reciprocal lattice vectors
    21.138852197  0.000000000  0.000000000     0.047306258  0.000000000  0.000000000
     0.000000000 21.138852197  0.000000000     0.000000000  0.047306258  0.000000000
     0.000000000  0.000000000 22.113885220     0.000000000  0.000000000  0.045220457

  length of vectors
    21.138852197 21.138852197 22.113885220     0.047306258  0.047306258  0.045220457

  position of ions in fractional coordinates (direct lattice)
     0.400075541  0.428539559  0.610367047
     0.400239325  0.511504721  0.697317580
     0.400574317  0.641329452  0.712924298
     0.400203530  0.589975707  0.604409927
     0.000000000  0.000000000  0.406984115
[...]
     54     -44.4263      2.00000
     55     -44.4261      2.00000
     56     -44.4257      2.00000
     57     -44.4236      2.00000
     58     -44.4228      2.00000
     59     -44.4224      2.00000
     60     -44.4223      2.00000
[...]
    946       6.5986      0.00000
    947       6.6269      0.00000
    948       6.6874      0.00000
    949       6.7100      0.00000
    950       6.8390      0.00000
    951       6.8493      0.00000
    952       6.9152      0.00000
    953       6.9551      0.00000
    954       7.0966      0.00000
    955       7.1009      0.00000
    956       7.2611      0.00000
    957       7.2746      0.00000
    958       7.3758      0.00000
    959       7.4200      0.00000
    960       7.5766      0.00000

 soft charge-density along one line, spin component           1
         0         1         2         3         4         5         6         7         8         9
 total charge-density along one line

------------------------ aborting loop because EDIFF is reached ----------------------------------------

  FORCE on cell =-STRESS in cart. coord.  units (eV):
  Direction    XX          YY          ZZ          XY          YZ          ZX
  Alpha Z  1401.13727  1401.13727  1401.13727
  Ewald  477666.07547479799.93693************     3.84227   439.22239     3.11972
  Hartree507498.57127509236.90074************     3.08815   356.28955     2.36393
  E(xc)   -8526.07075 -8525.29115 -8525.65765     0.00160     0.27649     0.00207
  Local  ************************************    -6.91349  -794.14526    -5.45401
  n-local -8719.96959 -8721.12743 -8848.59378    -0.00032    -0.15844    -0.00895
  augment  4077.68309  4075.44436  4016.69070    -0.00476    -0.36594    -0.00363
  Kinetic 23292.92770 23285.96841 23507.35010    -0.01181    -1.21153    -0.02550
  Fock        0.00000     0.00000     0.00000     0.00000     0.00000     0.00000
  vdW        -8.08082    -8.09129    -2.16502    -0.00002    -0.00419    -0.00002
  Total    -228.95082  -229.82469   -19.75811     0.00163    -0.09692    -0.00639
  in kB     -37.12145   -37.26314    -3.20352     0.00026    -0.01571    -0.00104

 VOLUME and BASIS-vectors are now :
  energy-cutoff  :      520.00
  volume of cell :     9881.61
      direct lattice vectors                 reciprocal lattice vectors
    21.138852197  0.000000000  0.000000000     0.047306258  0.000000000  0.000000000
     0.000000000 21.138852197  0.000000000     0.000000000  0.047306258  0.000000000
     0.000000000  0.000000000 22.113885220     0.000000000  0.000000000  0.045220457

  length of vectors
    21.138852197 21.138852197 22.113885220     0.047306258  0.047306258  0.045220457

 FORCES acting on ions:
    Electron-Ion                     Ewald-Force                    Non-Local-Force
   0.593E+00 0.381E+03 -.193E+04   -.587E+00 -.376E+03 0.193E+04   -.644E-02 -.486E+01 -.466E+01
   0.160E+00 0.207E+03 -.197E+04   -.167E+00 -.207E+03 0.196E+04   0.598E-02 0.425E+00 0.723E+01
   -.148E+01 -.389E+03 -.180E+04   0.146E+01 0.384E+03 0.179E+04   0.221E-01 0.509E+01 0.551E+01
   0.689E+00 -.198E+03 -.175E+04   -.677E+00 0.199E+03 0.176E+04   -.131E-01 -.601E+00 -.426E+01
   0.711E+01 -.266E+01 0.937E+03   -.712E+01 0.267E+01 -.929E+03   0.121E-01 -.633E-02 -.756E+01
   0.128E+02 0.613E+01 0.940E+03   -.128E+02 -.614E+01 -.932E+03   0.244E-01 0.864E-02 -.756E+01
   0.932E+01 0.530E+01 -.918E+03   -.933E+01 -.530E+01 0.910E+03   0.948E-02 -.165E-02 0.754E+01
   0.155E+02 -.503E+01 -.916E+03   -.155E+02 0.504E+01 0.908E+03   0.127E-01 -.809E-02 0.754E+01
   0.955E+01 0.984E+01 0.939E+03   -.957E+01 -.985E+01 -.931E+03   0.211E-01 0.847E-02 -.756E+01
   0.248E+02 0.182E+02 0.950E+03   -.249E+02 -.183E+02 -.942E+03   0.811E-01 0.297E-01 -.758E+01
   0.181E+02 0.157E+02 -.913E+03   -.181E+02 -.157E+02 0.905E+03   0.156E-01 0.473E-02 0.753E+01
   0.235E+02 0.199E+02 -.912E+03   -.235E+02 -.199E+02 0.904E+03   0.325E-01 0.551E-02 0.753E+01
   0.168E+02 0.959E+01 0.945E+03   -.169E+02 -.960E+01 -.937E+03   0.438E-01 0.128E-01 -.757E+01
   0.383E+02 0.456E+01 0.962E+03   -.385E+02 -.459E+01 -.954E+03   0.150E+00 0.182E-01 -.760E+01
   0.281E+02 0.416E+01 -.907E+03   -.281E+02 -.417E+01 0.900E+03   0.248E-01 0.716E-02 0.753E+01
   0.527E+02 0.223E+02 -.897E+03   -.527E+02 -.223E+02 0.889E+03   0.508E-01 0.129E-01 0.750E+01
   0.186E+02 -.489E+01 0.947E+03   -.186E+02 0.489E+01 -.939E+03   0.580E-01 -.336E-03 -.757E+01
   0.302E+02 -.166E+02 0.955E+03   -.304E+02 0.166E+02 -.947E+03   0.124E+00 -.287E-01 -.759E+01
   0.226E+02 -.139E+02 -.910E+03   -.226E+02 0.140E+02 0.902E+03   0.286E-01 -.242E-02 0.753E+01
   0.606E+02 -.119E+02 -.891E+03   -.608E+02 0.119E+02 0.884E+03   0.103E+00 0.695E-02 0.750E+01
   0.118E+02 -.119E+02 0.941E+03   -.118E+02 0.119E+02 -.933E+03   0.317E-01 -.145E-01 -.756E+01
   0.152E+02 -.124E+02 0.942E+03   -.152E+02 0.124E+02 -.934E+03   0.330E-01 -.279E-01 -.756E+01
   0.114E+02 -.112E+02 -.916E+03   -.114E+02 0.112E+02 0.908E+03   0.129E-01 -.789E-02 0.754E+01
   0.319E+02 -.252E+02 -.906E+03   -.319E+02 0.253E+02 0.898E+03   0.502E-01 -.173E-01 0.753E+01
   0.130E+02 -.503E+01 0.943E+03   -.130E+02 0.505E+01 -.935E+03   0.209E-01 -.154E-01 -.756E+01
   0.924E+01 0.123E+02 0.948E+03   -.927E+01 -.124E+02 -.940E+03   0.190E-01 0.529E-01 -.757E+01
   0.184E+02 0.130E+02 -.911E+03   -.184E+02 -.130E+02 0.904E+03   0.175E-01 0.176E-01 0.753E+01
   0.114E+02 -.101E+02 -.908E+03   -.114E+02 0.101E+02 0.900E+03   0.737E-02 -.715E-02 0.753E+01
   0.199E+02 0.221E+02 0.951E+03   -.200E+02 -.222E+02 -.943E+03   0.631E-01 0.626E-01 -.757E+01
   0.251E+02 0.442E+02 0.984E+03   -.254E+02 -.445E+02 -.976E+03   0.158E+00 0.222E+00 -.757E+01
   0.539E+02 0.495E+02 -.887E+03   -.541E+02 -.495E+02 0.879E+03   0.150E+00 0.137E-01 0.748E+01
   0.231E+02 0.522E+02 -.894E+03   -.231E+02 -.523E+02 0.886E+03   0.276E-01 0.139E+00 0.750E+01
   0.454E+02 0.249E+02 0.981E+03   -.457E+02 -.250E+02 -.973E+03   0.273E+00 0.807E-01 -.766E+01
   0.487E+02 0.112E+02 0.104E+04   -.492E+02 -.113E+02 -.103E+04   0.377E+00 0.118E+00 -.761E+01
   0.110E+03 0.140E+02 -.846E+03   -.111E+03 -.141E+02 0.838E+03   0.286E+00 0.471E-01 0.741E+01
   0.118E+03 0.915E+02 -.770E+03   -.120E+03 -.917E+02 0.763E+03   0.106E+01 0.149E+00 0.704E+01
   0.514E+02 -.143E+02 0.989E+03   -.519E+02 0.144E+02 -.981E+03   0.397E+00 -.262E-01 -.767E+01
   0.327E+02 -.435E+02 0.100E+04   -.330E+02 0.439E+02 -.996E+03   0.266E+00 -.290E+00 -.755E+01
   0.739E+02 -.493E+02 -.869E+03   -.742E+02 0.493E+02 0.861E+03   0.261E+00 -.330E-01 0.747E+01
   0.146E+03 -.566E+02 -.728E+03   -.149E+03 0.566E+02 0.720E+03   0.201E+01 -.546E-01 0.733E+01
   0.261E+02 -.276E+02 0.959E+03   -.262E+02 0.278E+02 -.951E+03   0.978E-01 -.101E+00 -.758E+01
   0.116E+02 -.244E+02 0.954E+03   -.116E+02 0.245E+02 -.946E+03   0.233E-01 -.110E+00 -.759E+01
   0.242E+02 -.275E+02 -.906E+03   -.242E+02 0.276E+02 0.898E+03   0.152E-01 -.455E-01 0.753E+01
   0.359E+02 -.731E+02 -.871E+03   -.359E+02 0.734E+02 0.863E+03   0.226E-02 -.265E+00 0.745E+01
   0.249E-01 -.703E+01 0.948E+03   -.247E-01 0.705E+01 -.940E+03   -.133E-03 -.204E-01 -.757E+01
   -.921E+01 0.123E+02 0.948E+03   0.924E+01 -.124E+02 -.940E+03   -.191E-01 0.529E-01 -.757E+01
   0.304E-01 0.213E+02 -.906E+03   -.303E-01 -.214E+02 0.898E+03   -.950E-04 0.483E-01 0.753E+01
   -.114E+02 -.102E+02 -.908E+03   0.114E+02 0.102E+02 0.900E+03   -.756E-02 -.700E-02 0.753E+01
   0.300E-01 0.351E+02 0.963E+03   -.299E-01 -.354E+02 -.955E+03   -.130E-03 0.225E+00 -.761E+01
   -.251E+02 0.443E+02 0.984E+03   0.253E+02 -.446E+02 -.976E+03   -.158E+00 0.222E+00 -.757E+01
   0.107E+00 0.125E+03 -.825E+03   -.107E+00 -.126E+03 0.817E+03   -.351E-03 0.107E+01 0.745E+01
   -.230E+02 0.522E+02 -.894E+03   0.230E+02 -.524E+02 0.886E+03   -.279E-01 0.139E+00 0.750E+01
   0.862E-01 0.466E+02 0.104E+04   -.858E-01 -.471E+02 -.103E+04   -.290E-03 0.328E+00 -.646E+01
   -.485E+02 0.112E+02 0.104E+04   0.490E+02 -.114E+02 -.103E+04   -.378E+00 0.118E+00 -.761E+01
   0.463E+00 0.320E+02 -.582E+03   -.463E+00 -.334E+02 0.577E+03   -.447E-03 0.108E+01 0.547E+01
   -.118E+03 0.918E+02 -.770E+03   0.120E+03 -.919E+02 0.762E+03   -.106E+01 0.149E+00 0.703E+01
   0.139E+00 -.290E+02 0.106E+04   -.137E+00 0.291E+02 -.106E+04   -.101E-02 -.136E+00 -.540E+01
   -.325E+02 -.436E+02 0.100E+04   0.329E+02 0.440E+02 -.996E+03   -.266E+00 -.290E+00 -.755E+01
   0.331E+00 -.146E+03 -.756E+03   -.328E+00 0.148E+03 0.748E+03   -.173E-02 -.197E+01 0.714E+01
   -.146E+03 -.566E+02 -.727E+03   0.149E+03 0.567E+02 0.719E+03   -.201E+01 -.561E-01 0.732E+01
[...]
   -.986E+01 0.905E+01 0.708E+03   0.988E+01 -.906E+01 -.712E+03   -.277E-01 0.155E-01 0.341E+01
   -.162E-01 0.628E+01 0.705E+03   0.161E-01 -.628E+01 -.708E+03   0.110E-03 0.672E-02 0.342E+01
   -.183E+02 0.959E+01 -.684E+03   0.183E+02 -.960E+01 0.688E+03   -.223E-01 0.994E-02 -.355E+01
   -.495E-01 0.250E+01 -.685E+03   0.493E-01 -.250E+01 0.689E+03   0.275E-03 0.701E-02 -.354E+01
   -.144E+02 0.228E+01 0.712E+03   0.144E+02 -.228E+01 -.716E+03   -.431E-01 0.112E-01 0.340E+01
   -.282E-01 0.600E+01 0.708E+03   0.281E-01 -.601E+01 -.712E+03   0.196E-03 0.111E-01 0.341E+01
   -.207E+02 -.480E+01 -.682E+03   0.207E+02 0.480E+01 0.686E+03   -.309E-01 0.374E-02 -.355E+01
   -.472E-01 -.830E+01 -.687E+03   0.470E-01 0.830E+01 0.690E+03   0.281E-03 -.298E-02 -.353E+01
   -.118E+02 -.796E+01 0.710E+03   0.118E+02 0.797E+01 -.714E+03   -.399E-01 -.139E-01 0.341E+01
   -.356E-01 -.299E+01 0.709E+03   0.354E-01 0.299E+01 -.713E+03   0.262E-03 0.361E-03 0.341E+01
   -.123E+02 -.116E+02 -.687E+03   0.123E+02 0.116E+02 0.691E+03   -.216E-01 -.118E-01 -.353E+01
   -.260E-01 -.701E+01 -.690E+03   0.259E-01 0.702E+01 0.694E+03   0.161E-03 -.799E-02 -.352E+01
   -.654E+01 -.655E+01 0.705E+03   0.655E+01 0.656E+01 -.709E+03   -.193E-01 -.158E-01 0.342E+01
   -.259E-01 -.754E+01 0.706E+03   0.257E-01 0.755E+01 -.710E+03   0.200E-03 -.123E-01 0.342E+01
   -.271E-01 -.115E+00 0.270E+01   0.702E-12 0.682E-12 0.200E-10   0.236E-01 0.106E+00 -.308E-01

 POSITION                                       TOTAL-FORCE (eV/Angst)
      8.45714      9.05883     13.49759        -0.000277      0.065480     -0.034228
      8.46060     10.81262     15.42040         0.000004      0.047087     -0.127665
      8.46768     13.55697     15.76553        -0.004977     -0.092856     -0.106587
      8.45984     12.47141     13.36585        -0.000497     -0.016644      0.069743
      0.00000      0.00000      9.00000        -0.003389      0.001837      0.526873
      2.11389      2.11389      9.00000        -0.006868     -0.002419      0.527843
      0.00000      2.11389     11.11389        -0.002576      0.000517     -0.477948
      2.11389      0.00000     11.11389        -0.003536      0.002240     -0.476341
      0.00000      4.22777      9.00000        -0.005705     -0.002320      0.528040
      2.11389      6.34166      9.00000        -0.021701     -0.008197      0.533425
      0.00000      6.34166     11.11389        -0.003632     -0.001133     -0.473661
      2.11389      4.22777     11.11389        -0.008267     -0.001161     -0.471771
      0.00000      8.45554      9.00000        -0.011780     -0.003557      0.530523
      2.11389     10.56943      9.00000        -0.040229     -0.005460      0.538539
      0.00000     10.56943     11.11389        -0.005622     -0.002125     -0.469848
      2.11389      8.45554     11.11389        -0.010054     -0.002992     -0.456053
      0.00000     12.68331      9.00000        -0.015408      0.000128      0.531004
      2.11389     14.79720      9.00000        -0.033305      0.008388      0.534367
      0.00000     14.79720     11.11389        -0.007019      0.000627     -0.472488
      2.11389     12.68331     11.11389        -0.023163     -0.002593     -0.454372
      0.00000     16.91108      9.00000        -0.008622      0.004203      0.528416
      2.11389     19.02497      9.00000        -0.009331      0.007922      0.528257
      0.00000     19.02497     11.11389        -0.003490      0.002263     -0.477250
      2.11389     16.91108     11.11389        -0.012616      0.004674     -0.468516
      4.22777      0.00000      9.00000        -0.005953      0.004217      0.529157
      6.34166      2.11389      9.00000        -0.005544     -0.014101      0.531132
      4.22777      2.11389     11.11389        -0.004841     -0.004225     -0.472144
      6.34166      0.00000     11.11389        -0.002023      0.001627     -0.470619
      4.22777      4.22777      9.00000        -0.018193     -0.017841      0.530565
      6.34166      6.34166      9.00000        -0.051734     -0.067343      0.517806
      4.22777      6.34166     11.11389        -0.035361      0.001064     -0.437714
      6.34166      4.22777     11.11389        -0.007395     -0.034339     -0.451416
      4.22777      8.45554      9.00000        -0.071784     -0.022486      0.549446
      6.34166     10.56943      9.00000        -0.124760     -0.038987      0.499939
      4.22777     10.56943     11.11389        -0.066061     -0.015809     -0.388988
      6.34166      8.45554     11.11389        -0.371480     -0.024043     -0.334021
      4.22777     12.68331      9.00000        -0.101979      0.006735      0.549551
      6.34166     14.79720      9.00000        -0.087007      0.093474      0.504203
      4.22777     14.79720     11.11389        -0.062700      0.006782     -0.424914
      6.34166     12.68331     11.11389        -0.711559      0.018637     -0.499216
      4.22777     16.91108      9.00000        -0.028451      0.029216      0.531859
      6.34166     19.02497      9.00000        -0.006710      0.029215      0.535334
      4.22777     19.02497     11.11389        -0.004025      0.011303     -0.468016
      6.34166     16.91108     11.11389         0.003898      0.061623     -0.417420
      8.45554      0.00000      9.00000         0.000027      0.005558      0.531191
     10.56943      2.11389      9.00000         0.005618     -0.014096      0.531108
      8.45554      2.11389     11.11389         0.000058     -0.011360     -0.466943
     10.56943      0.00000     11.11389         0.002110      0.001591     -0.470614
      8.45554      4.22777      9.00000         0.000040     -0.057822      0.537339
     10.56943      6.34166      9.00000         0.051832     -0.067305      0.517854
      8.45554      6.34166     11.11389         0.000145     -0.342583     -0.431389
     10.56943      4.22777     11.11389         0.007488     -0.034258     -0.451381
      8.45554      8.45554      9.00000         0.000107     -0.076141      0.260990
     10.56943     10.56943      9.00000         0.124909     -0.038835      0.499862
      8.45554     10.56943     11.11389        -0.000391     -0.309213     -0.455530
     10.56943      8.45554     11.11389         0.372087     -0.024116     -0.333811
      8.45554     12.68331      9.00000         0.000345      0.027937      0.034045
     10.56943     14.79720      9.00000         0.087222      0.093387      0.504466
      8.45554     14.79720     11.11389         0.000586      0.658550     -0.355683
     10.56943     12.68331     11.11389         0.714123      0.019489     -0.500185
[...]
     19.02497      6.34166     11.11389         0.000063      0.001513      0.325186
     16.91108      6.34166      9.00000        -0.007691      0.004362     -0.377737
     19.02497      4.22777      9.00000         0.000047      0.001921     -0.375695
     16.91108      8.45554     11.11389        -0.006285      0.002805      0.319721
     19.02497     10.56943     11.11389         0.000092      0.001983      0.322548
     16.91108     10.56943      9.00000        -0.011933      0.003119     -0.379810
     19.02497      8.45554      9.00000         0.000072      0.003108     -0.377435
     16.91108     12.68331     11.11389        -0.008682      0.001052      0.318763
     19.02497     14.79720     11.11389         0.000097     -0.000795      0.324261
     16.91108     14.79720      9.00000        -0.011042     -0.003814     -0.378154
     19.02497     12.68331      9.00000         0.000091      0.000123     -0.377577
     16.91108     16.91108     11.11389        -0.006013     -0.003243      0.324256
     19.02497     19.02497     11.11389         0.000062     -0.002178      0.327730
     16.91108     19.02497      9.00000        -0.005309     -0.004325     -0.375676
     19.02497     16.91108      9.00000         0.000073     -0.003363     -0.375963
    total drift:                               -0.003478     -0.008642      2.672425

  FREE ENERGIE OF THE ION-ELECTRON SYSTEM (eV)
  free  energy   TOTEN  =     -1637.03373738 eV

  energy  without entropy=    -1637.03373738  energy(sigma->0) =    -1637.03373738