 vasp.6.3.0 20Jan22 (build Apr  1 2022 16:44:48) complex
 executed on        HPECrayEX_GCC date 2023.01.09  20:42:43

 INCAR:
   SYSTEM = MgO-rocksalt
   ISMEAR = 0
   SIGMA = 0.05
   EDIFF = 1E-6
   ALGO = ALL
   ISTART = 0
   IBRION = -1
   NSW = 0
   ISYM = 2
   DIPOL = 0.5 0.5 0.5
   IDIPOL = 3
   LDIPOL = .TRUE.
   GGA = MK
   LUSE_VDW = .TRUE.
   PARAM1 = 0.1234
   PARAM2 = 0.711357
   ZAB_VDW = -1.8867
   AGGAC = 0.0
   ENCUT = 520
   PREC = Accurate
   LASPH = .TRUE.
   LREAL = Auto
   ISPIN = 1
   NELM = 200
   NELMIN = 8
   NCORE = 4
   KPAR = 2
   LWAVE = .FALSE.
   LCHARG = .FALSE.

 POTCAR:    PAW_PBE Au 04Oct2007
 POTCAR:    PAW_PBE Mg_pv 13Apr2007
 POTCAR:    PAW_PBE O 08Apr2002
|               ----> ADVICE to this user running VASP <----                  |
|     You have switched on vdW-DFT.                                           |
|     This routine was written and supplied by Jiri Klimes. We recommend      |
|     that you carefully read and cite the following publications:            |
|       J. Klimes, D.R. Bowler, A. Michelides                                 |
|          J. Phys.: Cond Matt. 22 022201 (2010)                              |
|       J. Klimes, D.R. Bowler, A. Michelides                                 |
|          Phys. Rev. B. 83, 195131 (2011)                                    |
|     and references therein.                                                 |

   TITEL  = PAW_PBE Au 04Oct2007
   POMASS =  196.966; ZVAL   =   11.000    mass and valenz
   ENMAX  =  229.943; ENMIN  =  172.457 eV

   TITEL  = PAW_PBE Mg_pv 13Apr2007
   POMASS =   24.305; ZVAL   =    8.000    mass and valenz
   ENMAX  =  403.929; ENMIN  =  302.947 eV

   TITEL  = PAW_PBE O 08Apr2002
   POMASS =   16.000; ZVAL   =    6.000    mass and valenz
   ENMAX  =  400.000; ENMIN  =  300.000 eV

 Optimization of the real space projectors (new method)

 maximal supplied QI-value         = 15.12
 optimisation between [QCUT,QGAM] = [ 11.64, 23.28] = [ 37.95,151.78] Ry
 Optimized for a Real-space Cutoff    1.49 Angstroem

   l    n(q)    QCUT    max X(q) W(low)/X(q) W(high)/X(q)  e(spline)
   2      9    11.641    60.898    0.24E-03    0.10E-03    0.19E-06
   2      9    11.641    58.894    0.25E-03    0.10E-03    0.19E-06
   0     10    11.641   109.617    0.73E-04    0.33E-04    0.11E-06
   0     10    11.641    75.026    0.71E-04    0.32E-04    0.11E-06
   1     10    11.641    16.344    0.27E-04    0.97E-04    0.16E-06
   1     10    11.641    10.160    0.23E-04    0.77E-04    0.13E-06
 Optimization of the real space projectors (new method)

[...]

   l    n(q)    QCUT    max X(q) W(low)/X(q) W(high)/X(q)  e(spline)
   1      8    11.527     2.974    0.44E-04    0.56E-04    0.12E-06
   1      8    11.527     4.279    0.12E-03    0.12E-03    0.26E-06
   0      9    11.527    16.381    0.46E-04    0.64E-04    0.78E-07
   0      9    11.527     5.611    0.26E-04    0.43E-04    0.55E-07
   2      8    11.527     4.652    0.22E-03    0.72E-04    0.47E-07
 Optimization of the real space projectors (new method)

 maximal supplied QI-value         = 24.76
 optimisation between [QCUT,QGAM] = [ 11.64, 23.27] = [ 37.91,151.63] Ry
 Optimized for a Real-space Cutoff    1.14 Angstroem

   l    n(q)    QCUT    max X(q) W(low)/X(q) W(high)/X(q)  e(spline)
   0      8    11.635    20.381    0.10E-03    0.33E-03    0.24E-06
   0      8    11.635    15.268    0.11E-03    0.35E-03    0.26E-06
   1      7    11.635     5.964    0.24E-03    0.31E-03    0.30E-06
   1      7    11.635     5.382    0.22E-03    0.25E-03    0.26E-06
|               ----> ADVICE to this user running VASP <----                  |
|     You enforced a specific xc type in the INCAR file but a different       |
|     type was found in the POTCAR file.                                      |
|     I HOPE YOU KNOW WHAT YOU ARE DOING!                                     |

  PAW_PBE Au 04Oct2007                  :
  PAW_PBE Mg_pv 13Apr2007               :
  PAW_PBE O 08Apr2002                   :

 POSCAR: Au Mg  O
  positions in direct lattice
  velocities in cartesian coordinates
 exchange correlation table for  LEXCH =       43
   RHO(1)=    0.500       N(1)  =     2000
   RHO(2)=  100.500       N(2)  =     4000

 ion  position               nearest neighbor table
   1  0.290  0.507  0.638-   2 2.69   3 2.71
   2  0.397  0.442  0.618-   1 2.69   4 2.69 153 2.70   3 2.70  55 2.83
   3  0.397  0.569  0.609- 157 2.45   2 2.70   1 2.71   4 2.71  55 2.78
   4  0.505  0.506  0.637-   2 2.69   3 2.71
   5  0.000  0.000  0.407- 107 2.11 108 2.11 123 2.11 188 2.11 105 2.11
   6  0.100  0.100  0.407- 107 2.11 108 2.11 112 2.11 127 2.11 106 2.11
   7  0.000  0.100  0.503- 105 2.11 106 2.11 109 2.11 186 2.11 107 2.11
   8  0.100  0.000  0.503- 105 2.11 106 2.11 122 2.11 125 2.11 108 2.11
   9  0.000  0.200  0.407- 111 2.11 107 2.11 112 2.11 192 2.11 109 2.11
  10  0.100  0.300  0.407- 112 2.11 111 2.11 116 2.11 131 2.11 110 2.11
  11  0.000  0.300  0.503- 109 2.11 110 2.11 113 2.11 190 2.11 111 2.11
  12  0.100  0.200  0.503- 110 2.11 109 2.11 106 2.11 129 2.11 112 2.11
  13  0.000  0.400  0.407- 111 2.11 115 2.11 116 2.11 196 2.11 113 2.11
  14  0.100  0.500  0.407- 115 2.11 116 2.11 120 2.11 135 2.11 114 2.11
  15  0.000  0.500  0.503- 113 2.11 114 2.11 117 2.11 194 2.11 115 2.11
  16  0.100  0.400  0.503- 110 2.11 113 2.11 114 2.11 133 2.11 116 2.11
  17  0.000  0.600  0.407- 115 2.11 119 2.11 120 2.11 200 2.11 117 2.11
  18  0.100  0.700  0.407- 124 2.11 120 2.11 119 2.11 139 2.11 118 2.11
  19  0.000  0.700  0.503- 121 2.11 118 2.11 117 2.11 198 2.11 119 2.11
  20  0.100  0.600  0.503- 114 2.11 117 2.11 118 2.11 137 2.11 120 2.11
  21  0.000  0.800  0.407- 119 2.11 123 2.11 124 2.11 204 2.11 121 2.11
  22  0.100  0.900  0.407- 108 2.11 123 2.11 124 2.11 143 2.11 122 2.11
  23  0.000  0.900  0.503- 105 2.11 121 2.11 122 2.11 202 2.11 123 2.11
  24  0.100  0.800  0.503- 118 2.11 121 2.11 122 2.11 141 2.11 124 2.11
  25  0.200  0.000  0.407- 128 2.11 127 2.11 108 2.11 143 2.11 125 2.11
  26  0.300  0.100  0.407- 127 2.11 128 2.11 132 2.11 147 2.11 126 2.11
  27  0.200  0.100  0.503- 126 2.11 125 2.11 106 2.11 129 2.11 127 2.11
  28  0.300  0.000  0.503- 125 2.11 126 2.11 142 2.11 145 2.11 128 2.11
  29  0.200  0.200  0.407- 131 2.11 132 2.11 112 2.11 127 2.11 129 2.11
  30  0.300  0.300  0.407- 131 2.11 132 2.11 136 2.11 151 2.11 130 2.11
  31  0.200  0.300  0.503- 129 2.11 130 2.11 110 2.11 133 2.11 131 2.11
  32  0.300  0.200  0.503- 129 2.11 130 2.11 126 2.11 149 2.11 132 2.11
  33  0.200  0.400  0.407- 136 2.11 131 2.11 135 2.11 116 2.11 133 2.11
  34  0.300  0.500  0.407- 135 2.11 136 2.11 140 2.11 155 2.11 134 2.11
  35  0.200  0.500  0.503- 134 2.11 133 2.11 114 2.11 137 2.11 135 2.11
  36  0.300  0.400  0.503- 133 2.11 130 2.11 134 2.11 153 2.11 136 2.11
  37  0.200  0.600  0.407- 140 2.11 135 2.11 139 2.11 120 2.11 137 2.11
  38  0.300  0.700  0.407- 139 2.11 144 2.11 140 2.11 159 2.11 138 2.11
  39  0.200  0.700  0.503- 138 2.11 141 2.11 118 2.11 137 2.11 139 2.11
  40  0.300  0.600  0.503- 137 2.11 134 2.11 138 2.11 157 2.11 140 2.11
  41  0.200  0.800  0.407- 139 2.11 144 2.11 143 2.11 124 2.11 141 2.11
  42  0.300  0.900  0.407- 143 2.11 128 2.11 144 2.11 163 2.11 142 2.11
  43  0.200  0.900  0.503- 142 2.11 125 2.11 141 2.11 122 2.11 143 2.11
  44  0.300  0.800  0.503- 138 2.11 141 2.11 142 2.11 161 2.11 144 2.11
  45  0.400  0.000  0.407- 128 2.11 147 2.11 148 2.11 163 2.11 145 2.11
  46  0.500  0.100  0.407- 147 2.11 148 2.11 152 2.11 167 2.11 146 2.11
  47  0.400  0.100  0.503- 126 2.11 145 2.11 146 2.11 149 2.11 147 2.11
  48  0.500  0.000  0.503- 145 2.11 146 2.11 162 2.11 165 2.11 148 2.11
  49  0.400  0.200  0.407- 151 2.11 147 2.11 132 2.11 152 2.11 149 2.11
  50  0.500  0.300  0.407- 152 2.11 151 2.11 156 2.11 171 2.11 150 2.11
  51  0.400  0.300  0.503- 149 2.11 130 2.11 150 2.11 153 2.11 151 2.11
  52  0.500  0.200  0.503- 150 2.11 149 2.11 146 2.11 169 2.11 152 2.11
  53  0.400  0.400  0.407- 136 2.11 151 2.11 155 2.11 156 2.11 153 2.11
  54  0.500  0.500  0.407- 155 2.11 156 2.11 160 2.11 175 2.11 154 2.11
  55  0.400  0.500  0.503- 134 2.11 153 2.11 154 2.11 157 2.11 155 2.11   3 2.78   2 2.83
  56  0.500  0.400  0.503- 150 2.11 153 2.11 154 2.11 173 2.11 156 2.11
  57  0.400  0.600  0.407- 140 2.11 155 2.11 159 2.11 160 2.11 157 2.11
  58  0.500  0.700  0.407- 164 2.11 160 2.11 159 2.11 179 2.11 158 2.11
  59  0.400  0.700  0.503- 161 2.11 157 2.11 158 2.11 138 2.11 159 2.11
  60  0.500  0.600  0.503- 154 2.11 157 2.11 158 2.11 177 2.11 160 2.11
[...]
 190  0.900  0.300  0.503-  92 2.11  91 2.11  11 2.11  96 2.11  90 2.11
 191  0.800  0.300  0.407-  70 2.11  89 2.11  90 2.11  93 2.11  91 2.11
 192  0.900  0.200  0.407-  90 2.11  86 2.11  89 2.11   9 2.11  92 2.11
 193  0.800  0.400  0.503-  76 2.11  91 2.11  95 2.11  96 2.11  93 2.11
 194  0.900  0.500  0.503-  15 2.11  95 2.11  96 2.11 100 2.11  94 2.11
 195  0.800  0.500  0.407-  74 2.11  93 2.11  94 2.11  97 2.11  95 2.11
 196  0.900  0.400  0.407-  13 2.11  90 2.11  93 2.11  94 2.11  96 2.11
 197  0.800  0.600  0.503-  80 2.11  95 2.11  99 2.11 100 2.11  97 2.11
 198  0.900  0.700  0.503- 104 2.11  99 2.11 100 2.11  19 2.11  98 2.11
 199  0.800  0.700  0.407-  78 2.11 101 2.11  98 2.11  97 2.11  99 2.11
 200  0.900  0.600  0.407-  17 2.11  94 2.11  97 2.11  98 2.11 100 2.11
 201  0.800  0.800  0.503-  84 2.11  99 2.11 103 2.11 104 2.11 101 2.11
 202  0.900  0.900  0.503-  23 2.11  88 2.11 103 2.11 104 2.11 102 2.11
 203  0.800  0.900  0.407-  82 2.11  85 2.11 101 2.11 102 2.11 103 2.11
 204  0.900  0.800  0.407-  98 2.11  21 2.11 101 2.11 102 2.11 104 2.11

  LATTYP: Found a simple tetragonal cell.
 ALAT       =    21.1388521970
 C/A-ratio  =     1.0461251639

  Lattice vectors:

 A1 = (  21.1388521970,   0.0000000000,   0.0000000000)
 A2 = (   0.0000000000,  21.1388521970,   0.0000000000)
 A3 = (   0.0000000000,   0.0000000000,  22.1138852197)

Analysis of symmetry for initial positions (statically):
 Subroutine PRICEL returns:
 Original cell was already a primitive cell.

 Routine SETGRP: Setting up the symmetry group for a
 simple tetragonal supercell.

 Subroutine GETGRP returns: Found  1 space group operations
 (whereof  1 operations were pure point group operations)
 out of a pool of 16 trial point group operations.

The static configuration has the point symmetry C_1 .

Analysis of symmetry for dynamics (positions and initial velocities):
 Subroutine PRICEL returns:
 Original cell was already a primitive cell.

[...]

The dynamic configuration has the point symmetry C_1 .

Analysis of constrained symmetry for selective dynamics:
 Subroutine PRICEL returns:
 Original cell was already a primitive cell.

 Routine SETGRP: Setting up the symmetry group for a
 simple tetragonal supercell.

 Subroutine GETGRP returns: Found  1 space group operations
 (whereof  1 operations were pure point group operations)
 out of a pool of 16 trial point group operations.

The constrained configuration has the point symmetry C_1 .

 Subroutine INISYM returns: Found  1 space group operations
 (whereof  1 operations are pure point group operations),
[...]
     52     -43.2999      2.00000
     53     -43.2985      2.00000
     54     -43.2975      2.00000
     55     -43.2945      2.00000
     56     -43.2943      2.00000
     57     -43.2921      2.00000
     58     -43.2917      2.00000
     59     -43.2912      2.00000
     60     -43.2892      2.00000
[...]
    946       5.5730      0.00000
    947       5.5973      0.00000
    948       5.6269      0.00000
    949       5.6400      0.00000
    950       5.6937      0.00000
    951       5.7422      0.00000
    952       5.7617      0.00000
    953       5.8161      0.00000
    954       5.9469      0.00000
    955       6.0149      0.00000
    956       6.0654      0.00000
    957       6.2072      0.00000
    958       6.2648      0.00000
    959       6.3798      0.00000
    960       6.5431      0.00000

 soft charge-density along one line, spin component           1
         0         1         2         3         4         5         6         7         8         9
 total charge-density along one line

------------------------ aborting loop because EDIFF is reached ----------------------------------------

  FORCE on cell =-STRESS in cart. coord.  units (eV):
  Direction    XX          YY          ZZ          XY          YZ          ZX
  Alpha Z  1417.83424  1417.83424  1417.83424
  Ewald  484651.50164483712.19756************    -3.57601   -87.59049   -13.50229
  Hartree513523.03532512740.59488************    -3.38353   -60.68787    -9.40119
  E(xc)   -7847.18471 -7847.30458 -7849.64122     0.00215    -0.04842    -0.01412
  Local  ************************************     7.08986   146.21687    22.47316
  n-local -8837.02981 -8836.96124 -8943.02923    -0.08565     0.88270     0.31031
  augment  3564.26546  3564.86218  3512.23867    -0.00982     0.33697     0.01043
  Kinetic 23299.85165 23300.52267 23547.25879    -0.04472     0.92032     0.14503
  Fock        0.00000     0.00000     0.00000     0.00000     0.00000     0.00000
  Total    -182.97145  -182.97628     2.19895    -0.00771     0.03008     0.02134
  in kB     -29.66648   -29.66727     0.35653    -0.00125     0.00488     0.00346

 VOLUME and BASIS-vectors are now :
  energy-cutoff  :      520.00
  volume of cell :     9881.61
      direct lattice vectors                 reciprocal lattice vectors
    21.138852197  0.000000000  0.000000000     0.047306258  0.000000000  0.000000000
     0.000000000 21.138852197  0.000000000     0.000000000  0.047306258  0.000000000
     0.000000000  0.000000000 22.113885220     0.000000000  0.000000000  0.045220457

  length of vectors
    21.138852197 21.138852197 22.113885220     0.047306258  0.047306258  0.045220457

 FORCES acting on ions:
    Electron-Ion                     Ewald-Force                    Non-Local-Force
   0.484E+03 -.684E+01 -.207E+04   -.480E+03 0.671E+01 0.207E+04   -.414E+01 0.141E+00 0.746E+00
   0.183E+01 0.484E+03 -.204E+04   -.183E+01 -.480E+03 0.204E+04   -.311E-02 -.394E+01 -.639E+00
   -.140E+01 -.471E+03 -.203E+04   0.131E+01 0.468E+03 0.203E+04   0.967E-01 0.321E+01 -.883E+00
   -.484E+03 -.421E+01 -.207E+04   0.480E+03 0.406E+01 0.207E+04   0.416E+01 0.164E+00 0.643E+00
   0.664E+01 -.546E+00 0.936E+03   -.667E+01 0.554E+00 -.929E+03   0.222E-01 -.590E-02 -.716E+01
   0.127E+02 0.109E+02 0.940E+03   -.127E+02 -.109E+02 -.933E+03   0.447E-01 -.352E-02 -.716E+01
   0.954E+01 0.100E+02 -.918E+03   -.956E+01 -.100E+02 0.910E+03   0.217E-01 -.154E-01 0.709E+01
   0.135E+02 -.967E+00 -.917E+03   -.136E+02 0.979E+00 0.909E+03   0.362E-01 -.936E-02 0.709E+01
   0.107E+02 0.143E+02 0.941E+03   -.108E+02 -.143E+02 -.933E+03   0.304E-01 -.133E-01 -.716E+01
   0.288E+02 0.247E+02 0.956E+03   -.289E+02 -.247E+02 -.948E+03   0.101E+00 -.887E-02 -.719E+01
   0.227E+02 0.217E+02 -.910E+03   -.227E+02 -.216E+02 0.903E+03   0.152E-01 -.284E-01 0.708E+01
   0.259E+02 0.288E+02 -.910E+03   -.260E+02 -.288E+02 0.902E+03   0.631E-01 -.302E-01 0.708E+01
   0.211E+02 0.113E+02 0.951E+03   -.212E+02 -.112E+02 -.943E+03   0.362E-01 -.761E-02 -.718E+01
   0.468E+02 0.135E+01 0.974E+03   -.470E+02 -.137E+01 -.966E+03   0.128E+00 0.123E-01 -.724E+01
   0.376E+02 0.108E+01 -.902E+03   -.376E+02 -.108E+01 0.895E+03   -.264E-01 0.561E-02 0.706E+01
   0.704E+02 0.318E+02 -.884E+03   -.704E+02 -.317E+02 0.877E+03   0.122E-01 -.523E-01 0.702E+01
   0.217E+02 -.102E+02 0.951E+03   -.218E+02 0.101E+02 -.944E+03   0.444E-01 0.176E-01 -.718E+01
   0.305E+02 -.247E+02 0.957E+03   -.306E+02 0.246E+02 -.950E+03   0.135E+00 0.137E-01 -.719E+01
   0.240E+02 -.215E+02 -.909E+03   -.240E+02 0.215E+02 0.902E+03   0.238E-01 0.317E-01 0.708E+01
   0.738E+02 -.293E+02 -.882E+03   -.738E+02 0.292E+02 0.875E+03   0.261E-01 0.674E-01 0.702E+01
   0.113E+02 -.148E+02 0.941E+03   -.114E+02 0.148E+02 -.934E+03   0.399E-01 0.923E-02 -.716E+01
   0.132E+02 -.123E+02 0.941E+03   -.133E+02 0.123E+02 -.933E+03   0.542E-01 -.135E-01 -.716E+01
   0.995E+01 -.113E+02 -.917E+03   -.999E+01 0.112E+02 0.910E+03   0.265E-01 0.645E-02 0.709E+01
   0.278E+02 -.304E+02 -.909E+03   -.279E+02 0.304E+02 0.901E+03   0.860E-01 0.246E-01 0.708E+01
   0.113E+02 -.104E+01 0.941E+03   -.114E+02 0.106E+01 -.934E+03   0.430E-01 -.157E-01 -.716E+01
   0.857E+01 0.192E+02 0.948E+03   -.862E+01 -.193E+02 -.940E+03   0.359E-01 0.544E-01 -.717E+01
   0.175E+02 0.214E+02 -.912E+03   -.175E+02 -.214E+02 0.904E+03   0.468E-01 0.961E-02 0.708E+01
   0.901E+01 -.181E+01 -.912E+03   -.904E+01 0.184E+01 0.905E+03   0.271E-01 -.207E-01 0.709E+01
   0.207E+02 0.301E+02 0.954E+03   -.209E+02 -.302E+02 -.947E+03   0.981E-01 0.376E-01 -.717E+01
   0.250E+02 0.556E+02 0.994E+03   -.253E+02 -.558E+02 -.986E+03   0.216E+00 0.177E+00 -.713E+01
   0.597E+02 0.698E+02 -.877E+03   -.600E+02 -.697E+02 0.870E+03   0.222E+00 -.912E-01 0.702E+01
   0.219E+02 0.653E+02 -.892E+03   -.219E+02 -.655E+02 0.885E+03   0.675E-01 0.146E+00 0.707E+01
   0.520E+02 0.322E+02 0.100E+04   -.524E+02 -.323E+02 -.992E+03   0.316E+00 0.279E-01 -.731E+01
   0.490E+02 0.440E+01 0.107E+04   -.496E+02 -.452E+01 -.106E+04   0.417E+00 0.926E-01 -.746E+01
   0.150E+03 0.678E+01 -.784E+03   -.150E+03 -.679E+01 0.778E+03   0.153E+00 0.836E-02 0.650E+01
   0.109E+03 0.136E+03 -.727E+03   -.111E+03 -.136E+03 0.720E+03   0.120E+01 -.790E-01 0.657E+01
   0.544E+02 -.294E+02 0.100E+04   -.549E+02 0.294E+02 -.995E+03   0.406E+00 0.137E-01 -.733E+01
   0.273E+02 -.571E+02 0.100E+04   -.277E+02 0.574E+02 -.993E+03   0.289E+00 -.215E+00 -.710E+01
   0.656E+02 -.726E+02 -.872E+03   -.660E+02 0.725E+02 0.865E+03   0.314E+00 0.108E+00 0.701E+01
   0.123E+03 -.131E+03 -.703E+03   -.126E+03 0.131E+03 0.697E+03   0.179E+01 0.197E+00 0.634E+01
   0.223E+02 -.319E+02 0.956E+03   -.224E+02 0.320E+02 -.949E+03   0.130E+00 -.640E-01 -.716E+01
   0.904E+01 -.220E+02 0.949E+03   -.910E+01 0.221E+02 -.942E+03   0.442E-01 -.105E+00 -.717E+01
   0.185E+02 -.244E+02 -.911E+03   -.186E+02 0.244E+02 0.904E+03   0.571E-01 -.414E-01 0.708E+01
   0.243E+02 -.713E+02 -.889E+03   -.244E+02 0.716E+02 0.882E+03   0.881E-01 -.231E+00 0.706E+01
   -.227E+00 -.142E+01 0.945E+03   0.225E+00 0.145E+01 -.938E+03   0.105E-02 -.251E-01 -.716E+01
   -.897E+01 0.191E+02 0.948E+03   0.902E+01 -.191E+02 -.940E+03   -.342E-01 0.544E-01 -.717E+01
   -.362E+00 0.311E+02 -.907E+03   0.360E+00 -.312E+02 0.900E+03   0.113E-02 0.630E-01 0.708E+01
   -.945E+01 -.177E+01 -.912E+03   0.948E+01 0.180E+01 0.905E+03   -.253E-01 -.213E-01 0.709E+01
   -.437E+00 0.439E+02 0.966E+03   0.435E+00 -.443E+02 -.959E+03   0.130E-02 0.256E+00 -.720E+01
   -.260E+02 0.548E+02 0.993E+03   0.262E+02 -.551E+02 -.986E+03   -.211E+00 0.187E+00 -.714E+01
   -.181E+01 0.139E+03 -.825E+03   0.180E+01 -.141E+03 0.817E+03   0.133E-02 0.108E+01 0.712E+01
   -.227E+02 0.644E+02 -.893E+03   0.228E+02 -.645E+02 0.885E+03   -.648E-01 0.146E+00 0.707E+01
   -.131E+01 0.563E+02 0.106E+04   0.129E+01 -.566E+02 -.105E+04   0.156E-01 0.244E+00 -.578E+01
   -.507E+02 0.424E+01 0.107E+04   0.513E+02 -.436E+01 -.106E+04   -.409E+00 0.929E-01 -.742E+01
   -.602E+01 0.231E+02 -.504E+03   0.598E+01 -.240E+02 0.499E+03   0.493E-01 0.654E+00 0.458E+01
   -.111E+03 0.133E+03 -.733E+03   0.112E+03 -.133E+03 0.726E+03   -.119E+01 -.483E-01 0.661E+01
   -.148E+01 -.517E+02 0.107E+04   0.146E+01 0.518E+02 -.106E+04   0.184E-01 -.115E+00 -.504E+01
   -.284E+02 -.563E+02 0.999E+03   0.288E+02 0.566E+02 -.991E+03   -.282E+00 -.225E+00 -.711E+01
   -.232E+01 -.154E+03 -.809E+03   0.231E+01 0.156E+03 0.801E+03   0.639E-02 -.163E+01 0.715E+01
   -.125E+03 -.128E+03 -.711E+03   0.127E+03 0.128E+03 0.705E+03   -.178E+01 0.171E+00 0.644E+01
[...]
   -.112E+02 0.118E+02 0.711E+03   0.113E+02 -.118E+02 -.715E+03   -.339E-01 -.124E-01 0.361E+01
   0.224E+00 0.909E+01 0.706E+03   -.223E+00 -.908E+01 -.710E+03   -.196E-02 -.141E-01 0.362E+01
   -.229E+02 0.115E+02 -.681E+03   0.229E+02 -.115E+02 0.685E+03   -.116E-01 -.212E-01 -.376E+01
   0.721E+00 0.567E+00 -.684E+03   -.717E+00 -.571E+00 0.688E+03   -.555E-02 0.572E-02 -.375E+01
   -.169E+02 0.543E+00 0.716E+03   0.169E+02 -.550E+00 -.720E+03   -.310E-01 0.865E-02 0.359E+01
   0.422E+00 0.675E+01 0.711E+03   -.419E+00 -.674E+01 -.715E+03   -.418E-02 -.772E-02 0.360E+01
   -.237E+02 -.105E+02 -.681E+03   0.237E+02 0.105E+02 0.685E+03   -.177E-01 0.333E-01 -.377E+01
   0.498E+00 -.125E+02 -.687E+03   -.495E+00 0.125E+02 0.691E+03   -.408E-02 0.270E-01 -.374E+01
   -.118E+02 -.117E+02 0.711E+03   0.118E+02 0.117E+02 -.715E+03   -.438E-01 0.160E-01 0.360E+01
   0.443E+00 -.609E+01 0.711E+03   -.440E+00 0.608E+01 -.715E+03   -.459E-02 0.175E-01 0.360E+01
   -.108E+02 -.142E+02 -.688E+03   0.109E+02 0.142E+02 0.692E+03   -.326E-01 0.150E-01 -.373E+01
   0.221E+00 -.709E+01 -.691E+03   -.220E+00 0.708E+01 0.695E+03   -.176E-02 0.479E-02 -.372E+01
   -.562E+01 -.656E+01 0.705E+03   0.564E+01 0.656E+01 -.709E+03   -.322E-01 -.415E-02 0.362E+01
   0.247E+00 -.939E+01 0.706E+03   -.245E+00 0.939E+01 -.710E+03   -.245E-02 0.100E-01 0.362E+01
   0.366E-01 0.768E+00 0.139E+02   0.273E-11 0.210E-11 0.218E-10   -.351E-01 -.766E+00 -.143E+02

 POSITION                                       TOTAL-FORCE (eV/Angst)
      6.12143     10.70919     14.10279        -0.004950      0.004576      0.004387
      8.38943      9.33976     13.66282         0.000941     -0.003456      0.005681
      8.39418     12.03706     13.47256         0.001794      0.006536      0.003825
     10.67333     10.69253     14.07734         0.006543      0.003467      0.003495
      0.00000      0.00000      9.00000        -0.006151      0.001652      0.342755
      2.11389      2.11389      9.00000        -0.012449      0.000801      0.343198
      0.00000      2.11389     11.11389        -0.005854      0.004233     -0.318119
      2.11389      0.00000     11.11389        -0.010105      0.002559     -0.317492
      0.00000      4.22777      9.00000        -0.008077      0.003725      0.344805
      2.11389      6.34166      9.00000        -0.026381      0.002809      0.352066
      0.00000      6.34166     11.11389        -0.003349      0.008331     -0.311684
      2.11389      4.22777     11.11389        -0.016500      0.008417     -0.311663
      0.00000      8.45554      9.00000        -0.009487      0.002494      0.349799
      2.11389     10.56943      9.00000        -0.034828     -0.003590      0.365429
      0.00000     10.56943     11.11389         0.008306     -0.001593     -0.303603
      2.11389      8.45554     11.11389         0.002854      0.018161     -0.279181
      0.00000     12.68331      9.00000        -0.011685     -0.005329      0.350030
      2.11389     14.79720      9.00000        -0.035228     -0.004095      0.353043
      0.00000     14.79720     11.11389        -0.005533     -0.009282     -0.310944
      2.11389     12.68331     11.11389        -0.000913     -0.022583     -0.276510
      0.00000     16.91108      9.00000        -0.010596     -0.002570      0.344956
      2.11389     19.02497      9.00000        -0.015093      0.003967      0.343051
      0.00000     19.02497     11.11389        -0.007135     -0.001731     -0.317830
      2.11389     16.91108     11.11389        -0.022483     -0.006754     -0.310280
      4.22777      0.00000      9.00000        -0.012270      0.004264      0.343095
      6.34166      2.11389      9.00000        -0.010528     -0.014427      0.344141
      4.22777      2.11389     11.11389        -0.013271     -0.002280     -0.314185
      6.34166      0.00000     11.11389        -0.007811      0.005516     -0.314979
      4.22777      4.22777      9.00000        -0.027952     -0.011455      0.343927
      6.34166      6.34166      9.00000        -0.070067     -0.056832      0.326068
      4.22777      6.34166     11.11389        -0.056120      0.028631     -0.275917
      6.34166      4.22777     11.11389        -0.020563     -0.038138     -0.301345
      4.22777      8.45554      9.00000        -0.081257     -0.005987      0.378067
      6.34166     10.56943      9.00000        -0.136585     -0.029467      0.347685
      4.22777     10.56943     11.11389        -0.017658     -0.000556     -0.065936
      6.34166      8.45554     11.11389        -0.390258      0.057591     -0.089676
      4.22777     12.68331      9.00000        -0.103074     -0.006059      0.381068
      6.34166     14.79720      9.00000        -0.093782      0.071492      0.311721
      4.22777     14.79720     11.11389        -0.078653     -0.033860     -0.266073
      6.34166     12.68331     11.11389        -0.606071     -0.080307     -0.061486
      4.22777     16.91108      9.00000        -0.037059      0.019229      0.342771
      6.34166     19.02497      9.00000        -0.012969      0.028039      0.344181
      4.22777     19.02497     11.11389        -0.016176      0.010780     -0.313157
      6.34166     16.91108     11.11389        -0.026550      0.060810     -0.296379
      8.45554      0.00000      9.00000        -0.000298      0.006711      0.343659
     10.56943      2.11389      9.00000         0.010030     -0.014451      0.344074
      8.45554      2.11389     11.11389        -0.000312     -0.015630     -0.312112
     10.56943      0.00000     11.11389         0.007281      0.005665     -0.315017
      8.45554      4.22777      9.00000        -0.000360     -0.065239      0.349084
     10.56943      6.34166      9.00000         0.068692     -0.059825      0.327389
      8.45554      6.34166     11.11389        -0.000499     -0.335488     -0.296420
     10.56943      4.22777     11.11389         0.019747     -0.037855     -0.301489
      8.45554      8.45554      9.00000        -0.005422     -0.048121      0.012807
     10.56943     10.56943      9.00000         0.134730     -0.029619      0.340336
      8.45554     10.56943     11.11389         0.009248     -0.278671     -0.383085
     10.56943      8.45554     11.11389         0.376652      0.051624     -0.081665
      8.45554     12.68331      9.00000        -0.006425      0.016200     -0.150096
     10.56943     14.79720      9.00000         0.091897      0.074740      0.312160
      8.45554     14.79720     11.11389        -0.002247      0.508429     -0.308826
     10.56943     12.68331     11.11389         0.581113     -0.077566     -0.058091
[...]
     19.02497      6.34166     11.11389        -0.000949     -0.006629      0.370193
     16.91108      6.34166      9.00000        -0.009441     -0.003429     -0.403580
     19.02497      4.22777      9.00000        -0.000547     -0.003894     -0.400739
     16.91108      8.45554     11.11389        -0.003371     -0.005895      0.362434
     19.02497     10.56943     11.11389        -0.001540      0.001558      0.366232
     16.91108     10.56943      9.00000        -0.008904      0.002367     -0.408760
     19.02497      8.45554      9.00000        -0.001155     -0.002243     -0.404089
     16.91108     12.68331     11.11389        -0.005073      0.009206      0.361847
     19.02497     14.79720     11.11389        -0.001132      0.007511      0.369693
     16.91108     14.79720      9.00000        -0.012194      0.004389     -0.403678
     19.02497     12.68331      9.00000        -0.001270      0.004904     -0.404138
     16.91108     16.91108     11.11389        -0.009022      0.004180      0.370921
     19.02497     19.02497     11.11389        -0.000494      0.001333      0.374317
     16.91108     19.02497      9.00000        -0.008883     -0.001131     -0.399785
     19.02497     16.91108      9.00000        -0.000681      0.002776     -0.400769
    total drift:                                0.001460      0.001462     -0.375189

  FREE ENERGIE OF THE ION-ELECTRON SYSTEM (eV)
  free  energy   TOTEN  =      -794.16044739 eV

  energy  without entropy=     -794.16044739  energy(sigma->0) =     -794.16044739