 vasp.6.3.0 20Jan22 (build Apr  1 2022 16:44:48) complex
 executed on        HPECrayEX_GCC date 2023.01.09  20:21:50

 INCAR:
   SYSTEM = MgO-rocksalt
   ISMEAR = 0
   SIGMA = 0.05
   EDIFF = 1E-6
   ALGO = ALL
   ISTART = 0
   IBRION = -1
   NSW = 0
   ISYM = 2
   DIPOL = 0.5 0.5 0.5
   IDIPOL = 3
   LDIPOL = .TRUE.
   GGA = PS
   IVDW = 13
   VDW_S8 = 1.71885698
   VDW_A1 = 0.47901421
   VDW_A2 = 5.96771589
   ENCUT = 520
   PREC = Accurate
   LASPH = .TRUE.
   LREAL = Auto
   ISPIN = 1
   NELM = 200
   NELMIN = 8
   NCORE = 4
   KPAR = 2
   LWAVE = .FALSE.
   LCHARG = .FALSE.

 POTCAR:    PAW_PBE Cu 22Jun2005
 POTCAR:    PAW_PBE Mg_pv 13Apr2007
 POTCAR:    PAW_PBE O 08Apr2002
 POTCAR:    PAW_PBE Cu 22Jun2005
   VRHFIN =Cu: d10 p1

   TITEL  = PAW_PBE Cu 22Jun2005
   POMASS =   63.546; ZVAL   =   11.000    mass and valenz
   ENMAX  =  295.446; ENMIN  =  221.585 eV

   TITEL  = PAW_PBE Mg_pv 13Apr2007
   POMASS =   24.305; ZVAL   =    8.000    mass and valenz
   ENMAX  =  403.929; ENMIN  =  302.947 eV

   TITEL  = PAW_PBE O 08Apr2002
   POMASS =   16.000; ZVAL   =    6.000    mass and valenz
   ENMAX  =  400.000; ENMIN  =  300.000 eV

 Optimization of the real space projectors (new method)

 maximal supplied QI-value         = 16.25
 optimisation between [QCUT,QGAM] = [ 11.54, 23.24] = [ 37.28,151.24] Ry
 Optimized for a Real-space Cutoff    1.53 Angstroem

   l    n(q)    QCUT    max X(q) W(low)/X(q) W(high)/X(q)  e(spline)
   2     10    11.539     4.610    0.96E-04    0.13E-03    0.19E-06
   2     10    11.539     8.522    0.16E-03    0.21E-03    0.28E-06
   0     11    11.539    51.609    0.45E-04    0.31E-04    0.11E-06
   0     11    11.539    27.747    0.39E-04    0.29E-04    0.10E-06
   1     10    11.539    20.408    0.70E-05    0.38E-04    0.18E-06
   1     10    11.539    13.425    0.66E-05    0.34E-04    0.17E-06
 Optimization of the real space projectors (new method)

[...]

   l    n(q)    QCUT    max X(q) W(low)/X(q) W(high)/X(q)  e(spline)
   1      8    11.527     2.974    0.44E-04    0.56E-04    0.12E-06
   1      8    11.527     4.279    0.12E-03    0.12E-03    0.26E-06
   0      9    11.527    16.381    0.46E-04    0.64E-04    0.78E-07
   0      9    11.527     5.611    0.26E-04    0.43E-04    0.55E-07
   2      8    11.527     4.652    0.22E-03    0.72E-04    0.47E-07
 Optimization of the real space projectors (new method)

 maximal supplied QI-value         = 24.76
 optimisation between [QCUT,QGAM] = [ 11.64, 23.27] = [ 37.91,151.63] Ry
 Optimized for a Real-space Cutoff    1.14 Angstroem

   l    n(q)    QCUT    max X(q) W(low)/X(q) W(high)/X(q)  e(spline)
   0      8    11.635    20.381    0.10E-03    0.33E-03    0.24E-06
   0      8    11.635    15.268    0.11E-03    0.35E-03    0.26E-06
   1      7    11.635     5.964    0.24E-03    0.31E-03    0.30E-06
   1      7    11.635     5.382    0.22E-03    0.25E-03    0.26E-06
|               ----> ADVICE to this user running VASP <----                  |
|     You enforced a specific xc type in the INCAR file but a different       |
|     type was found in the POTCAR file.                                      |
|     I HOPE YOU KNOW WHAT YOU ARE DOING!                                     |

  PAW_PBE Cu 22Jun2005                  :
  PAW_PBE Mg_pv 13Apr2007               :
  PAW_PBE O 08Apr2002                   :

 POSCAR: Cu Mg  O
  positions in direct lattice
  velocities in cartesian coordinates
|           W    W    AA    RRRRR   N    N  II  N    N   GGGG   !!!           |
|           W    W   A  A   R    R  NN   N  II  NN   N  G    G  !!!           |
|           W    W  A    A  R    R  N N  N  II  N N  N  G       !!!           |
|           W WW W  AAAAAA  RRRRR   N  N N  II  N  N N  G  GGG   !            |
|           WW  WW  A    A  R   R   N   NN  II  N   NN  G    G                |
|           W    W  A    A  R    R  N    N  II  N    N   GGGG   !!!           |
|     Specifying the vdW parameters                                           |
|     VDW_S8 = 1.719                                                          |
|     VDW_A1 = 0.479                                                          |
|     VDW_A2 = 5.968                                                          |
|     in the INCAR file will overwrite the defaults for pbesol. Please        |
|     make sure that is what you intended.                                    |

 ion  position               nearest neighbor table
   1  0.400  0.558  0.598- 157 2.29   3 2.35  55 2.43   4 2.47
   2  0.400  0.499  0.790-   3 2.25
   3  0.400  0.499  0.688-   2 2.25   1 2.35   4 2.35
   4  0.400  0.441  0.597- 153 2.26   3 2.35  55 2.43   1 2.47
   5  0.000  0.000  0.407- 107 2.11 108 2.11 123 2.11 188 2.11 105 2.11
   6  0.100  0.100  0.407- 107 2.11 108 2.11 112 2.11 127 2.11 106 2.11
   7  0.000  0.100  0.503- 105 2.11 106 2.11 109 2.11 186 2.11 107 2.11
   8  0.100  0.000  0.503- 105 2.11 106 2.11 122 2.11 125 2.11 108 2.11
   9  0.000  0.200  0.407- 111 2.11 107 2.11 112 2.11 192 2.11 109 2.11
  10  0.100  0.300  0.407- 112 2.11 111 2.11 116 2.11 131 2.11 110 2.11
  11  0.000  0.300  0.503- 109 2.11 110 2.11 113 2.11 190 2.11 111 2.11
  12  0.100  0.200  0.503- 110 2.11 109 2.11 106 2.11 129 2.11 112 2.11
  13  0.000  0.400  0.407- 111 2.11 115 2.11 116 2.11 196 2.11 113 2.11
  14  0.100  0.500  0.407- 115 2.11 116 2.11 120 2.11 135 2.11 114 2.11
  15  0.000  0.500  0.503- 113 2.11 114 2.11 117 2.11 194 2.11 115 2.11
  16  0.100  0.400  0.503- 110 2.11 113 2.11 114 2.11 133 2.11 116 2.11
  17  0.000  0.600  0.407- 115 2.11 119 2.11 120 2.11 200 2.11 117 2.11
  18  0.100  0.700  0.407- 124 2.11 120 2.11 119 2.11 139 2.11 118 2.11
  19  0.000  0.700  0.503- 121 2.11 118 2.11 117 2.11 198 2.11 119 2.11
  20  0.100  0.600  0.503- 114 2.11 117 2.11 118 2.11 137 2.11 120 2.11
  21  0.000  0.800  0.407- 119 2.11 123 2.11 124 2.11 204 2.11 121 2.11
  22  0.100  0.900  0.407- 108 2.11 123 2.11 124 2.11 143 2.11 122 2.11
  23  0.000  0.900  0.503- 105 2.11 121 2.11 122 2.11 202 2.11 123 2.11
  24  0.100  0.800  0.503- 118 2.11 121 2.11 122 2.11 141 2.11 124 2.11
  25  0.200  0.000  0.407- 128 2.11 127 2.11 108 2.11 143 2.11 125 2.11
  26  0.300  0.100  0.407- 127 2.11 128 2.11 132 2.11 147 2.11 126 2.11
  27  0.200  0.100  0.503- 126 2.11 125 2.11 106 2.11 129 2.11 127 2.11
  28  0.300  0.000  0.503- 125 2.11 126 2.11 142 2.11 145 2.11 128 2.11
  29  0.200  0.200  0.407- 131 2.11 132 2.11 112 2.11 127 2.11 129 2.11
  30  0.300  0.300  0.407- 131 2.11 132 2.11 136 2.11 151 2.11 130 2.11
  31  0.200  0.300  0.503- 129 2.11 130 2.11 110 2.11 133 2.11 131 2.11
  32  0.300  0.200  0.503- 129 2.11 130 2.11 126 2.11 149 2.11 132 2.11
  33  0.200  0.400  0.407- 136 2.11 131 2.11 135 2.11 116 2.11 133 2.11
  34  0.300  0.500  0.407- 135 2.11 136 2.11 140 2.11 155 2.11 134 2.11
  35  0.200  0.500  0.503- 134 2.11 133 2.11 114 2.11 137 2.11 135 2.11
  36  0.300  0.400  0.503- 133 2.11 130 2.11 134 2.11 153 2.11 136 2.11
  37  0.200  0.600  0.407- 140 2.11 135 2.11 139 2.11 120 2.11 137 2.11
  38  0.300  0.700  0.407- 139 2.11 144 2.11 140 2.11 159 2.11 138 2.11
  39  0.200  0.700  0.503- 138 2.11 141 2.11 118 2.11 137 2.11 139 2.11
  40  0.300  0.600  0.503- 137 2.11 134 2.11 138 2.11 157 2.11 140 2.11
  41  0.200  0.800  0.407- 139 2.11 144 2.11 143 2.11 124 2.11 141 2.11
  42  0.300  0.900  0.407- 143 2.11 128 2.11 144 2.11 163 2.11 142 2.11
  43  0.200  0.900  0.503- 142 2.11 125 2.11 141 2.11 122 2.11 143 2.11
  44  0.300  0.800  0.503- 138 2.11 141 2.11 142 2.11 161 2.11 144 2.11
  45  0.400  0.000  0.407- 128 2.11 147 2.11 148 2.11 163 2.11 145 2.11
  46  0.500  0.100  0.407- 147 2.11 148 2.11 152 2.11 167 2.11 146 2.11
  47  0.400  0.100  0.503- 126 2.11 145 2.11 146 2.11 149 2.11 147 2.11
  48  0.500  0.000  0.503- 145 2.11 146 2.11 162 2.11 165 2.11 148 2.11
  49  0.400  0.200  0.407- 151 2.11 147 2.11 132 2.11 152 2.11 149 2.11
  50  0.500  0.300  0.407- 152 2.11 151 2.11 156 2.11 171 2.11 150 2.11
  51  0.400  0.300  0.503- 149 2.11 130 2.11 150 2.11 153 2.11 151 2.11
  52  0.500  0.200  0.503- 150 2.11 149 2.11 146 2.11 169 2.11 152 2.11
  53  0.400  0.400  0.407- 136 2.11 151 2.11 155 2.11 156 2.11 153 2.11
  54  0.500  0.500  0.407- 155 2.11 156 2.11 160 2.11 175 2.11 154 2.11
  55  0.400  0.500  0.503- 134 2.11 153 2.11 154 2.11 157 2.11 155 2.11   4 2.43   1 2.43
  56  0.500  0.400  0.503- 150 2.11 153 2.11 154 2.11 173 2.11 156 2.11
  57  0.400  0.600  0.407- 140 2.11 155 2.11 159 2.11 160 2.11 157 2.11
  58  0.500  0.700  0.407- 164 2.11 160 2.11 159 2.11 179 2.11 158 2.11
  59  0.400  0.700  0.503- 161 2.11 157 2.11 158 2.11 138 2.11 159 2.11
  60  0.500  0.600  0.503- 154 2.11 157 2.11 158 2.11 177 2.11 160 2.11
[...]
 190  0.900  0.300  0.503-  92 2.11  91 2.11  11 2.11  96 2.11  90 2.11
 191  0.800  0.300  0.407-  70 2.11  89 2.11  90 2.11  93 2.11  91 2.11
 192  0.900  0.200  0.407-  90 2.11  86 2.11  89 2.11   9 2.11  92 2.11
 193  0.800  0.400  0.503-  76 2.11  91 2.11  95 2.11  96 2.11  93 2.11
 194  0.900  0.500  0.503-  15 2.11  95 2.11  96 2.11 100 2.11  94 2.11
 195  0.800  0.500  0.407-  74 2.11  93 2.11  94 2.11  97 2.11  95 2.11
 196  0.900  0.400  0.407-  13 2.11  90 2.11  93 2.11  94 2.11  96 2.11
 197  0.800  0.600  0.503-  80 2.11  95 2.11  99 2.11 100 2.11  97 2.11
 198  0.900  0.700  0.503- 104 2.11  99 2.11 100 2.11  19 2.11  98 2.11
 199  0.800  0.700  0.407-  78 2.11 101 2.11  98 2.11  97 2.11  99 2.11
 200  0.900  0.600  0.407-  17 2.11  94 2.11  97 2.11  98 2.11 100 2.11
 201  0.800  0.800  0.503-  84 2.11  99 2.11 103 2.11 104 2.11 101 2.11
 202  0.900  0.900  0.503-  23 2.11  88 2.11 103 2.11 104 2.11 102 2.11
 203  0.800  0.900  0.407-  82 2.11  85 2.11 101 2.11 102 2.11 103 2.11
 204  0.900  0.800  0.407-  98 2.11  21 2.11 101 2.11 102 2.11 104 2.11

  LATTYP: Found a simple tetragonal cell.
 ALAT       =    21.1388521970
 C/A-ratio  =     1.0461251639

  Lattice vectors:

 A1 = (  21.1388521970,   0.0000000000,   0.0000000000)
 A2 = (   0.0000000000,  21.1388521970,   0.0000000000)
 A3 = (   0.0000000000,   0.0000000000,  22.1138852197)

Analysis of symmetry for initial positions (statically):
 Subroutine PRICEL returns:
 Original cell was already a primitive cell.

 Routine SETGRP: Setting up the symmetry group for a
 simple tetragonal supercell.

 Subroutine GETGRP returns: Found  1 space group operations
 (whereof  1 operations were pure point group operations)
 out of a pool of 16 trial point group operations.

The static configuration has the point symmetry C_1 .

Analysis of symmetry for dynamics (positions and initial velocities):
 Subroutine PRICEL returns:
 Original cell was already a primitive cell.

[...]

The dynamic configuration has the point symmetry C_1 .

Analysis of constrained symmetry for selective dynamics:
 Subroutine PRICEL returns:
 Original cell was already a primitive cell.

 Routine SETGRP: Setting up the symmetry group for a
 simple tetragonal supercell.

 Subroutine GETGRP returns: Found  1 space group operations
 (whereof  1 operations were pure point group operations)
 out of a pool of 16 trial point group operations.

The constrained configuration has the point symmetry C_1 .

[...]
     54     -42.9504      2.00000
     55     -42.9497      2.00000
     56     -42.9494      2.00000
     57     -42.9493      2.00000
     58     -42.9488      2.00000
     59     -42.9482      2.00000
     60     -42.9460      2.00000
[...]
    946       6.1820      0.00000
    947       6.2133      0.00000
    948       6.2537      0.00000
    949       6.2857      0.00000
    950       6.3208      0.00000
    951       6.3491      0.00000
    952       6.3703      0.00000
    953       6.4279      0.00000
    954       6.4377      0.00000
    955       6.5232      0.00000
    956       6.5745      0.00000
    957       6.6324      0.00000
    958       6.6555      0.00000
    959       6.7073      0.00000
    960       6.7379      0.00000

 soft charge-density along one line, spin component           1
         0         1         2         3         4         5         6         7         8         9
 total charge-density along one line

------------------------ aborting loop because EDIFF is reached ----------------------------------------

  FORCE on cell =-STRESS in cart. coord.  units (eV):
  Direction    XX          YY          ZZ          XY          YZ          ZX
  Alpha Z  1394.80054  1394.80054  1394.80054
  Ewald  476789.57733478031.49515************     0.08233     1.75104    -2.53842
  Hartree506605.84813507574.71449************     0.06352     1.09318    -2.00124
  E(xc)   -7749.62571 -7749.31595 -7766.87013     0.00002     0.00083    -0.00085
  Local  ************************************    -0.14455    -2.83998     4.50792
  n-local -8892.44212 -8893.64786 -9011.77621     0.00011     0.00320    -0.00039
  augment  3594.88637  3587.65803  3522.42519    -0.00042    -0.00947     0.01467
  Kinetic 22998.78793 22990.95192 23251.89026    -0.00052    -0.01217     0.03017
  Fock        0.00000     0.00000     0.00000     0.00000     0.00000     0.00000
  vdW       -11.34039   -11.33762    -2.84330    -0.00000     0.00015     0.00000
  Total    -207.08359  -209.22024   -12.81466     0.00050    -0.01323     0.01188
  in kB     -33.57596   -33.92239    -2.07773     0.00008    -0.00215     0.00193

 VOLUME and BASIS-vectors are now :
  energy-cutoff  :      520.00
  volume of cell :     9881.61
      direct lattice vectors                 reciprocal lattice vectors
    21.138852197  0.000000000  0.000000000     0.047306258  0.000000000  0.000000000
     0.000000000 21.138852197  0.000000000     0.000000000  0.047306258  0.000000000
     0.000000000  0.000000000 22.113885220     0.000000000  0.000000000  0.045220457

  length of vectors
    21.138852197 21.138852197 22.113885220     0.047306258  0.047306258  0.045220457

 FORCES acting on ions:
    Electron-Ion                     Ewald-Force                    Non-Local-Force
   -.594E+00 -.489E+03 -.187E+04   0.583E+00 0.479E+03 0.188E+04   0.141E-01 0.992E+01 -.485E+01
   -.812E-01 -.289E+00 -.155E+04   0.676E-01 0.246E+00 0.153E+04   0.132E-01 0.411E-01 0.118E+02
   0.132E+01 0.389E+01 -.186E+04   -.129E+01 -.384E+01 0.186E+04   -.206E-01 -.582E-01 0.617E+00
   -.534E+00 0.484E+03 -.187E+04   0.524E+00 -.475E+03 0.188E+04   0.129E-01 -.970E+01 -.486E+01
   0.647E+01 0.578E-01 0.935E+03   -.650E+01 -.582E-01 -.927E+03   0.237E-01 0.287E-03 -.772E+01
   0.127E+02 0.987E+01 0.939E+03   -.128E+02 -.990E+01 -.931E+03   0.525E-01 0.194E-01 -.772E+01
   0.929E+01 0.884E+01 -.918E+03   -.932E+01 -.884E+01 0.910E+03   0.270E-01 0.136E-02 0.763E+01
   0.135E+02 0.103E+00 -.917E+03   -.135E+02 -.103E+00 0.909E+03   0.371E-01 0.470E-03 0.763E+01
   0.102E+02 0.119E+02 0.939E+03   -.102E+02 -.120E+02 -.931E+03   0.419E-01 0.761E-02 -.773E+01
   0.270E+02 0.195E+02 0.951E+03   -.272E+02 -.195E+02 -.943E+03   0.137E+00 0.223E-01 -.775E+01
   0.197E+02 0.165E+02 -.912E+03   -.198E+02 -.165E+02 0.904E+03   0.430E-01 -.279E-02 0.762E+01
   0.251E+02 0.238E+02 -.911E+03   -.252E+02 -.238E+02 0.903E+03   0.869E-01 0.104E-01 0.762E+01
   0.180E+02 0.821E+01 0.946E+03   -.181E+02 -.821E+01 -.937E+03   0.647E-01 0.225E-02 -.774E+01
   0.401E+02 -.121E+00 0.961E+03   -.403E+02 0.122E+00 -.953E+03   0.168E+00 -.678E-03 -.776E+01
   0.287E+02 -.946E-01 -.908E+03   -.288E+02 0.949E-01 0.900E+03   0.398E-01 -.239E-03 0.761E+01
   0.573E+02 0.201E+02 -.895E+03   -.575E+02 -.201E+02 0.887E+03   0.116E+00 -.548E-02 0.760E+01
   0.180E+02 -.832E+01 0.946E+03   -.181E+02 0.832E+01 -.937E+03   0.642E-01 -.274E-02 -.774E+01
   0.269E+02 -.195E+02 0.951E+03   -.271E+02 0.196E+02 -.942E+03   0.135E+00 -.225E-01 -.775E+01
   0.196E+02 -.165E+02 -.912E+03   -.197E+02 0.165E+02 0.904E+03   0.425E-01 0.264E-02 0.762E+01
   0.571E+02 -.203E+02 -.895E+03   -.573E+02 0.203E+02 0.887E+03   0.115E+00 0.474E-02 0.760E+01
   0.101E+02 -.119E+02 0.939E+03   -.102E+02 0.119E+02 -.931E+03   0.413E-01 -.741E-02 -.773E+01
   0.127E+02 -.973E+01 0.939E+03   -.128E+02 0.975E+01 -.931E+03   0.519E-01 -.184E-01 -.772E+01
   0.925E+01 -.871E+01 -.918E+03   -.928E+01 0.871E+01 0.910E+03   0.267E-01 -.979E-03 0.763E+01
   0.249E+02 -.237E+02 -.911E+03   -.250E+02 0.237E+02 0.903E+03   0.854E-01 -.101E-01 0.762E+01
   0.115E+02 0.113E+00 0.940E+03   -.116E+02 -.114E+00 -.932E+03   0.438E-01 0.902E-03 -.773E+01
   0.920E+01 0.186E+02 0.947E+03   -.925E+01 -.187E+02 -.939E+03   0.408E-01 0.998E-01 -.774E+01
   0.182E+02 0.199E+02 -.912E+03   -.183E+02 -.200E+02 0.904E+03   0.536E-01 0.499E-01 0.762E+01
   0.947E+01 0.203E+00 -.912E+03   -.950E+01 -.204E+00 0.904E+03   0.261E-01 0.114E-02 0.762E+01
   0.213E+02 0.265E+02 0.952E+03   -.215E+02 -.266E+02 -.943E+03   0.120E+00 0.865E-01 -.773E+01
   0.281E+02 0.498E+02 0.989E+03   -.284E+02 -.501E+02 -.981E+03   0.258E+00 0.249E+00 -.765E+01
   0.592E+02 0.544E+02 -.884E+03   -.596E+02 -.545E+02 0.876E+03   0.315E+00 0.115E-01 0.760E+01
   0.244E+02 0.605E+02 -.892E+03   -.245E+02 -.609E+02 0.884E+03   0.812E-01 0.270E+00 0.762E+01
   0.507E+02 0.239E+02 0.985E+03   -.512E+02 -.239E+02 -.977E+03   0.386E+00 0.394E-01 -.783E+01
   0.559E+02 -.445E+00 0.105E+04   -.565E+02 0.454E+00 -.104E+04   0.395E+00 -.634E-02 -.780E+01
   0.121E+03 -.448E+00 -.843E+03   -.122E+03 0.449E+00 0.836E+03   0.256E+00 -.923E-03 0.753E+01
   0.142E+03 0.108E+03 -.751E+03   -.144E+03 -.108E+03 0.743E+03   0.158E+01 -.602E-01 0.723E+01
   0.505E+02 -.241E+02 0.985E+03   -.510E+02 0.242E+02 -.976E+03   0.380E+00 -.420E-01 -.783E+01
   0.278E+02 -.497E+02 0.988E+03   -.281E+02 0.500E+02 -.980E+03   0.253E+00 -.246E+00 -.765E+01
   0.586E+02 -.543E+02 -.884E+03   -.590E+02 0.543E+02 0.876E+03   0.308E+00 -.125E-01 0.760E+01
   0.140E+03 -.109E+03 -.753E+03   -.142E+03 0.109E+03 0.745E+03   0.154E+01 0.520E-01 0.724E+01
   0.212E+02 -.263E+02 0.951E+03   -.213E+02 0.264E+02 -.943E+03   0.118E+00 -.848E-01 -.773E+01
   0.914E+01 -.183E+02 0.947E+03   -.919E+01 0.184E+02 -.939E+03   0.403E-01 -.967E-01 -.773E+01
   0.181E+02 -.196E+02 -.912E+03   -.181E+02 0.197E+02 0.904E+03   0.530E-01 -.480E-01 0.762E+01
   0.241E+02 -.599E+02 -.892E+03   -.242E+02 0.603E+02 0.884E+03   0.800E-01 -.264E+00 0.762E+01
   -.221E-01 0.159E+00 0.944E+03   0.220E-01 -.161E+00 -.936E+03   0.940E-04 0.149E-02 -.773E+01
   -.924E+01 0.186E+02 0.947E+03   0.929E+01 -.187E+02 -.939E+03   -.406E-01 0.999E-01 -.774E+01
   -.377E-01 0.308E+02 -.906E+03   0.375E-01 -.310E+02 0.898E+03   0.131E-03 0.122E+00 0.762E+01
   -.951E+01 0.202E+00 -.912E+03   0.955E+01 -.204E+00 0.904E+03   -.259E-01 0.114E-02 0.762E+01
   -.458E-01 0.417E+02 0.965E+03   0.456E-01 -.421E+02 -.957E+03   0.136E-03 0.347E+00 -.777E+01
   -.282E+02 0.497E+02 0.989E+03   0.285E+02 -.500E+02 -.981E+03   -.257E+00 0.249E+00 -.765E+01
   -.207E+00 0.140E+03 -.821E+03   0.206E+00 -.142E+03 0.813E+03   0.470E-03 0.158E+01 0.771E+01
   -.245E+02 0.604E+02 -.892E+03   0.246E+02 -.608E+02 0.884E+03   -.809E-01 0.270E+00 0.762E+01
   -.150E+00 0.509E+02 0.106E+04   0.149E+00 -.511E+02 -.105E+04   0.895E-03 0.156E+00 -.582E+01
   -.561E+02 -.443E+00 0.105E+04   0.566E+02 0.452E+00 -.104E+04   -.394E+00 -.636E-02 -.780E+01
   -.938E+00 -.271E+01 -.454E+03   0.939E+00 0.279E+01 0.451E+03   0.269E-02 -.479E-01 0.215E+01
   -.142E+03 0.108E+03 -.751E+03   0.144E+03 -.108E+03 0.744E+03   -.158E+01 -.602E-01 0.724E+01
   -.147E+00 -.514E+02 0.106E+04   0.146E+00 0.516E+02 -.105E+04   0.835E-03 -.164E+00 -.587E+01
   -.279E+02 -.496E+02 0.988E+03   0.282E+02 0.499E+02 -.980E+03   -.253E+00 -.246E+00 -.765E+01
   -.200E+00 -.138E+03 -.823E+03   0.200E+00 0.140E+03 0.815E+03   0.463E-03 -.154E+01 0.770E+01
   -.140E+03 -.109E+03 -.753E+03   0.142E+03 0.109E+03 0.746E+03   -.154E+01 0.520E-01 0.725E+01
[...]
   -.106E+02 0.949E+01 0.708E+03   0.106E+02 -.949E+01 -.712E+03   -.499E-01 0.851E-02 0.351E+01
   0.214E-01 0.764E+01 0.704E+03   -.213E-01 -.764E+01 -.708E+03   -.151E-03 0.542E-02 0.351E+01
   -.194E+02 0.814E+01 -.683E+03   0.194E+02 -.813E+01 0.687E+03   -.442E-01 -.319E-02 -.371E+01
   0.564E-01 -.545E-01 -.685E+03   -.562E-01 0.546E-01 0.689E+03   -.300E-03 -.231E-03 -.370E+01
   -.147E+02 -.536E-01 0.712E+03   0.147E+02 0.539E-01 -.716E+03   -.558E-01 -.400E-03 0.350E+01
   0.363E-01 0.505E+01 0.708E+03   -.361E-01 -.505E+01 -.712E+03   -.239E-03 0.801E-03 0.351E+01
   -.194E+02 -.824E+01 -.683E+03   0.194E+02 0.824E+01 0.687E+03   -.439E-01 0.267E-02 -.371E+01
   0.398E-01 -.991E+01 -.688E+03   -.397E-01 0.991E+01 0.692E+03   -.226E-03 0.186E-02 -.368E+01
   -.106E+02 -.951E+01 0.708E+03   0.106E+02 0.951E+01 -.712E+03   -.494E-01 -.869E-02 0.351E+01
   0.361E-01 -.512E+01 0.708E+03   -.360E-01 0.512E+01 -.712E+03   -.238E-03 -.125E-02 0.351E+01
   -.995E+01 -.113E+02 -.688E+03   0.998E+01 0.113E+02 0.692E+03   -.352E-01 -.496E-02 -.368E+01
   0.199E-01 -.552E+01 -.691E+03   -.198E-01 0.552E+01 0.695E+03   -.126E-03 -.124E-02 -.367E+01
   -.552E+01 -.522E+01 0.704E+03   0.555E+01 0.522E+01 -.708E+03   -.309E-01 -.814E-02 0.352E+01
   0.213E-01 -.761E+01 0.704E+03   -.211E-01 0.761E+01 -.708E+03   -.150E-03 -.524E-02 0.352E+01
   0.957E-02 -.249E+00 0.574E+01   0.223E-11 0.853E-12 0.182E-11   -.499E-02 0.250E+00 -.620E+01

 POSITION                                       TOTAL-FORCE (eV/Angst)
      8.45129     11.78922     13.22011         0.002702     -0.198954     -0.104238
      8.44827     10.55171     17.46787        -0.000562     -0.002244     -0.223075
      8.44707     10.54754     15.21331         0.003873      0.000682     -0.080554
      8.45116      9.32335     13.20450         0.003035      0.203551     -0.099801
      0.00000      0.00000      9.00000        -0.006555     -0.000087      0.463273
      2.11389      2.11389      9.00000        -0.014554     -0.005480      0.463266
      0.00000      2.11389     11.11389        -0.007233     -0.000364     -0.425413
      2.11389      0.00000     11.11389        -0.010244     -0.000133     -0.424678
      0.00000      4.22777      9.00000        -0.011190     -0.002133      0.464500
      2.11389      6.34166      9.00000        -0.036095     -0.006115      0.468500
      0.00000      6.34166     11.11389        -0.010774      0.001066     -0.420255
      2.11389      4.22777     11.11389        -0.022612     -0.002702     -0.419440
      0.00000      8.45554      9.00000        -0.017041     -0.000461      0.467068
      2.11389     10.56943      9.00000        -0.045398      0.000188      0.473104
      0.00000     10.56943     11.11389        -0.009219      0.000053     -0.415852
      2.11389      8.45554     11.11389        -0.026560      0.002842     -0.403143
      0.00000     12.68331      9.00000        -0.016904      0.000590      0.467087
      2.11389     14.79720      9.00000        -0.035522      0.006179      0.468397
      0.00000     14.79720     11.11389        -0.010645     -0.001028     -0.420323
      2.11389     12.68331     11.11389        -0.026356     -0.002642     -0.403336
      0.00000     16.91108      9.00000        -0.011031      0.002074      0.464493
      2.11389     19.02497      9.00000        -0.014394      0.005211      0.463282
      0.00000     19.02497     11.11389        -0.007159      0.000246     -0.425458
      2.11389     16.91108     11.11389        -0.022243      0.002618     -0.419584
      4.22777      0.00000      9.00000        -0.012385     -0.000245      0.463564
      6.34166      2.11389      9.00000        -0.011890     -0.026403      0.464394
      4.22777      2.11389     11.11389        -0.014961     -0.012775     -0.420667
      6.34166      0.00000     11.11389        -0.007451     -0.000291     -0.421270
      4.22777      4.22777      9.00000        -0.034126     -0.024846      0.461618
      6.34166      6.34166      9.00000        -0.083744     -0.079002      0.428477
      4.22777      6.34166     11.11389        -0.079355      0.000292     -0.395356
      6.34166      4.22777     11.11389        -0.023550     -0.069379     -0.408112
      4.22777      8.45554      9.00000        -0.097382     -0.009142      0.483249
      6.34166     10.56943      9.00000        -0.127722      0.002081      0.437722
      4.22777     10.56943     11.11389        -0.066649      0.000168     -0.339914
      6.34166      8.45554     11.11389        -0.546456      0.028639     -0.353347
      4.22777     12.68331      9.00000        -0.095844      0.009860      0.482886
      6.34166     14.79720      9.00000        -0.082123      0.077851      0.429605
      4.22777     14.79720     11.11389        -0.077665      0.000025     -0.395957
      6.34166     12.68331     11.11389        -0.527493     -0.027668     -0.351805
      4.22777     16.91108      9.00000        -0.033526      0.024338      0.461639
      6.34166     19.02497      9.00000        -0.011734      0.025561      0.464355
      4.22777     19.02497     11.11389        -0.014802      0.012290     -0.420812
      6.34166     16.91108     11.11389        -0.023226      0.067716     -0.408654
      8.45554      0.00000      9.00000        -0.000051     -0.000396      0.464253
     10.56943      2.11389      9.00000         0.011797     -0.026410      0.464388
      8.45554      2.11389     11.11389        -0.000064     -0.030245     -0.417485
     10.56943      0.00000     11.11389         0.007356     -0.000297     -0.421280
      8.45554      4.22777      9.00000        -0.000063     -0.087502      0.466720
     10.56943      6.34166      9.00000         0.083605     -0.079121      0.428497
      8.45554      6.34166     11.11389        -0.000194     -0.490805     -0.423164
     10.56943      4.22777     11.11389         0.023409     -0.069442     -0.408178
      8.45554      8.45554      9.00000        -0.000312     -0.024268      0.038622
     10.56943     10.56943      9.00000         0.127538      0.002094      0.438065
      8.45554     10.56943     11.11389         0.003405      0.024204     -1.418451
     10.56943      8.45554     11.11389         0.544553      0.029487     -0.352473
      8.45554     12.68331      9.00000        -0.000295      0.025933      0.049690
     10.56943     14.79720      9.00000         0.081986      0.077956      0.429598
      8.45554     14.79720     11.11389        -0.000193      0.476830     -0.422243
     10.56943     12.68331     11.11389         0.525771     -0.028482     -0.351084
[...]
     19.02497      6.34166     11.11389        -0.000076     -0.000534      0.368249
     16.91108      6.34166      9.00000        -0.013795      0.002408     -0.412187
     19.02497      4.22777      9.00000        -0.000062      0.001537     -0.410743
     16.91108      8.45554     11.11389        -0.012298     -0.000865      0.362375
     19.02497     10.56943     11.11389        -0.000105     -0.000071      0.365310
     16.91108     10.56943      9.00000        -0.015478     -0.000117     -0.414208
     19.02497      8.45554      9.00000        -0.000083      0.000260     -0.412376
     16.91108     12.68331     11.11389        -0.012219      0.000711      0.362448
     19.02497     14.79720     11.11389        -0.000084      0.000490      0.368316
     16.91108     14.79720      9.00000        -0.013655     -0.002463     -0.412157
     19.02497     12.68331      9.00000        -0.000086     -0.000392     -0.412366
     16.91108     16.91108     11.11389        -0.009732     -0.001407      0.369319
     19.02497     19.02497     11.11389        -0.000055     -0.000367      0.372357
     16.91108     19.02497      9.00000        -0.008492     -0.002247     -0.410213
     19.02497     16.91108      9.00000        -0.000064     -0.001489     -0.410727
    total drift:                                0.004577      0.000742     -0.452679

  FREE ENERGIE OF THE ION-ELECTRON SYSTEM (eV)
  free  energy   TOTEN  =     -1206.73355106 eV

  energy  without entropy=    -1206.73355106  energy(sigma->0) =    -1206.73355106