 vasp.6.4.0 14Feb23 (build Dec 05 2023 14:15:48) complex

 executed on             LinuxIFC date 2023.12.12  09:51:57

 INCAR:
   SYSTEM = MgO-rocksalt
   ISMEAR = 0
   SIGMA = 0.05
   EDIFF = 1E-6
   ALGO = ALL
   ISTART = 2
   IBRION = -1
   NSW = 0
   ISYM = 0
   DIPOL = 0.5 0.5 0.5
   IDIPOL = 3
   LDIPOL = .TRUE.
   METAGGA = M06L
   ENCUT = 520
   PREC = Accurate
   LASPH = .TRUE.
   LREAL = Auto
   ISPIN = 1
   NELM = 20000
   NELMIN = 8
   NCORE = 16
   LWAVE = .FALSE.
   LCHARG = .FALSE.

 POTCAR:    PAW_PBE Ag 02Apr2005
 POTCAR:    PAW_PBE Mg_pv 13Apr2007
 POTCAR:    PAW_PBE O 08Apr2002
 POTCAR:    PAW_PBE Ag 02Apr2005
   VRHFIN =Ag : s1 d10

   TITEL  = PAW_PBE Ag 02Apr2005
   POMASS =  107.868; ZVAL   =   11.000    mass and valenz
   ENMAX  =  249.844; ENMIN  =  187.383 eV

   TITEL  = PAW_PBE Mg_pv 13Apr2007
   POMASS =   24.305; ZVAL   =    8.000    mass and valenz
   ENMAX  =  403.929; ENMIN  =  302.947 eV

   TITEL  = PAW_PBE O 08Apr2002
   POMASS =   16.000; ZVAL   =    6.000    mass and valenz
   ENMAX  =  400.000; ENMIN  =  300.000 eV

 Optimization of the real space projectors (new method)

 maximal supplied QI-value         = 15.12
 optimisation between [QCUT,QGAM] = [ 11.64, 23.28] = [ 37.95,151.78] Ry
 Optimized for a Real-space Cutoff    1.45 Angstroem

   l    n(q)    QCUT    max X(q) W(low)/X(q) W(high)/X(q)  e(spline)
   2      9    11.641    53.897    0.22E-03    0.42E-04    0.28E-06
   2      9    11.641    52.416    0.23E-03    0.44E-04    0.29E-06
   0     10    11.641   122.045    0.51E-04    0.25E-04    0.16E-06
   0     10    11.641    73.629    0.49E-04    0.24E-04    0.16E-06
   1     10    11.641    15.255    0.99E-04    0.55E-04    0.11E-06
   1     10    11.641     9.562    0.81E-04    0.47E-04    0.95E-07
 Optimization of the real space projectors (new method)

[...]

   l    n(q)    QCUT    max X(q) W(low)/X(q) W(high)/X(q)  e(spline)
   1      8    11.527     2.974    0.44E-04    0.56E-04    0.12E-06
   1      8    11.527     4.279    0.12E-03    0.12E-03    0.26E-06
   0      9    11.527    16.381    0.46E-04    0.64E-04    0.78E-07
   0      9    11.527     5.611    0.26E-04    0.43E-04    0.55E-07
   2      8    11.527     4.652    0.22E-03    0.72E-04    0.47E-07
 Optimization of the real space projectors (new method)

 maximal supplied QI-value         = 24.76
 optimisation between [QCUT,QGAM] = [ 11.64, 23.27] = [ 37.91,151.63] Ry
 Optimized for a Real-space Cutoff    1.14 Angstroem

   l    n(q)    QCUT    max X(q) W(low)/X(q) W(high)/X(q)  e(spline)
   0      8    11.635    20.381    0.10E-03    0.33E-03    0.24E-06
   0      8    11.635    15.268    0.11E-03    0.35E-03    0.26E-06
   1      7    11.635     5.964    0.24E-03    0.31E-03    0.30E-06
   1      7    11.635     5.382    0.22E-03    0.25E-03    0.26E-06
  PAW_PBE Ag 02Apr2005                  :
  PAW_PBE Mg_pv 13Apr2007               :
  PAW_PBE O 08Apr2002                   :

 POSCAR: Ag Mg  O
  positions in direct lattice

 METAGGA = M06L                                        LMAXTAU =  6    LMIXTAU =  F

 ion  position               nearest neighbor table
   1  0.662  0.500  0.618-   2 2.60 172 2.69  73 2.87
   2  0.538  0.500  0.618-   1 2.60 152 2.69  73 2.87
   3  0.000  0.000  0.407- 105 2.11 106 2.11 121 2.11 186 2.11 103 2.11
   4  0.100  0.100  0.407- 105 2.11 106 2.11 110 2.11 125 2.11 104 2.11
   5  0.000  0.100  0.503- 103 2.11 104 2.11 107 2.11 184 2.11 105 2.11
   6  0.100  0.000  0.503- 103 2.11 104 2.11 120 2.11 123 2.11 106 2.11
   7  0.000  0.200  0.407- 109 2.11 105 2.11 110 2.11 190 2.11 107 2.11
   8  0.100  0.300  0.407- 110 2.11 109 2.11 114 2.11 129 2.11 108 2.11
   9  0.000  0.300  0.503- 107 2.11 108 2.11 111 2.11 188 2.11 109 2.11
  10  0.100  0.200  0.503- 108 2.11 107 2.11 104 2.11 127 2.11 110 2.11
  11  0.000  0.400  0.407- 109 2.11 113 2.11 114 2.11 194 2.11 111 2.11
  12  0.100  0.500  0.407- 113 2.11 114 2.11 118 2.11 133 2.11 112 2.11
  13  0.000  0.500  0.503- 111 2.11 112 2.11 115 2.11 192 2.11 113 2.11
  14  0.100  0.400  0.503- 108 2.11 111 2.11 112 2.11 131 2.11 114 2.11
  15  0.000  0.600  0.407- 113 2.11 117 2.11 118 2.11 198 2.11 115 2.11
  16  0.100  0.700  0.407- 122 2.11 118 2.11 117 2.11 137 2.11 116 2.11
  17  0.000  0.700  0.503- 119 2.11 116 2.11 115 2.11 196 2.11 117 2.11
  18  0.100  0.600  0.503- 112 2.11 115 2.11 116 2.11 135 2.11 118 2.11
  19  0.000  0.800  0.407- 117 2.11 121 2.11 122 2.11 202 2.11 119 2.11
  20  0.100  0.900  0.407- 106 2.11 121 2.11 122 2.11 141 2.11 120 2.11
  21  0.000  0.900  0.503- 103 2.11 119 2.11 120 2.11 200 2.11 121 2.11
  22  0.100  0.800  0.503- 116 2.11 119 2.11 120 2.11 139 2.11 122 2.11
  23  0.200  0.000  0.407- 126 2.11 125 2.11 106 2.11 141 2.11 123 2.11
  24  0.300  0.100  0.407- 125 2.11 126 2.11 130 2.11 145 2.11 124 2.11
  25  0.200  0.100  0.503- 124 2.11 123 2.11 104 2.11 127 2.11 125 2.11
  26  0.300  0.000  0.503- 123 2.11 124 2.11 140 2.11 143 2.11 126 2.11
  27  0.200  0.200  0.407- 129 2.11 130 2.11 110 2.11 125 2.11 127 2.11
  28  0.300  0.300  0.407- 129 2.11 130 2.11 134 2.11 149 2.11 128 2.11
  29  0.200  0.300  0.503- 127 2.11 128 2.11 108 2.11 131 2.11 129 2.11
  30  0.300  0.200  0.503- 127 2.11 128 2.11 124 2.11 147 2.11 130 2.11
  31  0.200  0.400  0.407- 134 2.11 129 2.11 133 2.11 114 2.11 131 2.11
  32  0.300  0.500  0.407- 133 2.11 134 2.11 138 2.11 153 2.11 132 2.11
  33  0.200  0.500  0.503- 132 2.11 131 2.11 112 2.11 135 2.11 133 2.11
  34  0.300  0.400  0.503- 131 2.11 128 2.11 132 2.11 151 2.11 134 2.11
  35  0.200  0.600  0.407- 138 2.11 133 2.11 137 2.11 118 2.11 135 2.11
  36  0.300  0.700  0.407- 137 2.11 142 2.11 138 2.11 157 2.11 136 2.11
  37  0.200  0.700  0.503- 136 2.11 139 2.11 116 2.11 135 2.11 137 2.11
  38  0.300  0.600  0.503- 135 2.11 132 2.11 136 2.11 155 2.11 138 2.11
  39  0.200  0.800  0.407- 137 2.11 142 2.11 141 2.11 122 2.11 139 2.11
  40  0.300  0.900  0.407- 141 2.11 126 2.11 142 2.11 161 2.11 140 2.11
  41  0.200  0.900  0.503- 140 2.11 123 2.11 139 2.11 120 2.11 141 2.11
  42  0.300  0.800  0.503- 136 2.11 139 2.11 140 2.11 159 2.11 142 2.11
  43  0.400  0.000  0.407- 126 2.11 145 2.11 146 2.11 161 2.11 143 2.11
  44  0.500  0.100  0.407- 145 2.11 146 2.11 150 2.11 165 2.11 144 2.11
  45  0.400  0.100  0.503- 124 2.11 143 2.11 144 2.11 147 2.11 145 2.11
  46  0.500  0.000  0.503- 143 2.11 144 2.11 160 2.11 163 2.11 146 2.11
  47  0.400  0.200  0.407- 149 2.11 145 2.11 130 2.11 150 2.11 147 2.11
  48  0.500  0.300  0.407- 150 2.11 149 2.11 154 2.11 169 2.11 148 2.11
  49  0.400  0.300  0.503- 147 2.11 128 2.11 148 2.11 151 2.11 149 2.11
  50  0.500  0.200  0.503- 148 2.11 147 2.11 144 2.11 167 2.11 150 2.11
  51  0.400  0.400  0.407- 134 2.11 149 2.11 153 2.11 154 2.11 151 2.11
  52  0.500  0.500  0.407- 153 2.11 154 2.11 158 2.11 173 2.11 152 2.11
  53  0.400  0.500  0.503- 132 2.11 151 2.11 152 2.11 155 2.11 153 2.11
  54  0.500  0.400  0.503- 148 2.11 151 2.11 152 2.11 171 2.11 154 2.11
  55  0.400  0.600  0.407- 138 2.11 153 2.11 157 2.11 158 2.11 155 2.11
  56  0.500  0.700  0.407- 162 2.11 158 2.11 157 2.11 177 2.11 156 2.11
  57  0.400  0.700  0.503- 159 2.11 155 2.11 156 2.11 136 2.11 157 2.11
  58  0.500  0.600  0.503- 152 2.11 155 2.11 156 2.11 175 2.11 158 2.11
  59  0.400  0.800  0.407- 157 2.11 142 2.11 161 2.11 162 2.11 159 2.11
  60  0.500  0.900  0.407- 146 2.11 161 2.11 162 2.11 181 2.11 160 2.11
[...]
 188  0.900  0.300  0.503-  90 2.11  89 2.11   9 2.11  94 2.11  88 2.11
 189  0.800  0.300  0.407-  68 2.11  87 2.11  88 2.11  91 2.11  89 2.11
 190  0.900  0.200  0.407-  88 2.11  84 2.11  87 2.11   7 2.11  90 2.11
 191  0.800  0.400  0.503-  74 2.11  89 2.11  93 2.11  94 2.11  91 2.11
 192  0.900  0.500  0.503-  13 2.11  93 2.11  94 2.11  98 2.11  92 2.11
 193  0.800  0.500  0.407-  72 2.11  91 2.11  92 2.11  95 2.11  93 2.11
 194  0.900  0.400  0.407-  11 2.11  88 2.11  91 2.11  92 2.11  94 2.11
 195  0.800  0.600  0.503-  78 2.11  93 2.11  97 2.11  98 2.11  95 2.11
 196  0.900  0.700  0.503- 102 2.11  97 2.11  98 2.11  17 2.11  96 2.11
 197  0.800  0.700  0.407-  76 2.11  99 2.11  96 2.11  95 2.11  97 2.11
 198  0.900  0.600  0.407-  15 2.11  92 2.11  95 2.11  96 2.11  98 2.11
 199  0.800  0.800  0.503-  82 2.11  97 2.11 101 2.11 102 2.11  99 2.11
 200  0.900  0.900  0.503-  21 2.11  86 2.11 101 2.11 102 2.11 100 2.11
 201  0.800  0.900  0.407-  80 2.11  83 2.11  99 2.11 100 2.11 101 2.11
 202  0.900  0.800  0.407-  96 2.11  19 2.11  99 2.11 100 2.11 102 2.11

IMPORTANT INFORMATION: All symmetrisations will be switched off!
NOSYMM: (Re-)initialisation of all symmetry stuff for point group C_1.

                                     Primitive cell

  volume of cell :    9881.6133

  direct lattice vectors                    reciprocal lattice vectors
    21.138852197  0.000000000  0.000000000     0.047306258  0.000000000  0.000000000
     0.000000000 21.138852197  0.000000000     0.000000000  0.047306258  0.000000000
     0.000000000  0.000000000 22.113885220     0.000000000  0.000000000  0.045220457

  length of vectors
    21.138852197 21.138852197 22.113885220     0.047306258  0.047306258  0.045220457

  position of ions in fractional coordinates (direct lattice)
     0.661528368  0.500000000  0.618312831
     0.538471560  0.500000000  0.618312831
     0.000000000  0.000000000  0.406984115
     0.100000000  0.100000000  0.406984115
     0.000000000  0.100000000  0.502574971
     0.100000000  0.000000000  0.502574971
     0.000000000  0.200000000  0.406984115
     0.100000000  0.300000000  0.406984115
     0.000000000  0.300000000  0.502574971
     0.100000000  0.200000000  0.502574971
     0.000000000  0.400000000  0.406984115
     0.100000000  0.500000000  0.406984115
     0.000000000  0.500000000  0.502574971
     0.100000000  0.400000000  0.502574971
     0.000000000  0.600000000  0.406984115
     0.100000000  0.700000000  0.406984115
     0.000000000  0.700000000  0.502574971
     0.100000000  0.600000000  0.502574971
     0.000000000  0.800000000  0.406984115
     0.100000000  0.900000000  0.406984115
     0.000000000  0.900000000  0.502574971
     0.100000000  0.800000000  0.502574971
     0.200000000  0.000000000  0.406984115
     0.300000000  0.100000000  0.406984115
     0.200000000  0.100000000  0.502574971
     0.300000000  0.000000000  0.502574971
     0.200000000  0.200000000  0.406984115
     0.300000000  0.300000000  0.406984115
     0.200000000  0.300000000  0.502574971
     0.300000000  0.200000000  0.502574971
     0.200000000  0.400000000  0.406984115
     0.300000000  0.500000000  0.406984115
     0.200000000  0.500000000  0.502574971
     0.300000000  0.400000000  0.502574971
     0.200000000  0.600000000  0.406984115
     0.300000000  0.700000000  0.406984115
     0.200000000  0.700000000  0.502574971
     0.300000000  0.600000000  0.502574971
     0.200000000  0.800000000  0.406984115
     0.300000000  0.900000000  0.406984115
     0.200000000  0.900000000  0.502574971
     0.300000000  0.800000000  0.502574971
     0.400000000  0.000000000  0.406984115
     0.500000000  0.100000000  0.406984115
     0.400000000  0.100000000  0.502574971
     0.500000000  0.000000000  0.502574971
[...]
     52     -44.6717      2.00000
     53     -44.6648      2.00000
     54     -44.6574      2.00000
     55     -44.6504      2.00000
     56     -44.6496      2.00000
     57     -44.6487      2.00000
     58     -44.6478      2.00000
     59     -44.6465      2.00000
     60     -44.6460      2.00000
[...]
    850      25.7751      0.00000
    851      27.0991      0.00000
    852      30.2065      0.00000
    853      31.5982      0.00000
    854      32.2829      0.00000
    855      33.5406      0.00000
    856      46.2205      0.00000
    857      49.8801      0.00000
    858      63.9644      0.00000
    859      88.8373      0.00000
    860     105.1183      0.00000
    861     139.0018      0.00000
    862     148.7661      0.00000
    863     211.6670      0.00000
    864     295.1085      0.00000

 soft charge-density along one line, spin component           1
         0         1         2         3         4         5         6         7         8         9
 total charge-density along one line

------------------------ aborting loop because EDIFF is reached ----------------------------------------

  FORCE on cell =-STRESS in cart. coord.  units (eV):
  Direction    XX          YY          ZZ          XY          YZ          ZX
  Alpha Z  1357.53553  1357.53553  1357.53553
  Ewald  480348.85422479657.10670************     0.00000     0.00000     0.00002
  Hartree509189.32627508680.68149************    -0.06129     0.00946     0.08072
  E(xc)   -8851.69602 -8851.98652 -8842.26999     0.04134    -0.03164     0.10619
  Local  ************************************     0.06500    -0.04458    -0.10673
  n-local -8699.37344 -8697.55318 -8838.73044     0.01970    -0.01206    -0.00228
  augment  4315.38140  4316.79175  4299.36189    -0.00478    -0.07020     0.17105
  Kinetic 23123.17057 23127.65971 23334.65385     0.00633     0.06414     0.00954
  Fock        0.00000     0.00000     0.00000     0.00000     0.00000     0.00000
  Total    -230.76713  -232.00840    17.18075     0.06630    -0.08489     0.25850
  in kB     -37.41594   -37.61720     2.78564     0.01075    -0.01376     0.04191

 VOLUME and BASIS-vectors are now :
  energy-cutoff  :      520.00
  volume of cell :     9881.61
      direct lattice vectors                 reciprocal lattice vectors
    21.138852197  0.000000000  0.000000000     0.047306258  0.000000000  0.000000000
     0.000000000 21.138852197  0.000000000     0.000000000  0.047306258  0.000000000
     0.000000000  0.000000000 22.113885220     0.000000000  0.000000000  0.045220457

  length of vectors
    21.138852197 21.138852197 22.113885220     0.047306258  0.047306258  0.045220457

 FORCES acting on ions:
    Electron-Ion                     Ewald-Force                    Non-Local-Force
   -.262E+03 -.598E-01 -.210E+04   0.257E+03 0.115E-07 0.210E+04   0.601E+01 0.516E-01 -.285E+00
   0.262E+03 0.595E-01 -.210E+04   -.257E+03 0.115E-07 0.210E+04   -.602E+01 -.405E-01 -.228E+00
   -.327E+01 -.385E-02 0.932E+03   0.329E+01 0.838E-08 -.923E+03   -.181E-02 0.879E-02 -.666E+01
   -.261E-02 0.367E+01 0.932E+03   -.144E-05 -.371E+01 -.923E+03   0.206E-02 0.275E-01 -.667E+01
   -.476E+01 0.528E+01 -.924E+03   0.478E+01 -.532E+01 0.915E+03   -.874E-02 0.292E-01 0.929E+01
   -.376E-02 -.154E-02 -.924E+03   -.149E-05 0.885E-08 0.915E+03   0.133E-02 -.192E-02 0.987E+01
   -.552E+01 0.736E+01 0.935E+03   0.555E+01 -.743E+01 -.926E+03   -.151E-01 0.469E-01 -.634E+01
   0.254E-03 0.667E+01 0.936E+03   -.297E-05 -.673E+01 -.926E+03   0.380E-02 0.432E-01 -.692E+01
   -.115E+02 0.107E+02 -.920E+03   0.116E+02 -.108E+02 0.911E+03   -.497E-01 0.524E-01 0.981E+01
   0.159E-02 0.771E+01 -.923E+03   -.265E-05 -.777E+01 0.914E+03   -.563E-03 0.354E-01 0.965E+01
   -.109E+02 0.546E+01 0.940E+03   0.110E+02 -.552E+01 -.931E+03   -.657E-01 0.274E-01 -.618E+01
   0.243E-02 0.476E-02 0.938E+03   -.431E-05 -.903E-08 -.929E+03   -.421E-03 -.819E-02 -.614E+01
   -.185E+02 -.237E-02 -.917E+03   0.187E+02 -.159E-07 0.908E+03   -.109E+00 0.642E-02 0.970E+01
   0.143E-02 0.557E+01 -.920E+03   -.558E-05 -.561E+01 0.911E+03   -.229E-02 0.239E-01 0.939E+01
   -.109E+02 -.546E+01 0.940E+03   0.110E+02 0.552E+01 -.931E+03   -.753E-01 -.462E-01 -.651E+01
   0.364E-02 -.667E+01 0.936E+03   -.297E-05 0.673E+01 -.926E+03   -.380E-02 -.465E-01 -.640E+01
   -.115E+02 -.107E+02 -.920E+03   0.116E+02 0.108E+02 0.911E+03   -.503E-01 -.488E-01 0.916E+01
   0.469E-02 -.558E+01 -.920E+03   -.558E-05 0.561E+01 0.911E+03   -.297E-02 -.241E-01 0.989E+01
   -.552E+01 -.736E+01 0.935E+03   0.555E+01 0.743E+01 -.926E+03   -.179E-01 -.460E-01 -.694E+01
   -.304E-03 -.368E+01 0.933E+03   -.144E-05 0.371E+01 -.923E+03   -.123E-01 -.305E-01 -.694E+01
   -.476E+01 -.528E+01 -.924E+03   0.478E+01 0.532E+01 0.915E+03   -.388E-02 -.255E-01 0.918E+01
   0.275E-02 -.771E+01 -.923E+03   -.265E-05 0.777E+01 0.914E+03   -.675E-02 -.342E-01 0.964E+01
   0.327E+01 -.907E-03 0.932E+03   -.329E+01 0.838E-08 -.923E+03   0.359E-03 0.601E-02 -.713E+01
   0.652E+01 0.588E+01 0.934E+03   -.655E+01 -.593E+01 -.925E+03   0.132E-01 0.418E-01 -.670E+01
   0.477E+01 0.528E+01 -.924E+03   -.478E+01 -.532E+01 0.915E+03   -.876E-03 0.282E-01 0.902E+01
   0.669E+01 -.111E-02 -.923E+03   -.670E+01 0.147E-07 0.914E+03   0.971E-02 -.345E-02 0.941E+01
   0.552E+01 0.736E+01 0.935E+03   -.555E+01 -.743E+01 -.926E+03   0.904E-02 0.492E-01 -.684E+01
   0.154E+02 0.128E+02 0.942E+03   -.155E+02 -.129E+02 -.933E+03   0.664E-01 0.100E+00 -.640E+01
   0.115E+02 0.107E+02 -.920E+03   -.116E+02 -.108E+02 0.911E+03   0.460E-01 0.546E-01 0.943E+01
   0.134E+02 0.148E+02 -.920E+03   -.135E+02 -.149E+02 0.911E+03   0.108E-01 0.757E-01 0.960E+01
   0.109E+02 0.546E+01 0.940E+03   -.110E+02 -.552E+01 -.931E+03   0.733E-01 0.258E-01 -.684E+01
   0.251E+02 0.769E-04 0.951E+03   -.254E+02 -.204E-07 -.942E+03   0.192E+00 -.117E-01 -.639E+01
   0.185E+02 0.665E-02 -.917E+03   -.187E+02 -.159E-07 0.908E+03   0.974E-01 -.716E-02 0.985E+01
   0.369E+02 0.153E+02 -.909E+03   -.372E+02 -.155E+02 0.899E+03   0.205E+00 0.813E-01 0.945E+01
   0.109E+02 -.546E+01 0.940E+03   -.110E+02 0.552E+01 -.931E+03   0.755E-01 -.337E-01 -.636E+01
   0.154E+02 -.128E+02 0.942E+03   -.155E+02 0.129E+02 -.933E+03   0.716E-01 -.897E-01 -.657E+01
   0.115E+02 -.107E+02 -.920E+03   -.116E+02 0.108E+02 0.911E+03   0.375E-01 -.489E-01 0.998E+01
   0.369E+02 -.154E+02 -.908E+03   -.372E+02 0.155E+02 0.899E+03   0.213E+00 -.838E-01 0.909E+01
   0.552E+01 -.736E+01 0.935E+03   -.555E+01 0.743E+01 -.926E+03   0.162E-01 -.483E-01 -.615E+01
   0.653E+01 -.588E+01 0.934E+03   -.655E+01 0.593E+01 -.925E+03   0.157E-01 -.351E-01 -.644E+01
   0.476E+01 -.529E+01 -.924E+03   -.478E+01 0.532E+01 0.915E+03   0.144E-01 -.232E-01 0.946E+01
   0.134E+02 -.148E+02 -.920E+03   -.135E+02 0.149E+02 0.911E+03   0.218E-01 -.705E-01 0.979E+01
   0.571E+01 -.633E-02 0.935E+03   -.574E+01 0.157E-07 -.926E+03   0.885E-02 0.127E-01 -.627E+01
   0.452E+01 0.106E+02 0.938E+03   -.454E+01 -.106E+02 -.929E+03   0.236E-01 0.562E-01 -.673E+01
   0.895E+01 0.114E+02 -.921E+03   -.897E+01 -.115E+02 0.912E+03   0.561E-02 0.336E-01 0.939E+01
   0.454E+01 -.199E-02 -.921E+03   -.456E+01 0.273E-07 0.912E+03   0.179E-01 0.135E-02 0.973E+01
   0.111E+02 0.161E+02 0.942E+03   -.111E+02 -.162E+02 -.933E+03   0.248E-01 0.103E+00 -.667E+01
   0.139E+02 0.309E+02 0.963E+03   -.140E+02 -.313E+02 -.954E+03   0.294E-01 0.256E+00 -.683E+01
   0.323E+02 0.368E+02 -.904E+03   -.323E+02 -.372E+02 0.895E+03   0.372E-01 0.244E+00 0.974E+01
   0.113E+02 0.342E+02 -.912E+03   -.114E+02 -.344E+02 0.903E+03   0.325E-02 0.100E+00 0.950E+01
   0.297E+02 0.174E+02 0.966E+03   -.300E+02 -.176E+02 -.957E+03   0.157E+00 0.163E+00 -.628E+01
   0.297E+02 -.379E-02 0.101E+04   -.299E+02 -.697E-07 -.100E+04   0.148E+00 0.359E-02 -.591E+01
   0.875E+02 -.260E-02 -.860E+03   -.888E+02 -.104E-06 0.851E+03   0.902E+00 -.638E-02 0.968E+01
   0.635E+02 0.883E+02 -.818E+03   -.636E+02 -.897E+02 0.809E+03   -.393E-01 0.933E+00 0.903E+01
   0.297E+02 -.174E+02 0.966E+03   -.300E+02 0.176E+02 -.957E+03   0.179E+00 -.160E+00 -.614E+01
   0.139E+02 -.309E+02 0.963E+03   -.140E+02 0.313E+02 -.954E+03   0.394E-01 -.247E+00 -.680E+01
   0.323E+02 -.368E+02 -.904E+03   -.323E+02 0.372E+02 0.895E+03   0.419E-01 -.253E+00 0.908E+01
   0.635E+02 -.883E+02 -.818E+03   -.636E+02 0.897E+02 0.809E+03   -.252E-01 -.945E+00 0.895E+01
   0.111E+02 -.161E+02 0.942E+03   -.111E+02 0.162E+02 -.933E+03   0.235E-01 -.970E-01 -.624E+01
   0.452E+01 -.106E+02 0.938E+03   -.454E+01 0.106E+02 -.929E+03   0.132E-01 -.375E-01 -.704E+01
[...]
   -.142E+02 0.159E+02 0.715E+03   0.143E+02 -.161E+02 -.719E+03   -.613E-01 0.155E+00 0.372E+01
   -.735E+01 0.807E+01 0.704E+03   0.740E+01 -.814E+01 -.708E+03   -.248E-01 0.671E-01 0.342E+01
   -.476E+02 0.289E+02 -.661E+03   0.479E+02 -.292E+02 0.665E+03   -.247E+00 0.328E+00 -.287E+01
   -.335E+02 0.190E-02 -.680E+03   0.337E+02 -.263E-07 0.683E+03   -.189E+00 -.440E-02 -.290E+01
   -.267E+02 -.191E-02 0.732E+03   0.270E+02 -.302E-07 -.736E+03   -.304E+00 -.258E-02 0.374E+01
   -.165E+02 0.700E+01 0.712E+03   0.166E+02 -.709E+01 -.716E+03   -.130E+00 0.813E-01 0.362E+01
   -.476E+02 -.289E+02 -.661E+03   0.479E+02 0.292E+02 0.665E+03   -.247E+00 -.331E+00 -.283E+01
   -.175E+02 -.143E+02 -.688E+03   0.176E+02 0.144E+02 0.691E+03   -.757E-01 -.111E+00 -.291E+01
   -.142E+02 -.159E+02 0.715E+03   0.143E+02 0.161E+02 -.719E+03   -.540E-01 -.161E+00 0.359E+01
   -.165E+02 -.701E+01 0.712E+03   0.166E+02 0.709E+01 -.716E+03   -.127E+00 -.860E-01 0.361E+01
   -.119E+02 -.180E+02 -.688E+03   0.120E+02 0.181E+02 0.692E+03   -.396E-02 -.769E-01 -.287E+01
   -.617E+01 -.579E+01 -.693E+03   0.619E+01 0.582E+01 0.697E+03   -.585E-02 -.254E-01 -.292E+01
   -.521E+01 -.622E+01 0.704E+03   0.523E+01 0.626E+01 -.707E+03   -.397E-02 -.256E-01 0.361E+01
   -.735E+01 -.806E+01 0.704E+03   0.740E+01 0.814E+01 -.708E+03   -.191E-01 -.562E-01 0.358E+01
   0.321E+00 0.304E-01 -.113E+03   0.350E-11 -.109E-11 -.671E-11   -.876E-01 0.145E+00 0.175E+03

 POSITION                                       TOTAL-FORCE (eV/Angst)
     13.98395     10.56943     13.67330         0.410089     -0.010259     -0.343834
     11.38267     10.56943     13.67330        -0.394152      0.018861     -0.405884
      0.00000      0.00000      9.00000         0.007816      0.010214      1.465026
      2.11389      2.11389      9.00000         0.002243     -0.004091      1.420595
      0.00000      2.11389     11.11389         0.005039     -0.008296     -1.112706
      2.11389      0.00000     11.11389         0.012262      0.011320     -2.469009
      0.00000      4.22777      9.00000         0.013240     -0.047317      1.945958
      2.11389      6.34166      9.00000        -0.005746     -0.020852      1.174244
      0.00000      6.34166     11.11389         0.071556     -0.019000     -1.908950
      2.11389      4.22777     11.11389         0.048002     -0.020783     -2.306864
      0.00000      8.45554      9.00000         0.054528     -0.035288      1.886714
      2.11389     10.56943      9.00000         0.004185     -0.000776      2.180740
      0.00000     10.56943     11.11389         0.070572      0.003475     -0.988284
      2.11389      8.45554     11.11389        -0.022049      0.009905     -1.334320
      0.00000     12.68331      9.00000         0.050086      0.002949      1.549012
      2.11389     14.79720      9.00000         0.005031      0.023046      1.922447
      0.00000     14.79720     11.11389         0.031444      0.040997     -0.585230
      2.11389     12.68331     11.11389        -0.008398      0.004310     -2.318581
      0.00000     16.91108      9.00000         0.017034      0.031279      1.046881
      2.11389     19.02497      9.00000        -0.016195      0.010359      1.160948
      0.00000     19.02497     11.11389         0.006257      0.017550     -0.479016
      2.11389     16.91108     11.11389        -0.020637      0.027137     -1.837110
      4.22777      0.00000      9.00000        -0.015070      0.008147      0.841310
      6.34166      2.11389      9.00000        -0.012935     -0.014363      1.502547
      4.22777      2.11389     11.11389        -0.014106     -0.015243     -0.370861
      6.34166      0.00000     11.11389        -0.020986     -0.013963     -1.370024
      4.22777      4.22777      9.00000        -0.022769     -0.017942      1.235069
      6.34166      6.34166      9.00000        -0.049853     -0.041762      1.641625
      4.22777      6.34166     11.11389        -0.033469     -0.053291     -1.994614
      6.34166      4.22777     11.11389        -0.023474     -0.038340     -2.581497
      4.22777      8.45554      9.00000        -0.052441     -0.022450      1.358252
      6.34166     10.56943      9.00000        -0.124704      0.003774      1.777753
      4.22777     10.56943     11.11389        -0.050451      0.003764     -2.400530
      6.34166      8.45554     11.11389        -0.112886     -0.051862     -1.657686
      4.22777     12.68331      9.00000        -0.040946      0.010224      1.762015
      6.34166     14.79720      9.00000        -0.059310      0.051176      1.619489
      4.22777     14.79720     11.11389        -0.040373      0.017330     -1.779220
      6.34166     12.68331     11.11389        -0.126941      0.041176     -0.687978
      4.22777     16.91108      9.00000        -0.024142      0.012248      2.182417
      6.34166     19.02497      9.00000        -0.011708      0.017406      1.815791
      4.22777     19.02497     11.11389         0.005784      0.022983     -2.034020
      6.34166     16.91108     11.11389         0.003327      0.044347     -1.629195
      8.45554      0.00000      9.00000        -0.010267     -0.001605      1.785079
     10.56943      2.11389      9.00000         0.000891     -0.034325      1.192194
      8.45554      2.11389     11.11389        -0.007710     -0.030814     -1.727088
     10.56943      0.00000     11.11389         0.012002     -0.009358     -2.864385
      8.45554      4.22777      9.00000        -0.025548     -0.066829      1.453760
     10.56943      6.34166      9.00000        -0.042433     -0.129539      1.254344
      8.45554      6.34166     11.11389        -0.034279     -0.123317     -2.480378
     10.56943      4.22777     11.11389        -0.040533     -0.087833     -0.997386
      8.45554      8.45554      9.00000        -0.111504     -0.086226      1.574168
     10.56943     10.56943      9.00000        -0.075828     -0.002245      1.206458
      8.45554     10.56943     11.11389        -0.402918     -0.020265     -1.109724
     10.56943      8.45554     11.11389        -0.065630     -0.435807     -0.356853
      8.45554     12.68331      9.00000        -0.101486      0.082943      1.842672
     10.56943     14.79720      9.00000        -0.035248      0.146587      1.606477
      8.45554     14.79720     11.11389        -0.051433      0.120610     -0.836702
     10.56943     12.68331     11.11389        -0.055553      0.413622     -0.558203
      8.45554     16.91108      9.00000        -0.035607      0.081530      2.070677
     10.56943     19.02497      9.00000        -0.012626      0.040768      0.934645
[...]
     19.02497      6.34166     11.11389         0.036934     -0.019910      0.186173
     16.91108      6.34166      9.00000         0.025849     -0.018933      0.035552
     19.02497      4.22777      9.00000         0.033053     -0.004848     -0.246530
     16.91108      8.45554     11.11389         0.050384      0.022746      0.195533
     19.02497     10.56943     11.11389         0.040120     -0.004293      0.200884
     16.91108     10.56943      9.00000         0.014119     -0.003547     -0.159301
     19.02497      8.45554      9.00000         0.028464     -0.011701     -0.058797
     16.91108     12.68331     11.11389         0.050152     -0.024092      0.185391
     19.02497     14.79720     11.11389         0.034714      0.018530      0.199929
     16.91108     14.79720      9.00000         0.031770      0.009403     -0.154116
     19.02497     12.68331      9.00000         0.015685     -0.001203     -0.135309
     16.91108     16.91108     11.11389         0.028036      0.034446      0.246624
     19.02497     19.02497     11.11389         0.013293      0.003100      0.157169
     16.91108     19.02497      9.00000         0.015225      0.014686     -0.131694
     19.02497     16.91108      9.00000         0.026493      0.018263     -0.037941
    total drift:                                0.233813      0.175579     62.497570

  FREE ENERGIE OF THE ION-ELECTRON SYSTEM (eV)
  free  energy   TOTEN  =     -1687.86806251 eV

  energy  without entropy=    -1687.86607585  energy(sigma->0) =    -1687.86706918