 vasp.6.3.0 20Jan22 (build Apr  1 2022 16:44:48) complex
 executed on        HPECrayEX_GCC date 2022.12.11  09:41:15

 INCAR:
   SYSTEM = MgO-rocksalt
   ISMEAR = 0
   SIGMA = 0.05
   EDIFF = 1E-6
   ALGO = ALL
   ISTART = 0
   IBRION = -1
   NSW = 0
   ISYM = 2
   DIPOL = 0.5 0.5 0.5
   IDIPOL = 3
   LDIPOL = .TRUE.
   METAGGA = M06L
   ENCUT = 520
   PREC = Accurate
   LASPH = .TRUE.
   LREAL = Auto
   ISPIN = 1
   NELM = 200
   NELMIN = 8
   NCORE = 4
   KPAR = 2
   LWAVE = .FALSE.
   LCHARG = .FALSE.

 POTCAR:    PAW_PBE Ag 02Apr2005
 POTCAR:    PAW_PBE Mg_pv 13Apr2007
 POTCAR:    PAW_PBE O 08Apr2002
 POTCAR:    PAW_PBE Ag 02Apr2005
   VRHFIN =Ag : s1 d10

   TITEL  = PAW_PBE Ag 02Apr2005
   POMASS =  107.868; ZVAL   =   11.000    mass and valenz
   ENMAX  =  249.844; ENMIN  =  187.383 eV

   TITEL  = PAW_PBE Mg_pv 13Apr2007
   POMASS =   24.305; ZVAL   =    8.000    mass and valenz
   ENMAX  =  403.929; ENMIN  =  302.947 eV

   TITEL  = PAW_PBE O 08Apr2002
   POMASS =   16.000; ZVAL   =    6.000    mass and valenz
   ENMAX  =  400.000; ENMIN  =  300.000 eV

 Optimization of the real space projectors (new method)

 maximal supplied QI-value         = 15.12
 optimisation between [QCUT,QGAM] = [ 11.64, 23.28] = [ 37.95,151.78] Ry
 Optimized for a Real-space Cutoff    1.45 Angstroem

   l    n(q)    QCUT    max X(q) W(low)/X(q) W(high)/X(q)  e(spline)
   2      9    11.641    53.897    0.22E-03    0.42E-04    0.28E-06
   2      9    11.641    52.416    0.23E-03    0.44E-04    0.29E-06
   0     10    11.641   122.045    0.51E-04    0.25E-04    0.16E-06
   0     10    11.641    73.629    0.49E-04    0.24E-04    0.16E-06
   1     10    11.641    15.255    0.99E-04    0.55E-04    0.11E-06
   1     10    11.641     9.562    0.81E-04    0.47E-04    0.95E-07
 Optimization of the real space projectors (new method)

[...]

   l    n(q)    QCUT    max X(q) W(low)/X(q) W(high)/X(q)  e(spline)
   1      8    11.527     2.974    0.44E-04    0.56E-04    0.12E-06
   1      8    11.527     4.279    0.12E-03    0.12E-03    0.26E-06
   0      9    11.527    16.381    0.46E-04    0.64E-04    0.78E-07
   0      9    11.527     5.611    0.26E-04    0.43E-04    0.55E-07
   2      8    11.527     4.652    0.22E-03    0.72E-04    0.47E-07
 Optimization of the real space projectors (new method)

 maximal supplied QI-value         = 24.76
 optimisation between [QCUT,QGAM] = [ 11.64, 23.27] = [ 37.91,151.63] Ry
 Optimized for a Real-space Cutoff    1.14 Angstroem

   l    n(q)    QCUT    max X(q) W(low)/X(q) W(high)/X(q)  e(spline)
   0      8    11.635    20.381    0.10E-03    0.33E-03    0.24E-06
   0      8    11.635    15.268    0.11E-03    0.35E-03    0.26E-06
   1      7    11.635     5.964    0.24E-03    0.31E-03    0.30E-06
   1      7    11.635     5.382    0.22E-03    0.25E-03    0.26E-06
  PAW_PBE Ag 02Apr2005                  :
  PAW_PBE Mg_pv 13Apr2007               :
  PAW_PBE O 08Apr2002                   :

 POSCAR: Ag Mg  O
  positions in direct lattice

 METAGGA = M06L     LMAXTAU =  6    LMIXTAU =  F

 ion  position               nearest neighbor table
   1  0.662  0.500  0.618-   2 2.60 172 2.69  73 2.87
   2  0.538  0.500  0.618-   1 2.60 152 2.69  73 2.87
   3  0.000  0.000  0.407- 105 2.11 106 2.11 121 2.11 186 2.11 103 2.11
   4  0.100  0.100  0.407- 105 2.11 106 2.11 110 2.11 125 2.11 104 2.11
   5  0.000  0.100  0.503- 103 2.11 104 2.11 107 2.11 184 2.11 105 2.11
   6  0.100  0.000  0.503- 103 2.11 104 2.11 120 2.11 123 2.11 106 2.11
   7  0.000  0.200  0.407- 109 2.11 105 2.11 110 2.11 190 2.11 107 2.11
   8  0.100  0.300  0.407- 110 2.11 109 2.11 114 2.11 129 2.11 108 2.11
   9  0.000  0.300  0.503- 107 2.11 108 2.11 111 2.11 188 2.11 109 2.11
  10  0.100  0.200  0.503- 108 2.11 107 2.11 104 2.11 127 2.11 110 2.11
  11  0.000  0.400  0.407- 109 2.11 113 2.11 114 2.11 194 2.11 111 2.11
  12  0.100  0.500  0.407- 113 2.11 114 2.11 118 2.11 133 2.11 112 2.11
  13  0.000  0.500  0.503- 111 2.11 112 2.11 115 2.11 192 2.11 113 2.11
  14  0.100  0.400  0.503- 108 2.11 111 2.11 112 2.11 131 2.11 114 2.11
  15  0.000  0.600  0.407- 113 2.11 117 2.11 118 2.11 198 2.11 115 2.11
  16  0.100  0.700  0.407- 122 2.11 118 2.11 117 2.11 137 2.11 116 2.11
  17  0.000  0.700  0.503- 119 2.11 116 2.11 115 2.11 196 2.11 117 2.11
  18  0.100  0.600  0.503- 112 2.11 115 2.11 116 2.11 135 2.11 118 2.11
  19  0.000  0.800  0.407- 117 2.11 121 2.11 122 2.11 202 2.11 119 2.11
  20  0.100  0.900  0.407- 106 2.11 121 2.11 122 2.11 141 2.11 120 2.11
  21  0.000  0.900  0.503- 103 2.11 119 2.11 120 2.11 200 2.11 121 2.11
  22  0.100  0.800  0.503- 116 2.11 119 2.11 120 2.11 139 2.11 122 2.11
  23  0.200  0.000  0.407- 126 2.11 125 2.11 106 2.11 141 2.11 123 2.11
  24  0.300  0.100  0.407- 125 2.11 126 2.11 130 2.11 145 2.11 124 2.11
  25  0.200  0.100  0.503- 124 2.11 123 2.11 104 2.11 127 2.11 125 2.11
  26  0.300  0.000  0.503- 123 2.11 124 2.11 140 2.11 143 2.11 126 2.11
  27  0.200  0.200  0.407- 129 2.11 130 2.11 110 2.11 125 2.11 127 2.11
  28  0.300  0.300  0.407- 129 2.11 130 2.11 134 2.11 149 2.11 128 2.11
  29  0.200  0.300  0.503- 127 2.11 128 2.11 108 2.11 131 2.11 129 2.11
  30  0.300  0.200  0.503- 127 2.11 128 2.11 124 2.11 147 2.11 130 2.11
  31  0.200  0.400  0.407- 134 2.11 129 2.11 133 2.11 114 2.11 131 2.11
  32  0.300  0.500  0.407- 133 2.11 134 2.11 138 2.11 153 2.11 132 2.11
  33  0.200  0.500  0.503- 132 2.11 131 2.11 112 2.11 135 2.11 133 2.11
  34  0.300  0.400  0.503- 131 2.11 128 2.11 132 2.11 151 2.11 134 2.11
  35  0.200  0.600  0.407- 138 2.11 133 2.11 137 2.11 118 2.11 135 2.11
  36  0.300  0.700  0.407- 137 2.11 142 2.11 138 2.11 157 2.11 136 2.11
  37  0.200  0.700  0.503- 136 2.11 139 2.11 116 2.11 135 2.11 137 2.11
  38  0.300  0.600  0.503- 135 2.11 132 2.11 136 2.11 155 2.11 138 2.11
  39  0.200  0.800  0.407- 137 2.11 142 2.11 141 2.11 122 2.11 139 2.11
  40  0.300  0.900  0.407- 141 2.11 126 2.11 142 2.11 161 2.11 140 2.11
  41  0.200  0.900  0.503- 140 2.11 123 2.11 139 2.11 120 2.11 141 2.11
  42  0.300  0.800  0.503- 136 2.11 139 2.11 140 2.11 159 2.11 142 2.11
  43  0.400  0.000  0.407- 126 2.11 145 2.11 146 2.11 161 2.11 143 2.11
  44  0.500  0.100  0.407- 145 2.11 146 2.11 150 2.11 165 2.11 144 2.11
  45  0.400  0.100  0.503- 124 2.11 143 2.11 144 2.11 147 2.11 145 2.11
  46  0.500  0.000  0.503- 143 2.11 144 2.11 160 2.11 163 2.11 146 2.11
  47  0.400  0.200  0.407- 149 2.11 145 2.11 130 2.11 150 2.11 147 2.11
  48  0.500  0.300  0.407- 150 2.11 149 2.11 154 2.11 169 2.11 148 2.11
  49  0.400  0.300  0.503- 147 2.11 128 2.11 148 2.11 151 2.11 149 2.11
  50  0.500  0.200  0.503- 148 2.11 147 2.11 144 2.11 167 2.11 150 2.11
  51  0.400  0.400  0.407- 134 2.11 149 2.11 153 2.11 154 2.11 151 2.11
  52  0.500  0.500  0.407- 153 2.11 154 2.11 158 2.11 173 2.11 152 2.11
  53  0.400  0.500  0.503- 132 2.11 151 2.11 152 2.11 155 2.11 153 2.11
  54  0.500  0.400  0.503- 148 2.11 151 2.11 152 2.11 171 2.11 154 2.11
  55  0.400  0.600  0.407- 138 2.11 153 2.11 157 2.11 158 2.11 155 2.11
  56  0.500  0.700  0.407- 162 2.11 158 2.11 157 2.11 177 2.11 156 2.11
  57  0.400  0.700  0.503- 159 2.11 155 2.11 156 2.11 136 2.11 157 2.11
  58  0.500  0.600  0.503- 152 2.11 155 2.11 156 2.11 175 2.11 158 2.11
  59  0.400  0.800  0.407- 157 2.11 142 2.11 161 2.11 162 2.11 159 2.11
  60  0.500  0.900  0.407- 146 2.11 161 2.11 162 2.11 181 2.11 160 2.11
[...]
 188  0.900  0.300  0.503-  90 2.11  89 2.11   9 2.11  94 2.11  88 2.11
 189  0.800  0.300  0.407-  68 2.11  87 2.11  88 2.11  91 2.11  89 2.11
 190  0.900  0.200  0.407-  88 2.11  84 2.11  87 2.11   7 2.11  90 2.11
 191  0.800  0.400  0.503-  74 2.11  89 2.11  93 2.11  94 2.11  91 2.11
 192  0.900  0.500  0.503-  13 2.11  93 2.11  94 2.11  98 2.11  92 2.11
 193  0.800  0.500  0.407-  72 2.11  91 2.11  92 2.11  95 2.11  93 2.11
 194  0.900  0.400  0.407-  11 2.11  88 2.11  91 2.11  92 2.11  94 2.11
 195  0.800  0.600  0.503-  78 2.11  93 2.11  97 2.11  98 2.11  95 2.11
 196  0.900  0.700  0.503- 102 2.11  97 2.11  98 2.11  17 2.11  96 2.11
 197  0.800  0.700  0.407-  76 2.11  99 2.11  96 2.11  95 2.11  97 2.11
 198  0.900  0.600  0.407-  15 2.11  92 2.11  95 2.11  96 2.11  98 2.11
 199  0.800  0.800  0.503-  82 2.11  97 2.11 101 2.11 102 2.11  99 2.11
 200  0.900  0.900  0.503-  21 2.11  86 2.11 101 2.11 102 2.11 100 2.11
 201  0.800  0.900  0.407-  80 2.11  83 2.11  99 2.11 100 2.11 101 2.11
 202  0.900  0.800  0.407-  96 2.11  19 2.11  99 2.11 100 2.11 102 2.11

  LATTYP: Found a simple tetragonal cell.
 ALAT       =    21.1388521970
 C/A-ratio  =     1.0461251639

  Lattice vectors:

 A1 = (  21.1388521970,   0.0000000000,   0.0000000000)
 A2 = (   0.0000000000,  21.1388521970,   0.0000000000)
 A3 = (   0.0000000000,   0.0000000000,  22.1138852197)

Analysis of symmetry for initial positions (statically):
 Subroutine PRICEL returns:
 Original cell was already a primitive cell.

 Routine SETGRP: Setting up the symmetry group for a
 simple tetragonal supercell.

 Subroutine GETGRP returns: Found  4 space group operations
 (whereof  2 operations were pure point group operations)
 out of a pool of 16 trial point group operations.

The static configuration has the point symmetry C_1h.
 The point group associated with its full space group is C_2v.

Analysis of symmetry for dynamics (positions and initial velocities):
 Subroutine PRICEL returns:
 Original cell was already a primitive cell.

 Routine SETGRP: Setting up the symmetry group for a
 simple tetragonal supercell.

 Subroutine GETGRP returns: Found  4 space group operations
 (whereof  2 operations were pure point group operations)
 out of a pool of 16 trial point group operations.

The dynamic configuration has the point symmetry C_1h.
 The point group associated with its full space group is C_2v.

 Subroutine INISYM returns: Found  4 space group operations
 (whereof  2 operations are pure point group operations),
 and found     1 'primitive' translations

                                     Primitive cell

  volume of cell :    9881.6133

  direct lattice vectors                    reciprocal lattice vectors
    21.138852197  0.000000000  0.000000000     0.047306258  0.000000000  0.000000000
     0.000000000 21.138852197  0.000000000     0.000000000  0.047306258  0.000000000
     0.000000000  0.000000000 22.113885220     0.000000000  0.000000000  0.045220457

  length of vectors
    21.138852197 21.138852197 22.113885220     0.047306258  0.047306258  0.045220457

  position of ions in fractional coordinates (direct lattice)
     0.661528368  0.500000000  0.618312831
     0.538471560  0.500000000  0.618312831
     0.000000000  0.000000000  0.406984115
     0.100000000  0.100000000  0.406984115
     0.000000000  0.100000000  0.502574971
     0.100000000  0.000000000  0.502574971
     0.000000000  0.200000000  0.406984115
     0.100000000  0.300000000  0.406984115
     0.000000000  0.300000000  0.502574971
     0.100000000  0.200000000  0.502574971
     0.000000000  0.400000000  0.406984115
     0.100000000  0.500000000  0.406984115
     0.000000000  0.500000000  0.502574971
     0.100000000  0.400000000  0.502574971
     0.000000000  0.600000000  0.406984115
[...]
     52     -44.6026      2.00000
     53     -44.6021      2.00000
     54     -44.6020      2.00000
     55     -44.5932      2.00000
     56     -44.5929      2.00000
     57     -44.5926      2.00000
     58     -44.5925      2.00000
     59     -44.5921      2.00000
     60     -44.5917      2.00000
[...]
    882       7.6477      0.00000
    883       7.6775      0.00000
    884       7.6836      0.00000
    885       7.7054      0.00000
    886       7.7213      0.00000
    887       7.7407      0.00000
    888       7.7884      0.00000
    889       7.8293      0.00000
    890       7.8709      0.00000
    891       7.9164      0.00000
    892       7.9494      0.00000
    893       7.9678      0.00000
    894       8.0592      0.00000
    895       8.1020      0.00000
    896       8.1968      0.00000

 soft charge-density along one line, spin component           1
         0         1         2         3         4         5         6         7         8         9
 total charge-density along one line

------------------------ aborting loop EDIFF was not reached (unconverged)  ----------------------------

  FORCE on cell =-STRESS in cart. coord.  units (eV):
  Direction    XX          YY          ZZ          XY          YZ          ZX
  Alpha Z  1357.53553  1357.53553  1357.53553
  Ewald  480348.85422479657.10670************    -0.00000     0.00000     0.00002
  Hartree509245.30865508735.16779************     0.00000    -0.00000     0.00001
  E(xc)   -8853.25419 -8853.44618 -8845.65902    -0.04658    -0.02292    -0.00285
  Local  ************************************     0.00000    -0.00000    -0.00002
  n-local -8714.65187 -8712.74020 -8843.79104     0.00648     0.00461     0.00799
  augment  4308.31893  4309.64855  4287.19982    -0.00567     0.00033    -0.00143
  Kinetic 23140.63512 23145.48849 23363.53543     0.02342    -0.03647    -0.00719
  Fock        0.00000     0.00000     0.00000     0.00000     0.00000     0.00000
  Total    -168.39010  -168.85188    83.59085     0.00000     0.00000     0.00000
  in kB     -27.30230   -27.37717    13.55319     0.00000     0.00000     0.00000

 VOLUME and BASIS-vectors are now :
  energy-cutoff  :      520.00
  volume of cell :     9881.61
      direct lattice vectors                 reciprocal lattice vectors
    21.138852197  0.000000000  0.000000000     0.047306258  0.000000000  0.000000000
     0.000000000 21.138852197  0.000000000     0.000000000  0.047306258  0.000000000
     0.000000000  0.000000000 22.113885220     0.000000000  0.000000000  0.045220457

  length of vectors
    21.138852197 21.138852197 22.113885220     0.047306258  0.047306258  0.045220457

 FORCES acting on ions:
    Electron-Ion                     Ewald-Force                    Non-Local-Force
   -.263E+03 -.127E-05 -.210E+04   0.257E+03 0.115E-07 0.210E+04   0.656E+01 0.000E+00 -.109E+00
   0.263E+03 -.845E-06 -.210E+04   -.257E+03 0.115E-07 0.210E+04   -.656E+01 0.000E+00 -.109E+00
   -.328E+01 0.483E-06 0.933E+03   0.329E+01 0.838E-08 -.923E+03   0.356E-03 0.000E+00 -.673E+01
   -.184E-03 0.367E+01 0.933E+03   -.144E-05 -.371E+01 -.923E+03   0.000E+00 0.129E-01 -.674E+01
   -.477E+01 0.527E+01 -.924E+03   0.478E+01 -.532E+01 0.915E+03   0.407E-02 0.324E-01 0.874E+01
   -.184E-03 0.482E-06 -.925E+03   -.149E-05 0.885E-08 0.915E+03   0.000E+00 0.000E+00 0.852E+01
   -.554E+01 0.737E+01 0.935E+03   0.555E+01 -.743E+01 -.926E+03   -.169E-01 0.389E-01 -.702E+01
   -.183E-03 0.667E+01 0.936E+03   -.297E-05 -.673E+01 -.926E+03   0.000E+00 0.411E-01 -.738E+01
   -.115E+02 0.107E+02 -.921E+03   0.116E+02 -.108E+02 0.911E+03   -.300E-01 0.370E-01 0.919E+01
   -.183E-03 0.772E+01 -.923E+03   -.265E-05 -.777E+01 0.914E+03   0.000E+00 0.390E-01 0.922E+01
   -.110E+02 0.547E+01 0.940E+03   0.110E+02 -.552E+01 -.931E+03   -.674E-01 0.216E-01 -.641E+01
   -.181E-03 0.495E-06 0.938E+03   -.431E-05 -.903E-08 -.929E+03   0.000E+00 0.000E+00 -.689E+01
   -.186E+02 0.470E-06 -.917E+03   0.187E+02 -.159E-07 0.908E+03   -.902E-01 0.000E+00 0.950E+01
   -.180E-03 0.556E+01 -.921E+03   -.558E-05 -.561E+01 0.911E+03   0.000E+00 0.350E-02 0.934E+01
   -.110E+02 -.547E+01 0.940E+03   0.110E+02 0.552E+01 -.931E+03   -.674E-01 -.216E-01 -.641E+01
   -.183E-03 -.667E+01 0.936E+03   -.297E-05 0.673E+01 -.926E+03   0.000E+00 -.411E-01 -.738E+01
   -.115E+02 -.107E+02 -.921E+03   0.116E+02 0.108E+02 0.911E+03   -.300E-01 -.370E-01 0.919E+01
   -.180E-03 -.556E+01 -.921E+03   -.558E-05 0.561E+01 0.911E+03   0.000E+00 -.350E-02 0.934E+01
   -.554E+01 -.737E+01 0.935E+03   0.555E+01 0.743E+01 -.926E+03   -.169E-01 -.389E-01 -.702E+01
   -.184E-03 -.367E+01 0.933E+03   -.144E-05 0.371E+01 -.923E+03   -.169E-20 -.129E-01 -.674E+01
   -.477E+01 -.527E+01 -.924E+03   0.478E+01 0.532E+01 0.915E+03   0.407E-02 -.324E-01 0.874E+01
   -.183E-03 -.772E+01 -.923E+03   -.265E-05 0.777E+01 0.914E+03   0.000E+00 -.390E-01 0.922E+01
   0.328E+01 0.482E-06 0.933E+03   -.329E+01 0.838E-08 -.923E+03   -.356E-03 0.000E+00 -.673E+01
   0.654E+01 0.588E+01 0.935E+03   -.655E+01 -.593E+01 -.925E+03   -.208E-02 0.343E-01 -.672E+01
   0.477E+01 0.527E+01 -.924E+03   -.478E+01 -.532E+01 0.915E+03   -.407E-02 0.324E-01 0.874E+01
   0.670E+01 0.476E-06 -.924E+03   -.670E+01 0.147E-07 0.914E+03   0.716E-02 0.000E+00 0.870E+01
   0.554E+01 0.737E+01 0.935E+03   -.555E+01 -.743E+01 -.926E+03   0.169E-01 0.389E-01 -.702E+01
   0.155E+02 0.128E+02 0.943E+03   -.155E+02 -.129E+02 -.933E+03   0.624E-01 0.785E-01 -.708E+01
   0.115E+02 0.107E+02 -.921E+03   -.116E+02 -.108E+02 0.911E+03   0.300E-01 0.370E-01 0.919E+01
   0.134E+02 0.148E+02 -.920E+03   -.135E+02 -.149E+02 0.911E+03   0.164E-01 0.641E-01 0.869E+01
   0.110E+02 0.547E+01 0.940E+03   -.110E+02 -.552E+01 -.931E+03   0.674E-01 0.216E-01 -.641E+01
   0.251E+02 0.541E-06 0.951E+03   -.254E+02 -.204E-07 -.942E+03   0.196E+00 0.000E+00 -.599E+01
   0.186E+02 0.531E-06 -.917E+03   -.187E+02 -.159E-07 0.908E+03   0.902E-01 0.000E+00 0.950E+01
   0.370E+02 0.154E+02 -.909E+03   -.372E+02 -.155E+02 0.899E+03   0.177E+00 0.662E-01 0.910E+01
   0.110E+02 -.547E+01 0.940E+03   -.110E+02 0.552E+01 -.931E+03   0.674E-01 -.216E-01 -.641E+01
   0.155E+02 -.128E+02 0.943E+03   -.155E+02 0.129E+02 -.933E+03   0.624E-01 -.785E-01 -.708E+01
   0.115E+02 -.107E+02 -.921E+03   -.116E+02 0.108E+02 0.911E+03   0.300E-01 -.370E-01 0.919E+01
   0.370E+02 -.154E+02 -.909E+03   -.372E+02 0.155E+02 0.899E+03   0.177E+00 -.662E-01 0.910E+01
   0.554E+01 -.737E+01 0.935E+03   -.555E+01 0.743E+01 -.926E+03   0.169E-01 -.389E-01 -.702E+01
   0.654E+01 -.588E+01 0.935E+03   -.655E+01 0.593E+01 -.925E+03   -.208E-02 -.343E-01 -.672E+01
   0.477E+01 -.527E+01 -.924E+03   -.478E+01 0.532E+01 0.915E+03   -.407E-02 -.324E-01 0.874E+01
   0.134E+02 -.148E+02 -.920E+03   -.135E+02 0.149E+02 0.911E+03   0.164E-01 -.641E-01 0.869E+01
   0.572E+01 0.476E-06 0.935E+03   -.574E+01 0.157E-07 -.926E+03   0.768E-02 0.000E+00 -.601E+01
   0.453E+01 0.106E+02 0.939E+03   -.454E+01 -.106E+02 -.929E+03   -.521E-02 0.393E-01 -.629E+01
   0.898E+01 0.114E+02 -.921E+03   -.897E+01 -.115E+02 0.912E+03   -.758E-02 0.328E-01 0.888E+01
   0.455E+01 0.467E-06 -.921E+03   -.456E+01 0.273E-07 0.912E+03   -.480E-01 0.000E+00 0.921E+01
   0.111E+02 0.161E+02 0.942E+03   -.111E+02 -.162E+02 -.933E+03   -.607E-02 0.756E-01 -.622E+01
   0.140E+02 0.309E+02 0.963E+03   -.140E+02 -.313E+02 -.954E+03   0.282E-01 0.225E+00 -.632E+01
   0.323E+02 0.369E+02 -.904E+03   -.323E+02 -.372E+02 0.895E+03   0.569E-03 0.204E+00 0.917E+01
   0.114E+02 0.343E+02 -.912E+03   -.114E+02 -.344E+02 0.903E+03   0.127E-02 0.799E-01 0.920E+01
   0.298E+02 0.174E+02 0.966E+03   -.300E+02 -.176E+02 -.957E+03   0.124E+00 0.157E+00 -.642E+01
   0.297E+02 0.638E-06 0.101E+04   -.299E+02 -.697E-07 -.100E+04   0.119E+00 0.000E+00 -.567E+01
   0.877E+02 0.709E-06 -.860E+03   -.888E+02 -.104E-06 0.851E+03   0.835E+00 0.000E+00 0.901E+01
   0.637E+02 0.885E+02 -.818E+03   -.636E+02 -.897E+02 0.809E+03   -.935E-01 0.867E+00 0.865E+01
   0.298E+02 -.174E+02 0.966E+03   -.300E+02 0.176E+02 -.957E+03   0.124E+00 -.157E+00 -.642E+01
   0.140E+02 -.309E+02 0.963E+03   -.140E+02 0.313E+02 -.954E+03   0.282E-01 -.225E+00 -.632E+01
   0.323E+02 -.369E+02 -.904E+03   -.323E+02 0.372E+02 0.895E+03   0.569E-03 -.204E+00 0.917E+01
   0.637E+02 -.885E+02 -.818E+03   -.636E+02 0.897E+02 0.809E+03   -.935E-01 -.867E+00 0.865E+01
   0.111E+02 -.161E+02 0.942E+03   -.111E+02 0.162E+02 -.933E+03   -.607E-02 -.756E-01 -.622E+01
   0.453E+01 -.106E+02 0.939E+03   -.454E+01 0.106E+02 -.929E+03   -.521E-02 -.393E-01 -.629E+01
[...]
   -.143E+02 0.159E+02 0.716E+03   0.143E+02 -.161E+02 -.719E+03   -.577E-01 0.135E+00 0.370E+01
   -.737E+01 0.805E+01 0.705E+03   0.740E+01 -.814E+01 -.708E+03   -.246E-01 0.446E-01 0.341E+01
   -.478E+02 0.290E+02 -.662E+03   0.479E+02 -.292E+02 0.665E+03   -.235E+00 0.294E+00 -.297E+01
   -.336E+02 0.236E-05 -.680E+03   0.337E+02 -.263E-07 0.683E+03   -.202E+00 0.000E+00 -.295E+01
   -.269E+02 0.236E-05 0.733E+03   0.270E+02 -.302E-07 -.736E+03   -.292E+00 0.000E+00 0.383E+01
   -.165E+02 0.704E+01 0.713E+03   0.166E+02 -.709E+01 -.716E+03   -.116E+00 0.853E-01 0.363E+01
   -.478E+02 -.290E+02 -.662E+03   0.479E+02 0.292E+02 0.665E+03   -.235E+00 -.294E+00 -.297E+01
   -.176E+02 -.144E+02 -.688E+03   0.176E+02 0.144E+02 0.691E+03   -.770E-01 -.105E+00 -.309E+01
   -.143E+02 -.159E+02 0.716E+03   0.143E+02 0.161E+02 -.719E+03   -.577E-01 -.135E+00 0.370E+01
   -.165E+02 -.704E+01 0.713E+03   0.166E+02 0.709E+01 -.716E+03   -.116E+00 -.853E-01 0.363E+01
   -.120E+02 -.180E+02 -.689E+03   0.120E+02 0.181E+02 0.692E+03   -.950E-02 -.704E-01 -.296E+01
   -.613E+01 -.574E+01 -.694E+03   0.619E+01 0.582E+01 0.697E+03   0.219E-01 -.188E-01 -.304E+01
   -.515E+01 -.622E+01 0.704E+03   0.523E+01 0.626E+01 -.707E+03   0.198E-01 -.280E-01 0.343E+01
   -.737E+01 -.805E+01 0.705E+03   0.740E+01 0.814E+01 -.708E+03   -.246E-01 -.446E-01 0.341E+01
   -.103E+00 -.469E-03 -.835E+02   0.108E-11 0.102E-11 -.261E-11   0.416E-16 0.416E-16 0.151E+03

 POSITION                                       TOTAL-FORCE (eV/Angst)
     13.98395     10.56943     13.67330         0.024644     -0.000000     -0.724088
     11.38267     10.56943     13.67330        -0.024644     -0.000000     -0.724088
      0.00000      0.00000      9.00000         0.034392     -0.000000      1.643220
      2.11389      2.11389      9.00000         0.000000     -0.021687      1.610500
      0.00000      2.11389     11.11389         0.005320     -0.023549     -1.189389
      2.11389      0.00000     11.11389         0.000000     -0.000000     -0.933177
      0.00000      4.22777      9.00000        -0.000279     -0.021740      1.630798
      2.11389      6.34166      9.00000         0.000000     -0.018479      1.377812
      0.00000      6.34166     11.11389         0.037217     -0.031073     -2.252241
      2.11389      4.22777     11.11389         0.000000     -0.012118     -2.942261
      0.00000      8.45554      9.00000         0.024185     -0.028294      1.876054
      2.11389     10.56943      9.00000         0.000000     -0.000000      1.598465
      0.00000     10.56943     11.11389         0.000061     -0.000000     -1.699630
      2.11389      8.45554     11.11389         0.000000     -0.048597     -3.063545
      0.00000     12.68331      9.00000         0.024185      0.028294      1.876054
      2.11389     14.79720      9.00000         0.000000      0.018479      1.377812
      0.00000     14.79720     11.11389         0.037217      0.031073     -2.252241
      2.11389     12.68331     11.11389         0.000000      0.048597     -3.063545
      0.00000     16.91108      9.00000        -0.000279      0.021740      1.630798
      2.11389     19.02497      9.00000         0.000000      0.021687      1.610500
      0.00000     19.02497     11.11389         0.005320      0.023549     -1.189389
      2.11389     16.91108     11.11389         0.000000      0.012118     -2.942261
      4.22777      0.00000      9.00000        -0.034392     -0.000000      1.643220
      6.34166      2.11389      9.00000        -0.005167     -0.024090      1.571249
      4.22777      2.11389     11.11389        -0.005320     -0.023549     -1.189389
      6.34166      0.00000     11.11389         0.001679     -0.000000     -1.091363
      4.22777      4.22777      9.00000         0.000279     -0.021740      1.630798
      6.34166      6.34166      9.00000        -0.023595     -0.034836      1.477851
      4.22777      6.34166     11.11389        -0.037217     -0.031073     -2.252241
      6.34166      4.22777     11.11389        -0.013119     -0.034946     -1.252613
      4.22777      8.45554      9.00000        -0.024185     -0.028294      1.876054
      6.34166     10.56943      9.00000        -0.070845     -0.000000      2.477886
      4.22777     10.56943     11.11389        -0.000061     -0.000000     -1.699630
      6.34166      8.45554     11.11389        -0.089420     -0.008946     -1.879140
      4.22777     12.68331      9.00000        -0.024185      0.028294      1.876054
      6.34166     14.79720      9.00000        -0.023595      0.034836      1.477851
      4.22777     14.79720     11.11389        -0.037217      0.031073     -2.252241
      6.34166     12.68331     11.11389        -0.089420      0.008946     -1.879140
      4.22777     16.91108      9.00000         0.000279      0.021740      1.630798
      6.34166     19.02497      9.00000        -0.005167      0.024090      1.571249
      4.22777     19.02497     11.11389        -0.005320      0.023549     -1.189389
      6.34166     16.91108     11.11389        -0.013119      0.034946     -1.252613
      8.45554      0.00000      9.00000        -0.008841     -0.000000      2.573183
     10.56943      2.11389      9.00000        -0.003223     -0.023043      1.940244
      8.45554      2.11389     11.11389        -0.002694     -0.007496     -2.676751
     10.56943      0.00000     11.11389        -0.011305     -0.000000     -2.707912
      8.45554      4.22777      9.00000        -0.030228     -0.045637      2.449611
     10.56943      6.34166      9.00000        -0.019289     -0.092514      2.120703
      8.45554      6.34166     11.11389         0.003819     -0.069041     -2.090477
     10.56943      4.22777     11.11389         0.009768     -0.049505     -1.816746
      8.45554      8.45554      9.00000        -0.066729     -0.077227      1.925413
     10.56943     10.56943      9.00000        -0.005542     -0.000000      1.724879
      8.45554     10.56943     11.11389        -0.327133     -0.000000     -1.558357
     10.56943      8.45554     11.11389         0.007741     -0.340195     -1.113717
      8.45554     12.68331      9.00000        -0.066729      0.077227      1.925413
     10.56943     14.79720      9.00000        -0.019289      0.092514      2.120703
      8.45554     14.79720     11.11389         0.003819      0.069041     -2.090477
     10.56943     12.68331     11.11389         0.007741      0.340195     -1.113717
      8.45554     16.91108      9.00000        -0.030228      0.045637      2.449611
     10.56943     19.02497      9.00000        -0.003223      0.023043      1.940244
[...]
     19.02497      6.34166     11.11389        -0.036596      0.079664     -0.469015
     16.91108      6.34166      9.00000        -0.058502     -0.010267      0.537903
     19.02497      4.22777      9.00000        -0.001753     -0.046145      0.212336
     16.91108      8.45554     11.11389        -0.157767      0.042472     -0.449501
     19.02497     10.56943     11.11389        -0.148999     -0.000000     -0.386403
     16.91108     10.56943      9.00000        -0.132308     -0.000000      0.614397
     19.02497      8.45554      9.00000        -0.001365      0.024941      0.408058
     16.91108     12.68331     11.11389        -0.157767     -0.042472     -0.449501
     19.02497     14.79720     11.11389        -0.036596     -0.079664     -0.469015
     16.91108     14.79720      9.00000        -0.058502      0.010267      0.537903
     19.02497     12.68331      9.00000        -0.001365     -0.024941      0.408058
     16.91108     16.91108     11.11389        -0.053365     -0.017273     -0.354095
     19.02497     19.02497     11.11389         0.076328      0.057940     -0.335701
     16.91108     19.02497      9.00000         0.105598      0.010521      0.248809
     19.02497     16.91108      9.00000        -0.001753      0.046145      0.212336
    total drift:                               -0.102896     -0.000469     67.281951

  FREE ENERGIE OF THE ION-ELECTRON SYSTEM (eV)
  free  energy   TOTEN  =     -1686.26858851 eV

  energy  without entropy=    -1686.26858851  energy(sigma->0) =    -1686.26858851