 vasp.6.4.0 14Feb23 (build Mar 22 2023 21:21:37) complex

 executed on           IFC15_impi date 2023.05.05  17:55:00

 INCAR:
   SYSTEM = MgO-rocksalt
   ISMEAR = 0
   SIGMA = 0.05
   EDIFF = 1E-6
   ALGO = ALL
   ISTART = 0
   IBRION = -1
   NSW = 0
   ISYM = 2
   DIPOL = 0.5 0.5 0.5
   IDIPOL = 3
   LDIPOL = .TRUE.
   GGA = MK
   PARAM1 = 0.1234
   PARAM2 = 1.0
   LUSE_VDW = .TRUE.
   AGGAC = 0.0
   ENCUT = 520
   PREC = Accurate
   LASPH = .TRUE.
   LREAL = Auto
   ISPIN = 1
   NELM = 200
   NELMIN = 8
   NCORE = 4
   KPAR = 2
   LWAVE = .FALSE.
   LCHARG = .FALSE.

 POTCAR:    PAW_PBE Au 04Oct2007
 POTCAR:    PAW_PBE Mg_pv 13Apr2007
 POTCAR:    PAW_PBE O 08Apr2002
|               ----> ADVICE to this user running VASP <----                  |
|     You have switched on vdW-DFT.                                           |
|     This routine was written and supplied by Jiri Klimes. We recommend      |
|     that you carefully read and cite the following publications:            |
|       J. Klimes, D.R. Bowler, A. Michelides                                 |
|          J. Phys.: Cond Matt. 22 022201 (2010)                              |
|       J. Klimes, D.R. Bowler, A. Michelides                                 |
|          Phys. Rev. B. 83, 195131 (2011)                                    |
|     and references therein.                                                 |

   TITEL  = PAW_PBE Au 04Oct2007
   POMASS =  196.966; ZVAL   =   11.000    mass and valenz
   ENMAX  =  229.943; ENMIN  =  172.457 eV

   TITEL  = PAW_PBE Mg_pv 13Apr2007
   POMASS =   24.305; ZVAL   =    8.000    mass and valenz
   ENMAX  =  403.929; ENMIN  =  302.947 eV

   TITEL  = PAW_PBE O 08Apr2002
   POMASS =   16.000; ZVAL   =    6.000    mass and valenz
   ENMAX  =  400.000; ENMIN  =  300.000 eV

 Optimization of the real space projectors (new method)

 maximal supplied QI-value         = 15.12
 optimisation between [QCUT,QGAM] = [ 11.64, 23.28] = [ 37.95,151.78] Ry
 Optimized for a Real-space Cutoff    1.49 Angstroem

   l    n(q)    QCUT    max X(q) W(low)/X(q) W(high)/X(q)  e(spline)
   2      9    11.641    60.898    0.24E-03    0.10E-03    0.19E-06
   2      9    11.641    58.894    0.25E-03    0.10E-03    0.19E-06
   0     10    11.641   109.617    0.73E-04    0.33E-04    0.11E-06
   0     10    11.641    75.026    0.71E-04    0.32E-04    0.11E-06
   1     10    11.641    16.344    0.27E-04    0.97E-04    0.16E-06
   1     10    11.641    10.160    0.23E-04    0.77E-04    0.13E-06
 Optimization of the real space projectors (new method)

[...]

   l    n(q)    QCUT    max X(q) W(low)/X(q) W(high)/X(q)  e(spline)
   1      8    11.527     2.974    0.44E-04    0.56E-04    0.12E-06
   1      8    11.527     4.279    0.12E-03    0.12E-03    0.26E-06
   0      9    11.527    16.381    0.46E-04    0.64E-04    0.78E-07
   0      9    11.527     5.611    0.26E-04    0.43E-04    0.55E-07
   2      8    11.527     4.652    0.22E-03    0.72E-04    0.47E-07
 Optimization of the real space projectors (new method)

 maximal supplied QI-value         = 24.76
 optimisation between [QCUT,QGAM] = [ 11.64, 23.27] = [ 37.91,151.63] Ry
 Optimized for a Real-space Cutoff    1.14 Angstroem

   l    n(q)    QCUT    max X(q) W(low)/X(q) W(high)/X(q)  e(spline)
   0      8    11.635    20.381    0.10E-03    0.33E-03    0.24E-06
   0      8    11.635    15.268    0.11E-03    0.35E-03    0.26E-06
   1      7    11.635     5.964    0.24E-03    0.31E-03    0.30E-06
   1      7    11.635     5.382    0.22E-03    0.25E-03    0.26E-06
|               ----> ADVICE to this user running VASP <----                  |
|     You enforced a specific xc type in the INCAR file but a different       |
|     type was found in the POTCAR file.                                      |
|     I HOPE YOU KNOW WHAT YOU ARE DOING!                                     |

  PAW_PBE Au 04Oct2007                  :
  PAW_PBE Mg_pv 13Apr2007               :
  PAW_PBE O 08Apr2002                   :

 POSCAR: Mg  O
  positions in direct lattice
  velocities in cartesian coordinates
 exchange correlation table for  LEXCH =       43
   RHO(1)=    0.500       N(1)  =     2000
   RHO(2)=  100.500       N(2)  =     4000

 ion  position               nearest neighbor table
   1  0.431  0.227  0.583- 265 2.50   2 2.73   5 2.74  11 2.75  68 2.95  67 3.01
   2  0.559  0.237  0.590-   3 2.65   1 2.73  12 2.78  11 2.83   6 2.87   5 2.95  68 3.06
   3  0.683  0.252  0.593-   2 2.65   4 2.67  12 2.79   6 2.82  13 2.87   7 2.91  88 3.01
   4  0.809  0.260  0.596-   3 2.67   7 2.72  13 2.76 107 2.99
   5  0.476  0.348  0.587-   8 2.70   1 2.74  14 2.75  11 2.81   6 2.86  72 2.89   2 2.95
   6  0.610  0.363  0.590-   3 2.82   9 2.82   8 2.86   5 2.86   2 2.87  15 2.93   7 2.93  14 2.96
                            12 2.99  87 3.02
   7  0.748  0.373  0.593-   9 2.67   4 2.72  15 2.80  13 2.87   3 2.91   6 2.93  92 3.00
   8  0.524  0.467  0.585- 270 2.69   5 2.70  10 2.76  14 2.76  16 2.84   6 2.86  72 2.98   9 3.28

   9  0.678  0.478  0.587- 290 2.66   7 2.67  10 2.73  15 2.77   6 2.82  16 2.89   8 3.28
  10  0.595  0.576  0.580- 293 2.37  16 2.68   9 2.73   8 2.76  91 2.91
  11  0.480  0.269  0.662-  17 2.70   1 2.75   5 2.81  12 2.83   2 2.83  14 2.91
  12  0.613  0.277  0.669-  17 2.75  18 2.76   2 2.78   3 2.79  11 2.83  13 2.83   6 2.99  14 3.17
                            15 3.18
  13  0.745  0.297  0.672-  18 2.67   4 2.76  15 2.82  12 2.83   7 2.87   3 2.87
  14  0.525  0.399  0.664-   5 2.75  19 2.75  17 2.76   8 2.76  16 2.86  11 2.91   6 2.96  12 3.17
                            15 3.26
  15  0.679  0.413  0.667-   9 2.77  19 2.77  18 2.78   7 2.80  16 2.81  13 2.82   6 2.93  12 3.18
                            14 3.26
  16  0.595  0.515  0.658-  10 2.68  19 2.70  15 2.81   8 2.84  14 2.86   9 2.89
  17  0.533  0.318  0.736-  11 2.70  20 2.70  12 2.75  14 2.76  18 2.98  19 3.01
  18  0.673  0.333  0.741-  20 2.67  13 2.67  12 2.76  15 2.78  19 2.91  17 2.98
  19  0.595  0.446  0.734-  16 2.70  20 2.72  14 2.75  15 2.77  18 2.91  17 3.01
  20  0.595  0.368  0.806-  18 2.67  17 2.70  19 2.72
  21  0.000  1.000  0.430- 304 2.11 223 2.11 239 2.11 224 2.11 321 2.12 221 2.13
  22  0.100  0.100  0.430- 223 2.11 224 2.11 228 2.11 243 2.12 322 2.12 222 2.13
  23  0.000  0.100  0.500- 223 2.11 302 2.11 222 2.11 221 2.11 225 2.12
  24  0.100  1.000  0.500- 224 2.10 221 2.11 238 2.11 241 2.11 222 2.11
  25  1.000  0.200  0.430- 308 2.11 223 2.11 228 2.11 227 2.11 325 2.12 225 2.13
  26  0.100  0.300  0.430- 227 2.11 232 2.11 228 2.11 247 2.12 326 2.12 226 2.13
  27  0.000  0.300  0.500- 227 2.11 226 2.11 306 2.11 225 2.12 229 2.12
  28  0.100  0.200  0.500- 228 2.11 225 2.11 245 2.11 222 2.11 226 2.12
  29  1.000  0.400  0.430- 312 2.11 232 2.11 227 2.11 231 2.12 329 2.12 229 2.13
  30  0.100  0.500  0.430- 231 2.11 251 2.11 236 2.11 232 2.11 330 2.12 230 2.13
  31  0.000  0.500  0.500- 231 2.11 230 2.11 310 2.11 233 2.12 229 2.12
  32  0.100  0.400  0.500- 232 2.11 229 2.11 249 2.11 230 2.12 226 2.12
  33  0.000  0.600  0.430- 236 2.11 235 2.11 231 2.11 316 2.11 333 2.12 233 2.13
  34  0.100  0.700  0.430- 235 2.11 240 2.11 255 2.11 236 2.11 334 2.12 234 2.13
  35  0.000  0.700  0.500- 235 2.11 234 2.11 237 2.11 314 2.11 233 2.11
  36  0.100  0.600  0.500- 236 2.11 233 2.11 253 2.11 234 2.11 230 2.11
  37  0.000  0.800  0.430- 239 2.11 240 2.11 235 2.11 320 2.11 337 2.12 237 2.13
  38  0.100  0.900  0.430- 239 2.11 240 2.11 224 2.11 259 2.11 338 2.12 238 2.13
  39  0.000  0.900  0.500- 239 2.10 221 2.11 238 2.11 237 2.11 318 2.11
  40  0.100  0.800  0.500- 240 2.10 237 2.11 238 2.11 257 2.11 234 2.11
  41  0.200  1.000  0.430- 224 2.11 259 2.11 243 2.12 244 2.12 341 2.12 241 2.13
  42  0.300  0.100  0.430- 243 2.11 244 2.11 263 2.11 248 2.11 342 2.13 242 2.13
  43  0.200  0.100  0.500- 243 2.11 222 2.11 241 2.11 245 2.12 242 2.12
  44  0.300  1.000  0.500- 244 2.11 241 2.11 258 2.11 261 2.12 242 2.12
  45  0.200  0.200  0.430- 228 2.11 243 2.11 247 2.11 345 2.12 248 2.13 245 2.14
  46  0.300  0.300  0.430- 267 2.11 247 2.11 252 2.11 248 2.12 346 2.12 246 2.13
  47  0.200  0.300  0.500- 226 2.11 247 2.11 249 2.11 246 2.12 245 2.12
  48  0.298  0.200  0.500- 245 2.09 248 2.11 246 2.11 242 2.11 265 2.13
  49  0.200  0.400  0.430- 232 2.11 252 2.11 251 2.11 247 2.12 349 2.12 249 2.13
  50  0.300  0.500  0.430- 251 2.11 256 2.11 252 2.11 271 2.12 350 2.12 250 2.13
  51  0.200  0.500  0.500- 251 2.11 230 2.11 250 2.11 253 2.11 249 2.12
  52  0.299  0.400  0.500- 249 2.10 252 2.11 269 2.11 250 2.11 246 2.12
  53  0.200  0.600  0.430- 236 2.11 255 2.11 251 2.11 256 2.11 353 2.12 253 2.13
  54  0.300  0.700  0.430- 255 2.11 260 2.11 256 2.11 275 2.12 354 2.12 254 2.13
  55  0.200  0.700  0.500- 255 2.11 234 2.11 257 2.11 253 2.11 254 2.11
  56  0.299  0.600  0.500- 253 2.11 256 2.11 254 2.11 273 2.11 250 2.12
  57  0.200  0.800  0.430- 240 2.11 255 2.11 259 2.11 260 2.12 357 2.12 257 2.13
  58  0.300  0.900  0.430- 259 2.11 260 2.11 279 2.11 244 2.12 358 2.12 258 2.13
  59  0.200  0.900  0.500- 259 2.10 238 2.11 257 2.11 241 2.11 258 2.11
  60  0.300  0.800  0.500- 260 2.10 257 2.11 258 2.11 254 2.11 277 2.12
  61  0.400  1.000  0.430- 264 2.11 244 2.11 279 2.11 361 2.12 263 2.13 261 2.13
  62  0.500  0.100  0.430- 268 2.11 264 2.11 283 2.11 263 2.12 362 2.12 262 2.12
  63  0.400  0.098  0.500- 261 2.09 263 2.11 262 2.11 242 2.11 265 2.14
  64  0.500  1.000  0.500- 264 2.11 278 2.11 262 2.11 281 2.11 261 2.12
  65  0.400  0.200  0.429- 268 2.10 267 2.10 248 2.10 263 2.10 365 2.11
  66  0.500  0.300  0.429- 266 2.07 366 2.10 287 2.11 268 2.12 267 2.12 272 2.13
  67  0.399  0.302  0.500- 269 2.09 246 2.11 267 2.12 266 2.12 265 2.16   1 3.01
  68  0.501  0.199  0.500- 285 2.09 262 2.11 268 2.11 266 2.13 265 2.16   1 2.95   2 3.06
  69  0.400  0.400  0.430- 269 2.11 252 2.11 369 2.11 272 2.11 271 2.12 267 2.13
  70  0.500  0.500  0.429- 272 2.10 271 2.11 370 2.11 276 2.12 291 2.12 270 2.14
  71  0.399  0.500  0.500- 250 2.10 269 2.10 271 2.11 273 2.12 270 2.13
  72  0.500  0.399  0.500- 266 2.11 272 2.11 269 2.13 289 2.13 270 2.15   5 2.89   8 2.98
  73  0.400  0.600  0.430- 256 2.11 271 2.11 275 2.11 373 2.12 276 2.13 273 2.13
  74  0.500  0.700  0.430- 280 2.11 275 2.11 295 2.12 276 2.12 374 2.12 274 2.13
  75  0.399  0.701  0.500- 254 2.10 277 2.11 275 2.11 273 2.12 274 2.12
[...]
 406  0.900  0.300  0.359- 208 2.11 207 2.11 127 2.11 212 2.11 206 2.11 106 2.12
 407  0.800  0.300  0.289- 186 2.11 205 2.11 206 2.11 209 2.11 207 2.11
 408  0.900  0.200  0.289- 206 2.11 202 2.11 205 2.11 125 2.11 208 2.11
 409  0.800  0.400  0.359- 192 2.11 207 2.11 211 2.11 212 2.11 209 2.11 109 2.12
 410  0.900  0.500  0.359- 131 2.11 211 2.11 212 2.11 216 2.11 210 2.11 110 2.12
 411  0.800  0.500  0.289- 190 2.11 209 2.11 210 2.11 213 2.11 211 2.11
 412  0.900  0.400  0.289- 129 2.11 206 2.11 209 2.11 210 2.11 212 2.11
 413  0.800  0.600  0.359- 196 2.11 211 2.11 215 2.11 216 2.11 213 2.11 113 2.12
 414  0.900  0.700  0.359- 220 2.11 215 2.11 216 2.11 135 2.11 214 2.11 114 2.12
 415  0.800  0.700  0.289- 194 2.11 217 2.11 214 2.11 213 2.11 215 2.11
[...]
  329                  fftbas_plan_mpi                      18.700049                513   8
  330                    dfftw_execute                        11.955714             1539   9
  331                    map_forward                           6.403142             1026   9
  332                      map_gather                            1.419077            513  10
  333                      m_alltoallv_z                         0.939988            513  10
  334                      map_scatter                           2.234246            513  10
  335            rpromu                                5.467980                      135   5
  336              crrexp_mul_wave                       2.876359                 215460   6
  337              rpromu_gemm                           1.910021                  56700   6
  338              m_sumb_d                              0.072047                    513   6
  339          m_sumb_d                              0.073689                         10   4
  340        m_sumb_d                              0.010119                            7   3
  341        fft3d_mpi                             1.510402                           71   3
  342          fftbrc_mpi                            1.421274                         71   4
  343            fftbas_plan_mpi                       1.421015                       71   5
  344              dfftw_execute                         0.461929                    213   6
  345              map_forward                           0.402783                     70   6
  346                map_gather                            0.103665                   35   7
  347                m_alltoallv_z                         0.242329                   35   7
  348                map_scatter                           0.055672                   35   7
  349              map_backward                          0.500489                     72   6
  350                map_gather                            0.058616                   36   7
  351                m_alltoallv_z                         0.315432                   36   7
  352                map_scatter                           0.125340                   36   7
  353        ggaall_grid                           0.526486                            1   3
  354        forhar                                3.072338                            1   3
  355          m_sumb_d                              0.000203                          1   4
  356        strehar                               0.033756                            1   3
  357          m_sumb_d                              0.000394                          1   4
  358        m_bcast_d                             0.000560                            2   3
  359      potlok                               14.337311                              1   2
  360        fft3d_mpi                             1.771955                           73   3
  361          fftbrc_mpi                            1.678254                         73   4
  362            fftbas_plan_mpi                       1.677940                       73   5
  363              dfftw_execute                         0.471990                    219   6
  364              map_forward                           0.639742                     74   6
  365                map_gather                            0.105800                   38   7
  366                m_alltoallv_z                         0.469638                   38   7
  367                map_scatter                           0.063151                   38   7
  368              map_backward                          0.511424                     72   6
  369                map_gather                            0.057836                   36   7
  370                m_alltoallv_z                         0.329137                   36   7
  371                map_scatter                           0.123311                   36   7
  372        ggaall_grid                           0.528186                            1   3
  373        m_sumb_d                              0.032286                            8   3
  374        fewald                                0.001388                            2   3
  375          rsp                                   0.001279                          2   4
  376          rcp                                   0.000094                          2   4
  377        pothar                                0.005257                            1   3
  378          m_sumb_d                              0.001576                          1   4
  379        m_bcast_d                             0.011962                            1   3
  380      potlok_metagga                        0.000001                              1   2
  381      set_dd_magatom                        0.000001                              1   2
  382      set_dd_paw                            1.096857                              1   2
  383        set_rsgf_all                          0.000001                            1   3
  384        m_sumb_d                              0.791053                            8   3

 Flat profile

 edwav                                 921.302114          52
 potlok                                655.827616          54
 lincom                                361.276879         163
 dfftw_execute                         342.859091       52608
 orth1                                 194.638309        7452
 eddav                                 113.994114           5
 wfinit                                 91.132726           1
 m_sumb_d                               85.874674       29885
 map_scatter                            63.970315       17643
 m_alltoallv_z                          63.337876       17643
 ggemm                                  54.161746        1249
 map_gather                             51.560970       17643
 m_alltoall_d                           51.422960       58048
 fftwav_mpi                             46.059004        9431
 choleski                               35.584889          53
 eccp                                   35.391963        6213
 map_forward                            33.744224       22930
 ggaall_grid                            29.367285          55
 eddiag                                 22.112275          27
 total_time                             21.198646           1
 crrexp_mul_work_add                    20.917772     1027320
 m_bcast_z                              19.488191        2880
 racc0                                  19.301280        2446
 set_dd_paw                             16.818583          55
 crrexp_mul_wave                        16.449160     1218840
 vhamil                                 15.925861        2503
 rpro1                                  15.095738        2161
 pw_charge                              14.413551        2544
 force_and_stress                       12.198648           1
 fftbas_plan_mpi                        11.970758       17536
 lapack                                  7.198743         964
 w1_dscal                                6.255602        1482
 redis_pw                                5.985742        8792
 fft3d_mpi                               5.558809       17536
 fftext_mpi                              5.012076        3985
 setdij_                                 4.743600          81
 augmentation_charge                     4.437018          53
 rspher_all                              3.717961          14
 phaser                                  3.400707          44
 forloc                                  3.087559           1
 forhar                                  3.072135           1
 rpromu_gemm                             2.768605       81900
 stufak                                  1.830830           1
 orthch                                  1.291031          53
 kinhamil                                1.015174        2503
 overl                                   0.985543        3231
 m_bcast_d                               0.909318        1986
 rpromu                                  0.880728         195
 w1_copy                                 0.859790        2892
 elmin_all                               0.751349           1
 soft_charge                             0.461625          53
 redis_proj                              0.388403        8320
 setup_precond                           0.270305         285
 apply_precond                           0.239262         679
 depsum                                  0.232846          53
 pothar                                  0.199192          54
 inisym                                  0.181871           1
 map_backward                            0.177187       12142
 overl1                                  0.131060         964
 fft_gq                                  0.097853          53
 rsp                                     0.084064         109
 set_charge                              0.065735          53
 fftbas_mpi                              0.055480       13416
 strnlr                                  0.053781           1
 densta                                  0.040210          64
 strkin                                  0.033485           1
 strehar                                 0.033362           1
 strelo                                  0.027415           1
 hamiltmu                                0.024010         964
 hamilt_local                            0.023679        1539
 newband                                 0.020582         969
 fornlr                                  0.019866           1
 fftbrc_mpi                              0.015674        4120
 fewald                                  0.011894         109
 rpro_isp                                0.010859          13
 raccmu_                                 0.010636         964
 rcp                                     0.006455         109
 w1_projall                              0.004992         679
 brgrid                                  0.002909           1
 truncate_high_frequency_w1              0.001388        1249
 fordep                                  0.001005           1
 redis_pw_all                            0.000612          52
 redis_pw_over_bands                     0.000279          53
 crpa_reader                             0.000266           1
 posmap                                  0.000256           2
 set_rsgf_all                            0.000201          55
 proall                                  0.000082           1
 potlok_metagga                          0.000062          54
 vectorpot                               0.000025           1
 rotate_active_occupied_orbital          0.000020           1
 set_dd_magatom                          0.000010           2
 shift_bands_between_low_high            0.000009           1
  summed up times    3504.08844590187

 Accumulative profile

 total_time                           3504.088446           1
 elmin_all                            3283.861811           1
 edwav                                1825.123687          52
 potlok                                775.021129          54
 fft3d_mpi                             573.250384       17536
 fftbas_plan_mpi                       567.620422       17536
 fftbas_mpi                            480.189824       13416
 eddav                                 401.120943           5
 fftwav_mpi                            392.972101        9431
 lincom                                361.276879         163
 dfftw_execute                         342.859091       52608
 orthch                                214.810691          53
 orth1                                 194.638309        7452
 map_forward                           147.394011       22930
 fftext_mpi                            138.350101        3985
 set_charge                            131.455042          53
 soft_charge                           125.213044          53
 wfinit                                110.065587           1
 eddiag                                102.011609          27
 kinhamil                               87.535436        2503
 fftbrc_mpi                             87.501752        4120
 m_sumb_d                               85.874674       29885
 map_backward                           65.396561       12142
 map_scatter                            63.970315       17643
 hamilt_local                           63.427239        1539
 m_alltoallv_z                          63.337876       17643
 force_and_stress                       63.247467           1
 set_dd_paw                             61.279065          55
 hamiltmu                               56.165037         964
 ggemm                                  54.161746        1249
 map_gather                             51.560970       17643
 m_alltoall_d                           51.422960       58048
 redis_pw                               45.749012        8792
 racc0                                  40.727132        2446
 rpro_isp                               38.636955          13
 eccp                                   35.651693        6213
 choleski                               35.584889          53
 strnlr                                 29.985746           1
 ggaall_grid                            29.367285          55
 rpro1                                  28.018182        2161
 crrexp_mul_work_add                    20.917772     1027320
 m_bcast_z                              19.488191        2880
 crrexp_mul_wave                        16.449160     1218840
 raccmu_                                16.083290         964
 vhamil                                 15.925861        2503
 newband                                14.924534         969
 pw_charge                              14.413551        2544
 redis_proj                             12.048094        8320
 fornlr                                 10.034393           1
 w1_projall                              8.941883         679
 rpromu                                  7.920268         195
 redis_pw_over_bands                     7.795489          53
 redis_pw_all                            7.795210          52
 lapack                                  7.198743         964
 w1_dscal                                6.255602        1482
 augmentation_charge                     5.784657          53
 setdij_                                 5.135668          81
 rspher_all                              3.717961          14
 phaser                                  3.400707          44
 proall                                  3.151838           1
 forloc                                  3.087759           1
 forhar                                  3.072338           1
 rpromu_gemm                             2.768605       81900
 stufak                                  1.830830           1
 fft_gq                                  1.234468          53
 overl                                   0.985543        3231
 m_bcast_d                               0.909318        1986
 w1_copy                                 0.859790        2892
 depsum                                  0.391606          53
 fordep                                  0.379630           1
 setup_precond                           0.280102         285
 pothar                                  0.279060          54
 apply_precond                           0.239262         679
 inisym                                  0.182127           1
 fewald                                  0.167697         109
 densta                                  0.159411          64
 overl1                                  0.131060         964
 rsp                                     0.084064         109
 strehar                                 0.033756           1
 strkin                                  0.033689           1
 strelo                                  0.028396           1
 rcp                                     0.006455         109
 brgrid                                  0.002909           1
 truncate_high_frequency_w1              0.001388        1249
 crpa_reader                             0.000266           1
 posmap                                  0.000256           2
 set_rsgf_all                            0.000201          55
 potlok_metagga                          0.000062          54
 vectorpot                               0.000025           1
 rotate_active_occupied_orbital          0.000020           1
 set_dd_magatom                          0.000010           2
 shift_bands_between_low_high            0.000009           1

Profiling took   2.672235  0.863428  0.006344  0.006138 seconds
Profiling took   2.215104 seconds