 vasp.6.3.0 20Jan22 (build Apr  1 2022 16:44:48) complex
 executed on        HPECrayEX_GCC date 2022.10.20  09:44:24

 INCAR:
   SYSTEM = MgO-rocksalt
   ISMEAR = 0
   SIGMA = 0.05
   EDIFF = 1E-6
   ALGO = ALL
   ISTART = 0
   IBRION = -1
   NSW = 0
   ISYM = 2
   DIPOL = 0.5 0.5 0.5
   IDIPOL = 3
   LDIPOL = .TRUE.
   LHFCALC = .TRUE.
   GGA = B5
   AEXX = 0.2
   AGGAX = 0.72
   AGGAC = 0.81
   ALDAC = 0.19
   IVDW = 12
   VDW_S8 = 1.9889
   VDW_A1 = 0.3981
   VDW_A2 = 4.4211
   ENCUT = 520
   PREC = Accurate
   LASPH = .TRUE.
   LREAL = Auto
   ISPIN = 1
   NELM = 200
   NELMIN = 8
   NCORE = 4
   KPAR = 2
   LWAVE = .FALSE.
   LCHARG = .FALSE.

 POTCAR:    PAW_PBE Au 04Oct2007
 POTCAR:    PAW_PBE Mg_pv 13Apr2007
 POTCAR:    PAW_PBE O 08Apr2002
|           W    W    AA    RRRRR   N    N  II  N    N   GGGG   !!!           |
|           W    W   A  A   R    R  NN   N  II  NN   N  G    G  !!!           |
|           W    W  A    A  R    R  N N  N  II  N N  N  G       !!!           |
|           W WW W  AAAAAA  RRRRR   N  N N  II  N  N N  G  GGG   !            |
|           WW  WW  A    A  R   R   N   NN  II  N   NN  G    G                |
|           W    W  A    A  R    R  N    N  II  N    N   GGGG   !!!           |
|     You have selected ISYM=2 for a HF type calculation. This will           |
|     symmetrize the charge density but not the exchange potential. I         |
|     suggest to use ISYM=3 instead. This uses symmetry to obtain the         |
|     orbitals at all k-points in the Brillouin zone, but does not apply      |
|     symmetry to the Hartree potential directly. The resultant charge        |
|     might have lower symmetry than the crystal but, at least, Hartree       |
|     and exchange are fully compatible.                                      |

   TITEL  = PAW_PBE Au 04Oct2007
   POMASS =  196.966; ZVAL   =   11.000    mass and valenz
   ENMAX  =  229.943; ENMIN  =  172.457 eV

   TITEL  = PAW_PBE Mg_pv 13Apr2007
   POMASS =   24.305; ZVAL   =    8.000    mass and valenz
   ENMAX  =  403.929; ENMIN  =  302.947 eV

   TITEL  = PAW_PBE O 08Apr2002
   POMASS =   16.000; ZVAL   =    6.000    mass and valenz
   ENMAX  =  400.000; ENMIN  =  300.000 eV

 Optimization of the real space projectors (new method)

 maximal supplied QI-value         = 15.12
 optimisation between [QCUT,QGAM] = [ 11.64, 23.28] = [ 37.95,151.78] Ry
 Optimized for a Real-space Cutoff    1.49 Angstroem

   l    n(q)    QCUT    max X(q) W(low)/X(q) W(high)/X(q)  e(spline)
   2      9    11.641    60.898    0.24E-03    0.10E-03    0.19E-06
   2      9    11.641    58.894    0.25E-03    0.10E-03    0.19E-06
   0     10    11.641   109.617    0.73E-04    0.33E-04    0.11E-06
   0     10    11.641    75.026    0.71E-04    0.32E-04    0.11E-06
   1     10    11.641    16.344    0.27E-04    0.97E-04    0.16E-06
   1     10    11.641    10.160    0.23E-04    0.77E-04    0.13E-06
 Optimization of the real space projectors (new method)

[...]

   l    n(q)    QCUT    max X(q) W(low)/X(q) W(high)/X(q)  e(spline)
   1      8    11.527     2.974    0.44E-04    0.56E-04    0.12E-06
   1      8    11.527     4.279    0.12E-03    0.12E-03    0.26E-06
   0      9    11.527    16.381    0.46E-04    0.64E-04    0.78E-07
   0      9    11.527     5.611    0.26E-04    0.43E-04    0.55E-07
   2      8    11.527     4.652    0.22E-03    0.72E-04    0.47E-07
 Optimization of the real space projectors (new method)

 maximal supplied QI-value         = 24.76
 optimisation between [QCUT,QGAM] = [ 11.64, 23.27] = [ 37.91,151.63] Ry
 Optimized for a Real-space Cutoff    1.14 Angstroem

   l    n(q)    QCUT    max X(q) W(low)/X(q) W(high)/X(q)  e(spline)
   0      8    11.635    20.381    0.10E-03    0.33E-03    0.24E-06
   0      8    11.635    15.268    0.11E-03    0.35E-03    0.26E-06
   1      7    11.635     5.964    0.24E-03    0.31E-03    0.30E-06
   1      7    11.635     5.382    0.22E-03    0.25E-03    0.26E-06
|               ----> ADVICE to this user running VASP <----                  |
|     You enforced a specific xc type in the INCAR file but a different       |
|     type was found in the POTCAR file.                                      |
|     I HOPE YOU KNOW WHAT YOU ARE DOING!                                     |

  PAW_PBE Au 04Oct2007                  :
  PAW_PBE Mg_pv 13Apr2007               :
  PAW_PBE O 08Apr2002                   :

 POSCAR: Au Mg  O
  positions in direct lattice
 exchange correlation table for  LEXCH =       12
   RHO(1)=    0.500       N(1)  =     2000
   RHO(2)=  100.500       N(2)  =     4000

 ion  position               nearest neighbor table
   1  0.543  0.557  0.621-   2 2.56  58 2.91
   2  0.457  0.643  0.621-   1 2.56  58 2.91
   3  0.000  0.000  0.407- 105 2.11 106 2.11 121 2.11 186 2.11 103 2.11
   4  0.100  0.100  0.407- 105 2.11 106 2.11 110 2.11 125 2.11 104 2.11
   5  0.000  0.100  0.503- 103 2.11 104 2.11 107 2.11 184 2.11 105 2.11
   6  0.100  0.000  0.503- 103 2.11 104 2.11 120 2.11 123 2.11 106 2.11
   7  0.000  0.200  0.407- 109 2.11 105 2.11 110 2.11 190 2.11 107 2.11
   8  0.100  0.300  0.407- 110 2.11 109 2.11 114 2.11 129 2.11 108 2.11
   9  0.000  0.300  0.503- 107 2.11 108 2.11 111 2.11 188 2.11 109 2.11
  10  0.100  0.200  0.503- 108 2.11 107 2.11 104 2.11 127 2.11 110 2.11
  11  0.000  0.400  0.407- 109 2.11 113 2.11 114 2.11 194 2.11 111 2.11
  12  0.100  0.500  0.407- 113 2.11 114 2.11 118 2.11 133 2.11 112 2.11
  13  0.000  0.500  0.503- 111 2.11 112 2.11 115 2.11 192 2.11 113 2.11
  14  0.100  0.400  0.503- 108 2.11 111 2.11 112 2.11 131 2.11 114 2.11
  15  0.000  0.600  0.407- 113 2.11 117 2.11 118 2.11 198 2.11 115 2.11
  16  0.100  0.700  0.407- 122 2.11 118 2.11 117 2.11 137 2.11 116 2.11
  17  0.000  0.700  0.503- 119 2.11 116 2.11 115 2.11 196 2.11 117 2.11
  18  0.100  0.600  0.503- 112 2.11 115 2.11 116 2.11 135 2.11 118 2.11
  19  0.000  0.800  0.407- 117 2.11 121 2.11 122 2.11 202 2.11 119 2.11
  20  0.100  0.900  0.407- 106 2.11 121 2.11 122 2.11 141 2.11 120 2.11
  21  0.000  0.900  0.503- 103 2.11 119 2.11 120 2.11 200 2.11 121 2.11
  22  0.100  0.800  0.503- 116 2.11 119 2.11 120 2.11 139 2.11 122 2.11
  23  0.200  0.000  0.407- 126 2.11 125 2.11 106 2.11 141 2.11 123 2.11
  24  0.300  0.100  0.407- 125 2.11 126 2.11 130 2.11 145 2.11 124 2.11
  25  0.200  0.100  0.503- 124 2.11 123 2.11 104 2.11 127 2.11 125 2.11
  26  0.300  0.000  0.503- 123 2.11 124 2.11 140 2.11 143 2.11 126 2.11
  27  0.200  0.200  0.407- 129 2.11 130 2.11 110 2.11 125 2.11 127 2.11
  28  0.300  0.300  0.407- 129 2.11 130 2.11 134 2.11 149 2.11 128 2.11
  29  0.200  0.300  0.503- 127 2.11 128 2.11 108 2.11 131 2.11 129 2.11
  30  0.300  0.200  0.503- 127 2.11 128 2.11 124 2.11 147 2.11 130 2.11
  31  0.200  0.400  0.407- 134 2.11 129 2.11 133 2.11 114 2.11 131 2.11
  32  0.300  0.500  0.407- 133 2.11 134 2.11 138 2.11 153 2.11 132 2.11
  33  0.200  0.500  0.503- 132 2.11 131 2.11 112 2.11 135 2.11 133 2.11
  34  0.300  0.400  0.503- 131 2.11 128 2.11 132 2.11 151 2.11 134 2.11
  35  0.200  0.600  0.407- 138 2.11 133 2.11 137 2.11 118 2.11 135 2.11
  36  0.300  0.700  0.407- 137 2.11 142 2.11 138 2.11 157 2.11 136 2.11
  37  0.200  0.700  0.503- 136 2.11 139 2.11 116 2.11 135 2.11 137 2.11
  38  0.300  0.600  0.503- 135 2.11 132 2.11 136 2.11 155 2.11 138 2.11
  39  0.200  0.800  0.407- 137 2.11 142 2.11 141 2.11 122 2.11 139 2.11
  40  0.300  0.900  0.407- 141 2.11 126 2.11 142 2.11 161 2.11 140 2.11
  41  0.200  0.900  0.503- 140 2.11 123 2.11 139 2.11 120 2.11 141 2.11
  42  0.300  0.800  0.503- 136 2.11 139 2.11 140 2.11 159 2.11 142 2.11
  43  0.400  0.000  0.407- 126 2.11 145 2.11 146 2.11 161 2.11 143 2.11
  44  0.500  0.100  0.407- 145 2.11 146 2.11 150 2.11 165 2.11 144 2.11
  45  0.400  0.100  0.503- 124 2.11 143 2.11 144 2.11 147 2.11 145 2.11
  46  0.500  0.000  0.503- 143 2.11 144 2.11 160 2.11 163 2.11 146 2.11
  47  0.400  0.200  0.407- 149 2.11 145 2.11 130 2.11 150 2.11 147 2.11
  48  0.500  0.300  0.407- 150 2.11 149 2.11 154 2.11 169 2.11 148 2.11
  49  0.400  0.300  0.503- 147 2.11 128 2.11 148 2.11 151 2.11 149 2.11
  50  0.500  0.200  0.503- 148 2.11 147 2.11 144 2.11 167 2.11 150 2.11
  51  0.400  0.400  0.407- 134 2.11 149 2.11 153 2.11 154 2.11 151 2.11
  52  0.500  0.500  0.407- 153 2.11 154 2.11 158 2.11 173 2.11 152 2.11
  53  0.400  0.500  0.503- 132 2.11 151 2.11 152 2.11 155 2.11 153 2.11
  54  0.500  0.400  0.503- 148 2.11 151 2.11 152 2.11 171 2.11 154 2.11
  55  0.400  0.600  0.407- 138 2.11 153 2.11 157 2.11 158 2.11 155 2.11
  56  0.500  0.700  0.407- 162 2.11 158 2.11 157 2.11 177 2.11 156 2.11
  57  0.400  0.700  0.503- 159 2.11 155 2.11 156 2.11 136 2.11 157 2.11
  58  0.500  0.600  0.503- 152 2.11 155 2.11 156 2.11 175 2.11 158 2.11   2 2.91   1 2.91
  59  0.400  0.800  0.407- 157 2.11 142 2.11 161 2.11 162 2.11 159 2.11
  60  0.500  0.900  0.407- 146 2.11 161 2.11 162 2.11 181 2.11 160 2.11
[...]
 188  0.900  0.300  0.503-  90 2.11  89 2.11   9 2.11  94 2.11  88 2.11
 189  0.800  0.300  0.407-  68 2.11  87 2.11  88 2.11  91 2.11  89 2.11
 190  0.900  0.200  0.407-  88 2.11  84 2.11  87 2.11   7 2.11  90 2.11
 191  0.800  0.400  0.503-  74 2.11  89 2.11  93 2.11  94 2.11  91 2.11
 192  0.900  0.500  0.503-  13 2.11  93 2.11  94 2.11  98 2.11  92 2.11
 193  0.800  0.500  0.407-  72 2.11  91 2.11  92 2.11  95 2.11  93 2.11
 194  0.900  0.400  0.407-  11 2.11  88 2.11  91 2.11  92 2.11  94 2.11
 195  0.800  0.600  0.503-  78 2.11  93 2.11  97 2.11  98 2.11  95 2.11
 196  0.900  0.700  0.503- 102 2.11  97 2.11  98 2.11  17 2.11  96 2.11
 197  0.800  0.700  0.407-  76 2.11  99 2.11  96 2.11  95 2.11  97 2.11
 198  0.900  0.600  0.407-  15 2.11  92 2.11  95 2.11  96 2.11  98 2.11
 199  0.800  0.800  0.503-  82 2.11  97 2.11 101 2.11 102 2.11  99 2.11
 200  0.900  0.900  0.503-  21 2.11  86 2.11 101 2.11 102 2.11 100 2.11
 201  0.800  0.900  0.407-  80 2.11  83 2.11  99 2.11 100 2.11 101 2.11
 202  0.900  0.800  0.407-  96 2.11  19 2.11  99 2.11 100 2.11 102 2.11

  LATTYP: Found a simple tetragonal cell.
 ALAT       =    21.1388521970
 C/A-ratio  =     1.0461251639

  Lattice vectors:

 A1 = (  21.1388521970,   0.0000000000,   0.0000000000)
 A2 = (   0.0000000000,  21.1388521970,   0.0000000000)
 A3 = (   0.0000000000,   0.0000000000,  22.1138852197)

Analysis of symmetry for initial positions (statically):
 Subroutine PRICEL returns:
 Original cell was already a primitive cell.

 Routine SETGRP: Setting up the symmetry group for a
 simple tetragonal supercell.

 Subroutine GETGRP returns: Found  4 space group operations
 (whereof  1 operations were pure point group operations)
 out of a pool of 16 trial point group operations.

The static configuration has the point symmetry C_1 .
 The point group associated with its full space group is C_2v.

Analysis of symmetry for dynamics (positions and initial velocities):
 Subroutine PRICEL returns:
 Original cell was already a primitive cell.

 Routine SETGRP: Setting up the symmetry group for a
 simple tetragonal supercell.

 Subroutine GETGRP returns: Found  4 space group operations
 (whereof  1 operations were pure point group operations)
[...]
     40     -46.3619      2.00000
     41     -46.3616      2.00000
     42     -46.3614      2.00000
     43     -46.3609      2.00000
     44     -46.3602      2.00000
     45     -46.3599      2.00000
     46     -46.3595      2.00000
     47     -46.3591      2.00000
     48     -46.3588      2.00000
     49     -46.3587      2.00000
     50     -46.3586      2.00000
     51     -46.3582      2.00000
     52     -46.3579      2.00000
     53     -46.3573      2.00000
     54     -46.3568      2.00000
     55     -46.3568      2.00000
     56     -46.3560      2.00000
     57     -46.3549      2.00000
     58     -46.3547      2.00000
     59     -46.3545      2.00000
     60     -46.3537      2.00000
[...]
    946       6.6265      0.00000
    947       6.6437      0.00000
    948       6.7065      0.00000
    949       6.7066      0.00000
    950       6.8341      0.00000
    951       6.8359      0.00000
    952       6.8891      0.00000
    953       6.9758      0.00000
    954       7.0583      0.00000
    955       7.1956      0.00000
    956       7.2203      0.00000
    957       7.3035      0.00000
    958       7.3449      0.00000
    959       7.4543      0.00000
    960       7.6232      0.00000

 soft charge-density along one line, spin component           1
         0         1         2         3         4         5         6         7         8         9
 total charge-density along one line

------------------------ aborting loop because EDIFF is reached ----------------------------------------

 WARNING: Using user supplied parameters
     VDW_A1 = 0.398
     VDW_A2 = 4.421
     VDW_S8 = 1.989
     because the xc functional is not supported. Required parameters not
     defined in the INCAR file will be replaced with PBE defaults ones.

         DFTD3 V3.0 Rev 1
 IVDW         = 12
 DF unknown
 parameters
 VDW_S6       =    1.0000
 VDW_S8       =    1.9889
 VDW_A1       =    0.3981
 VDW_A2       =    4.4211
 k1-k3        =   16.0000    1.3333   -4.0000
 VDW_RADIUS   =   50.2022 A
 VDW_CNRADIUS =   21.1671 A
 Edisp (eV)  -61.44740

 E6    (eV) :   -20.9949
 E8    (eV) :   -40.4525
 % E8        : 65.83

 VOLUME and BASIS-vectors are now :
  energy-cutoff  :      520.00
  volume of cell :     9881.61
      direct lattice vectors                 reciprocal lattice vectors
    21.138852197  0.000000000  0.000000000     0.047306258  0.000000000  0.000000000
     0.000000000 21.138852197  0.000000000     0.000000000  0.047306258  0.000000000
     0.000000000  0.000000000 22.113885220     0.000000000  0.000000000  0.045220457

  length of vectors
    21.138852197 21.138852197 22.113885220     0.047306258  0.047306258  0.045220457

 FORCES acting on ions:
    Electron-Ion                     Ewald-Force                    Non-Local-Force
   -.192E+03 0.192E+03 -.208E+04   0.188E+03 -.188E+03 0.208E+04   0.441E+01 -.441E+01 -.108E+00
   0.192E+03 -.192E+03 -.208E+04   -.188E+03 0.188E+03 0.208E+04   -.441E+01 0.441E+01 -.108E+00
   0.202E+00 -.347E+01 0.931E+03   -.205E+00 0.348E+01 -.923E+03   0.248E-02 -.349E-02 -.670E+01
   0.347E+01 -.202E+00 0.931E+03   -.348E+01 0.205E+00 -.923E+03   0.349E-02 -.248E-02 -.670E+01
   -.107E-07 -.185E-03 -.923E+03   0.101E-06 -.159E-05 0.915E+03   0.000E+00 0.000E+00 0.667E+01
   0.533E+01 -.533E+01 -.922E+03   -.533E+01 0.533E+01 0.914E+03   0.673E-02 -.673E-02 0.667E+01
   -.202E+00 0.347E+01 0.931E+03   0.205E+00 -.348E+01 -.923E+03   -.248E-02 0.349E-02 -.670E+01
   0.528E+01 0.676E+01 0.933E+03   -.528E+01 -.676E+01 -.925E+03   0.346E-02 0.639E-02 -.670E+01
   -.562E+00 0.719E+01 -.922E+03   0.571E+00 -.720E+01 0.914E+03   -.632E-02 0.442E-02 0.667E+01
   0.472E+01 0.472E+01 -.922E+03   -.473E+01 -.473E+01 0.915E+03   0.507E-03 0.507E-03 0.667E+01
   -.467E+00 0.617E+01 0.934E+03   0.476E+00 -.618E+01 -.926E+03   -.597E-02 0.604E-02 -.670E+01
   0.103E+02 0.522E+01 0.937E+03   -.103E+02 -.523E+01 -.930E+03   0.160E-01 0.854E-02 -.670E+01
   -.540E+00 0.503E+01 -.919E+03   0.548E+00 -.503E+01 0.912E+03   -.609E-02 0.280E-02 0.667E+01
   0.105E+02 0.972E+01 -.919E+03   -.105E+02 -.973E+01 0.912E+03   0.169E-02 0.658E-02 0.667E+01
   0.239E-06 -.189E-03 0.936E+03   -.146E-06 0.155E-05 -.928E+03   0.000E+00 0.000E+00 -.670E+01
   0.111E+02 -.469E+01 0.938E+03   -.112E+02 0.469E+01 -.930E+03   0.284E-01 -.277E-02 -.670E+01
   0.540E+00 -.503E+01 -.919E+03   -.548E+00 0.503E+01 0.912E+03   0.609E-02 -.280E-02 0.667E+01
   0.175E+02 0.739E+00 -.916E+03   -.175E+02 -.747E+00 0.909E+03   0.196E-01 0.567E-02 0.666E+01
   0.467E+00 -.617E+01 0.934E+03   -.476E+00 0.618E+01 -.926E+03   0.597E-02 -.604E-02 -.670E+01
   0.610E+01 -.709E+01 0.933E+03   -.612E+01 0.710E+01 -.926E+03   0.127E-01 -.967E-02 -.670E+01
   0.562E+00 -.719E+01 -.922E+03   -.571E+00 0.720E+01 0.914E+03   0.632E-02 -.442E-02 0.667E+01
   0.124E+02 -.985E+01 -.919E+03   -.124E+02 0.986E+01 0.911E+03   0.223E-01 -.603E-02 0.667E+01
   0.709E+01 -.610E+01 0.933E+03   -.710E+01 0.612E+01 -.926E+03   0.967E-02 -.127E-01 -.670E+01
   0.617E+01 -.468E+00 0.934E+03   -.618E+01 0.476E+00 -.926E+03   0.604E-02 -.597E-02 -.670E+01
   0.719E+01 -.562E+00 -.922E+03   -.720E+01 0.571E+00 0.914E+03   0.442E-02 -.632E-02 0.667E+01
   0.985E+01 -.124E+02 -.919E+03   -.986E+01 0.124E+02 0.911E+03   0.603E-02 -.223E-01 0.667E+01
   0.676E+01 0.528E+01 0.933E+03   -.676E+01 -.528E+01 -.925E+03   0.639E-02 0.346E-02 -.670E+01
   0.117E+02 0.149E+02 0.940E+03   -.117E+02 -.150E+02 -.932E+03   0.185E-01 0.241E-01 -.671E+01
   0.133E+02 0.133E+02 -.919E+03   -.133E+02 -.133E+02 0.911E+03   0.562E-02 0.562E-02 0.666E+01
   0.972E+01 0.105E+02 -.919E+03   -.973E+01 -.105E+02 0.912E+03   0.658E-02 0.169E-02 0.667E+01
   0.149E+02 0.117E+02 0.940E+03   -.150E+02 -.117E+02 -.932E+03   0.241E-01 0.185E-01 -.671E+01
   0.290E+02 0.163E+02 0.961E+03   -.292E+02 -.163E+02 -.953E+03   0.101E+00 0.508E-01 -.673E+01
   0.334E+02 0.141E+02 -.910E+03   -.334E+02 -.142E+02 0.902E+03   0.275E-01 0.191E-01 0.666E+01
   0.320E+02 0.320E+02 -.905E+03   -.321E+02 -.321E+02 0.898E+03   0.271E-01 0.271E-01 0.664E+01
   0.243E+02 0.113E+01 0.948E+03   -.244E+02 -.115E+01 -.940E+03   0.681E-01 0.108E-01 -.671E+01
   0.309E+02 -.145E+02 0.965E+03   -.310E+02 0.145E+02 -.957E+03   0.730E-01 -.318E-01 -.667E+01
   0.374E+02 -.120E+02 -.907E+03   -.375E+02 0.120E+02 0.900E+03   0.739E-01 0.973E-03 0.667E+01
   0.794E+02 0.824E+01 -.871E+03   -.797E+02 -.832E+01 0.863E+03   0.218E+00 0.554E-01 0.667E+01
   0.164E+02 -.120E+02 0.942E+03   -.165E+02 0.120E+02 -.934E+03   0.357E-01 -.202E-01 -.670E+01
   0.120E+02 -.164E+02 0.942E+03   -.120E+02 0.165E+02 -.934E+03   0.202E-01 -.357E-01 -.670E+01
   0.149E+02 -.149E+02 -.918E+03   -.149E+02 0.149E+02 0.910E+03   0.196E-01 -.196E-01 0.667E+01
   0.369E+02 -.369E+02 -.899E+03   -.370E+02 0.370E+02 0.892E+03   0.602E-01 -.602E-01 0.667E+01
   0.469E+01 -.111E+02 0.938E+03   -.469E+01 0.112E+02 -.930E+03   0.277E-02 -.284E-01 -.670E+01
   0.236E-06 -.183E-03 0.936E+03   -.139E-06 -.416E-05 -.928E+03   0.000E+00 0.000E+00 -.670E+01
   0.503E+01 -.540E+00 -.919E+03   -.503E+01 0.548E+00 0.912E+03   0.280E-02 -.609E-02 0.667E+01
   -.739E+00 -.175E+02 -.916E+03   0.747E+00 0.175E+02 0.909E+03   -.567E-02 -.196E-01 0.666E+01
   0.522E+01 0.103E+02 0.937E+03   -.523E+01 -.103E+02 -.930E+03   0.854E-02 0.160E-01 -.670E+01
   0.113E+01 0.243E+02 0.948E+03   -.115E+01 -.244E+02 -.940E+03   0.108E-01 0.681E-01 -.671E+01
   0.141E+02 0.334E+02 -.910E+03   -.142E+02 -.334E+02 0.902E+03   0.191E-01 0.275E-01 0.666E+01
   0.739E+00 0.175E+02 -.916E+03   -.747E+00 -.175E+02 0.909E+03   0.567E-02 0.196E-01 0.666E+01
   0.163E+02 0.290E+02 0.961E+03   -.163E+02 -.292E+02 -.953E+03   0.508E-01 0.101E+00 -.673E+01
   0.314E+01 0.312E+02 0.100E+04   -.309E+01 -.313E+02 -.995E+03   -.277E-01 0.898E-01 -.647E+01
   0.710E+02 0.710E+02 -.837E+03   -.714E+02 -.714E+02 0.830E+03   0.239E+00 0.239E+00 0.656E+01
   0.824E+01 0.794E+02 -.871E+03   -.832E+01 -.797E+02 0.863E+03   0.554E-01 0.218E+00 0.667E+01
   0.312E+02 0.314E+01 0.100E+04   -.313E+02 -.309E+01 -.995E+03   0.898E-01 -.277E-01 -.647E+01
   -.314E+01 -.312E+02 0.100E+04   0.309E+01 0.313E+02 -.995E+03   0.277E-01 -.898E-01 -.647E+01
   0.781E+02 -.781E+02 -.793E+03   -.784E+02 0.784E+02 0.786E+03   0.149E+00 -.149E+00 0.640E+01
   -.223E-04 -.244E-03 -.658E+03   0.225E-04 0.543E-04 0.653E+03   0.000E+00 0.000E+00 0.452E+01
   0.145E+02 -.309E+02 0.965E+03   -.145E+02 0.310E+02 -.957E+03   0.318E-01 -.730E-01 -.667E+01
   -.113E+01 -.243E+02 0.948E+03   0.115E+01 0.244E+02 -.940E+03   -.108E-01 -.681E-01 -.671E+01
[...]
   -.800E+01 0.800E+01 0.704E+03   0.801E+01 -.801E+01 -.708E+03   -.205E-01 0.205E-01 0.318E+01
   -.318E+01 0.317E+01 0.701E+03   0.318E+01 -.318E+01 -.705E+03   -.735E-02 0.735E-02 0.318E+01
   -.190E+02 0.134E+02 -.687E+03   0.191E+02 -.135E+02 0.691E+03   -.406E-01 0.258E-01 -.322E+01
   -.123E+02 0.466E+01 -.689E+03   0.123E+02 -.466E+01 0.694E+03   -.216E-01 0.123E-02 -.323E+01
   -.167E+02 0.580E+01 0.712E+03   0.168E+02 -.581E+01 -.716E+03   -.549E-01 0.114E-01 0.318E+01
   -.657E+01 0.563E+01 0.704E+03   0.658E+01 -.564E+01 -.708E+03   -.196E-01 0.109E-01 0.318E+01
   -.309E+02 -.183E+01 -.681E+03   0.310E+02 0.185E+01 0.685E+03   -.494E-01 -.227E-01 -.325E+01
   -.111E+02 -.530E+01 -.690E+03   0.111E+02 0.531E+01 0.694E+03   -.973E-02 -.994E-02 -.323E+01
   -.157E+02 -.671E+01 0.710E+03   0.157E+02 0.673E+01 -.714E+03   -.364E-01 -.245E-01 0.317E+01
   -.884E+01 -.323E+00 0.706E+03   0.885E+01 0.327E+00 -.710E+03   -.204E-01 -.546E-02 0.317E+01
   -.165E+02 -.126E+02 -.688E+03   0.165E+02 0.127E+02 0.692E+03   -.148E-01 -.157E-01 -.324E+01
   -.514E+01 -.639E+01 -.693E+03   0.514E+01 0.639E+01 0.697E+03   -.113E-02 -.485E-02 -.322E+01
   -.737E+01 -.737E+01 0.703E+03   0.738E+01 0.738E+01 -.707E+03   -.120E-01 -.120E-01 0.317E+01
   -.574E+01 -.561E+01 0.703E+03   0.574E+01 0.562E+01 -.707E+03   -.721E-02 -.102E-01 0.317E+01
   -.142E-04 -.110E+00 0.879E+01   0.189E-11 0.696E-12 -.557E-11   -.185E-15 -.937E-16 -.812E+01

 POSITION                                       TOTAL-FORCE (eV/Angst)
     11.47450     11.77823     13.73072         0.152295     -0.152295      0.054035
      9.66435     13.58839     13.73072        -0.152295      0.152295      0.054035
      0.00000      0.00000      9.00000        -0.000772      0.001081      0.530613
      2.11389      2.11389      9.00000        -0.001081      0.000772      0.530613
      0.00000      2.11389     11.11389        -0.000000     -0.000000     -0.519130
      2.11389      0.00000     11.11389        -0.002047      0.002047     -0.518859
      0.00000      4.22777      9.00000         0.000772     -0.001081      0.530613
      2.11389      6.34166      9.00000        -0.001007     -0.001945      0.531118
      0.00000      6.34166     11.11389         0.001944     -0.001332     -0.518439
      2.11389      4.22777     11.11389        -0.000101     -0.000101     -0.518541
      0.00000      8.45554      9.00000         0.001807     -0.001898      0.530964
      2.11389     10.56943      9.00000        -0.004671     -0.002709      0.532017
      0.00000     10.56943     11.11389         0.001823     -0.000836     -0.516912
      2.11389      8.45554     11.11389        -0.000082     -0.001855     -0.516153
      0.00000     12.68331      9.00000        -0.000000     -0.000000      0.531210
      2.11389     14.79720      9.00000        -0.008202      0.000842      0.531472
      0.00000     14.79720     11.11389        -0.001823      0.000836     -0.516912
      2.11389     12.68331     11.11389        -0.004696     -0.001850     -0.515214
      0.00000     16.91108      9.00000        -0.001807      0.001898      0.530964
      2.11389     19.02497      9.00000        -0.003900      0.003026      0.530489
      0.00000     19.02497     11.11389        -0.001944      0.001332     -0.518439
      2.11389     16.91108     11.11389        -0.006354      0.001757     -0.517455
      4.22777      0.00000      9.00000        -0.003026      0.003900      0.530489
      6.34166      2.11389      9.00000        -0.001898      0.001807      0.530964
      4.22777      2.11389     11.11389        -0.001332      0.001944     -0.518439
      6.34166      0.00000     11.11389        -0.001757      0.006354     -0.517455
      4.22777      4.22777      9.00000        -0.001945     -0.001007      0.531118
      6.34166      6.34166      9.00000        -0.005533     -0.007046      0.533160
      4.22777      6.34166     11.11389        -0.001264     -0.001264     -0.515349
      6.34166      4.22777     11.11389        -0.001855     -0.000082     -0.516153
      4.22777      8.45554      9.00000        -0.007046     -0.005533      0.533160
      6.34166     10.56943      9.00000        -0.028865     -0.015900      0.540628
      4.22777     10.56943     11.11389        -0.003631     -0.004601     -0.507857
      6.34166      8.45554     11.11389        -0.002656     -0.002656     -0.499903
      4.22777     12.68331      9.00000        -0.019335     -0.003558      0.534359
      6.34166     14.79720      9.00000        -0.018353      0.009430      0.526557
      4.22777     14.79720     11.11389        -0.017835     -0.001722     -0.511906
      6.34166     12.68331     11.11389        -0.047352     -0.013188     -0.474989
      4.22777     16.91108      9.00000        -0.010629      0.006280      0.530151
      6.34166     19.02497      9.00000        -0.006280      0.010629      0.530151
      4.22777     19.02497     11.11389        -0.005595      0.005595     -0.517782
      6.34166     16.91108     11.11389        -0.009565      0.009565     -0.511317
      8.45554      0.00000      9.00000        -0.000842      0.008202      0.531472
     10.56943      2.11389      9.00000        -0.000000     -0.000000      0.531210
      8.45554      2.11389     11.11389        -0.000836      0.001823     -0.516912
     10.56943      0.00000     11.11389         0.001850      0.004696     -0.515214
      8.45554      4.22777      9.00000        -0.002709     -0.004671      0.532017
     10.56943      6.34166      9.00000        -0.003558     -0.019335      0.534359
      8.45554      6.34166     11.11389        -0.004601     -0.003631     -0.507857
     10.56943      4.22777     11.11389        -0.001850     -0.004696     -0.515214
      8.45554      8.45554      9.00000        -0.015900     -0.028865      0.540628
     10.56943     10.56943      9.00000         0.015880     -0.017778      0.476540
      8.45554     10.56943     11.11389        -0.030847     -0.030847     -0.361762
     10.56943      8.45554     11.11389        -0.013188     -0.047352     -0.474989
      8.45554     12.68331      9.00000        -0.017778      0.015880      0.476540
     10.56943     14.79720      9.00000        -0.015880      0.017778      0.476540
      8.45554     14.79720     11.11389        -0.078422      0.078422     -0.601281
     10.56943     12.68331     11.11389        -0.000000     -0.000000     -0.327739
      8.45554     16.91108      9.00000        -0.009430      0.018353      0.526557
     10.56943     19.02497      9.00000         0.003558      0.019335      0.534359
[...]
     19.02497      6.34166     11.11389        -0.004327      0.003479      0.396507
     16.91108      6.34166      9.00000        -0.006685      0.006685     -0.408798
     19.02497      4.22777      9.00000        -0.002374      0.002374     -0.409243
     16.91108      8.45554     11.11389        -0.013653      0.008713      0.395707
     19.02497     10.56943     11.11389        -0.007137      0.000430      0.394398
     16.91108     10.56943      9.00000        -0.018097      0.003678     -0.406671
     19.02497      8.45554      9.00000        -0.006375      0.003540     -0.409218
     16.91108     12.68331     11.11389        -0.017476     -0.007504      0.388570
     19.02497     14.79720     11.11389        -0.003265     -0.003261      0.393246
     16.91108     14.79720      9.00000        -0.012143     -0.008055     -0.412129
     19.02497     12.68331      9.00000        -0.006650     -0.001745     -0.410117
     16.91108     16.91108     11.11389        -0.005124     -0.005285      0.390172
     19.02497     19.02497     11.11389        -0.000378     -0.001589      0.395572
     16.91108     19.02497      9.00000        -0.003911     -0.003911     -0.410629
     19.02497     16.91108      9.00000        -0.002353     -0.003312     -0.410311
    total drift:                               -0.000014     -0.109991     -0.259815

  FREE ENERGIE OF THE ION-ELECTRON SYSTEM (eV)
  free  energy   TOTEN  =     -1393.83502785 eV

  energy  without entropy=    -1393.83502785  energy(sigma->0) =    -1393.83502785