 vasp.6.3.0 20Jan22 (build Apr  1 2022 16:44:48) complex
 executed on        HPECrayEX_GCC date 2023.01.09  20:46:00

 INCAR:
   SYSTEM = MgO-rocksalt
   ISMEAR = 0
   SIGMA = 0.05
   EDIFF = 1E-6
   ALGO = ALL
   ISTART = 0
   IBRION = -1
   NSW = 0
   ISYM = 2
   DIPOL = 0.5 0.5 0.5
   IDIPOL = 3
   LDIPOL = .TRUE.
   GGA = RE
   LUSE_VDW = .TRUE.
   AGGAC = 0.0
   ENCUT = 520
   PREC = Accurate
   LASPH = .TRUE.
   LREAL = Auto
   ISPIN = 1
   NELM = 200
   NELMIN = 8
   NCORE = 4
   KPAR = 2
   LWAVE = .FALSE.
   LCHARG = .FALSE.

 POTCAR:    PAW_PBE Au 04Oct2007
 POTCAR:    PAW_PBE Mg_pv 13Apr2007
 POTCAR:    PAW_PBE O 08Apr2002
|               ----> ADVICE to this user running VASP <----                  |
|     You have switched on vdW-DFT.                                           |
|     This routine was written and supplied by Jiri Klimes. We recommend      |
|     that you carefully read and cite the following publications:            |
|       J. Klimes, D.R. Bowler, A. Michelides                                 |
|          J. Phys.: Cond Matt. 22 022201 (2010)                              |
|       J. Klimes, D.R. Bowler, A. Michelides                                 |
|          Phys. Rev. B. 83, 195131 (2011)                                    |
|     and references therein.                                                 |

   TITEL  = PAW_PBE Au 04Oct2007
   POMASS =  196.966; ZVAL   =   11.000    mass and valenz
   ENMAX  =  229.943; ENMIN  =  172.457 eV

   TITEL  = PAW_PBE Mg_pv 13Apr2007
   POMASS =   24.305; ZVAL   =    8.000    mass and valenz
   ENMAX  =  403.929; ENMIN  =  302.947 eV

   TITEL  = PAW_PBE O 08Apr2002
   POMASS =   16.000; ZVAL   =    6.000    mass and valenz
   ENMAX  =  400.000; ENMIN  =  300.000 eV

 Optimization of the real space projectors (new method)

 maximal supplied QI-value         = 15.12
 optimisation between [QCUT,QGAM] = [ 11.64, 23.28] = [ 37.95,151.78] Ry
 Optimized for a Real-space Cutoff    1.49 Angstroem

   l    n(q)    QCUT    max X(q) W(low)/X(q) W(high)/X(q)  e(spline)
   2      9    11.641    60.898    0.24E-03    0.10E-03    0.19E-06
   2      9    11.641    58.894    0.25E-03    0.10E-03    0.19E-06
   0     10    11.641   109.617    0.73E-04    0.33E-04    0.11E-06
   0     10    11.641    75.026    0.71E-04    0.32E-04    0.11E-06
   1     10    11.641    16.344    0.27E-04    0.97E-04    0.16E-06
   1     10    11.641    10.160    0.23E-04    0.77E-04    0.13E-06
 Optimization of the real space projectors (new method)

[...]

   l    n(q)    QCUT    max X(q) W(low)/X(q) W(high)/X(q)  e(spline)
   1      8    11.527     2.974    0.44E-04    0.56E-04    0.12E-06
   1      8    11.527     4.279    0.12E-03    0.12E-03    0.26E-06
   0      9    11.527    16.381    0.46E-04    0.64E-04    0.78E-07
   0      9    11.527     5.611    0.26E-04    0.43E-04    0.55E-07
   2      8    11.527     4.652    0.22E-03    0.72E-04    0.47E-07
 Optimization of the real space projectors (new method)

 maximal supplied QI-value         = 24.76
 optimisation between [QCUT,QGAM] = [ 11.64, 23.27] = [ 37.91,151.63] Ry
 Optimized for a Real-space Cutoff    1.14 Angstroem

   l    n(q)    QCUT    max X(q) W(low)/X(q) W(high)/X(q)  e(spline)
   0      8    11.635    20.381    0.10E-03    0.33E-03    0.24E-06
   0      8    11.635    15.268    0.11E-03    0.35E-03    0.26E-06
   1      7    11.635     5.964    0.24E-03    0.31E-03    0.30E-06
   1      7    11.635     5.382    0.22E-03    0.25E-03    0.26E-06
|               ----> ADVICE to this user running VASP <----                  |
|     You enforced a specific xc type in the INCAR file but a different       |
|     type was found in the POTCAR file.                                      |
|     I HOPE YOU KNOW WHAT YOU ARE DOING!                                     |

  PAW_PBE Au 04Oct2007                  :
  PAW_PBE Mg_pv 13Apr2007               :
  PAW_PBE O 08Apr2002                   :

 POSCAR: Au Mg  O
  positions in direct lattice
  velocities in cartesian coordinates
 exchange correlation table for  LEXCH =       40
   RHO(1)=    0.500       N(1)  =     2000
   RHO(2)=  100.500       N(2)  =     4000

 ion  position               nearest neighbor table
   1  0.400  0.565  0.604- 157 2.36   3 2.61  55 2.63   4 2.77
   2  0.400  0.500  0.818-   3 2.52
   3  0.400  0.500  0.704-   2 2.52   4 2.61   1 2.61
   4  0.400  0.434  0.604- 153 2.35   3 2.61  55 2.64   1 2.77
   5  0.000  0.000  0.407- 107 2.11 108 2.11 123 2.11 188 2.11 105 2.11
   6  0.100  0.100  0.407- 107 2.11 108 2.11 112 2.11 127 2.11 106 2.11
   7  0.000  0.100  0.503- 105 2.11 106 2.11 109 2.11 186 2.11 107 2.11
   8  0.100  0.000  0.503- 105 2.11 106 2.11 122 2.11 125 2.11 108 2.11
   9  0.000  0.200  0.407- 111 2.11 107 2.11 112 2.11 192 2.11 109 2.11
  10  0.100  0.300  0.407- 112 2.11 111 2.11 116 2.11 131 2.11 110 2.11
  11  0.000  0.300  0.503- 109 2.11 110 2.11 113 2.11 190 2.11 111 2.11
  12  0.100  0.200  0.503- 110 2.11 109 2.11 106 2.11 129 2.11 112 2.11
  13  0.000  0.400  0.407- 111 2.11 115 2.11 116 2.11 196 2.11 113 2.11
  14  0.100  0.500  0.407- 115 2.11 116 2.11 120 2.11 135 2.11 114 2.11
  15  0.000  0.500  0.503- 113 2.11 114 2.11 117 2.11 194 2.11 115 2.11
  16  0.100  0.400  0.503- 110 2.11 113 2.11 114 2.11 133 2.11 116 2.11
  17  0.000  0.600  0.407- 115 2.11 119 2.11 120 2.11 200 2.11 117 2.11
  18  0.100  0.700  0.407- 124 2.11 120 2.11 119 2.11 139 2.11 118 2.11
  19  0.000  0.700  0.503- 121 2.11 118 2.11 117 2.11 198 2.11 119 2.11
  20  0.100  0.600  0.503- 114 2.11 117 2.11 118 2.11 137 2.11 120 2.11
  21  0.000  0.800  0.407- 119 2.11 123 2.11 124 2.11 204 2.11 121 2.11
  22  0.100  0.900  0.407- 108 2.11 123 2.11 124 2.11 143 2.11 122 2.11
  23  0.000  0.900  0.503- 105 2.11 121 2.11 122 2.11 202 2.11 123 2.11
  24  0.100  0.800  0.503- 118 2.11 121 2.11 122 2.11 141 2.11 124 2.11
  25  0.200  0.000  0.407- 128 2.11 127 2.11 108 2.11 143 2.11 125 2.11
  26  0.300  0.100  0.407- 127 2.11 128 2.11 132 2.11 147 2.11 126 2.11
  27  0.200  0.100  0.503- 126 2.11 125 2.11 106 2.11 129 2.11 127 2.11
  28  0.300  0.000  0.503- 125 2.11 126 2.11 142 2.11 145 2.11 128 2.11
  29  0.200  0.200  0.407- 131 2.11 132 2.11 112 2.11 127 2.11 129 2.11
  30  0.300  0.300  0.407- 131 2.11 132 2.11 136 2.11 151 2.11 130 2.11
  31  0.200  0.300  0.503- 129 2.11 130 2.11 110 2.11 133 2.11 131 2.11
  32  0.300  0.200  0.503- 129 2.11 130 2.11 126 2.11 149 2.11 132 2.11
  33  0.200  0.400  0.407- 136 2.11 131 2.11 135 2.11 116 2.11 133 2.11
  34  0.300  0.500  0.407- 135 2.11 136 2.11 140 2.11 155 2.11 134 2.11
  35  0.200  0.500  0.503- 134 2.11 133 2.11 114 2.11 137 2.11 135 2.11
  36  0.300  0.400  0.503- 133 2.11 130 2.11 134 2.11 153 2.11 136 2.11
  37  0.200  0.600  0.407- 140 2.11 135 2.11 139 2.11 120 2.11 137 2.11
  38  0.300  0.700  0.407- 139 2.11 144 2.11 140 2.11 159 2.11 138 2.11
  39  0.200  0.700  0.503- 138 2.11 141 2.11 118 2.11 137 2.11 139 2.11
  40  0.300  0.600  0.503- 137 2.11 134 2.11 138 2.11 157 2.11 140 2.11
  41  0.200  0.800  0.407- 139 2.11 144 2.11 143 2.11 124 2.11 141 2.11
  42  0.300  0.900  0.407- 143 2.11 128 2.11 144 2.11 163 2.11 142 2.11
  43  0.200  0.900  0.503- 142 2.11 125 2.11 141 2.11 122 2.11 143 2.11
  44  0.300  0.800  0.503- 138 2.11 141 2.11 142 2.11 161 2.11 144 2.11
  45  0.400  0.000  0.407- 128 2.11 147 2.11 148 2.11 163 2.11 145 2.11
  46  0.500  0.100  0.407- 147 2.11 148 2.11 152 2.11 167 2.11 146 2.11
  47  0.400  0.100  0.503- 126 2.11 145 2.11 146 2.11 149 2.11 147 2.11
  48  0.500  0.000  0.503- 145 2.11 146 2.11 162 2.11 165 2.11 148 2.11
  49  0.400  0.200  0.407- 151 2.11 147 2.11 132 2.11 152 2.11 149 2.11
  50  0.500  0.300  0.407- 152 2.11 151 2.11 156 2.11 171 2.11 150 2.11
  51  0.400  0.300  0.503- 149 2.11 130 2.11 150 2.11 153 2.11 151 2.11
  52  0.500  0.200  0.503- 150 2.11 149 2.11 146 2.11 169 2.11 152 2.11
  53  0.400  0.400  0.407- 136 2.11 151 2.11 155 2.11 156 2.11 153 2.11
  54  0.500  0.500  0.407- 155 2.11 156 2.11 160 2.11 175 2.11 154 2.11
  55  0.400  0.500  0.503- 134 2.11 153 2.11 154 2.11 157 2.11 155 2.11   1 2.63   4 2.64
  56  0.500  0.400  0.503- 150 2.11 153 2.11 154 2.11 173 2.11 156 2.11
  57  0.400  0.600  0.407- 140 2.11 155 2.11 159 2.11 160 2.11 157 2.11
  58  0.500  0.700  0.407- 164 2.11 160 2.11 159 2.11 179 2.11 158 2.11
  59  0.400  0.700  0.503- 161 2.11 157 2.11 158 2.11 138 2.11 159 2.11
  60  0.500  0.600  0.503- 154 2.11 157 2.11 158 2.11 177 2.11 160 2.11
[...]
 190  0.900  0.300  0.503-  92 2.11  91 2.11  11 2.11  96 2.11  90 2.11
 191  0.800  0.300  0.407-  70 2.11  89 2.11  90 2.11  93 2.11  91 2.11
 192  0.900  0.200  0.407-  90 2.11  86 2.11  89 2.11   9 2.11  92 2.11
 193  0.800  0.400  0.503-  76 2.11  91 2.11  95 2.11  96 2.11  93 2.11
 194  0.900  0.500  0.503-  15 2.11  95 2.11  96 2.11 100 2.11  94 2.11
 195  0.800  0.500  0.407-  74 2.11  93 2.11  94 2.11  97 2.11  95 2.11
 196  0.900  0.400  0.407-  13 2.11  90 2.11  93 2.11  94 2.11  96 2.11
 197  0.800  0.600  0.503-  80 2.11  95 2.11  99 2.11 100 2.11  97 2.11
 198  0.900  0.700  0.503- 104 2.11  99 2.11 100 2.11  19 2.11  98 2.11
 199  0.800  0.700  0.407-  78 2.11 101 2.11  98 2.11  97 2.11  99 2.11
 200  0.900  0.600  0.407-  17 2.11  94 2.11  97 2.11  98 2.11 100 2.11
 201  0.800  0.800  0.503-  84 2.11  99 2.11 103 2.11 104 2.11 101 2.11
 202  0.900  0.900  0.503-  23 2.11  88 2.11 103 2.11 104 2.11 102 2.11
 203  0.800  0.900  0.407-  82 2.11  85 2.11 101 2.11 102 2.11 103 2.11
 204  0.900  0.800  0.407-  98 2.11  21 2.11 101 2.11 102 2.11 104 2.11

  LATTYP: Found a simple tetragonal cell.
 ALAT       =    21.1388521970
 C/A-ratio  =     1.0461251639

  Lattice vectors:

 A1 = (  21.1388521970,   0.0000000000,   0.0000000000)
 A2 = (   0.0000000000,  21.1388521970,   0.0000000000)
 A3 = (   0.0000000000,   0.0000000000,  22.1138852197)

Analysis of symmetry for initial positions (statically):
 Subroutine PRICEL returns:
 Original cell was already a primitive cell.

 Routine SETGRP: Setting up the symmetry group for a
 simple tetragonal supercell.

 Subroutine GETGRP returns: Found  1 space group operations
 (whereof  1 operations were pure point group operations)
 out of a pool of 16 trial point group operations.

The static configuration has the point symmetry C_1 .

Analysis of symmetry for dynamics (positions and initial velocities):
 Subroutine PRICEL returns:
 Original cell was already a primitive cell.

[...]

The dynamic configuration has the point symmetry C_1 .

Analysis of constrained symmetry for selective dynamics:
 Subroutine PRICEL returns:
 Original cell was already a primitive cell.

 Routine SETGRP: Setting up the symmetry group for a
 simple tetragonal supercell.

 Subroutine GETGRP returns: Found  1 space group operations
 (whereof  1 operations were pure point group operations)
 out of a pool of 16 trial point group operations.

The constrained configuration has the point symmetry C_1 .

 Subroutine INISYM returns: Found  1 space group operations
 (whereof  1 operations are pure point group operations),
 and found     1 'primitive' translations

                                     Primitive cell

[...]
     52     -43.6898      2.00000
     53     -43.6897      2.00000
     54     -43.6893      2.00000
     55     -43.6892      2.00000
     56     -43.6802      2.00000
     57     -43.6799      2.00000
     58     -43.6797      2.00000
     59     -43.6794      2.00000
     60     -43.6787      2.00000
[...]
    946       5.4871      0.00000
    947       5.5015      0.00000
    948       5.5170      0.00000
    949       5.5236      0.00000
    950       5.5327      0.00000
    951       5.5414      0.00000
    952       5.5532      0.00000
    953       5.6255      0.00000
    954       5.7050      0.00000
    955       5.8434      0.00000
    956       5.8583      0.00000
    957       5.9218      0.00000
    958       6.0800      0.00000
    959       6.1872      0.00000
    960       6.3197      0.00000

 soft charge-density along one line, spin component           1
         0         1         2         3         4         5         6         7         8         9
 total charge-density along one line

------------------------ aborting loop because EDIFF is reached ----------------------------------------

  FORCE on cell =-STRESS in cart. coord.  units (eV):
  Direction    XX          YY          ZZ          XY          YZ          ZX
  Alpha Z  1417.83424  1417.83424  1417.83424
  Ewald  475017.55858476123.61356************     0.15895     0.50430    -0.54556
  Hartree504302.02762505097.35074************     0.11338     0.17788    -0.38522
  E(xc)   -8060.03796 -8058.83732 -8073.97352     0.00014     0.00142    -0.00088
  Local  ************************************    -0.26815    -0.66804     0.91123
  n-local -8752.72361 -8761.48239 -8885.16637    -0.00083     0.01746     0.00701
  augment  3651.87741  3646.91059  3586.63054    -0.00101    -0.00836     0.00270
  Kinetic 23386.96936 23375.34920 23570.26754    -0.00219     0.00462     0.01279
  Fock        0.00000     0.00000     0.00000     0.00000     0.00000     0.00000
  Total    -118.14025  -116.83835    42.46450     0.00028     0.02927     0.00208
  in kB     -19.15493   -18.94385     6.88508     0.00005     0.00475     0.00034

 VOLUME and BASIS-vectors are now :
  energy-cutoff  :      520.00
  volume of cell :     9881.61
      direct lattice vectors                 reciprocal lattice vectors
    21.138852197  0.000000000  0.000000000     0.047306258  0.000000000  0.000000000
     0.000000000 21.138852197  0.000000000     0.000000000  0.047306258  0.000000000
     0.000000000  0.000000000 22.113885220     0.000000000  0.000000000  0.045220457

  length of vectors
    21.138852197 21.138852197 22.113885220     0.047306258  0.047306258  0.045220457

 FORCES acting on ions:
    Electron-Ion                     Ewald-Force                    Non-Local-Force
   -.145E+00 -.383E+03 -.190E+04   0.143E+00 0.380E+03 0.191E+04   0.283E-02 0.339E+01 -.283E+01
   0.316E-01 -.106E+00 -.126E+04   -.320E-01 0.987E-01 0.126E+04   0.356E-03 0.624E-02 0.648E+01
   0.161E+00 0.642E+00 -.172E+04   -.160E+00 -.643E+00 0.172E+04   -.987E-03 0.329E-02 0.185E+01
   -.298E-01 0.382E+03 -.190E+04   0.285E-01 -.379E+03 0.191E+04   0.244E-02 -.335E+01 -.283E+01
   0.633E+01 0.232E-01 0.934E+03   -.637E+01 -.232E-01 -.927E+03   0.274E-01 0.394E-04 -.685E+01
   0.124E+02 0.940E+01 0.937E+03   -.125E+02 -.943E+01 -.930E+03   0.607E-01 0.253E-01 -.686E+01
   0.906E+01 0.847E+01 -.917E+03   -.910E+01 -.848E+01 0.910E+03   0.308E-01 0.404E-02 0.672E+01
   0.132E+02 0.415E-01 -.916E+03   -.133E+02 -.416E-01 0.909E+03   0.421E-01 0.601E-04 0.672E+01
   0.980E+01 0.114E+02 0.937E+03   -.986E+01 -.114E+02 -.930E+03   0.493E-01 0.130E-01 -.686E+01
   0.257E+02 0.184E+02 0.948E+03   -.259E+02 -.184E+02 -.941E+03   0.162E+00 0.331E-01 -.688E+01
   0.189E+02 0.157E+02 -.911E+03   -.189E+02 -.157E+02 0.904E+03   0.525E-01 0.225E-02 0.671E+01
   0.243E+02 0.227E+02 -.910E+03   -.244E+02 -.227E+02 0.903E+03   0.990E-01 0.195E-01 0.671E+01
   0.171E+02 0.780E+01 0.944E+03   -.172E+02 -.781E+01 -.936E+03   0.788E-01 0.616E-02 -.687E+01
   0.374E+02 -.460E-01 0.958E+03   -.377E+02 0.461E-01 -.951E+03   0.202E+00 -.128E-03 -.689E+01
   0.272E+02 -.374E-01 -.907E+03   -.272E+02 0.374E-01 0.900E+03   0.550E-01 -.154E-04 0.670E+01
   0.540E+02 0.187E+02 -.894E+03   -.541E+02 -.187E+02 0.887E+03   0.145E+00 0.168E-02 0.668E+01
   0.170E+02 -.784E+01 0.944E+03   -.171E+02 0.785E+01 -.936E+03   0.787E-01 -.623E-02 -.687E+01
   0.256E+02 -.184E+02 0.948E+03   -.258E+02 0.184E+02 -.941E+03   0.162E+00 -.332E-01 -.688E+01
   0.188E+02 -.157E+02 -.911E+03   -.189E+02 0.157E+02 0.904E+03   0.524E-01 -.226E-02 0.671E+01
   0.539E+02 -.188E+02 -.894E+03   -.541E+02 0.188E+02 0.887E+03   0.144E+00 -.177E-02 0.668E+01
   0.978E+01 -.114E+02 0.937E+03   -.984E+01 0.114E+02 -.930E+03   0.491E-01 -.130E-01 -.686E+01
   0.124E+02 -.934E+01 0.937E+03   -.125E+02 0.938E+01 -.930E+03   0.605E-01 -.252E-01 -.686E+01
   0.905E+01 -.842E+01 -.917E+03   -.909E+01 0.843E+01 0.910E+03   0.307E-01 -.400E-02 0.672E+01
   0.242E+02 -.226E+02 -.910E+03   -.243E+02 0.227E+02 0.903E+03   0.987E-01 -.194E-01 0.671E+01
   0.113E+02 0.447E-01 0.939E+03   -.114E+02 -.449E-01 -.932E+03   0.503E-01 0.158E-03 -.686E+01
   0.897E+01 0.176E+02 0.945E+03   -.903E+01 -.178E+02 -.938E+03   0.467E-01 0.119E+00 -.687E+01
   0.178E+02 0.191E+02 -.910E+03   -.179E+02 -.191E+02 0.904E+03   0.605E-01 0.598E-01 0.671E+01
   0.935E+01 0.818E-01 -.911E+03   -.939E+01 -.820E-01 0.904E+03   0.295E-01 0.154E-03 0.671E+01
   0.205E+02 0.250E+02 0.949E+03   -.207E+02 -.251E+02 -.942E+03   0.140E+00 0.109E+00 -.686E+01
   0.263E+02 0.456E+02 0.984E+03   -.267E+02 -.460E+02 -.977E+03   0.314E+00 0.316E+00 -.680E+01
   0.564E+02 0.507E+02 -.883E+03   -.569E+02 -.507E+02 0.876E+03   0.350E+00 0.307E-01 0.666E+01
   0.238E+02 0.576E+02 -.891E+03   -.239E+02 -.580E+02 0.884E+03   0.896E-01 0.308E+00 0.669E+01
   0.468E+02 0.217E+02 0.980E+03   -.474E+02 -.217E+02 -.973E+03   0.466E+00 0.526E-01 -.697E+01
   0.497E+02 -.146E+00 0.104E+04   -.504E+02 0.149E+00 -.103E+04   0.509E+00 -.173E-02 -.702E+01
   0.110E+03 -.160E+00 -.846E+03   -.111E+03 0.160E+00 0.839E+03   0.293E+00 -.974E-04 0.659E+01
   0.128E+03 0.923E+02 -.758E+03   -.131E+03 -.922E+02 0.752E+03   0.200E+01 -.805E-02 0.646E+01
   0.468E+02 -.218E+02 0.980E+03   -.474E+02 0.218E+02 -.973E+03   0.464E+00 -.532E-01 -.697E+01
   0.262E+02 -.455E+02 0.984E+03   -.266E+02 0.460E+02 -.977E+03   0.313E+00 -.315E+00 -.680E+01
   0.562E+02 -.507E+02 -.883E+03   -.567E+02 0.507E+02 0.876E+03   0.348E+00 -.309E-01 0.666E+01
   0.128E+03 -.926E+02 -.759E+03   -.130E+03 0.926E+02 0.753E+03   0.198E+01 0.643E-02 0.646E+01
   0.204E+02 -.249E+02 0.949E+03   -.206E+02 0.250E+02 -.942E+03   0.140E+00 -.109E+00 -.686E+01
   0.895E+01 -.175E+02 0.945E+03   -.901E+01 0.176E+02 -.938E+03   0.466E-01 -.118E+00 -.687E+01
   0.178E+02 -.189E+02 -.910E+03   -.178E+02 0.190E+02 0.904E+03   0.604E-01 -.595E-01 0.671E+01
   0.237E+02 -.574E+02 -.891E+03   -.238E+02 0.578E+02 0.884E+03   0.895E-01 -.306E+00 0.669E+01
   -.639E-02 0.627E-01 0.942E+03   0.633E-02 -.631E-01 -.935E+03   0.445E-04 0.264E-03 -.687E+01
   -.898E+01 0.176E+02 0.945E+03   0.904E+01 -.178E+02 -.938E+03   -.466E-01 0.119E+00 -.687E+01
   -.111E-01 0.296E+02 -.905E+03   0.110E-01 -.298E+02 0.898E+03   0.626E-04 0.139E+00 0.670E+01
   -.936E+01 0.813E-01 -.911E+03   0.940E+01 -.815E-01 0.904E+03   -.294E-01 0.158E-03 0.671E+01
   -.134E-01 0.391E+02 0.962E+03   0.133E-01 -.396E+02 -.955E+03   0.822E-04 0.425E+00 -.691E+01
   -.263E+02 0.455E+02 0.984E+03   0.268E+02 -.460E+02 -.977E+03   -.313E+00 0.317E+00 -.680E+01
   -.633E-01 0.130E+03 -.819E+03   0.629E-01 -.132E+03 0.812E+03   0.254E-03 0.193E+01 0.684E+01
   -.238E+02 0.576E+02 -.891E+03   0.239E+02 -.580E+02 0.884E+03   -.894E-01 0.308E+00 0.669E+01
   -.418E-01 0.441E+02 0.104E+04   0.411E-01 -.444E+02 -.104E+04   0.517E-03 0.237E+00 -.453E+01
   -.497E+02 -.143E+00 0.104E+04   0.504E+02 0.146E+00 -.103E+04   -.508E+00 -.179E-02 -.702E+01
   -.224E+00 -.540E+00 -.531E+03   0.224E+00 0.562E+00 0.527E+03   0.790E-03 -.208E-01 0.314E+01
   -.128E+03 0.922E+02 -.759E+03   0.131E+03 -.921E+02 0.752E+03   -.200E+01 -.777E-02 0.646E+01
   -.384E-01 -.443E+02 0.104E+04   0.379E-01 0.446E+02 -.104E+04   0.377E-03 -.238E+00 -.455E+01
   -.262E+02 -.455E+02 0.984E+03   0.267E+02 0.459E+02 -.977E+03   -.312E+00 -.316E+00 -.680E+01
   -.543E-01 -.129E+03 -.820E+03   0.540E-01 0.132E+03 0.813E+03   0.238E-03 -.192E+01 0.684E+01
   -.128E+03 -.925E+02 -.759E+03   0.130E+03 0.925E+02 0.753E+03   -.198E+01 0.616E-02 0.646E+01
[...]
   -.102E+02 0.905E+01 0.708E+03   0.102E+02 -.906E+01 -.712E+03   -.598E-01 0.153E-01 0.351E+01
   0.618E-02 0.733E+01 0.704E+03   -.613E-02 -.734E+01 -.708E+03   -.662E-04 0.102E-01 0.352E+01
   -.185E+02 0.775E+01 -.683E+03   0.185E+02 -.775E+01 0.687E+03   -.555E-01 0.138E-02 -.375E+01
   0.157E-01 -.216E-01 -.685E+03   -.156E-01 0.217E-01 0.689E+03   -.122E-03 -.190E-04 -.374E+01
   -.139E+02 -.208E-01 0.711E+03   0.140E+02 0.209E-01 -.715E+03   -.702E-01 -.650E-04 0.351E+01
   0.102E-01 0.484E+01 0.707E+03   -.101E-01 -.484E+01 -.711E+03   -.107E-03 0.433E-02 0.351E+01
   -.185E+02 -.779E+01 -.683E+03   0.185E+02 0.779E+01 0.687E+03   -.554E-01 -.145E-02 -.375E+01
   0.110E-01 -.949E+01 -.687E+03   -.110E-01 0.949E+01 0.692E+03   -.937E-04 -.276E-02 -.373E+01
   -.101E+02 -.905E+01 0.707E+03   0.102E+02 0.907E+01 -.712E+03   -.597E-01 -.153E-01 0.351E+01
   0.100E-01 -.487E+01 0.707E+03   -.994E-02 0.487E+01 -.711E+03   -.106E-03 -.439E-02 0.351E+01
   -.969E+01 -.109E+02 -.688E+03   0.972E+01 0.109E+02 0.692E+03   -.416E-01 -.108E-01 -.372E+01
   0.564E-02 -.534E+01 -.690E+03   -.560E-02 0.535E+01 0.695E+03   -.513E-04 -.403E-02 -.371E+01
   -.541E+01 -.504E+01 0.703E+03   0.543E+01 0.505E+01 -.707E+03   -.357E-01 -.122E-01 0.352E+01
   0.595E-02 -.732E+01 0.704E+03   -.591E-02 0.733E+01 -.708E+03   -.617E-04 -.101E-01 0.352E+01
   0.560E-02 -.379E-01 0.476E+01   0.152E-11 0.136E-11 0.200E-10   -.480E-02 0.365E-01 -.575E+01

 POSITION                                       TOTAL-FORCE (eV/Angst)
      8.45440     11.94847     13.35506         0.000862      0.499770      0.176625
      8.45328     10.56231     18.09008        -0.000024     -0.000929      0.551125
      8.45334     10.56083     15.56737         0.000074      0.002153      0.173718
      8.45399      9.17859     13.35199         0.001075     -0.488351      0.178577
      0.00000      0.00000      9.00000        -0.007619     -0.000004      0.178871
      2.11389      2.11389      9.00000        -0.016934     -0.007160      0.179010
      0.00000      2.11389     11.11389        -0.008306     -0.001100     -0.133627
      2.11389      0.00000     11.11389        -0.011695     -0.000018     -0.132632
      0.00000      4.22777      9.00000        -0.013261     -0.003667      0.180184
      2.11389      6.34166      9.00000        -0.043279     -0.009290      0.183892
      0.00000      6.34166     11.11389        -0.013428     -0.000357     -0.127608
      2.11389      4.22777     11.11389        -0.026109     -0.005312     -0.126159
      0.00000      8.45554      9.00000        -0.020979     -0.001616      0.182613
      2.11389     10.56943      9.00000        -0.055206      0.000050      0.187556
      0.00000     10.56943     11.11389        -0.013641      0.000015     -0.122631
      2.11389      8.45554     11.11389        -0.035036      0.000449     -0.108430
      0.00000     12.68331      9.00000        -0.020956      0.001655      0.182596
      2.11389     14.79720      9.00000        -0.043146      0.009314      0.183868
      0.00000     14.79720     11.11389        -0.013416      0.000372     -0.127636
      2.11389     12.68331     11.11389        -0.035001     -0.000413     -0.108479
      0.00000     16.91108      9.00000        -0.013231      0.003671      0.180174
      2.11389     19.02497      9.00000        -0.016910      0.007125      0.179019
      0.00000     19.02497     11.11389        -0.008292      0.001102     -0.133644
      2.11389     16.91108     11.11389        -0.026050      0.005329     -0.126210
      4.22777      0.00000      9.00000        -0.014293     -0.000035      0.179399
      6.34166      2.11389      9.00000        -0.013674     -0.031779      0.180225
      4.22777      2.11389     11.11389        -0.016995     -0.015596     -0.127314
      6.34166      0.00000     11.11389        -0.008428     -0.000039     -0.127990
      4.22777      4.22777      9.00000        -0.039913     -0.031276      0.176946
      6.34166      6.34166      9.00000        -0.102512     -0.101417      0.141544
      4.22777      6.34166     11.11389        -0.089752     -0.007079     -0.096793
      6.34166      4.22777     11.11389        -0.026750     -0.079706     -0.109558
      4.22777      8.45554      9.00000        -0.120005     -0.013111      0.198507
      6.34166     10.56943      9.00000        -0.168402      0.000600      0.168907
      4.22777     10.56943     11.11389        -0.075410      0.000033     -0.053826
      6.34166      8.45554     11.11389        -0.662068      0.013971     -0.044311
      4.22777     12.68331      9.00000        -0.119574      0.013275      0.198399
      6.34166     14.79720      9.00000        -0.102122      0.101051      0.141797
      4.22777     14.79720     11.11389        -0.089381      0.007169     -0.097021
      6.34166     12.68331     11.11389        -0.656017     -0.013910     -0.043781
      4.22777     16.91108      9.00000        -0.039781      0.031175      0.176941
      6.34166     19.02497      9.00000        -0.013639      0.031630      0.180206
      4.22777     19.02497     11.11389        -0.016980      0.015533     -0.127357
      6.34166     16.91108     11.11389        -0.026724      0.079367     -0.109753
      8.45554      0.00000      9.00000        -0.000016     -0.000074      0.180196
     10.56943      2.11389      9.00000         0.013646     -0.031796      0.180218
      8.45554      2.11389     11.11389        -0.000019     -0.034890     -0.122525
     10.56943      0.00000     11.11389         0.008390     -0.000037     -0.127986
      8.45554      4.22777      9.00000        -0.000031     -0.108733      0.184237
     10.56943      6.34166      9.00000         0.102441     -0.101481      0.141515
      8.45554      6.34166     11.11389        -0.000095     -0.601058     -0.121412
     10.56943      4.22777     11.11389         0.026698     -0.079764     -0.109569
      8.45554      8.45554      9.00000        -0.000172     -0.044586     -0.345354
     10.56943     10.56943      9.00000         0.168317      0.000615      0.168877
      8.45554     10.56943     11.11389         0.000685      0.001265     -0.888678
     10.56943      8.45554     11.11389         0.661339      0.014116     -0.044126
      8.45554     12.68331      9.00000        -0.000124      0.044618     -0.341927
     10.56943     14.79720      9.00000         0.102072      0.101101      0.141772
      8.45554     14.79720     11.11389        -0.000086      0.596386     -0.121009
     10.56943     12.68331     11.11389         0.655494     -0.014017     -0.043754
[...]
     19.02497      6.34166     11.11389        -0.000033      0.000777      0.517834
     16.91108      6.34166      9.00000        -0.016679      0.004304     -0.569941
     19.02497      4.22777      9.00000        -0.000027      0.002860     -0.568551
     16.91108      8.45554     11.11389        -0.015528      0.000371      0.511311
     19.02497     10.56943     11.11389        -0.000042      0.000001      0.514562
     16.91108     10.56943      9.00000        -0.019632     -0.000010     -0.571763
     19.02497      8.45554      9.00000        -0.000027      0.001217     -0.570112
     16.91108     12.68331     11.11389        -0.015506     -0.000384      0.511334
     19.02497     14.79720     11.11389        -0.000027     -0.000768      0.517859
     16.91108     14.79720      9.00000        -0.016644     -0.004299     -0.569946
     19.02497     12.68331      9.00000        -0.000032     -0.001216     -0.570100
     16.91108     16.91108     11.11389        -0.011601     -0.003028      0.518903
     19.02497     19.02497     11.11389        -0.000019     -0.001137      0.522477
     16.91108     19.02497      9.00000        -0.009923     -0.003403     -0.568076
     19.02497     16.91108      9.00000        -0.000021     -0.002846     -0.568548
    total drift:                                0.000797     -0.001358     -0.983879

  FREE ENERGIE OF THE ION-ELECTRON SYSTEM (eV)
  free  energy   TOTEN  =      -679.91113648 eV

  energy  without entropy=     -679.91113648  energy(sigma->0) =     -679.91113648