 vasp.6.3.0 20Jan22 (build Apr  1 2022 16:44:48) complex
 executed on        HPECrayEX_GCC date 2022.11.18  14:07:19

 INCAR:
   SYSTEM = MgO-rocksalt
   ISMEAR = 0
   SIGMA = 0.05
   EDIFF = 1E-6
   ALGO = ALL
   ISTART = 0
   IBRION = -1
   NSW = 0
   ISYM = 2
   DIPOL = 0.5 0.5 0.5
   IDIPOL = 3
   LDIPOL = .TRUE.
   GGA = MK
   PARAM1 = 0.1234
   PARAM2 = 1.0
   LUSE_VDW = .TRUE.
   AGGAC = 0.0
   ENCUT = 520
   PREC = Accurate
   LASPH = .TRUE.
   LREAL = Auto
   ISPIN = 1
   NELM = 200
   NELMIN = 8
   NCORE = 4
   KPAR = 2
   LWAVE = .FALSE.
   LCHARG = .FALSE.

 POTCAR:    PAW_PBE Cu 22Jun2005
 POTCAR:    PAW_PBE Mg_pv 13Apr2007
 POTCAR:    PAW_PBE O 08Apr2002
|               ----> ADVICE to this user running VASP <----                  |
|     You have switched on vdW-DFT.                                           |
|     This routine was written and supplied by Jiri Klimes. We recommend      |
|     that you carefully read and cite the following publications:            |
|       J. Klimes, D.R. Bowler, A. Michelides                                 |
|          J. Phys.: Cond Matt. 22 022201 (2010)                              |
|       J. Klimes, D.R. Bowler, A. Michelides                                 |
|          Phys. Rev. B. 83, 195131 (2011)                                    |
|     and references therein.                                                 |

   TITEL  = PAW_PBE Cu 22Jun2005
   POMASS =   63.546; ZVAL   =   11.000    mass and valenz
   ENMAX  =  295.446; ENMIN  =  221.585 eV

   TITEL  = PAW_PBE Mg_pv 13Apr2007
   POMASS =   24.305; ZVAL   =    8.000    mass and valenz
   ENMAX  =  403.929; ENMIN  =  302.947 eV

   TITEL  = PAW_PBE O 08Apr2002
   POMASS =   16.000; ZVAL   =    6.000    mass and valenz
   ENMAX  =  400.000; ENMIN  =  300.000 eV

 Optimization of the real space projectors (new method)

 maximal supplied QI-value         = 16.25
 optimisation between [QCUT,QGAM] = [ 11.54, 23.24] = [ 37.28,151.24] Ry
 Optimized for a Real-space Cutoff    1.53 Angstroem

   l    n(q)    QCUT    max X(q) W(low)/X(q) W(high)/X(q)  e(spline)
   2     10    11.539     4.610    0.96E-04    0.13E-03    0.19E-06
   2     10    11.539     8.522    0.16E-03    0.21E-03    0.28E-06
   0     11    11.539    51.609    0.45E-04    0.31E-04    0.11E-06
   0     11    11.539    27.747    0.39E-04    0.29E-04    0.10E-06
   1     10    11.539    20.408    0.70E-05    0.38E-04    0.18E-06
   1     10    11.539    13.425    0.66E-05    0.34E-04    0.17E-06
 Optimization of the real space projectors (new method)

[...]

   l    n(q)    QCUT    max X(q) W(low)/X(q) W(high)/X(q)  e(spline)
   1      8    11.527     2.974    0.44E-04    0.56E-04    0.12E-06
   1      8    11.527     4.279    0.12E-03    0.12E-03    0.26E-06
   0      9    11.527    16.381    0.46E-04    0.64E-04    0.78E-07
   0      9    11.527     5.611    0.26E-04    0.43E-04    0.55E-07
   2      8    11.527     4.652    0.22E-03    0.72E-04    0.47E-07
 Optimization of the real space projectors (new method)

 maximal supplied QI-value         = 24.76
 optimisation between [QCUT,QGAM] = [ 11.64, 23.27] = [ 37.91,151.63] Ry
 Optimized for a Real-space Cutoff    1.14 Angstroem

   l    n(q)    QCUT    max X(q) W(low)/X(q) W(high)/X(q)  e(spline)
   0      8    11.635    20.381    0.10E-03    0.33E-03    0.24E-06
   0      8    11.635    15.268    0.11E-03    0.35E-03    0.26E-06
   1      7    11.635     5.964    0.24E-03    0.31E-03    0.30E-06
   1      7    11.635     5.382    0.22E-03    0.25E-03    0.26E-06
|               ----> ADVICE to this user running VASP <----                  |
|     You enforced a specific xc type in the INCAR file but a different       |
|     type was found in the POTCAR file.                                      |
|     I HOPE YOU KNOW WHAT YOU ARE DOING!                                     |

  PAW_PBE Cu 22Jun2005                  :
  PAW_PBE Mg_pv 13Apr2007               :
  PAW_PBE O 08Apr2002                   :

 POSCAR: Cu Mg  O
  positions in direct lattice
 exchange correlation table for  LEXCH =       43
   RHO(1)=    0.500       N(1)  =     2000
   RHO(2)=  100.500       N(2)  =     4000

 ion  position               nearest neighbor table
   1  0.538  0.462  0.618-   2 2.25
   2  0.462  0.538  0.618-   1 2.25
   3  0.000  0.000  0.407- 105 2.11 106 2.11 121 2.11 186 2.11 103 2.11
   4  0.100  0.100  0.407- 105 2.11 106 2.11 110 2.11 125 2.11 104 2.11
   5  0.000  0.100  0.503- 103 2.11 104 2.11 107 2.11 184 2.11 105 2.11
   6  0.100  0.000  0.503- 103 2.11 104 2.11 120 2.11 123 2.11 106 2.11
   7  0.000  0.200  0.407- 109 2.11 105 2.11 110 2.11 190 2.11 107 2.11
   8  0.100  0.300  0.407- 110 2.11 109 2.11 114 2.11 129 2.11 108 2.11
   9  0.000  0.300  0.503- 107 2.11 108 2.11 111 2.11 188 2.11 109 2.11
  10  0.100  0.200  0.503- 108 2.11 107 2.11 104 2.11 127 2.11 110 2.11
  11  0.000  0.400  0.407- 109 2.11 113 2.11 114 2.11 194 2.11 111 2.11
  12  0.100  0.500  0.407- 113 2.11 114 2.11 118 2.11 133 2.11 112 2.11
  13  0.000  0.500  0.503- 111 2.11 112 2.11 115 2.11 192 2.11 113 2.11
  14  0.100  0.400  0.503- 108 2.11 111 2.11 112 2.11 131 2.11 114 2.11
  15  0.000  0.600  0.407- 113 2.11 117 2.11 118 2.11 198 2.11 115 2.11
  16  0.100  0.700  0.407- 122 2.11 118 2.11 117 2.11 137 2.11 116 2.11
  17  0.000  0.700  0.503- 119 2.11 116 2.11 115 2.11 196 2.11 117 2.11
  18  0.100  0.600  0.503- 112 2.11 115 2.11 116 2.11 135 2.11 118 2.11
  19  0.000  0.800  0.407- 117 2.11 121 2.11 122 2.11 202 2.11 119 2.11
  20  0.100  0.900  0.407- 106 2.11 121 2.11 122 2.11 141 2.11 120 2.11
  21  0.000  0.900  0.503- 103 2.11 119 2.11 120 2.11 200 2.11 121 2.11
  22  0.100  0.800  0.503- 116 2.11 119 2.11 120 2.11 139 2.11 122 2.11
  23  0.200  0.000  0.407- 126 2.11 125 2.11 106 2.11 141 2.11 123 2.11
  24  0.300  0.100  0.407- 125 2.11 126 2.11 130 2.11 145 2.11 124 2.11
  25  0.200  0.100  0.503- 124 2.11 123 2.11 104 2.11 127 2.11 125 2.11
  26  0.300  0.000  0.503- 123 2.11 124 2.11 140 2.11 143 2.11 126 2.11
  27  0.200  0.200  0.407- 129 2.11 130 2.11 110 2.11 125 2.11 127 2.11
  28  0.300  0.300  0.407- 129 2.11 130 2.11 134 2.11 149 2.11 128 2.11
  29  0.200  0.300  0.503- 127 2.11 128 2.11 108 2.11 131 2.11 129 2.11
  30  0.300  0.200  0.503- 127 2.11 128 2.11 124 2.11 147 2.11 130 2.11
  31  0.200  0.400  0.407- 134 2.11 129 2.11 133 2.11 114 2.11 131 2.11
  32  0.300  0.500  0.407- 133 2.11 134 2.11 138 2.11 153 2.11 132 2.11
  33  0.200  0.500  0.503- 132 2.11 131 2.11 112 2.11 135 2.11 133 2.11
  34  0.300  0.400  0.503- 131 2.11 128 2.11 132 2.11 151 2.11 134 2.11
  35  0.200  0.600  0.407- 138 2.11 133 2.11 137 2.11 118 2.11 135 2.11
  36  0.300  0.700  0.407- 137 2.11 142 2.11 138 2.11 157 2.11 136 2.11
  37  0.200  0.700  0.503- 136 2.11 139 2.11 116 2.11 135 2.11 137 2.11
  38  0.300  0.600  0.503- 135 2.11 132 2.11 136 2.11 155 2.11 138 2.11
  39  0.200  0.800  0.407- 137 2.11 142 2.11 141 2.11 122 2.11 139 2.11
  40  0.300  0.900  0.407- 141 2.11 126 2.11 142 2.11 161 2.11 140 2.11
  41  0.200  0.900  0.503- 140 2.11 123 2.11 139 2.11 120 2.11 141 2.11
  42  0.300  0.800  0.503- 136 2.11 139 2.11 140 2.11 159 2.11 142 2.11
  43  0.400  0.000  0.407- 126 2.11 145 2.11 146 2.11 161 2.11 143 2.11
  44  0.500  0.100  0.407- 145 2.11 146 2.11 150 2.11 165 2.11 144 2.11
  45  0.400  0.100  0.503- 124 2.11 143 2.11 144 2.11 147 2.11 145 2.11
  46  0.500  0.000  0.503- 143 2.11 144 2.11 160 2.11 163 2.11 146 2.11
  47  0.400  0.200  0.407- 149 2.11 145 2.11 130 2.11 150 2.11 147 2.11
  48  0.500  0.300  0.407- 150 2.11 149 2.11 154 2.11 169 2.11 148 2.11
  49  0.400  0.300  0.503- 147 2.11 128 2.11 148 2.11 151 2.11 149 2.11
  50  0.500  0.200  0.503- 148 2.11 147 2.11 144 2.11 167 2.11 150 2.11
  51  0.400  0.400  0.407- 134 2.11 149 2.11 153 2.11 154 2.11 151 2.11
  52  0.500  0.500  0.407- 153 2.11 154 2.11 158 2.11 173 2.11 152 2.11
  53  0.400  0.500  0.503- 132 2.11 151 2.11 152 2.11 155 2.11 153 2.11
  54  0.500  0.400  0.503- 148 2.11 151 2.11 152 2.11 171 2.11 154 2.11
  55  0.400  0.600  0.407- 138 2.11 153 2.11 157 2.11 158 2.11 155 2.11
  56  0.500  0.700  0.407- 162 2.11 158 2.11 157 2.11 177 2.11 156 2.11
  57  0.400  0.700  0.503- 159 2.11 155 2.11 156 2.11 136 2.11 157 2.11
  58  0.500  0.600  0.503- 152 2.11 155 2.11 156 2.11 175 2.11 158 2.11
  59  0.400  0.800  0.407- 157 2.11 142 2.11 161 2.11 162 2.11 159 2.11
  60  0.500  0.900  0.407- 146 2.11 161 2.11 162 2.11 181 2.11 160 2.11
[...]
 188  0.900  0.300  0.503-  90 2.11  89 2.11   9 2.11  94 2.11  88 2.11
 189  0.800  0.300  0.407-  68 2.11  87 2.11  88 2.11  91 2.11  89 2.11
 190  0.900  0.200  0.407-  88 2.11  84 2.11  87 2.11   7 2.11  90 2.11
 191  0.800  0.400  0.503-  74 2.11  89 2.11  93 2.11  94 2.11  91 2.11
 192  0.900  0.500  0.503-  13 2.11  93 2.11  94 2.11  98 2.11  92 2.11
 193  0.800  0.500  0.407-  72 2.11  91 2.11  92 2.11  95 2.11  93 2.11
 194  0.900  0.400  0.407-  11 2.11  88 2.11  91 2.11  92 2.11  94 2.11
 195  0.800  0.600  0.503-  78 2.11  93 2.11  97 2.11  98 2.11  95 2.11
 196  0.900  0.700  0.503- 102 2.11  97 2.11  98 2.11  17 2.11  96 2.11
 197  0.800  0.700  0.407-  76 2.11  99 2.11  96 2.11  95 2.11  97 2.11
 198  0.900  0.600  0.407-  15 2.11  92 2.11  95 2.11  96 2.11  98 2.11
 199  0.800  0.800  0.503-  82 2.11  97 2.11 101 2.11 102 2.11  99 2.11
 200  0.900  0.900  0.503-  21 2.11  86 2.11 101 2.11 102 2.11 100 2.11
 201  0.800  0.900  0.407-  80 2.11  83 2.11  99 2.11 100 2.11 101 2.11
 202  0.900  0.800  0.407-  96 2.11  19 2.11  99 2.11 100 2.11 102 2.11

  LATTYP: Found a simple tetragonal cell.
 ALAT       =    21.1388521970
 C/A-ratio  =     1.0461251639

  Lattice vectors:

 A1 = (  21.1388521970,   0.0000000000,   0.0000000000)
 A2 = (   0.0000000000,  21.1388521970,   0.0000000000)
 A3 = (   0.0000000000,   0.0000000000,  22.1138852197)

Analysis of symmetry for initial positions (statically):
 Subroutine PRICEL returns:
 Original cell was already a primitive cell.

 Routine SETGRP: Setting up the symmetry group for a
 simple tetragonal supercell.

 Subroutine GETGRP returns: Found  4 space group operations
 (whereof  4 operations were pure point group operations)
 out of a pool of 16 trial point group operations.

The static configuration has the point symmetry C_2v.

Analysis of symmetry for dynamics (positions and initial velocities):
 Subroutine PRICEL returns:
 Original cell was already a primitive cell.

 Routine SETGRP: Setting up the symmetry group for a
 simple tetragonal supercell.

 Subroutine GETGRP returns: Found  4 space group operations
 (whereof  4 operations were pure point group operations)
 out of a pool of 16 trial point group operations.

The dynamic configuration has the point symmetry C_2v.

 Subroutine INISYM returns: Found  4 space group operations
 (whereof  4 operations are pure point group operations),
 and found     1 'primitive' translations

                                     Primitive cell

  volume of cell :    9881.6133

  direct lattice vectors                    reciprocal lattice vectors
    21.138852197  0.000000000  0.000000000     0.047306258  0.000000000  0.000000000
[...]
     52     -43.2143      2.00000
     53     -43.2142      2.00000
     54     -43.2129      2.00000
     55     -43.2128      2.00000
     56     -43.2127      2.00000
     57     -43.2126      2.00000
     58     -43.2119      2.00000
     59     -43.2119      2.00000
     60     -43.2116      2.00000
[...]
   1010       6.9302      0.00000
   1011       6.9345      0.00000
   1012       6.9463      0.00000
   1013       7.1309      0.00000
   1014       7.1333      0.00000
   1015       7.1540      0.00000
   1016       7.1591      0.00000
   1017       7.1885      0.00000
   1018       7.3526      0.00000
   1019       7.3973      0.00000
   1020       7.4924      0.00000
   1021       7.5802      0.00000
   1022       7.6904      0.00000
   1023       7.7489      0.00000
   1024       7.7944      0.00000

 soft charge-density along one line, spin component           1
         0         1         2         3         4         5         6         7         8         9
 total charge-density along one line

------------------------ aborting loop because EDIFF is reached ----------------------------------------

  FORCE on cell =-STRESS in cart. coord.  units (eV):
  Direction    XX          YY          ZZ          XY          YZ          ZX
  Alpha Z  1354.41543  1354.41543  1354.41543
  Ewald  480118.83707480118.83707************  -374.58146     0.00000     0.00000
  Hartree508787.77007508787.77007************  -285.83389    -0.00000    -0.00000
  E(xc)   -7783.03943 -7783.03943 -7782.76755    -0.15328    -0.00000    -0.00000
  Local  ************************************   654.56338    -0.00000    -0.00000
  n-local -8855.53875 -8855.53877 -8968.09418     1.87852     0.00000    -0.00000
  augment  3467.26351  3467.26351  3410.79323     2.23043     0.00000     0.00000
  Kinetic 22865.99026 22865.99025 23104.63662     2.52624     0.00001    -0.00000
  Fock        0.00000     0.00000     0.00000     0.00000     0.00000     0.00000
  Total    -187.45627  -187.45627    -0.05869     0.62993     0.00000     0.00000
  in kB     -30.39364   -30.39364    -0.00952     0.10214     0.00000     0.00000

 VOLUME and BASIS-vectors are now :
  energy-cutoff  :      520.00
  volume of cell :     9881.61
      direct lattice vectors                 reciprocal lattice vectors
    21.138852197  0.000000000  0.000000000     0.047306258  0.000000000  0.000000000
     0.000000000 21.138852197  0.000000000     0.000000000  0.047306258  0.000000000
     0.000000000  0.000000000 22.113885220     0.000000000  0.000000000  0.045220457

  length of vectors
    21.138852197 21.138852197 22.113885220     0.047306258  0.047306258  0.045220457

 FORCES acting on ions:
    Electron-Ion                     Ewald-Force                    Non-Local-Force
   -.251E+03 0.251E+03 -.210E+04   0.243E+03 -.243E+03 0.210E+04   0.773E+01 -.773E+01 -.953E+00
   0.251E+03 -.251E+03 -.210E+04   -.243E+03 0.243E+03 0.210E+04   -.773E+01 0.773E+01 -.953E+00
   -.489E-10 0.112E-08 0.931E+03   0.758E-10 -.173E-08 -.923E+03   0.000E+00 0.000E+00 -.725E+01
   0.392E+01 0.392E+01 0.931E+03   -.391E+01 -.391E+01 -.924E+03   -.369E-02 -.369E-02 -.725E+01
   -.213E+00 0.423E+01 -.923E+03   0.225E+00 -.424E+01 0.915E+03   -.958E-02 0.213E-02 0.723E+01
   0.423E+01 -.213E+00 -.923E+03   -.424E+01 0.225E+00 0.915E+03   0.213E-02 -.958E-02 0.723E+01
   -.284E+00 0.590E+01 0.932E+03   0.305E+00 -.591E+01 -.925E+03   -.163E-01 0.477E-02 -.725E+01
   0.791E+01 0.757E+01 0.935E+03   -.789E+01 -.758E+01 -.927E+03   -.982E-02 0.822E-02 -.726E+01
   -.536E+00 0.772E+01 -.921E+03   0.565E+00 -.773E+01 0.913E+03   -.224E-01 0.305E-02 0.722E+01
   0.705E+01 0.862E+01 -.921E+03   -.703E+01 -.862E+01 0.914E+03   -.138E-01 -.914E-03 0.722E+01
   -.253E+00 0.403E+01 0.935E+03   0.271E+00 -.403E+01 -.928E+03   -.148E-01 0.279E-02 -.726E+01
   0.120E+02 0.326E+00 0.938E+03   -.120E+02 -.343E+00 -.931E+03   0.225E-01 0.132E-01 -.726E+01
   0.150E-09 -.168E-08 -.919E+03   -.231E-09 0.260E-08 0.911E+03   0.000E+00 0.000E+00 0.722E+01
   0.151E+02 0.701E+01 -.918E+03   -.151E+02 -.703E+01 0.910E+03   -.101E-01 0.127E-01 0.722E+01
   0.253E+00 -.403E+01 0.935E+03   -.271E+00 0.403E+01 -.928E+03   0.148E-01 -.279E-02 -.726E+01
   0.872E+01 -.759E+01 0.935E+03   -.877E+01 0.760E+01 -.928E+03   0.401E-01 -.555E-02 -.726E+01
   0.536E+00 -.772E+01 -.921E+03   -.565E+00 0.773E+01 0.913E+03   0.224E-01 -.305E-02 0.722E+01
   0.163E+02 -.637E+01 -.917E+03   -.164E+02 0.636E+01 0.910E+03   0.396E-01 0.819E-02 0.722E+01
   0.284E+00 -.590E+01 0.932E+03   -.305E+00 0.591E+01 -.925E+03   0.163E-01 -.477E-02 -.725E+01
   0.422E+01 -.422E+01 0.932E+03   -.423E+01 0.423E+01 -.924E+03   0.122E-01 -.122E-01 -.725E+01
   0.213E+00 -.423E+01 -.923E+03   -.225E+00 0.424E+01 0.915E+03   0.958E-02 -.213E-02 0.723E+01
   0.801E+01 -.906E+01 -.921E+03   -.805E+01 0.907E+01 0.913E+03   0.287E-01 -.103E-01 0.723E+01
   0.590E+01 -.284E+00 0.932E+03   -.591E+01 0.305E+00 -.925E+03   0.477E-02 -.163E-01 -.725E+01
   0.757E+01 0.791E+01 0.935E+03   -.758E+01 -.789E+01 -.927E+03   0.822E-02 -.982E-02 -.726E+01
   0.862E+01 0.705E+01 -.921E+03   -.862E+01 -.703E+01 0.914E+03   -.914E-03 -.138E-01 0.722E+01
   0.772E+01 -.536E+00 -.921E+03   -.773E+01 0.565E+00 0.913E+03   0.305E-02 -.224E-01 0.722E+01
   0.101E+02 0.101E+02 0.935E+03   -.101E+02 -.101E+02 -.928E+03   -.491E-03 -.491E-03 -.726E+01
   0.200E+02 0.200E+02 0.949E+03   -.200E+02 -.200E+02 -.941E+03   0.202E-01 0.202E-01 -.729E+01
   0.226E+02 0.171E+02 -.915E+03   -.225E+02 -.171E+02 0.907E+03   -.253E-01 0.833E-02 0.721E+01
   0.171E+02 0.226E+02 -.915E+03   -.171E+02 -.225E+02 0.907E+03   0.833E-02 -.253E-01 0.721E+01
   0.216E+02 0.899E+01 0.945E+03   -.216E+02 -.903E+01 -.937E+03   0.778E-02 0.341E-01 -.727E+01
   0.367E+02 0.180E+01 0.970E+03   -.368E+02 -.193E+01 -.962E+03   0.885E-01 0.970E-01 -.727E+01
   0.419E+02 0.188E+01 -.906E+03   -.419E+02 -.194E+01 0.899E+03   0.301E-01 0.430E-01 0.721E+01
   0.596E+02 0.332E+02 -.888E+03   -.595E+02 -.333E+02 0.880E+03   -.869E-01 0.692E-01 0.716E+01
   0.226E+02 -.809E+01 0.946E+03   -.228E+02 0.807E+01 -.939E+03   0.108E+00 0.137E-01 -.727E+01
   0.209E+02 -.209E+02 0.952E+03   -.210E+02 0.210E+02 -.944E+03   0.678E-01 -.678E-01 -.722E+01
   0.251E+02 -.180E+02 -.913E+03   -.252E+02 0.180E+02 0.906E+03   0.935E-01 -.869E-02 0.723E+01
   0.681E+02 -.314E+02 -.879E+03   -.687E+02 0.313E+02 0.872E+03   0.447E+00 0.741E-01 0.724E+01
   0.107E+02 -.107E+02 0.936E+03   -.107E+02 0.107E+02 -.929E+03   0.310E-01 -.310E-01 -.725E+01
   0.759E+01 -.872E+01 0.935E+03   -.760E+01 0.877E+01 -.928E+03   0.555E-02 -.401E-01 -.726E+01
   0.906E+01 -.801E+01 -.921E+03   -.907E+01 0.805E+01 0.913E+03   0.103E-01 -.287E-01 0.723E+01
   0.180E+02 -.251E+02 -.913E+03   -.180E+02 0.252E+02 0.906E+03   0.869E-02 -.935E-01 0.723E+01
   0.403E+01 -.253E+00 0.935E+03   -.403E+01 0.271E+00 -.928E+03   0.279E-02 -.148E-01 -.726E+01
   0.326E+00 0.120E+02 0.938E+03   -.343E+00 -.120E+02 -.931E+03   0.132E-01 0.225E-01 -.726E+01
   0.701E+01 0.151E+02 -.918E+03   -.703E+01 -.151E+02 0.910E+03   0.127E-01 -.101E-01 0.722E+01
   0.149E-09 0.508E-08 -.919E+03   -.231E-09 -.785E-08 0.911E+03   0.000E+00 0.000E+00 0.722E+01
   0.899E+01 0.216E+02 0.945E+03   -.903E+01 -.216E+02 -.937E+03   0.341E-01 0.778E-02 -.727E+01
   0.180E+01 0.367E+02 0.970E+03   -.193E+01 -.368E+02 -.962E+03   0.970E-01 0.885E-01 -.727E+01
   0.332E+02 0.596E+02 -.888E+03   -.333E+02 -.595E+02 0.880E+03   0.692E-01 -.869E-01 0.716E+01
   0.188E+01 0.419E+02 -.906E+03   -.194E+01 -.419E+02 0.899E+03   0.430E-01 0.301E-01 0.721E+01
   0.276E+02 0.276E+02 0.987E+03   -.278E+02 -.278E+02 -.980E+03   0.113E+00 0.113E+00 -.742E+01
   -.121E-08 -.130E-07 0.103E+04   0.187E-08 0.201E-07 -.102E+04   0.000E+00 0.000E+00 -.705E+01
   0.121E+03 0.210E+02 -.752E+03   -.121E+03 -.218E+02 0.746E+03   0.265E+00 0.527E+00 0.634E+01
   0.210E+02 0.121E+03 -.752E+03   -.218E+02 -.121E+03 0.746E+03   0.527E+00 0.265E+00 0.634E+01
   0.267E+02 -.267E+02 0.992E+03   -.267E+02 0.267E+02 -.985E+03   -.145E-01 0.145E-01 -.668E+01
   -.180E+01 -.367E+02 0.970E+03   0.193E+01 0.368E+02 -.962E+03   -.970E-01 -.885E-01 -.727E+01
   0.314E+02 -.681E+02 -.879E+03   -.313E+02 0.687E+02 0.872E+03   -.741E-01 -.447E+00 0.724E+01
   -.210E+02 -.121E+03 -.752E+03   0.218E+02 0.121E+03 0.746E+03   -.527E+00 -.265E+00 0.634E+01
   0.809E+01 -.226E+02 0.946E+03   -.807E+01 0.228E+02 -.939E+03   -.137E-01 -.108E+00 -.727E+01
   -.326E+00 -.120E+02 0.938E+03   0.343E+00 0.120E+02 -.931E+03   -.132E-01 -.225E-01 -.726E+01
[...]
   -.124E+02 0.913E+01 0.708E+03   0.124E+02 -.915E+01 -.712E+03   -.679E-01 0.299E-01 0.362E+01
   -.455E+01 0.534E+01 0.702E+03   0.457E+01 -.535E+01 -.706E+03   -.258E-01 0.158E-01 0.362E+01
   -.281E+02 0.936E+01 -.683E+03   0.281E+02 -.934E+01 0.687E+03   -.751E-01 -.326E-01 -.367E+01
   -.132E+02 -.422E+00 -.689E+03   0.132E+02 0.437E+00 0.693E+03   -.140E-01 -.202E-01 -.367E+01
   -.187E+02 -.644E+00 0.713E+03   0.188E+02 0.683E+00 -.717E+03   -.424E-01 -.541E-01 0.360E+01
   -.841E+01 0.362E+01 0.705E+03   0.844E+01 -.361E+01 -.709E+03   -.335E-01 -.644E-02 0.361E+01
   -.257E+02 -.105E+02 -.684E+03   0.257E+02 0.106E+02 0.688E+03   0.301E-02 -.378E-01 -.369E+01
   -.810E+01 -.734E+01 -.691E+03   0.809E+01 0.735E+01 0.695E+03   0.120E-01 -.573E-02 -.366E+01
   -.116E+02 -.896E+01 0.707E+03   0.116E+02 0.897E+01 -.711E+03   0.381E-02 -.107E-01 0.360E+01
   -.791E+01 -.392E+01 0.705E+03   0.791E+01 0.393E+01 -.709E+03   -.130E-02 -.166E-01 0.361E+01
   -.102E+02 -.102E+02 -.691E+03   0.101E+02 0.101E+02 0.695E+03   0.106E-01 0.106E-01 -.367E+01
   -.361E+01 -.361E+01 -.694E+03   0.361E+01 0.361E+01 0.698E+03   0.534E-02 0.534E-02 -.365E+01
   -.515E+01 -.408E+01 0.702E+03   0.515E+01 0.408E+01 -.706E+03   -.123E-02 0.828E-02 0.361E+01
   -.408E+01 -.515E+01 0.702E+03   0.408E+01 0.515E+01 -.706E+03   0.828E-02 -.123E-02 0.361E+01
   0.148E-06 0.658E-06 0.105E+02   0.412E-12 0.838E-12 0.671E-11   0.800E-15 -.883E-16 -.109E+02

 POSITION                                       TOTAL-FORCE (eV/Angst)
     11.36317      9.77568     13.65917        -0.012989      0.012989     -0.029234
      9.77568     11.36317     13.65917         0.012989     -0.012989     -0.029234
      0.00000      0.00000      9.00000        -0.000000      0.000000      0.350375
      2.11389      2.11389      9.00000         0.001010      0.001010      0.350781
      0.00000      2.11389     11.11389         0.002592     -0.000600     -0.342425
      2.11389      0.00000     11.11389        -0.000600      0.002592     -0.342425
      0.00000      4.22777      9.00000         0.004367     -0.001354      0.350565
      2.11389      6.34166      9.00000         0.002554     -0.002203      0.351479
      0.00000      6.34166     11.11389         0.005967     -0.000854     -0.341330
      2.11389      4.22777     11.11389         0.003771      0.000364     -0.341312
      0.00000      8.45554      9.00000         0.003841     -0.000787      0.350960
      2.11389     10.56943      9.00000        -0.006111     -0.003902      0.351414
      0.00000     10.56943     11.11389        -0.000000      0.000000     -0.340521
      2.11389      8.45554     11.11389         0.002905     -0.003530     -0.339019
      0.00000     12.68331      9.00000        -0.003841      0.000787      0.350960
      2.11389     14.79720      9.00000        -0.010651      0.001720      0.350342
      0.00000     14.79720     11.11389        -0.005967      0.000854     -0.341330
      2.11389     12.68331     11.11389        -0.010168     -0.002416     -0.339882
      0.00000     16.91108      9.00000        -0.004367      0.001354      0.350565
      2.11389     19.02497      9.00000        -0.003416      0.003416      0.350064
      0.00000     19.02497     11.11389        -0.002592      0.000600     -0.342425
      2.11389     16.91108     11.11389        -0.007712      0.002996     -0.341827
      4.22777      0.00000      9.00000        -0.001354      0.004367      0.350565
      6.34166      2.11389      9.00000        -0.002203      0.002554      0.351479
      4.22777      2.11389     11.11389         0.000364      0.003771     -0.341312
      6.34166      0.00000     11.11389        -0.000854      0.005967     -0.341330
      4.22777      4.22777      9.00000         0.000312      0.000312      0.352438
      6.34166      6.34166      9.00000        -0.004510     -0.004510      0.359369
      4.22777      6.34166     11.11389         0.007355     -0.001587     -0.335856
      6.34166      4.22777     11.11389        -0.001587      0.007355     -0.335856
      4.22777      8.45554      9.00000        -0.002914     -0.009594      0.353318
      6.34166     10.56943      9.00000        -0.026270     -0.031411      0.350631
      4.22777     10.56943     11.11389        -0.008542     -0.013159     -0.331893
      6.34166      8.45554     11.11389         0.030696     -0.014089     -0.302091
      4.22777     12.68331      9.00000        -0.027476     -0.004036      0.352049
      6.34166     14.79720      9.00000        -0.022968      0.022968      0.336640
      4.22777     14.79720     11.11389        -0.025056      0.003199     -0.339964
      6.34166     12.68331     11.11389        -0.137851     -0.025933     -0.334378
      4.22777     16.91108      9.00000        -0.008950      0.008950      0.348364
      6.34166     19.02497      9.00000        -0.001720      0.010651      0.350342
      4.22777     19.02497     11.11389        -0.002996      0.007712     -0.341827
      6.34166     16.91108     11.11389        -0.003199      0.025056     -0.339964
      8.45554      0.00000      9.00000        -0.000787      0.003841      0.350960
     10.56943      2.11389      9.00000        -0.003902     -0.006111      0.351414
      8.45554      2.11389     11.11389        -0.003530      0.002905     -0.339019
     10.56943      0.00000     11.11389        -0.000000      0.000000     -0.340521
      8.45554      4.22777      9.00000        -0.009594     -0.002914      0.353318
     10.56943      6.34166      9.00000        -0.031411     -0.026270      0.350631
      8.45554      6.34166     11.11389        -0.014089      0.030696     -0.302091
     10.56943      4.22777     11.11389        -0.013159     -0.008542     -0.331893
      8.45554      8.45554      9.00000        -0.031267     -0.031267      0.382821
     10.56943     10.56943      9.00000        -0.000000      0.000000      0.230781
      8.45554     10.56943     11.11389        -0.141643     -0.239654     -0.253794
     10.56943      8.45554     11.11389        -0.239654     -0.141643     -0.253794
      8.45554     12.68331      9.00000         0.005472     -0.005472      0.208806
     10.56943     14.79720      9.00000         0.031411      0.026270      0.350631
      8.45554     14.79720     11.11389         0.025933      0.137851     -0.334378
     10.56943     12.68331     11.11389         0.239654      0.141643     -0.253794
      8.45554     16.91108      9.00000         0.004036      0.027476      0.352049
     10.56943     19.02497      9.00000         0.003902      0.006111      0.351414
[...]
     19.02497      6.34166     11.11389        -0.009580      0.001826      0.384064
     16.91108      6.34166      9.00000        -0.019135      0.008449     -0.391303
     19.02497      4.22777      9.00000        -0.007163      0.004417     -0.393363
     16.91108      8.45554     11.11389        -0.022061     -0.008707      0.381698
     19.02497     10.56943     11.11389        -0.004044     -0.005617      0.381920
     16.91108     10.56943      9.00000        -0.012998     -0.014726     -0.396560
     19.02497      8.45554      9.00000        -0.009452     -0.001690     -0.393836
     16.91108     12.68331     11.11389         0.000128     -0.010831      0.375950
     19.02497     14.79720     11.11389         0.003265     -0.001623      0.383004
     16.91108     14.79720      9.00000         0.000797     -0.003205     -0.397144
     19.02497     12.68331      9.00000        -0.000466     -0.004654     -0.395265
     16.91108     16.91108     11.11389         0.002813      0.002813      0.382144
     19.02497     19.02497     11.11389         0.001453      0.001453      0.385019
     16.91108     19.02497      9.00000        -0.000390      0.002259     -0.394496
     19.02497     16.91108      9.00000         0.002259     -0.000390     -0.394496
    total drift:                                0.000000      0.000001     -0.449169

  FREE ENERGIE OF THE ION-ELECTRON SYSTEM (eV)
  free  energy   TOTEN  =      -743.45019380 eV

  energy  without entropy=     -743.45019380  energy(sigma->0) =     -743.45019380