 vasp.6.4.1 05Apr23 (build May 06 2023 19:47:20) complex

 executed on             LinuxIFC date 2023.07.03  23:24:30

 INCAR:
   SYSTEM = MgO-rocksalt
   ISMEAR = 0
   SIGMA = 0.05
   EDIFF = 1E-6
   ALGO = ALL
   ISTART = 0
   IBRION = -1
   NSW = 0
   ISYM = 2
   DIPOL = 0.5 0.5 0.5
   IDIPOL = 3
   LDIPOL = .TRUE.
   GGA = RE
   IVDW = 11
   ENCUT = 520
   PREC = Accurate
   LASPH = .TRUE.
   LREAL = Auto
   ISPIN = 1
   NELM = 200
   NELMIN = 8
   NCORE = 16
   KPAR = 1
   LWAVE = .FALSE.
   LCHARG = .FALSE.

 POTCAR:    PAW_PBE Ag 02Apr2005
 POTCAR:    PAW_PBE Mg_pv 13Apr2007
 POTCAR:    PAW_PBE O 08Apr2002
 POTCAR:    PAW_PBE Ag 02Apr2005
   VRHFIN =Ag : s1 d10

   TITEL  = PAW_PBE Ag 02Apr2005
   POMASS =  107.868; ZVAL   =   11.000    mass and valenz
   ENMAX  =  249.844; ENMIN  =  187.383 eV

   TITEL  = PAW_PBE Mg_pv 13Apr2007
   POMASS =   24.305; ZVAL   =    8.000    mass and valenz
   ENMAX  =  403.929; ENMIN  =  302.947 eV

   TITEL  = PAW_PBE O 08Apr2002
   POMASS =   16.000; ZVAL   =    6.000    mass and valenz
   ENMAX  =  400.000; ENMIN  =  300.000 eV

 Optimization of the real space projectors (new method)

 maximal supplied QI-value         = 15.12
 optimisation between [QCUT,QGAM] = [ 11.64, 23.28] = [ 37.95,151.78] Ry
 Optimized for a Real-space Cutoff    1.45 Angstroem

   l    n(q)    QCUT    max X(q) W(low)/X(q) W(high)/X(q)  e(spline)
   2      9    11.641    53.897    0.22E-03    0.42E-04    0.28E-06
   2      9    11.641    52.416    0.23E-03    0.44E-04    0.29E-06
   0     10    11.641   122.045    0.51E-04    0.25E-04    0.16E-06
   0     10    11.641    73.629    0.49E-04    0.24E-04    0.16E-06
   1     10    11.641    15.255    0.99E-04    0.55E-04    0.11E-06
   1     10    11.641     9.562    0.81E-04    0.47E-04    0.95E-07
 Optimization of the real space projectors (new method)

[...]

   l    n(q)    QCUT    max X(q) W(low)/X(q) W(high)/X(q)  e(spline)
   1      8    11.527     2.974    0.44E-04    0.56E-04    0.12E-06
   1      8    11.527     4.279    0.12E-03    0.12E-03    0.26E-06
   0      9    11.527    16.381    0.46E-04    0.64E-04    0.78E-07
   0      9    11.527     5.611    0.26E-04    0.43E-04    0.55E-07
   2      8    11.527     4.652    0.22E-03    0.72E-04    0.47E-07
 Optimization of the real space projectors (new method)

 maximal supplied QI-value         = 24.76
 optimisation between [QCUT,QGAM] = [ 11.64, 23.27] = [ 37.91,151.63] Ry
 Optimized for a Real-space Cutoff    1.14 Angstroem

   l    n(q)    QCUT    max X(q) W(low)/X(q) W(high)/X(q)  e(spline)
   0      8    11.635    20.381    0.10E-03    0.33E-03    0.24E-06
   0      8    11.635    15.268    0.11E-03    0.35E-03    0.26E-06
   1      7    11.635     5.964    0.24E-03    0.31E-03    0.30E-06
   1      7    11.635     5.382    0.22E-03    0.25E-03    0.26E-06
|               ----> ADVICE to this user running VASP <----                  |
|     You enforced a specific xc type in the INCAR file but a different       |
|     type was found in the POTCAR file.                                      |
|     I HOPE YOU KNOW WHAT YOU ARE DOING!                                     |

  PAW_PBE Ag 02Apr2005                  :
  PAW_PBE Mg_pv 13Apr2007               :
  PAW_PBE O 08Apr2002                   :

 POSCAR: Ag Mg  O
  positions in direct lattice
 exchange correlation table for  LEXCH =       40
   RHO(1)=    0.500       N(1)  =     2000
   RHO(2)=  100.500       N(2)  =     4000

 ion  position               nearest neighbor table
   1  0.500  0.500  0.720-   2 2.55
   2  0.500  0.500  0.605- 152 2.27   1 2.55
   3  0.000  0.000  0.407- 105 2.11 106 2.11 121 2.11 186 2.11 103 2.11
   4  0.100  0.100  0.407- 105 2.11 106 2.11 110 2.11 125 2.11 104 2.11
   5  0.000  0.100  0.503- 103 2.11 104 2.11 107 2.11 184 2.11 105 2.11
   6  0.100  0.000  0.503- 103 2.11 104 2.11 120 2.11 123 2.11 106 2.11
   7  0.000  0.200  0.407- 109 2.11 105 2.11 110 2.11 190 2.11 107 2.11
   8  0.100  0.300  0.407- 110 2.11 109 2.11 114 2.11 129 2.11 108 2.11
   9  0.000  0.300  0.503- 107 2.11 108 2.11 111 2.11 188 2.11 109 2.11
  10  0.100  0.200  0.503- 108 2.11 107 2.11 104 2.11 127 2.11 110 2.11
  11  0.000  0.400  0.407- 109 2.11 113 2.11 114 2.11 194 2.11 111 2.11
  12  0.100  0.500  0.407- 113 2.11 114 2.11 118 2.11 133 2.11 112 2.11
  13  0.000  0.500  0.503- 111 2.11 112 2.11 115 2.11 192 2.11 113 2.11
  14  0.100  0.400  0.503- 108 2.11 111 2.11 112 2.11 131 2.11 114 2.11
  15  0.000  0.600  0.407- 113 2.11 117 2.11 118 2.11 198 2.11 115 2.11
  16  0.100  0.700  0.407- 122 2.11 118 2.11 117 2.11 137 2.11 116 2.11
  17  0.000  0.700  0.503- 119 2.11 116 2.11 115 2.11 196 2.11 117 2.11
  18  0.100  0.600  0.503- 112 2.11 115 2.11 116 2.11 135 2.11 118 2.11
  19  0.000  0.800  0.407- 117 2.11 121 2.11 122 2.11 202 2.11 119 2.11
  20  0.100  0.900  0.407- 106 2.11 121 2.11 122 2.11 141 2.11 120 2.11
  21  0.000  0.900  0.503- 103 2.11 119 2.11 120 2.11 200 2.11 121 2.11
  22  0.100  0.800  0.503- 116 2.11 119 2.11 120 2.11 139 2.11 122 2.11
  23  0.200  0.000  0.407- 126 2.11 125 2.11 106 2.11 141 2.11 123 2.11
  24  0.300  0.100  0.407- 125 2.11 126 2.11 130 2.11 145 2.11 124 2.11
  25  0.200  0.100  0.503- 124 2.11 123 2.11 104 2.11 127 2.11 125 2.11
  26  0.300  0.000  0.503- 123 2.11 124 2.11 140 2.11 143 2.11 126 2.11
  27  0.200  0.200  0.407- 129 2.11 130 2.11 110 2.11 125 2.11 127 2.11
  28  0.300  0.300  0.407- 129 2.11 130 2.11 134 2.11 149 2.11 128 2.11
  29  0.200  0.300  0.503- 127 2.11 128 2.11 108 2.11 131 2.11 129 2.11
  30  0.300  0.200  0.503- 127 2.11 128 2.11 124 2.11 147 2.11 130 2.11
  31  0.200  0.400  0.407- 134 2.11 129 2.11 133 2.11 114 2.11 131 2.11
  32  0.300  0.500  0.407- 133 2.11 134 2.11 138 2.11 153 2.11 132 2.11
  33  0.200  0.500  0.503- 132 2.11 131 2.11 112 2.11 135 2.11 133 2.11
  34  0.300  0.400  0.503- 131 2.11 128 2.11 132 2.11 151 2.11 134 2.11
  35  0.200  0.600  0.407- 138 2.11 133 2.11 137 2.11 118 2.11 135 2.11
  36  0.300  0.700  0.407- 137 2.11 142 2.11 138 2.11 157 2.11 136 2.11
  37  0.200  0.700  0.503- 136 2.11 139 2.11 116 2.11 135 2.11 137 2.11
  38  0.300  0.600  0.503- 135 2.11 132 2.11 136 2.11 155 2.11 138 2.11
  39  0.200  0.800  0.407- 137 2.11 142 2.11 141 2.11 122 2.11 139 2.11
  40  0.300  0.900  0.407- 141 2.11 126 2.11 142 2.11 161 2.11 140 2.11
  41  0.200  0.900  0.503- 140 2.11 123 2.11 139 2.11 120 2.11 141 2.11
  42  0.300  0.800  0.503- 136 2.11 139 2.11 140 2.11 159 2.11 142 2.11
  43  0.400  0.000  0.407- 126 2.11 145 2.11 146 2.11 161 2.11 143 2.11
  44  0.500  0.100  0.407- 145 2.11 146 2.11 150 2.11 165 2.11 144 2.11
  45  0.400  0.100  0.503- 124 2.11 143 2.11 144 2.11 147 2.11 145 2.11
  46  0.500  0.000  0.503- 143 2.11 144 2.11 160 2.11 163 2.11 146 2.11
  47  0.400  0.200  0.407- 149 2.11 145 2.11 130 2.11 150 2.11 147 2.11
  48  0.500  0.300  0.407- 150 2.11 149 2.11 154 2.11 169 2.11 148 2.11
  49  0.400  0.300  0.503- 147 2.11 128 2.11 148 2.11 151 2.11 149 2.11
  50  0.500  0.200  0.503- 148 2.11 147 2.11 144 2.11 167 2.11 150 2.11
  51  0.400  0.400  0.407- 134 2.11 149 2.11 153 2.11 154 2.11 151 2.11
  52  0.500  0.500  0.407- 153 2.11 154 2.11 158 2.11 173 2.11 152 2.11
  53  0.400  0.500  0.503- 132 2.11 151 2.11 152 2.11 155 2.11 153 2.11
  54  0.500  0.400  0.503- 148 2.11 151 2.11 152 2.11 171 2.11 154 2.11
  55  0.400  0.600  0.407- 138 2.11 153 2.11 157 2.11 158 2.11 155 2.11
  56  0.500  0.700  0.407- 162 2.11 158 2.11 157 2.11 177 2.11 156 2.11
  57  0.400  0.700  0.503- 159 2.11 155 2.11 156 2.11 136 2.11 157 2.11
  58  0.500  0.600  0.503- 152 2.11 155 2.11 156 2.11 175 2.11 158 2.11
  59  0.400  0.800  0.407- 157 2.11 142 2.11 161 2.11 162 2.11 159 2.11
  60  0.500  0.900  0.407- 146 2.11 161 2.11 162 2.11 181 2.11 160 2.11
[...]
 188  0.900  0.300  0.503-  90 2.11  89 2.11   9 2.11  94 2.11  88 2.11
 189  0.800  0.300  0.407-  68 2.11  87 2.11  88 2.11  91 2.11  89 2.11
 190  0.900  0.200  0.407-  88 2.11  84 2.11  87 2.11   7 2.11  90 2.11
 191  0.800  0.400  0.503-  74 2.11  89 2.11  93 2.11  94 2.11  91 2.11
 192  0.900  0.500  0.503-  13 2.11  93 2.11  94 2.11  98 2.11  92 2.11
 193  0.800  0.500  0.407-  72 2.11  91 2.11  92 2.11  95 2.11  93 2.11
 194  0.900  0.400  0.407-  11 2.11  88 2.11  91 2.11  92 2.11  94 2.11
 195  0.800  0.600  0.503-  78 2.11  93 2.11  97 2.11  98 2.11  95 2.11
 196  0.900  0.700  0.503- 102 2.11  97 2.11  98 2.11  17 2.11  96 2.11
 197  0.800  0.700  0.407-  76 2.11  99 2.11  96 2.11  95 2.11  97 2.11
 198  0.900  0.600  0.407-  15 2.11  92 2.11  95 2.11  96 2.11  98 2.11
 199  0.800  0.800  0.503-  82 2.11  97 2.11 101 2.11 102 2.11  99 2.11
 200  0.900  0.900  0.503-  21 2.11  86 2.11 101 2.11 102 2.11 100 2.11
 201  0.800  0.900  0.407-  80 2.11  83 2.11  99 2.11 100 2.11 101 2.11
 202  0.900  0.800  0.407-  96 2.11  19 2.11  99 2.11 100 2.11 102 2.11

  LATTYP: Found a simple tetragonal cell.
 ALAT       =    21.1388521970
 C/A-ratio  =     1.0461251639

  Lattice vectors:

 A1 = (  21.1388521970,   0.0000000000,   0.0000000000)
 A2 = (   0.0000000000,  21.1388521970,   0.0000000000)
 A3 = (   0.0000000000,   0.0000000000,  22.1138852197)

Analysis of symmetry for initial positions (statically):
 Subroutine PRICEL returns:
 Original cell was already a primitive cell.

 Routine SETGRP: Setting up the symmetry group for a
 simple tetragonal supercell.

 Subroutine GETGRP returns: Found  8 space group operations
 (whereof  8 operations were pure point group operations)
 out of a pool of 16 trial point group operations.

The static configuration has the point symmetry C_4v.

Analysis of symmetry for dynamics (positions and initial velocities):
 Subroutine PRICEL returns:
 Original cell was already a primitive cell.

 Routine SETGRP: Setting up the symmetry group for a
 simple tetragonal supercell.

 Subroutine GETGRP returns: Found  8 space group operations
 (whereof  8 operations were pure point group operations)
 out of a pool of 16 trial point group operations.

The dynamic configuration has the point symmetry C_4v.

 Subroutine INISYM returns: Found  8 space group operations
 (whereof  8 operations are pure point group operations),
 and found     1 'primitive' translations

                                     Primitive cell

  volume of cell :    9881.6133

  direct lattice vectors                    reciprocal lattice vectors
    21.138852197  0.000000000  0.000000000     0.047306258  0.000000000  0.000000000
     0.000000000 21.138852197  0.000000000     0.000000000  0.047306258  0.000000000
     0.000000000  0.000000000 22.113885220     0.000000000  0.000000000  0.045220457

  length of vectors
    21.138852197 21.138852197 22.113885220     0.047306258  0.047306258  0.045220457

  position of ions in fractional coordinates (direct lattice)
     0.500000000  0.500000000  0.720254265
     0.500000000  0.500000000  0.605068473
     0.000000000  0.000000000  0.406984115
     0.100000000  0.100000000  0.406984115
     0.000000000  0.100000000  0.502574971
     0.100000000  0.000000000  0.502574971
     0.000000000  0.200000000  0.406984115
     0.100000000  0.300000000  0.406984115
     0.000000000  0.300000000  0.502574971
[...]
    855       4.5982      0.00000
    856       4.6115      0.00000
    857       4.6311      0.00000
    858       4.6664      0.00000
    859       4.6678      0.00000
    860       4.7893      0.00000
    861       4.8063      0.00000
    862       4.8275      0.00000
    863       4.8531      0.00000
    864       4.8851      0.00000

 soft charge-density along one line, spin component           1
         0         1         2         3         4         5         6         7         8         9
 total charge-density along one line

------------------------ aborting loop because EDIFF is reached ----------------------------------------

         DFTD3 V3.0 Rev 1
 IVDW         = 11
 DF revpbe
 parameters
 VDW_S6       =    1.0000
 VDW_S8       =    1.0100
 VDW_SR       =    0.9230
 rs18     =    1.0000
 alpha6   =   14.0000
 alpha8   =   16.0000
 k1-k3    =   16.0000    1.3333   -4.0000
 VDW_RADIUS   =   50.2022 A
 VDW_CNRADIUS =   21.1671 A
 Edisp (eV)  -36.35063

 E6    (eV) :   -20.8240
 E8    (eV) :   -15.5267
 % E8        : 42.71

  FORCE on cell =-STRESS in cart. coord.  units (eV):
  Direction    XX          YY          ZZ          XY          YZ          ZX
  Alpha Z  1357.53553  1357.53553  1357.53553
  Ewald  476274.59663476274.59663************     0.00000     0.00000    -0.00000
  Hartree505004.00430505004.00430************    -0.00000    -0.00000    -0.00000
  E(xc)   -7792.25302 -7792.25302 -7840.51067    -0.00000     0.00000    -0.00000
  Local  ************************************    -0.00000     0.00000     0.00000
  n-local -8724.64482 -8724.64483 -8850.46425    -0.00000     0.00000     0.00000
  augment  3463.82792  3463.82792  3403.16074     0.00000     0.00000    -0.00000
  Kinetic 22976.05247 22976.05247 23214.95362    -0.00000    -0.00001     0.00000
  Fock        0.00000     0.00000     0.00000     0.00000     0.00000     0.00000
  vdW       -49.46452   -49.46452    -7.99162    -0.00000    -0.00000     0.00000
  Total    -152.94078  -152.94078    33.00717     0.00000     0.00000     0.00000
  in kB     -24.79739   -24.79739     5.35169     0.00000     0.00000     0.00000

 VOLUME and BASIS-vectors are now :
  energy-cutoff  :      520.00
  volume of cell :     9881.61
      direct lattice vectors                 reciprocal lattice vectors
    21.138852197  0.000000000  0.000000000     0.047306258  0.000000000  0.000000000
     0.000000000 21.138852197  0.000000000     0.000000000  0.047306258  0.000000000
     0.000000000  0.000000000 22.113885220     0.000000000  0.000000000  0.045220457

  length of vectors
    21.138852197 21.138852197 22.113885220     0.047306258  0.047306258  0.045220457

 FORCES acting on ions:
    Electron-Ion                     Ewald-Force                    Non-Local-Force
   -.256E-12 0.284E-11 -.174E+04   -.566E-13 0.511E-14 0.173E+04   -.452E-22 0.271E-23 0.835E+01
   -.764E-13 -.146E-11 -.191E+04   0.200E-13 -.120E-13 0.191E+04   -.227E-22 -.592E-22 -.460E+01
   0.157E-12 0.616E-12 0.930E+03   0.941E-13 0.746E-13 -.923E+03   0.178E-24 -.120E-22 -.753E+01
   0.361E+01 0.361E+01 0.931E+03   -.362E+01 -.362E+01 -.924E+03   0.716E-02 0.716E-02 -.753E+01
   0.149E-12 0.386E+01 -.922E+03   0.131E-12 -.386E+01 0.915E+03   -.224E-23 0.311E-02 0.749E+01
   0.386E+01 -.293E-12 -.922E+03   -.386E+01 0.515E-13 0.915E+03   0.311E-02 0.114E-22 0.749E+01
   0.147E-12 0.528E+01 0.932E+03   0.155E-10 -.529E+01 -.924E+03   0.106E-22 0.805E-02 -.754E+01
   0.706E+01 0.663E+01 0.935E+03   -.709E+01 -.665E+01 -.927E+03   0.264E-01 0.120E-01 -.754E+01
   0.127E-12 0.697E+01 -.920E+03   0.207E-11 -.698E+01 0.912E+03   0.112E-22 0.465E-02 0.748E+01
   0.664E+01 0.791E+01 -.921E+03   -.665E+01 -.792E+01 0.913E+03   0.102E-01 0.680E-02 0.748E+01
   0.149E-12 0.357E+01 0.934E+03   -.175E-10 -.357E+01 -.927E+03   0.918E-23 0.495E-02 -.754E+01
   0.999E+01 -.352E-12 0.937E+03   -.100E+02 0.123E-12 -.929E+03   0.431E-01 -.110E-22 -.755E+01
   0.130E-12 -.159E-12 -.918E+03   0.229E-12 0.266E-13 0.911E+03   -.390E-23 -.615E-24 0.748E+01
   0.134E+02 0.588E+01 -.917E+03   -.134E+02 -.588E+01 0.909E+03   0.212E-01 0.372E-02 0.748E+01
   0.145E-12 -.357E+01 0.934E+03   0.114E-11 0.357E+01 -.927E+03   -.266E-24 -.495E-02 -.754E+01
   0.706E+01 -.663E+01 0.935E+03   -.709E+01 0.665E+01 -.927E+03   0.264E-01 -.120E-01 -.754E+01
   0.139E-12 -.697E+01 -.920E+03   -.927E-12 0.698E+01 0.912E+03   -.241E-23 -.465E-02 0.748E+01
   0.134E+02 -.588E+01 -.917E+03   -.134E+02 0.588E+01 0.909E+03   0.212E-01 -.372E-02 0.748E+01
   0.158E-12 -.528E+01 0.932E+03   0.909E-12 0.529E+01 -.924E+03   -.980E-23 -.805E-02 -.754E+01
   0.361E+01 -.361E+01 0.931E+03   -.362E+01 0.362E+01 -.924E+03   0.716E-02 -.716E-02 -.753E+01
   0.152E-12 -.386E+01 -.922E+03   -.899E-12 0.386E+01 0.915E+03   -.799E-23 -.311E-02 0.749E+01
   0.664E+01 -.791E+01 -.921E+03   -.665E+01 0.792E+01 0.913E+03   0.102E-01 -.680E-02 0.748E+01
   0.528E+01 -.393E-12 0.932E+03   -.529E+01 0.293E-13 -.924E+03   0.805E-02 0.112E-22 -.754E+01
   0.663E+01 0.706E+01 0.935E+03   -.665E+01 -.709E+01 -.927E+03   0.120E-01 0.264E-01 -.754E+01
   0.791E+01 0.664E+01 -.921E+03   -.792E+01 -.665E+01 0.913E+03   0.680E-02 0.102E-01 0.748E+01
   0.697E+01 0.376E-13 -.920E+03   -.698E+01 0.528E-13 0.912E+03   0.465E-02 0.864E-23 0.748E+01
   0.890E+01 0.890E+01 0.935E+03   -.893E+01 -.893E+01 -.927E+03   0.265E-01 0.265E-01 -.754E+01
   0.167E+02 0.167E+02 0.947E+03   -.168E+02 -.168E+02 -.939E+03   0.862E-01 0.862E-01 -.756E+01
   0.200E+02 0.149E+02 -.914E+03   -.201E+02 -.149E+02 0.906E+03   0.453E-01 0.125E-01 0.747E+01
   0.149E+02 0.200E+02 -.914E+03   -.149E+02 -.201E+02 0.906E+03   0.125E-01 0.453E-01 0.747E+01
   0.181E+02 0.714E+01 0.943E+03   -.182E+02 -.716E+01 -.935E+03   0.106E+00 0.193E-01 -.756E+01
   0.294E+02 -.125E-11 0.962E+03   -.299E+02 0.426E-13 -.954E+03   0.348E+00 -.167E-23 -.766E+01
   0.341E+02 -.236E-11 -.907E+03   -.341E+02 -.853E-13 0.899E+03   0.675E-01 -.918E-24 0.746E+01
   0.498E+02 0.255E+02 -.889E+03   -.501E+02 -.255E+02 0.882E+03   0.246E+00 0.896E-02 0.743E+01
   0.181E+02 -.714E+01 0.943E+03   -.182E+02 0.716E+01 -.935E+03   0.106E+00 -.193E-01 -.756E+01
   0.167E+02 -.167E+02 0.947E+03   -.168E+02 0.168E+02 -.939E+03   0.862E-01 -.862E-01 -.756E+01
   0.200E+02 -.149E+02 -.914E+03   -.201E+02 0.149E+02 0.906E+03   0.453E-01 -.125E-01 0.747E+01
   0.498E+02 -.255E+02 -.889E+03   -.501E+02 0.255E+02 0.882E+03   0.246E+00 -.896E-02 0.743E+01
   0.890E+01 -.890E+01 0.935E+03   -.893E+01 0.893E+01 -.927E+03   0.265E-01 -.265E-01 -.754E+01
   0.663E+01 -.706E+01 0.935E+03   -.665E+01 0.709E+01 -.927E+03   0.120E-01 -.264E-01 -.754E+01
   0.791E+01 -.664E+01 -.921E+03   -.792E+01 0.665E+01 0.913E+03   0.680E-02 -.102E-01 0.748E+01
   0.149E+02 -.200E+02 -.914E+03   -.149E+02 0.201E+02 0.906E+03   0.125E-01 -.453E-01 0.747E+01
   0.357E+01 0.398E-12 0.934E+03   -.357E+01 0.857E-13 -.927E+03   0.495E-02 -.412E-23 -.754E+01
   -.233E-12 0.999E+01 0.937E+03   0.435E-11 -.100E+02 -.929E+03   0.664E-23 0.431E-01 -.755E+01
   0.588E+01 0.134E+02 -.917E+03   -.588E+01 -.134E+02 0.909E+03   0.372E-02 0.212E-01 0.748E+01
   -.259E-12 -.162E-11 -.918E+03   0.875E-13 0.546E-13 0.911E+03   0.553E-25 0.872E-23 0.748E+01
   0.714E+01 0.181E+02 0.943E+03   -.716E+01 -.182E+02 -.935E+03   0.193E-01 0.106E+00 -.756E+01
   -.238E-12 0.294E+02 0.962E+03   -.558E-11 -.299E+02 -.954E+03   -.524E-24 0.348E+00 -.766E+01
   0.255E+02 0.498E+02 -.889E+03   -.255E+02 -.501E+02 0.882E+03   0.896E-02 0.246E+00 0.743E+01
   -.236E-12 0.341E+02 -.907E+03   -.191E-10 -.341E+02 0.899E+03   0.951E-24 0.675E-01 0.746E+01
   0.222E+02 0.222E+02 0.978E+03   -.225E+02 -.225E+02 -.970E+03   0.234E+00 0.234E+00 -.752E+01
   -.263E-12 0.112E-11 0.101E+04   -.457E-13 0.941E-13 -.100E+04   0.952E-24 -.246E-24 -.541E+01
   0.104E+03 0.176E-10 -.791E+03   -.106E+03 -.200E-13 0.784E+03   0.182E+01 -.467E-23 0.713E+01
   -.243E-12 0.104E+03 -.791E+03   0.216E-10 -.106E+03 0.784E+03   -.593E-23 0.182E+01 0.713E+01
   0.222E+02 -.222E+02 0.978E+03   -.225E+02 0.225E+02 -.970E+03   0.234E+00 -.234E+00 -.752E+01
   -.240E-12 -.294E+02 0.962E+03   -.183E-10 0.299E+02 -.954E+03   0.730E-23 -.348E+00 -.766E+01
   0.255E+02 -.498E+02 -.889E+03   -.255E+02 0.501E+02 0.882E+03   0.896E-02 -.246E+00 0.743E+01
   -.244E-12 -.104E+03 -.791E+03   0.182E-10 0.106E+03 0.784E+03   -.110E-22 -.182E+01 0.713E+01
   0.714E+01 -.181E+02 0.943E+03   -.716E+01 0.182E+02 -.935E+03   0.193E-01 -.106E+00 -.756E+01
   -.254E-12 -.999E+01 0.937E+03   0.205E-10 0.100E+02 -.929E+03   -.462E-23 -.431E-01 -.755E+01
[...]
   -.100E+02 0.764E+01 0.706E+03   0.100E+02 -.767E+01 -.710E+03   -.571E-01 0.395E-01 0.343E+01
   -.375E+01 0.463E+01 0.701E+03   0.376E+01 -.464E+01 -.705E+03   -.147E-01 0.147E-01 0.344E+01
   -.220E+02 0.831E+01 -.683E+03   0.221E+02 -.832E+01 0.688E+03   -.606E-01 0.135E-01 -.357E+01
   -.112E+02 -.398E-11 -.689E+03   0.112E+02 0.104E-10 0.693E+03   -.236E-01 -.151E-22 -.354E+01
   -.153E+02 0.290E-10 0.710E+03   0.154E+02 -.166E-11 -.714E+03   -.917E-01 0.756E-23 0.341E+01
   -.684E+01 0.327E+01 0.704E+03   0.686E+01 -.328E+01 -.708E+03   -.302E-01 0.103E-01 0.343E+01
   -.220E+02 -.831E+01 -.683E+03   0.221E+02 0.832E+01 0.688E+03   -.606E-01 -.135E-01 -.357E+01
   -.745E+01 -.654E+01 -.691E+03   0.747E+01 0.655E+01 0.695E+03   -.169E-01 -.979E-02 -.352E+01
   -.100E+02 -.764E+01 0.706E+03   0.100E+02 0.767E+01 -.710E+03   -.571E-01 -.395E-01 0.343E+01
   -.684E+01 -.327E+01 0.704E+03   0.686E+01 0.328E+01 -.708E+03   -.302E-01 -.103E-01 0.343E+01
   -.922E+01 -.922E+01 -.690E+03   0.923E+01 0.923E+01 0.694E+03   -.252E-01 -.252E-01 -.353E+01
   -.341E+01 -.341E+01 -.693E+03   0.342E+01 0.342E+01 0.697E+03   -.657E-02 -.657E-02 -.351E+01
   -.463E+01 -.375E+01 0.701E+03   0.464E+01 0.376E+01 -.705E+03   -.147E-01 -.147E-01 0.344E+01
   -.375E+01 -.463E+01 0.701E+03   0.376E+01 0.464E+01 -.705E+03   -.147E-01 -.147E-01 0.344E+01
   0.131E-10 -.433E-10 -.155E+01   0.368E-11 -.909E-12 -.443E-11   -.115E-14 0.590E-16 0.891E+00

 POSITION                                       TOTAL-FORCE (eV/Angst)
     10.56943     10.56943     15.92762        -0.000000     -0.000000      0.231268
     10.56943     10.56943     13.38041        -0.000000     -0.000000      0.269417
      0.00000      0.00000      9.00000        -0.000000     -0.000000      0.232561
      2.11389      2.11389      9.00000        -0.001958     -0.001958      0.232855
      0.00000      2.11389     11.11389        -0.000000     -0.000830     -0.219195
      2.11389      0.00000     11.11389        -0.000830     -0.000000     -0.219195
      0.00000      4.22777      9.00000        -0.000000     -0.002227      0.233163
      2.11389      6.34166      9.00000        -0.006881     -0.003323      0.234468
      0.00000      6.34166     11.11389        -0.000000     -0.001224     -0.217149
      2.11389      4.22777     11.11389        -0.002538     -0.001787     -0.217510
      0.00000      8.45554      9.00000        -0.000000     -0.001377      0.234335
      2.11389     10.56943      9.00000        -0.011143     -0.000000      0.235865
      0.00000     10.56943     11.11389        -0.000000     -0.000000     -0.215641
      2.11389      8.45554     11.11389        -0.004605     -0.000898     -0.213687
      0.00000     12.68331      9.00000        -0.000000      0.001377      0.234335
      2.11389     14.79720      9.00000        -0.006881      0.003323      0.234468
      0.00000     14.79720     11.11389        -0.000000      0.001224     -0.217149
      2.11389     12.68331     11.11389        -0.004605      0.000898     -0.213687
      0.00000     16.91108      9.00000        -0.000000      0.002227      0.233163
      2.11389     19.02497      9.00000        -0.001958      0.001958      0.232855
      0.00000     19.02497     11.11389        -0.000000      0.000830     -0.219195
      2.11389     16.91108     11.11389        -0.002538      0.001787     -0.217510
      4.22777      0.00000      9.00000        -0.002227     -0.000000      0.233163
      6.34166      2.11389      9.00000        -0.003323     -0.006881      0.234468
      4.22777      2.11389     11.11389        -0.001787     -0.002538     -0.217510
      6.34166      0.00000     11.11389        -0.001224     -0.000000     -0.217149
      4.22777      4.22777      9.00000        -0.007240     -0.007240      0.234148
      6.34166      6.34166      9.00000        -0.024166     -0.024166      0.237444
      4.22777      6.34166     11.11389        -0.010288     -0.002935     -0.209858
      6.34166      4.22777     11.11389        -0.002935     -0.010288     -0.209858
      4.22777      8.45554      9.00000        -0.027218     -0.005370      0.240177
      6.34166     10.56943      9.00000        -0.083727     -0.000000      0.259687
      4.22777     10.56943     11.11389        -0.011852     -0.000000     -0.200124
      6.34166      8.45554     11.11389        -0.044657      0.007005     -0.165617
      4.22777     12.68331      9.00000        -0.027218      0.005370      0.240177
      6.34166     14.79720      9.00000        -0.024166      0.024166      0.237444
      4.22777     14.79720     11.11389        -0.010288      0.002935     -0.209858
      6.34166     12.68331     11.11389        -0.044657     -0.007005     -0.165617
      4.22777     16.91108      9.00000        -0.007240      0.007240      0.234148
      6.34166     19.02497      9.00000        -0.003323      0.006881      0.234468
      4.22777     19.02497     11.11389        -0.001787      0.002538     -0.217510
      6.34166     16.91108     11.11389        -0.002935      0.010288     -0.209858
      8.45554      0.00000      9.00000        -0.001377     -0.000000      0.234335
     10.56943      2.11389      9.00000        -0.000000     -0.011143      0.235865
      8.45554      2.11389     11.11389        -0.000898     -0.004605     -0.213687
     10.56943      0.00000     11.11389        -0.000000     -0.000000     -0.215641
      8.45554      4.22777      9.00000        -0.005370     -0.027218      0.240177
     10.56943      6.34166      9.00000        -0.000000     -0.083727      0.259687
      8.45554      6.34166     11.11389         0.007005     -0.044657     -0.165617
     10.56943      4.22777     11.11389        -0.000000     -0.011852     -0.200124
      8.45554      8.45554      9.00000        -0.071882     -0.071882      0.220914
     10.56943     10.56943      9.00000        -0.000000     -0.000000     -0.176373
      8.45554     10.56943     11.11389        -0.768106     -0.000000     -0.308852
     10.56943      8.45554     11.11389        -0.000000     -0.768106     -0.308852
      8.45554     12.68331      9.00000        -0.071882      0.071882      0.220914
     10.56943     14.79720      9.00000        -0.000000      0.083727      0.259687
      8.45554     14.79720     11.11389         0.007005      0.044657     -0.165617
     10.56943     12.68331     11.11389        -0.000000      0.768106     -0.308852
      8.45554     16.91108      9.00000        -0.005370      0.027218      0.240177
     10.56943     19.02497      9.00000        -0.000000      0.011143      0.235865
[...]
     19.02497      6.34166     11.11389        -0.004694      0.002731      0.563486
     16.91108      6.34166      9.00000        -0.015835      0.010967     -0.584980
     19.02497      4.22777      9.00000        -0.004063      0.004062     -0.582243
     16.91108      8.45554     11.11389        -0.017364      0.003969      0.550978
     19.02497     10.56943     11.11389        -0.006656     -0.000000      0.560213
     16.91108     10.56943      9.00000        -0.025725     -0.000000     -0.589680
     19.02497      8.45554      9.00000        -0.008390      0.002886     -0.584170
     16.91108     12.68331     11.11389        -0.017364     -0.003969      0.550978
     19.02497     14.79720     11.11389        -0.004694     -0.002731      0.563486
     16.91108     14.79720      9.00000        -0.015835     -0.010967     -0.584980
     19.02497     12.68331      9.00000        -0.008390     -0.002886     -0.584170
     16.91108     16.91108     11.11389        -0.006969     -0.006969      0.563028
     19.02497     19.02497     11.11389        -0.001809     -0.001809      0.567037
     16.91108     19.02497      9.00000        -0.004062     -0.004063     -0.582243
     19.02497     16.91108      9.00000        -0.004063     -0.004062     -0.582243
    total drift:                                0.000000     -0.000000     -0.654188

  FREE ENERGIE OF THE ION-ELECTRON SYSTEM (eV)
  free  energy   TOTEN  =     -1125.17858430 eV

  energy  without entropy=    -1125.17858430  energy(sigma->0) =    -1125.17858430