 vasp.6.4.0 14Feb23 (build Dec 05 2023 14:15:48) complex

 executed on             LinuxIFC date 2023.12.06  13:34:21

 INCAR:
   SYSTEM = MgO-rocksalt
   ISMEAR = 0
   SIGMA = 0.05
   EDIFF = 1E-6
   ALGO = ALL
   ISTART = 0
   IBRION = -1
   NSW = 0
   ISYM = 0
   DIPOL = 0.5 0.5 0.5
   IDIPOL = 3
   LDIPOL = .TRUE.
   METAGGA = TPSS
   ENCUT = 520
   PREC = Accurate
   LASPH = .TRUE.
   LREAL = Auto
   ISPIN = 1
   NELM = 2000
   NELMIN = 8
   NCORE = 16
   KPAR = 1
   LWAVE = .FALSE.
   LCHARG = .FALSE.

 POTCAR:    PAW_PBE Au 04Oct2007
 POTCAR:    PAW_PBE Mg_pv 13Apr2007
 POTCAR:    PAW_PBE O 08Apr2002
 POTCAR:    PAW_PBE Au 04Oct2007
   VRHFIN =Au: s1d10

   TITEL  = PAW_PBE Au 04Oct2007
   POMASS =  196.966; ZVAL   =   11.000    mass and valenz
   ENMAX  =  229.943; ENMIN  =  172.457 eV

   TITEL  = PAW_PBE Mg_pv 13Apr2007
   POMASS =   24.305; ZVAL   =    8.000    mass and valenz
   ENMAX  =  403.929; ENMIN  =  302.947 eV

   TITEL  = PAW_PBE O 08Apr2002
   POMASS =   16.000; ZVAL   =    6.000    mass and valenz
   ENMAX  =  400.000; ENMIN  =  300.000 eV

 Optimization of the real space projectors (new method)

 maximal supplied QI-value         = 15.12
 optimisation between [QCUT,QGAM] = [ 11.64, 23.28] = [ 37.95,151.78] Ry
 Optimized for a Real-space Cutoff    1.49 Angstroem

   l    n(q)    QCUT    max X(q) W(low)/X(q) W(high)/X(q)  e(spline)
   2      9    11.641    60.898    0.24E-03    0.10E-03    0.19E-06
   2      9    11.641    58.894    0.25E-03    0.10E-03    0.19E-06
   0     10    11.641   109.617    0.73E-04    0.33E-04    0.11E-06
   0     10    11.641    75.026    0.71E-04    0.32E-04    0.11E-06
   1     10    11.641    16.344    0.27E-04    0.97E-04    0.16E-06
   1     10    11.641    10.160    0.23E-04    0.77E-04    0.13E-06
 Optimization of the real space projectors (new method)

[...]

   l    n(q)    QCUT    max X(q) W(low)/X(q) W(high)/X(q)  e(spline)
   1      8    11.527     2.974    0.44E-04    0.56E-04    0.12E-06
   1      8    11.527     4.279    0.12E-03    0.12E-03    0.26E-06
   0      9    11.527    16.381    0.46E-04    0.64E-04    0.78E-07
   0      9    11.527     5.611    0.26E-04    0.43E-04    0.55E-07
   2      8    11.527     4.652    0.22E-03    0.72E-04    0.47E-07
 Optimization of the real space projectors (new method)

 maximal supplied QI-value         = 24.76
 optimisation between [QCUT,QGAM] = [ 11.64, 23.27] = [ 37.91,151.63] Ry
 Optimized for a Real-space Cutoff    1.14 Angstroem

   l    n(q)    QCUT    max X(q) W(low)/X(q) W(high)/X(q)  e(spline)
   0      8    11.635    20.381    0.10E-03    0.33E-03    0.24E-06
   0      8    11.635    15.268    0.11E-03    0.35E-03    0.26E-06
   1      7    11.635     5.964    0.24E-03    0.31E-03    0.30E-06
   1      7    11.635     5.382    0.22E-03    0.25E-03    0.26E-06
  PAW_PBE Au 04Oct2007                  :
  PAW_PBE Mg_pv 13Apr2007               :
  PAW_PBE O 08Apr2002                   :

 POSCAR: Au Mg  O
  positions in direct lattice
  velocities in cartesian coordinates

 METAGGA = TPSS                                        LMAXTAU =  6    LMIXTAU =  F

 ion  position               nearest neighbor table
   1  0.290  0.507  0.638-   2 2.69   3 2.71
   2  0.397  0.442  0.618-   1 2.69   4 2.69 153 2.70   3 2.70  55 2.83
   3  0.397  0.569  0.609- 157 2.45   2 2.70   1 2.71   4 2.71  55 2.78
   4  0.505  0.506  0.637-   2 2.69   3 2.71
   5  0.000  0.000  0.407- 107 2.11 108 2.11 123 2.11 188 2.11 105 2.11
   6  0.100  0.100  0.407- 107 2.11 108 2.11 112 2.11 127 2.11 106 2.11
   7  0.000  0.100  0.503- 105 2.11 106 2.11 109 2.11 186 2.11 107 2.11
   8  0.100  0.000  0.503- 105 2.11 106 2.11 122 2.11 125 2.11 108 2.11
   9  0.000  0.200  0.407- 111 2.11 107 2.11 112 2.11 192 2.11 109 2.11
  10  0.100  0.300  0.407- 112 2.11 111 2.11 116 2.11 131 2.11 110 2.11
  11  0.000  0.300  0.503- 109 2.11 110 2.11 113 2.11 190 2.11 111 2.11
  12  0.100  0.200  0.503- 110 2.11 109 2.11 106 2.11 129 2.11 112 2.11
  13  0.000  0.400  0.407- 111 2.11 115 2.11 116 2.11 196 2.11 113 2.11
  14  0.100  0.500  0.407- 115 2.11 116 2.11 120 2.11 135 2.11 114 2.11
  15  0.000  0.500  0.503- 113 2.11 114 2.11 117 2.11 194 2.11 115 2.11
  16  0.100  0.400  0.503- 110 2.11 113 2.11 114 2.11 133 2.11 116 2.11
  17  0.000  0.600  0.407- 115 2.11 119 2.11 120 2.11 200 2.11 117 2.11
  18  0.100  0.700  0.407- 124 2.11 120 2.11 119 2.11 139 2.11 118 2.11
  19  0.000  0.700  0.503- 121 2.11 118 2.11 117 2.11 198 2.11 119 2.11
  20  0.100  0.600  0.503- 114 2.11 117 2.11 118 2.11 137 2.11 120 2.11
  21  0.000  0.800  0.407- 119 2.11 123 2.11 124 2.11 204 2.11 121 2.11
  22  0.100  0.900  0.407- 108 2.11 123 2.11 124 2.11 143 2.11 122 2.11
  23  0.000  0.900  0.503- 105 2.11 121 2.11 122 2.11 202 2.11 123 2.11
  24  0.100  0.800  0.503- 118 2.11 121 2.11 122 2.11 141 2.11 124 2.11
  25  0.200  0.000  0.407- 128 2.11 127 2.11 108 2.11 143 2.11 125 2.11
  26  0.300  0.100  0.407- 127 2.11 128 2.11 132 2.11 147 2.11 126 2.11
  27  0.200  0.100  0.503- 126 2.11 125 2.11 106 2.11 129 2.11 127 2.11
  28  0.300  0.000  0.503- 125 2.11 126 2.11 142 2.11 145 2.11 128 2.11
  29  0.200  0.200  0.407- 131 2.11 132 2.11 112 2.11 127 2.11 129 2.11
  30  0.300  0.300  0.407- 131 2.11 132 2.11 136 2.11 151 2.11 130 2.11
  31  0.200  0.300  0.503- 129 2.11 130 2.11 110 2.11 133 2.11 131 2.11
  32  0.300  0.200  0.503- 129 2.11 130 2.11 126 2.11 149 2.11 132 2.11
  33  0.200  0.400  0.407- 136 2.11 131 2.11 135 2.11 116 2.11 133 2.11
  34  0.300  0.500  0.407- 135 2.11 136 2.11 140 2.11 155 2.11 134 2.11
  35  0.200  0.500  0.503- 134 2.11 133 2.11 114 2.11 137 2.11 135 2.11
  36  0.300  0.400  0.503- 133 2.11 130 2.11 134 2.11 153 2.11 136 2.11
  37  0.200  0.600  0.407- 140 2.11 135 2.11 139 2.11 120 2.11 137 2.11
  38  0.300  0.700  0.407- 139 2.11 144 2.11 140 2.11 159 2.11 138 2.11
  39  0.200  0.700  0.503- 138 2.11 141 2.11 118 2.11 137 2.11 139 2.11
  40  0.300  0.600  0.503- 137 2.11 134 2.11 138 2.11 157 2.11 140 2.11
  41  0.200  0.800  0.407- 139 2.11 144 2.11 143 2.11 124 2.11 141 2.11
  42  0.300  0.900  0.407- 143 2.11 128 2.11 144 2.11 163 2.11 142 2.11
  43  0.200  0.900  0.503- 142 2.11 125 2.11 141 2.11 122 2.11 143 2.11
  44  0.300  0.800  0.503- 138 2.11 141 2.11 142 2.11 161 2.11 144 2.11
  45  0.400  0.000  0.407- 128 2.11 147 2.11 148 2.11 163 2.11 145 2.11
  46  0.500  0.100  0.407- 147 2.11 148 2.11 152 2.11 167 2.11 146 2.11
  47  0.400  0.100  0.503- 126 2.11 145 2.11 146 2.11 149 2.11 147 2.11
  48  0.500  0.000  0.503- 145 2.11 146 2.11 162 2.11 165 2.11 148 2.11
  49  0.400  0.200  0.407- 151 2.11 147 2.11 132 2.11 152 2.11 149 2.11
  50  0.500  0.300  0.407- 152 2.11 151 2.11 156 2.11 171 2.11 150 2.11
  51  0.400  0.300  0.503- 149 2.11 130 2.11 150 2.11 153 2.11 151 2.11
  52  0.500  0.200  0.503- 150 2.11 149 2.11 146 2.11 169 2.11 152 2.11
  53  0.400  0.400  0.407- 136 2.11 151 2.11 155 2.11 156 2.11 153 2.11
  54  0.500  0.500  0.407- 155 2.11 156 2.11 160 2.11 175 2.11 154 2.11
  55  0.400  0.500  0.503- 134 2.11 153 2.11 154 2.11 157 2.11 155 2.11   3 2.78   2 2.83
  56  0.500  0.400  0.503- 150 2.11 153 2.11 154 2.11 173 2.11 156 2.11
  57  0.400  0.600  0.407- 140 2.11 155 2.11 159 2.11 160 2.11 157 2.11
  58  0.500  0.700  0.407- 164 2.11 160 2.11 159 2.11 179 2.11 158 2.11
  59  0.400  0.700  0.503- 161 2.11 157 2.11 158 2.11 138 2.11 159 2.11
  60  0.500  0.600  0.503- 154 2.11 157 2.11 158 2.11 177 2.11 160 2.11
[...]
 190  0.900  0.300  0.503-  92 2.11  91 2.11  11 2.11  96 2.11  90 2.11
 191  0.800  0.300  0.407-  70 2.11  89 2.11  90 2.11  93 2.11  91 2.11
 192  0.900  0.200  0.407-  90 2.11  86 2.11  89 2.11   9 2.11  92 2.11
 193  0.800  0.400  0.503-  76 2.11  91 2.11  95 2.11  96 2.11  93 2.11
 194  0.900  0.500  0.503-  15 2.11  95 2.11  96 2.11 100 2.11  94 2.11
 195  0.800  0.500  0.407-  74 2.11  93 2.11  94 2.11  97 2.11  95 2.11
 196  0.900  0.400  0.407-  13 2.11  90 2.11  93 2.11  94 2.11  96 2.11
 197  0.800  0.600  0.503-  80 2.11  95 2.11  99 2.11 100 2.11  97 2.11
 198  0.900  0.700  0.503- 104 2.11  99 2.11 100 2.11  19 2.11  98 2.11
 199  0.800  0.700  0.407-  78 2.11 101 2.11  98 2.11  97 2.11  99 2.11
 200  0.900  0.600  0.407-  17 2.11  94 2.11  97 2.11  98 2.11 100 2.11
 201  0.800  0.800  0.503-  84 2.11  99 2.11 103 2.11 104 2.11 101 2.11
 202  0.900  0.900  0.503-  23 2.11  88 2.11 103 2.11 104 2.11 102 2.11
 203  0.800  0.900  0.407-  82 2.11  85 2.11 101 2.11 102 2.11 103 2.11
 204  0.900  0.800  0.407-  98 2.11  21 2.11 101 2.11 102 2.11 104 2.11

IMPORTANT INFORMATION: All symmetrisations will be switched off!
NOSYMM: (Re-)initialisation of all symmetry stuff for point group C_1.

                                     Primitive cell

  volume of cell :    9881.6133

  direct lattice vectors                    reciprocal lattice vectors
    21.138852197  0.000000000  0.000000000     0.047306258  0.000000000  0.000000000
     0.000000000 21.138852197  0.000000000     0.000000000  0.047306258  0.000000000
     0.000000000  0.000000000 22.113885220     0.000000000  0.000000000  0.045220457

  length of vectors
    21.138852197 21.138852197 22.113885220     0.047306258  0.047306258  0.045220457

  position of ions in fractional coordinates (direct lattice)
     0.289582037  0.506611861  0.637734502
     0.396872600  0.441829059  0.617838819
     0.397097437  0.569428494  0.609235494
     0.504915500  0.505823463  0.636583568
     0.000000000  0.000000000  0.406984115
     0.100000000  0.100000000  0.406984115
     0.000000000  0.100000000  0.502574971
     0.100000000  0.000000000  0.502574971
     0.000000000  0.200000000  0.406984115
     0.100000000  0.300000000  0.406984115
     0.000000000  0.300000000  0.502574971
     0.100000000  0.200000000  0.502574971
     0.000000000  0.400000000  0.406984115
     0.100000000  0.500000000  0.406984115
     0.000000000  0.500000000  0.502574971
     0.100000000  0.400000000  0.502574971
     0.000000000  0.600000000  0.406984115
     0.100000000  0.700000000  0.406984115
     0.000000000  0.700000000  0.502574971
     0.100000000  0.600000000  0.502574971
     0.000000000  0.800000000  0.406984115
     0.100000000  0.900000000  0.406984115
     0.000000000  0.900000000  0.502574971
     0.100000000  0.800000000  0.502574971
     0.200000000  0.000000000  0.406984115
     0.300000000  0.100000000  0.406984115
     0.200000000  0.100000000  0.502574971
     0.300000000  0.000000000  0.502574971
     0.200000000  0.200000000  0.406984115
     0.300000000  0.300000000  0.406984115
     0.200000000  0.300000000  0.502574971
     0.300000000  0.200000000  0.502574971
     0.200000000  0.400000000  0.406984115
     0.300000000  0.500000000  0.406984115
     0.200000000  0.500000000  0.502574971
     0.300000000  0.400000000  0.502574971
     0.200000000  0.600000000  0.406984115
     0.300000000  0.700000000  0.406984115
     0.200000000  0.700000000  0.502574971
     0.300000000  0.600000000  0.502574971
     0.200000000  0.800000000  0.406984115
     0.300000000  0.900000000  0.406984115
     0.200000000  0.900000000  0.502574971
     0.300000000  0.800000000  0.502574971
     0.400000000  0.000000000  0.406984115
[...]
     52     -43.3236      2.00000
     53     -43.3219      2.00000
     54     -43.3203      2.00000
     55     -43.3179      2.00000
     56     -43.3168      2.00000
     57     -43.3152      2.00000
     58     -43.3135      2.00000
     59     -43.3133      2.00000
     60     -43.3108      2.00000
[...]
    882       5.8771      0.00000
    883       5.9335      0.00000
    884       5.9580      0.00000
    885       6.0039      0.00000
    886       6.0301      0.00000
    887       6.0394      0.00000
    888       6.1050      0.00000
    889       6.1520      0.00000
    890       6.2120      0.00000
    891       6.2331      0.00000
    892       6.2911      0.00000
    893       6.3397      0.00000
    894       6.3937      0.00000
    895       6.5225      0.00000
    896       6.5697      0.00000

 soft charge-density along one line, spin component           1
         0         1         2         3         4         5         6         7         8         9
 total charge-density along one line

------------------------ aborting loop because EDIFF is reached ----------------------------------------

  FORCE on cell =-STRESS in cart. coord.  units (eV):
  Direction    XX          YY          ZZ          XY          YZ          ZX
  Alpha Z  1417.83424  1417.83424  1417.83424
  Ewald  484651.50164483712.19756************    -3.57601   -87.59049   -13.50229
  Hartree513874.42082513089.13111************    -3.39849   -60.81241    -9.40788
  E(xc)   -8277.00859 -8277.72200 -8303.34378    -0.00155    -0.08060    -0.01331
  Local  ************************************     7.10684   146.34233    22.48745
  n-local -8943.13772 -8943.33224 -9060.47725    -0.08903     0.95445     0.32420
  augment  4042.34536  4042.83274  3992.24505    -0.00692     0.28665    -0.00435
  Kinetic 23327.42061 23328.38853 23584.42635    -0.04245     0.94001     0.13342
  Fock        0.00000     0.00000     0.00000     0.00000     0.00000     0.00000
  Total    -165.64404  -165.74949     8.58790    -0.00761     0.03994     0.01724
  in kB     -26.85706   -26.87416     1.39242    -0.00123     0.00648     0.00280

 VOLUME and BASIS-vectors are now :
  energy-cutoff  :      520.00
  volume of cell :     9881.61
      direct lattice vectors                 reciprocal lattice vectors
    21.138852197  0.000000000  0.000000000     0.047306258  0.000000000  0.000000000
     0.000000000 21.138852197  0.000000000     0.000000000  0.047306258  0.000000000
     0.000000000  0.000000000 22.113885220     0.000000000  0.000000000  0.045220457

  length of vectors
    21.138852197 21.138852197 22.113885220     0.047306258  0.047306258  0.045220457

 FORCES acting on ions:
    Electron-Ion                     Ewald-Force                    Non-Local-Force
   0.484E+03 -.684E+01 -.207E+04   -.480E+03 0.671E+01 0.207E+04   -.429E+01 0.146E+00 0.695E+00
   0.183E+01 0.484E+03 -.204E+04   -.183E+01 -.480E+03 0.204E+04   0.224E-02 -.401E+01 -.714E+00
   -.140E+01 -.471E+03 -.203E+04   0.131E+01 0.468E+03 0.203E+04   0.106E+00 0.322E+01 -.958E+00
   -.484E+03 -.422E+01 -.207E+04   0.480E+03 0.406E+01 0.207E+04   0.431E+01 0.169E+00 0.584E+00
   0.664E+01 -.546E+00 0.937E+03   -.667E+01 0.554E+00 -.929E+03   0.219E-01 -.591E-02 -.794E+01
   0.127E+02 0.109E+02 0.941E+03   -.127E+02 -.109E+02 -.933E+03   0.440E-01 -.360E-02 -.794E+01
   0.954E+01 0.100E+02 -.918E+03   -.956E+01 -.100E+02 0.910E+03   0.214E-01 -.151E-01 0.787E+01
   0.135E+02 -.967E+00 -.917E+03   -.136E+02 0.979E+00 0.909E+03   0.359E-01 -.936E-02 0.787E+01
   0.107E+02 0.143E+02 0.941E+03   -.108E+02 -.143E+02 -.933E+03   0.299E-01 -.132E-01 -.794E+01
   0.288E+02 0.247E+02 0.957E+03   -.289E+02 -.247E+02 -.948E+03   0.101E+00 -.835E-02 -.797E+01
   0.227E+02 0.217E+02 -.911E+03   -.227E+02 -.216E+02 0.903E+03   0.147E-01 -.280E-01 0.786E+01
   0.259E+02 0.288E+02 -.911E+03   -.260E+02 -.288E+02 0.902E+03   0.623E-01 -.301E-01 0.786E+01
   0.211E+02 0.113E+02 0.952E+03   -.212E+02 -.112E+02 -.943E+03   0.366E-01 -.766E-02 -.796E+01
   0.468E+02 0.135E+01 0.975E+03   -.470E+02 -.137E+01 -.966E+03   0.133E+00 0.127E-01 -.803E+01
   0.376E+02 0.108E+01 -.903E+03   -.376E+02 -.108E+01 0.895E+03   -.294E-01 0.570E-02 0.784E+01
   0.704E+02 0.318E+02 -.885E+03   -.704E+02 -.317E+02 0.877E+03   0.130E-01 -.523E-01 0.781E+01
   0.217E+02 -.102E+02 0.952E+03   -.218E+02 0.101E+02 -.944E+03   0.453E-01 0.177E-01 -.796E+01
   0.305E+02 -.247E+02 0.958E+03   -.306E+02 0.246E+02 -.950E+03   0.136E+00 0.129E-01 -.798E+01
   0.240E+02 -.215E+02 -.910E+03   -.240E+02 0.215E+02 0.902E+03   0.234E-01 0.313E-01 0.786E+01
   0.738E+02 -.293E+02 -.883E+03   -.738E+02 0.292E+02 0.875E+03   0.281E-01 0.673E-01 0.781E+01
   0.113E+02 -.148E+02 0.942E+03   -.114E+02 0.148E+02 -.934E+03   0.395E-01 0.912E-02 -.795E+01
   0.132E+02 -.123E+02 0.942E+03   -.133E+02 0.123E+02 -.933E+03   0.535E-01 -.135E-01 -.794E+01
   0.995E+01 -.113E+02 -.918E+03   -.999E+01 0.112E+02 0.910E+03   0.263E-01 0.615E-02 0.787E+01
   0.278E+02 -.304E+02 -.910E+03   -.279E+02 0.304E+02 0.901E+03   0.853E-01 0.244E-01 0.786E+01
   0.113E+02 -.104E+01 0.942E+03   -.114E+02 0.106E+01 -.934E+03   0.425E-01 -.157E-01 -.794E+01
   0.857E+01 0.192E+02 0.949E+03   -.862E+01 -.193E+02 -.940E+03   0.355E-01 0.539E-01 -.795E+01
   0.175E+02 0.214E+02 -.913E+03   -.175E+02 -.214E+02 0.904E+03   0.467E-01 0.912E-02 0.786E+01
   0.901E+01 -.181E+01 -.913E+03   -.904E+01 0.184E+01 0.905E+03   0.270E-01 -.206E-01 0.787E+01
   0.207E+02 0.301E+02 0.955E+03   -.209E+02 -.302E+02 -.947E+03   0.972E-01 0.386E-01 -.795E+01
   0.250E+02 0.556E+02 0.995E+03   -.253E+02 -.558E+02 -.986E+03   0.219E+00 0.186E+00 -.793E+01
   0.598E+02 0.698E+02 -.878E+03   -.600E+02 -.697E+02 0.870E+03   0.219E+00 -.882E-01 0.781E+01
   0.219E+02 0.653E+02 -.893E+03   -.219E+02 -.655E+02 0.885E+03   0.669E-01 0.140E+00 0.785E+01
   0.519E+02 0.322E+02 0.100E+04   -.524E+02 -.323E+02 -.992E+03   0.324E+00 0.303E-01 -.810E+01
   0.490E+02 0.440E+01 0.107E+04   -.496E+02 -.452E+01 -.106E+04   0.429E+00 0.943E-01 -.819E+01
   0.150E+03 0.678E+01 -.785E+03   -.150E+03 -.679E+01 0.778E+03   0.162E+00 0.517E-02 0.716E+01
   0.109E+03 0.136E+03 -.727E+03   -.111E+03 -.136E+03 0.720E+03   0.118E+01 -.928E-01 0.712E+01
   0.544E+02 -.294E+02 0.100E+04   -.549E+02 0.294E+02 -.995E+03   0.415E+00 0.122E-01 -.812E+01
   0.273E+02 -.571E+02 0.100E+04   -.277E+02 0.574E+02 -.993E+03   0.292E+00 -.224E+00 -.790E+01
   0.656E+02 -.726E+02 -.873E+03   -.660E+02 0.725E+02 0.865E+03   0.313E+00 0.104E+00 0.780E+01
   0.123E+03 -.131E+03 -.703E+03   -.126E+03 0.131E+03 0.697E+03   0.176E+01 0.223E+00 0.679E+01
   0.223E+02 -.319E+02 0.957E+03   -.224E+02 0.320E+02 -.949E+03   0.129E+00 -.657E-01 -.795E+01
   0.904E+01 -.220E+02 0.950E+03   -.910E+01 0.221E+02 -.942E+03   0.438E-01 -.105E+00 -.795E+01
   0.185E+02 -.244E+02 -.912E+03   -.186E+02 0.244E+02 0.904E+03   0.568E-01 -.409E-01 0.786E+01
   0.243E+02 -.713E+02 -.890E+03   -.244E+02 0.716E+02 0.882E+03   0.863E-01 -.228E+00 0.785E+01
   -.227E+00 -.142E+01 0.946E+03   0.225E+00 0.145E+01 -.938E+03   0.104E-02 -.251E-01 -.795E+01
   -.897E+01 0.191E+02 0.949E+03   0.902E+01 -.191E+02 -.940E+03   -.338E-01 0.538E-01 -.795E+01
   -.362E+00 0.311E+02 -.908E+03   0.360E+00 -.312E+02 0.900E+03   0.111E-02 0.619E-01 0.786E+01
   -.945E+01 -.177E+01 -.913E+03   0.948E+01 0.180E+01 0.905E+03   -.253E-01 -.211E-01 0.787E+01
   -.437E+00 0.439E+02 0.967E+03   0.435E+00 -.443E+02 -.959E+03   0.122E-02 0.262E+00 -.798E+01
   -.260E+02 0.548E+02 0.994E+03   0.262E+02 -.551E+02 -.986E+03   -.214E+00 0.197E+00 -.794E+01
   -.181E+01 0.139E+03 -.825E+03   0.180E+01 -.141E+03 0.817E+03   0.165E-02 0.110E+01 0.791E+01
   -.227E+02 0.644E+02 -.893E+03   0.228E+02 -.645E+02 0.885E+03   -.641E-01 0.140E+00 0.785E+01
   -.131E+01 0.563E+02 0.106E+04   0.129E+01 -.566E+02 -.105E+04   0.157E-01 0.260E+00 -.653E+01
   -.507E+02 0.423E+01 0.107E+04   0.513E+02 -.436E+01 -.106E+04   -.421E+00 0.946E-01 -.815E+01
   -.602E+01 0.231E+02 -.504E+03   0.598E+01 -.240E+02 0.499E+03   0.500E-01 0.647E+00 0.466E+01
   -.111E+03 0.133E+03 -.734E+03   0.112E+03 -.133E+03 0.726E+03   -.117E+01 -.593E-01 0.717E+01
   -.148E+01 -.517E+02 0.107E+04   0.146E+01 0.518E+02 -.106E+04   0.183E-01 -.131E+00 -.578E+01
   -.284E+02 -.563E+02 0.100E+04   0.288E+02 0.566E+02 -.991E+03   -.285E+00 -.235E+00 -.790E+01
   -.232E+01 -.154E+03 -.810E+03   0.231E+01 0.156E+03 0.801E+03   0.725E-02 -.164E+01 0.791E+01
   -.125E+03 -.128E+03 -.712E+03   0.127E+03 0.128E+03 0.705E+03   -.175E+01 0.194E+00 0.691E+01
[...]
   -.112E+02 0.118E+02 0.711E+03   0.113E+02 -.118E+02 -.715E+03   -.335E-01 -.119E-01 0.348E+01
   0.224E+00 0.909E+01 0.706E+03   -.223E+00 -.908E+01 -.710E+03   -.197E-02 -.138E-01 0.349E+01
   -.229E+02 0.115E+02 -.681E+03   0.229E+02 -.115E+02 0.685E+03   -.112E-01 -.217E-01 -.364E+01
   0.721E+00 0.567E+00 -.684E+03   -.717E+00 -.571E+00 0.688E+03   -.560E-02 0.574E-02 -.363E+01
   -.169E+02 0.543E+00 0.716E+03   0.169E+02 -.550E+00 -.720E+03   -.307E-01 0.875E-02 0.346E+01
   0.422E+00 0.675E+01 0.711E+03   -.419E+00 -.674E+01 -.715E+03   -.423E-02 -.764E-02 0.348E+01
   -.237E+02 -.105E+02 -.681E+03   0.237E+02 0.105E+02 0.685E+03   -.174E-01 0.338E-01 -.364E+01
   0.498E+00 -.125E+02 -.687E+03   -.495E+00 0.125E+02 0.691E+03   -.410E-02 0.268E-01 -.361E+01
   -.118E+02 -.117E+02 0.711E+03   0.118E+02 0.117E+02 -.715E+03   -.435E-01 0.154E-01 0.348E+01
   0.443E+00 -.609E+01 0.711E+03   -.440E+00 0.608E+01 -.715E+03   -.465E-02 0.174E-01 0.348E+01
   -.108E+02 -.142E+02 -.688E+03   0.109E+02 0.142E+02 0.692E+03   -.322E-01 0.147E-01 -.361E+01
   0.221E+00 -.709E+01 -.691E+03   -.220E+00 0.708E+01 0.695E+03   -.177E-02 0.457E-02 -.360E+01
   -.562E+01 -.656E+01 0.705E+03   0.564E+01 0.656E+01 -.709E+03   -.316E-01 -.426E-02 0.349E+01
   0.247E+00 -.939E+01 0.706E+03   -.245E+00 0.939E+01 -.710E+03   -.245E-02 0.974E-02 0.349E+01
   0.190E-01 0.793E+00 0.166E+02   0.431E-11 -.205E-11 -.739E-11   -.177E-01 -.791E+00 -.173E+02

 POSITION                                       TOTAL-FORCE (eV/Angst)
      6.12143     10.70919     14.10279        -0.011774      0.007249      0.032610
      8.38943      9.33976     13.66282         0.001036      0.036609      0.033565
      8.39418     12.03706     13.47256         0.003079     -0.038984      0.040011
     10.67333     10.69253     14.07734         0.011155      0.006466      0.031760
      0.00000      0.00000      9.00000        -0.006051      0.001642      0.409823
      2.11389      2.11389      9.00000        -0.012219      0.000803      0.410215
      0.00000      2.11389     11.11389        -0.005783      0.004110     -0.387244
      2.11389      0.00000     11.11389        -0.010032      0.002545     -0.386593
      0.00000      4.22777      9.00000        -0.007887      0.003674      0.411836
      2.11389      6.34166      9.00000        -0.026166      0.002633      0.419291
      0.00000      6.34166     11.11389        -0.003254      0.008085     -0.381397
      2.11389      4.22777     11.11389        -0.016271      0.008226     -0.381379
      0.00000      8.45554      9.00000        -0.009419      0.002515      0.416934
      2.11389     10.56943      9.00000        -0.035438     -0.003687      0.433389
      0.00000     10.56943     11.11389         0.008736     -0.001625     -0.374233
      2.11389      8.45554     11.11389         0.002674      0.018730     -0.351160
      0.00000     12.68331      9.00000        -0.011690     -0.005361      0.417185
      2.11389     14.79720      9.00000        -0.035132     -0.003820      0.420364
      0.00000     14.79720     11.11389        -0.005413     -0.009024     -0.380697
      2.11389     12.68331     11.11389        -0.001498     -0.023248     -0.348422
      0.00000     16.91108      9.00000        -0.010409     -0.002520      0.411970
      2.11389     19.02497      9.00000        -0.014844      0.003939      0.410044
      0.00000     19.02497     11.11389        -0.007051     -0.001607     -0.386940
      2.11389     16.91108     11.11389        -0.022185     -0.006564     -0.380042
      4.22777      0.00000      9.00000        -0.012111      0.004239      0.410027
      6.34166      2.11389      9.00000        -0.010409     -0.014162      0.411014
      4.22777      2.11389     11.11389        -0.013249     -0.002149     -0.383639
      6.34166      0.00000     11.11389        -0.007799      0.005426     -0.384268
      4.22777      4.22777      9.00000        -0.027556     -0.011576      0.411183
      6.34166      6.34166      9.00000        -0.070961     -0.059107      0.395430
      4.22777      6.34166     11.11389        -0.053759      0.028136     -0.347479
      6.34166      4.22777     11.11389        -0.020555     -0.036944     -0.373049
      4.22777      8.45554      9.00000        -0.082656     -0.006654      0.444951
      6.34166     10.56943      9.00000        -0.139984     -0.029895      0.397636
      4.22777     10.56943     11.11389        -0.021381      0.000375     -0.116220
      6.34166      8.45554     11.11389        -0.387223      0.065196     -0.106748
      4.22777     12.68331      9.00000        -0.104491     -0.005592      0.447532
      6.34166     14.79720      9.00000        -0.094821      0.073859      0.380444
      4.22777     14.79720     11.11389        -0.075894     -0.033616     -0.336654
      6.34166     12.68331     11.11389        -0.604385     -0.087367     -0.067151
      4.22777     16.91108      9.00000        -0.036768      0.019508      0.410115
      6.34166     19.02497      9.00000        -0.012811      0.027823      0.411152
      4.22777     19.02497     11.11389        -0.016062      0.010580     -0.382605
      6.34166     16.91108     11.11389        -0.026070      0.060023     -0.367693
      8.45554      0.00000      9.00000        -0.000299      0.006658      0.410456
     10.56943      2.11389      9.00000         0.009917     -0.014168      0.410956
      8.45554      2.11389     11.11389        -0.000304     -0.015237     -0.382060
     10.56943      0.00000     11.11389         0.007277      0.005580     -0.384317
      8.45554      4.22777      9.00000        -0.000343     -0.065922      0.416872
     10.56943      6.34166      9.00000         0.069610     -0.062191      0.396854
      8.45554      6.34166     11.11389        -0.000653     -0.337182     -0.367784
     10.56943      4.22777     11.11389         0.019774     -0.036541     -0.373210
      8.45554      8.45554      9.00000        -0.005430     -0.052161      0.074610
     10.56943     10.56943      9.00000         0.138126     -0.029971      0.390773
      8.45554     10.56943     11.11389         0.011775     -0.279369     -0.381255
     10.56943      8.45554     11.11389         0.371169      0.058950     -0.099451
      8.45554     12.68331      9.00000        -0.006372      0.020736     -0.089086
     10.56943     14.79720      9.00000         0.092986      0.077216      0.381100
      8.45554     14.79720     11.11389        -0.002533      0.508256     -0.373799
     10.56943     12.68331     11.11389         0.576338     -0.084418     -0.064848
[...]
     19.02497      6.34166     11.11389        -0.000975     -0.006638      0.496545
     16.91108      6.34166      9.00000        -0.009306     -0.003378     -0.527963
     19.02497      4.22777      9.00000        -0.000550     -0.003912     -0.524990
     16.91108      8.45554     11.11389        -0.003282     -0.006044      0.488849
     19.02497     10.56943     11.11389        -0.001561      0.001546      0.492811
     16.91108     10.56943      9.00000        -0.008644      0.002383     -0.533386
     19.02497      8.45554      9.00000        -0.001187     -0.002238     -0.528455
     16.91108     12.68331     11.11389        -0.005041      0.009337      0.488274
     19.02497     14.79720     11.11389        -0.001136      0.007482      0.496077
     16.91108     14.79720      9.00000        -0.012076      0.004284     -0.528096
     19.02497     12.68331      9.00000        -0.001309      0.004891     -0.528527
     16.91108     16.91108     11.11389        -0.008874      0.004120      0.497209
     19.02497     19.02497     11.11389        -0.000515      0.001311      0.500438
     16.91108     19.02497      9.00000        -0.008711     -0.001134     -0.524059
     19.02497     16.91108      9.00000        -0.000672      0.002742     -0.525035
    total drift:                                0.001243      0.002237     -0.699767

  FREE ENERGIE OF THE ION-ELECTRON SYSTEM (eV)
  free  energy   TOTEN  =     -1766.24049196 eV

  energy  without entropy=    -1766.24049196  energy(sigma->0) =    -1766.24049196