 vasp.6.3.0 20Jan22 (build Apr  1 2022 16:44:48) complex
 executed on        HPECrayEX_GCC date 2022.10.13  17:28:59

 INCAR:
   SYSTEM = MgO-rocksalt
   ISMEAR = 0
   SIGMA = 0.05
   EDIFF = 1E-6
   ALGO = ALL
   ISTART = 0
   IBRION = -1
   NSW = 0
   ISYM = 2
   DIPOL = 0.5 0.5 0.5
   IDIPOL = 3
   LDIPOL = .TRUE.
   GGA = MK
   LUSE_VDW = .TRUE.
   PARAM1 = 0.1234
   PARAM2 = 0.711357
   ZAB_VDW = -1.8867
   AGGAC = 0.0
   ENCUT = 520
   PREC = Accurate
   LASPH = .TRUE.
   LREAL = Auto
   ISPIN = 1
   NELM = 200
   NELMIN = 8
   NCORE = 4
   KPAR = 2
   LWAVE = .FALSE.
   LCHARG = .FALSE.

 POTCAR:    PAW_PBE Au 04Oct2007
 POTCAR:    PAW_PBE Mg_pv 13Apr2007
 POTCAR:    PAW_PBE O 08Apr2002
|               ----> ADVICE to this user running VASP <----                  |
|     You have switched on vdW-DFT.                                           |
|     This routine was written and supplied by Jiri Klimes. We recommend      |
|     that you carefully read and cite the following publications:            |
|       J. Klimes, D.R. Bowler, A. Michelides                                 |
|          J. Phys.: Cond Matt. 22 022201 (2010)                              |
|       J. Klimes, D.R. Bowler, A. Michelides                                 |
|          Phys. Rev. B. 83, 195131 (2011)                                    |
|     and references therein.                                                 |

   TITEL  = PAW_PBE Au 04Oct2007
   POMASS =  196.966; ZVAL   =   11.000    mass and valenz
   ENMAX  =  229.943; ENMIN  =  172.457 eV

   TITEL  = PAW_PBE Mg_pv 13Apr2007
   POMASS =   24.305; ZVAL   =    8.000    mass and valenz
   ENMAX  =  403.929; ENMIN  =  302.947 eV

   TITEL  = PAW_PBE O 08Apr2002
   POMASS =   16.000; ZVAL   =    6.000    mass and valenz
   ENMAX  =  400.000; ENMIN  =  300.000 eV

 Optimization of the real space projectors (new method)

 maximal supplied QI-value         = 15.12
 optimisation between [QCUT,QGAM] = [ 11.64, 23.28] = [ 37.95,151.78] Ry
 Optimized for a Real-space Cutoff    1.49 Angstroem

   l    n(q)    QCUT    max X(q) W(low)/X(q) W(high)/X(q)  e(spline)
   2      9    11.641    60.898    0.24E-03    0.10E-03    0.19E-06
   2      9    11.641    58.894    0.25E-03    0.10E-03    0.19E-06
   0     10    11.641   109.617    0.73E-04    0.33E-04    0.11E-06
   0     10    11.641    75.026    0.71E-04    0.32E-04    0.11E-06
   1     10    11.641    16.344    0.27E-04    0.97E-04    0.16E-06
   1     10    11.641    10.160    0.23E-04    0.77E-04    0.13E-06
 Optimization of the real space projectors (new method)

[...]

   l    n(q)    QCUT    max X(q) W(low)/X(q) W(high)/X(q)  e(spline)
   1      8    11.527     2.974    0.44E-04    0.56E-04    0.12E-06
   1      8    11.527     4.279    0.12E-03    0.12E-03    0.26E-06
   0      9    11.527    16.381    0.46E-04    0.64E-04    0.78E-07
   0      9    11.527     5.611    0.26E-04    0.43E-04    0.55E-07
   2      8    11.527     4.652    0.22E-03    0.72E-04    0.47E-07
 Optimization of the real space projectors (new method)

 maximal supplied QI-value         = 24.76
 optimisation between [QCUT,QGAM] = [ 11.64, 23.27] = [ 37.91,151.63] Ry
 Optimized for a Real-space Cutoff    1.14 Angstroem

   l    n(q)    QCUT    max X(q) W(low)/X(q) W(high)/X(q)  e(spline)
   0      8    11.635    20.381    0.10E-03    0.33E-03    0.24E-06
   0      8    11.635    15.268    0.11E-03    0.35E-03    0.26E-06
   1      7    11.635     5.964    0.24E-03    0.31E-03    0.30E-06
   1      7    11.635     5.382    0.22E-03    0.25E-03    0.26E-06
|               ----> ADVICE to this user running VASP <----                  |
|     You enforced a specific xc type in the INCAR file but a different       |
|     type was found in the POTCAR file.                                      |
|     I HOPE YOU KNOW WHAT YOU ARE DOING!                                     |

  PAW_PBE Au 04Oct2007                  :
  PAW_PBE Mg_pv 13Apr2007               :
  PAW_PBE O 08Apr2002                   :

 POSCAR: Au Mg  O
  positions in direct lattice
 exchange correlation table for  LEXCH =       43
   RHO(1)=    0.500       N(1)  =     2000
   RHO(2)=  100.500       N(2)  =     4000

 ion  position               nearest neighbor table
   1  0.450  0.450  0.719-   2 2.52
   2  0.450  0.450  0.605-   1 2.52  53 2.72 152 2.72 151 2.72  54 2.72
   3  0.000  0.000  0.407- 105 2.11 106 2.11 121 2.11 186 2.11 103 2.11
   4  0.100  0.100  0.407- 105 2.11 106 2.11 110 2.11 125 2.11 104 2.11
   5  0.000  0.100  0.503- 103 2.11 104 2.11 107 2.11 184 2.11 105 2.11
   6  0.100  0.000  0.503- 103 2.11 104 2.11 120 2.11 123 2.11 106 2.11
   7  0.000  0.200  0.407- 109 2.11 105 2.11 110 2.11 190 2.11 107 2.11
   8  0.100  0.300  0.407- 110 2.11 109 2.11 114 2.11 129 2.11 108 2.11
   9  0.000  0.300  0.503- 107 2.11 108 2.11 111 2.11 188 2.11 109 2.11
  10  0.100  0.200  0.503- 108 2.11 107 2.11 104 2.11 127 2.11 110 2.11
  11  0.000  0.400  0.407- 109 2.11 113 2.11 114 2.11 194 2.11 111 2.11
  12  0.100  0.500  0.407- 113 2.11 114 2.11 118 2.11 133 2.11 112 2.11
  13  0.000  0.500  0.503- 111 2.11 112 2.11 115 2.11 192 2.11 113 2.11
  14  0.100  0.400  0.503- 108 2.11 111 2.11 112 2.11 131 2.11 114 2.11
  15  0.000  0.600  0.407- 113 2.11 117 2.11 118 2.11 198 2.11 115 2.11
  16  0.100  0.700  0.407- 122 2.11 118 2.11 117 2.11 137 2.11 116 2.11
  17  0.000  0.700  0.503- 119 2.11 116 2.11 115 2.11 196 2.11 117 2.11
  18  0.100  0.600  0.503- 112 2.11 115 2.11 116 2.11 135 2.11 118 2.11
  19  0.000  0.800  0.407- 117 2.11 121 2.11 122 2.11 202 2.11 119 2.11
  20  0.100  0.900  0.407- 106 2.11 121 2.11 122 2.11 141 2.11 120 2.11
  21  0.000  0.900  0.503- 103 2.11 119 2.11 120 2.11 200 2.11 121 2.11
  22  0.100  0.800  0.503- 116 2.11 119 2.11 120 2.11 139 2.11 122 2.11
  23  0.200  0.000  0.407- 126 2.11 125 2.11 106 2.11 141 2.11 123 2.11
  24  0.300  0.100  0.407- 125 2.11 126 2.11 130 2.11 145 2.11 124 2.11
  25  0.200  0.100  0.503- 124 2.11 123 2.11 104 2.11 127 2.11 125 2.11
  26  0.300  0.000  0.503- 123 2.11 124 2.11 140 2.11 143 2.11 126 2.11
  27  0.200  0.200  0.407- 129 2.11 130 2.11 110 2.11 125 2.11 127 2.11
  28  0.300  0.300  0.407- 129 2.11 130 2.11 134 2.11 149 2.11 128 2.11
  29  0.200  0.300  0.503- 127 2.11 128 2.11 108 2.11 131 2.11 129 2.11
  30  0.300  0.200  0.503- 127 2.11 128 2.11 124 2.11 147 2.11 130 2.11
  31  0.200  0.400  0.407- 134 2.11 129 2.11 133 2.11 114 2.11 131 2.11
  32  0.300  0.500  0.407- 133 2.11 134 2.11 138 2.11 153 2.11 132 2.11
  33  0.200  0.500  0.503- 132 2.11 131 2.11 112 2.11 135 2.11 133 2.11
  34  0.300  0.400  0.503- 131 2.11 128 2.11 132 2.11 151 2.11 134 2.11
  35  0.200  0.600  0.407- 138 2.11 133 2.11 137 2.11 118 2.11 135 2.11
  36  0.300  0.700  0.407- 137 2.11 142 2.11 138 2.11 157 2.11 136 2.11
  37  0.200  0.700  0.503- 136 2.11 139 2.11 116 2.11 135 2.11 137 2.11
  38  0.300  0.600  0.503- 135 2.11 132 2.11 136 2.11 155 2.11 138 2.11
  39  0.200  0.800  0.407- 137 2.11 142 2.11 141 2.11 122 2.11 139 2.11
  40  0.300  0.900  0.407- 141 2.11 126 2.11 142 2.11 161 2.11 140 2.11
  41  0.200  0.900  0.503- 140 2.11 123 2.11 139 2.11 120 2.11 141 2.11
  42  0.300  0.800  0.503- 136 2.11 139 2.11 140 2.11 159 2.11 142 2.11
  43  0.400  0.000  0.407- 126 2.11 145 2.11 146 2.11 161 2.11 143 2.11
  44  0.500  0.100  0.407- 145 2.11 146 2.11 150 2.11 165 2.11 144 2.11
  45  0.400  0.100  0.503- 124 2.11 143 2.11 144 2.11 147 2.11 145 2.11
  46  0.500  0.000  0.503- 143 2.11 144 2.11 160 2.11 163 2.11 146 2.11
  47  0.400  0.200  0.407- 149 2.11 145 2.11 130 2.11 150 2.11 147 2.11
  48  0.500  0.300  0.407- 150 2.11 149 2.11 154 2.11 169 2.11 148 2.11
  49  0.400  0.300  0.503- 147 2.11 128 2.11 148 2.11 151 2.11 149 2.11
  50  0.500  0.200  0.503- 148 2.11 147 2.11 144 2.11 167 2.11 150 2.11
  51  0.400  0.400  0.407- 134 2.11 149 2.11 153 2.11 154 2.11 151 2.11
  52  0.500  0.500  0.407- 153 2.11 154 2.11 158 2.11 173 2.11 152 2.11
  53  0.400  0.500  0.503- 132 2.11 151 2.11 152 2.11 155 2.11 153 2.11   2 2.72
  54  0.500  0.400  0.503- 148 2.11 151 2.11 152 2.11 171 2.11 154 2.11   2 2.72
  55  0.400  0.600  0.407- 138 2.11 153 2.11 157 2.11 158 2.11 155 2.11
  56  0.500  0.700  0.407- 162 2.11 158 2.11 157 2.11 177 2.11 156 2.11
  57  0.400  0.700  0.503- 159 2.11 155 2.11 156 2.11 136 2.11 157 2.11
  58  0.500  0.600  0.503- 152 2.11 155 2.11 156 2.11 175 2.11 158 2.11
  59  0.400  0.800  0.407- 157 2.11 142 2.11 161 2.11 162 2.11 159 2.11
  60  0.500  0.900  0.407- 146 2.11 161 2.11 162 2.11 181 2.11 160 2.11
[...]
 188  0.900  0.300  0.503-  90 2.11  89 2.11   9 2.11  94 2.11  88 2.11
 189  0.800  0.300  0.407-  68 2.11  87 2.11  88 2.11  91 2.11  89 2.11
 190  0.900  0.200  0.407-  88 2.11  84 2.11  87 2.11   7 2.11  90 2.11
 191  0.800  0.400  0.503-  74 2.11  89 2.11  93 2.11  94 2.11  91 2.11
 192  0.900  0.500  0.503-  13 2.11  93 2.11  94 2.11  98 2.11  92 2.11
 193  0.800  0.500  0.407-  72 2.11  91 2.11  92 2.11  95 2.11  93 2.11
 194  0.900  0.400  0.407-  11 2.11  88 2.11  91 2.11  92 2.11  94 2.11
 195  0.800  0.600  0.503-  78 2.11  93 2.11  97 2.11  98 2.11  95 2.11
 196  0.900  0.700  0.503- 102 2.11  97 2.11  98 2.11  17 2.11  96 2.11
 197  0.800  0.700  0.407-  76 2.11  99 2.11  96 2.11  95 2.11  97 2.11
 198  0.900  0.600  0.407-  15 2.11  92 2.11  95 2.11  96 2.11  98 2.11
 199  0.800  0.800  0.503-  82 2.11  97 2.11 101 2.11 102 2.11  99 2.11
 200  0.900  0.900  0.503-  21 2.11  86 2.11 101 2.11 102 2.11 100 2.11
 201  0.800  0.900  0.407-  80 2.11  83 2.11  99 2.11 100 2.11 101 2.11
 202  0.900  0.800  0.407-  96 2.11  19 2.11  99 2.11 100 2.11 102 2.11

  LATTYP: Found a simple tetragonal cell.
 ALAT       =    21.1388521970
 C/A-ratio  =     1.0461251639

  Lattice vectors:

 A1 = (  21.1388521970,   0.0000000000,   0.0000000000)
 A2 = (   0.0000000000,  21.1388521970,   0.0000000000)
 A3 = (   0.0000000000,   0.0000000000,  22.1138852197)

Analysis of symmetry for initial positions (statically):
 Subroutine PRICEL returns:
 Original cell was already a primitive cell.

 Routine SETGRP: Setting up the symmetry group for a
 simple tetragonal supercell.

 Subroutine GETGRP returns: Found  4 space group operations
 (whereof  2 operations were pure point group operations)
 out of a pool of 16 trial point group operations.

The static configuration has the point symmetry C_1h.
 The point group associated with its full space group is C_2v.

Analysis of symmetry for dynamics (positions and initial velocities):
 Subroutine PRICEL returns:
 Original cell was already a primitive cell.

 Routine SETGRP: Setting up the symmetry group for a
 simple tetragonal supercell.

 Subroutine GETGRP returns: Found  4 space group operations
 (whereof  2 operations were pure point group operations)
 out of a pool of 16 trial point group operations.

The dynamic configuration has the point symmetry C_1h.
 The point group associated with its full space group is C_2v.

 Subroutine INISYM returns: Found  4 space group operations
 (whereof  2 operations are pure point group operations),
 and found     1 'primitive' translations

                                     Primitive cell

[...]
     52     -43.3031      2.00000
     53     -43.3011      2.00000
     54     -43.3007      2.00000
     55     -43.2991      2.00000
     56     -43.2985      2.00000
     57     -43.2983      2.00000
     58     -43.2972      2.00000
     59     -43.2970      2.00000
     60     -43.2961      2.00000
[...]
    882       4.3917      0.00000
    883       4.4242      0.00000
    884       4.4505      0.00000
    885       4.4730      0.00000
    886       4.5482      0.00000
    887       4.5507      0.00000
    888       4.6904      0.00000
    889       4.9534      0.00000
    890       5.0436      0.00000
    891       5.1622      0.00000
    892       5.1994      0.00000
    893       5.2286      0.00000
    894       5.2880      0.00000
    895       5.3057      0.00000
    896       5.3780      0.00000

 soft charge-density along one line, spin component           1
         0         1         2         3         4         5         6         7         8         9
 total charge-density along one line

------------------------ aborting loop because EDIFF is reached ----------------------------------------

  FORCE on cell =-STRESS in cart. coord.  units (eV):
  Direction    XX          YY          ZZ          XY          YZ          ZX
  Alpha Z  1365.75682  1365.75682  1365.75682
  Ewald  476307.94337476307.94337************   -10.19852    -0.00001     0.00001
  Hartree504770.81082504770.81080************    -3.38237    -0.00000     0.00001
  E(xc)   -7748.63141 -7748.63142 -7749.89349     0.01421     0.00000    -0.00000
  Local  ************************************    12.21775     0.00001    -0.00002
  n-local -8822.79777 -8822.79775 -8950.61747    -1.79147     0.00001     0.00001
  augment  3431.83713  3431.83711  3370.01506     1.14641     0.00000     0.00000
  Kinetic 22997.07679 22997.07678 23224.87427     0.80379     0.00001     0.00001
  Fock        0.00000     0.00000     0.00000     0.00000     0.00000     0.00000
  Total    -183.69244  -183.69244     1.89151    -1.19020     0.00000     0.00000
  in kB     -29.78338   -29.78338     0.30668    -0.19298     0.00000     0.00000

 VOLUME and BASIS-vectors are now :
  energy-cutoff  :      520.00
  volume of cell :     9881.61
      direct lattice vectors                 reciprocal lattice vectors
    21.138852197  0.000000000  0.000000000     0.047306258  0.000000000  0.000000000
     0.000000000 21.138852197  0.000000000     0.000000000  0.047306258  0.000000000
     0.000000000  0.000000000 22.113885220     0.000000000  0.000000000  0.045220457

  length of vectors
    21.138852197 21.138852197 22.113885220     0.047306258  0.047306258  0.045220457

 FORCES acting on ions:
    Electron-Ion                     Ewald-Force                    Non-Local-Force
   0.361E-04 -.159E-03 -.175E+04   0.163E-07 -.120E-07 0.174E+04   0.000E+00 0.424E-21 0.702E+01
   0.311E-04 -.152E-03 -.190E+04   0.539E-05 -.567E-05 0.190E+04   0.000E+00 0.000E+00 -.467E+01
   0.169E+01 0.169E+01 0.930E+03   -.170E+01 -.170E+01 -.923E+03   0.579E-02 0.579E-02 -.715E+01
   0.595E+01 0.595E+01 0.932E+03   -.598E+01 -.598E+01 -.925E+03   0.233E-01 0.233E-01 -.715E+01
   0.277E+01 0.568E+01 -.921E+03   -.278E+01 -.569E+01 0.914E+03   0.125E-01 0.738E-02 0.710E+01
   0.568E+01 0.277E+01 -.921E+03   -.569E+01 -.278E+01 0.914E+03   0.738E-02 0.125E-01 0.710E+01
   0.302E+01 0.595E+01 0.932E+03   -.305E+01 -.596E+01 -.925E+03   0.229E-01 0.114E-01 -.715E+01
   0.121E+02 0.722E+01 0.937E+03   -.122E+02 -.723E+01 -.930E+03   0.826E-01 0.132E-01 -.716E+01
   0.577E+01 0.652E+01 -.919E+03   -.580E+01 -.652E+01 0.911E+03   0.228E-01 0.341E-02 0.709E+01
   0.121E+02 0.109E+02 -.918E+03   -.122E+02 -.109E+02 0.911E+03   0.441E-01 0.140E-01 0.709E+01
   0.484E+01 0.201E+01 0.935E+03   -.488E+01 -.201E+01 -.928E+03   0.273E-01 0.744E-04 -.716E+01
   0.148E+02 -.293E+01 0.939E+03   -.149E+02 0.296E+01 -.932E+03   0.716E-01 -.195E-01 -.717E+01
   0.705E+01 -.260E+01 -.918E+03   -.706E+01 0.261E+01 0.910E+03   0.597E-02 -.532E-02 0.709E+01
   0.229E+02 0.429E+01 -.913E+03   -.230E+02 -.428E+01 0.905E+03   0.583E-01 -.993E-02 0.708E+01
   0.411E+01 -.507E+01 0.934E+03   -.411E+01 0.509E+01 -.927E+03   0.520E-02 -.104E-01 -.715E+01
   0.869E+01 -.807E+01 0.935E+03   -.871E+01 0.809E+01 -.927E+03   0.181E-01 -.187E-01 -.716E+01
   0.413E+01 -.751E+01 -.920E+03   -.412E+01 0.752E+01 0.913E+03   -.556E-02 -.596E-02 0.710E+01
   0.181E+02 -.101E+02 -.915E+03   -.181E+02 0.102E+02 0.908E+03   0.120E-01 -.140E-01 0.708E+01
   0.217E+01 -.458E+01 0.931E+03   -.217E+01 0.459E+01 -.924E+03   -.181E-02 -.681E-02 -.715E+01
   0.458E+01 -.217E+01 0.931E+03   -.459E+01 0.217E+01 -.924E+03   0.681E-02 0.181E-02 -.715E+01
   0.209E+01 -.209E+01 -.922E+03   -.209E+01 0.209E+01 0.915E+03   -.478E-03 0.478E-03 0.710E+01
   0.780E+01 -.780E+01 -.920E+03   -.781E+01 0.781E+01 0.913E+03   0.266E-02 -.266E-02 0.710E+01
   0.595E+01 0.302E+01 0.932E+03   -.596E+01 -.305E+01 -.925E+03   0.114E-01 0.229E-01 -.715E+01
   0.722E+01 0.121E+02 0.937E+03   -.723E+01 -.122E+02 -.930E+03   0.132E-01 0.826E-01 -.716E+01
   0.109E+02 0.121E+02 -.918E+03   -.109E+02 -.122E+02 0.911E+03   0.140E-01 0.441E-01 0.709E+01
   0.652E+01 0.577E+01 -.919E+03   -.652E+01 -.580E+01 0.911E+03   0.341E-02 0.228E-01 0.709E+01
   0.125E+02 0.125E+02 0.939E+03   -.126E+02 -.126E+02 -.932E+03   0.675E-01 0.675E-01 -.716E+01
   0.207E+02 0.207E+02 0.959E+03   -.210E+02 -.210E+02 -.951E+03   0.187E+00 0.187E+00 -.714E+01
   0.317E+02 0.201E+02 -.905E+03   -.320E+02 -.201E+02 0.898E+03   0.175E+00 0.451E-02 0.707E+01
   0.201E+02 0.317E+02 -.905E+03   -.201E+02 -.320E+02 0.898E+03   0.451E-02 0.175E+00 0.707E+01
   0.244E+02 0.537E+01 0.951E+03   -.248E+02 -.536E+01 -.943E+03   0.279E+00 -.106E-01 -.723E+01
   0.298E+02 -.994E+01 0.973E+03   -.301E+02 0.102E+02 -.965E+03   0.274E+00 -.183E+00 -.728E+01
   0.450E+02 -.944E+01 -.898E+03   -.451E+02 0.950E+01 0.891E+03   0.724E-01 -.404E-01 0.704E+01
   0.763E+02 0.262E+02 -.855E+03   -.777E+02 -.261E+02 0.848E+03   0.109E+01 -.137E+00 0.697E+01
   0.190E+02 -.122E+02 0.945E+03   -.191E+02 0.123E+02 -.938E+03   0.802E-01 -.619E-01 -.718E+01
   0.122E+02 -.190E+02 0.945E+03   -.123E+02 0.191E+02 -.938E+03   0.619E-01 -.802E-01 -.718E+01
   0.188E+02 -.188E+02 -.913E+03   -.188E+02 0.188E+02 0.906E+03   0.150E-01 -.150E-01 0.708E+01
   0.427E+02 -.427E+02 -.885E+03   -.428E+02 0.428E+02 0.877E+03   0.668E-01 -.668E-01 0.699E+01
   0.807E+01 -.869E+01 0.935E+03   -.809E+01 0.871E+01 -.927E+03   0.187E-01 -.181E-01 -.716E+01
   0.507E+01 -.411E+01 0.934E+03   -.509E+01 0.411E+01 -.927E+03   0.104E-01 -.520E-02 -.715E+01
   0.751E+01 -.413E+01 -.920E+03   -.752E+01 0.412E+01 0.913E+03   0.596E-02 0.556E-02 0.710E+01
   0.101E+02 -.181E+02 -.915E+03   -.102E+02 0.181E+02 0.908E+03   0.140E-01 -.120E-01 0.708E+01
   0.201E+01 0.484E+01 0.935E+03   -.201E+01 -.488E+01 -.928E+03   0.744E-04 0.273E-01 -.716E+01
   -.293E+01 0.148E+02 0.939E+03   0.296E+01 -.149E+02 -.932E+03   -.195E-01 0.716E-01 -.717E+01
   0.429E+01 0.229E+02 -.913E+03   -.428E+01 -.230E+02 0.905E+03   -.993E-02 0.583E-01 0.708E+01
   -.260E+01 0.705E+01 -.918E+03   0.261E+01 -.706E+01 0.910E+03   -.532E-02 0.597E-02 0.709E+01
   0.537E+01 0.244E+02 0.951E+03   -.536E+01 -.248E+02 -.943E+03   -.106E-01 0.279E+00 -.723E+01
   -.994E+01 0.298E+02 0.973E+03   0.102E+02 -.301E+02 -.965E+03   -.183E+00 0.274E+00 -.728E+01
   0.262E+02 0.763E+02 -.855E+03   -.261E+02 -.777E+02 0.848E+03   -.137E+00 0.109E+01 0.697E+01
   -.944E+01 0.450E+02 -.898E+03   0.950E+01 -.451E+02 0.891E+03   -.404E-01 0.724E-01 0.704E+01
   0.164E+02 0.164E+02 0.999E+03   -.164E+02 -.164E+02 -.993E+03   -.351E-02 -.351E-02 -.600E+01
   -.164E+02 -.164E+02 0.999E+03   0.164E+02 0.164E+02 -.993E+03   0.351E-02 0.351E-02 -.600E+01
   0.747E+02 -.747E+02 -.737E+03   -.762E+02 0.762E+02 0.731E+03   0.920E+00 -.920E+00 0.542E+01
   -.747E+02 0.747E+02 -.737E+03   0.762E+02 -.762E+02 0.731E+03   -.920E+00 0.920E+00 0.542E+01
   0.994E+01 -.298E+02 0.973E+03   -.102E+02 0.301E+02 -.965E+03   0.183E+00 -.274E+00 -.728E+01
   -.537E+01 -.244E+02 0.951E+03   0.536E+01 0.248E+02 -.943E+03   0.106E-01 -.279E+00 -.723E+01
   0.944E+01 -.450E+02 -.898E+03   -.950E+01 0.451E+02 0.891E+03   0.404E-01 -.724E-01 0.704E+01
   -.262E+02 -.763E+02 -.855E+03   0.261E+02 0.777E+02 0.848E+03   0.137E+00 -.109E+01 0.697E+01
   0.293E+01 -.148E+02 0.939E+03   -.296E+01 0.149E+02 -.932E+03   0.195E-01 -.716E-01 -.717E+01
   -.201E+01 -.484E+01 0.935E+03   0.201E+01 0.488E+01 -.928E+03   -.744E-04 -.273E-01 -.716E+01
[...]
   -.913E+01 0.540E+01 0.705E+03   0.915E+01 -.542E+01 -.709E+03   -.356E-01 0.308E-01 0.362E+01
   -.229E+01 0.446E+01 0.701E+03   0.229E+01 -.447E+01 -.705E+03   -.241E-04 0.131E-01 0.363E+01
   -.172E+02 0.319E+01 -.686E+03   0.172E+02 -.321E+01 0.691E+03   -.366E-01 0.240E-01 -.375E+01
   -.528E+01 -.196E+01 -.690E+03   0.529E+01 0.196E+01 0.694E+03   -.166E-01 0.183E-02 -.372E+01
   -.111E+02 -.222E+01 0.707E+03   0.111E+02 0.222E+01 -.711E+03   -.730E-01 0.627E-02 0.361E+01
   -.365E+01 0.150E+01 0.703E+03   0.366E+01 -.151E+01 -.707E+03   -.131E-01 0.906E-02 0.362E+01
   -.136E+02 -.762E+01 -.688E+03   0.136E+02 0.762E+01 0.692E+03   -.550E-01 -.922E-02 -.374E+01
   -.308E+01 -.563E+01 -.692E+03   0.309E+01 0.564E+01 0.696E+03   -.183E-01 -.106E-01 -.371E+01
   -.650E+01 -.604E+01 0.703E+03   0.653E+01 0.607E+01 -.707E+03   -.493E-01 -.334E-01 0.363E+01
   -.307E+01 -.381E+01 0.702E+03   0.309E+01 0.381E+01 -.706E+03   -.241E-01 -.103E-01 0.363E+01
   -.584E+01 -.584E+01 -.692E+03   0.586E+01 0.586E+01 0.696E+03   -.249E-01 -.249E-01 -.371E+01
   -.157E+01 -.156E+01 -.694E+03   0.157E+01 0.157E+01 0.698E+03   -.593E-02 -.593E-02 -.370E+01
   -.343E+01 -.162E+01 0.700E+03   0.344E+01 0.163E+01 -.704E+03   -.134E-01 -.137E-01 0.363E+01
   -.162E+01 -.343E+01 0.700E+03   0.163E+01 0.344E+01 -.704E+03   -.137E-01 -.134E-01 0.363E+01
   -.301E-01 0.149E-01 0.674E+01   0.746E-12 0.121E-11 0.955E-11   0.522E-15 0.763E-16 -.711E+01

 POSITION                                       TOTAL-FORCE (eV/Angst)
      9.51248      9.51248     15.90355         0.000000      0.000000      0.001886
      9.51248      9.51248     13.38478         0.000000      0.000000     -0.002237
      0.00000      0.00000      9.00000        -0.001600     -0.001600      0.339854
      2.11389      2.11389      9.00000        -0.006495     -0.006495      0.340262
      0.00000      2.11389     11.11389        -0.003332     -0.002038     -0.322189
      2.11389      0.00000     11.11389        -0.002038     -0.003332     -0.322189
      0.00000      4.22777      9.00000        -0.006106     -0.003218      0.340864
      2.11389      6.34166      9.00000        -0.021840     -0.003886      0.343567
      0.00000      6.34166     11.11389        -0.005794     -0.000910     -0.319312
      2.11389      4.22777     11.11389        -0.011387     -0.003935     -0.318180
      0.00000      8.45554      9.00000        -0.007160      0.000008      0.342245
      2.11389     10.56943      9.00000        -0.019127      0.005744      0.345271
      0.00000     10.56943     11.11389        -0.001284      0.001506     -0.318149
      2.11389      8.45554     11.11389        -0.013439      0.003066     -0.311238
      0.00000     12.68331      9.00000        -0.001413      0.002924      0.341748
      2.11389     14.79720      9.00000        -0.004871      0.005057      0.342298
      0.00000     14.79720     11.11389         0.001567      0.001581     -0.320813
      2.11389     12.68331     11.11389        -0.002322      0.003664     -0.313969
      0.00000     16.91108      9.00000         0.000478      0.001887      0.340321
      2.11389     19.02497      9.00000        -0.001887     -0.000478      0.340321
      0.00000     19.02497     11.11389         0.000136     -0.000136     -0.322940
      2.11389     16.91108     11.11389        -0.000586      0.000586     -0.320859
      4.22777      0.00000      9.00000        -0.003218     -0.006106      0.340864
      6.34166      2.11389      9.00000        -0.003886     -0.021840      0.343567
      4.22777      2.11389     11.11389        -0.003935     -0.011387     -0.318180
      6.34166      0.00000     11.11389        -0.000910     -0.005794     -0.319312
      4.22777      4.22777      9.00000        -0.019253     -0.019253      0.340555
      6.34166      6.34166      9.00000        -0.061638     -0.061638      0.328322
      4.22777      6.34166     11.11389        -0.043325     -0.001428     -0.300678
      6.34166      4.22777     11.11389        -0.001428     -0.043325     -0.300678
      4.22777      8.45554      9.00000        -0.070259      0.003562      0.357425
      6.34166     10.56943      9.00000        -0.077589      0.059155      0.359511
      4.22777     10.56943     11.11389        -0.015603      0.011800     -0.285281
      6.34166      8.45554     11.11389        -0.311868      0.054308     -0.200222
      4.22777     12.68331      9.00000        -0.021684      0.016916      0.349180
      6.34166     14.79720      9.00000        -0.016916      0.021684      0.349180
      4.22777     14.79720     11.11389        -0.003046      0.003046     -0.311084
      6.34166     12.68331     11.11389        -0.006401      0.006401     -0.253210
      4.22777     16.91108      9.00000        -0.005057      0.004871      0.342298
      6.34166     19.02497      9.00000        -0.002924      0.001413      0.341748
      4.22777     19.02497     11.11389        -0.001581     -0.001567     -0.320813
      6.34166     16.91108     11.11389        -0.003664      0.002322     -0.313969
      8.45554      0.00000      9.00000         0.000008     -0.007160      0.342245
     10.56943      2.11389      9.00000         0.005744     -0.019127      0.345271
      8.45554      2.11389     11.11389         0.003066     -0.013439     -0.311238
     10.56943      0.00000     11.11389         0.001506     -0.001284     -0.318149
      8.45554      4.22777      9.00000         0.003562     -0.070259      0.357425
     10.56943      6.34166      9.00000         0.059155     -0.077589      0.359511
      8.45554      6.34166     11.11389         0.054308     -0.311868     -0.200222
     10.56943      4.22777     11.11389         0.011800     -0.015603     -0.285281
      8.45554      8.45554      9.00000         0.006609      0.006609      0.037788
     10.56943     10.56943      9.00000        -0.006609     -0.006609      0.037788
      8.45554     10.56943     11.11389        -0.591172      0.591172     -0.495905
     10.56943      8.45554     11.11389         0.591172     -0.591172     -0.495905
      8.45554     12.68331      9.00000        -0.059155      0.077589      0.359511
     10.56943     14.79720      9.00000        -0.003562      0.070259      0.357425
      8.45554     14.79720     11.11389        -0.011800      0.015603     -0.285281
     10.56943     12.68331     11.11389        -0.054308      0.311868     -0.200222
      8.45554     16.91108      9.00000        -0.005744      0.019127      0.345271
     10.56943     19.02497      9.00000        -0.000008      0.007160      0.342245
[...]
     19.02497      6.34166     11.11389        -0.000151      0.002514      0.374640
     16.91108      6.34166      9.00000        -0.009774      0.008491     -0.400636
     19.02497      4.22777      9.00000         0.000018      0.003572     -0.397417
     16.91108      8.45554     11.11389        -0.010154      0.006638      0.365731
     19.02497     10.56943     11.11389        -0.004561      0.000523      0.373279
     16.91108     10.56943      9.00000        -0.020171      0.001710     -0.401223
     19.02497      8.45554      9.00000        -0.003613      0.002501     -0.398729
     16.91108     12.68331     11.11389        -0.015160     -0.002548      0.369431
     19.02497     14.79720     11.11389        -0.005030     -0.002904      0.376481
     16.91108     14.79720      9.00000        -0.013544     -0.009165     -0.397650
     19.02497     12.68331      9.00000        -0.006658     -0.002830     -0.397964
     16.91108     16.91108     11.11389        -0.006788     -0.006788      0.376787
     19.02497     19.02497     11.11389        -0.001616     -0.001616      0.378857
     16.91108     19.02497      9.00000        -0.003639     -0.003754     -0.396593
     19.02497     16.91108      9.00000        -0.003754     -0.003639     -0.396593
    total drift:                               -0.030122      0.014937     -0.365975

  FREE ENERGIE OF THE ION-ELECTRON SYSTEM (eV)
  free  energy   TOTEN  =      -794.61124744 eV

  energy  without entropy=     -794.61124744  energy(sigma->0) =     -794.61124744