 vasp.6.4.1 05Apr23 (build May 06 2023 19:47:20) complex

 executed on             LinuxIFC date 2023.07.03  18:05:20

 INCAR:
   SYSTEM = MgO-rocksalt
   ISMEAR = 0
   SIGMA = 0.05
   EDIFF = 1E-6
   ALGO = ALL
   ISTART = 0
   IBRION = -1
   NSW = 0
   ISYM = 2
   DIPOL = 0.5 0.5 0.5
   IDIPOL = 3
   LDIPOL = .TRUE.
   GGA = PE
   IVDW = 11
   ENCUT = 520
   PREC = Accurate
   LASPH = .TRUE.
   LREAL = Auto
   ISPIN = 1
   NELM = 200
   NELMIN = 8
   NCORE = 16
   KPAR = 1
   LWAVE = .FALSE.
   LCHARG = .FALSE.

 POTCAR:    PAW_PBE Au 04Oct2007
 POTCAR:    PAW_PBE Mg_pv 13Apr2007
 POTCAR:    PAW_PBE O 08Apr2002
 POTCAR:    PAW_PBE Au 04Oct2007
   VRHFIN =Au: s1d10

   TITEL  = PAW_PBE Au 04Oct2007
   POMASS =  196.966; ZVAL   =   11.000    mass and valenz
   ENMAX  =  229.943; ENMIN  =  172.457 eV

   TITEL  = PAW_PBE Mg_pv 13Apr2007
   POMASS =   24.305; ZVAL   =    8.000    mass and valenz
   ENMAX  =  403.929; ENMIN  =  302.947 eV

   TITEL  = PAW_PBE O 08Apr2002
   POMASS =   16.000; ZVAL   =    6.000    mass and valenz
   ENMAX  =  400.000; ENMIN  =  300.000 eV

 Optimization of the real space projectors (new method)

 maximal supplied QI-value         = 15.12
 optimisation between [QCUT,QGAM] = [ 11.64, 23.28] = [ 37.95,151.78] Ry
 Optimized for a Real-space Cutoff    1.49 Angstroem

   l    n(q)    QCUT    max X(q) W(low)/X(q) W(high)/X(q)  e(spline)
   2      9    11.641    60.898    0.24E-03    0.10E-03    0.19E-06
   2      9    11.641    58.894    0.25E-03    0.10E-03    0.19E-06
   0     10    11.641   109.617    0.73E-04    0.33E-04    0.11E-06
   0     10    11.641    75.026    0.71E-04    0.32E-04    0.11E-06
   1     10    11.641    16.344    0.27E-04    0.97E-04    0.16E-06
   1     10    11.641    10.160    0.23E-04    0.77E-04    0.13E-06
 Optimization of the real space projectors (new method)

[...]

   l    n(q)    QCUT    max X(q) W(low)/X(q) W(high)/X(q)  e(spline)
   1      8    11.527     2.974    0.44E-04    0.56E-04    0.12E-06
   1      8    11.527     4.279    0.12E-03    0.12E-03    0.26E-06
   0      9    11.527    16.381    0.46E-04    0.64E-04    0.78E-07
   0      9    11.527     5.611    0.26E-04    0.43E-04    0.55E-07
   2      8    11.527     4.652    0.22E-03    0.72E-04    0.47E-07
 Optimization of the real space projectors (new method)

 maximal supplied QI-value         = 24.76
 optimisation between [QCUT,QGAM] = [ 11.64, 23.27] = [ 37.91,151.63] Ry
 Optimized for a Real-space Cutoff    1.14 Angstroem

   l    n(q)    QCUT    max X(q) W(low)/X(q) W(high)/X(q)  e(spline)
   0      8    11.635    20.381    0.10E-03    0.33E-03    0.24E-06
   0      8    11.635    15.268    0.11E-03    0.35E-03    0.26E-06
   1      7    11.635     5.964    0.24E-03    0.31E-03    0.30E-06
   1      7    11.635     5.382    0.22E-03    0.25E-03    0.26E-06
  PAW_PBE Au 04Oct2007                  :
  PAW_PBE Mg_pv 13Apr2007               :
  PAW_PBE O 08Apr2002                   :

 POSCAR: Au Mg  O
  positions in direct lattice
 exchange correlation table for  LEXCH =        8
   RHO(1)=    0.500       N(1)  =     2000
   RHO(2)=  100.500       N(2)  =     4000

 ion  position               nearest neighbor table
   1  0.661  0.500  0.614-   2 2.57 172 2.59  73 2.77
   2  0.539  0.500  0.614-   1 2.57 152 2.59  73 2.77
   3  0.000  0.000  0.407- 105 2.11 106 2.11 121 2.11 186 2.11 103 2.11
   4  0.100  0.100  0.407- 105 2.11 106 2.11 110 2.11 125 2.11 104 2.11
   5  0.000  0.100  0.503- 103 2.11 104 2.11 107 2.11 184 2.11 105 2.11
   6  0.100  0.000  0.503- 103 2.11 104 2.11 120 2.11 123 2.11 106 2.11
   7  0.000  0.200  0.407- 109 2.11 105 2.11 110 2.11 190 2.11 107 2.11
   8  0.100  0.300  0.407- 110 2.11 109 2.11 114 2.11 129 2.11 108 2.11
   9  0.000  0.300  0.503- 107 2.11 108 2.11 111 2.11 188 2.11 109 2.11
  10  0.100  0.200  0.503- 108 2.11 107 2.11 104 2.11 127 2.11 110 2.11
  11  0.000  0.400  0.407- 109 2.11 113 2.11 114 2.11 194 2.11 111 2.11
  12  0.100  0.500  0.407- 113 2.11 114 2.11 118 2.11 133 2.11 112 2.11
  13  0.000  0.500  0.503- 111 2.11 112 2.11 115 2.11 192 2.11 113 2.11
  14  0.100  0.400  0.503- 108 2.11 111 2.11 112 2.11 131 2.11 114 2.11
  15  0.000  0.600  0.407- 113 2.11 117 2.11 118 2.11 198 2.11 115 2.11
  16  0.100  0.700  0.407- 122 2.11 118 2.11 117 2.11 137 2.11 116 2.11
  17  0.000  0.700  0.503- 119 2.11 116 2.11 115 2.11 196 2.11 117 2.11
  18  0.100  0.600  0.503- 112 2.11 115 2.11 116 2.11 135 2.11 118 2.11
  19  0.000  0.800  0.407- 117 2.11 121 2.11 122 2.11 202 2.11 119 2.11
  20  0.100  0.900  0.407- 106 2.11 121 2.11 122 2.11 141 2.11 120 2.11
  21  0.000  0.900  0.503- 103 2.11 119 2.11 120 2.11 200 2.11 121 2.11
  22  0.100  0.800  0.503- 116 2.11 119 2.11 120 2.11 139 2.11 122 2.11
  23  0.200  0.000  0.407- 126 2.11 125 2.11 106 2.11 141 2.11 123 2.11
  24  0.300  0.100  0.407- 125 2.11 126 2.11 130 2.11 145 2.11 124 2.11
  25  0.200  0.100  0.503- 124 2.11 123 2.11 104 2.11 127 2.11 125 2.11
  26  0.300  0.000  0.503- 123 2.11 124 2.11 140 2.11 143 2.11 126 2.11
  27  0.200  0.200  0.407- 129 2.11 130 2.11 110 2.11 125 2.11 127 2.11
  28  0.300  0.300  0.407- 129 2.11 130 2.11 134 2.11 149 2.11 128 2.11
  29  0.200  0.300  0.503- 127 2.11 128 2.11 108 2.11 131 2.11 129 2.11
  30  0.300  0.200  0.503- 127 2.11 128 2.11 124 2.11 147 2.11 130 2.11
  31  0.200  0.400  0.407- 134 2.11 129 2.11 133 2.11 114 2.11 131 2.11
  32  0.300  0.500  0.407- 133 2.11 134 2.11 138 2.11 153 2.11 132 2.11
  33  0.200  0.500  0.503- 132 2.11 131 2.11 112 2.11 135 2.11 133 2.11
  34  0.300  0.400  0.503- 131 2.11 128 2.11 132 2.11 151 2.11 134 2.11
  35  0.200  0.600  0.407- 138 2.11 133 2.11 137 2.11 118 2.11 135 2.11
  36  0.300  0.700  0.407- 137 2.11 142 2.11 138 2.11 157 2.11 136 2.11
  37  0.200  0.700  0.503- 136 2.11 139 2.11 116 2.11 135 2.11 137 2.11
  38  0.300  0.600  0.503- 135 2.11 132 2.11 136 2.11 155 2.11 138 2.11
  39  0.200  0.800  0.407- 137 2.11 142 2.11 141 2.11 122 2.11 139 2.11
  40  0.300  0.900  0.407- 141 2.11 126 2.11 142 2.11 161 2.11 140 2.11
  41  0.200  0.900  0.503- 140 2.11 123 2.11 139 2.11 120 2.11 141 2.11
  42  0.300  0.800  0.503- 136 2.11 139 2.11 140 2.11 159 2.11 142 2.11
  43  0.400  0.000  0.407- 126 2.11 145 2.11 146 2.11 161 2.11 143 2.11
  44  0.500  0.100  0.407- 145 2.11 146 2.11 150 2.11 165 2.11 144 2.11
  45  0.400  0.100  0.503- 124 2.11 143 2.11 144 2.11 147 2.11 145 2.11
  46  0.500  0.000  0.503- 143 2.11 144 2.11 160 2.11 163 2.11 146 2.11
  47  0.400  0.200  0.407- 149 2.11 145 2.11 130 2.11 150 2.11 147 2.11
  48  0.500  0.300  0.407- 150 2.11 149 2.11 154 2.11 169 2.11 148 2.11
  49  0.400  0.300  0.503- 147 2.11 128 2.11 148 2.11 151 2.11 149 2.11
  50  0.500  0.200  0.503- 148 2.11 147 2.11 144 2.11 167 2.11 150 2.11
  51  0.400  0.400  0.407- 134 2.11 149 2.11 153 2.11 154 2.11 151 2.11
  52  0.500  0.500  0.407- 153 2.11 154 2.11 158 2.11 173 2.11 152 2.11
  53  0.400  0.500  0.503- 132 2.11 151 2.11 152 2.11 155 2.11 153 2.11
  54  0.500  0.400  0.503- 148 2.11 151 2.11 152 2.11 171 2.11 154 2.11
  55  0.400  0.600  0.407- 138 2.11 153 2.11 157 2.11 158 2.11 155 2.11
  56  0.500  0.700  0.407- 162 2.11 158 2.11 157 2.11 177 2.11 156 2.11
  57  0.400  0.700  0.503- 159 2.11 155 2.11 156 2.11 136 2.11 157 2.11
  58  0.500  0.600  0.503- 152 2.11 155 2.11 156 2.11 175 2.11 158 2.11
  59  0.400  0.800  0.407- 157 2.11 142 2.11 161 2.11 162 2.11 159 2.11
  60  0.500  0.900  0.407- 146 2.11 161 2.11 162 2.11 181 2.11 160 2.11
[...]
 188  0.900  0.300  0.503-  90 2.11  89 2.11   9 2.11  94 2.11  88 2.11
 189  0.800  0.300  0.407-  68 2.11  87 2.11  88 2.11  91 2.11  89 2.11
 190  0.900  0.200  0.407-  88 2.11  84 2.11  87 2.11   7 2.11  90 2.11
 191  0.800  0.400  0.503-  74 2.11  89 2.11  93 2.11  94 2.11  91 2.11
 192  0.900  0.500  0.503-  13 2.11  93 2.11  94 2.11  98 2.11  92 2.11
 193  0.800  0.500  0.407-  72 2.11  91 2.11  92 2.11  95 2.11  93 2.11
 194  0.900  0.400  0.407-  11 2.11  88 2.11  91 2.11  92 2.11  94 2.11
 195  0.800  0.600  0.503-  78 2.11  93 2.11  97 2.11  98 2.11  95 2.11
 196  0.900  0.700  0.503- 102 2.11  97 2.11  98 2.11  17 2.11  96 2.11
 197  0.800  0.700  0.407-  76 2.11  99 2.11  96 2.11  95 2.11  97 2.11
 198  0.900  0.600  0.407-  15 2.11  92 2.11  95 2.11  96 2.11  98 2.11
 199  0.800  0.800  0.503-  82 2.11  97 2.11 101 2.11 102 2.11  99 2.11
 200  0.900  0.900  0.503-  21 2.11  86 2.11 101 2.11 102 2.11 100 2.11
 201  0.800  0.900  0.407-  80 2.11  83 2.11  99 2.11 100 2.11 101 2.11
 202  0.900  0.800  0.407-  96 2.11  19 2.11  99 2.11 100 2.11 102 2.11

  LATTYP: Found a simple tetragonal cell.
 ALAT       =    21.1388521970
 C/A-ratio  =     1.0461251639

  Lattice vectors:

 A1 = (  21.1388521970,   0.0000000000,   0.0000000000)
 A2 = (   0.0000000000,  21.1388521970,   0.0000000000)
 A3 = (   0.0000000000,   0.0000000000,  22.1138852197)

Analysis of symmetry for initial positions (statically):
 Subroutine PRICEL returns:
 Original cell was already a primitive cell.

 Routine SETGRP: Setting up the symmetry group for a
 simple tetragonal supercell.

 Subroutine GETGRP returns: Found  4 space group operations
 (whereof  2 operations were pure point group operations)
 out of a pool of 16 trial point group operations.

The static configuration has the point symmetry C_1h.
 The point group associated with its full space group is C_2v.

Analysis of symmetry for dynamics (positions and initial velocities):
 Subroutine PRICEL returns:
 Original cell was already a primitive cell.

 Routine SETGRP: Setting up the symmetry group for a
 simple tetragonal supercell.

 Subroutine GETGRP returns: Found  4 space group operations
 (whereof  2 operations were pure point group operations)
 out of a pool of 16 trial point group operations.

The dynamic configuration has the point symmetry C_1h.
 The point group associated with its full space group is C_2v.

 Subroutine INISYM returns: Found  4 space group operations
 (whereof  2 operations are pure point group operations),
 and found     1 'primitive' translations

                                     Primitive cell

  volume of cell :    9881.6133

  direct lattice vectors                    reciprocal lattice vectors
    21.138852197  0.000000000  0.000000000     0.047306258  0.000000000  0.000000000
     0.000000000 21.138852197  0.000000000     0.000000000  0.047306258  0.000000000
     0.000000000  0.000000000 22.113885220     0.000000000  0.000000000  0.045220457

  length of vectors
    21.138852197 21.138852197 22.113885220     0.047306258  0.047306258  0.045220457

  position of ions in fractional coordinates (direct lattice)
     0.660731451  0.500000000  0.613578390
     0.539268477  0.500000000  0.613578390
     0.000000000  0.000000000  0.406984115
     0.100000000  0.100000000  0.406984115
     0.000000000  0.100000000  0.502574971
     0.100000000  0.000000000  0.502574971
     0.000000000  0.200000000  0.406984115
     0.100000000  0.300000000  0.406984115
     0.000000000  0.300000000  0.502574971
     0.100000000  0.200000000  0.502574971
     0.000000000  0.400000000  0.406984115
     0.100000000  0.500000000  0.406984115
     0.000000000  0.500000000  0.502574971
[...]
    855       4.5450      0.00000
    856       4.5988      0.00000
    857       4.6001      0.00000
    858       4.6409      0.00000
    859       4.6650      0.00000
    860       4.6722      0.00000
    861       4.6744      0.00000
    862       4.7835      0.00000
    863       5.0195      0.00000
    864       5.2468      0.00000

 soft charge-density along one line, spin component           1
         0         1         2         3         4         5         6         7         8         9
 total charge-density along one line

------------------------ aborting loop because EDIFF is reached ----------------------------------------

         DFTD3 V3.0 Rev 1
 IVDW         = 11
 DF pbe
 parameters
 VDW_S6       =    1.0000
 VDW_S8       =    0.7220
 VDW_SR       =    1.2170
 rs18     =    1.0000
 alpha6   =   14.0000
 alpha8   =   16.0000
 k1-k3    =   16.0000    1.3333   -4.0000
 VDW_RADIUS   =   50.2022 A
 VDW_CNRADIUS =   21.1671 A
 Edisp (eV)  -19.49194

 E6    (eV) :    -8.0711
 E8    (eV) :   -11.4208
 % E8        : 58.59

  FORCE on cell =-STRESS in cart. coord.  units (eV):
  Direction    XX          YY          ZZ          XY          YZ          ZX
  Alpha Z  1365.75682  1365.75682  1365.75682
  Ewald  480802.96044480097.24197************    -0.00000     0.00000     0.00003
  Hartree509200.20785508716.07434************     0.00000    -0.00000     0.00001
  E(xc)   -7747.58294 -7748.51268 -7779.48618     0.00000     0.00000    -0.00000
  Local  ************************************     0.00000    -0.00000    -0.00003
  n-local -8771.89303 -8758.69907 -8884.88477     0.00000    -0.00000     0.00000
  augment  3416.71589  3418.53393  3361.93368    -0.00000     0.00000    -0.00000
  Kinetic 22984.75289 22991.46769 23242.78175     0.00001    -0.00001     0.00001
  Fock        0.00000     0.00000     0.00000     0.00000     0.00000     0.00000
  vdW       -26.32891   -26.07185    -3.30476     0.00000    -0.00000    -0.00000
  Total    -174.88601  -175.09668    15.38780     0.00000     0.00000     0.00000
  in kB     -28.35553   -28.38969     2.49494     0.00000     0.00000     0.00000

 VOLUME and BASIS-vectors are now :
  energy-cutoff  :      520.00
  volume of cell :     9881.61
      direct lattice vectors                 reciprocal lattice vectors
    21.138852197  0.000000000  0.000000000     0.047306258  0.000000000  0.000000000
     0.000000000 21.138852197  0.000000000     0.000000000  0.047306258  0.000000000
     0.000000000  0.000000000 22.113885220     0.000000000  0.000000000  0.045220457

  length of vectors
    21.138852197 21.138852197 22.113885220     0.047306258  0.047306258  0.045220457

 FORCES acting on ions:
    Electron-Ion                     Ewald-Force                    Non-Local-Force
   -.269E+03 -.141E-05 -.213E+04   0.264E+03 0.167E-07 0.213E+04   0.549E+01 0.972E-23 -.773E+00
   0.269E+03 -.105E-05 -.213E+04   -.264E+03 0.167E-07 0.213E+04   -.549E+01 -.120E-22 -.773E+00
   -.334E+01 0.488E-06 0.931E+03   0.333E+01 0.847E-08 -.923E+03   0.372E-02 0.547E-23 -.742E+01
   -.185E-03 0.373E+01 0.931E+03   -.146E-05 -.375E+01 -.923E+03   0.449E-20 0.149E-01 -.742E+01
   -.483E+01 0.534E+01 -.922E+03   0.482E+01 -.536E+01 0.915E+03   0.580E-02 0.164E-01 0.737E+01
   -.185E-03 0.486E-06 -.923E+03   -.150E-05 0.890E-08 0.915E+03   0.822E-21 0.434E-23 0.737E+01
   -.565E+01 0.749E+01 0.933E+03   0.565E+01 -.753E+01 -.926E+03   -.383E-02 0.325E-01 -.742E+01
   -.184E-03 0.677E+01 0.934E+03   -.302E-05 -.681E+01 -.926E+03   0.704E-21 0.278E-01 -.742E+01
   -.117E+02 0.108E+02 -.919E+03   0.117E+02 -.109E+02 0.911E+03   -.189E-01 0.335E-01 0.737E+01
   -.184E-03 0.778E+01 -.922E+03   -.268E-05 -.781E+01 0.914E+03   -.257E-22 0.236E-01 0.737E+01
   -.112E+02 0.557E+01 0.938E+03   0.113E+02 -.560E+01 -.931E+03   -.543E-01 0.258E-01 -.743E+01
   -.183E-03 0.499E-06 0.936E+03   -.440E-05 -.915E-08 -.929E+03   0.671E-21 0.682E-23 -.743E+01
   -.189E+02 0.465E-06 -.916E+03   0.190E+02 -.161E-07 0.908E+03   -.636E-01 -.194E-22 0.737E+01
   -.181E-03 0.562E+01 -.919E+03   -.565E-05 -.565E+01 0.912E+03   -.192E-20 0.169E-01 0.737E+01
   -.112E+02 -.557E+01 0.938E+03   0.113E+02 0.560E+01 -.931E+03   -.543E-01 -.258E-01 -.743E+01
   -.184E-03 -.677E+01 0.934E+03   -.302E-05 0.681E+01 -.926E+03   0.133E-20 -.278E-01 -.742E+01
   -.117E+02 -.108E+02 -.919E+03   0.117E+02 0.109E+02 0.911E+03   -.189E-01 -.335E-01 0.737E+01
   -.181E-03 -.562E+01 -.919E+03   -.565E-05 0.565E+01 0.912E+03   -.232E-20 -.169E-01 0.737E+01
   -.565E+01 -.749E+01 0.933E+03   0.565E+01 0.753E+01 -.926E+03   -.383E-02 -.325E-01 -.742E+01
   -.185E-03 -.373E+01 0.931E+03   -.146E-05 0.375E+01 -.923E+03   -.418E-20 -.149E-01 -.742E+01
   -.483E+01 -.534E+01 -.922E+03   0.482E+01 0.536E+01 0.915E+03   0.580E-02 -.164E-01 0.737E+01
   -.184E-03 -.778E+01 -.922E+03   -.268E-05 0.781E+01 0.914E+03   0.101E-21 -.236E-01 0.737E+01
   0.334E+01 0.486E-06 0.931E+03   -.333E+01 0.847E-08 -.923E+03   -.372E-02 -.384E-23 -.742E+01
   0.666E+01 0.599E+01 0.933E+03   -.665E+01 -.602E+01 -.925E+03   -.612E-02 0.235E-01 -.742E+01
   0.483E+01 0.534E+01 -.922E+03   -.482E+01 -.536E+01 0.915E+03   -.580E-02 0.164E-01 0.737E+01
   0.678E+01 0.481E-06 -.922E+03   -.676E+01 0.148E-07 0.914E+03   -.102E-01 0.113E-22 0.737E+01
   0.564E+01 0.749E+01 0.933E+03   -.565E+01 -.753E+01 -.926E+03   0.383E-02 0.325E-01 -.742E+01
   0.159E+02 0.131E+02 0.941E+03   -.159E+02 -.132E+02 -.933E+03   0.326E-01 0.758E-01 -.743E+01
   0.117E+02 0.108E+02 -.919E+03   -.117E+02 -.109E+02 0.911E+03   0.189E-01 0.335E-01 0.737E+01
   0.136E+02 0.150E+02 -.919E+03   -.136E+02 -.150E+02 0.911E+03   -.147E-01 0.498E-01 0.737E+01
   0.112E+02 0.557E+01 0.938E+03   -.113E+02 -.560E+01 -.931E+03   0.543E-01 0.258E-01 -.743E+01
   0.259E+02 0.552E-06 0.950E+03   -.262E+02 -.210E-07 -.942E+03   0.216E+00 -.616E-24 -.746E+01
   0.189E+02 0.541E-06 -.916E+03   -.190E+02 -.161E-07 0.908E+03   0.636E-01 0.193E-22 0.737E+01
   0.378E+02 0.157E+02 -.908E+03   -.380E+02 -.157E+02 0.900E+03   0.133E+00 0.505E-01 0.736E+01
   0.112E+02 -.557E+01 0.938E+03   -.113E+02 0.560E+01 -.931E+03   0.543E-01 -.258E-01 -.743E+01
   0.159E+02 -.131E+02 0.941E+03   -.159E+02 0.132E+02 -.933E+03   0.326E-01 -.758E-01 -.743E+01
   0.117E+02 -.108E+02 -.919E+03   -.117E+02 0.109E+02 0.911E+03   0.189E-01 -.335E-01 0.737E+01
   0.378E+02 -.157E+02 -.908E+03   -.380E+02 0.157E+02 0.900E+03   0.133E+00 -.505E-01 0.736E+01
   0.564E+01 -.749E+01 0.933E+03   -.565E+01 0.753E+01 -.926E+03   0.383E-02 -.325E-01 -.742E+01
   0.666E+01 -.599E+01 0.933E+03   -.665E+01 0.602E+01 -.925E+03   -.612E-02 -.235E-01 -.742E+01
   0.483E+01 -.534E+01 -.922E+03   -.482E+01 0.536E+01 0.915E+03   -.580E-02 -.164E-01 0.737E+01
   0.136E+02 -.150E+02 -.919E+03   -.136E+02 0.150E+02 0.911E+03   -.147E-01 -.498E-01 0.737E+01
   0.583E+01 0.480E-06 0.934E+03   -.582E+01 0.160E-07 -.926E+03   -.808E-02 -.248E-23 -.742E+01
   0.464E+01 0.108E+02 0.937E+03   -.463E+01 -.109E+02 -.929E+03   -.652E-02 0.245E-01 -.743E+01
   0.910E+01 0.116E+02 -.920E+03   -.908E+01 -.116E+02 0.912E+03   -.144E-01 0.143E-01 0.737E+01
   0.462E+01 0.473E-06 -.920E+03   -.461E+01 0.276E-07 0.912E+03   -.790E-02 -.929E-23 0.737E+01
   0.114E+02 0.165E+02 0.940E+03   -.114E+02 -.166E+02 -.933E+03   -.783E-02 0.767E-01 -.744E+01
   0.146E+02 0.321E+02 0.962E+03   -.146E+02 -.324E+02 -.954E+03   -.782E-02 0.244E+00 -.754E+01
   0.332E+02 0.378E+02 -.903E+03   -.331E+02 -.380E+02 0.896E+03   -.635E-01 0.186E+00 0.734E+01
   0.116E+02 0.351E+02 -.911E+03   -.116E+02 -.351E+02 0.903E+03   -.224E-01 0.886E-02 0.735E+01
   0.310E+02 0.180E+02 0.966E+03   -.312E+02 -.183E+02 -.958E+03   0.126E+00 0.176E+00 -.739E+01
   0.316E+02 0.663E-06 0.101E+04   -.317E+02 -.741E-07 -.100E+04   0.127E+00 0.482E-23 -.604E+01
   0.915E+02 0.746E-06 -.859E+03   -.928E+02 -.109E-06 0.851E+03   0.988E+00 0.343E-23 0.744E+01
   0.678E+02 0.939E+02 -.814E+03   -.674E+02 -.953E+02 0.807E+03   -.264E+00 0.105E+01 0.692E+01
   0.310E+02 -.180E+02 0.966E+03   -.312E+02 0.183E+02 -.958E+03   0.126E+00 -.176E+00 -.739E+01
   0.146E+02 -.321E+02 0.962E+03   -.146E+02 0.324E+02 -.954E+03   -.782E-02 -.244E+00 -.754E+01
   0.332E+02 -.378E+02 -.903E+03   -.331E+02 0.380E+02 0.896E+03   -.635E-01 -.186E+00 0.734E+01
   0.678E+02 -.939E+02 -.814E+03   -.674E+02 0.953E+02 0.807E+03   -.264E+00 -.105E+01 0.692E+01
   0.114E+02 -.165E+02 0.940E+03   -.114E+02 0.166E+02 -.933E+03   -.783E-02 -.767E-01 -.744E+01
   0.464E+01 -.108E+02 0.937E+03   -.463E+01 0.109E+02 -.929E+03   -.652E-02 -.245E-01 -.743E+01
[...]
   -.148E+02 0.164E+02 0.715E+03   0.148E+02 -.165E+02 -.719E+03   -.269E-01 0.149E+00 0.350E+01
   -.754E+01 0.824E+01 0.704E+03   0.754E+01 -.828E+01 -.708E+03   -.677E-02 0.509E-01 0.352E+01
   -.495E+02 0.299E+02 -.661E+03   0.496E+02 -.302E+02 0.665E+03   -.212E+00 0.380E+00 -.370E+01
   -.343E+02 0.232E-05 -.680E+03   0.344E+02 -.268E-07 0.684E+03   -.149E+00 0.389E-23 -.364E+01
   -.280E+02 0.232E-05 0.732E+03   0.283E+02 -.316E-07 -.736E+03   -.382E+00 0.596E-23 0.379E+01
   -.170E+02 0.720E+01 0.712E+03   0.171E+02 -.727E+01 -.716E+03   -.112E+00 0.906E-01 0.353E+01
   -.495E+02 -.299E+02 -.661E+03   0.496E+02 0.302E+02 0.665E+03   -.212E+00 -.380E+00 -.370E+01
   -.179E+02 -.145E+02 -.687E+03   0.179E+02 0.146E+02 0.691E+03   -.469E-01 -.959E-01 -.362E+01
   -.148E+02 -.164E+02 0.715E+03   0.148E+02 0.165E+02 -.719E+03   -.269E-01 -.149E+00 0.350E+01
   -.170E+02 -.720E+01 0.712E+03   0.171E+02 0.727E+01 -.716E+03   -.112E+00 -.906E-01 0.353E+01
   -.122E+02 -.183E+02 -.688E+03   0.122E+02 0.184E+02 0.692E+03   0.293E-01 -.381E-01 -.363E+01
   -.626E+01 -.586E+01 -.693E+03   0.625E+01 0.587E+01 0.697E+03   0.107E-01 -.165E-01 -.360E+01
   -.533E+01 -.636E+01 0.703E+03   0.532E+01 0.638E+01 -.707E+03   0.952E-02 -.212E-01 0.351E+01
   -.754E+01 -.824E+01 0.704E+03   0.754E+01 0.828E+01 -.708E+03   -.677E-02 -.509E-01 0.352E+01
   -.109E+00 0.287E-03 0.120E+02   0.398E-11 -.100E-11 -.534E-11   0.903E-15 0.291E-15 -.126E+02

 POSITION                                       TOTAL-FORCE (eV/Angst)
     13.96710     10.56943     13.56860         0.086808     -0.000000      0.033335
     11.39952     10.56943     13.56860        -0.086808     -0.000000      0.033335
      0.00000      0.00000      9.00000        -0.001018     -0.000000      0.334587
      2.11389      2.11389      9.00000        -0.000000     -0.004084      0.334337
      0.00000      2.11389     11.11389        -0.001584     -0.004334     -0.319553
      2.11389      0.00000     11.11389        -0.000000     -0.000000     -0.320242
      0.00000      4.22777      9.00000         0.001154     -0.008943      0.334555
      2.11389      6.34166      9.00000        -0.000000     -0.007856      0.334654
      0.00000      6.34166     11.11389         0.004585     -0.009289     -0.316709
      2.11389      4.22777     11.11389        -0.000000     -0.006490     -0.319151
      0.00000      8.45554      9.00000         0.014148     -0.007495      0.335521
      2.11389     10.56943      9.00000        -0.000000     -0.000000      0.335162
      0.00000     10.56943     11.11389         0.015008     -0.000000     -0.314811
      2.11389      8.45554     11.11389        -0.000000     -0.004806     -0.317316
      0.00000     12.68331      9.00000         0.014148      0.007495      0.335521
      2.11389     14.79720      9.00000        -0.000000      0.007856      0.334654
      0.00000     14.79720     11.11389         0.004585      0.009289     -0.316709
      2.11389     12.68331     11.11389        -0.000000      0.004806     -0.317316
      0.00000     16.91108      9.00000         0.001154      0.008943      0.334555
      2.11389     19.02497      9.00000        -0.000000      0.004084      0.334337
      0.00000     19.02497     11.11389        -0.001584      0.004334     -0.319553
      2.11389     16.91108     11.11389        -0.000000      0.006490     -0.319151
      4.22777      0.00000      9.00000         0.001018     -0.000000      0.334587
      6.34166      2.11389      9.00000         0.001719     -0.006141      0.335534
      4.22777      2.11389     11.11389         0.001584     -0.004334     -0.319553
      6.34166      0.00000     11.11389         0.002901     -0.000000     -0.319171
      4.22777      4.22777      9.00000        -0.001154     -0.008943      0.334555
      6.34166      6.34166      9.00000        -0.009570     -0.021233      0.334657
      4.22777      6.34166     11.11389        -0.004585     -0.009289     -0.316709
      6.34166      4.22777     11.11389         0.004140     -0.012631     -0.315700
      4.22777      8.45554      9.00000        -0.014148     -0.007495      0.335521
      6.34166     10.56943      9.00000        -0.053354     -0.000000      0.340502
      4.22777     10.56943     11.11389        -0.015008     -0.000000     -0.314811
      6.34166      8.45554     11.11389        -0.030608     -0.013517     -0.306040
      4.22777     12.68331      9.00000        -0.014148      0.007495      0.335521
      6.34166     14.79720      9.00000        -0.009570      0.021233      0.334657
      4.22777     14.79720     11.11389        -0.004585      0.009289     -0.316709
      6.34166     12.68331     11.11389        -0.030608      0.013517     -0.306040
      4.22777     16.91108      9.00000        -0.001154      0.008943      0.334555
      6.34166     19.02497      9.00000         0.001719      0.006141      0.335534
      4.22777     19.02497     11.11389         0.001584      0.004334     -0.319553
      6.34166     16.91108     11.11389         0.004140      0.012631     -0.315700
      8.45554      0.00000      9.00000         0.002360     -0.000000      0.335828
     10.56943      2.11389      9.00000         0.002033     -0.006289      0.337686
      8.45554      2.11389     11.11389         0.004298     -0.003211     -0.316407
     10.56943      0.00000     11.11389         0.002362     -0.000000     -0.316801
      8.45554      4.22777      9.00000         0.002598     -0.019353      0.340263
     10.56943      6.34166      9.00000         0.005357     -0.057379      0.364660
      8.45554      6.34166     11.11389         0.023796     -0.040633     -0.292435
     10.56943      4.22777     11.11389         0.007734      0.002254     -0.303222
      8.45554      8.45554      9.00000        -0.039593     -0.055500      0.321163
     10.56943     10.56943      9.00000        -0.010766     -0.000000      0.039491
      8.45554     10.56943     11.11389        -0.266954     -0.000000     -0.273826
     10.56943      8.45554     11.11389         0.117652     -0.340699     -0.152130
      8.45554     12.68331      9.00000        -0.039593      0.055500      0.321163
     10.56943     14.79720      9.00000         0.005357      0.057379      0.364660
      8.45554     14.79720     11.11389         0.023796      0.040633     -0.292435
     10.56943     12.68331     11.11389         0.117652      0.340699     -0.152130
      8.45554     16.91108      9.00000         0.002598      0.019353      0.340263
     10.56943     19.02497      9.00000         0.002033      0.006289      0.337686
[...]
     19.02497      6.34166     11.11389        -0.013557      0.026949      0.499199
     16.91108      6.34166      9.00000        -0.007922      0.042049     -0.525882
     19.02497      4.22777      9.00000        -0.001946      0.014124     -0.523291
     16.91108      8.45554     11.11389        -0.071677      0.113208      0.489384
     19.02497     10.56943     11.11389        -0.044421     -0.000000      0.495077
     16.91108     10.56943      9.00000        -0.123436     -0.000000     -0.447753
     19.02497      8.45554      9.00000        -0.031304      0.024881     -0.520565
     16.91108     12.68331     11.11389        -0.071677     -0.113208      0.489384
     19.02497     14.79720     11.11389        -0.013557     -0.026949      0.499199
     16.91108     14.79720      9.00000        -0.007922     -0.042049     -0.525882
     19.02497     12.68331      9.00000        -0.031304     -0.024881     -0.520565
     16.91108     16.91108     11.11389         0.007791     -0.010990      0.496596
     19.02497     19.02497     11.11389         0.002905     -0.004580      0.505057
     16.91108     19.02497      9.00000         0.002536     -0.005928     -0.523935
     19.02497     16.91108      9.00000        -0.001946     -0.014124     -0.523291
    total drift:                               -0.109365      0.000287     -0.612966

  FREE ENERGIE OF THE ION-ELECTRON SYSTEM (eV)
  free  energy   TOTEN  =     -1160.86754503 eV

  energy  without entropy=    -1160.86754503  energy(sigma->0) =    -1160.86754503