 vasp.6.3.0 20Jan22 (build Apr  1 2022 16:44:48) complex
 executed on        HPECrayEX_GCC date 2023.01.17  00:41:35

 INCAR:
   SYSTEM = MgO-rocksalt
   ISMEAR = 0
   SIGMA = 0.05
   EDIFF = 1E-6
   ALGO = ALL
   ISTART = 0
   IBRION = -1
   NSW = 0
   ISYM = 2
   DIPOL = 0.5 0.5 0.5
   IDIPOL = 3
   LDIPOL = .TRUE.
   LHFCALC = .TRUE.
   GGA = PE
   ENCUT = 520
   PREC = Accurate
   LASPH = .TRUE.
   LREAL = Auto
   ISPIN = 1
   NELM = 200
   NELMIN = 8
   NCORE = 4
   KPAR = 2
   LWAVE = .FALSE.
   LCHARG = .FALSE.

 POTCAR:    PAW_PBE Cu 22Jun2005
 POTCAR:    PAW_PBE Mg_pv 13Apr2007
 POTCAR:    PAW_PBE O 08Apr2002
|           W    W    AA    RRRRR   N    N  II  N    N   GGGG   !!!           |
|           W    W   A  A   R    R  NN   N  II  NN   N  G    G  !!!           |
|           W    W  A    A  R    R  N N  N  II  N N  N  G       !!!           |
|           W WW W  AAAAAA  RRRRR   N  N N  II  N  N N  G  GGG   !            |
|           WW  WW  A    A  R   R   N   NN  II  N   NN  G    G                |
|           W    W  A    A  R    R  N    N  II  N    N   GGGG   !!!           |
|     You have selected ISYM=2 for a HF type calculation. This will           |
|     symmetrize the charge density but not the exchange potential. I         |
|     suggest to use ISYM=3 instead. This uses symmetry to obtain the         |
|     orbitals at all k-points in the Brillouin zone, but does not apply      |
|     symmetry to the Hartree potential directly. The resultant charge        |
|     might have lower symmetry than the crystal but, at least, Hartree       |
|     and exchange are fully compatible.                                      |

   TITEL  = PAW_PBE Cu 22Jun2005
   POMASS =   63.546; ZVAL   =   11.000    mass and valenz
   ENMAX  =  295.446; ENMIN  =  221.585 eV

   TITEL  = PAW_PBE Mg_pv 13Apr2007
   POMASS =   24.305; ZVAL   =    8.000    mass and valenz
   ENMAX  =  403.929; ENMIN  =  302.947 eV

   TITEL  = PAW_PBE O 08Apr2002
   POMASS =   16.000; ZVAL   =    6.000    mass and valenz
   ENMAX  =  400.000; ENMIN  =  300.000 eV

 Optimization of the real space projectors (new method)

 maximal supplied QI-value         = 16.25
 optimisation between [QCUT,QGAM] = [ 11.54, 23.24] = [ 37.28,151.24] Ry
 Optimized for a Real-space Cutoff    1.53 Angstroem

   l    n(q)    QCUT    max X(q) W(low)/X(q) W(high)/X(q)  e(spline)
   2     10    11.539     4.610    0.96E-04    0.13E-03    0.19E-06
   2     10    11.539     8.522    0.16E-03    0.21E-03    0.28E-06
   0     11    11.539    51.609    0.45E-04    0.31E-04    0.11E-06
   0     11    11.539    27.747    0.39E-04    0.29E-04    0.10E-06
   1     10    11.539    20.408    0.70E-05    0.38E-04    0.18E-06
   1     10    11.539    13.425    0.66E-05    0.34E-04    0.17E-06
 Optimization of the real space projectors (new method)

[...]

   l    n(q)    QCUT    max X(q) W(low)/X(q) W(high)/X(q)  e(spline)
   1      8    11.527     2.974    0.44E-04    0.56E-04    0.12E-06
   1      8    11.527     4.279    0.12E-03    0.12E-03    0.26E-06
   0      9    11.527    16.381    0.46E-04    0.64E-04    0.78E-07
   0      9    11.527     5.611    0.26E-04    0.43E-04    0.55E-07
   2      8    11.527     4.652    0.22E-03    0.72E-04    0.47E-07
 Optimization of the real space projectors (new method)

 maximal supplied QI-value         = 24.76
 optimisation between [QCUT,QGAM] = [ 11.64, 23.27] = [ 37.91,151.63] Ry
 Optimized for a Real-space Cutoff    1.14 Angstroem

   l    n(q)    QCUT    max X(q) W(low)/X(q) W(high)/X(q)  e(spline)
   0      8    11.635    20.381    0.10E-03    0.33E-03    0.24E-06
   0      8    11.635    15.268    0.11E-03    0.35E-03    0.26E-06
   1      7    11.635     5.964    0.24E-03    0.31E-03    0.30E-06
   1      7    11.635     5.382    0.22E-03    0.25E-03    0.26E-06
  PAW_PBE Cu 22Jun2005                  :
  PAW_PBE Mg_pv 13Apr2007               :
  PAW_PBE O 08Apr2002                   :

 POSCAR: Cu Mg  O
  positions in direct lattice
  velocities in cartesian coordinates
 exchange correlation table for  LEXCH =        8
   RHO(1)=    0.500       N(1)  =     2000
   RHO(2)=  100.500       N(2)  =     4000

 ion  position               nearest neighbor table
   1  0.400  0.421  0.593- 153 2.05   2 2.27  55 2.60
   2  0.401  0.506  0.657-   1 2.27   4 2.38   3 2.40
   3  0.401  0.614  0.691-   4 2.27   2 2.40
   4  0.400  0.594  0.590- 157 1.94   3 2.27   2 2.38
   5  0.000  0.000  0.407- 107 2.11 108 2.11 123 2.11 188 2.11 105 2.11
   6  0.100  0.100  0.407- 107 2.11 108 2.11 112 2.11 127 2.11 106 2.11
   7  0.000  0.100  0.503- 105 2.11 106 2.11 109 2.11 186 2.11 107 2.11
   8  0.100  0.000  0.503- 105 2.11 106 2.11 122 2.11 125 2.11 108 2.11
   9  0.000  0.200  0.407- 111 2.11 107 2.11 112 2.11 192 2.11 109 2.11
  10  0.100  0.300  0.407- 112 2.11 111 2.11 116 2.11 131 2.11 110 2.11
  11  0.000  0.300  0.503- 109 2.11 110 2.11 113 2.11 190 2.11 111 2.11
  12  0.100  0.200  0.503- 110 2.11 109 2.11 106 2.11 129 2.11 112 2.11
  13  0.000  0.400  0.407- 111 2.11 115 2.11 116 2.11 196 2.11 113 2.11
  14  0.100  0.500  0.407- 115 2.11 116 2.11 120 2.11 135 2.11 114 2.11
  15  0.000  0.500  0.503- 113 2.11 114 2.11 117 2.11 194 2.11 115 2.11
  16  0.100  0.400  0.503- 110 2.11 113 2.11 114 2.11 133 2.11 116 2.11
  17  0.000  0.600  0.407- 115 2.11 119 2.11 120 2.11 200 2.11 117 2.11
  18  0.100  0.700  0.407- 124 2.11 120 2.11 119 2.11 139 2.11 118 2.11
  19  0.000  0.700  0.503- 121 2.11 118 2.11 117 2.11 198 2.11 119 2.11
  20  0.100  0.600  0.503- 114 2.11 117 2.11 118 2.11 137 2.11 120 2.11
  21  0.000  0.800  0.407- 119 2.11 123 2.11 124 2.11 204 2.11 121 2.11
  22  0.100  0.900  0.407- 108 2.11 123 2.11 124 2.11 143 2.11 122 2.11
  23  0.000  0.900  0.503- 105 2.11 121 2.11 122 2.11 202 2.11 123 2.11
  24  0.100  0.800  0.503- 118 2.11 121 2.11 122 2.11 141 2.11 124 2.11
  25  0.200  0.000  0.407- 128 2.11 127 2.11 108 2.11 143 2.11 125 2.11
  26  0.300  0.100  0.407- 127 2.11 128 2.11 132 2.11 147 2.11 126 2.11
  27  0.200  0.100  0.503- 126 2.11 125 2.11 106 2.11 129 2.11 127 2.11
  28  0.300  0.000  0.503- 125 2.11 126 2.11 142 2.11 145 2.11 128 2.11
  29  0.200  0.200  0.407- 131 2.11 132 2.11 112 2.11 127 2.11 129 2.11
  30  0.300  0.300  0.407- 131 2.11 132 2.11 136 2.11 151 2.11 130 2.11
  31  0.200  0.300  0.503- 129 2.11 130 2.11 110 2.11 133 2.11 131 2.11
  32  0.300  0.200  0.503- 129 2.11 130 2.11 126 2.11 149 2.11 132 2.11
  33  0.200  0.400  0.407- 136 2.11 131 2.11 135 2.11 116 2.11 133 2.11
  34  0.300  0.500  0.407- 135 2.11 136 2.11 140 2.11 155 2.11 134 2.11
  35  0.200  0.500  0.503- 134 2.11 133 2.11 114 2.11 137 2.11 135 2.11
  36  0.300  0.400  0.503- 133 2.11 130 2.11 134 2.11 153 2.11 136 2.11
  37  0.200  0.600  0.407- 140 2.11 135 2.11 139 2.11 120 2.11 137 2.11
  38  0.300  0.700  0.407- 139 2.11 144 2.11 140 2.11 159 2.11 138 2.11
  39  0.200  0.700  0.503- 138 2.11 141 2.11 118 2.11 137 2.11 139 2.11
  40  0.300  0.600  0.503- 137 2.11 134 2.11 138 2.11 157 2.11 140 2.11
  41  0.200  0.800  0.407- 139 2.11 144 2.11 143 2.11 124 2.11 141 2.11
  42  0.300  0.900  0.407- 143 2.11 128 2.11 144 2.11 163 2.11 142 2.11
  43  0.200  0.900  0.503- 142 2.11 125 2.11 141 2.11 122 2.11 143 2.11
  44  0.300  0.800  0.503- 138 2.11 141 2.11 142 2.11 161 2.11 144 2.11
  45  0.400  0.000  0.407- 128 2.11 147 2.11 148 2.11 163 2.11 145 2.11
  46  0.500  0.100  0.407- 147 2.11 148 2.11 152 2.11 167 2.11 146 2.11
  47  0.400  0.100  0.503- 126 2.11 145 2.11 146 2.11 149 2.11 147 2.11
  48  0.500  0.000  0.503- 145 2.11 146 2.11 162 2.11 165 2.11 148 2.11
  49  0.400  0.200  0.407- 151 2.11 147 2.11 132 2.11 152 2.11 149 2.11
  50  0.500  0.300  0.407- 152 2.11 151 2.11 156 2.11 171 2.11 150 2.11
  51  0.400  0.300  0.503- 149 2.11 130 2.11 150 2.11 153 2.11 151 2.11
  52  0.500  0.200  0.503- 150 2.11 149 2.11 146 2.11 169 2.11 152 2.11
  53  0.400  0.400  0.407- 136 2.11 151 2.11 155 2.11 156 2.11 153 2.11
  54  0.500  0.500  0.407- 155 2.11 156 2.11 160 2.11 175 2.11 154 2.11
  55  0.400  0.500  0.503- 134 2.11 153 2.11 154 2.11 157 2.11 155 2.11   1 2.60
  56  0.500  0.400  0.503- 150 2.11 153 2.11 154 2.11 173 2.11 156 2.11
  57  0.400  0.600  0.407- 140 2.11 155 2.11 159 2.11 160 2.11 157 2.11
  58  0.500  0.700  0.407- 164 2.11 160 2.11 159 2.11 179 2.11 158 2.11
  59  0.400  0.700  0.503- 161 2.11 157 2.11 158 2.11 138 2.11 159 2.11
  60  0.500  0.600  0.503- 154 2.11 157 2.11 158 2.11 177 2.11 160 2.11
[...]
 190  0.900  0.300  0.503-  92 2.11  91 2.11  11 2.11  96 2.11  90 2.11
 191  0.800  0.300  0.407-  70 2.11  89 2.11  90 2.11  93 2.11  91 2.11
 192  0.900  0.200  0.407-  90 2.11  86 2.11  89 2.11   9 2.11  92 2.11
 193  0.800  0.400  0.503-  76 2.11  91 2.11  95 2.11  96 2.11  93 2.11
 194  0.900  0.500  0.503-  15 2.11  95 2.11  96 2.11 100 2.11  94 2.11
 195  0.800  0.500  0.407-  74 2.11  93 2.11  94 2.11  97 2.11  95 2.11
 196  0.900  0.400  0.407-  13 2.11  90 2.11  93 2.11  94 2.11  96 2.11
 197  0.800  0.600  0.503-  80 2.11  95 2.11  99 2.11 100 2.11  97 2.11
 198  0.900  0.700  0.503- 104 2.11  99 2.11 100 2.11  19 2.11  98 2.11
 199  0.800  0.700  0.407-  78 2.11 101 2.11  98 2.11  97 2.11  99 2.11
 200  0.900  0.600  0.407-  17 2.11  94 2.11  97 2.11  98 2.11 100 2.11
 201  0.800  0.800  0.503-  84 2.11  99 2.11 103 2.11 104 2.11 101 2.11
 202  0.900  0.900  0.503-  23 2.11  88 2.11 103 2.11 104 2.11 102 2.11
 203  0.800  0.900  0.407-  82 2.11  85 2.11 101 2.11 102 2.11 103 2.11
 204  0.900  0.800  0.407-  98 2.11  21 2.11 101 2.11 102 2.11 104 2.11

  LATTYP: Found a simple tetragonal cell.
 ALAT       =    21.1388521970
 C/A-ratio  =     1.0461251639

  Lattice vectors:

 A1 = (  21.1388521970,   0.0000000000,   0.0000000000)
 A2 = (   0.0000000000,  21.1388521970,   0.0000000000)
 A3 = (   0.0000000000,   0.0000000000,  22.1138852197)

Analysis of symmetry for initial positions (statically):
 Subroutine PRICEL returns:
 Original cell was already a primitive cell.

 Routine SETGRP: Setting up the symmetry group for a
 simple tetragonal supercell.

 Subroutine GETGRP returns: Found  1 space group operations
 (whereof  1 operations were pure point group operations)
 out of a pool of 16 trial point group operations.

The static configuration has the point symmetry C_1 .

Analysis of symmetry for dynamics (positions and initial velocities):
 Subroutine PRICEL returns:
 Original cell was already a primitive cell.

[...]

The dynamic configuration has the point symmetry C_1 .

Analysis of constrained symmetry for selective dynamics:
 Subroutine PRICEL returns:
 Original cell was already a primitive cell.

 Routine SETGRP: Setting up the symmetry group for a
 simple tetragonal supercell.

 Subroutine GETGRP returns: Found  1 space group operations
 (whereof  1 operations were pure point group operations)
 out of a pool of 16 trial point group operations.

The constrained configuration has the point symmetry C_1 .

 Subroutine INISYM returns: Found  1 space group operations
 (whereof  1 operations are pure point group operations),
 and found     1 'primitive' translations

                                     Primitive cell

  volume of cell :    9881.6133

[...]
     22     -47.1965      2.00000
     23     -47.1873      2.00000
     24     -47.1740      2.00000
     25     -47.1727      2.00000
     26     -47.1709      2.00000
     27     -47.1521      2.00000
     28     -47.1305      2.00000
     29     -47.1291      2.00000
     30     -47.1278      2.00000
     31     -47.1255      2.00000
     32     -47.1144      2.00000
     33     -47.1143      2.00000
     34     -47.1129      2.00000
     35     -47.1125      2.00000
     36     -47.1120      2.00000
     37     -47.1111      2.00000
     38     -47.1106      2.00000
     39     -47.1050      2.00000
     40     -47.1022      2.00000
     41     -47.0867      2.00000
     42     -47.0849      2.00000
     43     -47.0837      2.00000
     44     -47.0837      2.00000
     45     -47.0828      2.00000
     46     -47.0816      2.00000
     47     -47.0806      2.00000
     48     -47.0640      2.00000
     49     -47.0630      2.00000
     50     -47.0575      2.00000
     51     -47.0564      2.00000
     52     -47.0525      2.00000
     53     -47.0513      2.00000
     54     -47.0506      2.00000
     55     -47.0503      2.00000
     56     -47.0478      2.00000
     57     -47.0465      2.00000
     58     -47.0434      2.00000
     59     -47.0426      2.00000
     60     -47.0410      2.00000
[...]
   1010       7.2476      0.00000
   1011       7.3777      0.00000
   1012       7.4988      0.00000
   1013       7.5179      0.00000
   1014       7.5907      0.00000
   1015       7.6063      0.00000
   1016       7.7948      0.00000
   1017       7.7969      0.00000
   1018       7.8579      0.00000
   1019       7.9007      0.00000
   1020       7.9583      0.00000
   1021       7.9892      0.00000
   1022       8.0634      0.00000
   1023       8.1729      0.00000
   1024       8.2073      0.00000

 soft charge-density along one line, spin component           1
         0         1         2         3         4         5         6         7         8         9
 total charge-density along one line

------------------------ aborting loop because EDIFF is reached ----------------------------------------

 VOLUME and BASIS-vectors are now :
  energy-cutoff  :      520.00
  volume of cell :     9881.61
      direct lattice vectors                 reciprocal lattice vectors
    21.138852197  0.000000000  0.000000000     0.047306258  0.000000000  0.000000000
     0.000000000 21.138852197  0.000000000     0.000000000  0.047306258  0.000000000
     0.000000000  0.000000000 22.113885220     0.000000000  0.000000000  0.045220457

  length of vectors
    21.138852197 21.138852197 22.113885220     0.047306258  0.047306258  0.045220457

 FORCES acting on ions:
    Electron-Ion                     Ewald-Force                    Non-Local-Force
   0.145E+01 0.464E+03 -.201E+04   -.141E+01 -.456E+03 0.201E+04   -.414E-01 -.775E+01 -.690E+01
   -.175E+01 0.259E+03 -.217E+04   0.169E+01 -.262E+03 0.216E+04   0.509E-01 0.280E+01 0.776E+01
   -.278E+01 -.420E+03 -.212E+04   0.270E+01 0.413E+03 0.211E+04   0.784E-01 0.634E+01 0.121E+02
   0.286E+01 -.306E+03 -.175E+04   -.282E+01 0.306E+03 0.176E+04   -.462E-01 -.647E-01 -.592E+01
   0.744E+01 -.228E+01 0.937E+03   -.746E+01 0.229E+01 -.928E+03   0.139E-01 -.584E-02 -.711E+01
   0.138E+02 0.747E+01 0.940E+03   -.138E+02 -.748E+01 -.932E+03   0.292E-01 0.649E-02 -.712E+01
   0.982E+01 0.630E+01 -.919E+03   -.984E+01 -.629E+01 0.911E+03   0.123E-01 -.530E-02 0.704E+01
   0.159E+02 -.427E+01 -.917E+03   -.160E+02 0.429E+01 0.909E+03   0.172E-01 -.774E-02 0.704E+01
   0.105E+02 0.110E+02 0.940E+03   -.105E+02 -.110E+02 -.931E+03   0.237E-01 0.276E-02 -.712E+01
   0.281E+02 0.202E+02 0.952E+03   -.282E+02 -.203E+02 -.943E+03   0.876E-01 0.172E-01 -.714E+01
   0.198E+02 0.167E+02 -.915E+03   -.198E+02 -.167E+02 0.906E+03   0.146E-01 -.256E-02 0.703E+01
   0.257E+02 0.221E+02 -.913E+03   -.257E+02 -.221E+02 0.905E+03   0.408E-01 -.412E-02 0.703E+01
   0.188E+02 0.100E+02 0.947E+03   -.189E+02 -.100E+02 -.938E+03   0.394E-01 0.732E-02 -.713E+01
   0.436E+02 0.414E+01 0.964E+03   -.438E+02 -.416E+01 -.956E+03   0.129E+00 0.144E-01 -.716E+01
   0.305E+02 0.365E+01 -.909E+03   -.306E+02 -.366E+01 0.901E+03   0.142E-01 0.752E-02 0.703E+01
   0.589E+02 0.237E+02 -.898E+03   -.590E+02 -.237E+02 0.890E+03   0.313E-01 0.138E-02 0.700E+01
   0.204E+02 -.594E+01 0.948E+03   -.205E+02 0.593E+01 -.940E+03   0.493E-01 0.386E-02 -.713E+01
   0.332E+02 -.189E+02 0.957E+03   -.334E+02 0.189E+02 -.948E+03   0.115E+00 -.161E-01 -.714E+01
   0.238E+02 -.153E+02 -.912E+03   -.239E+02 0.153E+02 0.904E+03   0.251E-01 0.514E-02 0.703E+01
   0.666E+02 -.145E+02 -.894E+03   -.667E+02 0.144E+02 0.885E+03   0.704E-01 0.176E-01 0.700E+01
   0.125E+02 -.128E+02 0.942E+03   -.126E+02 0.128E+02 -.933E+03   0.308E-01 -.809E-02 -.712E+01
   0.160E+02 -.130E+02 0.942E+03   -.160E+02 0.130E+02 -.934E+03   0.345E-01 -.220E-01 -.712E+01
   0.116E+02 -.114E+02 -.918E+03   -.116E+02 0.114E+02 0.910E+03   0.149E-01 -.481E-02 0.704E+01
   0.332E+02 -.271E+02 -.909E+03   -.333E+02 0.271E+02 0.900E+03   0.521E-01 -.703E-02 0.703E+01
   0.137E+02 -.439E+01 0.943E+03   -.138E+02 0.441E+01 -.935E+03   0.246E-01 -.115E-01 -.712E+01
   0.102E+02 0.154E+02 0.949E+03   -.102E+02 -.155E+02 -.940E+03   0.231E-01 0.582E-01 -.713E+01
   0.197E+02 0.157E+02 -.913E+03   -.198E+02 -.157E+02 0.905E+03   0.243E-01 0.174E-01 0.703E+01
   0.118E+02 -.866E+01 -.911E+03   -.118E+02 0.867E+01 0.902E+03   0.110E-01 -.624E-02 0.703E+01
   0.226E+02 0.257E+02 0.953E+03   -.228E+02 -.257E+02 -.944E+03   0.742E-01 0.579E-01 -.713E+01
   0.309E+02 0.526E+02 0.993E+03   -.312E+02 -.530E+02 -.984E+03   0.191E+00 0.223E+00 -.712E+01
   0.624E+02 0.559E+02 -.888E+03   -.627E+02 -.559E+02 0.880E+03   0.187E+00 -.221E-01 0.698E+01
   0.267E+02 0.610E+02 -.895E+03   -.268E+02 -.612E+02 0.887E+03   0.393E-01 0.157E+00 0.701E+01
   0.539E+02 0.279E+02 0.988E+03   -.543E+02 -.279E+02 -.979E+03   0.304E+00 0.514E-01 -.725E+01
   0.605E+02 0.107E+02 0.106E+04   -.612E+02 -.108E+02 -.105E+04   0.419E+00 0.856E-01 -.732E+01
   0.129E+03 0.134E+02 -.845E+03   -.129E+03 -.135E+02 0.837E+03   0.164E+00 0.365E-01 0.690E+01
   0.157E+03 0.108E+03 -.749E+03   -.160E+03 -.107E+03 0.741E+03   0.141E+01 -.359E-01 0.643E+01
   0.600E+02 -.181E+02 0.996E+03   -.605E+02 0.181E+02 -.987E+03   0.395E+00 -.126E-01 -.725E+01
   0.385E+02 -.528E+02 0.101E+04   -.389E+02 0.532E+02 -.100E+04   0.271E+00 -.278E+00 -.712E+01
   0.818E+02 -.570E+02 -.872E+03   -.822E+02 0.570E+02 0.863E+03   0.244E+00 0.599E-02 0.698E+01
   0.186E+03 -.721E+02 -.706E+03   -.189E+03 0.720E+02 0.698E+03   0.212E+01 0.600E-01 0.669E+01
   0.285E+02 -.310E+02 0.961E+03   -.286E+02 0.311E+02 -.952E+03   0.952E-01 -.846E-01 -.713E+01
   0.124E+02 -.263E+02 0.955E+03   -.124E+02 0.264E+02 -.946E+03   0.246E-01 -.962E-01 -.714E+01
   0.248E+02 -.284E+02 -.909E+03   -.248E+02 0.284E+02 0.900E+03   0.220E-01 -.394E-01 0.703E+01
   0.387E+02 -.816E+02 -.875E+03   -.387E+02 0.819E+02 0.867E+03   0.118E-01 -.230E+00 0.698E+01
   0.453E-01 -.620E+01 0.948E+03   -.449E-01 0.622E+01 -.940E+03   -.290E-03 -.132E-01 -.713E+01
   -.101E+02 0.154E+02 0.949E+03   0.102E+02 -.155E+02 -.941E+03   -.236E-01 0.579E-01 -.713E+01
   0.639E-01 0.261E+02 -.908E+03   -.634E-01 -.262E+02 0.899E+03   -.370E-03 0.581E-01 0.703E+01
   -.117E+02 -.869E+01 -.911E+03   0.117E+02 0.870E+01 0.902E+03   -.115E-01 -.613E-02 0.703E+01
   0.734E-01 0.422E+02 0.968E+03   -.727E-01 -.426E+02 -.959E+03   -.531E-03 0.252E+00 -.717E+01
   -.307E+02 0.528E+02 0.993E+03   0.310E+02 -.531E+02 -.985E+03   -.193E+00 0.222E+00 -.712E+01
   0.338E+00 0.159E+03 -.812E+03   -.335E+00 -.161E+03 0.803E+03   -.186E-02 0.141E+01 0.701E+01
   -.266E+02 0.611E+02 -.895E+03   0.266E+02 -.613E+02 0.887E+03   -.403E-01 0.156E+00 0.701E+01
   0.237E+00 0.551E+02 0.107E+04   -.235E+00 -.555E+02 -.106E+04   -.169E-02 0.318E+00 -.563E+01
   -.603E+02 0.108E+02 0.106E+04   0.609E+02 -.109E+02 -.105E+04   -.421E+00 0.852E-01 -.732E+01
   0.128E+01 0.259E+02 -.514E+03   -.127E+01 -.271E+02 0.509E+03   -.691E-02 0.923E+00 0.400E+01
   -.157E+03 0.108E+03 -.748E+03   0.160E+03 -.108E+03 0.740E+03   -.141E+01 -.399E-01 0.641E+01
   0.296E+00 -.378E+02 0.109E+04   -.293E+00 0.380E+02 -.108E+04   -.217E-02 -.173E+00 -.484E+01
   -.383E+02 -.529E+02 0.101E+04   0.387E+02 0.534E+02 -.100E+04   -.272E+00 -.277E+00 -.712E+01
   0.621E+00 -.187E+03 -.742E+03   -.616E+00 0.190E+03 0.734E+03   -.380E-02 -.205E+01 0.657E+01
   -.186E+03 -.725E+02 -.704E+03   0.189E+03 0.724E+02 0.696E+03   -.212E+01 0.611E-01 0.668E+01
[...]
   -.110E+02 0.981E+01 0.708E+03   0.110E+02 -.982E+01 -.712E+03   -.254E-01 0.646E-02 0.305E+01
   -.348E-01 0.694E+01 0.705E+03   0.344E-01 -.694E+01 -.709E+03   0.385E-03 0.100E-02 0.306E+01
   -.201E+02 0.992E+01 -.685E+03   0.201E+02 -.992E+01 0.689E+03   -.145E-01 0.220E-02 -.319E+01
   -.101E+00 0.216E+01 -.686E+03   0.100E+00 -.216E+01 0.690E+03   0.784E-03 0.694E-02 -.318E+01
   -.161E+02 0.200E+01 0.713E+03   0.161E+02 -.201E+01 -.717E+03   -.334E-01 0.927E-02 0.304E+01
   -.612E-01 0.621E+01 0.708E+03   0.606E-01 -.621E+01 -.712E+03   0.647E-03 0.575E-02 0.305E+01
   -.223E+02 -.577E+01 -.683E+03   0.223E+02 0.576E+01 0.687E+03   -.211E-01 0.106E-01 -.319E+01
   -.855E-01 -.906E+01 -.687E+03   0.850E-01 0.906E+01 0.691E+03   0.635E-03 0.428E-02 -.317E+01
   -.128E+02 -.891E+01 0.710E+03   0.129E+02 0.891E+01 -.714E+03   -.338E-01 -.468E-02 0.305E+01
   -.701E-01 -.360E+01 0.709E+03   0.695E-01 0.360E+01 -.713E+03   0.684E-03 0.453E-02 0.305E+01
   -.128E+02 -.123E+02 -.688E+03   0.128E+02 0.123E+02 0.692E+03   -.196E-01 -.370E-02 -.317E+01
   -.444E-01 -.707E+01 -.690E+03   0.441E-01 0.708E+01 0.695E+03   0.347E-03 -.464E-02 -.316E+01
   -.686E+01 -.675E+01 0.705E+03   0.687E+01 0.676E+01 -.709E+03   -.189E-01 -.111E-01 0.306E+01
   -.463E-01 -.805E+01 0.706E+03   0.459E-01 0.805E+01 -.710E+03   0.437E-03 -.587E-02 0.306E+01
   -.923E-01 -.203E+01 -.368E+01   0.165E-11 0.682E-12 0.364E-11   0.822E-01 0.179E+01 0.325E+01

 POSITION                                       TOTAL-FORCE (eV/Angst)
      8.46039      8.90641     13.11119        -0.004605     -0.137440     -0.004758
      8.46878     10.69052     14.51992        -0.002147     -0.062183      0.148134
      8.47353     12.97033     15.28534         0.000822      0.194738      0.235034
      8.46080     12.56080     13.05418        -0.005385      0.008488     -0.100796
      0.00000      0.00000      9.00000        -0.004452      0.001888      0.560438
      2.11389      2.11389      9.00000        -0.009386     -0.002178      0.561445
      0.00000      2.11389     11.11389        -0.003778      0.001714     -0.532600
      2.11389      0.00000     11.11389        -0.005505      0.002449     -0.531259
      0.00000      4.22777      9.00000        -0.007303     -0.000876      0.562176
      2.11389      6.34166      9.00000        -0.026629     -0.005361      0.568813
      0.00000      6.34166     11.11389        -0.003918      0.001030     -0.527311
      2.11389      4.22777     11.11389        -0.011951      0.001432     -0.524978
      0.00000      8.45554      9.00000        -0.012095     -0.002293      0.565256
      2.11389     10.56943      9.00000        -0.040058     -0.004933      0.574523
      0.00000     10.56943     11.11389        -0.003352     -0.002539     -0.523325
      2.11389      8.45554     11.11389        -0.005838      0.000283     -0.506649
      0.00000     12.68331      9.00000        -0.014985     -0.001402      0.565285
      2.11389     14.79720      9.00000        -0.035196      0.005325      0.568653
      0.00000     14.79720     11.11389        -0.007111     -0.001788     -0.527379
      2.11389     12.68331     11.11389        -0.017073     -0.006410     -0.507109
      0.00000     16.91108      9.00000        -0.009540      0.002659      0.562038
      2.11389     19.02497      9.00000        -0.011150      0.007157      0.561553
      0.00000     19.02497     11.11389        -0.004603      0.001573     -0.532563
      2.11389     16.91108     11.11389        -0.015311      0.002250     -0.524094
      4.22777      0.00000      9.00000        -0.008061      0.003573      0.562392
      6.34166      2.11389      9.00000        -0.007814     -0.017927      0.564440
      4.22777      2.11389     11.11389        -0.007787     -0.004811     -0.525939
      6.34166      0.00000     11.11389        -0.003543      0.001840     -0.525628
      4.22777      4.22777      9.00000        -0.024572     -0.019318      0.563693
      6.34166      6.34166      9.00000        -0.073542     -0.081709      0.543792
      4.22777      6.34166     11.11389        -0.051297      0.011155     -0.485872
      6.34166      4.22777     11.11389        -0.013202     -0.045203     -0.503308
      4.22777      8.45554      9.00000        -0.090515     -0.015243      0.593578
      6.34166     10.56943      9.00000        -0.163548     -0.032918      0.565848
      4.22777     10.56943     11.11389        -0.036296     -0.014995     -0.427769
      6.34166      8.45554     11.11389        -0.609147      0.035274     -0.376646
      4.22777     12.68331      9.00000        -0.115321      0.002394      0.593139
      6.34166     14.79720      9.00000        -0.103689      0.105607      0.536283
      4.22777     14.79720     11.11389        -0.067055     -0.003930     -0.480044
      6.34166     12.68331     11.11389        -0.905074     -0.026104     -0.521513
      4.22777     16.91108      9.00000        -0.031473      0.028041      0.564344
      6.34166     19.02497      9.00000        -0.008128      0.029349      0.567357
      4.22777     19.02497     11.11389        -0.007108      0.011398     -0.524063
      6.34166     16.91108     11.11389        -0.000752      0.060743     -0.479817
      8.45554      0.00000      9.00000         0.000119      0.004141      0.564204
     10.56943      2.11389      9.00000         0.008020     -0.017841      0.564432
      8.45554      2.11389     11.11389         0.000151     -0.015687     -0.520287
     10.56943      0.00000     11.11389         0.003746      0.001807     -0.525603
      8.45554      4.22777      9.00000         0.000204     -0.074583      0.570666
     10.56943      6.34166      9.00000         0.073980     -0.081420      0.544100
      8.45554      6.34166     11.11389         0.000653     -0.538348     -0.527294
     10.56943      4.22777     11.11389         0.013569     -0.044741     -0.503141
      8.45554      8.45554      9.00000         0.000618     -0.082941      0.181636
     10.56943     10.56943      9.00000         0.164304     -0.032792      0.566807
      8.45554     10.56943     11.11389         0.000919     -0.160332     -0.339912
     10.56943      8.45554     11.11389         0.613004      0.036060     -0.375660
      8.45554     12.68331      9.00000         0.000758      0.042094     -0.002294
     10.56943     14.79720      9.00000         0.104255      0.105329      0.536946
      8.45554     14.79720     11.11389         0.001326      0.829194     -0.426317
     10.56943     12.68331     11.11389         0.910702     -0.025992     -0.521288
[...]
     19.02497      6.34166     11.11389         0.000212     -0.000598      0.415505
     16.91108      6.34166      9.00000        -0.008395      0.002169     -0.450409
     19.02497      4.22777      9.00000         0.000148      0.000335     -0.447826
     16.91108      8.45554     11.11389        -0.004891      0.000734      0.409033
     19.02497     10.56943     11.11389         0.000281      0.002285      0.412893
     16.91108     10.56943      9.00000        -0.011005      0.003050     -0.452975
     19.02497      8.45554      9.00000         0.000239      0.001902     -0.450032
     16.91108     12.68331     11.11389        -0.007102      0.003487      0.409006
     19.02497     14.79720     11.11389         0.000232      0.001388      0.415503
     16.91108     14.79720      9.00000        -0.011158     -0.001575     -0.450326
     19.02497     12.68331      9.00000         0.000250      0.001481     -0.449929
     16.91108     16.91108     11.11389        -0.006485     -0.001267      0.415754
     19.02497     19.02497     11.11389         0.000138     -0.001549      0.419211
     16.91108     19.02497      9.00000        -0.006240     -0.003673     -0.447355
     19.02497     16.91108      9.00000         0.000165     -0.001942     -0.447772
    total drift:                               -0.004420      0.000355     -0.531889

  FREE ENERGIE OF THE ION-ELECTRON SYSTEM (eV)
  free  energy   TOTEN  =     -1429.37990694 eV

  energy  without entropy=    -1429.37990694  energy(sigma->0) =    -1429.37990694