 vasp.6.4.0 14Feb23 (build Jul 14 2023 13:46:40) complex

 executed on             LinuxIFC date 2023.08.26  01:59:39

 INCAR:
   SYSTEM = MgO-rocksalt
   ISMEAR = 0
   SIGMA = 0.05
   EDIFF = 1E-6
   ALGO = ALL
   ISTART = 0
   IBRION = -1
   NSW = 0
   ISYM = 2
   DIPOL = 0.5 0.5 0.5
   IDIPOL = 3
   LDIPOL = .TRUE.
   LHFCALC = .TRUE.
   GGA = PE
   IVDW = 11
   VDW_S6 = 1.0
   VDW_SR = 1.287
   VDW_S8 = 0.928
   ENCUT = 520
   PREC = Accurate
   LASPH = .TRUE.
   LREAL = Auto
   ISPIN = 1
   NELM = 200
   NELMIN = 8
   NCORE = 16
   KPAR = 1
   LWAVE = .FALSE.
   LCHARG = .FALSE.

 POTCAR:    PAW_PBE Au 04Oct2007
 POTCAR:    PAW_PBE Mg_pv 13Apr2007
 POTCAR:    PAW_PBE O 08Apr2002
|           W    W    AA    RRRRR   N    N  II  N    N   GGGG   !!!           |
|           W    W   A  A   R    R  NN   N  II  NN   N  G    G  !!!           |
|           W    W  A    A  R    R  N N  N  II  N N  N  G       !!!           |
|           W WW W  AAAAAA  RRRRR   N  N N  II  N  N N  G  GGG   !            |
|           WW  WW  A    A  R   R   N   NN  II  N   NN  G    G                |
|           W    W  A    A  R    R  N    N  II  N    N   GGGG   !!!           |
|     You have selected ISYM=2 for a HF type calculation. This will           |
|     symmetrize the charge density but not the exchange potential. I         |
|     suggest to use ISYM=3 instead. This uses symmetry to obtain the         |
|     orbitals at all k-points in the Brillouin zone, but does not apply      |
|     symmetry to the Hartree potential directly. The resultant charge        |
|     might have lower symmetry than the crystal but, at least, Hartree       |
|     and exchange are fully compatible.                                      |

   TITEL  = PAW_PBE Au 04Oct2007
   POMASS =  196.966; ZVAL   =   11.000    mass and valenz
   ENMAX  =  229.943; ENMIN  =  172.457 eV

   TITEL  = PAW_PBE Mg_pv 13Apr2007
   POMASS =   24.305; ZVAL   =    8.000    mass and valenz
   ENMAX  =  403.929; ENMIN  =  302.947 eV

   TITEL  = PAW_PBE O 08Apr2002
   POMASS =   16.000; ZVAL   =    6.000    mass and valenz
   ENMAX  =  400.000; ENMIN  =  300.000 eV

 Optimization of the real space projectors (new method)

 maximal supplied QI-value         = 15.12
 optimisation between [QCUT,QGAM] = [ 11.64, 23.28] = [ 37.95,151.78] Ry
 Optimized for a Real-space Cutoff    1.49 Angstroem

   l    n(q)    QCUT    max X(q) W(low)/X(q) W(high)/X(q)  e(spline)
   2      9    11.641    60.898    0.24E-03    0.10E-03    0.19E-06
   2      9    11.641    58.894    0.25E-03    0.10E-03    0.19E-06
   0     10    11.641   109.617    0.73E-04    0.33E-04    0.11E-06
   0     10    11.641    75.026    0.71E-04    0.32E-04    0.11E-06
   1     10    11.641    16.344    0.27E-04    0.97E-04    0.16E-06
   1     10    11.641    10.160    0.23E-04    0.77E-04    0.13E-06
 Optimization of the real space projectors (new method)

[...]

   l    n(q)    QCUT    max X(q) W(low)/X(q) W(high)/X(q)  e(spline)
   1      8    11.527     2.974    0.44E-04    0.56E-04    0.12E-06
   1      8    11.527     4.279    0.12E-03    0.12E-03    0.26E-06
   0      9    11.527    16.381    0.46E-04    0.64E-04    0.78E-07
   0      9    11.527     5.611    0.26E-04    0.43E-04    0.55E-07
   2      8    11.527     4.652    0.22E-03    0.72E-04    0.47E-07
 Optimization of the real space projectors (new method)

 maximal supplied QI-value         = 24.76
 optimisation between [QCUT,QGAM] = [ 11.64, 23.27] = [ 37.91,151.63] Ry
 Optimized for a Real-space Cutoff    1.14 Angstroem

   l    n(q)    QCUT    max X(q) W(low)/X(q) W(high)/X(q)  e(spline)
   0      8    11.635    20.381    0.10E-03    0.33E-03    0.24E-06
   0      8    11.635    15.268    0.11E-03    0.35E-03    0.26E-06
   1      7    11.635     5.964    0.24E-03    0.31E-03    0.30E-06
   1      7    11.635     5.382    0.22E-03    0.25E-03    0.26E-06
  PAW_PBE Au 04Oct2007                  :
  PAW_PBE Mg_pv 13Apr2007               :
  PAW_PBE O 08Apr2002                   :

 POSCAR: Au Mg  O
  positions in direct lattice
  velocities in cartesian coordinates
 exchange correlation table for  LEXCH =        8
   RHO(1)=    0.500       N(1)  =     2000
   RHO(2)=  100.500       N(2)  =     4000

 ion  position               nearest neighbor table
   1  0.290  0.507  0.638-   2 2.69   3 2.71
   2  0.397  0.442  0.618-   1 2.69   4 2.69 153 2.70   3 2.70  55 2.83
   3  0.397  0.569  0.609- 157 2.45   2 2.70   1 2.71   4 2.71  55 2.78
   4  0.505  0.506  0.637-   2 2.69   3 2.71
   5  0.000  0.000  0.407- 107 2.11 108 2.11 123 2.11 188 2.11 105 2.11
   6  0.100  0.100  0.407- 107 2.11 108 2.11 112 2.11 127 2.11 106 2.11
   7  0.000  0.100  0.503- 105 2.11 106 2.11 109 2.11 186 2.11 107 2.11
   8  0.100  0.000  0.503- 105 2.11 106 2.11 122 2.11 125 2.11 108 2.11
   9  0.000  0.200  0.407- 111 2.11 107 2.11 112 2.11 192 2.11 109 2.11
  10  0.100  0.300  0.407- 112 2.11 111 2.11 116 2.11 131 2.11 110 2.11
  11  0.000  0.300  0.503- 109 2.11 110 2.11 113 2.11 190 2.11 111 2.11
  12  0.100  0.200  0.503- 110 2.11 109 2.11 106 2.11 129 2.11 112 2.11
  13  0.000  0.400  0.407- 111 2.11 115 2.11 116 2.11 196 2.11 113 2.11
  14  0.100  0.500  0.407- 115 2.11 116 2.11 120 2.11 135 2.11 114 2.11
  15  0.000  0.500  0.503- 113 2.11 114 2.11 117 2.11 194 2.11 115 2.11
  16  0.100  0.400  0.503- 110 2.11 113 2.11 114 2.11 133 2.11 116 2.11
  17  0.000  0.600  0.407- 115 2.11 119 2.11 120 2.11 200 2.11 117 2.11
  18  0.100  0.700  0.407- 124 2.11 120 2.11 119 2.11 139 2.11 118 2.11
  19  0.000  0.700  0.503- 121 2.11 118 2.11 117 2.11 198 2.11 119 2.11
  20  0.100  0.600  0.503- 114 2.11 117 2.11 118 2.11 137 2.11 120 2.11
  21  0.000  0.800  0.407- 119 2.11 123 2.11 124 2.11 204 2.11 121 2.11
  22  0.100  0.900  0.407- 108 2.11 123 2.11 124 2.11 143 2.11 122 2.11
  23  0.000  0.900  0.503- 105 2.11 121 2.11 122 2.11 202 2.11 123 2.11
  24  0.100  0.800  0.503- 118 2.11 121 2.11 122 2.11 141 2.11 124 2.11
  25  0.200  0.000  0.407- 128 2.11 127 2.11 108 2.11 143 2.11 125 2.11
  26  0.300  0.100  0.407- 127 2.11 128 2.11 132 2.11 147 2.11 126 2.11
  27  0.200  0.100  0.503- 126 2.11 125 2.11 106 2.11 129 2.11 127 2.11
  28  0.300  0.000  0.503- 125 2.11 126 2.11 142 2.11 145 2.11 128 2.11
  29  0.200  0.200  0.407- 131 2.11 132 2.11 112 2.11 127 2.11 129 2.11
  30  0.300  0.300  0.407- 131 2.11 132 2.11 136 2.11 151 2.11 130 2.11
  31  0.200  0.300  0.503- 129 2.11 130 2.11 110 2.11 133 2.11 131 2.11
  32  0.300  0.200  0.503- 129 2.11 130 2.11 126 2.11 149 2.11 132 2.11
  33  0.200  0.400  0.407- 136 2.11 131 2.11 135 2.11 116 2.11 133 2.11
  34  0.300  0.500  0.407- 135 2.11 136 2.11 140 2.11 155 2.11 134 2.11
  35  0.200  0.500  0.503- 134 2.11 133 2.11 114 2.11 137 2.11 135 2.11
  36  0.300  0.400  0.503- 133 2.11 130 2.11 134 2.11 153 2.11 136 2.11
  37  0.200  0.600  0.407- 140 2.11 135 2.11 139 2.11 120 2.11 137 2.11
  38  0.300  0.700  0.407- 139 2.11 144 2.11 140 2.11 159 2.11 138 2.11
  39  0.200  0.700  0.503- 138 2.11 141 2.11 118 2.11 137 2.11 139 2.11
  40  0.300  0.600  0.503- 137 2.11 134 2.11 138 2.11 157 2.11 140 2.11
  41  0.200  0.800  0.407- 139 2.11 144 2.11 143 2.11 124 2.11 141 2.11
  42  0.300  0.900  0.407- 143 2.11 128 2.11 144 2.11 163 2.11 142 2.11
  43  0.200  0.900  0.503- 142 2.11 125 2.11 141 2.11 122 2.11 143 2.11
  44  0.300  0.800  0.503- 138 2.11 141 2.11 142 2.11 161 2.11 144 2.11
  45  0.400  0.000  0.407- 128 2.11 147 2.11 148 2.11 163 2.11 145 2.11
  46  0.500  0.100  0.407- 147 2.11 148 2.11 152 2.11 167 2.11 146 2.11
  47  0.400  0.100  0.503- 126 2.11 145 2.11 146 2.11 149 2.11 147 2.11
  48  0.500  0.000  0.503- 145 2.11 146 2.11 162 2.11 165 2.11 148 2.11
  49  0.400  0.200  0.407- 151 2.11 147 2.11 132 2.11 152 2.11 149 2.11
  50  0.500  0.300  0.407- 152 2.11 151 2.11 156 2.11 171 2.11 150 2.11
  51  0.400  0.300  0.503- 149 2.11 130 2.11 150 2.11 153 2.11 151 2.11
  52  0.500  0.200  0.503- 150 2.11 149 2.11 146 2.11 169 2.11 152 2.11
  53  0.400  0.400  0.407- 136 2.11 151 2.11 155 2.11 156 2.11 153 2.11
  54  0.500  0.500  0.407- 155 2.11 156 2.11 160 2.11 175 2.11 154 2.11
  55  0.400  0.500  0.503- 134 2.11 153 2.11 154 2.11 157 2.11 155 2.11   3 2.78   2 2.83
  56  0.500  0.400  0.503- 150 2.11 153 2.11 154 2.11 173 2.11 156 2.11
  57  0.400  0.600  0.407- 140 2.11 155 2.11 159 2.11 160 2.11 157 2.11
  58  0.500  0.700  0.407- 164 2.11 160 2.11 159 2.11 179 2.11 158 2.11
  59  0.400  0.700  0.503- 161 2.11 157 2.11 158 2.11 138 2.11 159 2.11
  60  0.500  0.600  0.503- 154 2.11 157 2.11 158 2.11 177 2.11 160 2.11
[...]
 190  0.900  0.300  0.503-  92 2.11  91 2.11  11 2.11  96 2.11  90 2.11
 191  0.800  0.300  0.407-  70 2.11  89 2.11  90 2.11  93 2.11  91 2.11
 192  0.900  0.200  0.407-  90 2.11  86 2.11  89 2.11   9 2.11  92 2.11
 193  0.800  0.400  0.503-  76 2.11  91 2.11  95 2.11  96 2.11  93 2.11
 194  0.900  0.500  0.503-  15 2.11  95 2.11  96 2.11 100 2.11  94 2.11
 195  0.800  0.500  0.407-  74 2.11  93 2.11  94 2.11  97 2.11  95 2.11
 196  0.900  0.400  0.407-  13 2.11  90 2.11  93 2.11  94 2.11  96 2.11
 197  0.800  0.600  0.503-  80 2.11  95 2.11  99 2.11 100 2.11  97 2.11
 198  0.900  0.700  0.503- 104 2.11  99 2.11 100 2.11  19 2.11  98 2.11
 199  0.800  0.700  0.407-  78 2.11 101 2.11  98 2.11  97 2.11  99 2.11
 200  0.900  0.600  0.407-  17 2.11  94 2.11  97 2.11  98 2.11 100 2.11
 201  0.800  0.800  0.503-  84 2.11  99 2.11 103 2.11 104 2.11 101 2.11
 202  0.900  0.900  0.503-  23 2.11  88 2.11 103 2.11 104 2.11 102 2.11
 203  0.800  0.900  0.407-  82 2.11  85 2.11 101 2.11 102 2.11 103 2.11
 204  0.900  0.800  0.407-  98 2.11  21 2.11 101 2.11 102 2.11 104 2.11

  LATTYP: Found a simple tetragonal cell.
 ALAT       =    21.1388521970
 C/A-ratio  =     1.0461251639

  Lattice vectors:

 A1 = (  21.1388521970,   0.0000000000,   0.0000000000)
 A2 = (   0.0000000000,  21.1388521970,   0.0000000000)
 A3 = (   0.0000000000,   0.0000000000,  22.1138852197)

Analysis of symmetry for initial positions (statically):
 Subroutine PRICEL returns:
 Original cell was already a primitive cell.

 Routine SETGRP: Setting up the symmetry group for a
 simple tetragonal supercell.

 Subroutine GETGRP returns: Found  1 space group operations
 (whereof  1 operations were pure point group operations)
 out of a pool of 16 trial point group operations.

The static configuration has the point symmetry C_1 .

Analysis of symmetry for dynamics (positions and initial velocities):
 Subroutine PRICEL returns:
 Original cell was already a primitive cell.

[...]

The dynamic configuration has the point symmetry C_1 .

Analysis of constrained symmetry for selective dynamics:
 Subroutine PRICEL returns:
 Original cell was already a primitive cell.

 Routine SETGRP: Setting up the symmetry group for a
 simple tetragonal supercell.

 Subroutine GETGRP returns: Found  1 space group operations
 (whereof  1 operations were pure point group operations)
 out of a pool of 16 trial point group operations.

The constrained configuration has the point symmetry C_1 .

 Subroutine INISYM returns: Found  1 space group operations
 (whereof  1 operations are pure point group operations),
[...]
     60     -46.9969      2.00000
[...]
    898       5.2725      0.00000
    899       5.3216      0.00000
    900       5.3619      0.00000
    901       5.4102      0.00000
    902       5.4319      0.00000
    903       5.4854      0.00000
    904       5.5305      0.00000
    905       5.6074      0.00000
    906       5.6854      0.00000
    907       5.7266      0.00000
    908       5.8619      0.00000
    909       5.8806      0.00000
    910       5.9489      0.00000
    911       6.0061      0.00000
    912       6.0812      0.00000

 soft charge-density along one line, spin component           1
         0         1         2         3         4         5         6         7         8         9
 total charge-density along one line

------------------------ aborting loop because EDIFF is reached ----------------------------------------

|           W    W    AA    RRRRR   N    N  II  N    N   GGGG   !!!           |
|           W    W   A  A   R    R  NN   N  II  NN   N  G    G  !!!           |
|           W    W  A    A  R    R  N N  N  II  N N  N  G       !!!           |
|           W WW W  AAAAAA  RRRRR   N  N N  II  N  N N  G  GGG   !            |
|           WW  WW  A    A  R   R   N   NN  II  N   NN  G    G                |
|           W    W  A    A  R    R  N    N  II  N    N   GGGG   !!!           |
|     Specifying the vdW parameters                                           |
|     VDW_S8 = 0.928                                                          |
|     VDW_SR = 1.287                                                          |
|     in the INCAR file will overwrite the defaults for pbe0. Please make     |
|     sure that is what you intended.                                         |

         DFTD3 V3.0 Rev 1
 IVDW         = 11
 DF pbe0
 parameters
 VDW_S6       =    1.0000
 VDW_S8       =    0.9280
 VDW_SR       =    1.2870
 rs18     =    1.0000
 alpha6   =   14.0000
 alpha8   =   16.0000
 k1-k3    =   16.0000    1.3333   -4.0000
 VDW_RADIUS   =   50.2022 A
 VDW_CNRADIUS =   21.1671 A
 Edisp (eV)  -22.37111

 E6    (eV) :    -6.7978
 E8    (eV) :   -15.5733
 % E8        : 69.61

 VOLUME and BASIS-vectors are now :
  energy-cutoff  :      520.00
  volume of cell :     9881.61
      direct lattice vectors                 reciprocal lattice vectors
    21.138852197  0.000000000  0.000000000     0.047306258  0.000000000  0.000000000
     0.000000000 21.138852197  0.000000000     0.000000000  0.047306258  0.000000000
     0.000000000  0.000000000 22.113885220     0.000000000  0.000000000  0.045220457

  length of vectors
    21.138852197 21.138852197 22.113885220     0.047306258  0.047306258  0.045220457

 FORCES acting on ions:
    Electron-Ion                     Ewald-Force                    Non-Local-Force
   0.485E+03 -.687E+01 -.207E+04   -.480E+03 0.671E+01 0.207E+04   -.511E+01 0.153E+00 0.904E+00
   0.185E+01 0.485E+03 -.204E+04   -.183E+01 -.480E+03 0.204E+04   -.505E-02 -.492E+01 -.655E+00
   -.141E+01 -.472E+03 -.203E+04   0.131E+01 0.468E+03 0.203E+04   0.118E+00 0.406E+01 -.816E+00
   -.485E+03 -.424E+01 -.207E+04   0.480E+03 0.406E+01 0.207E+04   0.513E+01 0.175E+00 0.774E+00
   0.664E+01 -.546E+00 0.937E+03   -.667E+01 0.554E+00 -.929E+03   0.185E-01 -.518E-02 -.711E+01
   0.127E+02 0.109E+02 0.941E+03   -.127E+02 -.109E+02 -.933E+03   0.370E-01 -.450E-02 -.711E+01
   0.954E+01 0.100E+02 -.919E+03   -.956E+01 -.100E+02 0.910E+03   0.182E-01 -.133E-01 0.705E+01
   0.135E+02 -.967E+00 -.918E+03   -.136E+02 0.979E+00 0.909E+03   0.318E-01 -.816E-02 0.705E+01
   0.107E+02 0.143E+02 0.942E+03   -.108E+02 -.143E+02 -.933E+03   0.241E-01 -.123E-01 -.712E+01
   0.288E+02 0.247E+02 0.957E+03   -.289E+02 -.247E+02 -.948E+03   0.794E-01 -.105E-01 -.714E+01
   0.227E+02 0.217E+02 -.911E+03   -.227E+02 -.216E+02 0.903E+03   0.111E-01 -.244E-01 0.704E+01
   0.259E+02 0.288E+02 -.911E+03   -.260E+02 -.288E+02 0.902E+03   0.530E-01 -.271E-01 0.704E+01
   0.211E+02 0.113E+02 0.952E+03   -.212E+02 -.112E+02 -.943E+03   0.262E-01 -.705E-02 -.713E+01
   0.468E+02 0.135E+01 0.975E+03   -.470E+02 -.137E+01 -.966E+03   0.962E-01 0.106E-01 -.718E+01
   0.376E+02 0.108E+01 -.903E+03   -.376E+02 -.108E+01 0.895E+03   -.230E-01 0.503E-02 0.703E+01
   0.704E+02 0.318E+02 -.885E+03   -.704E+02 -.317E+02 0.877E+03   0.434E-02 -.418E-01 0.700E+01
   0.217E+02 -.102E+02 0.952E+03   -.218E+02 0.101E+02 -.944E+03   0.330E-01 0.158E-01 -.713E+01
   0.305E+02 -.247E+02 0.959E+03   -.306E+02 0.246E+02 -.950E+03   0.109E+00 0.149E-01 -.714E+01
   0.240E+02 -.215E+02 -.911E+03   -.240E+02 0.215E+02 0.902E+03   0.187E-01 0.273E-01 0.704E+01
   0.738E+02 -.293E+02 -.883E+03   -.738E+02 0.292E+02 0.875E+03   0.167E-01 0.551E-01 0.699E+01
   0.113E+02 -.148E+02 0.942E+03   -.114E+02 0.148E+02 -.934E+03   0.323E-01 0.865E-02 -.712E+01
   0.132E+02 -.123E+02 0.942E+03   -.133E+02 0.123E+02 -.933E+03   0.455E-01 -.104E-01 -.711E+01
   0.996E+01 -.113E+02 -.918E+03   -.999E+01 0.112E+02 0.910E+03   0.223E-01 0.546E-02 0.705E+01
   0.278E+02 -.304E+02 -.910E+03   -.279E+02 0.304E+02 0.901E+03   0.735E-01 0.219E-01 0.704E+01
   0.113E+02 -.104E+01 0.943E+03   -.114E+02 0.106E+01 -.934E+03   0.373E-01 -.139E-01 -.711E+01
   0.857E+01 0.192E+02 0.949E+03   -.862E+01 -.193E+02 -.940E+03   0.311E-01 0.393E-01 -.711E+01
   0.175E+02 0.214E+02 -.913E+03   -.175E+02 -.214E+02 0.904E+03   0.421E-01 0.633E-02 0.704E+01
   0.901E+01 -.181E+01 -.913E+03   -.904E+01 0.184E+01 0.905E+03   0.247E-01 -.191E-01 0.705E+01
   0.208E+02 0.301E+02 0.955E+03   -.209E+02 -.302E+02 -.947E+03   0.796E-01 0.262E-01 -.712E+01
   0.250E+02 0.556E+02 0.995E+03   -.253E+02 -.558E+02 -.986E+03   0.174E+00 0.137E+00 -.708E+01
   0.597E+02 0.698E+02 -.878E+03   -.600E+02 -.697E+02 0.870E+03   0.193E+00 -.815E-01 0.700E+01
   0.218E+02 0.653E+02 -.893E+03   -.219E+02 -.655E+02 0.885E+03   0.647E-01 0.122E+00 0.704E+01
   0.520E+02 0.323E+02 0.100E+04   -.524E+02 -.323E+02 -.992E+03   0.250E+00 0.148E-01 -.724E+01
   0.490E+02 0.439E+01 0.107E+04   -.496E+02 -.452E+01 -.106E+04   0.355E+00 0.863E-01 -.737E+01
   0.150E+03 0.678E+01 -.785E+03   -.150E+03 -.679E+01 0.778E+03   0.116E+00 0.802E-02 0.656E+01
   0.109E+03 0.136E+03 -.728E+03   -.111E+03 -.136E+03 0.720E+03   0.103E+01 -.970E-01 0.657E+01
   0.544E+02 -.295E+02 0.100E+04   -.549E+02 0.294E+02 -.995E+03   0.333E+00 0.220E-01 -.726E+01
   0.273E+02 -.571E+02 0.100E+04   -.277E+02 0.574E+02 -.993E+03   0.245E+00 -.175E+00 -.706E+01
   0.656E+02 -.726E+02 -.874E+03   -.660E+02 0.725E+02 0.865E+03   0.279E+00 0.962E-01 0.699E+01
   0.123E+03 -.131E+03 -.704E+03   -.126E+03 0.131E+03 0.697E+03   0.158E+01 0.210E+00 0.634E+01
   0.223E+02 -.319E+02 0.957E+03   -.224E+02 0.320E+02 -.949E+03   0.109E+00 -.493E-01 -.711E+01
   0.904E+01 -.220E+02 0.950E+03   -.910E+01 0.221E+02 -.942E+03   0.392E-01 -.848E-01 -.712E+01
   0.185E+02 -.244E+02 -.912E+03   -.186E+02 0.244E+02 0.904E+03   0.522E-01 -.346E-01 0.704E+01
   0.243E+02 -.713E+02 -.890E+03   -.244E+02 0.716E+02 0.882E+03   0.873E-01 -.201E+00 0.704E+01
   -.227E+00 -.142E+01 0.946E+03   0.225E+00 0.145E+01 -.938E+03   0.951E-03 -.228E-01 -.711E+01
   -.897E+01 0.191E+02 0.949E+03   0.902E+01 -.191E+02 -.940E+03   -.296E-01 0.395E-01 -.711E+01
   -.362E+00 0.311E+02 -.908E+03   0.360E+00 -.312E+02 0.900E+03   0.931E-03 0.560E-01 0.705E+01
   -.945E+01 -.177E+01 -.913E+03   0.948E+01 0.180E+01 0.905E+03   -.230E-01 -.198E-01 0.705E+01
   -.437E+00 0.440E+02 0.967E+03   0.435E+00 -.443E+02 -.959E+03   0.121E-02 0.194E+00 -.713E+01
   -.260E+02 0.549E+02 0.994E+03   0.262E+02 -.551E+02 -.986E+03   -.169E+00 0.145E+00 -.709E+01
   -.181E+01 0.139E+03 -.826E+03   0.180E+01 -.141E+03 0.817E+03   0.642E-03 0.921E+00 0.713E+01
   -.227E+02 0.644E+02 -.894E+03   0.228E+02 -.645E+02 0.885E+03   -.624E-01 0.122E+00 0.704E+01
   -.131E+01 0.563E+02 0.106E+04   0.129E+01 -.566E+02 -.105E+04   0.125E-01 0.201E+00 -.597E+01
   -.508E+02 0.423E+01 0.107E+04   0.513E+02 -.436E+01 -.106E+04   -.347E+00 0.870E-01 -.735E+01
   -.600E+01 0.230E+02 -.505E+03   0.598E+01 -.240E+02 0.499E+03   0.350E-01 0.604E+00 0.482E+01
   -.111E+03 0.133E+03 -.734E+03   0.112E+03 -.133E+03 0.726E+03   -.102E+01 -.705E-01 0.660E+01
   -.148E+01 -.517E+02 0.107E+04   0.146E+01 0.518E+02 -.106E+04   0.153E-01 -.817E-01 -.529E+01
   -.285E+02 -.563E+02 0.100E+04   0.288E+02 0.566E+02 -.991E+03   -.239E+00 -.183E+00 -.706E+01
   -.232E+01 -.154E+03 -.810E+03   0.231E+01 0.156E+03 0.801E+03   0.667E-02 -.144E+01 0.718E+01
   -.125E+03 -.128E+03 -.712E+03   0.127E+03 0.128E+03 0.705E+03   -.157E+01 0.188E+00 0.642E+01
[...]
   -.112E+02 0.118E+02 0.711E+03   0.113E+02 -.118E+02 -.715E+03   -.257E-01 -.113E-01 0.306E+01
   0.224E+00 0.909E+01 0.706E+03   -.223E+00 -.908E+01 -.710E+03   -.165E-02 -.123E-01 0.306E+01
   -.229E+02 0.115E+02 -.681E+03   0.229E+02 -.115E+02 0.685E+03   -.757E-02 -.173E-01 -.319E+01
   0.721E+00 0.567E+00 -.684E+03   -.717E+00 -.571E+00 0.688E+03   -.481E-02 0.489E-02 -.318E+01
   -.169E+02 0.543E+00 0.716E+03   0.169E+02 -.550E+00 -.720E+03   -.236E-01 0.727E-02 0.304E+01
   0.422E+00 0.675E+01 0.711E+03   -.419E+00 -.674E+01 -.715E+03   -.359E-02 -.668E-02 0.305E+01
   -.237E+02 -.105E+02 -.681E+03   0.237E+02 0.105E+02 0.685E+03   -.130E-01 0.277E-01 -.319E+01
   0.498E+00 -.125E+02 -.687E+03   -.495E+00 0.125E+02 0.691E+03   -.358E-02 0.227E-01 -.317E+01
   -.118E+02 -.117E+02 0.711E+03   0.118E+02 0.117E+02 -.715E+03   -.344E-01 0.144E-01 0.306E+01
   0.443E+00 -.609E+01 0.711E+03   -.440E+00 0.608E+01 -.715E+03   -.402E-02 0.149E-01 0.305E+01
   -.108E+02 -.142E+02 -.688E+03   0.109E+02 0.142E+02 0.692E+03   -.263E-01 0.131E-01 -.316E+01
   0.221E+00 -.709E+01 -.691E+03   -.220E+00 0.708E+01 0.695E+03   -.154E-02 0.411E-02 -.315E+01
   -.562E+01 -.656E+01 0.705E+03   0.564E+01 0.656E+01 -.709E+03   -.258E-01 -.289E-02 0.307E+01
   0.247E+00 -.939E+01 0.706E+03   -.245E+00 0.939E+01 -.710E+03   -.216E-02 0.886E-02 0.306E+01
   0.467E-01 0.910E+00 0.117E+02   0.431E-11 -.205E-11 -.739E-11   -.140E-01 -.819E+00 -.106E+02

 POSITION                                       TOTAL-FORCE (eV/Angst)
      6.12143     10.70919     14.10279        -0.055163     -0.011756     -0.214007
      8.38943      9.33976     13.66282         0.027040     -0.059858     -0.037392
      8.39418     12.03706     13.47256         0.020016      0.040130     -0.007052
     10.67333     10.69253     14.07734         0.066509     -0.017289     -0.214020
      0.00000      0.00000      9.00000        -0.005912      0.001668      0.557985
      2.11389      2.11389      9.00000        -0.011859      0.001371      0.558250
      0.00000      2.11389     11.11389        -0.005640      0.004321     -0.534320
      2.11389      0.00000     11.11389        -0.010205      0.002578     -0.533745
      0.00000      4.22777      9.00000        -0.007317      0.004083      0.559881
      2.11389      6.34166      9.00000        -0.023118      0.004401      0.567694
      0.00000      6.34166     11.11389        -0.002255      0.008617     -0.528612
      2.11389      4.22777     11.11389        -0.015581      0.009297     -0.528669
      0.00000      8.45554      9.00000        -0.007398      0.002793      0.565168
      2.11389     10.56943      9.00000        -0.026982     -0.003433      0.582256
      0.00000     10.56943     11.11389         0.010185     -0.001591     -0.521132
      2.11389      8.45554     11.11389         0.014312      0.021741     -0.494860
      0.00000     12.68331      9.00000        -0.009430     -0.005689      0.565370
      2.11389     14.79720      9.00000        -0.031897     -0.005876      0.568613
      0.00000     14.79720     11.11389        -0.004381     -0.009620     -0.527876
      2.11389     12.68331     11.11389         0.012140     -0.026315     -0.491891
      0.00000     16.91108      9.00000        -0.009825     -0.002930      0.560115
      2.11389     19.02497      9.00000        -0.014591      0.003440      0.558087
      0.00000     19.02497     11.11389        -0.006907     -0.001779     -0.534006
      2.11389     16.91108     11.11389        -0.021621     -0.007664     -0.527287
      4.22777      0.00000      9.00000        -0.012273      0.004372      0.557851
      6.34166      2.11389      9.00000        -0.010505     -0.011792      0.558295
      4.22777      2.11389     11.11389        -0.013617     -0.001324     -0.531387
      6.34166      0.00000     11.11389        -0.008186      0.005857     -0.532005
      4.22777      4.22777      9.00000        -0.025829     -0.008636      0.558772
      6.34166      6.34166      9.00000        -0.062461     -0.045867      0.546418
      4.22777      6.34166     11.11389        -0.046673      0.041164     -0.490864
      6.34166      4.22777     11.11389        -0.021133     -0.031551     -0.522260
      4.22777      8.45554      9.00000        -0.069067      0.000847      0.600747
      6.34166     10.56943      9.00000        -0.121986     -0.030031      0.604174
      4.22777     10.56943     11.11389         0.034574      0.001173     -0.264641
      6.34166      8.45554     11.11389        -0.393865      0.127317     -0.268203
      4.22777     12.68331      9.00000        -0.091770     -0.013021      0.605541
      6.34166     14.79720      9.00000        -0.088355      0.060774      0.533771
      4.22777     14.79720     11.11389        -0.067246     -0.049672     -0.478777
      6.34166     12.68331     11.11389        -0.670101     -0.120562     -0.309914
      4.22777     16.91108      9.00000        -0.035412      0.016340      0.557801
      6.34166     19.02497      9.00000        -0.013231      0.025878      0.558189
      4.22777     19.02497     11.11389        -0.016858      0.009958     -0.530254
      6.34166     16.91108     11.11389        -0.027999      0.053270     -0.516983
      8.45554      0.00000      9.00000        -0.000327      0.007051      0.558104
     10.56943      2.11389      9.00000         0.009965     -0.011872      0.558246
      8.45554      2.11389     11.11389        -0.000317     -0.015299     -0.530445
     10.56943      0.00000     11.11389         0.007626      0.006051     -0.532010
      8.45554      4.22777      9.00000        -0.000412     -0.055303      0.560482
     10.56943      6.34166      9.00000         0.060955     -0.048738      0.547261
      8.45554      6.34166     11.11389        -0.001088     -0.254408     -0.496557
     10.56943      4.22777     11.11389         0.020333     -0.031443     -0.522231
      8.45554      8.45554      9.00000        -0.005287     -0.035451      0.282539
     10.56943     10.56943      9.00000         0.119634     -0.030373      0.596084
      8.45554     10.56943     11.11389         0.015718     -0.286249     -0.692172
     10.56943      8.45554     11.11389         0.349527      0.129269     -0.228510
      8.45554     12.68331      9.00000        -0.006450      0.000990      0.114948
     10.56943     14.79720      9.00000         0.086238      0.063986      0.533473
      8.45554     14.79720     11.11389        -0.003337      0.443152     -0.519094
     10.56943     12.68331     11.11389         0.622875     -0.120293     -0.288303
[...]
     19.02497      6.34166     11.11389        -0.000961     -0.006597      0.389982
     16.91108      6.34166      9.00000        -0.008607     -0.003726     -0.421711
     19.02497      4.22777      9.00000        -0.000551     -0.004089     -0.419060
     16.91108      8.45554     11.11389        -0.002969     -0.005629      0.382927
     19.02497     10.56943     11.11389        -0.001595      0.001605      0.386410
     16.91108     10.56943      9.00000        -0.008050      0.002395     -0.426345
     19.02497      8.45554      9.00000        -0.001193     -0.002251     -0.422263
     16.91108     12.68331     11.11389        -0.004810      0.009055      0.382385
     19.02497     14.79720     11.11389        -0.001189      0.007476      0.389475
     16.91108     14.79720      9.00000        -0.011487      0.004705     -0.421729
     19.02497     12.68331      9.00000        -0.001338      0.004946     -0.422281
     16.91108     16.91108     11.11389        -0.008833      0.004276      0.390639
     19.02497     19.02497     11.11389        -0.000520      0.001322      0.393736
     16.91108     19.02497      9.00000        -0.008571     -0.000972     -0.418081
     19.02497     16.91108      9.00000        -0.000725      0.002924     -0.419076
    total drift:                                0.001822      0.002608     -0.522717

  FREE ENERGIE OF THE ION-ELECTRON SYSTEM (eV)
  free  energy   TOTEN  =     -1450.80521895 eV

  energy  without entropy=    -1450.80521895  energy(sigma->0) =    -1450.80521895