 vasp.6.3.0 20Jan22 (build Apr  1 2022 16:44:48) complex
 executed on        HPECrayEX_GCC date 2023.01.17  00:23:37

 INCAR:
   SYSTEM = MgO-rocksalt
   ISMEAR = 0
   SIGMA = 0.05
   EDIFF = 1E-6
   ALGO = ALL
   ISTART = 0
   IBRION = -1
   NSW = 0
   ISYM = 2
   DIPOL = 0.5 0.5 0.5
   IDIPOL = 3
   LDIPOL = .TRUE.
   LHFCALC = .TRUE.
   GGA = B5
   AEXX = 0.2
   AGGAX = 0.72
   AGGAC = 0.81
   ALDAC = 0.19
   ENCUT = 520
   PREC = Accurate
   LASPH = .TRUE.
   LREAL = Auto
   ISPIN = 1
   NELM = 200
   NELMIN = 8
   NCORE = 4
   KPAR = 2
   LWAVE = .FALSE.
   LCHARG = .FALSE.

 POTCAR:    PAW_PBE Cu 22Jun2005
 POTCAR:    PAW_PBE Mg_pv 13Apr2007
 POTCAR:    PAW_PBE O 08Apr2002
|           W    W    AA    RRRRR   N    N  II  N    N   GGGG   !!!           |
|           W    W   A  A   R    R  NN   N  II  NN   N  G    G  !!!           |
|           W    W  A    A  R    R  N N  N  II  N N  N  G       !!!           |
|           W WW W  AAAAAA  RRRRR   N  N N  II  N  N N  G  GGG   !            |
|           WW  WW  A    A  R   R   N   NN  II  N   NN  G    G                |
|           W    W  A    A  R    R  N    N  II  N    N   GGGG   !!!           |
|     You have selected ISYM=2 for a HF type calculation. This will           |
|     symmetrize the charge density but not the exchange potential. I         |
|     suggest to use ISYM=3 instead. This uses symmetry to obtain the         |
|     orbitals at all k-points in the Brillouin zone, but does not apply      |
|     symmetry to the Hartree potential directly. The resultant charge        |
|     might have lower symmetry than the crystal but, at least, Hartree       |
|     and exchange are fully compatible.                                      |

   TITEL  = PAW_PBE Cu 22Jun2005
   POMASS =   63.546; ZVAL   =   11.000    mass and valenz
   ENMAX  =  295.446; ENMIN  =  221.585 eV

   TITEL  = PAW_PBE Mg_pv 13Apr2007
   POMASS =   24.305; ZVAL   =    8.000    mass and valenz
   ENMAX  =  403.929; ENMIN  =  302.947 eV

   TITEL  = PAW_PBE O 08Apr2002
   POMASS =   16.000; ZVAL   =    6.000    mass and valenz
   ENMAX  =  400.000; ENMIN  =  300.000 eV

 Optimization of the real space projectors (new method)

 maximal supplied QI-value         = 16.25
 optimisation between [QCUT,QGAM] = [ 11.54, 23.24] = [ 37.28,151.24] Ry
 Optimized for a Real-space Cutoff    1.53 Angstroem

   l    n(q)    QCUT    max X(q) W(low)/X(q) W(high)/X(q)  e(spline)
   2     10    11.539     4.610    0.96E-04    0.13E-03    0.19E-06
   2     10    11.539     8.522    0.16E-03    0.21E-03    0.28E-06
   0     11    11.539    51.609    0.45E-04    0.31E-04    0.11E-06
   0     11    11.539    27.747    0.39E-04    0.29E-04    0.10E-06
   1     10    11.539    20.408    0.70E-05    0.38E-04    0.18E-06
   1     10    11.539    13.425    0.66E-05    0.34E-04    0.17E-06
 Optimization of the real space projectors (new method)

[...]

   l    n(q)    QCUT    max X(q) W(low)/X(q) W(high)/X(q)  e(spline)
   1      8    11.527     2.974    0.44E-04    0.56E-04    0.12E-06
   1      8    11.527     4.279    0.12E-03    0.12E-03    0.26E-06
   0      9    11.527    16.381    0.46E-04    0.64E-04    0.78E-07
   0      9    11.527     5.611    0.26E-04    0.43E-04    0.55E-07
   2      8    11.527     4.652    0.22E-03    0.72E-04    0.47E-07
 Optimization of the real space projectors (new method)

 maximal supplied QI-value         = 24.76
 optimisation between [QCUT,QGAM] = [ 11.64, 23.27] = [ 37.91,151.63] Ry
 Optimized for a Real-space Cutoff    1.14 Angstroem

   l    n(q)    QCUT    max X(q) W(low)/X(q) W(high)/X(q)  e(spline)
   0      8    11.635    20.381    0.10E-03    0.33E-03    0.24E-06
   0      8    11.635    15.268    0.11E-03    0.35E-03    0.26E-06
   1      7    11.635     5.964    0.24E-03    0.31E-03    0.30E-06
   1      7    11.635     5.382    0.22E-03    0.25E-03    0.26E-06
|               ----> ADVICE to this user running VASP <----                  |
|     You enforced a specific xc type in the INCAR file but a different       |
|     type was found in the POTCAR file.                                      |
|     I HOPE YOU KNOW WHAT YOU ARE DOING!                                     |

  PAW_PBE Cu 22Jun2005                  :
  PAW_PBE Mg_pv 13Apr2007               :
  PAW_PBE O 08Apr2002                   :

 POSCAR: Cu Mg  O
  positions in direct lattice
  velocities in cartesian coordinates
 exchange correlation table for  LEXCH =       12
   RHO(1)=    0.500       N(1)  =     2000
   RHO(2)=  100.500       N(2)  =     4000

 ion  position               nearest neighbor table
   1  0.400  0.421  0.593- 153 2.05   2 2.27  55 2.60
   2  0.401  0.506  0.657-   1 2.27   4 2.38   3 2.40
   3  0.401  0.614  0.691-   4 2.27   2 2.40
   4  0.400  0.594  0.590- 157 1.94   3 2.27   2 2.38
   5  0.000  0.000  0.407- 107 2.11 108 2.11 123 2.11 188 2.11 105 2.11
   6  0.100  0.100  0.407- 107 2.11 108 2.11 112 2.11 127 2.11 106 2.11
   7  0.000  0.100  0.503- 105 2.11 106 2.11 109 2.11 186 2.11 107 2.11
   8  0.100  0.000  0.503- 105 2.11 106 2.11 122 2.11 125 2.11 108 2.11
   9  0.000  0.200  0.407- 111 2.11 107 2.11 112 2.11 192 2.11 109 2.11
  10  0.100  0.300  0.407- 112 2.11 111 2.11 116 2.11 131 2.11 110 2.11
  11  0.000  0.300  0.503- 109 2.11 110 2.11 113 2.11 190 2.11 111 2.11
  12  0.100  0.200  0.503- 110 2.11 109 2.11 106 2.11 129 2.11 112 2.11
  13  0.000  0.400  0.407- 111 2.11 115 2.11 116 2.11 196 2.11 113 2.11
  14  0.100  0.500  0.407- 115 2.11 116 2.11 120 2.11 135 2.11 114 2.11
  15  0.000  0.500  0.503- 113 2.11 114 2.11 117 2.11 194 2.11 115 2.11
  16  0.100  0.400  0.503- 110 2.11 113 2.11 114 2.11 133 2.11 116 2.11
  17  0.000  0.600  0.407- 115 2.11 119 2.11 120 2.11 200 2.11 117 2.11
  18  0.100  0.700  0.407- 124 2.11 120 2.11 119 2.11 139 2.11 118 2.11
  19  0.000  0.700  0.503- 121 2.11 118 2.11 117 2.11 198 2.11 119 2.11
  20  0.100  0.600  0.503- 114 2.11 117 2.11 118 2.11 137 2.11 120 2.11
  21  0.000  0.800  0.407- 119 2.11 123 2.11 124 2.11 204 2.11 121 2.11
  22  0.100  0.900  0.407- 108 2.11 123 2.11 124 2.11 143 2.11 122 2.11
  23  0.000  0.900  0.503- 105 2.11 121 2.11 122 2.11 202 2.11 123 2.11
  24  0.100  0.800  0.503- 118 2.11 121 2.11 122 2.11 141 2.11 124 2.11
  25  0.200  0.000  0.407- 128 2.11 127 2.11 108 2.11 143 2.11 125 2.11
  26  0.300  0.100  0.407- 127 2.11 128 2.11 132 2.11 147 2.11 126 2.11
  27  0.200  0.100  0.503- 126 2.11 125 2.11 106 2.11 129 2.11 127 2.11
  28  0.300  0.000  0.503- 125 2.11 126 2.11 142 2.11 145 2.11 128 2.11
  29  0.200  0.200  0.407- 131 2.11 132 2.11 112 2.11 127 2.11 129 2.11
  30  0.300  0.300  0.407- 131 2.11 132 2.11 136 2.11 151 2.11 130 2.11
  31  0.200  0.300  0.503- 129 2.11 130 2.11 110 2.11 133 2.11 131 2.11
  32  0.300  0.200  0.503- 129 2.11 130 2.11 126 2.11 149 2.11 132 2.11
  33  0.200  0.400  0.407- 136 2.11 131 2.11 135 2.11 116 2.11 133 2.11
  34  0.300  0.500  0.407- 135 2.11 136 2.11 140 2.11 155 2.11 134 2.11
  35  0.200  0.500  0.503- 134 2.11 133 2.11 114 2.11 137 2.11 135 2.11
  36  0.300  0.400  0.503- 133 2.11 130 2.11 134 2.11 153 2.11 136 2.11
  37  0.200  0.600  0.407- 140 2.11 135 2.11 139 2.11 120 2.11 137 2.11
  38  0.300  0.700  0.407- 139 2.11 144 2.11 140 2.11 159 2.11 138 2.11
  39  0.200  0.700  0.503- 138 2.11 141 2.11 118 2.11 137 2.11 139 2.11
  40  0.300  0.600  0.503- 137 2.11 134 2.11 138 2.11 157 2.11 140 2.11
  41  0.200  0.800  0.407- 139 2.11 144 2.11 143 2.11 124 2.11 141 2.11
  42  0.300  0.900  0.407- 143 2.11 128 2.11 144 2.11 163 2.11 142 2.11
  43  0.200  0.900  0.503- 142 2.11 125 2.11 141 2.11 122 2.11 143 2.11
  44  0.300  0.800  0.503- 138 2.11 141 2.11 142 2.11 161 2.11 144 2.11
  45  0.400  0.000  0.407- 128 2.11 147 2.11 148 2.11 163 2.11 145 2.11
  46  0.500  0.100  0.407- 147 2.11 148 2.11 152 2.11 167 2.11 146 2.11
  47  0.400  0.100  0.503- 126 2.11 145 2.11 146 2.11 149 2.11 147 2.11
  48  0.500  0.000  0.503- 145 2.11 146 2.11 162 2.11 165 2.11 148 2.11
  49  0.400  0.200  0.407- 151 2.11 147 2.11 132 2.11 152 2.11 149 2.11
  50  0.500  0.300  0.407- 152 2.11 151 2.11 156 2.11 171 2.11 150 2.11
  51  0.400  0.300  0.503- 149 2.11 130 2.11 150 2.11 153 2.11 151 2.11
  52  0.500  0.200  0.503- 150 2.11 149 2.11 146 2.11 169 2.11 152 2.11
  53  0.400  0.400  0.407- 136 2.11 151 2.11 155 2.11 156 2.11 153 2.11
  54  0.500  0.500  0.407- 155 2.11 156 2.11 160 2.11 175 2.11 154 2.11
  55  0.400  0.500  0.503- 134 2.11 153 2.11 154 2.11 157 2.11 155 2.11   1 2.60
  56  0.500  0.400  0.503- 150 2.11 153 2.11 154 2.11 173 2.11 156 2.11
  57  0.400  0.600  0.407- 140 2.11 155 2.11 159 2.11 160 2.11 157 2.11
  58  0.500  0.700  0.407- 164 2.11 160 2.11 159 2.11 179 2.11 158 2.11
  59  0.400  0.700  0.503- 161 2.11 157 2.11 158 2.11 138 2.11 159 2.11
  60  0.500  0.600  0.503- 154 2.11 157 2.11 158 2.11 177 2.11 160 2.11
[...]
 190  0.900  0.300  0.503-  92 2.11  91 2.11  11 2.11  96 2.11  90 2.11
 191  0.800  0.300  0.407-  70 2.11  89 2.11  90 2.11  93 2.11  91 2.11
 192  0.900  0.200  0.407-  90 2.11  86 2.11  89 2.11   9 2.11  92 2.11
 193  0.800  0.400  0.503-  76 2.11  91 2.11  95 2.11  96 2.11  93 2.11
 194  0.900  0.500  0.503-  15 2.11  95 2.11  96 2.11 100 2.11  94 2.11
 195  0.800  0.500  0.407-  74 2.11  93 2.11  94 2.11  97 2.11  95 2.11
 196  0.900  0.400  0.407-  13 2.11  90 2.11  93 2.11  94 2.11  96 2.11
 197  0.800  0.600  0.503-  80 2.11  95 2.11  99 2.11 100 2.11  97 2.11
 198  0.900  0.700  0.503- 104 2.11  99 2.11 100 2.11  19 2.11  98 2.11
 199  0.800  0.700  0.407-  78 2.11 101 2.11  98 2.11  97 2.11  99 2.11
 200  0.900  0.600  0.407-  17 2.11  94 2.11  97 2.11  98 2.11 100 2.11
 201  0.800  0.800  0.503-  84 2.11  99 2.11 103 2.11 104 2.11 101 2.11
 202  0.900  0.900  0.503-  23 2.11  88 2.11 103 2.11 104 2.11 102 2.11
 203  0.800  0.900  0.407-  82 2.11  85 2.11 101 2.11 102 2.11 103 2.11
 204  0.900  0.800  0.407-  98 2.11  21 2.11 101 2.11 102 2.11 104 2.11

  LATTYP: Found a simple tetragonal cell.
 ALAT       =    21.1388521970
 C/A-ratio  =     1.0461251639

  Lattice vectors:

 A1 = (  21.1388521970,   0.0000000000,   0.0000000000)
 A2 = (   0.0000000000,  21.1388521970,   0.0000000000)
 A3 = (   0.0000000000,   0.0000000000,  22.1138852197)

Analysis of symmetry for initial positions (statically):
 Subroutine PRICEL returns:
 Original cell was already a primitive cell.

 Routine SETGRP: Setting up the symmetry group for a
 simple tetragonal supercell.

 Subroutine GETGRP returns: Found  1 space group operations
 (whereof  1 operations were pure point group operations)
 out of a pool of 16 trial point group operations.

The static configuration has the point symmetry C_1 .

Analysis of symmetry for dynamics (positions and initial velocities):
 Subroutine PRICEL returns:
 Original cell was already a primitive cell.

[...]

The dynamic configuration has the point symmetry C_1 .

Analysis of constrained symmetry for selective dynamics:
 Subroutine PRICEL returns:
 Original cell was already a primitive cell.

 Routine SETGRP: Setting up the symmetry group for a
 simple tetragonal supercell.

 Subroutine GETGRP returns: Found  1 space group operations
[...]
     22     -46.5845      2.00000
     23     -46.5824      2.00000
     24     -46.5721      2.00000
     25     -46.5553      2.00000
     26     -46.5517      2.00000
     27     -46.5506      2.00000
     28     -46.5297      2.00000
     29     -46.5272      2.00000
     30     -46.5134      2.00000
     31     -46.5099      2.00000
     32     -46.5007      2.00000
     33     -46.4996      2.00000
     34     -46.4945      2.00000
     35     -46.4931      2.00000
     36     -46.4931      2.00000
     37     -46.4917      2.00000
     38     -46.4909      2.00000
     39     -46.4902      2.00000
     40     -46.4895      2.00000
     41     -46.4631      2.00000
     42     -46.4619      2.00000
     43     -46.4615      2.00000
     44     -46.4607      2.00000
     45     -46.4607      2.00000
     46     -46.4596      2.00000
     47     -46.4587      2.00000
     48     -46.4402      2.00000
     49     -46.4391      2.00000
     50     -46.4345      2.00000
     51     -46.4333      2.00000
     52     -46.4277      2.00000
     53     -46.4267      2.00000
     54     -46.4261      2.00000
     55     -46.4243      2.00000
     56     -46.4223      2.00000
     57     -46.4211      2.00000
     58     -46.4199      2.00000
     59     -46.4186      2.00000
     60     -46.4180      2.00000
[...]
   1010       7.2013      0.00000
   1011       7.4454      0.00000
   1012       7.5034      0.00000
   1013       7.5633      0.00000
   1014       7.5686      0.00000
   1015       7.5741      0.00000
   1016       7.6730      0.00000
   1017       7.7724      0.00000
   1018       7.8164      0.00000
   1019       7.8662      0.00000
   1020       7.9677      0.00000
   1021       8.1543      0.00000
   1022       8.2109      0.00000
   1023       8.2827      0.00000
   1024       8.3327      0.00000

 soft charge-density along one line, spin component           1
         0         1         2         3         4         5         6         7         8         9
 total charge-density along one line

------------------------ aborting loop because EDIFF is reached ----------------------------------------

 VOLUME and BASIS-vectors are now :
  energy-cutoff  :      520.00
  volume of cell :     9881.61
      direct lattice vectors                 reciprocal lattice vectors
    21.138852197  0.000000000  0.000000000     0.047306258  0.000000000  0.000000000
     0.000000000 21.138852197  0.000000000     0.000000000  0.047306258  0.000000000
     0.000000000  0.000000000 22.113885220     0.000000000  0.000000000  0.045220457

  length of vectors
    21.138852197 21.138852197 22.113885220     0.047306258  0.047306258  0.045220457

 FORCES acting on ions:
    Electron-Ion                     Ewald-Force                    Non-Local-Force
   0.144E+01 0.463E+03 -.201E+04   -.141E+01 -.456E+03 0.201E+04   -.385E-01 -.700E+01 -.716E+01
   -.175E+01 0.258E+03 -.217E+04   0.169E+01 -.262E+03 0.216E+04   0.420E-01 0.305E+01 0.698E+01
   -.277E+01 -.419E+03 -.212E+04   0.270E+01 0.413E+03 0.211E+04   0.690E-01 0.550E+01 0.109E+02
   0.285E+01 -.306E+03 -.175E+04   -.282E+01 0.306E+03 0.176E+04   -.417E-01 -.135E+00 -.588E+01
   0.744E+01 -.228E+01 0.936E+03   -.746E+01 0.229E+01 -.928E+03   0.144E-01 -.606E-02 -.672E+01
   0.138E+02 0.747E+01 0.940E+03   -.138E+02 -.748E+01 -.932E+03   0.299E-01 0.784E-02 -.672E+01
   0.982E+01 0.630E+01 -.918E+03   -.984E+01 -.629E+01 0.911E+03   0.126E-01 -.411E-02 0.665E+01
   0.159E+02 -.427E+01 -.916E+03   -.160E+02 0.429E+01 0.909E+03   0.178E-01 -.807E-02 0.664E+01
   0.105E+02 0.110E+02 0.939E+03   -.105E+02 -.110E+02 -.931E+03   0.245E-01 0.482E-02 -.672E+01
   0.281E+02 0.202E+02 0.951E+03   -.282E+02 -.203E+02 -.943E+03   0.901E-01 0.213E-01 -.675E+01
   0.198E+02 0.167E+02 -.914E+03   -.198E+02 -.167E+02 0.906E+03   0.167E-01 -.224E-03 0.664E+01
   0.257E+02 0.221E+02 -.913E+03   -.257E+02 -.221E+02 0.905E+03   0.418E-01 -.512E-03 0.663E+01
   0.188E+02 0.100E+02 0.946E+03   -.189E+02 -.100E+02 -.938E+03   0.423E-01 0.915E-02 -.673E+01
   0.436E+02 0.414E+01 0.963E+03   -.438E+02 -.416E+01 -.956E+03   0.136E+00 0.155E-01 -.676E+01
   0.305E+02 0.365E+01 -.908E+03   -.306E+02 -.366E+01 0.901E+03   0.193E-01 0.776E-02 0.663E+01
   0.589E+02 0.237E+02 -.898E+03   -.590E+02 -.237E+02 0.890E+03   0.406E-01 0.541E-02 0.661E+01
   0.204E+02 -.594E+01 0.947E+03   -.205E+02 0.593E+01 -.940E+03   0.531E-01 0.255E-02 -.673E+01
   0.332E+02 -.189E+02 0.956E+03   -.334E+02 0.189E+02 -.948E+03   0.120E+00 -.203E-01 -.675E+01
   0.238E+02 -.153E+02 -.911E+03   -.239E+02 0.153E+02 0.904E+03   0.283E-01 0.277E-02 0.664E+01
   0.666E+02 -.144E+02 -.893E+03   -.667E+02 0.144E+02 0.885E+03   0.838E-01 0.147E-01 0.661E+01
   0.125E+02 -.128E+02 0.941E+03   -.126E+02 0.128E+02 -.933E+03   0.324E-01 -.105E-01 -.673E+01
   0.160E+02 -.130E+02 0.942E+03   -.160E+02 0.130E+02 -.934E+03   0.362E-01 -.244E-01 -.672E+01
   0.116E+02 -.114E+02 -.917E+03   -.116E+02 0.114E+02 0.910E+03   0.155E-01 -.619E-02 0.665E+01
   0.332E+02 -.271E+02 -.908E+03   -.333E+02 0.271E+02 0.900E+03   0.551E-01 -.115E-01 0.663E+01
   0.137E+02 -.439E+01 0.943E+03   -.138E+02 0.441E+01 -.935E+03   0.256E-01 -.126E-01 -.673E+01
   0.102E+02 0.154E+02 0.948E+03   -.102E+02 -.155E+02 -.940E+03   0.237E-01 0.594E-01 -.674E+01
   0.197E+02 0.157E+02 -.912E+03   -.198E+02 -.157E+02 0.905E+03   0.249E-01 0.191E-01 0.664E+01
   0.118E+02 -.866E+01 -.910E+03   -.118E+02 0.867E+01 0.902E+03   0.113E-01 -.760E-02 0.664E+01
   0.226E+02 0.256E+02 0.952E+03   -.228E+02 -.257E+02 -.944E+03   0.756E-01 0.623E-01 -.674E+01
   0.309E+02 0.526E+02 0.992E+03   -.312E+02 -.530E+02 -.984E+03   0.197E+00 0.236E+00 -.672E+01
   0.624E+02 0.559E+02 -.887E+03   -.627E+02 -.559E+02 0.880E+03   0.189E+00 -.107E-01 0.658E+01
   0.267E+02 0.610E+02 -.894E+03   -.268E+02 -.612E+02 0.887E+03   0.416E-01 0.162E+00 0.661E+01
   0.539E+02 0.279E+02 0.987E+03   -.543E+02 -.279E+02 -.979E+03   0.311E+00 0.581E-01 -.685E+01
   0.605E+02 0.107E+02 0.106E+04   -.612E+02 -.108E+02 -.105E+04   0.438E+00 0.914E-01 -.691E+01
   0.129E+03 0.134E+02 -.844E+03   -.129E+03 -.135E+02 0.837E+03   0.191E+00 0.416E-01 0.652E+01
   0.157E+03 0.107E+03 -.748E+03   -.160E+03 -.107E+03 0.741E+03   0.152E+01 0.162E-01 0.617E+01
   0.600E+02 -.181E+02 0.995E+03   -.605E+02 0.181E+02 -.987E+03   0.405E+00 -.163E-01 -.685E+01
   0.385E+02 -.528E+02 0.101E+04   -.389E+02 0.532E+02 -.100E+04   0.282E+00 -.293E+00 -.672E+01
   0.818E+02 -.570E+02 -.871E+03   -.822E+02 0.570E+02 0.863E+03   0.256E+00 -.815E-02 0.658E+01
   0.186E+03 -.721E+02 -.706E+03   -.189E+03 0.720E+02 0.698E+03   0.227E+01 0.358E-01 0.645E+01
   0.285E+02 -.310E+02 0.960E+03   -.286E+02 0.311E+02 -.952E+03   0.992E-01 -.910E-01 -.674E+01
   0.124E+02 -.263E+02 0.954E+03   -.124E+02 0.264E+02 -.946E+03   0.259E-01 -.101E+00 -.675E+01
   0.248E+02 -.284E+02 -.908E+03   -.248E+02 0.284E+02 0.900E+03   0.237E-01 -.433E-01 0.663E+01
   0.387E+02 -.816E+02 -.875E+03   -.387E+02 0.819E+02 0.867E+03   0.182E-01 -.244E+00 0.658E+01
   0.453E-01 -.620E+01 0.948E+03   -.449E-01 0.622E+01 -.940E+03   -.323E-03 -.151E-01 -.673E+01
   -.101E+02 0.154E+02 0.948E+03   0.102E+02 -.155E+02 -.941E+03   -.242E-01 0.592E-01 -.674E+01
   0.639E-01 0.261E+02 -.907E+03   -.634E-01 -.262E+02 0.899E+03   -.389E-03 0.607E-01 0.663E+01
   -.117E+02 -.869E+01 -.910E+03   0.117E+02 0.870E+01 0.902E+03   -.118E-01 -.747E-02 0.664E+01
   0.734E-01 0.422E+02 0.967E+03   -.727E-01 -.426E+02 -.959E+03   -.529E-03 0.258E+00 -.677E+01
   -.307E+02 0.528E+02 0.992E+03   0.310E+02 -.531E+02 -.985E+03   -.198E+00 0.235E+00 -.672E+01
   0.338E+00 0.159E+03 -.811E+03   -.335E+00 -.161E+03 0.803E+03   -.180E-02 0.149E+01 0.669E+01
   -.266E+02 0.611E+02 -.894E+03   0.266E+02 -.613E+02 0.887E+03   -.426E-01 0.160E+00 0.661E+01
   0.238E+00 0.550E+02 0.106E+04   -.235E+00 -.555E+02 -.106E+04   -.175E-02 0.331E+00 -.523E+01
   -.602E+02 0.108E+02 0.106E+04   0.609E+02 -.109E+02 -.105E+04   -.440E+00 0.911E-01 -.692E+01
   0.127E+01 0.259E+02 -.514E+03   -.127E+01 -.271E+02 0.509E+03   -.586E-02 0.946E+00 0.420E+01
   -.157E+03 0.108E+03 -.747E+03   0.160E+03 -.108E+03 0.740E+03   -.152E+01 0.126E-01 0.616E+01
   0.296E+00 -.378E+02 0.109E+04   -.293E+00 0.380E+02 -.108E+04   -.219E-02 -.180E+00 -.440E+01
   -.383E+02 -.529E+02 0.101E+04   0.387E+02 0.534E+02 -.100E+04   -.283E+00 -.293E+00 -.673E+01
   0.621E+00 -.187E+03 -.741E+03   -.616E+00 0.190E+03 0.734E+03   -.352E-02 -.220E+01 0.634E+01
   -.186E+03 -.725E+02 -.704E+03   0.189E+03 0.724E+02 0.696E+03   -.228E+01 0.369E-01 0.644E+01
[...]
   -.110E+02 0.981E+01 0.708E+03   0.110E+02 -.982E+01 -.712E+03   -.272E-01 0.907E-02 0.314E+01
   -.349E-01 0.694E+01 0.705E+03   0.344E-01 -.694E+01 -.709E+03   0.405E-03 0.287E-02 0.315E+01
   -.201E+02 0.992E+01 -.685E+03   0.201E+02 -.992E+01 0.689E+03   -.178E-01 0.452E-02 -.329E+01
   -.101E+00 0.216E+01 -.686E+03   0.100E+00 -.216E+01 0.690E+03   0.819E-03 0.711E-02 -.327E+01
   -.161E+02 0.200E+01 0.713E+03   0.161E+02 -.201E+01 -.717E+03   -.371E-01 0.976E-02 0.313E+01
   -.612E-01 0.620E+01 0.708E+03   0.606E-01 -.621E+01 -.712E+03   0.647E-03 0.735E-02 0.314E+01
   -.223E+02 -.577E+01 -.683E+03   0.223E+02 0.576E+01 0.687E+03   -.252E-01 0.881E-02 -.329E+01
   -.856E-01 -.906E+01 -.687E+03   0.850E-01 0.906E+01 0.691E+03   0.674E-03 0.209E-02 -.327E+01
   -.128E+02 -.891E+01 0.710E+03   0.129E+02 0.891E+01 -.714E+03   -.365E-01 -.734E-02 0.314E+01
   -.701E-01 -.360E+01 0.709E+03   0.695E-01 0.360E+01 -.713E+03   0.712E-03 0.330E-02 0.314E+01
   -.128E+02 -.123E+02 -.688E+03   0.128E+02 0.123E+02 0.692E+03   -.212E-01 -.640E-02 -.327E+01
   -.443E-01 -.707E+01 -.690E+03   0.441E-01 0.708E+01 0.695E+03   0.356E-03 -.585E-02 -.325E+01
   -.686E+01 -.675E+01 0.705E+03   0.687E+01 0.676E+01 -.709E+03   -.199E-01 -.127E-01 0.315E+01
   -.464E-01 -.805E+01 0.706E+03   0.459E-01 0.805E+01 -.710E+03   0.490E-03 -.798E-02 0.315E+01
   -.866E-01 -.205E+01 -.270E+01   0.165E-11 0.682E-12 0.364E-11   0.711E-01 0.186E+01 0.269E+01

 POSITION                                       TOTAL-FORCE (eV/Angst)
      8.46039      8.90641     13.11119        -0.004263     -0.179784      0.198363
      8.46878     10.69052     14.51992        -0.007685     -0.186599      0.266498
      8.47353     12.97033     15.28534        -0.000014      0.278788      0.352924
      8.46080     12.56080     13.05418        -0.005407      0.113950      0.030616
      0.00000      0.00000      9.00000        -0.004490      0.001900      0.429352
      2.11389      2.11389      9.00000        -0.009393     -0.002568      0.430242
      0.00000      2.11389     11.11389        -0.003754      0.001299     -0.398163
      2.11389      0.00000     11.11389        -0.005527      0.002476     -0.397077
      0.00000      4.22777      9.00000        -0.007367     -0.001502      0.431078
      2.11389      6.34166      9.00000        -0.026847     -0.006505      0.436861
      0.00000      6.34166     11.11389        -0.004412      0.000288     -0.392849
      2.11389      4.22777     11.11389        -0.011987      0.000276     -0.390793
      0.00000      8.45554      9.00000        -0.012641     -0.002826      0.433754
      2.11389     10.56943      9.00000        -0.041428     -0.005193      0.441962
      0.00000     10.56943     11.11389        -0.004795     -0.002569     -0.388695
      2.11389      8.45554     11.11389        -0.008436     -0.001084     -0.372903
      0.00000     12.68331      9.00000        -0.015726     -0.000971      0.433935
      2.11389     14.79720      9.00000        -0.035944      0.006529      0.436723
      0.00000     14.79720     11.11389        -0.007850     -0.000986     -0.392930
      2.11389     12.68331     11.11389        -0.020624     -0.005264     -0.372976
      0.00000     16.91108      9.00000        -0.009766      0.003353      0.430685
      2.11389     19.02497      9.00000        -0.011365      0.007722      0.430687
      0.00000     19.02497     11.11389        -0.004638      0.001944     -0.397960
      2.11389     16.91108     11.11389        -0.015843      0.003571     -0.389233
      4.22777      0.00000      9.00000        -0.008128      0.003793      0.431344
      6.34166      2.11389      9.00000        -0.007768     -0.017950      0.432891
      4.22777      2.11389     11.11389        -0.007777     -0.005253     -0.391501
      6.34166      0.00000     11.11389        -0.003492      0.002117     -0.390851
      4.22777      4.22777      9.00000        -0.024299     -0.020115      0.432232
      6.34166      6.34166      9.00000        -0.073592     -0.083992      0.414645
      4.22777      6.34166     11.11389        -0.050946      0.006561     -0.353549
      6.34166      4.22777     11.11389        -0.013925     -0.045487     -0.369816
      4.22777      8.45554      9.00000        -0.090927     -0.017119      0.460458
      6.34166     10.56943      9.00000        -0.166086     -0.033981      0.430242
      4.22777     10.56943     11.11389        -0.045320     -0.016229     -0.303839
      6.34166      8.45554     11.11389        -0.625510      0.013424     -0.282543
      4.22777     12.68331      9.00000        -0.116291      0.003614      0.459002
      6.34166     14.79720      9.00000        -0.104908      0.108213      0.404346
      4.22777     14.79720     11.11389        -0.069797      0.001623     -0.348864
      6.34166     12.68331     11.11389        -0.928910     -0.014087     -0.437931
      4.22777     16.91108      9.00000        -0.031961      0.029331      0.432618
      6.34166     19.02497      9.00000        -0.008346      0.030214      0.435848
      4.22777     19.02497     11.11389        -0.007414      0.012289     -0.389207
      6.34166     16.91108     11.11389        -0.003711      0.064567     -0.348194
      8.45554      0.00000      9.00000         0.000164      0.004559      0.432809
     10.56943      2.11389      9.00000         0.008058     -0.017903      0.433112
      8.45554      2.11389     11.11389         0.000177     -0.016035     -0.385670
     10.56943      0.00000     11.11389         0.003792      0.002076     -0.390784
      8.45554      4.22777      9.00000         0.000224     -0.074748      0.438763
     10.56943      6.34166      9.00000         0.074116     -0.083699      0.414939
      8.45554      6.34166     11.11389         0.000640     -0.549599     -0.410055
     10.56943      4.22777     11.11389         0.014375     -0.045006     -0.369729
      8.45554      8.45554      9.00000         0.000653     -0.086224      0.053149
     10.56943     10.56943      9.00000         0.166893     -0.033878      0.431189
      8.45554     10.56943     11.11389         0.000616     -0.168244     -0.348401
     10.56943      8.45554     11.11389         0.629544      0.014047     -0.281760
      8.45554     12.68331      9.00000         0.000750      0.043971     -0.134260
     10.56943     14.79720      9.00000         0.105520      0.107970      0.404800
      8.45554     14.79720     11.11389         0.001208      0.853009     -0.340727
     10.56943     12.68331     11.11389         0.934726     -0.013936     -0.438018
[...]
     19.02497      6.34166     11.11389         0.000252      0.000092      0.435060
     16.91108      6.34166      9.00000        -0.008778      0.002956     -0.472963
     19.02497      4.22777      9.00000         0.000105      0.000879     -0.470499
     16.91108      8.45554     11.11389        -0.005900      0.001461      0.428761
     19.02497     10.56943     11.11389         0.000252      0.002283      0.432349
     16.91108     10.56943      9.00000        -0.011957      0.003107     -0.475343
     19.02497      8.45554      9.00000         0.000233      0.002379     -0.472606
     16.91108     12.68331     11.11389        -0.008125      0.002804      0.428515
     19.02497     14.79720     11.11389         0.000184      0.000667      0.434821
     16.91108     14.79720      9.00000        -0.011775     -0.002382     -0.472851
     19.02497     12.68331      9.00000         0.000226      0.000997     -0.472459
     16.91108     16.91108     11.11389        -0.006844     -0.002107      0.435074
     19.02497     19.02497     11.11389         0.000178     -0.001909      0.438603
     16.91108     19.02497      9.00000        -0.006343     -0.004105     -0.470173
     19.02497     16.91108      9.00000         0.000159     -0.002516     -0.470495
    total drift:                               -0.011382      0.001364     -0.283183

  FREE ENERGIE OF THE ION-ELECTRON SYSTEM (eV)
  free  energy   TOTEN  =     -1337.83260453 eV

  energy  without entropy=    -1337.83260453  energy(sigma->0) =    -1337.83260453