 vasp.6.3.0 20Jan22 (build Apr  1 2022 16:44:48) complex
 executed on        HPECrayEX_GCC date 2023.01.09  19:03:49

 INCAR:
   SYSTEM = MgO-rocksalt
   ISMEAR = 0
   SIGMA = 0.05
   EDIFF = 1E-6
   ALGO = ALL
   ISTART = 0
   IBRION = -1
   NSW = 0
   ISYM = 2
   DIPOL = 0.5 0.5 0.5
   IDIPOL = 3
   LDIPOL = .TRUE.
   GGA = MK
   PARAM1 = 0.1234
   PARAM2 = 1.0
   LUSE_VDW = .TRUE.
   AGGAC = 0.0
   ENCUT = 520
   PREC = Accurate
   LASPH = .TRUE.
   LREAL = Auto
   ISPIN = 1
   NELM = 200
   NELMIN = 8
   NCORE = 4
   KPAR = 2
   LWAVE = .FALSE.
   LCHARG = .FALSE.

 POTCAR:    PAW_PBE Au 04Oct2007
 POTCAR:    PAW_PBE Mg_pv 13Apr2007
 POTCAR:    PAW_PBE O 08Apr2002
|               ----> ADVICE to this user running VASP <----                  |
|     You have switched on vdW-DFT.                                           |
|     This routine was written and supplied by Jiri Klimes. We recommend      |
|     that you carefully read and cite the following publications:            |
|       J. Klimes, D.R. Bowler, A. Michelides                                 |
|          J. Phys.: Cond Matt. 22 022201 (2010)                              |
|       J. Klimes, D.R. Bowler, A. Michelides                                 |
|          Phys. Rev. B. 83, 195131 (2011)                                    |
|     and references therein.                                                 |

   TITEL  = PAW_PBE Au 04Oct2007
   POMASS =  196.966; ZVAL   =   11.000    mass and valenz
   ENMAX  =  229.943; ENMIN  =  172.457 eV

   TITEL  = PAW_PBE Mg_pv 13Apr2007
   POMASS =   24.305; ZVAL   =    8.000    mass and valenz
   ENMAX  =  403.929; ENMIN  =  302.947 eV

   TITEL  = PAW_PBE O 08Apr2002
   POMASS =   16.000; ZVAL   =    6.000    mass and valenz
   ENMAX  =  400.000; ENMIN  =  300.000 eV

 Optimization of the real space projectors (new method)

 maximal supplied QI-value         = 15.12
 optimisation between [QCUT,QGAM] = [ 11.64, 23.28] = [ 37.95,151.78] Ry
 Optimized for a Real-space Cutoff    1.49 Angstroem

   l    n(q)    QCUT    max X(q) W(low)/X(q) W(high)/X(q)  e(spline)
   2      9    11.641    60.898    0.24E-03    0.10E-03    0.19E-06
   2      9    11.641    58.894    0.25E-03    0.10E-03    0.19E-06
   0     10    11.641   109.617    0.73E-04    0.33E-04    0.11E-06
   0     10    11.641    75.026    0.71E-04    0.32E-04    0.11E-06
   1     10    11.641    16.344    0.27E-04    0.97E-04    0.16E-06
   1     10    11.641    10.160    0.23E-04    0.77E-04    0.13E-06
 Optimization of the real space projectors (new method)

[...]

   l    n(q)    QCUT    max X(q) W(low)/X(q) W(high)/X(q)  e(spline)
   1      8    11.527     2.974    0.44E-04    0.56E-04    0.12E-06
   1      8    11.527     4.279    0.12E-03    0.12E-03    0.26E-06
   0      9    11.527    16.381    0.46E-04    0.64E-04    0.78E-07
   0      9    11.527     5.611    0.26E-04    0.43E-04    0.55E-07
   2      8    11.527     4.652    0.22E-03    0.72E-04    0.47E-07
 Optimization of the real space projectors (new method)

 maximal supplied QI-value         = 24.76
 optimisation between [QCUT,QGAM] = [ 11.64, 23.27] = [ 37.91,151.63] Ry
 Optimized for a Real-space Cutoff    1.14 Angstroem

   l    n(q)    QCUT    max X(q) W(low)/X(q) W(high)/X(q)  e(spline)
   0      8    11.635    20.381    0.10E-03    0.33E-03    0.24E-06
   0      8    11.635    15.268    0.11E-03    0.35E-03    0.26E-06
   1      7    11.635     5.964    0.24E-03    0.31E-03    0.30E-06
   1      7    11.635     5.382    0.22E-03    0.25E-03    0.26E-06
|               ----> ADVICE to this user running VASP <----                  |
|     You enforced a specific xc type in the INCAR file but a different       |
|     type was found in the POTCAR file.                                      |
|     I HOPE YOU KNOW WHAT YOU ARE DOING!                                     |

  PAW_PBE Au 04Oct2007                  :
  PAW_PBE Mg_pv 13Apr2007               :
  PAW_PBE O 08Apr2002                   :

 POSCAR: Au Mg  O
  positions in direct lattice
  velocities in cartesian coordinates
 exchange correlation table for  LEXCH =       43
   RHO(1)=    0.500       N(1)  =     2000
   RHO(2)=  100.500       N(2)  =     4000

 ion  position               nearest neighbor table
   1  0.404  0.596  0.665-   2 2.57   4 2.74
   2  0.332  0.668  0.602- 138 2.40   1 2.57  59 2.71  40 2.71
   3  0.568  0.432  0.602- 173 2.40   4 2.57  75 2.71  56 2.71
   4  0.496  0.504  0.665-   3 2.57   1 2.74
   5  0.000  0.000  0.407- 107 2.11 108 2.11 123 2.11 188 2.11 105 2.11
   6  0.100  0.100  0.407- 107 2.11 108 2.11 112 2.11 127 2.11 106 2.11
   7  0.000  0.100  0.503- 105 2.11 106 2.11 109 2.11 186 2.11 107 2.11
   8  0.100  0.000  0.503- 105 2.11 106 2.11 122 2.11 125 2.11 108 2.11
   9  0.000  0.200  0.407- 111 2.11 107 2.11 112 2.11 192 2.11 109 2.11
  10  0.100  0.300  0.407- 112 2.11 111 2.11 116 2.11 131 2.11 110 2.11
  11  0.000  0.300  0.503- 109 2.11 110 2.11 113 2.11 190 2.11 111 2.11
  12  0.100  0.200  0.503- 110 2.11 109 2.11 106 2.11 129 2.11 112 2.11
  13  0.000  0.400  0.407- 111 2.11 115 2.11 116 2.11 196 2.11 113 2.11
  14  0.100  0.500  0.407- 115 2.11 116 2.11 120 2.11 135 2.11 114 2.11
  15  0.000  0.500  0.503- 113 2.11 114 2.11 117 2.11 194 2.11 115 2.11
  16  0.100  0.400  0.503- 110 2.11 113 2.11 114 2.11 133 2.11 116 2.11
  17  0.000  0.600  0.407- 115 2.11 119 2.11 120 2.11 200 2.11 117 2.11
  18  0.100  0.700  0.407- 124 2.11 120 2.11 119 2.11 139 2.11 118 2.11
  19  0.000  0.700  0.503- 121 2.11 118 2.11 117 2.11 198 2.11 119 2.11
  20  0.100  0.600  0.503- 114 2.11 117 2.11 118 2.11 137 2.11 120 2.11
  21  0.000  0.800  0.407- 119 2.11 123 2.11 124 2.11 204 2.11 121 2.11
  22  0.100  0.900  0.407- 108 2.11 123 2.11 124 2.11 143 2.11 122 2.11
  23  0.000  0.900  0.503- 105 2.11 121 2.11 122 2.11 202 2.11 123 2.11
  24  0.100  0.800  0.503- 118 2.11 121 2.11 122 2.11 141 2.11 124 2.11
  25  0.200  0.000  0.407- 128 2.11 127 2.11 108 2.11 143 2.11 125 2.11
  26  0.300  0.100  0.407- 127 2.11 128 2.11 132 2.11 147 2.11 126 2.11
  27  0.200  0.100  0.503- 126 2.11 125 2.11 106 2.11 129 2.11 127 2.11
  28  0.300  0.000  0.503- 125 2.11 126 2.11 142 2.11 145 2.11 128 2.11
  29  0.200  0.200  0.407- 131 2.11 132 2.11 112 2.11 127 2.11 129 2.11
  30  0.300  0.300  0.407- 131 2.11 132 2.11 136 2.11 151 2.11 130 2.11
  31  0.200  0.300  0.503- 129 2.11 130 2.11 110 2.11 133 2.11 131 2.11
  32  0.300  0.200  0.503- 129 2.11 130 2.11 126 2.11 149 2.11 132 2.11
  33  0.200  0.400  0.407- 136 2.11 131 2.11 135 2.11 116 2.11 133 2.11
  34  0.300  0.500  0.407- 135 2.11 136 2.11 140 2.11 155 2.11 134 2.11
  35  0.200  0.500  0.503- 134 2.11 133 2.11 114 2.11 137 2.11 135 2.11
  36  0.300  0.400  0.503- 133 2.11 130 2.11 134 2.11 153 2.11 136 2.11
  37  0.200  0.600  0.407- 140 2.11 135 2.11 139 2.11 120 2.11 137 2.11
  38  0.300  0.700  0.407- 139 2.11 144 2.11 140 2.11 159 2.11 138 2.11
  39  0.200  0.700  0.503- 138 2.11 141 2.11 118 2.11 137 2.11 139 2.11
  40  0.300  0.600  0.503- 137 2.11 134 2.11 138 2.11 157 2.11 140 2.11   2 2.71
  41  0.200  0.800  0.407- 139 2.11 144 2.11 143 2.11 124 2.11 141 2.11
  42  0.300  0.900  0.407- 143 2.11 128 2.11 144 2.11 163 2.11 142 2.11
  43  0.200  0.900  0.503- 142 2.11 125 2.11 141 2.11 122 2.11 143 2.11
  44  0.300  0.800  0.503- 138 2.11 141 2.11 142 2.11 161 2.11 144 2.11
  45  0.400  0.000  0.407- 128 2.11 147 2.11 148 2.11 163 2.11 145 2.11
  46  0.500  0.100  0.407- 147 2.11 148 2.11 152 2.11 167 2.11 146 2.11
  47  0.400  0.100  0.503- 126 2.11 145 2.11 146 2.11 149 2.11 147 2.11
  48  0.500  0.000  0.503- 145 2.11 146 2.11 162 2.11 165 2.11 148 2.11
  49  0.400  0.200  0.407- 151 2.11 147 2.11 132 2.11 152 2.11 149 2.11
  50  0.500  0.300  0.407- 152 2.11 151 2.11 156 2.11 171 2.11 150 2.11
  51  0.400  0.300  0.503- 149 2.11 130 2.11 150 2.11 153 2.11 151 2.11
  52  0.500  0.200  0.503- 150 2.11 149 2.11 146 2.11 169 2.11 152 2.11
  53  0.400  0.400  0.407- 136 2.11 151 2.11 155 2.11 156 2.11 153 2.11
  54  0.500  0.500  0.407- 155 2.11 156 2.11 160 2.11 175 2.11 154 2.11
  55  0.400  0.500  0.503- 134 2.11 153 2.11 154 2.11 157 2.11 155 2.11
  56  0.500  0.400  0.503- 150 2.11 153 2.11 154 2.11 173 2.11 156 2.11   3 2.71
  57  0.400  0.600  0.407- 140 2.11 155 2.11 159 2.11 160 2.11 157 2.11
  58  0.500  0.700  0.407- 164 2.11 160 2.11 159 2.11 179 2.11 158 2.11
  59  0.400  0.700  0.503- 161 2.11 157 2.11 158 2.11 138 2.11 159 2.11   2 2.71
  60  0.500  0.600  0.503- 154 2.11 157 2.11 158 2.11 177 2.11 160 2.11
[...]
 190  0.900  0.300  0.503-  92 2.11  91 2.11  11 2.11  96 2.11  90 2.11
 191  0.800  0.300  0.407-  70 2.11  89 2.11  90 2.11  93 2.11  91 2.11
 192  0.900  0.200  0.407-  90 2.11  86 2.11  89 2.11   9 2.11  92 2.11
 193  0.800  0.400  0.503-  76 2.11  91 2.11  95 2.11  96 2.11  93 2.11
 194  0.900  0.500  0.503-  15 2.11  95 2.11  96 2.11 100 2.11  94 2.11
 195  0.800  0.500  0.407-  74 2.11  93 2.11  94 2.11  97 2.11  95 2.11
 196  0.900  0.400  0.407-  13 2.11  90 2.11  93 2.11  94 2.11  96 2.11
 197  0.800  0.600  0.503-  80 2.11  95 2.11  99 2.11 100 2.11  97 2.11
 198  0.900  0.700  0.503- 104 2.11  99 2.11 100 2.11  19 2.11  98 2.11
 199  0.800  0.700  0.407-  78 2.11 101 2.11  98 2.11  97 2.11  99 2.11
 200  0.900  0.600  0.407-  17 2.11  94 2.11  97 2.11  98 2.11 100 2.11
 201  0.800  0.800  0.503-  84 2.11  99 2.11 103 2.11 104 2.11 101 2.11
 202  0.900  0.900  0.503-  23 2.11  88 2.11 103 2.11 104 2.11 102 2.11
 203  0.800  0.900  0.407-  82 2.11  85 2.11 101 2.11 102 2.11 103 2.11
 204  0.900  0.800  0.407-  98 2.11  21 2.11 101 2.11 102 2.11 104 2.11

  LATTYP: Found a simple tetragonal cell.
 ALAT       =    21.1388521970
 C/A-ratio  =     1.0461251639

  Lattice vectors:

 A1 = (  21.1388521970,   0.0000000000,   0.0000000000)
 A2 = (   0.0000000000,  21.1388521970,   0.0000000000)
 A3 = (   0.0000000000,   0.0000000000,  22.1138852197)

Analysis of symmetry for initial positions (statically):
 Subroutine PRICEL returns:
 Original cell was already a primitive cell.

 Routine SETGRP: Setting up the symmetry group for a
 simple tetragonal supercell.

 Subroutine GETGRP returns: Found  2 space group operations
 (whereof  1 operations were pure point group operations)
 out of a pool of 16 trial point group operations.

The static configuration has the point symmetry C_1 .
 The point group associated with its full space group is C_1h.

Analysis of symmetry for dynamics (positions and initial velocities):
 Subroutine PRICEL returns:
 Original cell was already a primitive cell.

[...]

The dynamic configuration has the point symmetry C_1 .
 The point group associated with its full space group is C_1h.

Analysis of constrained symmetry for selective dynamics:
 Subroutine PRICEL returns:
 Original cell was already a primitive cell.

 Routine SETGRP: Setting up the symmetry group for a
 simple tetragonal supercell.

 Subroutine GETGRP returns: Found  2 space group operations
 (whereof  1 operations were pure point group operations)
 out of a pool of 16 trial point group operations.

The constrained configuration has the point symmetry C_1 .
[...]
     52     -43.2648      2.00000
     53     -43.2601      2.00000
     54     -43.2571      2.00000
     55     -43.2565      2.00000
     56     -43.2564      2.00000
     57     -43.2561      2.00000
     58     -43.2558      2.00000
     59     -43.2542      2.00000
     60     -43.2541      2.00000
[...]
    946       5.4618      0.00000
    947       5.4942      0.00000
    948       5.5356      0.00000
    949       5.5548      0.00000
    950       5.5805      0.00000
    951       5.6019      0.00000
    952       5.6818      0.00000
    953       5.7158      0.00000
    954       5.7240      0.00000
    955       5.7731      0.00000
    956       5.8921      0.00000
    957       5.9643      0.00000
    958       6.0923      0.00000
    959       6.2877      0.00000
    960       6.5043      0.00000

 soft charge-density along one line, spin component           1
         0         1         2         3         4         5         6         7         8         9
 total charge-density along one line

------------------------ aborting loop because EDIFF is reached ----------------------------------------

  FORCE on cell =-STRESS in cart. coord.  units (eV):
  Direction    XX          YY          ZZ          XY          YZ          ZX
  Alpha Z  1417.83424  1417.83424  1417.83424
  Ewald  482423.15860482423.15974************ -1155.82133    -0.02915    -0.03097
  Hartree511450.54101511450.54141************  -908.40252    -0.01310    -0.01366
  E(xc)   -7852.44189 -7852.44189 -7852.30142    -0.47615     0.00009     0.00010
  Local  ************************************  2046.93549     0.04107     0.04323
  n-local -8812.07050 -8812.07050 -8925.10697    11.03056    -0.00284    -0.00310
  augment  3551.50357  3551.50357  3492.44086     1.96092     0.00129     0.00129
  Kinetic 23304.81809 23304.81808 23536.80904     6.41717    -0.00033    -0.00016
  Fock        0.00000     0.00000     0.00000     0.00000     0.00000     0.00000
  Total    -186.38645  -186.38645     0.03362     1.64414    -0.00312    -0.00312
  in kB     -30.22018   -30.22018     0.00545     0.26658    -0.00051    -0.00051

 VOLUME and BASIS-vectors are now :
  energy-cutoff  :      520.00
  volume of cell :     9881.61
      direct lattice vectors                 reciprocal lattice vectors
    21.138852197  0.000000000  0.000000000     0.047306258  0.000000000  0.000000000
     0.000000000 21.138852197  0.000000000     0.000000000  0.047306258  0.000000000
     0.000000000  0.000000000 22.113885220     0.000000000  0.000000000  0.045220457

  length of vectors
    21.138852197 21.138852197 22.113885220     0.047306258  0.047306258  0.045220457

 FORCES acting on ions:
    Electron-Ion                     Ewald-Force                    Non-Local-Force
   0.492E+02 -.492E+02 -.197E+04   -.510E+02 0.510E+02 0.197E+04   0.184E+01 -.184E+01 0.264E+01
   0.221E+03 -.221E+03 -.203E+04   -.218E+03 0.218E+03 0.203E+04   -.245E+01 0.245E+01 -.212E+01
   -.221E+03 0.221E+03 -.203E+04   0.218E+03 -.218E+03 0.203E+04   0.245E+01 -.245E+01 -.212E+01
   -.492E+02 0.492E+02 -.197E+04   0.510E+02 -.510E+02 0.197E+04   -.184E+01 0.184E+01 0.264E+01
   0.457E+01 -.457E+01 0.937E+03   -.461E+01 0.461E+01 -.929E+03   0.304E-01 -.303E-01 -.728E+01
   0.896E+01 0.202E+01 0.938E+03   -.895E+01 -.195E+01 -.930E+03   -.460E-02 -.572E-01 -.729E+01
   0.331E+01 0.331E+01 -.918E+03   -.328E+01 -.328E+01 0.911E+03   -.205E-01 -.205E-01 0.720E+01
   0.139E+02 -.104E+02 -.916E+03   -.139E+02 0.105E+02 0.908E+03   0.242E-01 -.968E-01 0.719E+01
   0.202E+01 0.896E+01 0.938E+03   -.195E+01 -.895E+01 -.930E+03   -.572E-01 -.460E-02 -.729E+01
   0.143E+02 0.155E+02 0.944E+03   -.142E+02 -.155E+02 -.936E+03   -.513E-01 0.436E-03 -.730E+01
   0.314E+01 0.155E+02 -.914E+03   -.302E+01 -.155E+02 0.907E+03   -.903E-01 -.121E-02 0.719E+01
   0.132E+02 0.132E+02 -.915E+03   -.132E+02 -.132E+02 0.908E+03   -.412E-01 -.412E-01 0.719E+01
   0.486E+01 0.110E+02 0.945E+03   -.477E+01 -.110E+02 -.937E+03   -.782E-01 0.193E-01 -.729E+01
   0.281E+02 0.111E+02 0.957E+03   -.281E+02 -.113E+02 -.949E+03   -.577E-02 0.119E+00 -.731E+01
   0.128E+02 0.788E+01 -.909E+03   -.128E+02 -.792E+01 0.901E+03   -.297E-01 0.260E-01 0.718E+01
   0.306E+02 0.233E+02 -.906E+03   -.304E+02 -.233E+02 0.898E+03   -.106E+00 0.420E-01 0.717E+01
   0.121E+02 -.242E+01 0.949E+03   -.122E+02 0.238E+01 -.941E+03   0.821E-01 0.312E-01 -.730E+01
   0.318E+02 -.129E+02 0.960E+03   -.323E+02 0.128E+02 -.952E+03   0.401E+00 0.469E-01 -.735E+01
   0.203E+02 -.128E+02 -.909E+03   -.205E+02 0.128E+02 0.901E+03   0.143E+00 0.200E-01 0.718E+01
   0.581E+02 0.285E+01 -.892E+03   -.583E+02 -.301E+01 0.885E+03   0.139E+00 0.121E+00 0.715E+01
   0.108E+02 -.130E+02 0.943E+03   -.110E+02 0.130E+02 -.936E+03   0.151E+00 -.157E-01 -.729E+01
   0.158E+02 -.158E+02 0.944E+03   -.159E+02 0.159E+02 -.937E+03   0.109E+00 -.109E+00 -.727E+01
   0.104E+02 -.139E+02 -.916E+03   -.105E+02 0.139E+02 0.908E+03   0.968E-01 -.242E-01 0.719E+01
   0.387E+02 -.287E+02 -.903E+03   -.391E+02 0.288E+02 0.896E+03   0.330E+00 -.241E-01 0.718E+01
   0.130E+02 -.109E+02 0.943E+03   -.130E+02 0.110E+02 -.936E+03   0.157E-01 -.151E+00 -.729E+01
   0.110E+02 0.487E+01 0.945E+03   -.110E+02 -.477E+01 -.937E+03   0.193E-01 -.782E-01 -.729E+01
   0.155E+02 0.314E+01 -.914E+03   -.155E+02 -.302E+01 0.907E+03   -.121E-02 -.903E-01 0.719E+01
   0.128E+02 -.203E+02 -.909E+03   -.128E+02 0.205E+02 0.901E+03   -.200E-01 -.143E+00 0.718E+01
   0.155E+02 0.143E+02 0.944E+03   -.155E+02 -.142E+02 -.936E+03   0.436E-03 -.513E-01 -.730E+01
   0.252E+02 0.322E+02 0.963E+03   -.253E+02 -.321E+02 -.955E+03   0.753E-01 -.404E-01 -.735E+01
   0.329E+02 0.329E+02 -.904E+03   -.328E+02 -.328E+02 0.897E+03   -.601E-01 -.601E-01 0.717E+01
   0.233E+02 0.306E+02 -.906E+03   -.233E+02 -.304E+02 0.898E+03   0.420E-01 -.106E+00 0.717E+01
   0.322E+02 0.252E+02 0.963E+03   -.321E+02 -.253E+02 -.955E+03   -.404E-01 0.753E-01 -.735E+01
   0.426E+02 0.277E+02 0.101E+04   -.426E+02 -.282E+02 -.100E+04   0.540E-02 0.352E+00 -.762E+01
   0.792E+02 0.416E+02 -.869E+03   -.788E+02 -.419E+02 0.862E+03   -.267E+00 0.278E+00 0.706E+01
   0.671E+02 0.671E+02 -.861E+03   -.669E+02 -.669E+02 0.854E+03   -.149E+00 -.149E+00 0.704E+01
   0.499E+02 0.288E+01 0.991E+03   -.501E+02 -.338E+01 -.984E+03   0.138E+00 0.372E+00 -.730E+01
   0.342E+02 -.342E+02 0.102E+04   -.339E+02 0.339E+02 -.102E+04   -.206E+00 0.206E+00 -.486E+01
   0.109E+03 -.430E+02 -.839E+03   -.112E+03 0.427E+02 0.832E+03   0.182E+01 0.211E+00 0.723E+01
   0.120E+03 0.626E+02 -.698E+03   -.120E+03 -.655E+02 0.692E+03   -.445E+00 0.193E+01 0.525E+01
   0.312E+02 -.312E+02 0.969E+03   -.315E+02 0.315E+02 -.962E+03   0.246E+00 -.246E+00 -.719E+01
   0.129E+02 -.318E+02 0.960E+03   -.128E+02 0.323E+02 -.952E+03   -.470E-01 -.401E+00 -.735E+01
   0.287E+02 -.387E+02 -.903E+03   -.288E+02 0.391E+02 0.896E+03   0.240E-01 -.330E+00 0.718E+01
   0.431E+02 -.109E+03 -.839E+03   -.428E+02 0.112E+03 0.832E+03   -.211E+00 -.182E+01 0.723E+01
   0.242E+01 -.121E+02 0.949E+03   -.238E+01 0.122E+02 -.941E+03   -.312E-01 -.820E-01 -.730E+01
   -.242E+01 0.121E+02 0.949E+03   0.238E+01 -.122E+02 -.941E+03   0.312E-01 0.821E-01 -.730E+01
   0.788E+01 0.128E+02 -.909E+03   -.792E+01 -.128E+02 0.901E+03   0.260E-01 -.297E-01 0.718E+01
   -.788E+01 -.129E+02 -.909E+03   0.792E+01 0.128E+02 0.901E+03   -.260E-01 0.298E-01 0.718E+01
   0.111E+02 0.281E+02 0.957E+03   -.113E+02 -.281E+02 -.949E+03   0.119E+00 -.577E-02 -.731E+01
   0.288E+01 0.499E+02 0.991E+03   -.338E+01 -.501E+02 -.984E+03   0.372E+00 0.138E+00 -.730E+01
   0.416E+02 0.792E+02 -.869E+03   -.419E+02 -.788E+02 0.862E+03   0.278E+00 -.267E+00 0.706E+01
   0.285E+01 0.581E+02 -.892E+03   -.301E+01 -.583E+02 0.885E+03   0.121E+00 0.139E+00 0.715E+01
   0.277E+02 0.426E+02 0.101E+04   -.282E+02 -.426E+02 -.100E+04   0.352E+00 0.540E-02 -.762E+01
   -.764E+01 0.767E+01 0.105E+04   0.734E+01 -.737E+01 -.104E+04   0.227E+00 -.227E+00 -.758E+01
   0.665E+02 0.665E+02 -.736E+03   -.667E+02 -.667E+02 0.730E+03   0.136E+00 0.136E+00 0.655E+01
   0.626E+02 0.120E+03 -.698E+03   -.655E+02 -.120E+03 0.692E+03   0.193E+01 -.445E+00 0.525E+01
   0.766E+01 -.764E+01 0.105E+04   -.737E+01 0.734E+01 -.104E+04   -.227E+00 0.227E+00 -.758E+01
   -.277E+02 -.426E+02 0.101E+04   0.282E+02 0.426E+02 -.100E+04   -.352E+00 -.542E-02 -.762E+01
   -.626E+02 -.120E+03 -.698E+03   0.655E+02 0.120E+03 0.692E+03   -.193E+01 0.445E+00 0.525E+01
   -.665E+02 -.665E+02 -.736E+03   0.667E+02 0.667E+02 0.730E+03   -.136E+00 -.136E+00 0.655E+01
[...]
   -.181E+02 0.142E+02 0.716E+03   0.182E+02 -.143E+02 -.720E+03   -.249E+00 0.112E+00 0.360E+01
   -.563E+01 0.800E+01 0.706E+03   0.569E+01 -.802E+01 -.710E+03   -.890E-01 0.458E-01 0.358E+01
   -.423E+02 0.143E+02 -.672E+03   0.424E+02 -.143E+02 0.676E+03   -.269E+00 -.932E-01 -.380E+01
   -.142E+02 0.197E+01 -.682E+03   0.143E+02 -.193E+01 0.687E+03   -.558E-01 -.470E-01 -.375E+01
   -.251E+02 -.689E-02 0.723E+03   0.252E+02 0.151E+00 -.727E+03   -.158E+00 -.189E+00 0.356E+01
   -.984E+01 0.738E+01 0.712E+03   0.992E+01 -.736E+01 -.716E+03   -.124E+00 -.150E-01 0.357E+01
   -.339E+02 -.138E+02 -.675E+03   0.339E+02 0.139E+02 0.680E+03   -.347E-02 -.140E+00 -.379E+01
   -.496E+01 -.108E+02 -.685E+03   0.491E+01 0.108E+02 0.689E+03   0.636E-01 -.121E-01 -.374E+01
   -.155E+02 -.121E+02 0.714E+03   0.154E+02 0.122E+02 -.718E+03   0.454E-01 -.428E-01 0.355E+01
   -.646E+01 -.420E+01 0.713E+03   0.645E+01 0.424E+01 -.716E+03   0.706E-02 -.390E-01 0.356E+01
   -.147E+02 -.156E+02 -.685E+03   0.147E+02 0.156E+02 0.690E+03   0.676E-01 0.244E-01 -.374E+01
   -.171E+01 -.840E+01 -.689E+03   0.166E+01 0.840E+01 0.694E+03   0.547E-01 0.709E-02 -.371E+01
   -.770E+01 -.769E+01 0.707E+03   0.767E+01 0.767E+01 -.711E+03   0.304E-01 0.304E-01 0.357E+01
   -.194E+01 -.909E+01 0.708E+03   0.188E+01 0.910E+01 -.712E+03   0.715E-01 -.624E-02 0.357E+01
   -.730E+00 0.728E+00 0.148E+02   0.199E-11 0.119E-11 0.146E-10   0.280E-02 0.280E-02 -.152E+02

 POSITION                                       TOTAL-FORCE (eV/Angst)
      8.54545     12.59441     14.71338         0.004686     -0.003853     -0.021308
      7.02105     14.11881     13.31306         0.009208     -0.009921     -0.011951
     12.00492      9.13494     13.31306        -0.009921      0.009208     -0.011951
     10.48052     10.65934     14.71338        -0.003853      0.004686     -0.021308
      0.00000      0.00000      9.00000        -0.008471      0.008442      0.359538
      2.11389      2.11389      9.00000         0.001194      0.015326      0.361347
      0.00000      2.11389     11.11389         0.005437      0.005437     -0.328438
      2.11389      0.00000     11.11389        -0.007010      0.025682     -0.326084
      0.00000      4.22777      9.00000         0.015326      0.001194      0.361347
      2.11389      6.34166      9.00000         0.014091      0.000590      0.365508
      0.00000      6.34166     11.11389         0.023970      0.000721     -0.324912
      2.11389      4.22777     11.11389         0.011429      0.011429     -0.325937
      0.00000      8.45554      9.00000         0.020345     -0.004969      0.363315
      2.11389     10.56943      9.00000        -0.000386     -0.033412      0.366017
      0.00000     10.56943     11.11389         0.008154     -0.007093     -0.318177
      2.11389      8.45554     11.11389         0.029002     -0.009532     -0.314436
      0.00000     12.68331      9.00000        -0.021895     -0.009363      0.364283
      2.11389     14.79720      9.00000        -0.100839     -0.014056      0.371322
      0.00000     14.79720     11.11389        -0.036248     -0.006094     -0.319033
      2.11389     12.68331     11.11389        -0.036415     -0.035879     -0.296803
      0.00000     16.91108      9.00000        -0.039907      0.004678      0.361733
      2.11389     19.02497      9.00000        -0.031463      0.031447      0.355066
      0.00000     19.02497     11.11389        -0.025710      0.006994     -0.326085
      2.11389     16.91108     11.11389        -0.086370      0.008304     -0.313640
      4.22777      0.00000      9.00000        -0.004689      0.039876      0.361738
      6.34166      2.11389      9.00000        -0.004969      0.020345      0.363315
      4.22777      2.11389     11.11389         0.000721      0.023970     -0.324912
      6.34166      0.00000     11.11389         0.006090      0.036200     -0.319031
      4.22777      4.22777      9.00000         0.000590      0.014091      0.365508
      6.34166      6.34166      9.00000        -0.017448      0.012396      0.380915
      4.22777      6.34166     11.11389         0.018212      0.018212     -0.312353
      6.34166      4.22777     11.11389        -0.009532      0.029002     -0.314436
      4.22777      8.45554      9.00000         0.012396     -0.017448      0.380915
      6.34166     10.56943      9.00000         0.002753     -0.085742      0.443077
      4.22777     10.56943     11.11389         0.083792     -0.063555     -0.251429
      6.34166      8.45554     11.11389         0.049366      0.049366     -0.245338
      4.22777     12.68331      9.00000        -0.050792     -0.119895      0.346039
      6.34166     14.79720      9.00000         0.070270     -0.070164     -0.201058
      4.22777     14.79720     11.11389        -0.561212     -0.072598     -0.280431
      6.34166     12.68331     11.11389        -0.009205     -0.958238     -0.329307
      4.22777     16.91108      9.00000        -0.084291      0.084311      0.316283
      6.34166     19.02497      9.00000         0.014055      0.100791      0.371325
      4.22777     19.02497     11.11389        -0.008302      0.086345     -0.313643
      6.34166     16.91108     11.11389         0.072652      0.561219     -0.280431
      8.45554      0.00000      9.00000         0.009360      0.021849      0.364286
     10.56943      2.11389      9.00000        -0.009363     -0.021895      0.364283
      8.45554      2.11389     11.11389        -0.007093      0.008154     -0.318177
     10.56943      0.00000     11.11389         0.007078     -0.008208     -0.318174
      8.45554      4.22777      9.00000        -0.033412     -0.000386      0.366017
     10.56943      6.34166      9.00000        -0.119895     -0.050792      0.346039
      8.45554      6.34166     11.11389        -0.063555      0.083792     -0.251429
     10.56943      4.22777     11.11389        -0.035879     -0.036415     -0.296803
      8.45554      8.45554      9.00000        -0.085742      0.002753      0.443077
     10.56943     10.56943      9.00000        -0.072353      0.072409      0.392456
      8.45554     10.56943     11.11389        -0.021565     -0.021565      0.049391
     10.56943      8.45554     11.11389        -0.958238     -0.009205     -0.329307
      8.45554     12.68331      9.00000         0.072409     -0.072353      0.392456
     10.56943     14.79720      9.00000         0.085748     -0.002761      0.443152
      8.45554     14.79720     11.11389         0.959291      0.009547     -0.330460
     10.56943     12.68331     11.11389         0.021672      0.021672      0.049645
[...]
     19.02497      6.34166     11.11389        -0.033960      0.004472      0.364203
     16.91108      6.34166      9.00000        -0.068440      0.030160     -0.397417
     19.02497      4.22777      9.00000        -0.024491      0.012533     -0.402649
     16.91108      8.45554     11.11389        -0.077710     -0.025422      0.348430
     19.02497     10.56943     11.11389        -0.015671     -0.013114      0.358497
     16.91108     10.56943      9.00000        -0.043423     -0.051326     -0.409853
     19.02497      8.45554      9.00000        -0.034257     -0.004348     -0.405192
     16.91108     12.68331     11.11389        -0.001466     -0.039106      0.348344
     19.02497     14.79720     11.11389         0.017697     -0.003152      0.362853
     16.91108     14.79720      9.00000         0.012544     -0.011794     -0.411217
     19.02497     12.68331      9.00000         0.002019     -0.010693     -0.407535
     16.91108     16.91108     11.11389         0.018687      0.006778      0.362647
     19.02497     19.02497     11.11389         0.015053      0.001968      0.368891
     16.91108     19.02497      9.00000         0.008372      0.008372     -0.405550
     19.02497     16.91108      9.00000         0.019765     -0.001652     -0.405154
    total drift:                               -0.727587      0.730946     -0.419860

  FREE ENERGIE OF THE ION-ELECTRON SYSTEM (eV)
  free  energy   TOTEN  =      -743.10235033 eV

  energy  without entropy=     -743.10235033  energy(sigma->0) =     -743.10235033