 vasp.6.3.0 20Jan22 (build Apr  1 2022 16:44:48) complex
 executed on        HPECrayEX_GCC date 2022.12.11  15:23:39

 INCAR:
   SYSTEM = MgO-rocksalt
   ISMEAR = 0
   SIGMA = 0.05
   EDIFF = 1E-6
   ALGO = ALL
   ISTART = 0
   IBRION = -1
   NSW = 0
   ISYM = 2
   DIPOL = 0.5 0.5 0.5
   IDIPOL = 3
   LDIPOL = .TRUE.
   GGA = PS
   IVDW = 13
   VDW_S8 = 1.71885698
   VDW_A1 = 0.47901421
   VDW_A2 = 5.96771589
   ENCUT = 520
   PREC = Accurate
   LASPH = .TRUE.
   LREAL = Auto
   ISPIN = 1
   NELM = 200
   NELMIN = 8
   NCORE = 4
   KPAR = 2
   LWAVE = .FALSE.
   LCHARG = .FALSE.

 POTCAR:    PAW_PBE Cu 22Jun2005
 POTCAR:    PAW_PBE Mg_pv 13Apr2007
 POTCAR:    PAW_PBE O 08Apr2002
 POTCAR:    PAW_PBE Cu 22Jun2005
   VRHFIN =Cu: d10 p1

   TITEL  = PAW_PBE Cu 22Jun2005
   POMASS =   63.546; ZVAL   =   11.000    mass and valenz
   ENMAX  =  295.446; ENMIN  =  221.585 eV

   TITEL  = PAW_PBE Mg_pv 13Apr2007
   POMASS =   24.305; ZVAL   =    8.000    mass and valenz
   ENMAX  =  403.929; ENMIN  =  302.947 eV

   TITEL  = PAW_PBE O 08Apr2002
   POMASS =   16.000; ZVAL   =    6.000    mass and valenz
   ENMAX  =  400.000; ENMIN  =  300.000 eV

 Optimization of the real space projectors (new method)

 maximal supplied QI-value         = 16.25
 optimisation between [QCUT,QGAM] = [ 11.54, 23.24] = [ 37.28,151.24] Ry
 Optimized for a Real-space Cutoff    1.53 Angstroem

   l    n(q)    QCUT    max X(q) W(low)/X(q) W(high)/X(q)  e(spline)
   2     10    11.539     4.610    0.96E-04    0.13E-03    0.19E-06
   2     10    11.539     8.522    0.16E-03    0.21E-03    0.28E-06
   0     11    11.539    51.609    0.45E-04    0.31E-04    0.11E-06
   0     11    11.539    27.747    0.39E-04    0.29E-04    0.10E-06
   1     10    11.539    20.408    0.70E-05    0.38E-04    0.18E-06
   1     10    11.539    13.425    0.66E-05    0.34E-04    0.17E-06
 Optimization of the real space projectors (new method)

[...]

   l    n(q)    QCUT    max X(q) W(low)/X(q) W(high)/X(q)  e(spline)
   1      8    11.527     2.974    0.44E-04    0.56E-04    0.12E-06
   1      8    11.527     4.279    0.12E-03    0.12E-03    0.26E-06
   0      9    11.527    16.381    0.46E-04    0.64E-04    0.78E-07
   0      9    11.527     5.611    0.26E-04    0.43E-04    0.55E-07
   2      8    11.527     4.652    0.22E-03    0.72E-04    0.47E-07
 Optimization of the real space projectors (new method)

 maximal supplied QI-value         = 24.76
 optimisation between [QCUT,QGAM] = [ 11.64, 23.27] = [ 37.91,151.63] Ry
 Optimized for a Real-space Cutoff    1.14 Angstroem

   l    n(q)    QCUT    max X(q) W(low)/X(q) W(high)/X(q)  e(spline)
   0      8    11.635    20.381    0.10E-03    0.33E-03    0.24E-06
   0      8    11.635    15.268    0.11E-03    0.35E-03    0.26E-06
   1      7    11.635     5.964    0.24E-03    0.31E-03    0.30E-06
   1      7    11.635     5.382    0.22E-03    0.25E-03    0.26E-06
|               ----> ADVICE to this user running VASP <----                  |
|     You enforced a specific xc type in the INCAR file but a different       |
|     type was found in the POTCAR file.                                      |
|     I HOPE YOU KNOW WHAT YOU ARE DOING!                                     |

  PAW_PBE Cu 22Jun2005                  :
  PAW_PBE Mg_pv 13Apr2007               :
  PAW_PBE O 08Apr2002                   :

 POSCAR: Cu Mg  O
  positions in direct lattice
|           W    W    AA    RRRRR   N    N  II  N    N   GGGG   !!!           |
|           W    W   A  A   R    R  NN   N  II  NN   N  G    G  !!!           |
|           W    W  A    A  R    R  N N  N  II  N N  N  G       !!!           |
|           W WW W  AAAAAA  RRRRR   N  N N  II  N  N N  G  GGG   !            |
|           WW  WW  A    A  R   R   N   NN  II  N   NN  G    G                |
|           W    W  A    A  R    R  N    N  II  N    N   GGGG   !!!           |
|     Specifying the vdW parameters                                           |
|     VDW_S8 = 1.719                                                          |
|     VDW_A1 = 0.479                                                          |
|     VDW_A2 = 5.968                                                          |
|     in the INCAR file will overwrite the defaults for pbesol. Please        |
|     make sure that is what you intended.                                    |

 ion  position               nearest neighbor table
   1  0.538  0.562  0.615-   2 2.24
   2  0.462  0.638  0.615-   1 2.24
   3  0.000  0.000  0.407- 105 2.11 106 2.11 121 2.11 186 2.11 103 2.11
   4  0.100  0.100  0.407- 105 2.11 106 2.11 110 2.11 125 2.11 104 2.11
   5  0.000  0.100  0.503- 103 2.11 104 2.11 107 2.11 184 2.11 105 2.11
   6  0.100  0.000  0.503- 103 2.11 104 2.11 120 2.11 123 2.11 106 2.11
   7  0.000  0.200  0.407- 109 2.11 105 2.11 110 2.11 190 2.11 107 2.11
   8  0.100  0.300  0.407- 110 2.11 109 2.11 114 2.11 129 2.11 108 2.11
   9  0.000  0.300  0.503- 107 2.11 108 2.11 111 2.11 188 2.11 109 2.11
  10  0.100  0.200  0.503- 108 2.11 107 2.11 104 2.11 127 2.11 110 2.11
  11  0.000  0.400  0.407- 109 2.11 113 2.11 114 2.11 194 2.11 111 2.11
  12  0.100  0.500  0.407- 113 2.11 114 2.11 118 2.11 133 2.11 112 2.11
  13  0.000  0.500  0.503- 111 2.11 112 2.11 115 2.11 192 2.11 113 2.11
  14  0.100  0.400  0.503- 108 2.11 111 2.11 112 2.11 131 2.11 114 2.11
  15  0.000  0.600  0.407- 113 2.11 117 2.11 118 2.11 198 2.11 115 2.11
  16  0.100  0.700  0.407- 122 2.11 118 2.11 117 2.11 137 2.11 116 2.11
  17  0.000  0.700  0.503- 119 2.11 116 2.11 115 2.11 196 2.11 117 2.11
  18  0.100  0.600  0.503- 112 2.11 115 2.11 116 2.11 135 2.11 118 2.11
  19  0.000  0.800  0.407- 117 2.11 121 2.11 122 2.11 202 2.11 119 2.11
  20  0.100  0.900  0.407- 106 2.11 121 2.11 122 2.11 141 2.11 120 2.11
  21  0.000  0.900  0.503- 103 2.11 119 2.11 120 2.11 200 2.11 121 2.11
  22  0.100  0.800  0.503- 116 2.11 119 2.11 120 2.11 139 2.11 122 2.11
  23  0.200  0.000  0.407- 126 2.11 125 2.11 106 2.11 141 2.11 123 2.11
  24  0.300  0.100  0.407- 125 2.11 126 2.11 130 2.11 145 2.11 124 2.11
  25  0.200  0.100  0.503- 124 2.11 123 2.11 104 2.11 127 2.11 125 2.11
  26  0.300  0.000  0.503- 123 2.11 124 2.11 140 2.11 143 2.11 126 2.11
  27  0.200  0.200  0.407- 129 2.11 130 2.11 110 2.11 125 2.11 127 2.11
  28  0.300  0.300  0.407- 129 2.11 130 2.11 134 2.11 149 2.11 128 2.11
  29  0.200  0.300  0.503- 127 2.11 128 2.11 108 2.11 131 2.11 129 2.11
  30  0.300  0.200  0.503- 127 2.11 128 2.11 124 2.11 147 2.11 130 2.11
  31  0.200  0.400  0.407- 134 2.11 129 2.11 133 2.11 114 2.11 131 2.11
  32  0.300  0.500  0.407- 133 2.11 134 2.11 138 2.11 153 2.11 132 2.11
  33  0.200  0.500  0.503- 132 2.11 131 2.11 112 2.11 135 2.11 133 2.11
  34  0.300  0.400  0.503- 131 2.11 128 2.11 132 2.11 151 2.11 134 2.11
  35  0.200  0.600  0.407- 138 2.11 133 2.11 137 2.11 118 2.11 135 2.11
  36  0.300  0.700  0.407- 137 2.11 142 2.11 138 2.11 157 2.11 136 2.11
  37  0.200  0.700  0.503- 136 2.11 139 2.11 116 2.11 135 2.11 137 2.11
  38  0.300  0.600  0.503- 135 2.11 132 2.11 136 2.11 155 2.11 138 2.11
  39  0.200  0.800  0.407- 137 2.11 142 2.11 141 2.11 122 2.11 139 2.11
  40  0.300  0.900  0.407- 141 2.11 126 2.11 142 2.11 161 2.11 140 2.11
  41  0.200  0.900  0.503- 140 2.11 123 2.11 139 2.11 120 2.11 141 2.11
  42  0.300  0.800  0.503- 136 2.11 139 2.11 140 2.11 159 2.11 142 2.11
  43  0.400  0.000  0.407- 126 2.11 145 2.11 146 2.11 161 2.11 143 2.11
  44  0.500  0.100  0.407- 145 2.11 146 2.11 150 2.11 165 2.11 144 2.11
  45  0.400  0.100  0.503- 124 2.11 143 2.11 144 2.11 147 2.11 145 2.11
  46  0.500  0.000  0.503- 143 2.11 144 2.11 160 2.11 163 2.11 146 2.11
  47  0.400  0.200  0.407- 149 2.11 145 2.11 130 2.11 150 2.11 147 2.11
  48  0.500  0.300  0.407- 150 2.11 149 2.11 154 2.11 169 2.11 148 2.11
  49  0.400  0.300  0.503- 147 2.11 128 2.11 148 2.11 151 2.11 149 2.11
  50  0.500  0.200  0.503- 148 2.11 147 2.11 144 2.11 167 2.11 150 2.11
  51  0.400  0.400  0.407- 134 2.11 149 2.11 153 2.11 154 2.11 151 2.11
  52  0.500  0.500  0.407- 153 2.11 154 2.11 158 2.11 173 2.11 152 2.11
  53  0.400  0.500  0.503- 132 2.11 151 2.11 152 2.11 155 2.11 153 2.11
  54  0.500  0.400  0.503- 148 2.11 151 2.11 152 2.11 171 2.11 154 2.11
  55  0.400  0.600  0.407- 138 2.11 153 2.11 157 2.11 158 2.11 155 2.11
  56  0.500  0.700  0.407- 162 2.11 158 2.11 157 2.11 177 2.11 156 2.11
  57  0.400  0.700  0.503- 159 2.11 155 2.11 156 2.11 136 2.11 157 2.11
  58  0.500  0.600  0.503- 152 2.11 155 2.11 156 2.11 175 2.11 158 2.11
  59  0.400  0.800  0.407- 157 2.11 142 2.11 161 2.11 162 2.11 159 2.11
  60  0.500  0.900  0.407- 146 2.11 161 2.11 162 2.11 181 2.11 160 2.11
[...]
 188  0.900  0.300  0.503-  90 2.11  89 2.11   9 2.11  94 2.11  88 2.11
 189  0.800  0.300  0.407-  68 2.11  87 2.11  88 2.11  91 2.11  89 2.11
 190  0.900  0.200  0.407-  88 2.11  84 2.11  87 2.11   7 2.11  90 2.11
 191  0.800  0.400  0.503-  74 2.11  89 2.11  93 2.11  94 2.11  91 2.11
 192  0.900  0.500  0.503-  13 2.11  93 2.11  94 2.11  98 2.11  92 2.11
 193  0.800  0.500  0.407-  72 2.11  91 2.11  92 2.11  95 2.11  93 2.11
 194  0.900  0.400  0.407-  11 2.11  88 2.11  91 2.11  92 2.11  94 2.11
 195  0.800  0.600  0.503-  78 2.11  93 2.11  97 2.11  98 2.11  95 2.11
 196  0.900  0.700  0.503- 102 2.11  97 2.11  98 2.11  17 2.11  96 2.11
 197  0.800  0.700  0.407-  76 2.11  99 2.11  96 2.11  95 2.11  97 2.11
 198  0.900  0.600  0.407-  15 2.11  92 2.11  95 2.11  96 2.11  98 2.11
 199  0.800  0.800  0.503-  82 2.11  97 2.11 101 2.11 102 2.11  99 2.11
 200  0.900  0.900  0.503-  21 2.11  86 2.11 101 2.11 102 2.11 100 2.11
 201  0.800  0.900  0.407-  80 2.11  83 2.11  99 2.11 100 2.11 101 2.11
 202  0.900  0.800  0.407-  96 2.11  19 2.11  99 2.11 100 2.11 102 2.11

  LATTYP: Found a simple tetragonal cell.
 ALAT       =    21.1388521970
 C/A-ratio  =     1.0461251639

  Lattice vectors:

 A1 = (  21.1388521970,   0.0000000000,   0.0000000000)
 A2 = (   0.0000000000,  21.1388521970,   0.0000000000)
 A3 = (   0.0000000000,   0.0000000000,  22.1138852197)

Analysis of symmetry for initial positions (statically):
 Subroutine PRICEL returns:
 Original cell was already a primitive cell.

 Routine SETGRP: Setting up the symmetry group for a
 simple tetragonal supercell.

 Subroutine GETGRP returns: Found  4 space group operations
 (whereof  1 operations were pure point group operations)
 out of a pool of 16 trial point group operations.

The static configuration has the point symmetry C_1 .
 The point group associated with its full space group is C_2v.

Analysis of symmetry for dynamics (positions and initial velocities):
 Subroutine PRICEL returns:
 Original cell was already a primitive cell.

 Routine SETGRP: Setting up the symmetry group for a
 simple tetragonal supercell.

 Subroutine GETGRP returns: Found  4 space group operations
 (whereof  1 operations were pure point group operations)
 out of a pool of 16 trial point group operations.

The dynamic configuration has the point symmetry C_1 .
 The point group associated with its full space group is C_2v.

 Subroutine INISYM returns: Found  4 space group operations
 (whereof  1 operations are pure point group operations),
[...]
     54     -42.8308      2.00000
     55     -42.8307      2.00000
     56     -42.8296      2.00000
     57     -42.8291      2.00000
     58     -42.8288      2.00000
     59     -42.8285      2.00000
     60     -42.8283      2.00000
[...]
    882       5.5139      0.00000
    883       5.5293      0.00000
    884       5.5880      0.00000
    885       5.5897      0.00000
    886       5.6145      0.00000
    887       5.6199      0.00000
    888       5.6352      0.00000
    889       5.6437      0.00000
    890       5.6677      0.00000
    891       5.7068      0.00000
    892       5.7365      0.00000
    893       5.7654      0.00000
    894       5.8564      0.00000
    895       5.9567      0.00000
    896       6.0707      0.00000

 soft charge-density along one line, spin component           1
         0         1         2         3         4         5         6         7         8         9
 total charge-density along one line

------------------------ aborting loop because EDIFF is reached ----------------------------------------

  FORCE on cell =-STRESS in cart. coord.  units (eV):
  Direction    XX          YY          ZZ          XY          YZ          ZX
  Alpha Z  1354.41543  1354.41543  1354.41543
  Ewald  480381.00929480381.00929************  -397.46722     0.00001    -0.00002
  Hartree509140.60600509140.60600************  -293.02957    -0.00000    -0.00002
  E(xc)   -7623.18541 -7623.18541 -7641.17029    -0.07741    -0.00000     0.00000
  Local  ************************************   684.52372    -0.00001     0.00004
  n-local -8849.41428 -8849.41427 -8968.54306     0.52088    -0.00000     0.00000
  augment  3401.00400  3401.00400  3341.98017     2.56028    -0.00000    -0.00000
  Kinetic 22811.60305 22811.60305 23080.24511     2.53167    -0.00000    -0.00001
  Fock        0.00000     0.00000     0.00000     0.00000     0.00000     0.00000
  vdW       -11.24005   -11.24005    -2.65415    -0.00112    -0.00000    -0.00000
  Total    -208.65898  -208.65898   -11.42203    -0.43877     0.00000     0.00000
  in kB     -33.83139   -33.83139    -1.85194    -0.07114     0.00000     0.00000

 VOLUME and BASIS-vectors are now :
  energy-cutoff  :      520.00
  volume of cell :     9881.61
      direct lattice vectors                 reciprocal lattice vectors
    21.138852197  0.000000000  0.000000000     0.047306258  0.000000000  0.000000000
     0.000000000 21.138852197  0.000000000     0.000000000  0.047306258  0.000000000
     0.000000000  0.000000000 22.113885220     0.000000000  0.000000000  0.045220457

  length of vectors
    21.138852197 21.138852197 22.113885220     0.047306258  0.047306258  0.045220457

 FORCES acting on ions:
    Electron-Ion                     Ewald-Force                    Non-Local-Force
   -.255E+03 0.255E+03 -.212E+04   0.246E+03 -.246E+03 0.212E+04   0.879E+01 -.879E+01 0.203E+00
   0.255E+03 -.255E+03 -.212E+04   -.246E+03 0.246E+03 0.212E+04   -.879E+01 0.879E+01 0.203E+00
   0.159E+00 -.352E+01 0.931E+03   -.162E+00 0.353E+01 -.923E+03   0.253E-02 -.308E-02 -.769E+01
   0.352E+01 -.159E+00 0.931E+03   -.353E+01 0.162E+00 -.923E+03   0.308E-02 -.253E-02 -.769E+01
   0.105E-07 -.187E-03 -.924E+03   0.784E-07 -.160E-05 0.915E+03   0.000E+00 0.000E+00 0.766E+01
   0.530E+01 -.530E+01 -.923E+03   -.531E+01 0.531E+01 0.915E+03   0.625E-02 -.625E-02 0.766E+01
   -.159E+00 0.352E+01 0.931E+03   0.162E+00 -.353E+01 -.923E+03   -.253E-02 0.308E-02 -.769E+01
   0.548E+01 0.692E+01 0.933E+03   -.549E+01 -.692E+01 -.925E+03   0.257E-02 0.540E-02 -.769E+01
   -.438E+00 0.725E+01 -.922E+03   0.446E+00 -.725E+01 0.914E+03   -.638E-02 0.386E-02 0.766E+01
   0.483E+01 0.483E+01 -.923E+03   -.483E+01 -.483E+01 0.915E+03   -.108E-04 -.108E-04 0.766E+01
   -.370E+00 0.627E+01 0.934E+03   0.378E+00 -.628E+01 -.926E+03   -.644E-02 0.536E-02 -.769E+01
   0.107E+02 0.528E+01 0.938E+03   -.107E+02 -.529E+01 -.930E+03   0.141E-01 0.824E-02 -.769E+01
   -.422E+00 0.508E+01 -.920E+03   0.430E+00 -.508E+01 0.912E+03   -.606E-02 0.250E-02 0.766E+01
   0.109E+02 0.984E+01 -.920E+03   -.109E+02 -.985E+01 0.912E+03   -.198E-03 0.588E-02 0.766E+01
   0.209E-06 -.190E-03 0.936E+03   -.118E-06 0.158E-05 -.928E+03   0.000E+00 0.000E+00 -.769E+01
   0.114E+02 -.486E+01 0.938E+03   -.114E+02 0.486E+01 -.930E+03   0.286E-01 -.206E-02 -.769E+01
   0.422E+00 -.508E+01 -.920E+03   -.430E+00 0.508E+01 0.912E+03   0.606E-02 -.250E-02 0.766E+01
   0.178E+02 0.582E+00 -.917E+03   -.178E+02 -.589E+00 0.909E+03   0.170E-01 0.545E-02 0.766E+01
   0.370E+00 -.628E+01 0.934E+03   -.378E+00 0.628E+01 -.926E+03   0.644E-02 -.536E-02 -.769E+01
   0.614E+01 -.719E+01 0.934E+03   -.615E+01 0.720E+01 -.926E+03   0.121E-01 -.903E-02 -.769E+01
   0.438E+00 -.725E+01 -.922E+03   -.446E+00 0.725E+01 0.914E+03   0.638E-02 -.386E-02 0.766E+01
   0.123E+02 -.995E+01 -.920E+03   -.124E+02 0.996E+01 0.912E+03   0.204E-01 -.507E-02 0.766E+01
   0.719E+01 -.614E+01 0.934E+03   -.720E+01 0.615E+01 -.926E+03   0.903E-02 -.121E-01 -.769E+01
   0.628E+01 -.370E+00 0.934E+03   -.628E+01 0.378E+00 -.926E+03   0.536E-02 -.644E-02 -.769E+01
   0.725E+01 -.438E+00 -.922E+03   -.725E+01 0.446E+00 0.914E+03   0.386E-02 -.638E-02 0.766E+01
   0.995E+01 -.123E+02 -.920E+03   -.996E+01 0.124E+02 0.912E+03   0.507E-02 -.204E-01 0.766E+01
   0.692E+01 0.548E+01 0.933E+03   -.692E+01 -.549E+01 -.925E+03   0.540E-02 0.257E-02 -.769E+01
   0.121E+02 0.156E+02 0.940E+03   -.121E+02 -.156E+02 -.932E+03   0.169E-01 0.227E-01 -.770E+01
   0.136E+02 0.136E+02 -.920E+03   -.136E+02 -.136E+02 0.912E+03   0.379E-02 0.379E-02 0.766E+01
   0.984E+01 0.109E+02 -.920E+03   -.985E+01 -.109E+02 0.912E+03   0.588E-02 -.198E-03 0.766E+01
   0.156E+02 0.121E+02 0.940E+03   -.156E+02 -.121E+02 -.932E+03   0.227E-01 0.169E-01 -.770E+01
   0.310E+02 0.170E+02 0.962E+03   -.311E+02 -.171E+02 -.954E+03   0.112E+00 0.529E-01 -.773E+01
   0.346E+02 0.142E+02 -.911E+03   -.346E+02 -.142E+02 0.902E+03   0.188E-01 0.176E-01 0.765E+01
   0.334E+02 0.334E+02 -.906E+03   -.334E+02 -.334E+02 0.898E+03   0.202E-01 0.202E-01 0.764E+01
   0.254E+02 0.917E+00 0.948E+03   -.254E+02 -.933E+00 -.940E+03   0.703E-01 0.121E-01 -.770E+01
   0.327E+02 -.156E+02 0.966E+03   -.327E+02 0.156E+02 -.958E+03   0.673E-01 -.336E-01 -.766E+01
   0.378E+02 -.126E+02 -.909E+03   -.379E+02 0.126E+02 0.901E+03   0.696E-01 0.218E-02 0.766E+01
   0.840E+02 0.687E+01 -.872E+03   -.843E+02 -.693E+01 0.864E+03   0.213E+00 0.518E-01 0.764E+01
   0.168E+02 -.123E+02 0.942E+03   -.168E+02 0.124E+02 -.934E+03   0.337E-01 -.197E-01 -.769E+01
   0.123E+02 -.168E+02 0.942E+03   -.124E+02 0.168E+02 -.934E+03   0.197E-01 -.337E-01 -.769E+01
   0.149E+02 -.149E+02 -.919E+03   -.149E+02 0.149E+02 0.911E+03   0.176E-01 -.176E-01 0.766E+01
   0.374E+02 -.374E+02 -.901E+03   -.375E+02 0.375E+02 0.893E+03   0.551E-01 -.551E-01 0.766E+01
   0.486E+01 -.114E+02 0.938E+03   -.486E+01 0.114E+02 -.930E+03   0.206E-02 -.286E-01 -.769E+01
   0.204E-06 -.184E-03 0.936E+03   -.110E-06 -.428E-05 -.928E+03   0.000E+00 0.000E+00 -.769E+01
   0.508E+01 -.423E+00 -.920E+03   -.508E+01 0.430E+00 0.912E+03   0.250E-02 -.606E-02 0.766E+01
   -.582E+00 -.178E+02 -.917E+03   0.589E+00 0.178E+02 0.909E+03   -.545E-02 -.170E-01 0.766E+01
   0.528E+01 0.107E+02 0.938E+03   -.529E+01 -.107E+02 -.930E+03   0.824E-02 0.141E-01 -.769E+01
   0.917E+00 0.254E+02 0.948E+03   -.933E+00 -.254E+02 -.940E+03   0.121E-01 0.703E-01 -.770E+01
   0.142E+02 0.346E+02 -.911E+03   -.142E+02 -.346E+02 0.902E+03   0.176E-01 0.188E-01 0.765E+01
   0.582E+00 0.178E+02 -.917E+03   -.589E+00 -.178E+02 0.909E+03   0.545E-02 0.170E-01 0.766E+01
   0.170E+02 0.310E+02 0.962E+03   -.171E+02 -.311E+02 -.954E+03   0.529E-01 0.112E+00 -.773E+01
   0.281E+01 0.347E+02 0.101E+04   -.275E+01 -.348E+02 -.100E+04   -.499E-01 0.791E-01 -.739E+01
   0.784E+02 0.784E+02 -.833E+03   -.787E+02 -.787E+02 0.826E+03   0.229E+00 0.229E+00 0.741E+01
   0.687E+01 0.840E+02 -.872E+03   -.693E+01 -.843E+02 0.864E+03   0.518E-01 0.213E+00 0.764E+01
   0.347E+02 0.281E+01 0.101E+04   -.348E+02 -.275E+01 -.100E+04   0.791E-01 -.499E-01 -.739E+01
   -.281E+01 -.347E+02 0.101E+04   0.275E+01 0.348E+02 -.100E+04   0.499E-01 -.791E-01 -.739E+01
   0.866E+02 -.866E+02 -.795E+03   -.868E+02 0.868E+02 0.787E+03   0.984E-01 -.984E-01 0.722E+01
   -.239E-04 -.262E-03 -.613E+03   0.242E-04 0.699E-04 0.610E+03   0.000E+00 0.000E+00 0.344E+01
   0.156E+02 -.327E+02 0.966E+03   -.156E+02 0.327E+02 -.958E+03   0.336E-01 -.673E-01 -.766E+01
   -.917E+00 -.254E+02 0.948E+03   0.933E+00 0.254E+02 -.940E+03   -.121E-01 -.703E-01 -.770E+01
[...]
   -.813E+01 0.813E+01 0.704E+03   0.814E+01 -.814E+01 -.708E+03   -.196E-01 0.196E-01 0.356E+01
   -.319E+01 0.319E+01 0.701E+03   0.320E+01 -.320E+01 -.705E+03   -.711E-02 0.711E-02 0.356E+01
   -.191E+02 0.136E+02 -.687E+03   0.191E+02 -.136E+02 0.691E+03   -.369E-01 0.241E-01 -.361E+01
   -.124E+02 0.480E+01 -.690E+03   0.124E+02 -.480E+01 0.694E+03   -.200E-01 0.686E-03 -.361E+01
   -.173E+02 0.613E+01 0.711E+03   0.173E+02 -.614E+01 -.715E+03   -.546E-01 0.111E-01 0.357E+01
   -.664E+01 0.574E+01 0.703E+03   0.666E+01 -.575E+01 -.707E+03   -.192E-01 0.107E-01 0.356E+01
   -.318E+02 -.146E+01 -.682E+03   0.318E+02 0.148E+01 0.686E+03   -.434E-01 -.240E-01 -.363E+01
   -.114E+02 -.530E+01 -.690E+03   0.114E+02 0.530E+01 0.694E+03   -.816E-02 -.980E-02 -.361E+01
   -.164E+02 -.686E+01 0.711E+03   0.164E+02 0.688E+01 -.715E+03   -.323E-01 -.248E-01 0.355E+01
   -.912E+01 -.258E+00 0.706E+03   0.914E+01 0.262E+00 -.710E+03   -.191E-01 -.623E-02 0.356E+01
   -.170E+02 -.129E+02 -.688E+03   0.170E+02 0.130E+02 0.692E+03   -.116E-01 -.134E-01 -.362E+01
   -.530E+01 -.650E+01 -.693E+03   0.530E+01 0.650E+01 0.697E+03   -.220E-03 -.396E-02 -.361E+01
   -.762E+01 -.762E+01 0.703E+03   0.763E+01 0.763E+01 -.707E+03   -.108E-01 -.108E-01 0.356E+01
   -.598E+01 -.573E+01 0.703E+03   0.599E+01 0.573E+01 -.707E+03   -.573E-02 -.949E-02 0.356E+01
   -.141E-04 -.110E+00 0.924E+01   0.166E-11 0.583E-12 -.105E-10   -.753E-15 0.121E-16 -.970E+01

 POSITION                                       TOTAL-FORCE (eV/Angst)
     11.36279     11.88995     13.59669        -0.154797      0.154797     -0.163394
      9.77606     13.47667     13.59669         0.154797     -0.154797     -0.163394
      0.00000      0.00000      9.00000        -0.000690      0.000847      0.451826
      2.11389      2.11389      9.00000        -0.000847      0.000690      0.451826
      0.00000      2.11389     11.11389        -0.000000     -0.000000     -0.444050
      2.11389      0.00000     11.11389        -0.001701      0.001701     -0.443840
      0.00000      4.22777      9.00000         0.000690     -0.000847      0.451826
      2.11389      6.34166      9.00000        -0.000678     -0.001469      0.452346
      0.00000      6.34166     11.11389         0.001738     -0.001052     -0.443498
      2.11389      4.22777     11.11389         0.000031      0.000031     -0.443571
      0.00000      8.45554      9.00000         0.001698     -0.001506      0.452167
      2.11389     10.56943      9.00000        -0.003790     -0.002346      0.452850
      0.00000     10.56943     11.11389         0.001618     -0.000701     -0.442456
      2.11389      8.45554     11.11389         0.000307     -0.001534     -0.441816
      0.00000     12.68331      9.00000        -0.000000     -0.000000      0.452428
      2.11389     14.79720      9.00000        -0.007395      0.000590      0.452661
      0.00000     14.79720     11.11389        -0.001618      0.000701     -0.442456
      2.11389     12.68331     11.11389        -0.003882     -0.001628     -0.441061
      0.00000     16.91108      9.00000        -0.001698      0.001506      0.452167
      2.11389     19.02497      9.00000        -0.003281      0.002523      0.451714
      0.00000     19.02497     11.11389        -0.001738      0.001052     -0.443498
      2.11389     16.91108     11.11389        -0.005348      0.001437     -0.442740
      4.22777      0.00000      9.00000        -0.002523      0.003281      0.451714
      6.34166      2.11389      9.00000        -0.001506      0.001698      0.452167
      4.22777      2.11389     11.11389        -0.001052      0.001738     -0.443498
      6.34166      0.00000     11.11389        -0.001437      0.005348     -0.442740
      4.22777      4.22777      9.00000        -0.001469     -0.000678      0.452346
      6.34166      6.34166      9.00000        -0.004583     -0.006015      0.454147
      4.22777      6.34166     11.11389        -0.000762     -0.000762     -0.441048
      6.34166      4.22777     11.11389        -0.001534      0.000307     -0.441816
      4.22777      8.45554      9.00000        -0.006015     -0.004583      0.454147
      6.34166     10.56943      9.00000        -0.030511     -0.016415      0.459999
      4.22777     10.56943     11.11389        -0.002637     -0.004562     -0.435284
      6.34166      8.45554     11.11389        -0.002484     -0.002484     -0.427564
      4.22777     12.68331      9.00000        -0.018501     -0.003718      0.454951
      6.34166     14.79720      9.00000        -0.017993      0.010398      0.442210
      4.22777     14.79720     11.11389        -0.018896     -0.000958     -0.438269
      6.34166     12.68331     11.11389        -0.071472     -0.014512     -0.410840
      4.22777     16.91108      9.00000        -0.009243      0.005741      0.451370
      6.34166     19.02497      9.00000        -0.005741      0.009243      0.451370
      4.22777     19.02497     11.11389        -0.004667      0.004667     -0.442907
      6.34166     16.91108     11.11389        -0.013451      0.013451     -0.438816
      8.45554      0.00000      9.00000        -0.000590      0.007395      0.452661
     10.56943      2.11389      9.00000        -0.000000     -0.000000      0.452428
      8.45554      2.11389     11.11389        -0.000701      0.001618     -0.442456
     10.56943      0.00000     11.11389         0.001628      0.003882     -0.441061
      8.45554      4.22777      9.00000        -0.002346     -0.003790      0.452850
     10.56943      6.34166      9.00000        -0.003718     -0.018501      0.454951
      8.45554      6.34166     11.11389        -0.004562     -0.002637     -0.435284
     10.56943      4.22777     11.11389        -0.001628     -0.003882     -0.441061
      8.45554      8.45554      9.00000        -0.016415     -0.030511      0.459999
     10.56943     10.56943      9.00000         0.018806     -0.018760      0.369744
      8.45554     10.56943     11.11389        -0.032026     -0.032026     -0.260532
     10.56943      8.45554     11.11389        -0.014512     -0.071472     -0.410840
      8.45554     12.68331      9.00000        -0.018760      0.018806      0.369744
     10.56943     14.79720      9.00000        -0.018806      0.018760      0.369744
      8.45554     14.79720     11.11389        -0.077453      0.077453     -0.511545
     10.56943     12.68331     11.11389        -0.000000     -0.000000     -0.170341
      8.45554     16.91108      9.00000        -0.010398      0.017993      0.442210
     10.56943     19.02497      9.00000         0.003718      0.018501      0.454951
[...]
     19.02497      6.34166     11.11389        -0.003526      0.002806      0.389351
     16.91108      6.34166      9.00000        -0.005470      0.005470     -0.397741
     19.02497      4.22777      9.00000        -0.001974      0.001974     -0.397908
     16.91108      8.45554     11.11389        -0.010811      0.007084      0.388202
     19.02497     10.56943     11.11389        -0.005698      0.000227      0.387538
     16.91108     10.56943      9.00000        -0.015923      0.003275     -0.395903
     19.02497      8.45554      9.00000        -0.005343      0.003001     -0.398062
     16.91108     12.68331     11.11389        -0.013566     -0.006795      0.381775
     19.02497     14.79720     11.11389        -0.002364     -0.002738      0.386623
     16.91108     14.79720      9.00000        -0.009639     -0.007136     -0.401519
     19.02497     12.68331      9.00000        -0.005370     -0.001705     -0.398873
     16.91108     16.91108     11.11389        -0.003567     -0.003908      0.383738
     19.02497     19.02497     11.11389        -0.000087     -0.001134      0.388614
     16.91108     19.02497      9.00000        -0.003055     -0.003055     -0.399230
     19.02497     16.91108      9.00000        -0.001628     -0.002677     -0.398878
    total drift:                               -0.000014     -0.109715     -0.453444

  FREE ENERGIE OF THE ION-ELECTRON SYSTEM (eV)
  free  energy   TOTEN  =     -1201.08816093 eV

  energy  without entropy=    -1201.08816093  energy(sigma->0) =    -1201.08816093