 vasp.6.3.0 20Jan22 (build Apr  1 2022 16:44:48) complex
 executed on        HPECrayEX_GCC date 2023.02.15  12:46:28

 INCAR:
   SYSTEM = MgO-rocksalt
   ISMEAR = 0
   SIGMA = 0.05
   EDIFF = 1E-6
   ALGO = ALL
   ISTART = 0
   IBRION = -1
   NSW = 0
   ISYM = 2
   DIPOL = 0.5 0.5 0.5
   IDIPOL = 3
   LDIPOL = .TRUE.
   LHFCALC = .TRUE.
   GGA = B5
   AEXX = 0.2
   AGGAX = 0.72
   AGGAC = 0.81
   ALDAC = 0.19
   ENCUT = 520
   PREC = Accurate
   LASPH = .TRUE.
   LREAL = Auto
   ISPIN = 1
   NELM = 200
   NELMIN = 8
   NCORE = 4
   KPAR = 2
   LWAVE = .FALSE.
   LCHARG = .FALSE.

 POTCAR:    PAW_PBE Cu 22Jun2005
 POTCAR:    PAW_PBE Mg_pv 13Apr2007
 POTCAR:    PAW_PBE O 08Apr2002
|           W    W    AA    RRRRR   N    N  II  N    N   GGGG   !!!           |
|           W    W   A  A   R    R  NN   N  II  NN   N  G    G  !!!           |
|           W    W  A    A  R    R  N N  N  II  N N  N  G       !!!           |
|           W WW W  AAAAAA  RRRRR   N  N N  II  N  N N  G  GGG   !            |
|           WW  WW  A    A  R   R   N   NN  II  N   NN  G    G                |
|           W    W  A    A  R    R  N    N  II  N    N   GGGG   !!!           |
|     You have selected ISYM=2 for a HF type calculation. This will           |
|     symmetrize the charge density but not the exchange potential. I         |
|     suggest to use ISYM=3 instead. This uses symmetry to obtain the         |
|     orbitals at all k-points in the Brillouin zone, but does not apply      |
|     symmetry to the Hartree potential directly. The resultant charge        |
|     might have lower symmetry than the crystal but, at least, Hartree       |
|     and exchange are fully compatible.                                      |

   TITEL  = PAW_PBE Cu 22Jun2005
   POMASS =   63.546; ZVAL   =   11.000    mass and valenz
   ENMAX  =  295.446; ENMIN  =  221.585 eV

   TITEL  = PAW_PBE Mg_pv 13Apr2007
   POMASS =   24.305; ZVAL   =    8.000    mass and valenz
   ENMAX  =  403.929; ENMIN  =  302.947 eV

   TITEL  = PAW_PBE O 08Apr2002
   POMASS =   16.000; ZVAL   =    6.000    mass and valenz
   ENMAX  =  400.000; ENMIN  =  300.000 eV

 Optimization of the real space projectors (new method)

 maximal supplied QI-value         = 16.25
 optimisation between [QCUT,QGAM] = [ 11.54, 23.24] = [ 37.28,151.24] Ry
 Optimized for a Real-space Cutoff    1.53 Angstroem

   l    n(q)    QCUT    max X(q) W(low)/X(q) W(high)/X(q)  e(spline)
   2     10    11.539     4.610    0.96E-04    0.13E-03    0.19E-06
   2     10    11.539     8.522    0.16E-03    0.21E-03    0.28E-06
   0     11    11.539    51.609    0.45E-04    0.31E-04    0.11E-06
   0     11    11.539    27.747    0.39E-04    0.29E-04    0.10E-06
   1     10    11.539    20.408    0.70E-05    0.38E-04    0.18E-06
   1     10    11.539    13.425    0.66E-05    0.34E-04    0.17E-06
 Optimization of the real space projectors (new method)

[...]

   l    n(q)    QCUT    max X(q) W(low)/X(q) W(high)/X(q)  e(spline)
   1      8    11.527     2.974    0.44E-04    0.56E-04    0.12E-06
   1      8    11.527     4.279    0.12E-03    0.12E-03    0.26E-06
   0      9    11.527    16.381    0.46E-04    0.64E-04    0.78E-07
   0      9    11.527     5.611    0.26E-04    0.43E-04    0.55E-07
   2      8    11.527     4.652    0.22E-03    0.72E-04    0.47E-07
 Optimization of the real space projectors (new method)

 maximal supplied QI-value         = 24.76
 optimisation between [QCUT,QGAM] = [ 11.64, 23.27] = [ 37.91,151.63] Ry
 Optimized for a Real-space Cutoff    1.14 Angstroem

   l    n(q)    QCUT    max X(q) W(low)/X(q) W(high)/X(q)  e(spline)
   0      8    11.635    20.381    0.10E-03    0.33E-03    0.24E-06
   0      8    11.635    15.268    0.11E-03    0.35E-03    0.26E-06
   1      7    11.635     5.964    0.24E-03    0.31E-03    0.30E-06
   1      7    11.635     5.382    0.22E-03    0.25E-03    0.26E-06
|               ----> ADVICE to this user running VASP <----                  |
|     You enforced a specific xc type in the INCAR file but a different       |
|     type was found in the POTCAR file.                                      |
|     I HOPE YOU KNOW WHAT YOU ARE DOING!                                     |

  PAW_PBE Cu 22Jun2005                  :
  PAW_PBE Mg_pv 13Apr2007               :
  PAW_PBE O 08Apr2002                   :

 POSCAR: Cu Mg  O
  positions in direct lattice
 exchange correlation table for  LEXCH =       12
   RHO(1)=    0.500       N(1)  =     2000
   RHO(2)=  100.500       N(2)  =     4000

 ion  position               nearest neighbor table
   1  0.538  0.562  0.615-   2 2.24
   2  0.462  0.638  0.615-   1 2.24
   3  0.000  0.000  0.407- 105 2.11 106 2.11 121 2.11 186 2.11 103 2.11
   4  0.100  0.100  0.407- 105 2.11 106 2.11 110 2.11 125 2.11 104 2.11
   5  0.000  0.100  0.503- 103 2.11 104 2.11 107 2.11 184 2.11 105 2.11
   6  0.100  0.000  0.503- 103 2.11 104 2.11 120 2.11 123 2.11 106 2.11
   7  0.000  0.200  0.407- 109 2.11 105 2.11 110 2.11 190 2.11 107 2.11
   8  0.100  0.300  0.407- 110 2.11 109 2.11 114 2.11 129 2.11 108 2.11
   9  0.000  0.300  0.503- 107 2.11 108 2.11 111 2.11 188 2.11 109 2.11
  10  0.100  0.200  0.503- 108 2.11 107 2.11 104 2.11 127 2.11 110 2.11
  11  0.000  0.400  0.407- 109 2.11 113 2.11 114 2.11 194 2.11 111 2.11
  12  0.100  0.500  0.407- 113 2.11 114 2.11 118 2.11 133 2.11 112 2.11
  13  0.000  0.500  0.503- 111 2.11 112 2.11 115 2.11 192 2.11 113 2.11
  14  0.100  0.400  0.503- 108 2.11 111 2.11 112 2.11 131 2.11 114 2.11
  15  0.000  0.600  0.407- 113 2.11 117 2.11 118 2.11 198 2.11 115 2.11
  16  0.100  0.700  0.407- 122 2.11 118 2.11 117 2.11 137 2.11 116 2.11
  17  0.000  0.700  0.503- 119 2.11 116 2.11 115 2.11 196 2.11 117 2.11
  18  0.100  0.600  0.503- 112 2.11 115 2.11 116 2.11 135 2.11 118 2.11
  19  0.000  0.800  0.407- 117 2.11 121 2.11 122 2.11 202 2.11 119 2.11
  20  0.100  0.900  0.407- 106 2.11 121 2.11 122 2.11 141 2.11 120 2.11
  21  0.000  0.900  0.503- 103 2.11 119 2.11 120 2.11 200 2.11 121 2.11
  22  0.100  0.800  0.503- 116 2.11 119 2.11 120 2.11 139 2.11 122 2.11
  23  0.200  0.000  0.407- 126 2.11 125 2.11 106 2.11 141 2.11 123 2.11
  24  0.300  0.100  0.407- 125 2.11 126 2.11 130 2.11 145 2.11 124 2.11
  25  0.200  0.100  0.503- 124 2.11 123 2.11 104 2.11 127 2.11 125 2.11
  26  0.300  0.000  0.503- 123 2.11 124 2.11 140 2.11 143 2.11 126 2.11
  27  0.200  0.200  0.407- 129 2.11 130 2.11 110 2.11 125 2.11 127 2.11
  28  0.300  0.300  0.407- 129 2.11 130 2.11 134 2.11 149 2.11 128 2.11
  29  0.200  0.300  0.503- 127 2.11 128 2.11 108 2.11 131 2.11 129 2.11
  30  0.300  0.200  0.503- 127 2.11 128 2.11 124 2.11 147 2.11 130 2.11
  31  0.200  0.400  0.407- 134 2.11 129 2.11 133 2.11 114 2.11 131 2.11
  32  0.300  0.500  0.407- 133 2.11 134 2.11 138 2.11 153 2.11 132 2.11
  33  0.200  0.500  0.503- 132 2.11 131 2.11 112 2.11 135 2.11 133 2.11
  34  0.300  0.400  0.503- 131 2.11 128 2.11 132 2.11 151 2.11 134 2.11
  35  0.200  0.600  0.407- 138 2.11 133 2.11 137 2.11 118 2.11 135 2.11
  36  0.300  0.700  0.407- 137 2.11 142 2.11 138 2.11 157 2.11 136 2.11
  37  0.200  0.700  0.503- 136 2.11 139 2.11 116 2.11 135 2.11 137 2.11
  38  0.300  0.600  0.503- 135 2.11 132 2.11 136 2.11 155 2.11 138 2.11
  39  0.200  0.800  0.407- 137 2.11 142 2.11 141 2.11 122 2.11 139 2.11
  40  0.300  0.900  0.407- 141 2.11 126 2.11 142 2.11 161 2.11 140 2.11
  41  0.200  0.900  0.503- 140 2.11 123 2.11 139 2.11 120 2.11 141 2.11
  42  0.300  0.800  0.503- 136 2.11 139 2.11 140 2.11 159 2.11 142 2.11
  43  0.400  0.000  0.407- 126 2.11 145 2.11 146 2.11 161 2.11 143 2.11
  44  0.500  0.100  0.407- 145 2.11 146 2.11 150 2.11 165 2.11 144 2.11
  45  0.400  0.100  0.503- 124 2.11 143 2.11 144 2.11 147 2.11 145 2.11
  46  0.500  0.000  0.503- 143 2.11 144 2.11 160 2.11 163 2.11 146 2.11
  47  0.400  0.200  0.407- 149 2.11 145 2.11 130 2.11 150 2.11 147 2.11
  48  0.500  0.300  0.407- 150 2.11 149 2.11 154 2.11 169 2.11 148 2.11
  49  0.400  0.300  0.503- 147 2.11 128 2.11 148 2.11 151 2.11 149 2.11
  50  0.500  0.200  0.503- 148 2.11 147 2.11 144 2.11 167 2.11 150 2.11
  51  0.400  0.400  0.407- 134 2.11 149 2.11 153 2.11 154 2.11 151 2.11
  52  0.500  0.500  0.407- 153 2.11 154 2.11 158 2.11 173 2.11 152 2.11
  53  0.400  0.500  0.503- 132 2.11 151 2.11 152 2.11 155 2.11 153 2.11
  54  0.500  0.400  0.503- 148 2.11 151 2.11 152 2.11 171 2.11 154 2.11
  55  0.400  0.600  0.407- 138 2.11 153 2.11 157 2.11 158 2.11 155 2.11
  56  0.500  0.700  0.407- 162 2.11 158 2.11 157 2.11 177 2.11 156 2.11
  57  0.400  0.700  0.503- 159 2.11 155 2.11 156 2.11 136 2.11 157 2.11
  58  0.500  0.600  0.503- 152 2.11 155 2.11 156 2.11 175 2.11 158 2.11
  59  0.400  0.800  0.407- 157 2.11 142 2.11 161 2.11 162 2.11 159 2.11
  60  0.500  0.900  0.407- 146 2.11 161 2.11 162 2.11 181 2.11 160 2.11
[...]
 188  0.900  0.300  0.503-  90 2.11  89 2.11   9 2.11  94 2.11  88 2.11
 189  0.800  0.300  0.407-  68 2.11  87 2.11  88 2.11  91 2.11  89 2.11
 190  0.900  0.200  0.407-  88 2.11  84 2.11  87 2.11   7 2.11  90 2.11
 191  0.800  0.400  0.503-  74 2.11  89 2.11  93 2.11  94 2.11  91 2.11
 192  0.900  0.500  0.503-  13 2.11  93 2.11  94 2.11  98 2.11  92 2.11
 193  0.800  0.500  0.407-  72 2.11  91 2.11  92 2.11  95 2.11  93 2.11
 194  0.900  0.400  0.407-  11 2.11  88 2.11  91 2.11  92 2.11  94 2.11
 195  0.800  0.600  0.503-  78 2.11  93 2.11  97 2.11  98 2.11  95 2.11
 196  0.900  0.700  0.503- 102 2.11  97 2.11  98 2.11  17 2.11  96 2.11
 197  0.800  0.700  0.407-  76 2.11  99 2.11  96 2.11  95 2.11  97 2.11
 198  0.900  0.600  0.407-  15 2.11  92 2.11  95 2.11  96 2.11  98 2.11
 199  0.800  0.800  0.503-  82 2.11  97 2.11 101 2.11 102 2.11  99 2.11
 200  0.900  0.900  0.503-  21 2.11  86 2.11 101 2.11 102 2.11 100 2.11
 201  0.800  0.900  0.407-  80 2.11  83 2.11  99 2.11 100 2.11 101 2.11
 202  0.900  0.800  0.407-  96 2.11  19 2.11  99 2.11 100 2.11 102 2.11

  LATTYP: Found a simple tetragonal cell.
 ALAT       =    21.1388521970
 C/A-ratio  =     1.0461251639

  Lattice vectors:

 A1 = (  21.1388521970,   0.0000000000,   0.0000000000)
 A2 = (   0.0000000000,  21.1388521970,   0.0000000000)
 A3 = (   0.0000000000,   0.0000000000,  22.1138852197)

Analysis of symmetry for initial positions (statically):
 Subroutine PRICEL returns:
 Original cell was already a primitive cell.

 Routine SETGRP: Setting up the symmetry group for a
 simple tetragonal supercell.

 Subroutine GETGRP returns: Found  4 space group operations
 (whereof  1 operations were pure point group operations)
 out of a pool of 16 trial point group operations.

The static configuration has the point symmetry C_1 .
 The point group associated with its full space group is C_2v.

Analysis of symmetry for dynamics (positions and initial velocities):
 Subroutine PRICEL returns:
 Original cell was already a primitive cell.

 Routine SETGRP: Setting up the symmetry group for a
 simple tetragonal supercell.

 Subroutine GETGRP returns: Found  4 space group operations
 (whereof  1 operations were pure point group operations)
 out of a pool of 16 trial point group operations.

The dynamic configuration has the point symmetry C_1 .
[...]
     22     -46.3846      2.00000
     23     -46.3834      2.00000
     24     -46.3833      2.00000
     25     -46.3831      2.00000
     26     -46.3830      2.00000
     27     -46.3785      2.00000
     28     -46.3783      2.00000
     29     -46.3780      2.00000
     30     -46.3775      2.00000
     31     -46.3766      2.00000
     32     -46.3758      2.00000
     33     -46.3747      2.00000
     34     -46.3744      2.00000
     35     -46.3743      2.00000
     36     -46.3734      2.00000
     37     -46.3731      2.00000
     38     -46.3723      2.00000
     39     -46.3723      2.00000
     40     -46.3719      2.00000
     41     -46.3711      2.00000
     42     -46.3705      2.00000
     43     -46.3697      2.00000
     44     -46.3695      2.00000
     45     -46.3694      2.00000
     46     -46.3690      2.00000
     47     -46.3688      2.00000
     48     -46.3686      2.00000
     49     -46.3674      2.00000
     50     -46.3671      2.00000
     51     -46.3664      2.00000
     52     -46.3657      2.00000
     53     -46.3657      2.00000
     54     -46.3653      2.00000
     55     -46.3651      2.00000
     56     -46.3638      2.00000
     57     -46.3635      2.00000
     58     -46.3634      2.00000
     59     -46.3631      2.00000
     60     -46.3626      2.00000
[...]
    946       6.6479      0.00000
    947       6.6629      0.00000
    948       6.7047      0.00000
    949       6.7189      0.00000
    950       6.7642      0.00000
    951       6.7830      0.00000
    952       6.8567      0.00000
    953       6.9730      0.00000
    954       7.0631      0.00000
    955       7.1157      0.00000
    956       7.2062      0.00000
    957       7.2473      0.00000
    958       7.4052      0.00000
    959       7.4525      0.00000
    960       7.6900      0.00000

 soft charge-density along one line, spin component           1
         0         1         2         3         4         5         6         7         8         9
 total charge-density along one line

------------------------ aborting loop because EDIFF is reached ----------------------------------------

 VOLUME and BASIS-vectors are now :
  energy-cutoff  :      520.00
  volume of cell :     9881.61
      direct lattice vectors                 reciprocal lattice vectors
    21.138852197  0.000000000  0.000000000     0.047306258  0.000000000  0.000000000
     0.000000000 21.138852197  0.000000000     0.000000000  0.047306258  0.000000000
     0.000000000  0.000000000 22.113885220     0.000000000  0.000000000  0.045220457

  length of vectors
    21.138852197 21.138852197 22.113885220     0.047306258  0.047306258  0.045220457

 FORCES acting on ions:
    Electron-Ion                     Ewald-Force                    Non-Local-Force
   -.254E+03 0.254E+03 -.212E+04   0.246E+03 -.246E+03 0.212E+04   0.849E+01 -.849E+01 -.907E+00
   0.254E+03 -.254E+03 -.212E+04   -.246E+03 0.246E+03 0.212E+04   -.849E+01 0.849E+01 -.907E+00
   0.158E+00 -.352E+01 0.931E+03   -.162E+00 0.353E+01 -.923E+03   0.273E-02 -.277E-02 -.670E+01
   0.352E+01 -.158E+00 0.931E+03   -.353E+01 0.162E+00 -.923E+03   0.277E-02 -.273E-02 -.670E+01
   0.136E-07 -.185E-03 -.923E+03   0.784E-07 -.160E-05 0.915E+03   0.000E+00 0.000E+00 0.667E+01
   0.530E+01 -.530E+01 -.922E+03   -.531E+01 0.531E+01 0.915E+03   0.649E-02 -.649E-02 0.667E+01
   -.158E+00 0.352E+01 0.931E+03   0.162E+00 -.353E+01 -.923E+03   -.273E-02 0.277E-02 -.670E+01
   0.548E+01 0.692E+01 0.933E+03   -.549E+01 -.692E+01 -.925E+03   0.130E-02 0.447E-02 -.670E+01
   -.436E+00 0.725E+01 -.922E+03   0.446E+00 -.725E+01 0.914E+03   -.702E-02 0.372E-02 0.667E+01
   0.483E+01 0.483E+01 -.923E+03   -.483E+01 -.483E+01 0.915E+03   -.437E-03 -.437E-03 0.667E+01
   -.368E+00 0.627E+01 0.934E+03   0.378E+00 -.628E+01 -.926E+03   -.670E-02 0.479E-02 -.670E+01
   0.107E+02 0.528E+01 0.937E+03   -.107E+02 -.529E+01 -.930E+03   0.104E-01 0.774E-02 -.670E+01
   -.420E+00 0.508E+01 -.920E+03   0.430E+00 -.508E+01 0.912E+03   -.676E-02 0.239E-02 0.667E+01
   0.109E+02 0.984E+01 -.920E+03   -.109E+02 -.985E+01 0.912E+03   -.130E-02 0.582E-02 0.667E+01
   0.212E-06 -.189E-03 0.936E+03   -.118E-06 0.158E-05 -.928E+03   0.000E+00 0.000E+00 -.670E+01
   0.114E+02 -.486E+01 0.938E+03   -.114E+02 0.486E+01 -.930E+03   0.237E-01 -.126E-02 -.670E+01
   0.420E+00 -.508E+01 -.920E+03   -.430E+00 0.508E+01 0.912E+03   0.676E-02 -.239E-02 0.667E+01
   0.178E+02 0.580E+00 -.917E+03   -.178E+02 -.589E+00 0.909E+03   0.178E-01 0.627E-02 0.667E+01
   0.368E+00 -.628E+01 0.934E+03   -.378E+00 0.628E+01 -.926E+03   0.670E-02 -.479E-02 -.670E+01
   0.613E+01 -.719E+01 0.933E+03   -.615E+01 0.720E+01 -.926E+03   0.117E-01 -.821E-02 -.670E+01
   0.436E+00 -.725E+01 -.922E+03   -.446E+00 0.725E+01 0.914E+03   0.702E-02 -.372E-02 0.667E+01
   0.123E+02 -.995E+01 -.919E+03   -.124E+02 0.996E+01 0.912E+03   0.219E-01 -.516E-02 0.667E+01
   0.718E+01 -.613E+01 0.933E+03   -.720E+01 0.615E+01 -.926E+03   0.821E-02 -.117E-01 -.670E+01
   0.628E+01 -.369E+00 0.934E+03   -.628E+01 0.378E+00 -.926E+03   0.479E-02 -.670E-02 -.670E+01
   0.725E+01 -.436E+00 -.922E+03   -.725E+01 0.446E+00 0.914E+03   0.372E-02 -.702E-02 0.667E+01
   0.995E+01 -.123E+02 -.919E+03   -.996E+01 0.124E+02 0.912E+03   0.516E-02 -.219E-01 0.667E+01
   0.692E+01 0.548E+01 0.933E+03   -.692E+01 -.549E+01 -.925E+03   0.447E-02 0.130E-02 -.670E+01
   0.121E+02 0.156E+02 0.940E+03   -.121E+02 -.156E+02 -.932E+03   0.139E-01 0.169E-01 -.671E+01
   0.136E+02 0.136E+02 -.919E+03   -.136E+02 -.136E+02 0.912E+03   0.294E-02 0.294E-02 0.667E+01
   0.984E+01 0.109E+02 -.920E+03   -.985E+01 -.109E+02 0.912E+03   0.582E-02 -.130E-02 0.667E+01
   0.156E+02 0.121E+02 0.940E+03   -.156E+02 -.121E+02 -.932E+03   0.169E-01 0.139E-01 -.671E+01
   0.310E+02 0.170E+02 0.962E+03   -.311E+02 -.171E+02 -.954E+03   0.766E-01 0.397E-01 -.672E+01
   0.346E+02 0.142E+02 -.910E+03   -.346E+02 -.142E+02 0.902E+03   0.173E-01 0.202E-01 0.666E+01
   0.334E+02 0.334E+02 -.906E+03   -.334E+02 -.334E+02 0.898E+03   0.196E-01 0.196E-01 0.665E+01
   0.254E+02 0.915E+00 0.948E+03   -.254E+02 -.933E+00 -.940E+03   0.494E-01 0.121E-01 -.670E+01
   0.327E+02 -.156E+02 0.965E+03   -.327E+02 0.156E+02 -.958E+03   0.532E-01 -.192E-01 -.666E+01
   0.378E+02 -.126E+02 -.908E+03   -.379E+02 0.126E+02 0.901E+03   0.728E-01 0.233E-02 0.667E+01
   0.840E+02 0.684E+01 -.872E+03   -.843E+02 -.693E+01 0.864E+03   0.175E+00 0.629E-01 0.669E+01
   0.168E+02 -.123E+02 0.941E+03   -.168E+02 0.124E+02 -.934E+03   0.297E-01 -.157E-01 -.669E+01
   0.123E+02 -.168E+02 0.941E+03   -.124E+02 0.168E+02 -.934E+03   0.157E-01 -.297E-01 -.669E+01
   0.149E+02 -.149E+02 -.919E+03   -.149E+02 0.149E+02 0.911E+03   0.187E-01 -.187E-01 0.667E+01
   0.374E+02 -.374E+02 -.901E+03   -.375E+02 0.375E+02 0.893E+03   0.582E-01 -.582E-01 0.668E+01
   0.486E+01 -.114E+02 0.938E+03   -.486E+01 0.114E+02 -.930E+03   0.126E-02 -.237E-01 -.670E+01
   0.206E-06 -.183E-03 0.936E+03   -.110E-06 -.428E-05 -.928E+03   0.000E+00 0.000E+00 -.670E+01
   0.508E+01 -.421E+00 -.920E+03   -.508E+01 0.430E+00 0.912E+03   0.239E-02 -.676E-02 0.667E+01
   -.580E+00 -.178E+02 -.917E+03   0.589E+00 0.178E+02 0.909E+03   -.627E-02 -.178E-01 0.667E+01
   0.528E+01 0.107E+02 0.937E+03   -.529E+01 -.107E+02 -.930E+03   0.774E-02 0.104E-01 -.670E+01
   0.916E+00 0.254E+02 0.948E+03   -.933E+00 -.254E+02 -.940E+03   0.121E-01 0.494E-01 -.670E+01
   0.142E+02 0.346E+02 -.910E+03   -.142E+02 -.346E+02 0.902E+03   0.202E-01 0.173E-01 0.666E+01
   0.580E+00 0.178E+02 -.917E+03   -.589E+00 -.178E+02 0.909E+03   0.627E-02 0.178E-01 0.667E+01
   0.170E+02 0.310E+02 0.962E+03   -.171E+02 -.311E+02 -.954E+03   0.397E-01 0.766E-01 -.672E+01
   0.278E+01 0.347E+02 0.101E+04   -.275E+01 -.348E+02 -.100E+04   -.241E-01 0.621E-01 -.651E+01
   0.784E+02 0.784E+02 -.833E+03   -.787E+02 -.787E+02 0.826E+03   0.198E+00 0.198E+00 0.654E+01
   0.684E+01 0.840E+02 -.872E+03   -.693E+01 -.843E+02 0.864E+03   0.629E-01 0.175E+00 0.669E+01
   0.347E+02 0.278E+01 0.101E+04   -.348E+02 -.275E+01 -.100E+04   0.621E-01 -.241E-01 -.651E+01
   -.278E+01 -.347E+02 0.101E+04   0.275E+01 0.348E+02 -.100E+04   0.241E-01 -.621E-01 -.651E+01
   0.865E+02 -.865E+02 -.795E+03   -.868E+02 0.868E+02 0.787E+03   0.152E+00 -.152E+00 0.669E+01
   -.237E-04 -.260E-03 -.614E+03   0.242E-04 0.699E-04 0.610E+03   0.000E+00 0.000E+00 0.386E+01
   0.156E+02 -.327E+02 0.965E+03   -.156E+02 0.327E+02 -.958E+03   0.192E-01 -.532E-01 -.666E+01
   -.916E+00 -.254E+02 0.948E+03   0.933E+00 0.254E+02 -.940E+03   -.121E-01 -.494E-01 -.670E+01
[...]
   -.813E+01 0.813E+01 0.704E+03   0.814E+01 -.814E+01 -.708E+03   -.175E-01 0.175E-01 0.318E+01
   -.319E+01 0.319E+01 0.701E+03   0.320E+01 -.320E+01 -.705E+03   -.661E-02 0.661E-02 0.318E+01
   -.191E+02 0.136E+02 -.687E+03   0.191E+02 -.136E+02 0.691E+03   -.382E-01 0.237E-01 -.321E+01
   -.124E+02 0.480E+01 -.690E+03   0.124E+02 -.480E+01 0.694E+03   -.201E-01 0.942E-04 -.322E+01
   -.173E+02 0.613E+01 0.711E+03   0.173E+02 -.614E+01 -.715E+03   -.445E-01 0.564E-02 0.319E+01
   -.664E+01 0.574E+01 0.703E+03   0.666E+01 -.575E+01 -.707E+03   -.173E-01 0.853E-02 0.318E+01
   -.318E+02 -.146E+01 -.682E+03   0.318E+02 0.148E+01 0.686E+03   -.428E-01 -.263E-01 -.323E+01
   -.114E+02 -.530E+01 -.690E+03   0.114E+02 0.530E+01 0.694E+03   -.679E-02 -.989E-02 -.322E+01
   -.164E+02 -.686E+01 0.711E+03   0.164E+02 0.688E+01 -.715E+03   -.242E-01 -.199E-01 0.317E+01
   -.912E+01 -.258E+00 0.706E+03   0.914E+01 0.262E+00 -.710E+03   -.160E-01 -.584E-02 0.318E+01
   -.170E+02 -.129E+02 -.688E+03   0.170E+02 0.130E+02 0.692E+03   -.868E-02 -.116E-01 -.323E+01
   -.530E+01 -.650E+01 -.693E+03   0.530E+01 0.650E+01 0.697E+03   0.762E-03 -.318E-02 -.322E+01
   -.762E+01 -.762E+01 0.703E+03   0.763E+01 0.763E+01 -.707E+03   -.813E-02 -.813E-02 0.318E+01
   -.598E+01 -.573E+01 0.703E+03   0.599E+01 0.573E+01 -.707E+03   -.369E-02 -.796E-02 0.318E+01
   -.137E-04 -.110E+00 0.843E+01   0.166E-11 0.583E-12 -.105E-10   -.420E-15 0.108E-14 -.804E+01

 POSITION                                       TOTAL-FORCE (eV/Angst)
     11.36279     11.88995     13.59669         0.139013     -0.139013      0.233823
      9.77606     13.47667     13.59669        -0.139013      0.139013      0.233823
      0.00000      0.00000      9.00000        -0.000848      0.000862      0.421309
      2.11389      2.11389      9.00000        -0.000862      0.000848      0.421309
      0.00000      2.11389     11.11389        -0.000000      0.000000     -0.412308
      2.11389      0.00000     11.11389        -0.002028      0.002028     -0.412237
      0.00000      4.22777      9.00000         0.000848     -0.000862      0.421309
      2.11389      6.34166      9.00000        -0.000403     -0.001397      0.421876
      0.00000      6.34166     11.11389         0.002179     -0.001161     -0.411782
      2.11389      4.22777     11.11389         0.000163      0.000163     -0.411736
      0.00000      8.45554      9.00000         0.002027     -0.001551      0.421576
      2.11389     10.56943      9.00000        -0.003240     -0.002535      0.422106
      0.00000     10.56943     11.11389         0.002059     -0.000758     -0.410895
      2.11389      8.45554     11.11389         0.000572     -0.001755     -0.410120
      0.00000     12.68331      9.00000        -0.000000      0.000000      0.421761
      2.11389     14.79720      9.00000        -0.007095      0.000432      0.421437
      0.00000     14.79720     11.11389        -0.002059      0.000758     -0.410895
      2.11389     12.68331     11.11389        -0.005092     -0.002127     -0.409907
      0.00000     16.91108      9.00000        -0.002027      0.001551      0.421576
      2.11389     19.02497      9.00000        -0.003644      0.002636      0.421121
      0.00000     19.02497     11.11389        -0.002179      0.001161     -0.411782
      2.11389     16.91108     11.11389        -0.006647      0.001698     -0.411500
      4.22777      0.00000      9.00000        -0.002636      0.003644      0.421121
      6.34166      2.11389      9.00000        -0.001551      0.002027      0.421576
      4.22777      2.11389     11.11389        -0.001161      0.002179     -0.411782
      6.34166      0.00000     11.11389        -0.001698      0.006647     -0.411500
      4.22777      4.22777      9.00000        -0.001397     -0.000403      0.421876
      6.34166      6.34166      9.00000        -0.004378     -0.005227      0.423271
      4.22777      6.34166     11.11389        -0.000720     -0.000720     -0.409277
      6.34166      4.22777     11.11389        -0.001755      0.000572     -0.410120
      4.22777      8.45554      9.00000        -0.005227     -0.004378      0.423271
      6.34166     10.56943      9.00000        -0.024699     -0.014045      0.425464
      4.22777     10.56943     11.11389        -0.004168     -0.006482     -0.404958
      6.34166      8.45554     11.11389        -0.004501     -0.004501     -0.397722
      4.22777     12.68331      9.00000        -0.015407     -0.004196      0.421839
      6.34166     14.79720      9.00000        -0.017580      0.007029      0.407616
      4.22777     14.79720     11.11389        -0.022950     -0.000696     -0.410864
      6.34166     12.68331     11.11389        -0.070528     -0.023257     -0.407133
      4.22777     16.91108      9.00000        -0.009479      0.005341      0.419748
      6.34166     19.02497      9.00000        -0.005341      0.009479      0.419748
      4.22777     19.02497     11.11389        -0.005847      0.005847     -0.411978
      6.34166     16.91108     11.11389        -0.019457      0.019457     -0.416383
      8.45554      0.00000      9.00000        -0.000432      0.007095      0.421437
     10.56943      2.11389      9.00000        -0.000000      0.000000      0.421761
      8.45554      2.11389     11.11389        -0.000758      0.002059     -0.410895
     10.56943      0.00000     11.11389         0.002127      0.005092     -0.409907
      8.45554      4.22777      9.00000        -0.002535     -0.003240      0.422106
     10.56943      6.34166      9.00000        -0.004196     -0.015407      0.421839
      8.45554      6.34166     11.11389        -0.006482     -0.004168     -0.404958
     10.56943      4.22777     11.11389        -0.002127     -0.005092     -0.409907
      8.45554      8.45554      9.00000        -0.014045     -0.024699      0.425464
     10.56943     10.56943      9.00000         0.010889     -0.019005      0.353670
      8.45554     10.56943     11.11389        -0.041640     -0.041640     -0.288695
     10.56943      8.45554     11.11389        -0.023257     -0.070528     -0.407133
      8.45554     12.68331      9.00000        -0.019005      0.010889      0.353670
     10.56943     14.79720      9.00000        -0.010889      0.019005      0.353670
      8.45554     14.79720     11.11389        -0.106012      0.106012     -0.602537
     10.56943     12.68331     11.11389        -0.000000      0.000000     -0.372566
      8.45554     16.91108      9.00000        -0.007029      0.017580      0.407616
     10.56943     19.02497      9.00000         0.004196      0.015407      0.421839
[...]
     19.02497      6.34166     11.11389        -0.004157      0.003175      0.450824
     16.91108      6.34166      9.00000        -0.005731      0.005731     -0.459730
     19.02497      4.22777      9.00000        -0.002141      0.002141     -0.460484
     16.91108      8.45554     11.11389        -0.012540      0.007846      0.451205
     19.02497     10.56943     11.11389        -0.006552      0.000028      0.449424
     16.91108     10.56943      9.00000        -0.015003      0.001930     -0.456849
     19.02497      8.45554      9.00000        -0.005664      0.002798     -0.460209
     16.91108     12.68331     11.11389        -0.014278     -0.008531      0.445740
     19.02497     14.79720     11.11389        -0.002236     -0.003202      0.448142
     16.91108     14.79720      9.00000        -0.008256     -0.006633     -0.462750
     19.02497     12.68331      9.00000        -0.005233     -0.001889     -0.460843
     16.91108     16.91108     11.11389        -0.002996     -0.003857      0.445240
     19.02497     19.02497     11.11389         0.000237     -0.001041      0.449810
     16.91108     19.02497      9.00000        -0.002671     -0.002671     -0.461794
     19.02497     16.91108      9.00000        -0.001200     -0.002607     -0.461424
    total drift:                               -0.000014     -0.109991     -0.273832

  FREE ENERGIE OF THE ION-ELECTRON SYSTEM (eV)
  free  energy   TOTEN  =     -1332.45595975 eV

  energy  without entropy=    -1332.45595975  energy(sigma->0) =    -1332.45595975