 vasp.6.4.0 14Feb23 (build Mar 22 2023 21:21:37) complex

 executed on           IFC15_impi date 2023.05.05  17:51:50

 INCAR:
   SYSTEM = MgO-rocksalt
   ISMEAR = 0
   SIGMA = 0.05
   EDIFF = 1E-6
   ALGO = ALL
   ISTART = 0
   IBRION = -1
   NSW = 0
   ISYM = 2
   DIPOL = 0.5 0.5 0.5
   IDIPOL = 3
   LDIPOL = .TRUE.
   GGA = RE
   IVDW = 21
   VDW_SR = 0.6
   ENCUT = 520
   PREC = Accurate
   LASPH = .TRUE.
   LREAL = Auto
   ISPIN = 1
   NELM = 200
   NELMIN = 8
   NCORE = 4
   KPAR = 2
   LWAVE = .FALSE.
   LCHARG = .FALSE.

 POTCAR:    PAW_PBE Au 04Oct2007
 POTCAR:    PAW_PBE Mg_pv 13Apr2007
 POTCAR:    PAW_PBE O 08Apr2002
 POTCAR:    PAW_PBE Au 04Oct2007
   VRHFIN =Au: s1d10

   TITEL  = PAW_PBE Au 04Oct2007
   POMASS =  196.966; ZVAL   =   11.000    mass and valenz
   ENMAX  =  229.943; ENMIN  =  172.457 eV

   TITEL  = PAW_PBE Mg_pv 13Apr2007
   POMASS =   24.305; ZVAL   =    8.000    mass and valenz
   ENMAX  =  403.929; ENMIN  =  302.947 eV

   TITEL  = PAW_PBE O 08Apr2002
   POMASS =   16.000; ZVAL   =    6.000    mass and valenz
   ENMAX  =  400.000; ENMIN  =  300.000 eV

 Optimization of the real space projectors (new method)

 maximal supplied QI-value         = 15.12
 optimisation between [QCUT,QGAM] = [ 11.64, 23.28] = [ 37.95,151.78] Ry
 Optimized for a Real-space Cutoff    1.49 Angstroem

   l    n(q)    QCUT    max X(q) W(low)/X(q) W(high)/X(q)  e(spline)
   2      9    11.641    60.898    0.24E-03    0.10E-03    0.19E-06
   2      9    11.641    58.894    0.25E-03    0.10E-03    0.19E-06
   0     10    11.641   109.617    0.73E-04    0.33E-04    0.11E-06
   0     10    11.641    75.026    0.71E-04    0.32E-04    0.11E-06
   1     10    11.641    16.344    0.27E-04    0.97E-04    0.16E-06
   1     10    11.641    10.160    0.23E-04    0.77E-04    0.13E-06
 Optimization of the real space projectors (new method)

[...]

   l    n(q)    QCUT    max X(q) W(low)/X(q) W(high)/X(q)  e(spline)
   1      8    11.527     2.974    0.44E-04    0.56E-04    0.12E-06
   1      8    11.527     4.279    0.12E-03    0.12E-03    0.26E-06
   0      9    11.527    16.381    0.46E-04    0.64E-04    0.78E-07
   0      9    11.527     5.611    0.26E-04    0.43E-04    0.55E-07
   2      8    11.527     4.652    0.22E-03    0.72E-04    0.47E-07
 Optimization of the real space projectors (new method)

 maximal supplied QI-value         = 24.76
 optimisation between [QCUT,QGAM] = [ 11.64, 23.27] = [ 37.91,151.63] Ry
 Optimized for a Real-space Cutoff    1.14 Angstroem

   l    n(q)    QCUT    max X(q) W(low)/X(q) W(high)/X(q)  e(spline)
   0      8    11.635    20.381    0.10E-03    0.33E-03    0.24E-06
   0      8    11.635    15.268    0.11E-03    0.35E-03    0.26E-06
   1      7    11.635     5.964    0.24E-03    0.31E-03    0.30E-06
   1      7    11.635     5.382    0.22E-03    0.25E-03    0.26E-06
|               ----> ADVICE to this user running VASP <----                  |
|     You enforced a specific xc type in the INCAR file but a different       |
|     type was found in the POTCAR file.                                      |
|     I HOPE YOU KNOW WHAT YOU ARE DOING!                                     |

  PAW_PBE Au 04Oct2007                  :
  PAW_PBE Mg_pv 13Apr2007               :
  PAW_PBE O 08Apr2002                   :

 POSCAR: Mg  O
  positions in direct lattice
  velocities in cartesian coordinates
 exchange correlation table for  LEXCH =       40
   RHO(1)=    0.500       N(1)  =     2000
   RHO(2)=  100.500       N(2)  =     4000

 ion  position               nearest neighbor table
   1  0.431  0.227  0.583- 265 2.50   2 2.73   5 2.74  11 2.75  68 2.95  67 3.01
   2  0.559  0.237  0.590-   3 2.65   1 2.73  12 2.78  11 2.83   6 2.87   5 2.95  68 3.06
   3  0.683  0.252  0.593-   2 2.65   4 2.67  12 2.79   6 2.82  13 2.87   7 2.91  88 3.01
   4  0.809  0.260  0.596-   3 2.67   7 2.72  13 2.76 107 2.99
   5  0.476  0.348  0.587-   8 2.70   1 2.74  14 2.75  11 2.81   6 2.86  72 2.89   2 2.95
   6  0.610  0.363  0.590-   3 2.82   9 2.82   8 2.86   5 2.86   2 2.87  15 2.93   7 2.93  14 2.96
                            12 2.99  87 3.02
   7  0.748  0.373  0.593-   9 2.67   4 2.72  15 2.80  13 2.87   3 2.91   6 2.93  92 3.00
   8  0.524  0.467  0.585- 270 2.69   5 2.70  10 2.76  14 2.76  16 2.84   6 2.86  72 2.98   9 3.28

   9  0.678  0.478  0.587- 290 2.66   7 2.67  10 2.73  15 2.77   6 2.82  16 2.89   8 3.28
  10  0.595  0.576  0.580- 293 2.37  16 2.68   9 2.73   8 2.76  91 2.91
  11  0.480  0.269  0.662-  17 2.70   1 2.75   5 2.81  12 2.83   2 2.83  14 2.91
  12  0.613  0.277  0.669-  17 2.75  18 2.76   2 2.78   3 2.79  11 2.83  13 2.83   6 2.99  14 3.17
                            15 3.18
  13  0.745  0.297  0.672-  18 2.67   4 2.76  15 2.82  12 2.83   7 2.87   3 2.87
  14  0.525  0.399  0.664-   5 2.75  19 2.75  17 2.76   8 2.76  16 2.86  11 2.91   6 2.96  12 3.17
                            15 3.26
  15  0.679  0.413  0.667-   9 2.77  19 2.77  18 2.78   7 2.80  16 2.81  13 2.82   6 2.93  12 3.18
                            14 3.26
  16  0.595  0.515  0.658-  10 2.68  19 2.70  15 2.81   8 2.84  14 2.86   9 2.89
  17  0.533  0.318  0.736-  11 2.70  20 2.70  12 2.75  14 2.76  18 2.98  19 3.01
  18  0.673  0.333  0.741-  20 2.67  13 2.67  12 2.76  15 2.78  19 2.91  17 2.98
  19  0.595  0.446  0.734-  16 2.70  20 2.72  14 2.75  15 2.77  18 2.91  17 3.01
  20  0.595  0.368  0.806-  18 2.67  17 2.70  19 2.72
  21  0.000  1.000  0.430- 304 2.11 223 2.11 239 2.11 224 2.11 321 2.12 221 2.13
  22  0.100  0.100  0.430- 223 2.11 224 2.11 228 2.11 243 2.12 322 2.12 222 2.13
  23  0.000  0.100  0.500- 223 2.11 302 2.11 222 2.11 221 2.11 225 2.12
  24  0.100  1.000  0.500- 224 2.10 221 2.11 238 2.11 241 2.11 222 2.11
  25  1.000  0.200  0.430- 308 2.11 223 2.11 228 2.11 227 2.11 325 2.12 225 2.13
  26  0.100  0.300  0.430- 227 2.11 232 2.11 228 2.11 247 2.12 326 2.12 226 2.13
  27  0.000  0.300  0.500- 227 2.11 226 2.11 306 2.11 225 2.12 229 2.12
  28  0.100  0.200  0.500- 228 2.11 225 2.11 245 2.11 222 2.11 226 2.12
  29  1.000  0.400  0.430- 312 2.11 232 2.11 227 2.11 231 2.12 329 2.12 229 2.13
  30  0.100  0.500  0.430- 231 2.11 251 2.11 236 2.11 232 2.11 330 2.12 230 2.13
  31  0.000  0.500  0.500- 231 2.11 230 2.11 310 2.11 233 2.12 229 2.12
  32  0.100  0.400  0.500- 232 2.11 229 2.11 249 2.11 230 2.12 226 2.12
  33  0.000  0.600  0.430- 236 2.11 235 2.11 231 2.11 316 2.11 333 2.12 233 2.13
  34  0.100  0.700  0.430- 235 2.11 240 2.11 255 2.11 236 2.11 334 2.12 234 2.13
  35  0.000  0.700  0.500- 235 2.11 234 2.11 237 2.11 314 2.11 233 2.11
  36  0.100  0.600  0.500- 236 2.11 233 2.11 253 2.11 234 2.11 230 2.11
  37  0.000  0.800  0.430- 239 2.11 240 2.11 235 2.11 320 2.11 337 2.12 237 2.13
  38  0.100  0.900  0.430- 239 2.11 240 2.11 224 2.11 259 2.11 338 2.12 238 2.13
  39  0.000  0.900  0.500- 239 2.10 221 2.11 238 2.11 237 2.11 318 2.11
  40  0.100  0.800  0.500- 240 2.10 237 2.11 238 2.11 257 2.11 234 2.11
  41  0.200  1.000  0.430- 224 2.11 259 2.11 243 2.12 244 2.12 341 2.12 241 2.13
  42  0.300  0.100  0.430- 243 2.11 244 2.11 263 2.11 248 2.11 342 2.13 242 2.13
  43  0.200  0.100  0.500- 243 2.11 222 2.11 241 2.11 245 2.12 242 2.12
  44  0.300  1.000  0.500- 244 2.11 241 2.11 258 2.11 261 2.12 242 2.12
  45  0.200  0.200  0.430- 228 2.11 243 2.11 247 2.11 345 2.12 248 2.13 245 2.14
  46  0.300  0.300  0.430- 267 2.11 247 2.11 252 2.11 248 2.12 346 2.12 246 2.13
  47  0.200  0.300  0.500- 226 2.11 247 2.11 249 2.11 246 2.12 245 2.12
  48  0.298  0.200  0.500- 245 2.09 248 2.11 246 2.11 242 2.11 265 2.13
  49  0.200  0.400  0.430- 232 2.11 252 2.11 251 2.11 247 2.12 349 2.12 249 2.13
  50  0.300  0.500  0.430- 251 2.11 256 2.11 252 2.11 271 2.12 350 2.12 250 2.13
  51  0.200  0.500  0.500- 251 2.11 230 2.11 250 2.11 253 2.11 249 2.12
  52  0.299  0.400  0.500- 249 2.10 252 2.11 269 2.11 250 2.11 246 2.12
  53  0.200  0.600  0.430- 236 2.11 255 2.11 251 2.11 256 2.11 353 2.12 253 2.13
  54  0.300  0.700  0.430- 255 2.11 260 2.11 256 2.11 275 2.12 354 2.12 254 2.13
  55  0.200  0.700  0.500- 255 2.11 234 2.11 257 2.11 253 2.11 254 2.11
  56  0.299  0.600  0.500- 253 2.11 256 2.11 254 2.11 273 2.11 250 2.12
  57  0.200  0.800  0.430- 240 2.11 255 2.11 259 2.11 260 2.12 357 2.12 257 2.13
  58  0.300  0.900  0.430- 259 2.11 260 2.11 279 2.11 244 2.12 358 2.12 258 2.13
  59  0.200  0.900  0.500- 259 2.10 238 2.11 257 2.11 241 2.11 258 2.11
  60  0.300  0.800  0.500- 260 2.10 257 2.11 258 2.11 254 2.11 277 2.12
  61  0.400  1.000  0.430- 264 2.11 244 2.11 279 2.11 361 2.12 263 2.13 261 2.13
  62  0.500  0.100  0.430- 268 2.11 264 2.11 283 2.11 263 2.12 362 2.12 262 2.12
  63  0.400  0.098  0.500- 261 2.09 263 2.11 262 2.11 242 2.11 265 2.14
  64  0.500  1.000  0.500- 264 2.11 278 2.11 262 2.11 281 2.11 261 2.12
  65  0.400  0.200  0.429- 268 2.10 267 2.10 248 2.10 263 2.10 365 2.11
  66  0.500  0.300  0.429- 266 2.07 366 2.10 287 2.11 268 2.12 267 2.12 272 2.13
  67  0.399  0.302  0.500- 269 2.09 246 2.11 267 2.12 266 2.12 265 2.16   1 3.01
  68  0.501  0.199  0.500- 285 2.09 262 2.11 268 2.11 266 2.13 265 2.16   1 2.95   2 3.06
  69  0.400  0.400  0.430- 269 2.11 252 2.11 369 2.11 272 2.11 271 2.12 267 2.13
  70  0.500  0.500  0.429- 272 2.10 271 2.11 370 2.11 276 2.12 291 2.12 270 2.14
  71  0.399  0.500  0.500- 250 2.10 269 2.10 271 2.11 273 2.12 270 2.13
  72  0.500  0.399  0.500- 266 2.11 272 2.11 269 2.13 289 2.13 270 2.15   5 2.89   8 2.98
  73  0.400  0.600  0.430- 256 2.11 271 2.11 275 2.11 373 2.12 276 2.13 273 2.13
  74  0.500  0.700  0.430- 280 2.11 275 2.11 295 2.12 276 2.12 374 2.12 274 2.13
  75  0.399  0.701  0.500- 254 2.10 277 2.11 275 2.11 273 2.12 274 2.12
[...]
 406  0.900  0.300  0.359- 208 2.11 207 2.11 127 2.11 212 2.11 206 2.11 106 2.12
 407  0.800  0.300  0.289- 186 2.11 205 2.11 206 2.11 209 2.11 207 2.11
 408  0.900  0.200  0.289- 206 2.11 202 2.11 205 2.11 125 2.11 208 2.11
 409  0.800  0.400  0.359- 192 2.11 207 2.11 211 2.11 212 2.11 209 2.11 109 2.12
 410  0.900  0.500  0.359- 131 2.11 211 2.11 212 2.11 216 2.11 210 2.11 110 2.12
 411  0.800  0.500  0.289- 190 2.11 209 2.11 210 2.11 213 2.11 211 2.11
 412  0.900  0.400  0.289- 129 2.11 206 2.11 209 2.11 210 2.11 212 2.11
 413  0.800  0.600  0.359- 196 2.11 211 2.11 215 2.11 216 2.11 213 2.11 113 2.12
 414  0.900  0.700  0.359- 220 2.11 215 2.11 216 2.11 135 2.11 214 2.11 114 2.12
 415  0.800  0.700  0.289- 194 2.11 217 2.11 214 2.11 213 2.11 215 2.11
 416  0.900  0.600  0.289- 133 2.11 210 2.11 213 2.11 214 2.11 216 2.11
 417  0.800  0.800  0.359- 200 2.11 215 2.11 219 2.11 220 2.11 217 2.11 117 2.12
 418  0.900  0.900  0.359- 139 2.11 204 2.11 219 2.11 220 2.11 218 2.11 118 2.12
 419  0.800  0.900  0.289- 198 2.11 201 2.11 217 2.11 218 2.11 219 2.11
 420  0.900  0.800  0.289- 214 2.11 137 2.11 217 2.11 218 2.11 220 2.11

  LATTYP: Found a simple tetragonal cell.
 ALAT       =    21.1388521970
 C/A-ratio  =     1.4191877459

  Lattice vectors:

 A1 = (  21.1388521970,   0.0000000000,   0.0000000000)
 A2 = (   0.0000000000,  21.1388521970,   0.0000000000)
 A3 = (   0.0000000000,   0.0000000000,  30.0000000000)

Analysis of symmetry for initial positions (statically):
 Subroutine PRICEL returns:
[...]
  339          m_sumb_d                              0.172471                         10   4
  340        m_sumb_d                            209.872972                           48   3
  341        fft3d_mpi                             0.467006                           18   3
  342          fftbrc_mpi                            0.444381                         18   4
  343            fftbas_plan_mpi                       0.444319                       18   5
  344              dfftw_execute                         0.124285                     54   6
  345              map_forward                           0.112348                     18   6
  346                map_gather                            0.026166                    9   7
  347                m_alltoallv_z                         0.069492                    9   7
  348                map_scatter                           0.016363                    9   7
  349              map_backward                          0.193793                     18   6
  350                map_gather                            0.014018                    9   7
  351                m_alltoallv_z                         0.149966                    9   7
  352                map_scatter                           0.029482                    9   7
  353        ggaall_grid                           0.389768                            1   3
  354        forhar                                3.026312                            1   3
  355          m_sumb_d                              0.007232                          1   4
  356        strehar                               0.041785                            1   3
  357          m_sumb_d                              0.008058                          1   4
  358        augmentation_charge                   0.108549                            1   3
  359          m_sumb_d                              0.001571                          1   4
  360          fft3d_mpi                             0.024313                          1   4
  361            fftbrc_mpi                            0.023147                        1   5
  362              fftbas_plan_mpi                       0.023143                      1   6
  363                dfftw_execute                         0.005958                    3   7
  364                map_backward                          0.016431                    2   7
  365                  map_gather                            0.001449                  1   8
  366                  m_alltoallv_z                         0.011723                  1   8
  367                  map_scatter                           0.003234                  1   8
  368        m_bcast_d                             0.001506                            2   3
  369      potlok                                0.799081                              1   2
  370        fft3d_mpi                             0.304830                           13   3
  371          fftbrc_mpi                            0.286012                         13   4
  372            fftbas_plan_mpi                       0.285963                       13   5
  373              dfftw_execute                         0.096005                     39   6
  374              map_forward                           0.093994                     14   6
  375                map_gather                            0.018119                    8   7
  376                m_alltoallv_z                         0.057540                    8   7
  377                map_scatter                           0.018086                    8   7
  378              map_backward                          0.084490                     12   6
  379                map_gather                            0.009514                    6   7
  380                m_alltoallv_z                         0.055453                    6   7
  381                map_scatter                           0.019343                    6   7
  382        ggaall_grid                           0.390759                            1   3
  383        m_sumb_d                              0.002920                            7   3
  384        fewald                                0.001591                            2   3
  385          rsp                                   0.001362                          2   4
  386          rcp                                   0.000123                          2   4
  387        pothar                                0.005277                            1   3
  388          m_sumb_d                              0.001589                          1   4
  389        m_bcast_d                             0.011365                            1   3
  390      potlok_metagga                        0.000008                              1   2
  391      set_dd_magatom                        0.000008                              1   2
  392      set_dd_paw                            1.060483                              1   2
  393        set_rsgf_all                          0.000020                            1   3
  394        m_sumb_d                              0.772945                            8   3

 Flat profile

 force_and_stress                     2920.717818           1
 edwav                                 882.920503          50
 lincom                                346.849102         157
 dfftw_execute                         311.236313       41526
 m_sumb_d                              291.122400       29092
 orth1                                 189.196478        7290
 eddav                                 113.125740           5
 wfinit                                 91.843752           1
 ggemm                                  54.358276        1252
 map_scatter                            53.933501       13945
 m_alltoall_d                           50.359350       56131
 fftwav_mpi                             43.807769        9170
 map_gather                             41.861618       13945
 choleski                               34.116335          51
 eccp                                   34.090499        5985
 m_alltoallv_z                          33.024085       13945
 map_forward                            32.253761       19088
 total_time                             27.387968           1
 eddiag                                 21.984612          26
 ggaall_grid                            20.932257          53
 crrexp_mul_work_add                    20.284994     1004640
 m_bcast_z                              18.745185        2882
 racc0                                  18.499887        2392
 crrexp_mul_wave                        16.052567     1196160
 set_dd_paw                             15.223436          53
 vhamil                                 15.055858        2449
 rpro1                                  14.449381        2107
 pw_charge                              13.796206        2448
 fftbas_plan_mpi                         9.163413       13842
 lapack                                  7.271218         967
 w1_dscal                                6.063777        1425
 redis_pw                                5.811137        8568
 fftext_mpi                              4.839505        3874
 potlok                                  4.756333          52
 setdij_                                 4.502842          79
 augmentation_charge                     4.428735          52
 rspher_all                              3.722041          14
 phaser                                  3.314447          43
 forloc                                  3.037610           1
 forhar                                  3.019080           1
 rpromu_gemm                             2.698995       81900
 stufak                                  1.829984           1
 fft3d_mpi                               1.368052       13842
 orthch                                  1.214396          51
 kinhamil                                1.026551        2449
 overl                                   0.949269        3176
 rpromu                                  0.881685         195
 w1_copy                                 0.877402        2901
 m_bcast_d                               0.850604        1990
 elmin_all                               0.543829           1
 soft_charge                             0.405398          51
 redis_proj                              0.384301        8139
 setup_precond                           0.274252         285
 apply_precond                           0.238818         682
 depsum                                  0.222245          51
 pothar                                  0.190487          52
 inisym                                  0.181586           1
 overl1                                  0.131398         967
 map_backward                            0.126518        8596
 fft_gq                                  0.095685          51
 rsp                                     0.080099         105
 set_charge                              0.062023          51
 strnlr                                  0.054259           1
 fftbas_mpi                              0.052011       13044
 densta                                  0.039544          62
 strehar                                 0.033727           1
 strkin                                  0.033005           1
 strelo                                  0.027203           1
 hamiltmu                                0.024368         967
 hamilt_local                            0.023417        1482
 newband                                 0.021624         972
 fornlr                                  0.019899           1
 fewald                                  0.012039         105
 raccmu_                                 0.011056         967
 rpro_isp                                0.010171          13
 rcp                                     0.006231         105
 w1_projall                              0.005146         682
 fftbrc_mpi                              0.003240         798
 brgrid                                  0.002893           1
 truncate_high_frequency_w1              0.001504        1252
 fordep                                  0.000839           1
 redis_pw_all                            0.000633          50
 set_rsgf_all                            0.000408          53
 redis_pw_over_bands                     0.000332          51
 crpa_reader                             0.000318           1
 posmap                                  0.000254           2
 potlok_metagga                          0.000141          52
 proall                                  0.000082           1
 vectorpot                               0.000026           1
 rotate_active_occupied_orbital          0.000019           1
 set_dd_magatom                          0.000017           2
 shift_bands_between_low_high            0.000009           1
  summed up times    5802.17778205872

 Accumulative profile

 total_time                           5802.177782           1
 force_and_stress                     3180.496449           1
 elmin_all                            2472.159711           1
 edwav                                1749.486367          50
 fft3d_mpi                             483.022511       13842
 fftbas_plan_mpi                       481.599208       13842
 fftbas_mpi                            463.338815       13044
 eddav                                 397.527002           5
 fftwav_mpi                            379.045132        9170
 lincom                                346.849102         157
 dfftw_execute                         311.236313       41526
 m_sumb_d                              291.122400       29092
 orthch                                206.890932          51
 orth1                                 189.196478        7290
 fftext_mpi                            133.001757        3874
 set_charge                            126.993909          51
 map_forward                           120.281934       19088
 soft_charge                           120.143577          51
 wfinit                                110.050052           1
 eddiag                                 98.546293          26
 kinhamil                               84.407687        2449
 hamilt_local                           60.125246        1482
 set_dd_paw                             56.015138          53
 hamiltmu                               55.464468         967
 ggemm                                  54.358276        1252
 map_scatter                            53.933501       13945
 m_alltoall_d                           50.359350       56131
 redis_pw                               42.986806        8568
 potlok                                 42.442380          52
 map_gather                             41.861618       13945
 map_backward                           40.917549        8596
 racc0                                  39.298112        2392
 rpro_isp                               38.448966          13
 eccp                                   34.373769        5985
 choleski                               34.116335          51
 m_alltoallv_z                          33.024085       13945
 strnlr                                 29.967674           1
 rpro1                                  27.033942        2107
 ggaall_grid                            20.932257          53
 crrexp_mul_work_add                    20.284994     1004640
 m_bcast_z                              18.745185        2882
 fftbrc_mpi                             18.315643         798
 raccmu_                                16.078384         967
 crrexp_mul_wave                        16.052567     1196160
 vhamil                                 15.055858        2449
 newband                                14.755299         972
 pw_charge                              13.796206        2448
 redis_proj                             13.567981        8139
 fornlr                                 10.015097           1
 w1_projall                              8.959698         682
 rpromu                                  7.855986         195
 redis_pw_over_bands                     7.397911          51
 redis_pw_all                            7.397579          50
 lapack                                  7.271218         967
 augmentation_charge                     6.527605          52
 w1_dscal                                6.063777        1425
 setdij_                                 5.139663          79
 rspher_all                              3.722041          14
 phaser                                  3.314447          43
 proall                                  3.122782           1
 forloc                                  3.037811           1
 forhar                                  3.026312           1
 rpromu_gemm                             2.698995       81900
 stufak                                  1.829984           1
 fft_gq                                  1.185371          51
 overl                                   0.949269        3176
 w1_copy                                 0.877402        2901
 m_bcast_d                               0.850604        1990
 fordep                                  0.387541           1
 depsum                                  0.369253          51
 setup_precond                           0.283314         285
 pothar                                  0.273428          52
 apply_precond                           0.238818         682
 inisym                                  0.181840           1
 densta                                  0.149728          62
 fewald                                  0.135610         105
 overl1                                  0.131398         967
 rsp                                     0.080099         105
 strehar                                 0.041785           1
 strkin                                  0.041405           1
 strelo                                  0.033091           1
 rcp                                     0.006231         105
 brgrid                                  0.002893           1
 truncate_high_frequency_w1              0.001504        1252
 set_rsgf_all                            0.000408          53
 crpa_reader                             0.000318           1
 posmap                                  0.000254           2
 potlok_metagga                          0.000141          52
 vectorpot                               0.000026           1
 rotate_active_occupied_orbital          0.000019           1
 set_dd_magatom                          0.000017           2
 shift_bands_between_low_high            0.000009           1

Profiling took   2.497674  0.828816  0.006450  0.006250 seconds
Profiling took   2.078271 seconds