 vasp.6.3.0 20Jan22 (build Apr  1 2022 16:44:48) complex
 executed on        HPECrayEX_GCC date 2022.12.11  06:06:16

 INCAR:
   SYSTEM = MgO-rocksalt
   ISMEAR = 0
   SIGMA = 0.05
   EDIFF = 1E-6
   ALGO = ALL
   ISTART = 0
   IBRION = -1
   NSW = 0
   ISYM = 2
   DIPOL = 0.5 0.5 0.5
   IDIPOL = 3
   LDIPOL = .TRUE.
   GGA = PS
   IVDW = 13
   VDW_S8 = 1.71885698
   VDW_A1 = 0.47901421
   VDW_A2 = 5.96771589
   ENCUT = 520
   PREC = Accurate
   LASPH = .TRUE.
   LREAL = Auto
   ISPIN = 1
   NELM = 200
   NELMIN = 8
   NCORE = 4
   KPAR = 2
   LWAVE = .FALSE.
   LCHARG = .FALSE.

 POTCAR:    PAW_PBE Au 04Oct2007
 POTCAR:    PAW_PBE Mg_pv 13Apr2007
 POTCAR:    PAW_PBE O 08Apr2002
 POTCAR:    PAW_PBE Au 04Oct2007
   VRHFIN =Au: s1d10

   TITEL  = PAW_PBE Au 04Oct2007
   POMASS =  196.966; ZVAL   =   11.000    mass and valenz
   ENMAX  =  229.943; ENMIN  =  172.457 eV

   TITEL  = PAW_PBE Mg_pv 13Apr2007
   POMASS =   24.305; ZVAL   =    8.000    mass and valenz
   ENMAX  =  403.929; ENMIN  =  302.947 eV

   TITEL  = PAW_PBE O 08Apr2002
   POMASS =   16.000; ZVAL   =    6.000    mass and valenz
   ENMAX  =  400.000; ENMIN  =  300.000 eV

 Optimization of the real space projectors (new method)

 maximal supplied QI-value         = 15.12
 optimisation between [QCUT,QGAM] = [ 11.64, 23.28] = [ 37.95,151.78] Ry
 Optimized for a Real-space Cutoff    1.49 Angstroem

   l    n(q)    QCUT    max X(q) W(low)/X(q) W(high)/X(q)  e(spline)
   2      9    11.641    60.898    0.24E-03    0.10E-03    0.19E-06
   2      9    11.641    58.894    0.25E-03    0.10E-03    0.19E-06
   0     10    11.641   109.617    0.73E-04    0.33E-04    0.11E-06
   0     10    11.641    75.026    0.71E-04    0.32E-04    0.11E-06
   1     10    11.641    16.344    0.27E-04    0.97E-04    0.16E-06
   1     10    11.641    10.160    0.23E-04    0.77E-04    0.13E-06
 Optimization of the real space projectors (new method)

[...]

   l    n(q)    QCUT    max X(q) W(low)/X(q) W(high)/X(q)  e(spline)
   1      8    11.527     2.974    0.44E-04    0.56E-04    0.12E-06
   1      8    11.527     4.279    0.12E-03    0.12E-03    0.26E-06
   0      9    11.527    16.381    0.46E-04    0.64E-04    0.78E-07
   0      9    11.527     5.611    0.26E-04    0.43E-04    0.55E-07
   2      8    11.527     4.652    0.22E-03    0.72E-04    0.47E-07
 Optimization of the real space projectors (new method)

 maximal supplied QI-value         = 24.76
 optimisation between [QCUT,QGAM] = [ 11.64, 23.27] = [ 37.91,151.63] Ry
 Optimized for a Real-space Cutoff    1.14 Angstroem

   l    n(q)    QCUT    max X(q) W(low)/X(q) W(high)/X(q)  e(spline)
   0      8    11.635    20.381    0.10E-03    0.33E-03    0.24E-06
   0      8    11.635    15.268    0.11E-03    0.35E-03    0.26E-06
   1      7    11.635     5.964    0.24E-03    0.31E-03    0.30E-06
   1      7    11.635     5.382    0.22E-03    0.25E-03    0.26E-06
|               ----> ADVICE to this user running VASP <----                  |
|     You enforced a specific xc type in the INCAR file but a different       |
|     type was found in the POTCAR file.                                      |
|     I HOPE YOU KNOW WHAT YOU ARE DOING!                                     |

  PAW_PBE Au 04Oct2007                  :
  PAW_PBE Mg_pv 13Apr2007               :
  PAW_PBE O 08Apr2002                   :

 POSCAR: Au Mg  O
  positions in direct lattice
|           W    W    AA    RRRRR   N    N  II  N    N   GGGG   !!!           |
|           W    W   A  A   R    R  NN   N  II  NN   N  G    G  !!!           |
|           W    W  A    A  R    R  N N  N  II  N N  N  G       !!!           |
|           W WW W  AAAAAA  RRRRR   N  N N  II  N  N N  G  GGG   !            |
|           WW  WW  A    A  R   R   N   NN  II  N   NN  G    G                |
|           W    W  A    A  R    R  N    N  II  N    N   GGGG   !!!           |
|     Specifying the vdW parameters                                           |
|     VDW_S8 = 1.719                                                          |
|     VDW_A1 = 0.479                                                          |
|     VDW_A2 = 5.968                                                          |
|     in the INCAR file will overwrite the defaults for pbesol. Please        |
|     make sure that is what you intended.                                    |

 ion  position               nearest neighbor table
   1  0.492  0.408  0.630-   2 2.53  54 2.82
   2  0.408  0.492  0.630-   1 2.53  53 2.82
   3  0.000  0.000  0.407- 105 2.11 106 2.11 121 2.11 186 2.11 103 2.11
   4  0.100  0.100  0.407- 105 2.11 106 2.11 110 2.11 125 2.11 104 2.11
   5  0.000  0.100  0.503- 103 2.11 104 2.11 107 2.11 184 2.11 105 2.11
   6  0.100  0.000  0.503- 103 2.11 104 2.11 120 2.11 123 2.11 106 2.11
   7  0.000  0.200  0.407- 109 2.11 105 2.11 110 2.11 190 2.11 107 2.11
   8  0.100  0.300  0.407- 110 2.11 109 2.11 114 2.11 129 2.11 108 2.11
   9  0.000  0.300  0.503- 107 2.11 108 2.11 111 2.11 188 2.11 109 2.11
  10  0.100  0.200  0.503- 108 2.11 107 2.11 104 2.11 127 2.11 110 2.11
  11  0.000  0.400  0.407- 109 2.11 113 2.11 114 2.11 194 2.11 111 2.11
  12  0.100  0.500  0.407- 113 2.11 114 2.11 118 2.11 133 2.11 112 2.11
  13  0.000  0.500  0.503- 111 2.11 112 2.11 115 2.11 192 2.11 113 2.11
  14  0.100  0.400  0.503- 108 2.11 111 2.11 112 2.11 131 2.11 114 2.11
  15  0.000  0.600  0.407- 113 2.11 117 2.11 118 2.11 198 2.11 115 2.11
  16  0.100  0.700  0.407- 122 2.11 118 2.11 117 2.11 137 2.11 116 2.11
  17  0.000  0.700  0.503- 119 2.11 116 2.11 115 2.11 196 2.11 117 2.11
  18  0.100  0.600  0.503- 112 2.11 115 2.11 116 2.11 135 2.11 118 2.11
  19  0.000  0.800  0.407- 117 2.11 121 2.11 122 2.11 202 2.11 119 2.11
  20  0.100  0.900  0.407- 106 2.11 121 2.11 122 2.11 141 2.11 120 2.11
  21  0.000  0.900  0.503- 103 2.11 119 2.11 120 2.11 200 2.11 121 2.11
  22  0.100  0.800  0.503- 116 2.11 119 2.11 120 2.11 139 2.11 122 2.11
  23  0.200  0.000  0.407- 126 2.11 125 2.11 106 2.11 141 2.11 123 2.11
  24  0.300  0.100  0.407- 125 2.11 126 2.11 130 2.11 145 2.11 124 2.11
  25  0.200  0.100  0.503- 124 2.11 123 2.11 104 2.11 127 2.11 125 2.11
  26  0.300  0.000  0.503- 123 2.11 124 2.11 140 2.11 143 2.11 126 2.11
  27  0.200  0.200  0.407- 129 2.11 130 2.11 110 2.11 125 2.11 127 2.11
  28  0.300  0.300  0.407- 129 2.11 130 2.11 134 2.11 149 2.11 128 2.11
  29  0.200  0.300  0.503- 127 2.11 128 2.11 108 2.11 131 2.11 129 2.11
  30  0.300  0.200  0.503- 127 2.11 128 2.11 124 2.11 147 2.11 130 2.11
  31  0.200  0.400  0.407- 134 2.11 129 2.11 133 2.11 114 2.11 131 2.11
  32  0.300  0.500  0.407- 133 2.11 134 2.11 138 2.11 153 2.11 132 2.11
  33  0.200  0.500  0.503- 132 2.11 131 2.11 112 2.11 135 2.11 133 2.11
  34  0.300  0.400  0.503- 131 2.11 128 2.11 132 2.11 151 2.11 134 2.11
  35  0.200  0.600  0.407- 138 2.11 133 2.11 137 2.11 118 2.11 135 2.11
  36  0.300  0.700  0.407- 137 2.11 142 2.11 138 2.11 157 2.11 136 2.11
  37  0.200  0.700  0.503- 136 2.11 139 2.11 116 2.11 135 2.11 137 2.11
  38  0.300  0.600  0.503- 135 2.11 132 2.11 136 2.11 155 2.11 138 2.11
  39  0.200  0.800  0.407- 137 2.11 142 2.11 141 2.11 122 2.11 139 2.11
  40  0.300  0.900  0.407- 141 2.11 126 2.11 142 2.11 161 2.11 140 2.11
  41  0.200  0.900  0.503- 140 2.11 123 2.11 139 2.11 120 2.11 141 2.11
  42  0.300  0.800  0.503- 136 2.11 139 2.11 140 2.11 159 2.11 142 2.11
  43  0.400  0.000  0.407- 126 2.11 145 2.11 146 2.11 161 2.11 143 2.11
  44  0.500  0.100  0.407- 145 2.11 146 2.11 150 2.11 165 2.11 144 2.11
  45  0.400  0.100  0.503- 124 2.11 143 2.11 144 2.11 147 2.11 145 2.11
  46  0.500  0.000  0.503- 143 2.11 144 2.11 160 2.11 163 2.11 146 2.11
  47  0.400  0.200  0.407- 149 2.11 145 2.11 130 2.11 150 2.11 147 2.11
  48  0.500  0.300  0.407- 150 2.11 149 2.11 154 2.11 169 2.11 148 2.11
  49  0.400  0.300  0.503- 147 2.11 128 2.11 148 2.11 151 2.11 149 2.11
  50  0.500  0.200  0.503- 148 2.11 147 2.11 144 2.11 167 2.11 150 2.11
  51  0.400  0.400  0.407- 134 2.11 149 2.11 153 2.11 154 2.11 151 2.11
  52  0.500  0.500  0.407- 153 2.11 154 2.11 158 2.11 173 2.11 152 2.11
  53  0.400  0.500  0.503- 132 2.11 151 2.11 152 2.11 155 2.11 153 2.11   2 2.82
  54  0.500  0.400  0.503- 148 2.11 151 2.11 152 2.11 171 2.11 154 2.11   1 2.82
  55  0.400  0.600  0.407- 138 2.11 153 2.11 157 2.11 158 2.11 155 2.11
  56  0.500  0.700  0.407- 162 2.11 158 2.11 157 2.11 177 2.11 156 2.11
  57  0.400  0.700  0.503- 159 2.11 155 2.11 156 2.11 136 2.11 157 2.11
  58  0.500  0.600  0.503- 152 2.11 155 2.11 156 2.11 175 2.11 158 2.11
  59  0.400  0.800  0.407- 157 2.11 142 2.11 161 2.11 162 2.11 159 2.11
  60  0.500  0.900  0.407- 146 2.11 161 2.11 162 2.11 181 2.11 160 2.11
[...]
 188  0.900  0.300  0.503-  90 2.11  89 2.11   9 2.11  94 2.11  88 2.11
 189  0.800  0.300  0.407-  68 2.11  87 2.11  88 2.11  91 2.11  89 2.11
 190  0.900  0.200  0.407-  88 2.11  84 2.11  87 2.11   7 2.11  90 2.11
 191  0.800  0.400  0.503-  74 2.11  89 2.11  93 2.11  94 2.11  91 2.11
 192  0.900  0.500  0.503-  13 2.11  93 2.11  94 2.11  98 2.11  92 2.11
 193  0.800  0.500  0.407-  72 2.11  91 2.11  92 2.11  95 2.11  93 2.11
 194  0.900  0.400  0.407-  11 2.11  88 2.11  91 2.11  92 2.11  94 2.11
 195  0.800  0.600  0.503-  78 2.11  93 2.11  97 2.11  98 2.11  95 2.11
 196  0.900  0.700  0.503- 102 2.11  97 2.11  98 2.11  17 2.11  96 2.11
 197  0.800  0.700  0.407-  76 2.11  99 2.11  96 2.11  95 2.11  97 2.11
 198  0.900  0.600  0.407-  15 2.11  92 2.11  95 2.11  96 2.11  98 2.11
 199  0.800  0.800  0.503-  82 2.11  97 2.11 101 2.11 102 2.11  99 2.11
 200  0.900  0.900  0.503-  21 2.11  86 2.11 101 2.11 102 2.11 100 2.11
 201  0.800  0.900  0.407-  80 2.11  83 2.11  99 2.11 100 2.11 101 2.11
 202  0.900  0.800  0.407-  96 2.11  19 2.11  99 2.11 100 2.11 102 2.11

  LATTYP: Found a simple tetragonal cell.
 ALAT       =    21.1388521970
 C/A-ratio  =     1.0461251639

  Lattice vectors:

 A1 = (  21.1388521970,   0.0000000000,   0.0000000000)
 A2 = (   0.0000000000,  21.1388521970,   0.0000000000)
 A3 = (   0.0000000000,   0.0000000000,  22.1138852197)

Analysis of symmetry for initial positions (statically):
 Subroutine PRICEL returns:
 Original cell was already a primitive cell.

 Routine SETGRP: Setting up the symmetry group for a
 simple tetragonal supercell.

 Subroutine GETGRP returns: Found  4 space group operations
 (whereof  2 operations were pure point group operations)
 out of a pool of 16 trial point group operations.

The static configuration has the point symmetry C_1h.
 The point group associated with its full space group is C_2v.

Analysis of symmetry for dynamics (positions and initial velocities):
 Subroutine PRICEL returns:
 Original cell was already a primitive cell.

 Routine SETGRP: Setting up the symmetry group for a
 simple tetragonal supercell.

 Subroutine GETGRP returns: Found  4 space group operations
 (whereof  2 operations were pure point group operations)
 out of a pool of 16 trial point group operations.

The dynamic configuration has the point symmetry C_1h.
 The point group associated with its full space group is C_2v.

 Subroutine INISYM returns: Found  4 space group operations
[...]
     54     -42.8049      2.00000
     55     -42.8039      2.00000
     56     -42.8039      2.00000
     57     -42.8039      2.00000
     58     -42.8032      2.00000
     59     -42.8023      2.00000
     60     -42.8022      2.00000
[...]
    882       5.2100      0.00000
    883       5.2595      0.00000
    884       5.3208      0.00000
    885       5.3282      0.00000
    886       5.3764      0.00000
    887       5.4095      0.00000
    888       5.5325      0.00000
    889       5.5511      0.00000
    890       5.5800      0.00000
    891       5.5863      0.00000
    892       5.5954      0.00000
    893       5.6135      0.00000
    894       5.6268      0.00000
    895       5.6319      0.00000
    896       5.6665      0.00000

 soft charge-density along one line, spin component           1
         0         1         2         3         4         5         6         7         8         9
 total charge-density along one line

------------------------ aborting loop because EDIFF is reached ----------------------------------------

  FORCE on cell =-STRESS in cart. coord.  units (eV):
  Direction    XX          YY          ZZ          XY          YZ          ZX
  Alpha Z  1365.75682  1365.75682  1365.75682
  Ewald  478966.19865478966.19865************  -341.35603     0.00001    -0.00001
  Hartree507522.21275507522.21276************  -229.55595     0.00001    -0.00000
  E(xc)   -7593.97724 -7593.97724 -7612.16029    -0.31546    -0.00000    -0.00000
  Local  ************************************   556.48647    -0.00001     0.00001
  n-local -8808.81890 -8808.81892 -8918.81564     7.87241    -0.00000    -0.00001
  augment  3352.08221  3352.08222  3291.71471     2.05146    -0.00000     0.00000
  Kinetic 22939.01541 22939.01543 23206.95318     5.35657     0.00000     0.00000
  Fock        0.00000     0.00000     0.00000     0.00000     0.00000     0.00000
  vdW       -11.29845   -11.29845    -2.77417     0.00071     0.00000    -0.00000
  Total    -209.50536  -209.50536   -11.33137     0.54017     0.00000     0.00000
  in kB     -33.96862   -33.96862    -1.83724     0.08758     0.00000     0.00000

 VOLUME and BASIS-vectors are now :
  energy-cutoff  :      520.00
  volume of cell :     9881.61
      direct lattice vectors                 reciprocal lattice vectors
    21.138852197  0.000000000  0.000000000     0.047306258  0.000000000  0.000000000
     0.000000000 21.138852197  0.000000000     0.000000000  0.047306258  0.000000000
     0.000000000  0.000000000 22.113885220     0.000000000  0.000000000  0.045220457

  length of vectors
    21.138852197 21.138852197 22.113885220     0.047306258  0.047306258  0.045220457

 FORCES acting on ions:
    Electron-Ion                     Ewald-Force                    Non-Local-Force
   -.195E+03 0.195E+03 -.203E+04   0.191E+03 -.191E+03 0.203E+04   0.460E+01 -.460E+01 0.532E+00
   0.195E+03 -.195E+03 -.203E+04   -.191E+03 0.191E+03 0.203E+04   -.460E+01 0.460E+01 0.532E+00
   0.174E+01 0.174E+01 0.931E+03   -.174E+01 -.174E+01 -.923E+03   -.227E-02 -.227E-02 -.769E+01
   0.628E+01 0.628E+01 0.933E+03   -.627E+01 -.627E+01 -.925E+03   -.445E-02 -.445E-02 -.769E+01
   0.263E+01 0.602E+01 -.922E+03   -.261E+01 -.602E+01 0.914E+03   -.117E-01 -.338E-04 0.766E+01
   0.602E+01 0.263E+01 -.922E+03   -.602E+01 -.261E+01 0.914E+03   -.338E-04 -.117E-01 0.766E+01
   0.297E+01 0.642E+01 0.934E+03   -.295E+01 -.643E+01 -.926E+03   -.150E-01 0.516E-02 -.769E+01
   0.131E+02 0.814E+01 0.939E+03   -.131E+02 -.817E+01 -.931E+03   -.116E-01 0.205E-01 -.769E+01
   0.582E+01 0.718E+01 -.920E+03   -.580E+01 -.719E+01 0.912E+03   -.171E-01 0.659E-02 0.766E+01
   0.127E+02 0.117E+02 -.919E+03   -.127E+02 -.117E+02 0.911E+03   -.215E-01 0.198E-02 0.766E+01
   0.529E+01 0.235E+01 0.937E+03   -.529E+01 -.236E+01 -.929E+03   0.183E-02 0.728E-02 -.769E+01
   0.169E+02 -.270E+01 0.942E+03   -.170E+02 0.268E+01 -.934E+03   0.727E-01 0.142E-01 -.770E+01
   0.827E+01 -.258E+01 -.918E+03   -.829E+01 0.257E+01 0.910E+03   0.159E-01 0.429E-02 0.766E+01
   0.256E+02 0.587E+01 -.913E+03   -.256E+02 -.591E+01 0.905E+03   -.274E-02 0.247E-01 0.765E+01
   0.500E+01 -.547E+01 0.936E+03   -.503E+01 0.548E+01 -.928E+03   0.268E-01 -.268E-02 -.769E+01
   0.102E+02 -.908E+01 0.937E+03   -.102E+02 0.910E+01 -.929E+03   0.310E-01 -.171E-01 -.768E+01
   0.522E+01 -.823E+01 -.921E+03   -.525E+01 0.824E+01 0.913E+03   0.233E-01 -.545E-02 0.766E+01
   0.219E+02 -.112E+02 -.915E+03   -.219E+02 0.112E+02 0.907E+03   0.537E-01 0.212E-02 0.766E+01
   0.264E+01 -.504E+01 0.932E+03   -.266E+01 0.505E+01 -.924E+03   0.135E-01 -.753E-02 -.769E+01
   0.504E+01 -.264E+01 0.932E+03   -.505E+01 0.266E+01 -.924E+03   0.753E-02 -.135E-01 -.769E+01
   0.239E+01 -.239E+01 -.923E+03   -.239E+01 0.239E+01 0.915E+03   0.540E-02 -.540E-02 0.766E+01
   0.903E+01 -.903E+01 -.921E+03   -.905E+01 0.905E+01 0.913E+03   0.172E-01 -.172E-01 0.766E+01
   0.642E+01 0.297E+01 0.934E+03   -.643E+01 -.295E+01 -.926E+03   0.516E-02 -.150E-01 -.769E+01
   0.814E+01 0.131E+02 0.939E+03   -.817E+01 -.131E+02 -.931E+03   0.205E-01 -.116E-01 -.769E+01
   0.117E+02 0.127E+02 -.919E+03   -.117E+02 -.127E+02 0.911E+03   0.198E-02 -.215E-01 0.766E+01
   0.718E+01 0.582E+01 -.920E+03   -.719E+01 -.580E+01 0.912E+03   0.659E-02 -.171E-01 0.766E+01
   0.136E+02 0.136E+02 0.941E+03   -.136E+02 -.136E+02 -.933E+03   0.415E-03 0.415E-03 -.770E+01
   0.229E+02 0.229E+02 0.962E+03   -.229E+02 -.229E+02 -.954E+03   0.396E-01 0.396E-01 -.777E+01
   0.345E+02 0.229E+02 -.906E+03   -.344E+02 -.229E+02 0.898E+03   -.689E-01 0.308E-01 0.764E+01
   0.229E+02 0.345E+02 -.906E+03   -.229E+02 -.344E+02 0.898E+03   0.308E-01 -.689E-01 0.764E+01
   0.272E+02 0.712E+01 0.955E+03   -.272E+02 -.722E+01 -.947E+03   0.262E-02 0.787E-01 -.770E+01
   0.324E+02 -.885E+01 0.981E+03   -.323E+02 0.876E+01 -.974E+03   -.616E-01 0.642E-01 -.737E+01
   0.546E+02 -.782E+01 -.893E+03   -.548E+02 0.775E+01 0.885E+03   0.185E+00 0.543E-01 0.765E+01
   0.809E+02 0.359E+02 -.848E+03   -.806E+02 -.362E+02 0.840E+03   -.249E+00 0.272E+00 0.751E+01
   0.222E+02 -.135E+02 0.950E+03   -.223E+02 0.136E+02 -.942E+03   0.694E-01 -.315E-01 -.768E+01
   0.135E+02 -.222E+02 0.950E+03   -.136E+02 0.223E+02 -.942E+03   0.315E-01 -.694E-01 -.768E+01
   0.227E+02 -.227E+02 -.912E+03   -.227E+02 0.227E+02 0.904E+03   0.403E-01 -.403E-01 0.766E+01
   0.532E+02 -.532E+02 -.870E+03   -.534E+02 0.534E+02 0.862E+03   0.145E+00 -.145E+00 0.768E+01
   0.908E+01 -.102E+02 0.937E+03   -.910E+01 0.102E+02 -.929E+03   0.171E-01 -.310E-01 -.768E+01
   0.547E+01 -.500E+01 0.936E+03   -.548E+01 0.503E+01 -.928E+03   0.268E-02 -.268E-01 -.769E+01
   0.823E+01 -.522E+01 -.921E+03   -.824E+01 0.525E+01 0.913E+03   0.545E-02 -.233E-01 0.766E+01
   0.112E+02 -.219E+02 -.915E+03   -.112E+02 0.219E+02 0.907E+03   -.212E-02 -.537E-01 0.766E+01
   0.235E+01 0.529E+01 0.937E+03   -.236E+01 -.529E+01 -.929E+03   0.728E-02 0.183E-02 -.769E+01
   -.270E+01 0.169E+02 0.942E+03   0.268E+01 -.170E+02 -.934E+03   0.142E-01 0.727E-01 -.770E+01
   0.587E+01 0.256E+02 -.913E+03   -.591E+01 -.256E+02 0.905E+03   0.247E-01 -.274E-02 0.765E+01
   -.258E+01 0.827E+01 -.918E+03   0.257E+01 -.829E+01 0.910E+03   0.429E-02 0.159E-01 0.766E+01
   0.712E+01 0.272E+02 0.955E+03   -.722E+01 -.272E+02 -.947E+03   0.787E-01 0.262E-02 -.770E+01
   -.885E+01 0.324E+02 0.981E+03   0.876E+01 -.323E+02 -.974E+03   0.642E-01 -.616E-01 -.737E+01
   0.359E+02 0.809E+02 -.848E+03   -.362E+02 -.806E+02 0.840E+03   0.272E+00 -.249E+00 0.751E+01
   -.782E+01 0.546E+02 -.893E+03   0.775E+01 -.548E+02 0.885E+03   0.543E-01 0.185E+00 0.765E+01
   0.170E+02 0.170E+02 0.101E+04   -.170E+02 -.170E+02 -.997E+03   0.232E-01 0.232E-01 -.796E+01
   -.170E+02 -.170E+02 0.101E+04   0.170E+02 0.170E+02 -.997E+03   -.232E-01 -.232E-01 -.796E+01
   0.492E+02 -.492E+02 -.709E+03   -.486E+02 0.486E+02 0.704E+03   -.483E+00 0.483E+00 0.492E+01
   -.492E+02 0.492E+02 -.709E+03   0.486E+02 -.486E+02 0.704E+03   0.483E+00 -.483E+00 0.492E+01
   0.885E+01 -.324E+02 0.981E+03   -.876E+01 0.323E+02 -.974E+03   -.642E-01 0.616E-01 -.737E+01
   -.712E+01 -.272E+02 0.955E+03   0.722E+01 0.272E+02 -.947E+03   -.787E-01 -.262E-02 -.770E+01
   0.782E+01 -.546E+02 -.893E+03   -.775E+01 0.548E+02 0.885E+03   -.543E-01 -.185E+00 0.765E+01
   -.359E+02 -.809E+02 -.848E+03   0.362E+02 0.806E+02 0.840E+03   -.272E+00 0.249E+00 0.751E+01
   0.270E+01 -.169E+02 0.942E+03   -.268E+01 0.170E+02 -.934E+03   -.142E-01 -.727E-01 -.770E+01
   -.235E+01 -.529E+01 0.937E+03   0.236E+01 0.529E+01 -.929E+03   -.728E-02 -.183E-02 -.769E+01
[...]
   -.107E+02 0.587E+01 0.707E+03   0.107E+02 -.588E+01 -.710E+03   -.470E-01 0.132E-01 0.357E+01
   -.285E+01 0.488E+01 0.702E+03   0.286E+01 -.489E+01 -.706E+03   -.203E-01 0.963E-02 0.357E+01
   -.202E+02 0.279E+01 -.686E+03   0.203E+02 -.277E+01 0.690E+03   -.355E-01 -.266E-01 -.361E+01
   -.574E+01 -.234E+01 -.690E+03   0.573E+01 0.234E+01 0.694E+03   0.990E-03 -.991E-02 -.360E+01
   -.123E+02 -.287E+01 0.708E+03   0.123E+02 0.290E+01 -.712E+03   -.162E-01 -.401E-01 0.355E+01
   -.424E+01 0.152E+01 0.704E+03   0.425E+01 -.152E+01 -.708E+03   -.151E-01 -.402E-02 0.356E+01
   -.145E+02 -.865E+01 -.689E+03   0.145E+02 0.866E+01 0.693E+03   0.127E-01 -.178E-01 -.361E+01
   -.293E+01 -.605E+01 -.692E+03   0.292E+01 0.606E+01 0.696E+03   0.143E-01 -.374E-02 -.360E+01
   -.690E+01 -.655E+01 0.703E+03   0.689E+01 0.655E+01 -.707E+03   0.109E-01 -.200E-02 0.356E+01
   -.313E+01 -.419E+01 0.703E+03   0.313E+01 0.420E+01 -.707E+03   0.909E-02 -.102E-01 0.356E+01
   -.608E+01 -.608E+01 -.692E+03   0.607E+01 0.607E+01 0.696E+03   0.935E-02 0.935E-02 -.360E+01
   -.159E+01 -.159E+01 -.694E+03   0.159E+01 0.159E+01 0.698E+03   0.293E-02 0.293E-02 -.360E+01
   -.366E+01 -.157E+01 0.701E+03   0.366E+01 0.156E+01 -.705E+03   -.111E-02 0.912E-02 0.356E+01
   -.157E+01 -.366E+01 0.701E+03   0.156E+01 0.366E+01 -.705E+03   0.912E-02 -.111E-02 0.356E+01
   -.306E-01 0.151E-01 0.119E+02   0.155E-11 0.117E-11 0.117E-10   0.548E-15 0.548E-15 -.124E+02

 POSITION                                       TOTAL-FORCE (eV/Angst)
     10.40626      8.61871     13.92428        -0.236758      0.236758     -0.113387
      8.61871     10.40626     13.92428         0.236758     -0.236758     -0.113387
      0.00000      0.00000      9.00000         0.000635      0.000635      0.451532
      2.11389      2.11389      9.00000         0.001345      0.001345      0.452352
      0.00000      2.11389     11.11389         0.003180      0.000080     -0.445204
      2.11389      0.00000     11.11389         0.000080      0.003180     -0.445204
      0.00000      4.22777      9.00000         0.003978     -0.001364      0.451873
      2.11389      6.34166      9.00000         0.002933     -0.005444      0.453044
      0.00000      6.34166     11.11389         0.004593     -0.001804     -0.443927
      2.11389      4.22777     11.11389         0.006018     -0.000104     -0.443227
      0.00000      8.45554      9.00000        -0.000627     -0.002118      0.452140
      2.11389     10.56943      9.00000        -0.018403     -0.004185      0.455251
      0.00000     10.56943     11.11389        -0.003935     -0.001282     -0.443870
      2.11389      8.45554     11.11389         0.001630     -0.007251     -0.440058
      0.00000     12.68331      9.00000        -0.007037      0.000797      0.451771
      2.11389     14.79720      9.00000        -0.008457      0.004857      0.450706
      0.00000     14.79720     11.11389        -0.006223      0.001556     -0.444943
      2.11389     12.68331     11.11389        -0.013964     -0.000434     -0.443354
      0.00000     16.91108      9.00000        -0.003642      0.002072      0.451327
      2.11389     19.02497      9.00000        -0.002072      0.003642      0.451327
      0.00000     19.02497     11.11389        -0.001453      0.001453     -0.445579
      2.11389     16.91108     11.11389        -0.004668      0.004668     -0.445261
      4.22777      0.00000      9.00000        -0.001364      0.003978      0.451873
      6.34166      2.11389      9.00000        -0.005444      0.002933      0.453044
      4.22777      2.11389     11.11389        -0.000104      0.006018     -0.443227
      6.34166      0.00000     11.11389        -0.001804      0.004593     -0.443927
      4.22777      4.22777      9.00000         0.000647      0.000647      0.456092
      6.34166      6.34166      9.00000        -0.006692     -0.006692      0.476329
      4.22777      6.34166     11.11389         0.021248     -0.005582     -0.432746
      6.34166      4.22777     11.11389        -0.005582      0.021248     -0.432746
      4.22777      8.45554      9.00000        -0.003175     -0.024475      0.455175
      6.34166     10.56943      9.00000         0.022734     -0.021471      0.372852
      4.22777     10.56943     11.11389        -0.064503     -0.017744     -0.427060
      6.34166      8.45554     11.11389         0.095360     -0.063644     -0.332903
      4.22777     12.68331      9.00000        -0.019858      0.010579      0.448935
      6.34166     14.79720      9.00000        -0.010579      0.019858      0.448935
      4.22777     14.79720     11.11389        -0.010737      0.010737     -0.444615
      6.34166     12.68331     11.11389        -0.033503      0.033503     -0.435811
      4.22777     16.91108      9.00000        -0.004857      0.008457      0.450706
      6.34166     19.02497      9.00000        -0.000797      0.007037      0.451771
      4.22777     19.02497     11.11389        -0.001556      0.006223     -0.444943
      6.34166     16.91108     11.11389         0.000434      0.013964     -0.443354
      8.45554      0.00000      9.00000        -0.002118     -0.000627      0.452140
     10.56943      2.11389      9.00000        -0.004185     -0.018403      0.455251
      8.45554      2.11389     11.11389        -0.007251      0.001630     -0.440058
     10.56943      0.00000     11.11389        -0.001282     -0.003935     -0.443870
      8.45554      4.22777      9.00000        -0.024475     -0.003175      0.455175
     10.56943      6.34166      9.00000        -0.021471      0.022734      0.372852
      8.45554      6.34166     11.11389        -0.063644      0.095360     -0.332903
     10.56943      4.22777     11.11389        -0.017744     -0.064503     -0.427060
      8.45554      8.45554      9.00000        -0.001139     -0.001139      0.500374
     10.56943     10.56943      9.00000         0.001139      0.001139      0.500374
      8.45554     10.56943     11.11389         0.164648     -0.164648     -0.229813
     10.56943      8.45554     11.11389        -0.164648      0.164648     -0.229813
      8.45554     12.68331      9.00000         0.021471     -0.022734      0.372852
     10.56943     14.79720      9.00000         0.024475      0.003175      0.455175
      8.45554     14.79720     11.11389         0.017744      0.064503     -0.427060
     10.56943     12.68331     11.11389         0.063644     -0.095360     -0.332903
      8.45554     16.91108      9.00000         0.004185      0.018403      0.455251
     10.56943     19.02497      9.00000         0.002118      0.000627      0.452140
[...]
     19.02497      6.34166     11.11389        -0.005855      0.000718      0.389673
     16.91108      6.34166      9.00000        -0.012967      0.003712     -0.397229
     19.02497      4.22777      9.00000        -0.005617      0.002745     -0.397278
     16.91108      8.45554     11.11389        -0.010396     -0.007307      0.386694
     19.02497     10.56943     11.11389         0.000192     -0.002735      0.388787
     16.91108     10.56943      9.00000        -0.004536     -0.011061     -0.400277
     19.02497      8.45554      9.00000        -0.004222     -0.001081     -0.397864
     16.91108     12.68331     11.11389         0.003351     -0.004952      0.386728
     19.02497     14.79720     11.11389         0.003939     -0.001056      0.390055
     16.91108     14.79720      9.00000         0.002921     -0.000621     -0.398876
     19.02497     12.68331      9.00000         0.002489     -0.002850     -0.398042
     16.91108     16.91108     11.11389         0.002517      0.002517      0.389838
     19.02497     19.02497     11.11389         0.000794      0.000794      0.391006
     16.91108     19.02497      9.00000        -0.000338      0.002502     -0.397576
     19.02497     16.91108      9.00000         0.002502     -0.000338     -0.397576
    total drift:                               -0.030644      0.015053     -0.451436

  FREE ENERGIE OF THE ION-ELECTRON SYSTEM (eV)
  free  energy   TOTEN  =     -1201.04141104 eV

  energy  without entropy=    -1201.04141104  energy(sigma->0) =    -1201.04141104