 vasp.6.3.0 20Jan22 (build Apr  1 2022 16:44:48) complex
 executed on        HPECrayEX_GCC date 2023.01.09  20:18:33

 INCAR:
   SYSTEM = MgO-rocksalt
   ISMEAR = 0
   SIGMA = 0.05
   EDIFF = 1E-6
   ALGO = ALL
   ISTART = 0
   IBRION = -1
   NSW = 0
   ISYM = 2
   DIPOL = 0.5 0.5 0.5
   IDIPOL = 3
   LDIPOL = .TRUE.
   GGA = RE
   LUSE_VDW = .TRUE.
   AGGAC = 0.0
   ENCUT = 520
   PREC = Accurate
   LASPH = .TRUE.
   LREAL = Auto
   ISPIN = 1
   NELM = 200
   NELMIN = 8
   NCORE = 4
   KPAR = 2
   LWAVE = .FALSE.
   LCHARG = .FALSE.

 POTCAR:    PAW_PBE Au 04Oct2007
 POTCAR:    PAW_PBE Mg_pv 13Apr2007
 POTCAR:    PAW_PBE O 08Apr2002
|               ----> ADVICE to this user running VASP <----                  |
|     You have switched on vdW-DFT.                                           |
|     This routine was written and supplied by Jiri Klimes. We recommend      |
|     that you carefully read and cite the following publications:            |
|       J. Klimes, D.R. Bowler, A. Michelides                                 |
|          J. Phys.: Cond Matt. 22 022201 (2010)                              |
|       J. Klimes, D.R. Bowler, A. Michelides                                 |
|          Phys. Rev. B. 83, 195131 (2011)                                    |
|     and references therein.                                                 |

   TITEL  = PAW_PBE Au 04Oct2007
   POMASS =  196.966; ZVAL   =   11.000    mass and valenz
   ENMAX  =  229.943; ENMIN  =  172.457 eV

   TITEL  = PAW_PBE Mg_pv 13Apr2007
   POMASS =   24.305; ZVAL   =    8.000    mass and valenz
   ENMAX  =  403.929; ENMIN  =  302.947 eV

   TITEL  = PAW_PBE O 08Apr2002
   POMASS =   16.000; ZVAL   =    6.000    mass and valenz
   ENMAX  =  400.000; ENMIN  =  300.000 eV

 Optimization of the real space projectors (new method)

 maximal supplied QI-value         = 15.12
 optimisation between [QCUT,QGAM] = [ 11.64, 23.28] = [ 37.95,151.78] Ry
 Optimized for a Real-space Cutoff    1.49 Angstroem

   l    n(q)    QCUT    max X(q) W(low)/X(q) W(high)/X(q)  e(spline)
   2      9    11.641    60.898    0.24E-03    0.10E-03    0.19E-06
   2      9    11.641    58.894    0.25E-03    0.10E-03    0.19E-06
   0     10    11.641   109.617    0.73E-04    0.33E-04    0.11E-06
   0     10    11.641    75.026    0.71E-04    0.32E-04    0.11E-06
   1     10    11.641    16.344    0.27E-04    0.97E-04    0.16E-06
   1     10    11.641    10.160    0.23E-04    0.77E-04    0.13E-06
 Optimization of the real space projectors (new method)

[...]

   l    n(q)    QCUT    max X(q) W(low)/X(q) W(high)/X(q)  e(spline)
   1      8    11.527     2.974    0.44E-04    0.56E-04    0.12E-06
   1      8    11.527     4.279    0.12E-03    0.12E-03    0.26E-06
   0      9    11.527    16.381    0.46E-04    0.64E-04    0.78E-07
   0      9    11.527     5.611    0.26E-04    0.43E-04    0.55E-07
   2      8    11.527     4.652    0.22E-03    0.72E-04    0.47E-07
 Optimization of the real space projectors (new method)

 maximal supplied QI-value         = 24.76
 optimisation between [QCUT,QGAM] = [ 11.64, 23.27] = [ 37.91,151.63] Ry
 Optimized for a Real-space Cutoff    1.14 Angstroem

   l    n(q)    QCUT    max X(q) W(low)/X(q) W(high)/X(q)  e(spline)
   0      8    11.635    20.381    0.10E-03    0.33E-03    0.24E-06
   0      8    11.635    15.268    0.11E-03    0.35E-03    0.26E-06
   1      7    11.635     5.964    0.24E-03    0.31E-03    0.30E-06
   1      7    11.635     5.382    0.22E-03    0.25E-03    0.26E-06
|               ----> ADVICE to this user running VASP <----                  |
|     You enforced a specific xc type in the INCAR file but a different       |
|     type was found in the POTCAR file.                                      |
|     I HOPE YOU KNOW WHAT YOU ARE DOING!                                     |

  PAW_PBE Au 04Oct2007                  :
  PAW_PBE Mg_pv 13Apr2007               :
  PAW_PBE O 08Apr2002                   :

 POSCAR: Au Mg  O
  positions in direct lattice
  velocities in cartesian coordinates
 exchange correlation table for  LEXCH =       40
   RHO(1)=    0.500       N(1)  =     2000
   RHO(2)=  100.500       N(2)  =     4000

 ion  position               nearest neighbor table
   1  0.290  0.507  0.638-   2 2.69   3 2.71
   2  0.397  0.442  0.618-   1 2.69   4 2.69 153 2.70   3 2.70  55 2.83
   3  0.397  0.569  0.609- 157 2.45   2 2.70   1 2.71   4 2.71  55 2.78
   4  0.505  0.506  0.637-   2 2.69   3 2.71
   5  0.000  0.000  0.407- 107 2.11 108 2.11 123 2.11 188 2.11 105 2.11
   6  0.100  0.100  0.407- 107 2.11 108 2.11 112 2.11 127 2.11 106 2.11
   7  0.000  0.100  0.503- 105 2.11 106 2.11 109 2.11 186 2.11 107 2.11
   8  0.100  0.000  0.503- 105 2.11 106 2.11 122 2.11 125 2.11 108 2.11
   9  0.000  0.200  0.407- 111 2.11 107 2.11 112 2.11 192 2.11 109 2.11
  10  0.100  0.300  0.407- 112 2.11 111 2.11 116 2.11 131 2.11 110 2.11
  11  0.000  0.300  0.503- 109 2.11 110 2.11 113 2.11 190 2.11 111 2.11
  12  0.100  0.200  0.503- 110 2.11 109 2.11 106 2.11 129 2.11 112 2.11
  13  0.000  0.400  0.407- 111 2.11 115 2.11 116 2.11 196 2.11 113 2.11
  14  0.100  0.500  0.407- 115 2.11 116 2.11 120 2.11 135 2.11 114 2.11
  15  0.000  0.500  0.503- 113 2.11 114 2.11 117 2.11 194 2.11 115 2.11
  16  0.100  0.400  0.503- 110 2.11 113 2.11 114 2.11 133 2.11 116 2.11
  17  0.000  0.600  0.407- 115 2.11 119 2.11 120 2.11 200 2.11 117 2.11
  18  0.100  0.700  0.407- 124 2.11 120 2.11 119 2.11 139 2.11 118 2.11
  19  0.000  0.700  0.503- 121 2.11 118 2.11 117 2.11 198 2.11 119 2.11
  20  0.100  0.600  0.503- 114 2.11 117 2.11 118 2.11 137 2.11 120 2.11
  21  0.000  0.800  0.407- 119 2.11 123 2.11 124 2.11 204 2.11 121 2.11
  22  0.100  0.900  0.407- 108 2.11 123 2.11 124 2.11 143 2.11 122 2.11
  23  0.000  0.900  0.503- 105 2.11 121 2.11 122 2.11 202 2.11 123 2.11
  24  0.100  0.800  0.503- 118 2.11 121 2.11 122 2.11 141 2.11 124 2.11
  25  0.200  0.000  0.407- 128 2.11 127 2.11 108 2.11 143 2.11 125 2.11
  26  0.300  0.100  0.407- 127 2.11 128 2.11 132 2.11 147 2.11 126 2.11
  27  0.200  0.100  0.503- 126 2.11 125 2.11 106 2.11 129 2.11 127 2.11
  28  0.300  0.000  0.503- 125 2.11 126 2.11 142 2.11 145 2.11 128 2.11
  29  0.200  0.200  0.407- 131 2.11 132 2.11 112 2.11 127 2.11 129 2.11
  30  0.300  0.300  0.407- 131 2.11 132 2.11 136 2.11 151 2.11 130 2.11
  31  0.200  0.300  0.503- 129 2.11 130 2.11 110 2.11 133 2.11 131 2.11
  32  0.300  0.200  0.503- 129 2.11 130 2.11 126 2.11 149 2.11 132 2.11
  33  0.200  0.400  0.407- 136 2.11 131 2.11 135 2.11 116 2.11 133 2.11
  34  0.300  0.500  0.407- 135 2.11 136 2.11 140 2.11 155 2.11 134 2.11
  35  0.200  0.500  0.503- 134 2.11 133 2.11 114 2.11 137 2.11 135 2.11
  36  0.300  0.400  0.503- 133 2.11 130 2.11 134 2.11 153 2.11 136 2.11
  37  0.200  0.600  0.407- 140 2.11 135 2.11 139 2.11 120 2.11 137 2.11
  38  0.300  0.700  0.407- 139 2.11 144 2.11 140 2.11 159 2.11 138 2.11
  39  0.200  0.700  0.503- 138 2.11 141 2.11 118 2.11 137 2.11 139 2.11
  40  0.300  0.600  0.503- 137 2.11 134 2.11 138 2.11 157 2.11 140 2.11
  41  0.200  0.800  0.407- 139 2.11 144 2.11 143 2.11 124 2.11 141 2.11
  42  0.300  0.900  0.407- 143 2.11 128 2.11 144 2.11 163 2.11 142 2.11
  43  0.200  0.900  0.503- 142 2.11 125 2.11 141 2.11 122 2.11 143 2.11
  44  0.300  0.800  0.503- 138 2.11 141 2.11 142 2.11 161 2.11 144 2.11
  45  0.400  0.000  0.407- 128 2.11 147 2.11 148 2.11 163 2.11 145 2.11
  46  0.500  0.100  0.407- 147 2.11 148 2.11 152 2.11 167 2.11 146 2.11
  47  0.400  0.100  0.503- 126 2.11 145 2.11 146 2.11 149 2.11 147 2.11
  48  0.500  0.000  0.503- 145 2.11 146 2.11 162 2.11 165 2.11 148 2.11
  49  0.400  0.200  0.407- 151 2.11 147 2.11 132 2.11 152 2.11 149 2.11
  50  0.500  0.300  0.407- 152 2.11 151 2.11 156 2.11 171 2.11 150 2.11
  51  0.400  0.300  0.503- 149 2.11 130 2.11 150 2.11 153 2.11 151 2.11
  52  0.500  0.200  0.503- 150 2.11 149 2.11 146 2.11 169 2.11 152 2.11
  53  0.400  0.400  0.407- 136 2.11 151 2.11 155 2.11 156 2.11 153 2.11
  54  0.500  0.500  0.407- 155 2.11 156 2.11 160 2.11 175 2.11 154 2.11
  55  0.400  0.500  0.503- 134 2.11 153 2.11 154 2.11 157 2.11 155 2.11   3 2.78   2 2.83
  56  0.500  0.400  0.503- 150 2.11 153 2.11 154 2.11 173 2.11 156 2.11
  57  0.400  0.600  0.407- 140 2.11 155 2.11 159 2.11 160 2.11 157 2.11
  58  0.500  0.700  0.407- 164 2.11 160 2.11 159 2.11 179 2.11 158 2.11
  59  0.400  0.700  0.503- 161 2.11 157 2.11 158 2.11 138 2.11 159 2.11
  60  0.500  0.600  0.503- 154 2.11 157 2.11 158 2.11 177 2.11 160 2.11
[...]
 190  0.900  0.300  0.503-  92 2.11  91 2.11  11 2.11  96 2.11  90 2.11
 191  0.800  0.300  0.407-  70 2.11  89 2.11  90 2.11  93 2.11  91 2.11
 192  0.900  0.200  0.407-  90 2.11  86 2.11  89 2.11   9 2.11  92 2.11
 193  0.800  0.400  0.503-  76 2.11  91 2.11  95 2.11  96 2.11  93 2.11
 194  0.900  0.500  0.503-  15 2.11  95 2.11  96 2.11 100 2.11  94 2.11
 195  0.800  0.500  0.407-  74 2.11  93 2.11  94 2.11  97 2.11  95 2.11
 196  0.900  0.400  0.407-  13 2.11  90 2.11  93 2.11  94 2.11  96 2.11
 197  0.800  0.600  0.503-  80 2.11  95 2.11  99 2.11 100 2.11  97 2.11
 198  0.900  0.700  0.503- 104 2.11  99 2.11 100 2.11  19 2.11  98 2.11
 199  0.800  0.700  0.407-  78 2.11 101 2.11  98 2.11  97 2.11  99 2.11
 200  0.900  0.600  0.407-  17 2.11  94 2.11  97 2.11  98 2.11 100 2.11
 201  0.800  0.800  0.503-  84 2.11  99 2.11 103 2.11 104 2.11 101 2.11
 202  0.900  0.900  0.503-  23 2.11  88 2.11 103 2.11 104 2.11 102 2.11
 203  0.800  0.900  0.407-  82 2.11  85 2.11 101 2.11 102 2.11 103 2.11
 204  0.900  0.800  0.407-  98 2.11  21 2.11 101 2.11 102 2.11 104 2.11

  LATTYP: Found a simple tetragonal cell.
 ALAT       =    21.1388521970
 C/A-ratio  =     1.0461251639

  Lattice vectors:

 A1 = (  21.1388521970,   0.0000000000,   0.0000000000)
 A2 = (   0.0000000000,  21.1388521970,   0.0000000000)
 A3 = (   0.0000000000,   0.0000000000,  22.1138852197)

Analysis of symmetry for initial positions (statically):
 Subroutine PRICEL returns:
 Original cell was already a primitive cell.

 Routine SETGRP: Setting up the symmetry group for a
 simple tetragonal supercell.

 Subroutine GETGRP returns: Found  1 space group operations
 (whereof  1 operations were pure point group operations)
 out of a pool of 16 trial point group operations.

The static configuration has the point symmetry C_1 .

Analysis of symmetry for dynamics (positions and initial velocities):
 Subroutine PRICEL returns:
 Original cell was already a primitive cell.

[...]

The dynamic configuration has the point symmetry C_1 .

Analysis of constrained symmetry for selective dynamics:
 Subroutine PRICEL returns:
 Original cell was already a primitive cell.

 Routine SETGRP: Setting up the symmetry group for a
 simple tetragonal supercell.

 Subroutine GETGRP returns: Found  1 space group operations
 (whereof  1 operations were pure point group operations)
 out of a pool of 16 trial point group operations.

The constrained configuration has the point symmetry C_1 .

 Subroutine INISYM returns: Found  1 space group operations
 (whereof  1 operations are pure point group operations),
 and found     1 'primitive' translations

[...]
     52     -43.5785      2.00000
     53     -43.5781      2.00000
     54     -43.5774      2.00000
     55     -43.5751      2.00000
     56     -43.5720      2.00000
     57     -43.5715      2.00000
     58     -43.5710      2.00000
     59     -43.5699      2.00000
     60     -43.5694      2.00000
[...]
    946       5.5563      0.00000
    947       5.5714      0.00000
    948       5.5828      0.00000
    949       5.5945      0.00000
    950       5.6026      0.00000
    951       5.6161      0.00000
    952       5.6255      0.00000
    953       5.6584      0.00000
    954       5.7082      0.00000
    955       5.7677      0.00000
    956       5.9239      0.00000
    957       5.9706      0.00000
    958       6.0346      0.00000
    959       6.2222      0.00000
    960       6.4413      0.00000

 soft charge-density along one line, spin component           1
         0         1         2         3         4         5         6         7         8         9
 total charge-density along one line

------------------------ aborting loop because EDIFF is reached ----------------------------------------

  FORCE on cell =-STRESS in cart. coord.  units (eV):
  Direction    XX          YY          ZZ          XY          YZ          ZX
  Alpha Z  1417.83424  1417.83424  1417.83424
  Ewald  484651.50164483712.19756************    -3.57601   -87.59049   -13.50229
  Hartree513553.89884512771.37952************    -3.38390   -60.65172    -9.40959
  E(xc)   -8058.06499 -8058.55599 -8076.20614     0.00214    -0.11291    -0.02709
  Local  ************************************     7.09071   146.14214    22.46405
  n-local -8775.79614 -8775.61420 -8881.70337    -0.08639     0.88657     0.31513
  augment  3646.93058  3647.43884  3597.46324    -0.00967     0.32663     0.00819
  Kinetic 23373.57017 23374.00674 23595.23746    -0.04620     0.90624     0.13878
  Fock        0.00000     0.00000     0.00000     0.00000     0.00000     0.00000
  Total    -116.11849  -117.03042    40.43919    -0.00932    -0.09354    -0.01284
  in kB     -18.82713   -18.97499     6.55670    -0.00151    -0.01517    -0.00208

 VOLUME and BASIS-vectors are now :
  energy-cutoff  :      520.00
  volume of cell :     9881.61
      direct lattice vectors                 reciprocal lattice vectors
    21.138852197  0.000000000  0.000000000     0.047306258  0.000000000  0.000000000
     0.000000000 21.138852197  0.000000000     0.000000000  0.047306258  0.000000000
     0.000000000  0.000000000 22.113885220     0.000000000  0.000000000  0.045220457

  length of vectors
    21.138852197 21.138852197 22.113885220     0.047306258  0.047306258  0.045220457

 FORCES acting on ions:
    Electron-Ion                     Ewald-Force                    Non-Local-Force
   0.483E+03 -.682E+01 -.207E+04   -.480E+03 0.671E+01 0.207E+04   -.403E+01 0.136E+00 0.700E+00
   0.183E+01 0.483E+03 -.204E+04   -.183E+01 -.480E+03 0.204E+04   -.167E-02 -.392E+01 -.627E+00
   -.140E+01 -.470E+03 -.203E+04   0.131E+01 0.468E+03 0.203E+04   0.991E-01 0.320E+01 -.867E+00
   -.483E+03 -.420E+01 -.207E+04   0.480E+03 0.406E+01 0.207E+04   0.406E+01 0.159E+00 0.595E+00
   0.664E+01 -.546E+00 0.936E+03   -.667E+01 0.554E+00 -.929E+03   0.229E-01 -.598E-02 -.682E+01
   0.127E+02 0.109E+02 0.940E+03   -.127E+02 -.109E+02 -.933E+03   0.460E-01 -.364E-02 -.683E+01
   0.953E+01 0.100E+02 -.917E+03   -.956E+01 -.100E+02 0.910E+03   0.225E-01 -.156E-01 0.675E+01
   0.135E+02 -.967E+00 -.916E+03   -.136E+02 0.979E+00 0.909E+03   0.377E-01 -.951E-02 0.674E+01
   0.107E+02 0.143E+02 0.940E+03   -.108E+02 -.143E+02 -.933E+03   0.312E-01 -.136E-01 -.683E+01
   0.288E+02 0.247E+02 0.955E+03   -.289E+02 -.247E+02 -.948E+03   0.102E+00 -.988E-02 -.686E+01
   0.227E+02 0.217E+02 -.910E+03   -.227E+02 -.216E+02 0.903E+03   0.168E-01 -.290E-01 0.673E+01
   0.259E+02 0.288E+02 -.909E+03   -.260E+02 -.288E+02 0.902E+03   0.659E-01 -.299E-01 0.673E+01
   0.211E+02 0.113E+02 0.950E+03   -.212E+02 -.112E+02 -.943E+03   0.360E-01 -.821E-02 -.685E+01
   0.468E+02 0.135E+01 0.973E+03   -.470E+02 -.137E+01 -.966E+03   0.130E+00 0.123E-01 -.691E+01
   0.376E+02 0.108E+01 -.902E+03   -.376E+02 -.108E+01 0.895E+03   -.253E-01 0.569E-02 0.672E+01
   0.704E+02 0.318E+02 -.883E+03   -.704E+02 -.317E+02 0.877E+03   0.160E-01 -.528E-01 0.668E+01
   0.217E+02 -.102E+02 0.951E+03   -.218E+02 0.101E+02 -.944E+03   0.441E-01 0.183E-01 -.685E+01
   0.305E+02 -.247E+02 0.957E+03   -.306E+02 0.246E+02 -.950E+03   0.136E+00 0.149E-01 -.686E+01
   0.240E+02 -.215E+02 -.909E+03   -.240E+02 0.215E+02 0.902E+03   0.256E-01 0.324E-01 0.673E+01
   0.738E+02 -.293E+02 -.882E+03   -.738E+02 0.292E+02 0.875E+03   0.292E-01 0.680E-01 0.667E+01
   0.113E+02 -.148E+02 0.941E+03   -.114E+02 0.148E+02 -.934E+03   0.408E-01 0.949E-02 -.683E+01
   0.132E+02 -.123E+02 0.940E+03   -.133E+02 0.123E+02 -.933E+03   0.557E-01 -.136E-01 -.683E+01
   0.995E+01 -.113E+02 -.917E+03   -.999E+01 0.112E+02 0.910E+03   0.275E-01 0.654E-02 0.675E+01
   0.277E+02 -.304E+02 -.908E+03   -.279E+02 0.304E+02 0.901E+03   0.894E-01 0.242E-01 0.673E+01
   0.113E+02 -.104E+01 0.941E+03   -.114E+02 0.106E+01 -.934E+03   0.446E-01 -.159E-01 -.683E+01
   0.857E+01 0.192E+02 0.947E+03   -.862E+01 -.193E+02 -.940E+03   0.371E-01 0.539E-01 -.683E+01
   0.175E+02 0.214E+02 -.911E+03   -.175E+02 -.214E+02 0.904E+03   0.492E-01 0.107E-01 0.674E+01
   0.901E+01 -.181E+01 -.912E+03   -.904E+01 0.184E+01 0.905E+03   0.284E-01 -.214E-01 0.674E+01
   0.207E+02 0.301E+02 0.954E+03   -.209E+02 -.302E+02 -.947E+03   0.996E-01 0.365E-01 -.683E+01
   0.250E+02 0.556E+02 0.993E+03   -.253E+02 -.558E+02 -.986E+03   0.218E+00 0.176E+00 -.680E+01
   0.597E+02 0.698E+02 -.876E+03   -.600E+02 -.697E+02 0.870E+03   0.232E+00 -.909E-01 0.668E+01
   0.218E+02 0.653E+02 -.892E+03   -.219E+02 -.655E+02 0.885E+03   0.723E-01 0.152E+00 0.672E+01
   0.520E+02 0.322E+02 0.999E+03   -.524E+02 -.323E+02 -.992E+03   0.317E+00 0.286E-01 -.699E+01
   0.490E+02 0.440E+01 0.107E+04   -.496E+02 -.452E+01 -.106E+04   0.420E+00 0.941E-01 -.714E+01
   0.150E+03 0.677E+01 -.784E+03   -.150E+03 -.679E+01 0.778E+03   0.205E+00 0.113E-01 0.628E+01
   0.109E+03 0.136E+03 -.727E+03   -.111E+03 -.136E+03 0.720E+03   0.126E+01 -.267E-01 0.643E+01
   0.544E+02 -.294E+02 0.100E+04   -.549E+02 0.294E+02 -.995E+03   0.408E+00 0.131E-01 -.701E+01
   0.273E+02 -.571E+02 0.999E+03   -.277E+02 0.574E+02 -.993E+03   0.292E+00 -.216E+00 -.677E+01
   0.656E+02 -.726E+02 -.872E+03   -.660E+02 0.725E+02 0.865E+03   0.326E+00 0.109E+00 0.667E+01
   0.123E+03 -.131E+03 -.703E+03   -.126E+03 0.131E+03 0.697E+03   0.188E+01 0.142E+00 0.626E+01
   0.223E+02 -.319E+02 0.956E+03   -.224E+02 0.320E+02 -.949E+03   0.132E+00 -.628E-01 -.683E+01
   0.904E+01 -.220E+02 0.949E+03   -.910E+01 0.221E+02 -.942E+03   0.457E-01 -.105E+00 -.684E+01
   0.185E+02 -.244E+02 -.910E+03   -.186E+02 0.244E+02 0.904E+03   0.600E-01 -.432E-01 0.674E+01
   0.243E+02 -.713E+02 -.888E+03   -.244E+02 0.716E+02 0.882E+03   0.946E-01 -.239E+00 0.672E+01
   -.227E+00 -.142E+01 0.945E+03   0.225E+00 0.145E+01 -.938E+03   0.104E-02 -.256E-01 -.683E+01
   -.897E+01 0.191E+02 0.947E+03   0.902E+01 -.191E+02 -.940E+03   -.354E-01 0.539E-01 -.683E+01
   -.362E+00 0.311E+02 -.906E+03   0.360E+00 -.312E+02 0.900E+03   0.111E-02 0.671E-01 0.674E+01
   -.945E+01 -.177E+01 -.912E+03   0.948E+01 0.180E+01 0.905E+03   -.266E-01 -.220E-01 0.674E+01
   -.437E+00 0.439E+02 0.966E+03   0.435E+00 -.443E+02 -.959E+03   0.135E-02 0.253E+00 -.686E+01
   -.260E+02 0.548E+02 0.992E+03   0.262E+02 -.551E+02 -.986E+03   -.213E+00 0.186E+00 -.680E+01
   -.181E+01 0.139E+03 -.824E+03   0.180E+01 -.141E+03 0.817E+03   0.831E-03 0.111E+01 0.682E+01
   -.227E+02 0.644E+02 -.892E+03   0.228E+02 -.645E+02 0.885E+03   -.695E-01 0.153E+00 0.672E+01
   -.131E+01 0.563E+02 0.106E+04   0.129E+01 -.566E+02 -.105E+04   0.150E-01 0.246E+00 -.546E+01
   -.507E+02 0.423E+01 0.107E+04   0.513E+02 -.436E+01 -.106E+04   -.412E+00 0.946E-01 -.710E+01
   -.601E+01 0.231E+02 -.504E+03   0.598E+01 -.240E+02 0.499E+03   0.444E-01 0.684E+00 0.476E+01
   -.111E+03 0.133E+03 -.733E+03   0.112E+03 -.133E+03 0.726E+03   -.124E+01 0.128E-02 0.646E+01
   -.148E+01 -.517E+02 0.107E+04   0.146E+01 0.518E+02 -.106E+04   0.179E-01 -.114E+00 -.472E+01
   -.284E+02 -.563E+02 0.998E+03   0.288E+02 0.566E+02 -.991E+03   -.285E+00 -.226E+00 -.677E+01
   -.232E+01 -.153E+03 -.808E+03   0.231E+01 0.156E+03 0.801E+03   0.566E-02 -.169E+01 0.689E+01
   -.125E+03 -.128E+03 -.711E+03   0.127E+03 0.128E+03 0.705E+03   -.186E+01 0.119E+00 0.634E+01
[...]
   -.112E+02 0.118E+02 0.711E+03   0.113E+02 -.118E+02 -.715E+03   -.343E-01 -.130E-01 0.354E+01
   0.224E+00 0.909E+01 0.706E+03   -.223E+00 -.908E+01 -.710E+03   -.192E-02 -.143E-01 0.355E+01
   -.229E+02 0.115E+02 -.681E+03   0.229E+02 -.115E+02 0.685E+03   -.126E-01 -.217E-01 -.370E+01
   0.721E+00 0.567E+00 -.683E+03   -.717E+00 -.571E+00 0.688E+03   -.553E-02 0.572E-02 -.369E+01
   -.169E+02 0.543E+00 0.716E+03   0.169E+02 -.550E+00 -.720E+03   -.306E-01 0.858E-02 0.352E+01
   0.422E+00 0.675E+01 0.711E+03   -.419E+00 -.674E+01 -.715E+03   -.414E-02 -.826E-02 0.354E+01
   -.237E+02 -.105E+02 -.681E+03   0.237E+02 0.105E+02 0.685E+03   -.187E-01 0.338E-01 -.371E+01
   0.498E+00 -.125E+02 -.686E+03   -.495E+00 0.125E+02 0.691E+03   -.405E-02 0.275E-01 -.368E+01
   -.117E+02 -.117E+02 0.711E+03   0.118E+02 0.117E+02 -.715E+03   -.442E-01 0.167E-01 0.354E+01
   0.443E+00 -.609E+01 0.711E+03   -.440E+00 0.608E+01 -.715E+03   -.457E-02 0.180E-01 0.354E+01
   -.108E+02 -.142E+02 -.688E+03   0.109E+02 0.142E+02 0.692E+03   -.335E-01 0.153E-01 -.367E+01
   0.221E+00 -.709E+01 -.690E+03   -.220E+00 0.708E+01 0.695E+03   -.174E-02 0.490E-02 -.366E+01
   -.561E+01 -.656E+01 0.705E+03   0.564E+01 0.656E+01 -.709E+03   -.326E-01 -.402E-02 0.355E+01
   0.247E+00 -.939E+01 0.706E+03   -.245E+00 0.939E+01 -.710E+03   -.243E-02 0.103E-01 0.355E+01
   0.222E-01 0.770E+00 0.122E+02   0.273E-11 0.210E-11 0.218E-10   -.208E-01 -.768E+00 -.132E+02

 POSITION                                       TOTAL-FORCE (eV/Angst)
      6.12143     10.70919     14.10279        -0.628882      0.020180      0.345148
      8.38943      9.33976     13.66282        -0.003161     -0.680873      0.241383
      8.39418     12.03706     13.47256         0.002271      0.649515      0.261834
     10.67333     10.69253     14.07734         0.627314      0.016835      0.344332
      0.00000      0.00000      9.00000        -0.006346      0.001674      0.169265
      2.11389      2.11389      9.00000        -0.012810      0.000834      0.169656
      0.00000      2.11389     11.11389        -0.006085      0.004301     -0.147948
      2.11389      0.00000     11.11389        -0.010535      0.002599     -0.147385
      0.00000      4.22777      9.00000        -0.008280      0.003809      0.171310
      2.11389      6.34166      9.00000        -0.026477      0.003137      0.178117
      0.00000      6.34166     11.11389        -0.003797      0.008513     -0.141248
      2.11389      4.22777     11.11389        -0.017258      0.008320     -0.141464
      0.00000      8.45554      9.00000        -0.009445      0.002688      0.176207
      2.11389     10.56943      9.00000        -0.035315     -0.003557      0.191200
      0.00000     10.56943     11.11389         0.008290     -0.001599     -0.133153
      2.11389      8.45554     11.11389         0.001621      0.017684     -0.111184
      0.00000     12.68331      9.00000        -0.011596     -0.005551      0.176427
      2.11389     14.79720      9.00000        -0.035323     -0.004518      0.179042
      0.00000     14.79720     11.11389        -0.006020     -0.009477     -0.140529
      2.11389     12.68331     11.11389        -0.001926     -0.022118     -0.108969
      0.00000     16.91108      9.00000        -0.010819     -0.002643      0.171465
      2.11389     19.02497      9.00000        -0.015509      0.003993      0.169493
      0.00000     19.02497     11.11389        -0.007389     -0.001759     -0.147671
      2.11389     16.91108     11.11389        -0.023410     -0.006626     -0.140110
      4.22777      0.00000      9.00000        -0.012721      0.004336      0.169488
      6.34166      2.11389      9.00000        -0.010880     -0.014313      0.170218
      4.22777      2.11389     11.11389        -0.013934     -0.002569     -0.144124
      6.34166      0.00000     11.11389        -0.008180      0.005705     -0.144937
      4.22777      4.22777      9.00000        -0.028392     -0.011203      0.169769
      6.34166      6.34166      9.00000        -0.070561     -0.057005      0.150021
      4.22777      6.34166     11.11389        -0.059525      0.027766     -0.110042
      6.34166      4.22777     11.11389        -0.022103     -0.039714     -0.133029
      4.22777      8.45554      9.00000        -0.081993     -0.006332      0.205523
      6.34166     10.56943      9.00000        -0.138414     -0.030076      0.177210
      4.22777     10.56943     11.11389        -0.036011     -0.001592      0.069537
      6.34166      8.45554     11.11389        -0.410483      0.036216      0.013808
      4.22777     12.68331      9.00000        -0.104299     -0.005723      0.209392
      6.34166     14.79720      9.00000        -0.095094      0.072140      0.135662
      4.22777     14.79720     11.11389        -0.082899     -0.032888     -0.101594
      6.34166     12.68331     11.11389        -0.635022     -0.058170      0.029014
      4.22777     16.91108      9.00000        -0.037630      0.018964      0.168480
      6.34166     19.02497      9.00000        -0.013405      0.028097      0.170126
      4.22777     19.02497     11.11389        -0.016996      0.011274     -0.143122
      6.34166     16.91108     11.11389        -0.028761      0.062822     -0.128876
      8.45554      0.00000      9.00000        -0.000299      0.006845      0.169922
     10.56943      2.11389      9.00000         0.010394     -0.014355      0.170170
      8.45554      2.11389     11.11389        -0.000305     -0.016668     -0.142268
     10.56943      0.00000     11.11389         0.007650      0.005855     -0.144968
      8.45554      4.22777      9.00000        -0.000372     -0.064613      0.173590
     10.56943      6.34166      9.00000         0.069157     -0.059849      0.151162
      8.45554      6.34166     11.11389        -0.000253     -0.346397     -0.148572
     10.56943      4.22777     11.11389         0.021295     -0.039498     -0.133079
      8.45554      8.45554      9.00000        -0.005211     -0.049290     -0.157424
     10.56943     10.56943      9.00000         0.136542     -0.030213      0.170201
      8.45554     10.56943     11.11389         0.011036     -0.290405     -0.399357
     10.56943      8.45554     11.11389         0.396435      0.031219      0.024352
      8.45554     12.68331      9.00000        -0.006213      0.016664     -0.323255
     10.56943     14.79720      9.00000         0.093145      0.075225      0.135853
      8.45554     14.79720     11.11389        -0.001911      0.527520     -0.169139
     10.56943     12.68331     11.11389         0.609256     -0.056588      0.036096
[...]
     19.02497      6.34166     11.11389        -0.000938     -0.006791      0.531924
     16.91108      6.34166      9.00000        -0.009646     -0.003622     -0.562533
     19.02497      4.22777      9.00000        -0.000543     -0.004000     -0.559792
     16.91108      8.45554     11.11389        -0.003770     -0.006037      0.524355
     19.02497     10.56943     11.11389        -0.001541      0.001580      0.527912
     16.91108     10.56943      9.00000        -0.008890      0.002374     -0.567865
     19.02497      8.45554      9.00000        -0.001158     -0.002397     -0.563147
     16.91108     12.68331     11.11389        -0.005505      0.009400      0.523794
     19.02497     14.79720     11.11389        -0.001129      0.007682      0.531423
     16.91108     14.79720      9.00000        -0.012427      0.004619     -0.562617
     19.02497     12.68331      9.00000        -0.001271      0.005091     -0.563185
     16.91108     16.91108     11.11389        -0.009353      0.004244      0.532785
     19.02497     19.02497     11.11389        -0.000496      0.001368      0.536195
     16.91108     19.02497      9.00000        -0.009105     -0.001114     -0.558812
     19.02497     16.91108      9.00000        -0.000683      0.002878     -0.559817
    total drift:                                0.001409      0.001218     -0.969265

  FREE ENERGIE OF THE ION-ELECTRON SYSTEM (eV)
  free  energy   TOTEN  =      -679.43509476 eV

  energy  without entropy=     -679.43509476  energy(sigma->0) =     -679.43509476