 vasp.6.3.0 20Jan22 (build Apr  1 2022 16:44:48) complex
 executed on        HPECrayEX_GCC date 2023.05.02  10:50:46

 INCAR:
   SYSTEM = MgO-rocksalt
   ISMEAR = 0
   SIGMA = 0.05
   EDIFF = 1E-6
   ALGO = ALL
   ISTART = 0
   IBRION = -1
   NSW = 0
   ISYM = 2
   DIPOL = 0.5 0.5 0.5
   IDIPOL = 3
   LDIPOL = .TRUE.
   GGA = PE
   IVDW = 1
   VDW_C6 = 81.24 0.63 0.70
   VDW_R0 = 1.772 1.243 1.342
   ENCUT = 520
   PREC = Accurate
   LASPH = .TRUE.
   LREAL = Auto
   ISPIN = 1
   NELM = 200
   NELMIN = 8
   NCORE = 4
   KPAR = 2
   LWAVE = .FALSE.
   LCHARG = .FALSE.

 POTCAR:    PAW_PBE Au 04Oct2007
 POTCAR:    PAW_PBE Mg_pv 13Apr2007
 POTCAR:    PAW_PBE O 08Apr2002
 POTCAR:    PAW_PBE Au 04Oct2007
   VRHFIN =Au: s1d10

   TITEL  = PAW_PBE Au 04Oct2007
   POMASS =  196.966; ZVAL   =   11.000    mass and valenz
   ENMAX  =  229.943; ENMIN  =  172.457 eV

   TITEL  = PAW_PBE Mg_pv 13Apr2007
   POMASS =   24.305; ZVAL   =    8.000    mass and valenz
   ENMAX  =  403.929; ENMIN  =  302.947 eV

   TITEL  = PAW_PBE O 08Apr2002
   POMASS =   16.000; ZVAL   =    6.000    mass and valenz
   ENMAX  =  400.000; ENMIN  =  300.000 eV

 Optimization of the real space projectors (new method)

 maximal supplied QI-value         = 15.12
 optimisation between [QCUT,QGAM] = [ 11.64, 23.28] = [ 37.95,151.78] Ry
 Optimized for a Real-space Cutoff    1.49 Angstroem

   l    n(q)    QCUT    max X(q) W(low)/X(q) W(high)/X(q)  e(spline)
   2      9    11.641    60.898    0.24E-03    0.10E-03    0.19E-06
   2      9    11.641    58.894    0.25E-03    0.10E-03    0.19E-06
   0     10    11.641   109.617    0.73E-04    0.33E-04    0.11E-06
   0     10    11.641    75.026    0.71E-04    0.32E-04    0.11E-06
   1     10    11.641    16.344    0.27E-04    0.97E-04    0.16E-06
   1     10    11.641    10.160    0.23E-04    0.77E-04    0.13E-06
 Optimization of the real space projectors (new method)

[...]

   l    n(q)    QCUT    max X(q) W(low)/X(q) W(high)/X(q)  e(spline)
   1      8    11.527     2.974    0.44E-04    0.56E-04    0.12E-06
   1      8    11.527     4.279    0.12E-03    0.12E-03    0.26E-06
   0      9    11.527    16.381    0.46E-04    0.64E-04    0.78E-07
   0      9    11.527     5.611    0.26E-04    0.43E-04    0.55E-07
   2      8    11.527     4.652    0.22E-03    0.72E-04    0.47E-07
 Optimization of the real space projectors (new method)

 maximal supplied QI-value         = 24.76
 optimisation between [QCUT,QGAM] = [ 11.64, 23.27] = [ 37.91,151.63] Ry
 Optimized for a Real-space Cutoff    1.14 Angstroem

   l    n(q)    QCUT    max X(q) W(low)/X(q) W(high)/X(q)  e(spline)
   0      8    11.635    20.381    0.10E-03    0.33E-03    0.24E-06
   0      8    11.635    15.268    0.11E-03    0.35E-03    0.26E-06
   1      7    11.635     5.964    0.24E-03    0.31E-03    0.30E-06
   1      7    11.635     5.382    0.22E-03    0.25E-03    0.26E-06
  PAW_PBE Au 04Oct2007                  :
  PAW_PBE Mg_pv 13Apr2007               :
  PAW_PBE O 08Apr2002                   :

 POSCAR: Mg  O
  positions in direct lattice
  velocities in cartesian coordinates
 exchange correlation table for  LEXCH =        8
   RHO(1)=    0.500       N(1)  =     2000
   RHO(2)=  100.500       N(2)  =     4000

 ion  position               nearest neighbor table
   1  0.498  0.433  0.611-  11 2.70  17 2.71  13 2.72   3 2.73   4 2.76   8 2.78
   2  0.326  0.314  0.579- 246 2.42  14 2.70  13 2.70  19 2.73  11 2.77  67 2.88  52 3.07
   3  0.558  0.545  0.592-   9 2.71   8 2.73   1 2.73  17 2.75  91 3.03
   4  0.567  0.324  0.619-  17 2.70   7 2.70  15 2.71  13 2.71   6 2.75   1 2.76
   5  0.449  0.096  0.604-  10 2.66  19 2.71   7 2.81
   6  0.637  0.214  0.618-   7 2.71  15 2.71  16 2.72   4 2.75  20 2.77  10 2.77
   7  0.510  0.210  0.625-  19 2.68   4 2.70   6 2.71  10 2.74  13 2.76   5 2.81
   8  0.428  0.542  0.592-  11 2.69   3 2.73   1 2.78  71 2.93
   9  0.685  0.549  0.597-  18 2.67   3 2.71  17 2.72
  10  0.574  0.099  0.611-  16 2.63   5 2.66   7 2.74   6 2.77
  11  0.370  0.431  0.607-  14 2.65   8 2.69   1 2.70   2 2.77  13 2.80
  12  0.820  0.335  0.592-  18 2.67  15 2.70  20 2.75 107 2.87
  13  0.439  0.320  0.621-   2 2.70   4 2.71   1 2.72   7 2.76  19 2.76  11 2.80
  14  0.251  0.417  0.581- 249 2.61  11 2.65   2 2.70  52 2.70
  15  0.695  0.328  0.609-  12 2.70  17 2.71   4 2.71   6 2.71  20 2.75  18 2.80
  16  0.687  0.112  0.575- 282 2.27  10 2.63   6 2.72  20 2.76  83 2.93  88 2.98
  17  0.626  0.436  0.607-   4 2.70  15 2.71   1 2.71   9 2.72   3 2.75  18 2.78
  18  0.756  0.444  0.596-   9 2.67  12 2.67  17 2.78  15 2.80
  19  0.403  0.210  0.577- 265 2.29   7 2.68   5 2.71   2 2.73  13 2.76  67 3.04
  20  0.759  0.221  0.584- 305 2.65  12 2.75  15 2.75  16 2.76   6 2.77  88 2.86
  21  0.000  1.000  0.430- 239 2.11 224 2.11 304 2.11 321 2.12 223 2.12 221 2.13
  22  0.100  0.100  0.430- 224 2.11 223 2.11 243 2.11 322 2.12 228 2.12 222 2.13
  23  0.000  0.099  0.500- 302 2.10 222 2.11 223 2.11 221 2.11 225 2.12
  24  0.100  0.999  0.500- 224 2.11 238 2.11 221 2.11 241 2.11 222 2.12
  25  1.000  0.200  0.430- 227 2.11 228 2.11 223 2.11 308 2.12 325 2.12 225 2.14
  26  0.100  0.300  0.430- 227 2.11 232 2.11 228 2.11 247 2.12 326 2.12 226 2.14
  27  0.000  0.300  0.500- 226 2.11 227 2.11 306 2.11 229 2.11 225 2.12
  28  0.099  0.200  0.500- 225 2.10 228 2.11 245 2.11 222 2.11 226 2.13
  29  1.000  0.400  0.430- 312 2.10 231 2.11 227 2.12 329 2.12 232 2.13 229 2.14
  30  0.100  0.500  0.430- 231 2.11 236 2.11 251 2.11 232 2.12 330 2.12 230 2.13
  31  1.000  0.501  0.500- 310 2.10 233 2.10 231 2.11 230 2.12 229 2.12
  32  0.098  0.401  0.500- 229 2.08 230 2.10 232 2.11 249 2.12 226 2.13
  33  1.000  0.600  0.430- 316 2.11 235 2.11 231 2.12 236 2.12 333 2.12 233 2.13
  34  0.100  0.700  0.430- 235 2.11 240 2.11 255 2.11 236 2.11 334 2.12 234 2.13
  35  1.000  0.700  0.500- 235 2.11 314 2.11 233 2.11 237 2.11 234 2.11
  36  0.100  0.601  0.500- 234 2.11 233 2.11 236 2.11 253 2.12 230 2.12
  37  1.000  0.800  0.430- 235 2.11 320 2.11 240 2.11 239 2.12 337 2.12 237 2.13
  38  0.100  0.900  0.430- 240 2.11 239 2.11 259 2.11 224 2.12 338 2.12 238 2.13
  39  0.000  0.899  0.500- 239 2.10 237 2.11 238 2.11 318 2.11 221 2.12
  40  0.100  0.800  0.500- 240 2.11 234 2.11 237 2.11 257 2.11 238 2.11
  41  0.200  1.000  0.430- 259 2.11 224 2.11 244 2.11 341 2.12 243 2.12 241 2.13
  42  0.300  0.099  0.430- 244 2.10 263 2.11 243 2.11 342 2.12 248 2.13 242 2.13
  43  0.199  0.099  0.500- 241 2.10 222 2.10 243 2.11 242 2.12 245 2.13
  44  0.300  0.999  0.500- 258 2.10 244 2.11 241 2.11 261 2.12 242 2.12
  45  0.199  0.200  0.430- 228 2.10 243 2.11 345 2.12 248 2.12 247 2.13 245 2.14
  46  0.300  0.300  0.429- 267 2.10 252 2.10 346 2.11 248 2.11 247 2.11 246 2.16
  47  0.198  0.299  0.500- 226 2.08 247 2.11 245 2.11 246 2.12 249 2.13
  48  0.297  0.198  0.500- 245 2.08 242 2.08 248 2.09 246 2.13 265 2.13
  49  0.200  0.400  0.429- 251 2.10 232 2.10 252 2.11 349 2.11 247 2.11 249 2.21
  50  0.300  0.501  0.430- 250 2.10 271 2.10 256 2.11 350 2.12 251 2.12 252 2.14
  51  0.200  0.502  0.500- 253 2.09 251 2.11 250 2.11 230 2.11 249 2.15
  52  0.302  0.402  0.499- 269 2.08 252 2.08 250 2.09 249 2.19 246 2.20  14 2.70   2 3.07
  53  0.200  0.600  0.430- 255 2.11 256 2.11 236 2.11 353 2.12 251 2.13 253 2.13
  54  0.300  0.700  0.430- 256 2.11 275 2.11 260 2.11 255 2.12 354 2.12 254 2.13
  55  0.200  0.700  0.500- 255 2.11 253 2.11 257 2.11 254 2.11 234 2.11
  56  0.300  0.601  0.500- 250 2.10 254 2.11 273 2.11 256 2.11 253 2.12
  57  0.200  0.800  0.430- 255 2.11 260 2.11 240 2.11 259 2.12 357 2.12 257 2.13
  58  0.300  0.900  0.430- 260 2.11 279 2.11 259 2.11 244 2.12 358 2.12 258 2.13
  59  0.200  0.900  0.500- 259 2.11 257 2.11 238 2.11 258 2.11 241 2.12
  60  0.300  0.800  0.500- 260 2.11 254 2.11 258 2.11 277 2.11 257 2.12
[...]
 406  0.900  0.300  0.359- 208 2.11 207 2.11 127 2.11 212 2.11 206 2.11 106 2.12
 407  0.800  0.300  0.289- 186 2.11 205 2.11 206 2.11 209 2.11 207 2.11
 408  0.900  0.200  0.289- 206 2.11 202 2.11 205 2.11 125 2.11 208 2.11
 409  0.800  0.400  0.359- 109 2.11 192 2.11 207 2.11 211 2.11 212 2.11 209 2.11
 410  0.900  0.500  0.359- 131 2.11 211 2.11 212 2.11 216 2.11 210 2.11 110 2.12
 411  0.800  0.500  0.289- 190 2.11 209 2.11 210 2.11 213 2.11 211 2.11
 412  0.900  0.400  0.289- 129 2.11 206 2.11 209 2.11 210 2.11 212 2.11
 413  0.800  0.600  0.359- 196 2.11 211 2.11 215 2.11 216 2.11 213 2.11 113 2.12
 414  0.900  0.700  0.359- 220 2.11 215 2.11 216 2.11 135 2.11 214 2.11 114 2.12
 415  0.800  0.700  0.289- 194 2.11 217 2.11 214 2.11 213 2.11 215 2.11
 416  0.900  0.600  0.289- 133 2.11 210 2.11 213 2.11 214 2.11 216 2.11
 417  0.800  0.800  0.359- 200 2.11 215 2.11 219 2.11 220 2.11 217 2.11 117 2.12
 418  0.900  0.900  0.359- 139 2.11 204 2.11 219 2.11 220 2.11 218 2.11 118 2.12
 419  0.800  0.900  0.289- 198 2.11 201 2.11 217 2.11 218 2.11 219 2.11
 420  0.900  0.800  0.289- 214 2.11 137 2.11 217 2.11 218 2.11 220 2.11

  LATTYP: Found a simple tetragonal cell.
 ALAT       =    21.1388521970
 C/A-ratio  =     1.4191877459

  Lattice vectors:

 A1 = (  21.1388521970,   0.0000000000,   0.0000000000)
 A2 = (   0.0000000000,  21.1388521970,   0.0000000000)
 A3 = (   0.0000000000,   0.0000000000,  30.0000000000)

Analysis of symmetry for initial positions (statically):
 Subroutine PRICEL returns:
 Original cell was already a primitive cell.

 Routine SETGRP: Setting up the symmetry group for a
 simple tetragonal supercell.

 Subroutine GETGRP returns: Found  1 space group operations
 (whereof  1 operations were pure point group operations)
 out of a pool of 16 trial point group operations.

The static configuration has the point symmetry C_1 .

Analysis of symmetry for dynamics (positions and initial velocities):
 Subroutine PRICEL returns:
 Original cell was already a primitive cell.

[...]

The dynamic configuration has the point symmetry C_1 .

Analysis of constrained symmetry for selective dynamics:
 Subroutine PRICEL returns:
 Original cell was already a primitive cell.

 Routine SETGRP: Setting up the symmetry group for a
 simple tetragonal supercell.

 Subroutine GETGRP returns: Found  1 space group operations
 (whereof  1 operations were pure point group operations)
 out of a pool of 16 trial point group operations.

The constrained configuration has the point symmetry C_1 .

 Subroutine INISYM returns: Found  1 space group operations
 (whereof  1 operations are pure point group operations),
 and found     1 'primitive' translations

                                     Primitive cell

  volume of cell :   13405.5322

  direct lattice vectors                    reciprocal lattice vectors
    21.138852197  0.000000000  0.000000000     0.047306258  0.000000000  0.000000000
     0.000000000 21.138852197  0.000000000     0.000000000  0.047306258  0.000000000
     0.000000000  0.000000000 30.000000000     0.000000000  0.000000000  0.033333333

  length of vectors
    21.138852197 21.138852197 30.000000000     0.047306258  0.047306258  0.033333333

  position of ions in fractional coordinates (direct lattice)
     0.497653430  0.433301918  0.611398906
     0.326191035  0.313929231  0.578738456
[...]
   1817       7.1470      0.00000
   1818       7.1657      0.00000
   1819       7.1665      0.00000
   1820       7.1831      0.00000
   1821       7.2068      0.00000
   1822       7.2103      0.00000
   1823       7.2284      0.00000
   1824       7.2366      0.00000

 soft charge-density along one line, spin component           1
         0         1         2         3         4         5         6         7         8         9
 total charge-density along one line

------------------------ aborting loop because EDIFF is reached ----------------------------------------

  DFT-D2 method for vdW energy calculation

  Parameters of vdW forcefield:
         C6(Jnm^6/mol)     R0(A)
   Au      81.240          1.772
   Mg       0.630          1.243
   O        0.700          1.342

  vdW correction parametrized for the method pbe

  IVDW =   1
  VDW_RADIUS =    50.000 A
  VDW_S6 =     0.750
  VDW_SR =     1.000
  VDW_D =    20.000
  LVDW_EWALD = F

  Number of pair interactions contributing to vdW energy: 3519001
  Edisp (eV):  -31.04086

  FORCE on cell =-STRESS in cart. coord.  units (eV):
  Direction    XX          YY          ZZ          XY          YZ          ZX
  Alpha Z  4657.84619  4657.84619  4657.84619
  Ewald  ************************************  -498.98969  -118.55741    67.13310
  Hartree************************************  -424.90235  -150.66347    46.01687
  E(xc)  -16338.77201-16339.25035-16377.57504    -0.21192     0.21506     0.07447
  Local  ************************************   922.91961   273.07842  -112.34714
  n-local-17587.94693-17581.61039-17657.34006    -0.32953    -1.91116    -0.52012
  augment  7876.03057  7878.60900  7856.20483     0.29028    -0.27389    -0.05467
  Kinetic 48675.06931 48681.94638 49006.25147     0.70040    -1.63259    -0.29201
  Fock        0.00000     0.00000     0.00000     0.00000     0.00000     0.00000
  vdW       -43.74575   -42.64995   -36.55913    -0.05311    -0.17889    -0.15054
  Total    -147.63522  -146.59115    17.89026    -0.57631     0.07607    -0.14003
  in kB     -17.64479   -17.52001     2.13817    -0.06888     0.00909    -0.01674

 VOLUME and BASIS-vectors are now :
  energy-cutoff  :      520.00
  volume of cell :    13405.53
      direct lattice vectors                 reciprocal lattice vectors
    21.138852197  0.000000000  0.000000000     0.047306258  0.000000000  0.000000000
     0.000000000 21.138852197  0.000000000     0.000000000  0.047306258  0.000000000
     0.000000000  0.000000000 30.000000000     0.000000000  0.000000000  0.033333333

  length of vectors
    21.138852197 21.138852197 30.000000000     0.047306258  0.047306258  0.033333333

 FORCES acting on ions:
    Electron-Ion                     Ewald-Force                    Non-Local-Force
   0.138E+03 -.323E+03 -.367E+04   -.138E+03 0.321E+03 0.367E+04   0.464E-01 0.176E+01 0.286E+00
   0.676E+03 0.241E+03 -.363E+04   -.674E+03 -.240E+03 0.364E+04   -.206E+01 -.110E+01 -.202E+01
   0.714E+01 -.785E+03 -.363E+04   -.679E+01 0.783E+03 0.363E+04   -.379E+00 0.230E+01 -.637E+00
   -.326E+02 -.560E+01 -.364E+04   0.336E+02 0.549E+01 0.364E+04   -.100E+01 0.122E+00 0.218E+00
   0.449E+03 0.761E+03 -.363E+04   -.446E+03 -.758E+03 0.363E+04   -.256E+01 -.310E+01 0.409E+00
   -.268E+03 0.330E+03 -.373E+04   0.268E+03 -.329E+03 0.373E+04   0.601E+00 -.861E+00 0.367E+00
   0.178E+03 0.348E+03 -.374E+04   -.177E+03 -.346E+03 0.374E+04   -.102E+01 -.193E+01 0.909E+00
   0.395E+03 -.762E+03 -.365E+04   -.394E+03 0.759E+03 0.366E+04   -.132E+01 0.375E+01 -.502E+00
   -.410E+03 -.766E+03 -.368E+04   0.409E+03 0.763E+03 0.368E+04   0.134E+01 0.362E+01 0.233E+00
   -.540E+02 0.811E+03 -.365E+04   0.550E+02 -.809E+03 0.365E+04   -.983E+00 -.165E+01 0.104E+01
   0.507E+03 -.378E+03 -.373E+04   -.508E+03 0.378E+03 0.373E+04   0.193E+00 -.212E+00 0.518E+00
   -.844E+03 -.147E+02 -.369E+04   0.839E+03 0.153E+02 0.369E+04   0.478E+01 -.569E+00 -.789E-01
   0.361E+03 0.566E+02 -.377E+04   -.361E+03 -.566E+02 0.377E+04   -.539E+00 -.250E-01 0.125E+01
   0.723E+03 -.252E+03 -.376E+04   -.718E+03 0.250E+03 0.376E+04   -.544E+01 0.187E+01 -.131E+01
   -.389E+03 -.936E+01 -.368E+04   0.387E+03 0.906E+01 0.368E+04   0.136E+01 0.295E+00 -.712E-01
   -.424E+03 0.690E+03 -.362E+04   0.422E+03 -.689E+03 0.362E+04   0.207E+01 -.178E+01 -.307E+01
   -.192E+03 -.320E+03 -.365E+04   0.191E+03 0.318E+03 0.365E+04   0.150E+01 0.157E+01 -.344E+00
   -.669E+03 -.425E+03 -.365E+04   0.668E+03 0.425E+03 0.365E+04   0.117E+01 0.620E+00 -.935E-01
   0.543E+03 0.425E+03 -.352E+04   -.542E+03 -.424E+03 0.352E+04   -.287E+00 -.123E+01 -.273E+01
   -.683E+03 0.389E+03 -.364E+04   0.681E+03 -.387E+03 0.364E+04   0.254E+01 -.151E+01 -.177E+01
   -.257E+02 0.476E+02 -.692E+03   0.258E+02 -.479E+02 0.692E+03   -.384E-01 0.234E+00 -.320E+00
   0.223E+02 0.580E+02 -.671E+03   -.223E+02 -.582E+02 0.672E+03   0.614E-01 0.241E+00 -.324E+00
   -.599E+02 0.887E+02 -.232E+04   0.599E+02 -.890E+02 0.232E+04   -.264E-01 0.297E+00 0.626E+01
   0.241E+02 0.658E+02 -.235E+04   -.242E+02 -.662E+02 0.234E+04   0.550E-01 0.305E+00 0.627E+01
   -.408E+02 0.482E+02 -.641E+03   0.409E+02 -.482E+02 0.642E+03   -.837E-01 -.517E-02 -.344E+00
   0.370E+02 0.200E+02 -.625E+03   -.373E+02 -.199E+02 0.625E+03   0.296E+00 -.675E-01 -.386E+00
   -.865E+02 0.293E+02 -.227E+04   0.865E+02 -.291E+02 0.226E+04   -.482E-01 -.206E+00 0.625E+01
   0.549E+02 0.803E+02 -.230E+04   -.552E+02 -.806E+02 0.229E+04   0.241E+00 0.315E+00 0.626E+01
   -.442E+02 -.233E+02 -.625E+03   0.437E+02 0.236E+02 0.625E+03   0.551E+00 -.246E+00 -.333E+00
   0.361E+02 -.533E+02 -.643E+03   -.363E+02 0.536E+02 0.643E+03   0.133E+00 -.294E+00 -.375E+00
   -.577E+02 -.854E+02 -.230E+04   0.573E+02 0.858E+02 0.229E+04   0.411E+00 -.400E+00 0.627E+01
   0.910E+02 -.304E+02 -.226E+04   -.920E+02 0.309E+02 0.225E+04   0.948E+00 -.474E+00 0.620E+01
   -.258E+02 -.598E+02 -.675E+03   0.256E+02 0.599E+02 0.675E+03   0.199E+00 -.119E+00 -.351E+00
   0.179E+02 -.444E+02 -.698E+03   -.179E+02 0.444E+02 0.698E+03   0.313E-01 -.442E-01 -.346E+00
   -.284E+02 -.625E+02 -.235E+04   0.283E+02 0.624E+02 0.235E+04   0.116E+00 0.246E-01 0.626E+01
   0.459E+02 -.954E+02 -.233E+04   -.460E+02 0.957E+02 0.232E+04   0.185E+00 -.273E+00 0.627E+01
   -.170E+02 -.129E+02 -.709E+03   0.170E+02 0.128E+02 0.710E+03   0.301E-01 0.130E+00 -.329E+00
   0.129E+02 0.193E+02 -.708E+03   -.129E+02 -.194E+02 0.709E+03   0.115E-02 0.180E+00 -.325E+00
   -.279E+02 0.297E+02 -.236E+04   0.280E+02 -.300E+02 0.235E+04   -.168E-01 0.274E+00 0.627E+01
   0.187E+02 -.201E+02 -.236E+04   -.187E+02 0.200E+02 0.236E+04   0.256E-01 0.134E+00 0.627E+01
   0.531E+02 0.568E+02 -.677E+03   -.531E+02 -.571E+02 0.678E+03   0.366E-01 0.265E+00 -.323E+00
   0.991E+02 0.962E+02 -.586E+03   -.990E+02 -.966E+02 0.587E+03   -.146E+00 0.482E+00 -.398E+00
   0.126E+03 0.118E+03 -.229E+04   -.126E+03 -.119E+03 0.229E+04   0.313E+00 0.594E+00 0.630E+01
   0.128E+03 0.135E+03 -.228E+04   -.128E+03 -.135E+03 0.228E+04   0.166E+00 0.441E+00 0.629E+01
   0.916E+02 0.619E+02 -.599E+03   -.920E+02 -.623E+02 0.600E+03   0.342E+00 0.383E+00 -.317E+00
   0.127E+03 0.319E+02 -.474E+03   -.127E+03 -.318E+02 0.472E+03   -.140E+00 -.112E+00 0.125E+01
   0.228E+03 0.732E+02 -.215E+04   -.230E+03 -.740E+02 0.215E+04   0.128E+01 0.740E+00 0.627E+01
   0.256E+03 0.175E+03 -.206E+04   -.258E+03 -.176E+03 0.205E+04   0.153E+01 0.125E+01 0.613E+01
   0.106E+03 -.244E+02 -.566E+03   -.106E+03 0.247E+02 0.564E+03   0.540E-01 -.327E+00 0.159E+01
   0.109E+03 -.890E+02 -.515E+03   -.108E+03 0.897E+02 0.516E+03   -.446E+00 -.683E+00 -.987E+00
   0.188E+03 -.150E+03 -.218E+04   -.188E+03 0.151E+03 0.217E+04   -.263E-01 -.138E+01 0.593E+01
   0.230E+03 -.742E+02 -.186E+04   -.229E+03 0.765E+02 0.185E+04   -.151E+01 -.225E+01 0.383E+01
   0.683E+02 -.770E+02 -.643E+03   -.682E+02 0.774E+02 0.643E+03   -.232E-01 -.417E+00 -.362E+00
   0.625E+02 -.737E+02 -.654E+03   -.623E+02 0.736E+02 0.655E+03   -.128E+00 0.975E-01 -.367E+00
   0.742E+02 -.877E+02 -.233E+04   -.741E+02 0.877E+02 0.233E+04   -.412E-01 -.201E-01 0.626E+01
   0.157E+03 -.202E+03 -.221E+04   -.157E+03 0.202E+03 0.221E+04   -.112E+00 -.451E-01 0.630E+01
   0.390E+02 -.174E+02 -.699E+03   -.390E+02 0.173E+02 0.700E+03   -.166E-01 0.990E-01 -.339E+00
   0.554E+02 0.338E+02 -.676E+03   -.554E+02 -.340E+02 0.676E+03   -.381E-01 0.184E+00 -.361E+00
   0.598E+02 0.359E+02 -.235E+04   -.598E+02 -.361E+02 0.234E+04   -.318E-03 0.240E+00 0.627E+01
   0.747E+02 -.330E+02 -.233E+04   -.747E+02 0.329E+02 0.233E+04   -.315E-01 0.132E+00 0.627E+01
[...]
   -.249E+02 0.458E+01 0.196E+04   0.249E+02 -.451E+01 -.197E+04   0.239E-01 -.911E-01 0.351E+01
   -.199E+02 0.141E+02 0.194E+04   0.199E+02 -.141E+02 -.195E+04   0.637E-02 -.270E-01 0.353E+01
   -.479E+02 -.158E+02 0.788E+03   0.478E+02 0.159E+02 -.788E+03   0.983E-01 -.144E+00 -.629E-01
   -.357E+02 -.289E+02 0.742E+03   0.357E+02 0.290E+02 -.742E+03   0.111E+00 -.657E-01 -.196E+00
   -.224E+02 -.191E+02 0.195E+04   0.223E+02 0.191E+02 -.196E+04   0.424E-01 -.648E-01 0.343E+01
   -.205E+02 -.752E+01 0.195E+04   0.204E+02 0.758E+01 -.195E+04   0.519E-01 -.839E-01 0.348E+01
   -.353E+02 -.405E+02 0.744E+03   0.353E+02 0.405E+02 -.744E+03   0.392E-01 0.559E-01 -.233E+00
   -.228E+02 -.236E+02 0.708E+03   0.228E+02 0.236E+02 -.708E+03   0.405E-01 0.313E-01 -.150E+00
   -.165E+02 -.160E+02 0.193E+04   0.164E+02 0.159E+02 -.193E+04   0.271E-01 0.412E-01 0.344E+01
   -.159E+02 -.187E+02 0.193E+04   0.158E+02 0.187E+02 -.193E+04   0.494E-01 -.170E-01 0.344E+01
   -.245E+02 -.736E+01 0.711E+03   0.245E+02 0.732E+01 -.711E+03   0.233E-01 0.719E-01 -.129E+00
   -.214E+02 0.127E+02 0.703E+03   0.214E+02 -.127E+02 -.702E+03   0.766E-02 0.695E-01 -.829E-01
   -.155E+02 0.896E+01 0.192E+04   0.155E+02 -.902E+01 -.193E+04   0.127E-02 0.872E-01 0.349E+01
   -.124E+02 -.380E+01 0.191E+04   0.124E+02 0.376E+01 -.192E+04   0.164E-01 0.565E-01 0.346E+01
   0.844E+00 -.178E+01 0.101E+03   -.227E-12 0.546E-11 0.637E-10   -.854E+00 0.179E+01 -.101E+03

 POSITION                                       TOTAL-FORCE (eV/Angst)
     10.51982      9.15951     18.34197         0.050690     -0.156722     -0.094930
      6.89530      6.63610     17.36215         0.020197     -0.110008     -0.000011
     11.78589     11.51123     17.76271        -0.026379     -0.007102      0.052796
     11.99476      6.84208     18.58028        -0.031466     -0.025177     -0.141515
      9.48579      2.03022     18.10765        -0.011669     -0.024098     -0.098258
     13.47090      4.52362     18.53956        -0.086604      0.148908     -0.038051
     10.77556      4.43872     18.76227         0.084891      0.160020     -0.029667
      9.05765     11.45154     17.76924        -0.050366     -0.015837      0.031258
     14.49021     11.60360     17.89950        -0.008368      0.003905     -0.018967
     12.13568      2.10124     18.33364        -0.025605      0.027289     -0.122393
      7.82103      9.10348     18.20312         0.095479      0.046552     -0.081592
     17.32400      7.08101     17.76105         0.015641      0.027817      0.053186
      9.28310      6.75573     18.61661         0.088596      0.037353     -0.032886
      5.29857      8.80672     17.43494         0.008933      0.023243      0.052634
     14.68425      6.93269     18.28341        -0.193256     -0.018558     -0.067231
     14.52100      2.37102     17.25502         0.007581     -0.043651     -0.012400
     13.22743      9.21194     18.20401        -0.076516     -0.173834     -0.096930
     15.97838      9.38748     17.88206        -0.007184      0.024554     -0.057089
      8.52431      4.44108     17.31453         0.094254     -0.000629     -0.071142
     16.04000      4.66362     17.51572         0.028298     -0.003014      0.033477
      0.00152     21.13339     12.89064        -0.000527     -0.001171      0.006979
      2.11133      2.10918     12.89153         0.000511     -0.000847      0.007519
      0.00432      2.10215     14.99204        -0.000521      0.002583     -0.037292
      2.11015     21.12636     14.98933         0.000690      0.000950     -0.035768
     21.13856      4.22827     12.89431        -0.000961      0.001549      0.008393
      2.10652      6.34433     12.89663         0.000410      0.001182      0.008862
      0.00102      6.34826     14.99964        -0.000606     -0.000192     -0.038044
      2.10191      4.21779     14.99505         0.001460      0.002659     -0.039724
     21.13196      8.46107     12.89385         0.000333      0.001179      0.007581
      2.11015     10.57606     12.89477        -0.000062      0.000711      0.006467
     21.13101     10.58396     14.99329        -0.001706     -0.002104     -0.037138
      2.08085      8.47202     15.00276         0.011852     -0.000700     -0.026512
     21.13610     12.68615     12.89193         0.001070     -0.000176      0.006967
      2.11288     14.79842     12.89135         0.000186     -0.001125      0.006692
     21.13711     14.79839     14.98955        -0.000289     -0.000680     -0.036630
      2.10793     12.69447     14.99212         0.002067     -0.002169     -0.038375
     21.13866     16.90784     12.89036         0.000470     -0.000945      0.007603
      2.11331     19.02047     12.89024         0.000332     -0.000630      0.007398
      0.00265     19.01430     14.98811         0.000839      0.000143     -0.035148
      2.11237     16.90741     14.98845         0.000180      0.000472     -0.035917
      4.22547     21.13250     12.89126         0.000039      0.000598      0.007230
      6.33993      2.10210     12.89410         0.001376      0.001038      0.009820
      4.21167      2.09320     14.99383         0.003937      0.005237     -0.036776
      6.33178     21.12258     14.99518         0.003999      0.007453     -0.035271
      4.21688      4.22323     12.89185         0.001110      0.000833      0.010798
      6.34090      6.34094     12.87746         0.002587     -0.000222      0.009003
      4.18610      6.33034     15.01017         0.041233      0.023477      0.023811
      6.28528      4.18461     14.98782         0.024968      0.031660      0.026040
      4.22494      8.46395     12.88217        -0.000499      0.000974      0.008807
      6.34878     10.58512     12.88738         0.000812     -0.000873      0.007859
      4.22342     10.60862     14.99541         0.010603     -0.012837     -0.017854
      6.38673      8.50600     14.97860         0.056386      0.017010     -0.062973
      4.22781     12.69082     12.89196         0.000250      0.000199      0.005845
      6.34355     14.79908     12.89257        -0.001176      0.000330      0.007939
      4.22617     14.80243     14.99069         0.000822     -0.001851     -0.037859
      6.34216     12.69668     14.99638         0.008655     -0.013292     -0.020805
      4.22716     16.90945     12.89084         0.000552     -0.000465      0.006959
      6.34095     19.02064     12.89232         0.000468     -0.000407      0.006417
      4.22352     19.01649     14.98922         0.000520      0.001356     -0.035316
      6.33885     16.90970     14.99046        -0.000116     -0.000810     -0.035440
[...]
     19.02497      6.34166     10.77222         0.011567     -0.039267      0.039381
     16.91108      6.34166      8.65833         0.006590     -0.025433     -0.493034
     19.02497      4.22777      8.65833         0.001621     -0.007583     -0.486793
     16.91108      8.45554     10.77222         0.032931     -0.050491     -0.002128
     19.02497     10.56943     10.77222         0.037176     -0.021393      0.003282
     16.91108     10.56943      8.65833         0.011696     -0.018160     -0.512483
     19.02497      8.45554      8.65833         0.014419     -0.023411     -0.500275
     16.91108     12.68331     10.77222         0.013586      0.018432     -0.009710
     19.02497     14.79720     10.77222         0.012460      0.010107      0.006242
     16.91108     14.79720      8.65833         0.007543      0.011429     -0.512287
     19.02497     12.68331      8.65833         0.013675     -0.004724     -0.510559
     16.91108     16.91108     10.77222         0.006593      0.023527      0.010542
     19.02497     19.02497     10.77222         0.001167      0.023592      0.017360
     16.91108     19.02497      8.65833         0.000346      0.024263     -0.498120
     19.02497     16.91108      8.65833         0.004586      0.015661     -0.505411
    total drift:                               -0.009427      0.017879      0.092442

  FREE ENERGIE OF THE ION-ELECTRON SYSTEM (eV)
  free  energy   TOTEN  =     -2407.23734464 eV

  energy  without entropy=    -2407.23734460  energy(sigma->0) =    -2407.23734462