 vasp.6.4.1 05Apr23 (build May 06 2023 19:47:20) complex

 executed on             LinuxIFC date 2023.07.05  09:47:04

 INCAR:
   SYSTEM = MgO-rocksalt
   ISMEAR = 0
   SIGMA = 0.05
   EDIFF = 1E-6
   ALGO = ALL
   ISTART = 0
   IBRION = -1
   NSW = 0
   ISYM = 2
   DIPOL = 0.5 0.5 0.5
   IDIPOL = 3
   LDIPOL = .TRUE.
   LHFCALC = .TRUE.
   GGA = B5
   AEXX = 0.2
   AGGAX = 0.72
   AGGAC = 0.81
   ALDAC = 0.19
   IVDW = 11
   VDW_S6 = 1.0
   VDW_SR = 1.261
   VDW_S8 = 1.703
   ENCUT = 520
   PREC = Accurate
   LASPH = .TRUE.
   LREAL = Auto
   ISPIN = 1
   NELM = 200
   NELMIN = 8
   NCORE = 16
   KPAR = 1
   LWAVE = .FALSE.
   LCHARG = .FALSE.

 POTCAR:    PAW_PBE Au 04Oct2007
 POTCAR:    PAW_PBE Mg_pv 13Apr2007
 POTCAR:    PAW_PBE O 08Apr2002
|           W    W    AA    RRRRR   N    N  II  N    N   GGGG   !!!           |
|           W    W   A  A   R    R  NN   N  II  NN   N  G    G  !!!           |
|           W    W  A    A  R    R  N N  N  II  N N  N  G       !!!           |
|           W WW W  AAAAAA  RRRRR   N  N N  II  N  N N  G  GGG   !            |
|           WW  WW  A    A  R   R   N   NN  II  N   NN  G    G                |
|           W    W  A    A  R    R  N    N  II  N    N   GGGG   !!!           |
|     You have selected ISYM=2 for a HF type calculation. This will           |
|     symmetrize the charge density but not the exchange potential. I         |
|     suggest to use ISYM=3 instead. This uses symmetry to obtain the         |
|     orbitals at all k-points in the Brillouin zone, but does not apply      |
|     symmetry to the Hartree potential directly. The resultant charge        |
|     might have lower symmetry than the crystal but, at least, Hartree       |
|     and exchange are fully compatible.                                      |

   TITEL  = PAW_PBE Au 04Oct2007
   POMASS =  196.966; ZVAL   =   11.000    mass and valenz
   ENMAX  =  229.943; ENMIN  =  172.457 eV

   TITEL  = PAW_PBE Mg_pv 13Apr2007
   POMASS =   24.305; ZVAL   =    8.000    mass and valenz
   ENMAX  =  403.929; ENMIN  =  302.947 eV

   TITEL  = PAW_PBE O 08Apr2002
   POMASS =   16.000; ZVAL   =    6.000    mass and valenz
   ENMAX  =  400.000; ENMIN  =  300.000 eV

 Optimization of the real space projectors (new method)

 maximal supplied QI-value         = 15.12
 optimisation between [QCUT,QGAM] = [ 11.64, 23.28] = [ 37.95,151.78] Ry
 Optimized for a Real-space Cutoff    1.49 Angstroem

   l    n(q)    QCUT    max X(q) W(low)/X(q) W(high)/X(q)  e(spline)
   2      9    11.641    60.898    0.24E-03    0.10E-03    0.19E-06
   2      9    11.641    58.894    0.25E-03    0.10E-03    0.19E-06
   0     10    11.641   109.617    0.73E-04    0.33E-04    0.11E-06
   0     10    11.641    75.026    0.71E-04    0.32E-04    0.11E-06
   1     10    11.641    16.344    0.27E-04    0.97E-04    0.16E-06
   1     10    11.641    10.160    0.23E-04    0.77E-04    0.13E-06
 Optimization of the real space projectors (new method)

[...]

   l    n(q)    QCUT    max X(q) W(low)/X(q) W(high)/X(q)  e(spline)
   1      8    11.527     2.974    0.44E-04    0.56E-04    0.12E-06
   1      8    11.527     4.279    0.12E-03    0.12E-03    0.26E-06
   0      9    11.527    16.381    0.46E-04    0.64E-04    0.78E-07
   0      9    11.527     5.611    0.26E-04    0.43E-04    0.55E-07
   2      8    11.527     4.652    0.22E-03    0.72E-04    0.47E-07
 Optimization of the real space projectors (new method)

 maximal supplied QI-value         = 24.76
 optimisation between [QCUT,QGAM] = [ 11.64, 23.27] = [ 37.91,151.63] Ry
 Optimized for a Real-space Cutoff    1.14 Angstroem

   l    n(q)    QCUT    max X(q) W(low)/X(q) W(high)/X(q)  e(spline)
   0      8    11.635    20.381    0.10E-03    0.33E-03    0.24E-06
   0      8    11.635    15.268    0.11E-03    0.35E-03    0.26E-06
   1      7    11.635     5.964    0.24E-03    0.31E-03    0.30E-06
   1      7    11.635     5.382    0.22E-03    0.25E-03    0.26E-06
|               ----> ADVICE to this user running VASP <----                  |
|     You enforced a specific xc type in the INCAR file but a different       |
|     type was found in the POTCAR file.                                      |
|     I HOPE YOU KNOW WHAT YOU ARE DOING!                                     |

  PAW_PBE Au 04Oct2007                  :
  PAW_PBE Mg_pv 13Apr2007               :
  PAW_PBE O 08Apr2002                   :

 POSCAR: Au Mg  O
  positions in direct lattice
  velocities in cartesian coordinates
 exchange correlation table for  LEXCH =       12
   RHO(1)=    0.500       N(1)  =     2000
   RHO(2)=  100.500       N(2)  =     4000

 ion  position               nearest neighbor table
   1  0.290  0.507  0.638-   2 2.69   3 2.71
   2  0.397  0.442  0.618-   1 2.69   4 2.69 153 2.70   3 2.70  55 2.83
   3  0.397  0.569  0.609- 157 2.45   2 2.70   1 2.71   4 2.71  55 2.78
   4  0.505  0.506  0.637-   2 2.69   3 2.71
   5  0.000  0.000  0.407- 107 2.11 108 2.11 123 2.11 188 2.11 105 2.11
   6  0.100  0.100  0.407- 107 2.11 108 2.11 112 2.11 127 2.11 106 2.11
   7  0.000  0.100  0.503- 105 2.11 106 2.11 109 2.11 186 2.11 107 2.11
   8  0.100  0.000  0.503- 105 2.11 106 2.11 122 2.11 125 2.11 108 2.11
   9  0.000  0.200  0.407- 111 2.11 107 2.11 112 2.11 192 2.11 109 2.11
  10  0.100  0.300  0.407- 112 2.11 111 2.11 116 2.11 131 2.11 110 2.11
  11  0.000  0.300  0.503- 109 2.11 110 2.11 113 2.11 190 2.11 111 2.11
  12  0.100  0.200  0.503- 110 2.11 109 2.11 106 2.11 129 2.11 112 2.11
  13  0.000  0.400  0.407- 111 2.11 115 2.11 116 2.11 196 2.11 113 2.11
  14  0.100  0.500  0.407- 115 2.11 116 2.11 120 2.11 135 2.11 114 2.11
  15  0.000  0.500  0.503- 113 2.11 114 2.11 117 2.11 194 2.11 115 2.11
  16  0.100  0.400  0.503- 110 2.11 113 2.11 114 2.11 133 2.11 116 2.11
  17  0.000  0.600  0.407- 115 2.11 119 2.11 120 2.11 200 2.11 117 2.11
  18  0.100  0.700  0.407- 124 2.11 120 2.11 119 2.11 139 2.11 118 2.11
  19  0.000  0.700  0.503- 121 2.11 118 2.11 117 2.11 198 2.11 119 2.11
  20  0.100  0.600  0.503- 114 2.11 117 2.11 118 2.11 137 2.11 120 2.11
  21  0.000  0.800  0.407- 119 2.11 123 2.11 124 2.11 204 2.11 121 2.11
  22  0.100  0.900  0.407- 108 2.11 123 2.11 124 2.11 143 2.11 122 2.11
  23  0.000  0.900  0.503- 105 2.11 121 2.11 122 2.11 202 2.11 123 2.11
  24  0.100  0.800  0.503- 118 2.11 121 2.11 122 2.11 141 2.11 124 2.11
  25  0.200  0.000  0.407- 128 2.11 127 2.11 108 2.11 143 2.11 125 2.11
  26  0.300  0.100  0.407- 127 2.11 128 2.11 132 2.11 147 2.11 126 2.11
  27  0.200  0.100  0.503- 126 2.11 125 2.11 106 2.11 129 2.11 127 2.11
  28  0.300  0.000  0.503- 125 2.11 126 2.11 142 2.11 145 2.11 128 2.11
  29  0.200  0.200  0.407- 131 2.11 132 2.11 112 2.11 127 2.11 129 2.11
  30  0.300  0.300  0.407- 131 2.11 132 2.11 136 2.11 151 2.11 130 2.11
  31  0.200  0.300  0.503- 129 2.11 130 2.11 110 2.11 133 2.11 131 2.11
  32  0.300  0.200  0.503- 129 2.11 130 2.11 126 2.11 149 2.11 132 2.11
  33  0.200  0.400  0.407- 136 2.11 131 2.11 135 2.11 116 2.11 133 2.11
  34  0.300  0.500  0.407- 135 2.11 136 2.11 140 2.11 155 2.11 134 2.11
  35  0.200  0.500  0.503- 134 2.11 133 2.11 114 2.11 137 2.11 135 2.11
  36  0.300  0.400  0.503- 133 2.11 130 2.11 134 2.11 153 2.11 136 2.11
  37  0.200  0.600  0.407- 140 2.11 135 2.11 139 2.11 120 2.11 137 2.11
  38  0.300  0.700  0.407- 139 2.11 144 2.11 140 2.11 159 2.11 138 2.11
  39  0.200  0.700  0.503- 138 2.11 141 2.11 118 2.11 137 2.11 139 2.11
  40  0.300  0.600  0.503- 137 2.11 134 2.11 138 2.11 157 2.11 140 2.11
  41  0.200  0.800  0.407- 139 2.11 144 2.11 143 2.11 124 2.11 141 2.11
  42  0.300  0.900  0.407- 143 2.11 128 2.11 144 2.11 163 2.11 142 2.11
  43  0.200  0.900  0.503- 142 2.11 125 2.11 141 2.11 122 2.11 143 2.11
  44  0.300  0.800  0.503- 138 2.11 141 2.11 142 2.11 161 2.11 144 2.11
  45  0.400  0.000  0.407- 128 2.11 147 2.11 148 2.11 163 2.11 145 2.11
  46  0.500  0.100  0.407- 147 2.11 148 2.11 152 2.11 167 2.11 146 2.11
  47  0.400  0.100  0.503- 126 2.11 145 2.11 146 2.11 149 2.11 147 2.11
  48  0.500  0.000  0.503- 145 2.11 146 2.11 162 2.11 165 2.11 148 2.11
  49  0.400  0.200  0.407- 151 2.11 147 2.11 132 2.11 152 2.11 149 2.11
  50  0.500  0.300  0.407- 152 2.11 151 2.11 156 2.11 171 2.11 150 2.11
  51  0.400  0.300  0.503- 149 2.11 130 2.11 150 2.11 153 2.11 151 2.11
  52  0.500  0.200  0.503- 150 2.11 149 2.11 146 2.11 169 2.11 152 2.11
  53  0.400  0.400  0.407- 136 2.11 151 2.11 155 2.11 156 2.11 153 2.11
  54  0.500  0.500  0.407- 155 2.11 156 2.11 160 2.11 175 2.11 154 2.11
  55  0.400  0.500  0.503- 134 2.11 153 2.11 154 2.11 157 2.11 155 2.11   3 2.78   2 2.83
  56  0.500  0.400  0.503- 150 2.11 153 2.11 154 2.11 173 2.11 156 2.11
  57  0.400  0.600  0.407- 140 2.11 155 2.11 159 2.11 160 2.11 157 2.11
  58  0.500  0.700  0.407- 164 2.11 160 2.11 159 2.11 179 2.11 158 2.11
  59  0.400  0.700  0.503- 161 2.11 157 2.11 158 2.11 138 2.11 159 2.11
  60  0.500  0.600  0.503- 154 2.11 157 2.11 158 2.11 177 2.11 160 2.11
[...]
 190  0.900  0.300  0.503-  92 2.11  91 2.11  11 2.11  96 2.11  90 2.11
 191  0.800  0.300  0.407-  70 2.11  89 2.11  90 2.11  93 2.11  91 2.11
 192  0.900  0.200  0.407-  90 2.11  86 2.11  89 2.11   9 2.11  92 2.11
 193  0.800  0.400  0.503-  76 2.11  91 2.11  95 2.11  96 2.11  93 2.11
 194  0.900  0.500  0.503-  15 2.11  95 2.11  96 2.11 100 2.11  94 2.11
 195  0.800  0.500  0.407-  74 2.11  93 2.11  94 2.11  97 2.11  95 2.11
 196  0.900  0.400  0.407-  13 2.11  90 2.11  93 2.11  94 2.11  96 2.11
 197  0.800  0.600  0.503-  80 2.11  95 2.11  99 2.11 100 2.11  97 2.11
 198  0.900  0.700  0.503- 104 2.11  99 2.11 100 2.11  19 2.11  98 2.11
 199  0.800  0.700  0.407-  78 2.11 101 2.11  98 2.11  97 2.11  99 2.11
 200  0.900  0.600  0.407-  17 2.11  94 2.11  97 2.11  98 2.11 100 2.11
 201  0.800  0.800  0.503-  84 2.11  99 2.11 103 2.11 104 2.11 101 2.11
 202  0.900  0.900  0.503-  23 2.11  88 2.11 103 2.11 104 2.11 102 2.11
 203  0.800  0.900  0.407-  82 2.11  85 2.11 101 2.11 102 2.11 103 2.11
 204  0.900  0.800  0.407-  98 2.11  21 2.11 101 2.11 102 2.11 104 2.11

  LATTYP: Found a simple tetragonal cell.
 ALAT       =    21.1388521970
 C/A-ratio  =     1.0461251639

  Lattice vectors:

 A1 = (  21.1388521970,   0.0000000000,   0.0000000000)
 A2 = (   0.0000000000,  21.1388521970,   0.0000000000)
 A3 = (   0.0000000000,   0.0000000000,  22.1138852197)

Analysis of symmetry for initial positions (statically):
 Subroutine PRICEL returns:
 Original cell was already a primitive cell.

 Routine SETGRP: Setting up the symmetry group for a
 simple tetragonal supercell.

 Subroutine GETGRP returns: Found  1 space group operations
 (whereof  1 operations were pure point group operations)
 out of a pool of 16 trial point group operations.

The static configuration has the point symmetry C_1 .

Analysis of symmetry for dynamics (positions and initial velocities):
 Subroutine PRICEL returns:
 Original cell was already a primitive cell.

[...]

The dynamic configuration has the point symmetry C_1 .

Analysis of constrained symmetry for selective dynamics:
 Subroutine PRICEL returns:
 Original cell was already a primitive cell.

 Routine SETGRP: Setting up the symmetry group for a
 simple tetragonal supercell.
[...]
     41     -46.3973      2.00000
     42     -46.3966      2.00000
     43     -46.3941      2.00000
     44     -46.3923      2.00000
     45     -46.3908      2.00000
     46     -46.3899      2.00000
     47     -46.3895      2.00000
     48     -46.3891      2.00000
     49     -46.3884      2.00000
     50     -46.3877      2.00000
     51     -46.3873      2.00000
     52     -46.3859      2.00000
     53     -46.3830      2.00000
     54     -46.3825      2.00000
     55     -46.3820      2.00000
     56     -46.3810      2.00000
     57     -46.3807      2.00000
     58     -46.3787      2.00000
     59     -46.3758      2.00000
     60     -46.3739      2.00000
[...]
    898       5.1694      0.00000
    899       5.2466      0.00000
    900       5.2983      0.00000
    901       5.3675      0.00000
    902       5.3989      0.00000
    903       5.4279      0.00000
    904       5.4532      0.00000
    905       5.4805      0.00000
    906       5.6016      0.00000
    907       5.6394      0.00000
    908       5.6695      0.00000
    909       5.6917      0.00000
    910       5.8328      0.00000
    911       5.8802      0.00000
    912       5.9684      0.00000

 soft charge-density along one line, spin component           1
         0         1         2         3         4         5         6         7         8         9
 total charge-density along one line

------------------------ aborting loop because EDIFF is reached ----------------------------------------

 WARNING: Using user supplied parameters
     VDW_S8 = 1.703
     VDW_SR = 1.261
     because the xc functional is not supported. Required parameters not
     defined in the INCAR file will be replaced with PBE defaults ones.

         DFTD3 V3.0 Rev 1
 IVDW         = 11
 DF unknown
 parameters
 VDW_S6       =    1.0000
 VDW_S8       =    1.7030
 VDW_SR       =    1.2610
 rs18     =    1.0000
 alpha6   =   14.0000
 alpha8   =   16.0000
 k1-k3    =   16.0000    1.3333   -4.0000
 VDW_RADIUS   =   50.2022 A
 VDW_CNRADIUS =   21.1671 A
 Edisp (eV)  -35.92828

 E6    (eV) :    -7.3492
 E8    (eV) :   -28.5790
 % E8        : 79.54

 VOLUME and BASIS-vectors are now :
  energy-cutoff  :      520.00
  volume of cell :     9881.61
      direct lattice vectors                 reciprocal lattice vectors
    21.138852197  0.000000000  0.000000000     0.047306258  0.000000000  0.000000000
     0.000000000 21.138852197  0.000000000     0.000000000  0.047306258  0.000000000
     0.000000000  0.000000000 22.113885220     0.000000000  0.000000000  0.045220457

  length of vectors
    21.138852197 21.138852197 22.113885220     0.047306258  0.047306258  0.045220457

 FORCES acting on ions:
    Electron-Ion                     Ewald-Force                    Non-Local-Force
   0.484E+03 -.685E+01 -.207E+04   -.480E+03 0.671E+01 0.207E+04   -.465E+01 0.145E+00 0.762E+00
   0.184E+01 0.484E+03 -.204E+04   -.183E+01 -.480E+03 0.204E+04   -.554E-02 -.455E+01 -.675E+00
   -.140E+01 -.471E+03 -.203E+04   0.131E+01 0.468E+03 0.203E+04   0.110E+00 0.375E+01 -.856E+00
   -.484E+03 -.423E+01 -.207E+04   0.480E+03 0.406E+01 0.207E+04   0.467E+01 0.167E+00 0.638E+00
   0.664E+01 -.546E+00 0.937E+03   -.667E+01 0.554E+00 -.929E+03   0.199E-01 -.549E-02 -.671E+01
   0.127E+02 0.109E+02 0.940E+03   -.127E+02 -.109E+02 -.933E+03   0.398E-01 -.425E-02 -.672E+01
   0.954E+01 0.100E+02 -.918E+03   -.956E+01 -.100E+02 0.910E+03   0.197E-01 -.139E-01 0.665E+01
   0.135E+02 -.967E+00 -.917E+03   -.136E+02 0.979E+00 0.909E+03   0.342E-01 -.868E-02 0.665E+01
   0.107E+02 0.143E+02 0.941E+03   -.108E+02 -.143E+02 -.933E+03   0.262E-01 -.126E-01 -.672E+01
   0.288E+02 0.247E+02 0.956E+03   -.289E+02 -.247E+02 -.948E+03   0.851E-01 -.104E-01 -.674E+01
   0.227E+02 0.217E+02 -.910E+03   -.227E+02 -.216E+02 0.903E+03   0.134E-01 -.260E-01 0.664E+01
   0.259E+02 0.288E+02 -.910E+03   -.260E+02 -.288E+02 0.902E+03   0.575E-01 -.273E-01 0.664E+01
   0.211E+02 0.113E+02 0.951E+03   -.212E+02 -.112E+02 -.943E+03   0.290E-01 -.754E-02 -.674E+01
   0.468E+02 0.135E+01 0.974E+03   -.470E+02 -.137E+01 -.966E+03   0.106E+00 0.111E-01 -.679E+01
   0.376E+02 0.108E+01 -.903E+03   -.376E+02 -.108E+01 0.895E+03   -.227E-01 0.528E-02 0.663E+01
   0.704E+02 0.318E+02 -.884E+03   -.704E+02 -.317E+02 0.877E+03   0.115E-01 -.447E-01 0.660E+01
   0.217E+02 -.102E+02 0.952E+03   -.218E+02 0.101E+02 -.944E+03   0.360E-01 0.168E-01 -.674E+01
   0.305E+02 -.247E+02 0.958E+03   -.306E+02 0.246E+02 -.950E+03   0.116E+00 0.150E-01 -.675E+01
   0.240E+02 -.215E+02 -.910E+03   -.240E+02 0.215E+02 0.902E+03   0.215E-01 0.291E-01 0.664E+01
   0.738E+02 -.293E+02 -.882E+03   -.738E+02 0.292E+02 0.875E+03   0.250E-01 0.589E-01 0.660E+01
   0.113E+02 -.148E+02 0.941E+03   -.114E+02 0.148E+02 -.934E+03   0.348E-01 0.878E-02 -.672E+01
   0.132E+02 -.123E+02 0.941E+03   -.133E+02 0.123E+02 -.933E+03   0.487E-01 -.115E-01 -.672E+01
   0.995E+01 -.113E+02 -.918E+03   -.999E+01 0.112E+02 0.910E+03   0.241E-01 0.555E-02 0.665E+01
   0.278E+02 -.304E+02 -.909E+03   -.279E+02 0.304E+02 0.901E+03   0.792E-01 0.217E-01 0.664E+01
   0.113E+02 -.104E+01 0.942E+03   -.114E+02 0.106E+01 -.934E+03   0.400E-01 -.146E-01 -.672E+01
   0.857E+01 0.192E+02 0.948E+03   -.862E+01 -.193E+02 -.940E+03   0.333E-01 0.421E-01 -.672E+01
   0.175E+02 0.214E+02 -.912E+03   -.175E+02 -.214E+02 0.904E+03   0.453E-01 0.796E-02 0.665E+01
   0.900E+01 -.181E+01 -.912E+03   -.904E+01 0.184E+01 0.905E+03   0.265E-01 -.203E-01 0.665E+01
   0.208E+02 0.301E+02 0.955E+03   -.209E+02 -.302E+02 -.947E+03   0.849E-01 0.290E-01 -.672E+01
   0.250E+02 0.556E+02 0.994E+03   -.253E+02 -.558E+02 -.986E+03   0.185E+00 0.149E+00 -.668E+01
   0.597E+02 0.698E+02 -.877E+03   -.600E+02 -.697E+02 0.870E+03   0.208E+00 -.804E-01 0.661E+01
   0.218E+02 0.653E+02 -.892E+03   -.219E+02 -.655E+02 0.885E+03   0.702E-01 0.134E+00 0.665E+01
   0.520E+02 0.323E+02 0.100E+04   -.524E+02 -.323E+02 -.992E+03   0.266E+00 0.185E-01 -.685E+01
   0.490E+02 0.439E+01 0.107E+04   -.496E+02 -.452E+01 -.106E+04   0.379E+00 0.900E-01 -.698E+01
   0.150E+03 0.677E+01 -.785E+03   -.150E+03 -.679E+01 0.778E+03   0.172E+00 0.121E-01 0.624E+01
   0.109E+03 0.136E+03 -.727E+03   -.111E+03 -.136E+03 0.720E+03   0.114E+01 -.318E-01 0.638E+01
   0.544E+02 -.295E+02 0.100E+04   -.549E+02 0.294E+02 -.995E+03   0.351E+00 0.199E-01 -.687E+01
   0.273E+02 -.571E+02 0.100E+04   -.277E+02 0.574E+02 -.993E+03   0.260E+00 -.188E+00 -.665E+01
   0.656E+02 -.726E+02 -.873E+03   -.660E+02 0.725E+02 0.865E+03   0.298E+00 0.951E-01 0.660E+01
   0.123E+03 -.131E+03 -.704E+03   -.126E+03 0.131E+03 0.697E+03   0.173E+01 0.138E+00 0.622E+01
   0.223E+02 -.319E+02 0.956E+03   -.224E+02 0.320E+02 -.949E+03   0.116E+00 -.531E-01 -.672E+01
   0.904E+01 -.220E+02 0.949E+03   -.910E+01 0.221E+02 -.942E+03   0.418E-01 -.896E-01 -.672E+01
   0.185E+02 -.244E+02 -.911E+03   -.186E+02 0.244E+02 0.904E+03   0.562E-01 -.379E-01 0.665E+01
   0.243E+02 -.713E+02 -.889E+03   -.244E+02 0.716E+02 0.882E+03   0.949E-01 -.217E+00 0.664E+01
   -.227E+00 -.142E+01 0.945E+03   0.225E+00 0.145E+01 -.938E+03   0.101E-02 -.240E-01 -.672E+01
   -.897E+01 0.191E+02 0.948E+03   0.902E+01 -.191E+02 -.940E+03   -.317E-01 0.423E-01 -.672E+01
   -.362E+00 0.311E+02 -.907E+03   0.360E+00 -.312E+02 0.900E+03   0.964E-03 0.607E-01 0.665E+01
   -.944E+01 -.177E+01 -.912E+03   0.948E+01 0.180E+01 0.905E+03   -.248E-01 -.209E-01 0.665E+01
   -.437E+00 0.440E+02 0.967E+03   0.435E+00 -.443E+02 -.959E+03   0.127E-02 0.205E+00 -.673E+01
   -.260E+02 0.549E+02 0.993E+03   0.262E+02 -.551E+02 -.986E+03   -.181E+00 0.157E+00 -.669E+01
   -.180E+01 0.139E+03 -.825E+03   0.180E+01 -.141E+03 0.817E+03   0.149E-03 0.986E+00 0.678E+01
   -.227E+02 0.644E+02 -.893E+03   0.228E+02 -.645E+02 0.885E+03   -.679E-01 0.134E+00 0.664E+01
   -.131E+01 0.563E+02 0.106E+04   0.129E+01 -.566E+02 -.105E+04   0.124E-01 0.214E+00 -.554E+01
   -.507E+02 0.422E+01 0.107E+04   0.513E+02 -.436E+01 -.106E+04   -.371E+00 0.907E-01 -.695E+01
   -.600E+01 0.230E+02 -.505E+03   0.598E+01 -.240E+02 0.499E+03   0.324E-01 0.654E+00 0.501E+01
   -.111E+03 0.133E+03 -.734E+03   0.112E+03 -.133E+03 0.726E+03   -.112E+01 -.828E-02 0.640E+01
   -.148E+01 -.517E+02 0.107E+04   0.146E+01 0.518E+02 -.106E+04   0.151E-01 -.910E-01 -.485E+01
   -.284E+02 -.563E+02 0.999E+03   0.288E+02 0.566E+02 -.991E+03   -.253E+00 -.196E+00 -.665E+01
   -.232E+01 -.153E+03 -.809E+03   0.231E+01 0.156E+03 0.801E+03   0.550E-02 -.153E+01 0.685E+01
   -.125E+03 -.128E+03 -.712E+03   0.127E+03 0.128E+03 0.705E+03   -.171E+01 0.120E+00 0.628E+01
[...]
   -.112E+02 0.118E+02 0.711E+03   0.113E+02 -.118E+02 -.715E+03   -.281E-01 -.118E-01 0.314E+01
   0.224E+00 0.909E+01 0.706E+03   -.223E+00 -.908E+01 -.710E+03   -.168E-02 -.128E-01 0.315E+01
   -.229E+02 0.115E+02 -.681E+03   0.229E+02 -.115E+02 0.685E+03   -.945E-02 -.186E-01 -.328E+01
   0.721E+00 0.567E+00 -.684E+03   -.717E+00 -.571E+00 0.688E+03   -.493E-02 0.514E-02 -.327E+01
   -.169E+02 0.543E+00 0.716E+03   0.169E+02 -.550E+00 -.720E+03   -.255E-01 0.760E-02 0.313E+01
   0.422E+00 0.675E+01 0.711E+03   -.419E+00 -.674E+01 -.715E+03   -.365E-02 -.718E-02 0.314E+01
   -.237E+02 -.105E+02 -.681E+03   0.237E+02 0.105E+02 0.685E+03   -.152E-01 0.296E-01 -.329E+01
   0.498E+00 -.125E+02 -.687E+03   -.495E+00 0.125E+02 0.691E+03   -.364E-02 0.241E-01 -.326E+01
   -.118E+02 -.117E+02 0.711E+03   0.118E+02 0.117E+02 -.715E+03   -.371E-01 0.151E-01 0.314E+01
   0.443E+00 -.609E+01 0.711E+03   -.440E+00 0.608E+01 -.715E+03   -.408E-02 0.159E-01 0.314E+01
   -.108E+02 -.142E+02 -.688E+03   0.109E+02 0.142E+02 0.692E+03   -.286E-01 0.136E-01 -.326E+01
   0.221E+00 -.709E+01 -.691E+03   -.220E+00 0.708E+01 0.695E+03   -.156E-02 0.424E-02 -.325E+01
   -.562E+01 -.656E+01 0.705E+03   0.564E+01 0.656E+01 -.709E+03   -.276E-01 -.322E-02 0.316E+01
   0.247E+00 -.939E+01 0.706E+03   -.245E+00 0.939E+01 -.710E+03   -.218E-02 0.917E-02 0.315E+01
   0.392E-01 0.853E+00 0.104E+02   0.431E-11 -.205E-11 -.739E-11   -.134E-01 -.785E+00 -.943E+01

 POSITION                                       TOTAL-FORCE (eV/Angst)
      6.12143     10.70919     14.10279        -0.463120     -0.020323     -0.223775
      8.38943      9.33976     13.66282         0.038900     -0.686686      0.023806
      8.39418     12.03706     13.47256         0.028474      0.626545      0.126107
     10.67333     10.69253     14.07734         0.486799     -0.027685     -0.224657
      0.00000      0.00000      9.00000        -0.006226      0.001726      0.427461
      2.11389      2.11389      9.00000        -0.012440      0.001273      0.427817
      0.00000      2.11389     11.11389        -0.005955      0.004418     -0.400776
      2.11389      0.00000     11.11389        -0.010691      0.002673     -0.400302
      0.00000      4.22777      9.00000        -0.007753      0.004107      0.429522
      2.11389      6.34166      9.00000        -0.024090      0.004450      0.437347
      0.00000      6.34166     11.11389        -0.002712      0.009044     -0.394352
      2.11389      4.22777     11.11389        -0.016427      0.009352     -0.394770
      0.00000      8.45554      9.00000        -0.007914      0.002948      0.435030
      2.11389     10.56943      9.00000        -0.028261     -0.003508      0.454246
      0.00000     10.56943     11.11389         0.010920     -0.001630     -0.386299
      2.11389      8.45554     11.11389         0.016798      0.024283     -0.358326
      0.00000     12.68331      9.00000        -0.009972     -0.005939      0.435155
      2.11389     14.79720      9.00000        -0.032983     -0.005980      0.438274
      0.00000     14.79720     11.11389        -0.004915     -0.010099     -0.393636
      2.11389     12.68331     11.11389         0.015496     -0.029177     -0.354553
      0.00000     16.91108      9.00000        -0.010319     -0.002904      0.429678
      2.11389     19.02497      9.00000        -0.015237      0.003680      0.427679
      0.00000     19.02497     11.11389        -0.007274     -0.001783     -0.400490
      2.11389     16.91108     11.11389        -0.022688     -0.007652     -0.393422
      4.22777      0.00000      9.00000        -0.012840      0.004482      0.427388
      6.34166      2.11389      9.00000        -0.010911     -0.012288      0.427551
      4.22777      2.11389     11.11389        -0.014251     -0.001649     -0.397673
      6.34166      0.00000     11.11389        -0.008533      0.006078     -0.398395
      4.22777      4.22777      9.00000        -0.026817     -0.009119      0.428259
      6.34166      6.34166      9.00000        -0.063602     -0.046484      0.417898
      4.22777      6.34166     11.11389        -0.046902      0.044569     -0.356212
      6.34166      4.22777     11.11389        -0.021671     -0.031792     -0.388093
      4.22777      8.45554      9.00000        -0.070457      0.000949      0.475511
      6.34166     10.56943      9.00000        -0.120240     -0.029415      0.501158
      4.22777     10.56943     11.11389         0.060464      0.002370     -0.103686
      6.34166      8.45554     11.11389        -0.421523      0.157186     -0.142513
      4.22777     12.68331      9.00000        -0.092890     -0.013395      0.480742
      6.34166     14.79720      9.00000        -0.089271      0.060923      0.406297
      4.22777     14.79720     11.11389        -0.066916     -0.054463     -0.343586
      6.34166     12.68331     11.11389        -0.746158     -0.122419     -0.262060
      4.22777     16.91108      9.00000        -0.036514      0.016918      0.426883
      6.34166     19.02497      9.00000        -0.013717      0.026651      0.427402
      4.22777     19.02497     11.11389        -0.017641      0.010614     -0.396713
      6.34166     16.91108     11.11389        -0.028687      0.053219     -0.382907
      8.45554      0.00000      9.00000        -0.000323      0.007219      0.427585
     10.56943      2.11389      9.00000         0.010377     -0.012358      0.427497
      8.45554      2.11389     11.11389        -0.000321     -0.015918     -0.396706
     10.56943      0.00000     11.11389         0.007974      0.006262     -0.398404
      8.45554      4.22777      9.00000        -0.000429     -0.056494      0.429960
     10.56943      6.34166      9.00000         0.062124     -0.049314      0.418546
      8.45554      6.34166     11.11389        -0.002045     -0.207907     -0.324550
     10.56943      4.22777     11.11389         0.020871     -0.031863     -0.388090
      8.45554      8.45554      9.00000        -0.005373     -0.031531      0.172446
     10.56943     10.56943      9.00000         0.118046     -0.029817      0.492070
      8.45554     10.56943     11.11389         0.015228     -0.298181     -0.748600
     10.56943      8.45554     11.11389         0.356878      0.165776     -0.080516
      8.45554     12.68331      9.00000        -0.006619     -0.003688      0.015468
     10.56943     14.79720      9.00000         0.087205      0.064101      0.405220
      8.45554     14.79720     11.11389        -0.003895      0.405783     -0.358062
     10.56943     12.68331     11.11389         0.685814     -0.124292     -0.225133
[...]
     19.02497      6.34166     11.11389        -0.000956     -0.006833      0.384890
     16.91108      6.34166      9.00000        -0.009170     -0.003779     -0.420102
     19.02497      4.22777      9.00000        -0.000554     -0.004118     -0.417382
     16.91108      8.45554     11.11389        -0.003545     -0.005894      0.377581
     19.02497     10.56943     11.11389        -0.001591      0.001657      0.381054
     16.91108     10.56943      9.00000        -0.008530      0.002446     -0.425072
     19.02497      8.45554      9.00000        -0.001191     -0.002358     -0.420743
     16.91108     12.68331     11.11389        -0.005432      0.009416      0.377037
     19.02497     14.79720     11.11389        -0.001183      0.007745      0.384397
     16.91108     14.79720      9.00000        -0.012118      0.004810     -0.420101
     19.02497     12.68331      9.00000        -0.001335      0.005125     -0.420763
     16.91108     16.91108     11.11389        -0.009336      0.004319      0.385752
     19.02497     19.02497     11.11389        -0.000510      0.001339      0.388953
     16.91108     19.02497      9.00000        -0.008951     -0.001052     -0.416366
     19.02497     16.91108      9.00000        -0.000714      0.002944     -0.417375
    total drift:                                0.001753      0.002378     -0.270364

  FREE ENERGIE OF THE ION-ELECTRON SYSTEM (eV)
  free  energy   TOTEN  =     -1372.48971260 eV

  energy  without entropy=    -1372.48971260  energy(sigma->0) =    -1372.48971260