 vasp.6.3.0 20Jan22 (build Apr  1 2022 16:44:48) complex
 executed on        HPECrayEX_GCC date 2023.01.09  20:29:49

 INCAR:
   SYSTEM = MgO-rocksalt
   ISMEAR = 0
   SIGMA = 0.05
   EDIFF = 1E-6
   ALGO = ALL
   ISTART = 0
   IBRION = -1
   NSW = 0
   ISYM = 2
   DIPOL = 0.5 0.5 0.5
   IDIPOL = 3
   LDIPOL = .TRUE.
   GGA = MK
   LUSE_VDW = .TRUE.
   PARAM1 = 0.1234
   PARAM2 = 0.711357
   ZAB_VDW = -1.8867
   AGGAC = 0.0
   ENCUT = 520
   PREC = Accurate
   LASPH = .TRUE.
   LREAL = Auto
   ISPIN = 1
   NELM = 200
   NELMIN = 8
   NCORE = 4
   KPAR = 2
   LWAVE = .FALSE.
   LCHARG = .FALSE.

 POTCAR:    PAW_PBE Ag 02Apr2005
 POTCAR:    PAW_PBE Mg_pv 13Apr2007
 POTCAR:    PAW_PBE O 08Apr2002
|               ----> ADVICE to this user running VASP <----                  |
|     You have switched on vdW-DFT.                                           |
|     This routine was written and supplied by Jiri Klimes. We recommend      |
|     that you carefully read and cite the following publications:            |
|       J. Klimes, D.R. Bowler, A. Michelides                                 |
|          J. Phys.: Cond Matt. 22 022201 (2010)                              |
|       J. Klimes, D.R. Bowler, A. Michelides                                 |
|          Phys. Rev. B. 83, 195131 (2011)                                    |
|     and references therein.                                                 |

   TITEL  = PAW_PBE Ag 02Apr2005
   POMASS =  107.868; ZVAL   =   11.000    mass and valenz
   ENMAX  =  249.844; ENMIN  =  187.383 eV

   TITEL  = PAW_PBE Mg_pv 13Apr2007
   POMASS =   24.305; ZVAL   =    8.000    mass and valenz
   ENMAX  =  403.929; ENMIN  =  302.947 eV

   TITEL  = PAW_PBE O 08Apr2002
   POMASS =   16.000; ZVAL   =    6.000    mass and valenz
   ENMAX  =  400.000; ENMIN  =  300.000 eV

 Optimization of the real space projectors (new method)

 maximal supplied QI-value         = 15.12
 optimisation between [QCUT,QGAM] = [ 11.64, 23.28] = [ 37.95,151.78] Ry
 Optimized for a Real-space Cutoff    1.45 Angstroem

   l    n(q)    QCUT    max X(q) W(low)/X(q) W(high)/X(q)  e(spline)
   2      9    11.641    53.897    0.22E-03    0.42E-04    0.28E-06
   2      9    11.641    52.416    0.23E-03    0.44E-04    0.29E-06
   0     10    11.641   122.045    0.51E-04    0.25E-04    0.16E-06
   0     10    11.641    73.629    0.49E-04    0.24E-04    0.16E-06
   1     10    11.641    15.255    0.99E-04    0.55E-04    0.11E-06
   1     10    11.641     9.562    0.81E-04    0.47E-04    0.95E-07
 Optimization of the real space projectors (new method)

[...]

   l    n(q)    QCUT    max X(q) W(low)/X(q) W(high)/X(q)  e(spline)
   1      8    11.527     2.974    0.44E-04    0.56E-04    0.12E-06
   1      8    11.527     4.279    0.12E-03    0.12E-03    0.26E-06
   0      9    11.527    16.381    0.46E-04    0.64E-04    0.78E-07
   0      9    11.527     5.611    0.26E-04    0.43E-04    0.55E-07
   2      8    11.527     4.652    0.22E-03    0.72E-04    0.47E-07
 Optimization of the real space projectors (new method)

 maximal supplied QI-value         = 24.76
 optimisation between [QCUT,QGAM] = [ 11.64, 23.27] = [ 37.91,151.63] Ry
 Optimized for a Real-space Cutoff    1.14 Angstroem

   l    n(q)    QCUT    max X(q) W(low)/X(q) W(high)/X(q)  e(spline)
   0      8    11.635    20.381    0.10E-03    0.33E-03    0.24E-06
   0      8    11.635    15.268    0.11E-03    0.35E-03    0.26E-06
   1      7    11.635     5.964    0.24E-03    0.31E-03    0.30E-06
   1      7    11.635     5.382    0.22E-03    0.25E-03    0.26E-06
|               ----> ADVICE to this user running VASP <----                  |
|     You enforced a specific xc type in the INCAR file but a different       |
|     type was found in the POTCAR file.                                      |
|     I HOPE YOU KNOW WHAT YOU ARE DOING!                                     |

  PAW_PBE Ag 02Apr2005                  :
  PAW_PBE Mg_pv 13Apr2007               :
  PAW_PBE O 08Apr2002                   :

 POSCAR: Ag Mg  O
  positions in direct lattice
  velocities in cartesian coordinates
 exchange correlation table for  LEXCH =       43
   RHO(1)=    0.500       N(1)  =     2000
   RHO(2)=  100.500       N(2)  =     4000

 ion  position               nearest neighbor table
   1  0.400  0.429  0.610- 153 2.46   2 2.60  55 2.82   4 3.42
   2  0.400  0.512  0.697-   1 2.60   4 2.64   3 2.77
   3  0.401  0.641  0.713-   4 2.63   2 2.77
   4  0.400  0.590  0.604- 157 2.26   3 2.63   2 2.64  55 2.95   1 3.42
   5  0.000  0.000  0.407- 107 2.11 108 2.11 123 2.11 188 2.11 105 2.11
   6  0.100  0.100  0.407- 107 2.11 108 2.11 112 2.11 127 2.11 106 2.11
   7  0.000  0.100  0.503- 105 2.11 106 2.11 109 2.11 186 2.11 107 2.11
   8  0.100  0.000  0.503- 105 2.11 106 2.11 122 2.11 125 2.11 108 2.11
   9  0.000  0.200  0.407- 111 2.11 107 2.11 112 2.11 192 2.11 109 2.11
  10  0.100  0.300  0.407- 112 2.11 111 2.11 116 2.11 131 2.11 110 2.11
  11  0.000  0.300  0.503- 109 2.11 110 2.11 113 2.11 190 2.11 111 2.11
  12  0.100  0.200  0.503- 110 2.11 109 2.11 106 2.11 129 2.11 112 2.11
  13  0.000  0.400  0.407- 111 2.11 115 2.11 116 2.11 196 2.11 113 2.11
  14  0.100  0.500  0.407- 115 2.11 116 2.11 120 2.11 135 2.11 114 2.11
  15  0.000  0.500  0.503- 113 2.11 114 2.11 117 2.11 194 2.11 115 2.11
  16  0.100  0.400  0.503- 110 2.11 113 2.11 114 2.11 133 2.11 116 2.11
  17  0.000  0.600  0.407- 115 2.11 119 2.11 120 2.11 200 2.11 117 2.11
  18  0.100  0.700  0.407- 124 2.11 120 2.11 119 2.11 139 2.11 118 2.11
  19  0.000  0.700  0.503- 121 2.11 118 2.11 117 2.11 198 2.11 119 2.11
  20  0.100  0.600  0.503- 114 2.11 117 2.11 118 2.11 137 2.11 120 2.11
  21  0.000  0.800  0.407- 119 2.11 123 2.11 124 2.11 204 2.11 121 2.11
  22  0.100  0.900  0.407- 108 2.11 123 2.11 124 2.11 143 2.11 122 2.11
  23  0.000  0.900  0.503- 105 2.11 121 2.11 122 2.11 202 2.11 123 2.11
  24  0.100  0.800  0.503- 118 2.11 121 2.11 122 2.11 141 2.11 124 2.11
  25  0.200  0.000  0.407- 128 2.11 127 2.11 108 2.11 143 2.11 125 2.11
  26  0.300  0.100  0.407- 127 2.11 128 2.11 132 2.11 147 2.11 126 2.11
  27  0.200  0.100  0.503- 126 2.11 125 2.11 106 2.11 129 2.11 127 2.11
  28  0.300  0.000  0.503- 125 2.11 126 2.11 142 2.11 145 2.11 128 2.11
  29  0.200  0.200  0.407- 131 2.11 132 2.11 112 2.11 127 2.11 129 2.11
  30  0.300  0.300  0.407- 131 2.11 132 2.11 136 2.11 151 2.11 130 2.11
  31  0.200  0.300  0.503- 129 2.11 130 2.11 110 2.11 133 2.11 131 2.11
  32  0.300  0.200  0.503- 129 2.11 130 2.11 126 2.11 149 2.11 132 2.11
  33  0.200  0.400  0.407- 136 2.11 131 2.11 135 2.11 116 2.11 133 2.11
  34  0.300  0.500  0.407- 135 2.11 136 2.11 140 2.11 155 2.11 134 2.11
  35  0.200  0.500  0.503- 134 2.11 133 2.11 114 2.11 137 2.11 135 2.11
  36  0.300  0.400  0.503- 133 2.11 130 2.11 134 2.11 153 2.11 136 2.11
  37  0.200  0.600  0.407- 140 2.11 135 2.11 139 2.11 120 2.11 137 2.11
  38  0.300  0.700  0.407- 139 2.11 144 2.11 140 2.11 159 2.11 138 2.11
  39  0.200  0.700  0.503- 138 2.11 141 2.11 118 2.11 137 2.11 139 2.11
  40  0.300  0.600  0.503- 137 2.11 134 2.11 138 2.11 157 2.11 140 2.11
  41  0.200  0.800  0.407- 139 2.11 144 2.11 143 2.11 124 2.11 141 2.11
  42  0.300  0.900  0.407- 143 2.11 128 2.11 144 2.11 163 2.11 142 2.11
  43  0.200  0.900  0.503- 142 2.11 125 2.11 141 2.11 122 2.11 143 2.11
  44  0.300  0.800  0.503- 138 2.11 141 2.11 142 2.11 161 2.11 144 2.11
  45  0.400  0.000  0.407- 128 2.11 147 2.11 148 2.11 163 2.11 145 2.11
  46  0.500  0.100  0.407- 147 2.11 148 2.11 152 2.11 167 2.11 146 2.11
  47  0.400  0.100  0.503- 126 2.11 145 2.11 146 2.11 149 2.11 147 2.11
  48  0.500  0.000  0.503- 145 2.11 146 2.11 162 2.11 165 2.11 148 2.11
  49  0.400  0.200  0.407- 151 2.11 147 2.11 132 2.11 152 2.11 149 2.11
  50  0.500  0.300  0.407- 152 2.11 151 2.11 156 2.11 171 2.11 150 2.11
  51  0.400  0.300  0.503- 149 2.11 130 2.11 150 2.11 153 2.11 151 2.11
  52  0.500  0.200  0.503- 150 2.11 149 2.11 146 2.11 169 2.11 152 2.11
  53  0.400  0.400  0.407- 136 2.11 151 2.11 155 2.11 156 2.11 153 2.11
  54  0.500  0.500  0.407- 155 2.11 156 2.11 160 2.11 175 2.11 154 2.11
  55  0.400  0.500  0.503- 134 2.11 153 2.11 154 2.11 157 2.11 155 2.11   1 2.82   4 2.95
  56  0.500  0.400  0.503- 150 2.11 153 2.11 154 2.11 173 2.11 156 2.11
  57  0.400  0.600  0.407- 140 2.11 155 2.11 159 2.11 160 2.11 157 2.11
  58  0.500  0.700  0.407- 164 2.11 160 2.11 159 2.11 179 2.11 158 2.11
  59  0.400  0.700  0.503- 161 2.11 157 2.11 158 2.11 138 2.11 159 2.11
  60  0.500  0.600  0.503- 154 2.11 157 2.11 158 2.11 177 2.11 160 2.11
[...]
 190  0.900  0.300  0.503-  92 2.11  91 2.11  11 2.11  96 2.11  90 2.11
 191  0.800  0.300  0.407-  70 2.11  89 2.11  90 2.11  93 2.11  91 2.11
 192  0.900  0.200  0.407-  90 2.11  86 2.11  89 2.11   9 2.11  92 2.11
 193  0.800  0.400  0.503-  76 2.11  91 2.11  95 2.11  96 2.11  93 2.11
 194  0.900  0.500  0.503-  15 2.11  95 2.11  96 2.11 100 2.11  94 2.11
 195  0.800  0.500  0.407-  74 2.11  93 2.11  94 2.11  97 2.11  95 2.11
 196  0.900  0.400  0.407-  13 2.11  90 2.11  93 2.11  94 2.11  96 2.11
 197  0.800  0.600  0.503-  80 2.11  95 2.11  99 2.11 100 2.11  97 2.11
 198  0.900  0.700  0.503- 104 2.11  99 2.11 100 2.11  19 2.11  98 2.11
 199  0.800  0.700  0.407-  78 2.11 101 2.11  98 2.11  97 2.11  99 2.11
 200  0.900  0.600  0.407-  17 2.11  94 2.11  97 2.11  98 2.11 100 2.11
 201  0.800  0.800  0.503-  84 2.11  99 2.11 103 2.11 104 2.11 101 2.11
 202  0.900  0.900  0.503-  23 2.11  88 2.11 103 2.11 104 2.11 102 2.11
 203  0.800  0.900  0.407-  82 2.11  85 2.11 101 2.11 102 2.11 103 2.11
 204  0.900  0.800  0.407-  98 2.11  21 2.11 101 2.11 102 2.11 104 2.11

  LATTYP: Found a simple tetragonal cell.
 ALAT       =    21.1388521970
 C/A-ratio  =     1.0461251639

  Lattice vectors:

 A1 = (  21.1388521970,   0.0000000000,   0.0000000000)
 A2 = (   0.0000000000,  21.1388521970,   0.0000000000)
 A3 = (   0.0000000000,   0.0000000000,  22.1138852197)

Analysis of symmetry for initial positions (statically):
 Subroutine PRICEL returns:
 Original cell was already a primitive cell.

 Routine SETGRP: Setting up the symmetry group for a
 simple tetragonal supercell.

 Subroutine GETGRP returns: Found  1 space group operations
 (whereof  1 operations were pure point group operations)
 out of a pool of 16 trial point group operations.

The static configuration has the point symmetry C_1 .

Analysis of symmetry for dynamics (positions and initial velocities):
 Subroutine PRICEL returns:
 Original cell was already a primitive cell.

[...]

The dynamic configuration has the point symmetry C_1 .

Analysis of constrained symmetry for selective dynamics:
 Subroutine PRICEL returns:
 Original cell was already a primitive cell.

 Routine SETGRP: Setting up the symmetry group for a
 simple tetragonal supercell.

 Subroutine GETGRP returns: Found  1 space group operations
 (whereof  1 operations were pure point group operations)
 out of a pool of 16 trial point group operations.

The constrained configuration has the point symmetry C_1 .

 Subroutine INISYM returns: Found  1 space group operations
 (whereof  1 operations are pure point group operations),
[...]
     52     -43.2926      2.00000
     53     -43.2914      2.00000
     54     -43.2910      2.00000
     55     -43.2898      2.00000
     56     -43.2880      2.00000
     57     -43.2877      2.00000
     58     -43.2860      2.00000
     59     -43.2858      2.00000
     60     -43.2855      2.00000
[...]
    946       5.5302      0.00000
    947       5.5656      0.00000
    948       5.5786      0.00000
    949       5.6191      0.00000
    950       5.6440      0.00000
    951       5.6710      0.00000
    952       5.7389      0.00000
    953       5.8301      0.00000
    954       5.8949      0.00000
    955       5.9431      0.00000
    956       6.0547      0.00000
    957       6.1108      0.00000
    958       6.2618      0.00000
    959       6.2812      0.00000
    960       6.3938      0.00000

 soft charge-density along one line, spin component           1
         0         1         2         3         4         5         6         7         8         9
 total charge-density along one line

------------------------ aborting loop because EDIFF is reached ----------------------------------------

  FORCE on cell =-STRESS in cart. coord.  units (eV):
  Direction    XX          YY          ZZ          XY          YZ          ZX
  Alpha Z  1401.13727  1401.13727  1401.13727
  Ewald  477666.07547479799.93693************     3.84227   439.22239     3.11972
  Hartree507128.71375508862.31682************     3.07989   355.45998     2.35820
  E(xc)   -7882.06457 -7881.55865 -7883.10928     0.00103     0.18364     0.00194
  Local  ************************************    -6.90367  -793.03488    -5.44607
  n-local -8862.02828 -8862.99413 -8979.03433    -0.00020    -0.11883    -0.00777
  augment  3666.46880  3663.61779  3604.81451    -0.00594    -0.54421    -0.00602
  Kinetic 23239.55123 23232.99248 23465.11473    -0.01106    -1.11973    -0.02533
  Fock        0.00000     0.00000     0.00000     0.00000     0.00000     0.00000
  Total    -182.63947  -183.03750     1.95236     0.00231     0.04837    -0.00532
  in kB     -29.61266   -29.67719     0.31655     0.00037     0.00784    -0.00086

 VOLUME and BASIS-vectors are now :
  energy-cutoff  :      520.00
  volume of cell :     9881.61
      direct lattice vectors                 reciprocal lattice vectors
    21.138852197  0.000000000  0.000000000     0.047306258  0.000000000  0.000000000
     0.000000000 21.138852197  0.000000000     0.000000000  0.047306258  0.000000000
     0.000000000  0.000000000 22.113885220     0.000000000  0.000000000  0.045220457

  length of vectors
    21.138852197 21.138852197 22.113885220     0.047306258  0.047306258  0.045220457

 FORCES acting on ions:
    Electron-Ion                     Ewald-Force                    Non-Local-Force
   0.593E+00 0.380E+03 -.193E+04   -.587E+00 -.376E+03 0.193E+04   -.571E-02 -.417E+01 -.384E+01
   0.162E+00 0.207E+03 -.197E+04   -.167E+00 -.207E+03 0.196E+04   0.569E-02 0.206E+00 0.643E+01
   -.148E+01 -.388E+03 -.180E+04   0.146E+01 0.384E+03 0.179E+04   0.229E-01 0.445E+01 0.481E+01
   0.687E+00 -.198E+03 -.176E+04   -.677E+00 0.199E+03 0.176E+04   -.115E-01 -.427E+00 -.383E+01
   0.711E+01 -.266E+01 0.936E+03   -.712E+01 0.267E+01 -.929E+03   0.114E-01 -.707E-02 -.715E+01
   0.128E+02 0.613E+01 0.939E+03   -.128E+02 -.614E+01 -.932E+03   0.220E-01 0.699E-02 -.716E+01
   0.932E+01 0.530E+01 -.917E+03   -.933E+01 -.530E+01 0.910E+03   0.854E-02 -.195E-02 0.709E+01
   0.155E+02 -.503E+01 -.915E+03   -.155E+02 0.504E+01 0.908E+03   0.116E-01 -.955E-02 0.709E+01
   0.955E+01 0.984E+01 0.938E+03   -.957E+01 -.985E+01 -.931E+03   0.192E-01 0.809E-02 -.716E+01
   0.248E+02 0.182E+02 0.949E+03   -.249E+02 -.183E+02 -.942E+03   0.737E-01 0.289E-01 -.718E+01
   0.181E+02 0.157E+02 -.913E+03   -.181E+02 -.157E+02 0.905E+03   0.142E-01 0.568E-02 0.708E+01
   0.235E+02 0.199E+02 -.911E+03   -.235E+02 -.199E+02 0.904E+03   0.287E-01 0.554E-02 0.708E+01
   0.168E+02 0.959E+01 0.945E+03   -.169E+02 -.960E+01 -.937E+03   0.405E-01 0.133E-01 -.717E+01
   0.383E+02 0.456E+01 0.961E+03   -.385E+02 -.459E+01 -.954E+03   0.141E+00 0.195E-01 -.719E+01
   0.281E+02 0.416E+01 -.907E+03   -.281E+02 -.417E+01 0.900E+03   0.251E-01 0.777E-02 0.708E+01
   0.527E+02 0.223E+02 -.896E+03   -.527E+02 -.223E+02 0.889E+03   0.447E-01 0.149E-01 0.706E+01
   0.186E+02 -.489E+01 0.947E+03   -.186E+02 0.489E+01 -.939E+03   0.559E-01 0.212E-03 -.717E+01
   0.302E+02 -.166E+02 0.955E+03   -.304E+02 0.166E+02 -.947E+03   0.120E+00 -.269E-01 -.718E+01
   0.226E+02 -.139E+02 -.909E+03   -.226E+02 0.140E+02 0.902E+03   0.290E-01 -.280E-02 0.708E+01
   0.607E+02 -.119E+02 -.891E+03   -.608E+02 0.119E+02 0.884E+03   0.988E-01 0.722E-02 0.705E+01
   0.118E+02 -.119E+02 0.941E+03   -.118E+02 0.119E+02 -.933E+03   0.312E-01 -.145E-01 -.716E+01
   0.152E+02 -.124E+02 0.941E+03   -.152E+02 0.124E+02 -.934E+03   0.320E-01 -.285E-01 -.716E+01
   0.114E+02 -.112E+02 -.916E+03   -.114E+02 0.112E+02 0.908E+03   0.129E-01 -.868E-02 0.709E+01
   0.319E+02 -.252E+02 -.905E+03   -.319E+02 0.253E+02 0.898E+03   0.507E-01 -.181E-01 0.708E+01
   0.130E+02 -.502E+01 0.942E+03   -.130E+02 0.505E+01 -.935E+03   0.192E-01 -.177E-01 -.716E+01
   0.925E+01 0.123E+02 0.947E+03   -.927E+01 -.124E+02 -.940E+03   0.165E-01 0.458E-01 -.717E+01
   0.184E+02 0.130E+02 -.911E+03   -.184E+02 -.130E+02 0.904E+03   0.149E-01 0.146E-01 0.708E+01
   0.114E+02 -.101E+02 -.908E+03   -.114E+02 0.101E+02 0.900E+03   0.654E-02 -.109E-01 0.708E+01
   0.199E+02 0.221E+02 0.950E+03   -.200E+02 -.222E+02 -.943E+03   0.562E-01 0.576E-01 -.717E+01
   0.252E+02 0.442E+02 0.984E+03   -.254E+02 -.445E+02 -.976E+03   0.146E+00 0.212E+00 -.718E+01
   0.539E+02 0.495E+02 -.887E+03   -.541E+02 -.495E+02 0.879E+03   0.127E+00 0.129E-01 0.703E+01
   0.231E+02 0.522E+02 -.893E+03   -.231E+02 -.523E+02 0.886E+03   0.212E-01 0.119E+00 0.705E+01
   0.454E+02 0.249E+02 0.981E+03   -.457E+02 -.250E+02 -.973E+03   0.258E+00 0.803E-01 -.726E+01
   0.487E+02 0.112E+02 0.104E+04   -.492E+02 -.113E+02 -.103E+04   0.354E+00 0.119E+00 -.723E+01
   0.110E+03 0.140E+02 -.845E+03   -.111E+03 -.141E+02 0.838E+03   0.256E+00 0.480E-01 0.697E+01
   0.119E+03 0.916E+02 -.769E+03   -.120E+03 -.917E+02 0.763E+03   0.992E+00 0.142E+00 0.663E+01
   0.515E+02 -.143E+02 0.989E+03   -.519E+02 0.144E+02 -.981E+03   0.386E+00 -.218E-01 -.726E+01
   0.327E+02 -.435E+02 0.100E+04   -.330E+02 0.439E+02 -.996E+03   0.254E+00 -.275E+00 -.715E+01
   0.739E+02 -.493E+02 -.868E+03   -.742E+02 0.493E+02 0.861E+03   0.246E+00 -.280E-01 0.702E+01
   0.146E+03 -.566E+02 -.727E+03   -.149E+03 0.566E+02 0.720E+03   0.193E+01 -.328E-01 0.689E+01
   0.261E+02 -.276E+02 0.959E+03   -.262E+02 0.278E+02 -.951E+03   0.939E-01 -.979E-01 -.718E+01
   0.116E+02 -.244E+02 0.954E+03   -.116E+02 0.245E+02 -.946E+03   0.216E-01 -.109E+00 -.719E+01
   0.242E+02 -.275E+02 -.905E+03   -.242E+02 0.276E+02 0.898E+03   0.145E-01 -.479E-01 0.707E+01
   0.359E+02 -.731E+02 -.870E+03   -.359E+02 0.734E+02 0.863E+03   -.146E-02 -.252E+00 0.700E+01
   0.249E-01 -.702E+01 0.947E+03   -.247E-01 0.705E+01 -.940E+03   -.114E-03 -.234E-01 -.717E+01
   -.921E+01 0.123E+02 0.947E+03   0.924E+01 -.124E+02 -.940E+03   -.166E-01 0.458E-01 -.717E+01
   0.304E-01 0.213E+02 -.905E+03   -.303E-01 -.214E+02 0.898E+03   -.108E-03 0.398E-01 0.707E+01
   -.114E+02 -.102E+02 -.908E+03   0.114E+02 0.102E+02 0.900E+03   -.674E-02 -.107E-01 0.708E+01
   0.300E-01 0.351E+02 0.963E+03   -.299E-01 -.354E+02 -.955E+03   -.123E-03 0.213E+00 -.721E+01
   -.251E+02 0.443E+02 0.984E+03   0.253E+02 -.446E+02 -.976E+03   -.146E+00 0.212E+00 -.718E+01
   0.107E+00 0.125E+03 -.824E+03   -.107E+00 -.126E+03 0.817E+03   -.373E-03 0.101E+01 0.703E+01
   -.230E+02 0.522E+02 -.893E+03   0.230E+02 -.524E+02 0.886E+03   -.215E-01 0.119E+00 0.705E+01
   0.862E-01 0.467E+02 0.104E+04   -.858E-01 -.471E+02 -.103E+04   -.295E-03 0.319E+00 -.608E+01
   -.486E+02 0.112E+02 0.104E+04   0.490E+02 -.114E+02 -.103E+04   -.354E+00 0.118E+00 -.723E+01
   0.463E+00 0.320E+02 -.582E+03   -.463E+00 -.334E+02 0.577E+03   -.617E-03 0.109E+01 0.503E+01
   -.118E+03 0.918E+02 -.769E+03   0.120E+03 -.919E+02 0.762E+03   -.992E+00 0.142E+00 0.663E+01
   0.139E+00 -.290E+02 0.106E+04   -.137E+00 0.291E+02 -.106E+04   -.108E-02 -.120E+00 -.500E+01
   -.326E+02 -.436E+02 0.100E+04   0.329E+02 0.440E+02 -.996E+03   -.254E+00 -.274E+00 -.716E+01
   0.331E+00 -.146E+03 -.755E+03   -.328E+00 0.148E+03 0.748E+03   -.171E-02 -.190E+01 0.677E+01
   -.146E+03 -.567E+02 -.726E+03   0.149E+03 0.567E+02 0.719E+03   -.193E+01 -.342E-01 0.689E+01
[...]
   -.986E+01 0.905E+01 0.708E+03   0.988E+01 -.906E+01 -.712E+03   -.253E-01 0.155E-01 0.361E+01
   -.162E-01 0.628E+01 0.704E+03   0.161E-01 -.628E+01 -.708E+03   0.107E-03 0.652E-02 0.362E+01
   -.183E+02 0.959E+01 -.684E+03   0.183E+02 -.960E+01 0.688E+03   -.214E-01 0.114E-01 -.374E+01
   -.495E-01 0.250E+01 -.685E+03   0.493E-01 -.250E+01 0.689E+03   0.268E-03 0.766E-02 -.373E+01
   -.144E+02 0.227E+01 0.712E+03   0.144E+02 -.228E+01 -.716E+03   -.408E-01 0.122E-01 0.361E+01
   -.282E-01 0.600E+01 0.708E+03   0.281E-01 -.601E+01 -.712E+03   0.192E-03 0.117E-01 0.362E+01
   -.207E+02 -.480E+01 -.682E+03   0.207E+02 0.480E+01 0.686E+03   -.304E-01 0.383E-02 -.375E+01
   -.472E-01 -.830E+01 -.686E+03   0.470E-01 0.830E+01 0.690E+03   0.276E-03 -.345E-02 -.373E+01
   -.118E+02 -.796E+01 0.710E+03   0.118E+02 0.797E+01 -.714E+03   -.387E-01 -.134E-01 0.361E+01
   -.356E-01 -.299E+01 0.709E+03   0.354E-01 0.299E+01 -.713E+03   0.257E-03 0.869E-03 0.361E+01
   -.123E+02 -.116E+02 -.686E+03   0.123E+02 0.116E+02 0.691E+03   -.217E-01 -.126E-01 -.373E+01
   -.260E-01 -.701E+01 -.690E+03   0.259E-01 0.702E+01 0.694E+03   0.163E-03 -.885E-02 -.372E+01
   -.654E+01 -.655E+01 0.705E+03   0.655E+01 0.656E+01 -.709E+03   -.188E-01 -.165E-01 0.362E+01
   -.259E-01 -.754E+01 0.706E+03   0.257E-01 0.755E+01 -.710E+03   0.198E-03 -.125E-01 0.362E+01
   -.246E-01 -.116E+00 0.135E+01   0.702E-12 0.682E-12 0.200E-10   0.267E-01 0.117E+00 -.171E+01

 POSITION                                       TOTAL-FORCE (eV/Angst)
      8.45714      9.05883     13.49759        -0.000338      0.005055     -0.001932
      8.46060     10.81262     15.42040         0.000713      0.001690      0.004137
      8.46768     13.55697     15.76553         0.000010      0.004901     -0.001422
      8.45984     12.47141     13.36585        -0.000606      0.004047      0.004766
      0.00000      0.00000      9.00000        -0.003157      0.001950      0.342304
      2.11389      2.11389      9.00000        -0.006125     -0.002015      0.343238
      0.00000      2.11389     11.11389        -0.002246      0.000535     -0.319095
      2.11389      0.00000     11.11389        -0.003185      0.002491     -0.317512
      0.00000      4.22777      9.00000        -0.005132     -0.002259      0.343328
      2.11389      6.34166      9.00000        -0.019622     -0.007923      0.347971
      0.00000      6.34166     11.11389        -0.003337     -0.001428     -0.315149
      2.11389      4.22777     11.11389        -0.007167     -0.001291     -0.313277
      0.00000      8.45554      9.00000        -0.010856     -0.003731      0.345499
      2.11389     10.56943      9.00000        -0.037868     -0.005769      0.352264
      0.00000     10.56943     11.11389        -0.005737     -0.002237     -0.311485
      2.11389      8.45554     11.11389        -0.008833     -0.003669     -0.298507
      0.00000     12.68331      9.00000        -0.014691     -0.000124      0.346009
      2.11389     14.79720      9.00000        -0.031825      0.007783      0.348933
      0.00000     14.79720     11.11389        -0.007037      0.000727     -0.313824
      2.11389     12.68331     11.11389        -0.022280     -0.002347     -0.296508
      0.00000     16.91108      9.00000        -0.008356      0.004112      0.343740
      2.11389     19.02497      9.00000        -0.008922      0.007915      0.343577
      0.00000     19.02497     11.11389        -0.003363      0.002377     -0.318325
      2.11389     16.91108     11.11389        -0.012526      0.004777     -0.309839
      4.22777      0.00000      9.00000        -0.005399      0.004672      0.344535
      6.34166      2.11389      9.00000        -0.004821     -0.012237      0.346196
      4.22777      2.11389     11.11389        -0.004065     -0.003497     -0.313582
      6.34166      0.00000     11.11389        -0.001744      0.002457     -0.311886
      4.22777      4.22777      9.00000        -0.016053     -0.016317      0.345578
      6.34166      6.34166      9.00000        -0.048561     -0.064654      0.337894
      4.22777      6.34166     11.11389        -0.029478      0.000216     -0.281410
      6.34166      4.22777     11.11389        -0.005973     -0.029085     -0.293857
      4.22777      8.45554      9.00000        -0.067545     -0.022310      0.364092
      6.34166     10.56943      9.00000        -0.117778     -0.038946      0.321129
      4.22777     10.56943     11.11389        -0.060545     -0.015804     -0.237173
      6.34166      8.45554     11.11389        -0.347780     -0.023694     -0.173903
      4.22777     12.68331      9.00000        -0.097546      0.005536      0.364469
      6.34166     14.79720      9.00000        -0.083814      0.089045      0.321014
      4.22777     14.79720     11.11389        -0.059118      0.006568     -0.268774
      6.34166     12.68331     11.11389        -0.683990      0.014001     -0.333978
      4.22777     16.91108      9.00000        -0.027023      0.027949      0.346385
      6.34166     19.02497      9.00000        -0.006159      0.028452      0.350079
      4.22777     19.02497     11.11389        -0.003805      0.011693     -0.309216
      6.34166     16.91108     11.11389         0.003426      0.058807     -0.261994
      8.45554      0.00000      9.00000         0.000021      0.006221      0.346350
     10.56943      2.11389      9.00000         0.004844     -0.012237      0.346200
      8.45554      2.11389     11.11389         0.000024     -0.009097     -0.308545
     10.56943      0.00000     11.11389         0.001772      0.002420     -0.311875
      8.45554      4.22777      9.00000         0.000019     -0.054187      0.353200
     10.56943      6.34166      9.00000         0.048613     -0.064621      0.337943
      8.45554      6.34166     11.11389         0.000107     -0.323320     -0.269848
     10.56943      4.22777     11.11389         0.006018     -0.029022     -0.293825
      8.45554      8.45554      9.00000         0.000091     -0.072014      0.092868
     10.56943     10.56943      9.00000         0.117886     -0.038791      0.321044
      8.45554     10.56943     11.11389        -0.000409     -0.294677     -0.321789
     10.56943      8.45554     11.11389         0.348302     -0.023781     -0.173623
      8.45554     12.68331      9.00000         0.000347      0.023203     -0.130798
     10.56943     14.79720      9.00000         0.083954      0.088930      0.321261
      8.45554     14.79720     11.11389         0.000534      0.632075     -0.207823
     10.56943     12.68331     11.11389         0.686571      0.014816     -0.334944
[...]
     19.02497      6.34166     11.11389         0.000032      0.001694      0.372793
     16.91108      6.34166      9.00000        -0.007018      0.004295     -0.401134
     19.02497      4.22777      9.00000         0.000017      0.001812     -0.399357
     16.91108      8.45554     11.11389        -0.005892      0.003112      0.367763
     19.02497     10.56943     11.11389         0.000066      0.002094      0.370299
     16.91108     10.56943      9.00000        -0.011288      0.003313     -0.402891
     19.02497      8.45554      9.00000         0.000040      0.003233     -0.400852
     16.91108     12.68331     11.11389        -0.008409      0.001032      0.366694
     19.02497     14.79720     11.11389         0.000067     -0.000956      0.371755
     16.91108     14.79720      9.00000        -0.010663     -0.003723     -0.401494
     19.02497     12.68331      9.00000         0.000061      0.000202     -0.400985
     16.91108     16.91108     11.11389        -0.005942     -0.003470      0.371670
     19.02497     19.02497     11.11389         0.000036     -0.002441      0.374969
     16.91108     19.02497      9.00000        -0.005160     -0.004525     -0.399345
     19.02497     16.91108      9.00000         0.000049     -0.003475     -0.399601
    total drift:                                0.002130      0.001553     -0.359853

  FREE ENERGIE OF THE ION-ELECTRON SYSTEM (eV)
  free  energy   TOTEN  =      -791.26101672 eV

  energy  without entropy=     -791.26101672  energy(sigma->0) =     -791.26101672