 vasp.6.3.0 20Jan22 (build Apr  1 2022 16:44:48) complex
 executed on        HPECrayEX_GCC date 2023.01.09  09:19:27

 INCAR:
   SYSTEM = MgO-rocksalt
   ISMEAR = 0
   SIGMA = 0.05
   EDIFF = 1E-6
   ALGO = ALL
   ISTART = 0
   IBRION = -1
   NSW = 0
   ISYM = 2
   DIPOL = 0.5 0.5 0.5
   IDIPOL = 3
   LDIPOL = .TRUE.
   GGA = PE
   IVDW = 1
   VDW_C6 = 81.24 0.63 0.70
   VDW_R0 = 1.772 1.243 1.342
   ENCUT = 520
   PREC = Accurate
   LASPH = .TRUE.
   LREAL = Auto
   ISPIN = 1
   NELM = 200
   NELMIN = 8
   NCORE = 4
   KPAR = 2
   LWAVE = .FALSE.
   LCHARG = .FALSE.

 POTCAR:    PAW_PBE Au 04Oct2007
 POTCAR:    PAW_PBE Mg_pv 13Apr2007
 POTCAR:    PAW_PBE O 08Apr2002
 POTCAR:    PAW_PBE Au 04Oct2007
   VRHFIN =Au: s1d10

   TITEL  = PAW_PBE Au 04Oct2007
   POMASS =  196.966; ZVAL   =   11.000    mass and valenz
   ENMAX  =  229.943; ENMIN  =  172.457 eV

   TITEL  = PAW_PBE Mg_pv 13Apr2007
   POMASS =   24.305; ZVAL   =    8.000    mass and valenz
   ENMAX  =  403.929; ENMIN  =  302.947 eV

   TITEL  = PAW_PBE O 08Apr2002
   POMASS =   16.000; ZVAL   =    6.000    mass and valenz
   ENMAX  =  400.000; ENMIN  =  300.000 eV

 Optimization of the real space projectors (new method)

 maximal supplied QI-value         = 15.12
 optimisation between [QCUT,QGAM] = [ 11.64, 23.28] = [ 37.95,151.78] Ry
 Optimized for a Real-space Cutoff    1.49 Angstroem

   l    n(q)    QCUT    max X(q) W(low)/X(q) W(high)/X(q)  e(spline)
   2      9    11.641    60.898    0.24E-03    0.10E-03    0.19E-06
   2      9    11.641    58.894    0.25E-03    0.10E-03    0.19E-06
   0     10    11.641   109.617    0.73E-04    0.33E-04    0.11E-06
   0     10    11.641    75.026    0.71E-04    0.32E-04    0.11E-06
   1     10    11.641    16.344    0.27E-04    0.97E-04    0.16E-06
   1     10    11.641    10.160    0.23E-04    0.77E-04    0.13E-06
 Optimization of the real space projectors (new method)

[...]

   l    n(q)    QCUT    max X(q) W(low)/X(q) W(high)/X(q)  e(spline)
   1      8    11.527     2.974    0.44E-04    0.56E-04    0.12E-06
   1      8    11.527     4.279    0.12E-03    0.12E-03    0.26E-06
   0      9    11.527    16.381    0.46E-04    0.64E-04    0.78E-07
   0      9    11.527     5.611    0.26E-04    0.43E-04    0.55E-07
   2      8    11.527     4.652    0.22E-03    0.72E-04    0.47E-07
 Optimization of the real space projectors (new method)

 maximal supplied QI-value         = 24.76
 optimisation between [QCUT,QGAM] = [ 11.64, 23.27] = [ 37.91,151.63] Ry
 Optimized for a Real-space Cutoff    1.14 Angstroem

   l    n(q)    QCUT    max X(q) W(low)/X(q) W(high)/X(q)  e(spline)
   0      8    11.635    20.381    0.10E-03    0.33E-03    0.24E-06
   0      8    11.635    15.268    0.11E-03    0.35E-03    0.26E-06
   1      7    11.635     5.964    0.24E-03    0.31E-03    0.30E-06
   1      7    11.635     5.382    0.22E-03    0.25E-03    0.26E-06
  PAW_PBE Au 04Oct2007                  :
  PAW_PBE Mg_pv 13Apr2007               :
  PAW_PBE O 08Apr2002                   :

 POSCAR: Au Mg  O
  positions in direct lattice
  velocities in cartesian coordinates
 exchange correlation table for  LEXCH =        8
   RHO(1)=    0.500       N(1)  =     2000
   RHO(2)=  100.500       N(2)  =     4000

 ion  position               nearest neighbor table
   1  0.400  0.425  0.603- 153 2.29   2 2.53  55 2.73
   2  0.400  0.510  0.684-   1 2.53   3 2.68   4 2.74
   3  0.400  0.633  0.713-   4 2.57   2 2.68
   4  0.400  0.605  0.600- 157 2.16   3 2.57   2 2.74  59 2.95  40 3.02  60 3.02
   5  0.000  0.000  0.407- 107 2.11 108 2.11 123 2.11 188 2.11 105 2.11
   6  0.100  0.100  0.407- 107 2.11 108 2.11 112 2.11 127 2.11 106 2.11
   7  0.000  0.100  0.503- 105 2.11 106 2.11 109 2.11 186 2.11 107 2.11
   8  0.100  0.000  0.503- 105 2.11 106 2.11 122 2.11 125 2.11 108 2.11
   9  0.000  0.200  0.407- 111 2.11 107 2.11 112 2.11 192 2.11 109 2.11
  10  0.100  0.300  0.407- 112 2.11 111 2.11 116 2.11 131 2.11 110 2.11
  11  0.000  0.300  0.503- 109 2.11 110 2.11 113 2.11 190 2.11 111 2.11
  12  0.100  0.200  0.503- 110 2.11 109 2.11 106 2.11 129 2.11 112 2.11
  13  0.000  0.400  0.407- 111 2.11 115 2.11 116 2.11 196 2.11 113 2.11
  14  0.100  0.500  0.407- 115 2.11 116 2.11 120 2.11 135 2.11 114 2.11
  15  0.000  0.500  0.503- 113 2.11 114 2.11 117 2.11 194 2.11 115 2.11
  16  0.100  0.400  0.503- 110 2.11 113 2.11 114 2.11 133 2.11 116 2.11
  17  0.000  0.600  0.407- 115 2.11 119 2.11 120 2.11 200 2.11 117 2.11
  18  0.100  0.700  0.407- 124 2.11 120 2.11 119 2.11 139 2.11 118 2.11
  19  0.000  0.700  0.503- 121 2.11 118 2.11 117 2.11 198 2.11 119 2.11
  20  0.100  0.600  0.503- 114 2.11 117 2.11 118 2.11 137 2.11 120 2.11
  21  0.000  0.800  0.407- 119 2.11 123 2.11 124 2.11 204 2.11 121 2.11
  22  0.100  0.900  0.407- 108 2.11 123 2.11 124 2.11 143 2.11 122 2.11
  23  0.000  0.900  0.503- 105 2.11 121 2.11 122 2.11 202 2.11 123 2.11
  24  0.100  0.800  0.503- 118 2.11 121 2.11 122 2.11 141 2.11 124 2.11
  25  0.200  0.000  0.407- 128 2.11 127 2.11 108 2.11 143 2.11 125 2.11
  26  0.300  0.100  0.407- 127 2.11 128 2.11 132 2.11 147 2.11 126 2.11
  27  0.200  0.100  0.503- 126 2.11 125 2.11 106 2.11 129 2.11 127 2.11
  28  0.300  0.000  0.503- 125 2.11 126 2.11 142 2.11 145 2.11 128 2.11
  29  0.200  0.200  0.407- 131 2.11 132 2.11 112 2.11 127 2.11 129 2.11
  30  0.300  0.300  0.407- 131 2.11 132 2.11 136 2.11 151 2.11 130 2.11
  31  0.200  0.300  0.503- 129 2.11 130 2.11 110 2.11 133 2.11 131 2.11
  32  0.300  0.200  0.503- 129 2.11 130 2.11 126 2.11 149 2.11 132 2.11
  33  0.200  0.400  0.407- 136 2.11 131 2.11 135 2.11 116 2.11 133 2.11
  34  0.300  0.500  0.407- 135 2.11 136 2.11 140 2.11 155 2.11 134 2.11
  35  0.200  0.500  0.503- 134 2.11 133 2.11 114 2.11 137 2.11 135 2.11
  36  0.300  0.400  0.503- 133 2.11 130 2.11 134 2.11 153 2.11 136 2.11
  37  0.200  0.600  0.407- 140 2.11 135 2.11 139 2.11 120 2.11 137 2.11
  38  0.300  0.700  0.407- 139 2.11 144 2.11 140 2.11 159 2.11 138 2.11
  39  0.200  0.700  0.503- 138 2.11 141 2.11 118 2.11 137 2.11 139 2.11
  40  0.300  0.600  0.503- 137 2.11 134 2.11 138 2.11 157 2.11 140 2.11   4 3.02
  41  0.200  0.800  0.407- 139 2.11 144 2.11 143 2.11 124 2.11 141 2.11
  42  0.300  0.900  0.407- 143 2.11 128 2.11 144 2.11 163 2.11 142 2.11
  43  0.200  0.900  0.503- 142 2.11 125 2.11 141 2.11 122 2.11 143 2.11
  44  0.300  0.800  0.503- 138 2.11 141 2.11 142 2.11 161 2.11 144 2.11
  45  0.400  0.000  0.407- 128 2.11 147 2.11 148 2.11 163 2.11 145 2.11
  46  0.500  0.100  0.407- 147 2.11 148 2.11 152 2.11 167 2.11 146 2.11
  47  0.400  0.100  0.503- 126 2.11 145 2.11 146 2.11 149 2.11 147 2.11
  48  0.500  0.000  0.503- 145 2.11 146 2.11 162 2.11 165 2.11 148 2.11
  49  0.400  0.200  0.407- 151 2.11 147 2.11 132 2.11 152 2.11 149 2.11
  50  0.500  0.300  0.407- 152 2.11 151 2.11 156 2.11 171 2.11 150 2.11
  51  0.400  0.300  0.503- 149 2.11 130 2.11 150 2.11 153 2.11 151 2.11
  52  0.500  0.200  0.503- 150 2.11 149 2.11 146 2.11 169 2.11 152 2.11
  53  0.400  0.400  0.407- 136 2.11 151 2.11 155 2.11 156 2.11 153 2.11
  54  0.500  0.500  0.407- 155 2.11 156 2.11 160 2.11 175 2.11 154 2.11
  55  0.400  0.500  0.503- 134 2.11 153 2.11 154 2.11 157 2.11 155 2.11   1 2.73
  56  0.500  0.400  0.503- 150 2.11 153 2.11 154 2.11 173 2.11 156 2.11
  57  0.400  0.600  0.407- 140 2.11 155 2.11 159 2.11 160 2.11 157 2.11
  58  0.500  0.700  0.407- 164 2.11 160 2.11 159 2.11 179 2.11 158 2.11
  59  0.400  0.700  0.503- 161 2.11 157 2.11 158 2.11 138 2.11 159 2.11   4 2.95
  60  0.500  0.600  0.503- 154 2.11 157 2.11 158 2.11 177 2.11 160 2.11   4 3.02
[...]
 190  0.900  0.300  0.503-  92 2.11  91 2.11  11 2.11  96 2.11  90 2.11
 191  0.800  0.300  0.407-  70 2.11  89 2.11  90 2.11  93 2.11  91 2.11
 192  0.900  0.200  0.407-  90 2.11  86 2.11  89 2.11   9 2.11  92 2.11
 193  0.800  0.400  0.503-  76 2.11  91 2.11  95 2.11  96 2.11  93 2.11
 194  0.900  0.500  0.503-  15 2.11  95 2.11  96 2.11 100 2.11  94 2.11
 195  0.800  0.500  0.407-  74 2.11  93 2.11  94 2.11  97 2.11  95 2.11
 196  0.900  0.400  0.407-  13 2.11  90 2.11  93 2.11  94 2.11  96 2.11
 197  0.800  0.600  0.503-  80 2.11  95 2.11  99 2.11 100 2.11  97 2.11
 198  0.900  0.700  0.503- 104 2.11  99 2.11 100 2.11  19 2.11  98 2.11
 199  0.800  0.700  0.407-  78 2.11 101 2.11  98 2.11  97 2.11  99 2.11
 200  0.900  0.600  0.407-  17 2.11  94 2.11  97 2.11  98 2.11 100 2.11
 201  0.800  0.800  0.503-  84 2.11  99 2.11 103 2.11 104 2.11 101 2.11
 202  0.900  0.900  0.503-  23 2.11  88 2.11 103 2.11 104 2.11 102 2.11
 203  0.800  0.900  0.407-  82 2.11  85 2.11 101 2.11 102 2.11 103 2.11
 204  0.900  0.800  0.407-  98 2.11  21 2.11 101 2.11 102 2.11 104 2.11

  LATTYP: Found a simple tetragonal cell.
 ALAT       =    21.1388521970
 C/A-ratio  =     1.0461251639

  Lattice vectors:

 A1 = (  21.1388521970,   0.0000000000,   0.0000000000)
 A2 = (   0.0000000000,  21.1388521970,   0.0000000000)
 A3 = (   0.0000000000,   0.0000000000,  22.1138852197)

Analysis of symmetry for initial positions (statically):
 Subroutine PRICEL returns:
 Original cell was already a primitive cell.

 Routine SETGRP: Setting up the symmetry group for a
 simple tetragonal supercell.

 Subroutine GETGRP returns: Found  1 space group operations
 (whereof  1 operations were pure point group operations)
 out of a pool of 16 trial point group operations.

The static configuration has the point symmetry C_1 .

Analysis of symmetry for dynamics (positions and initial velocities):
 Subroutine PRICEL returns:
 Original cell was already a primitive cell.

[...]

The dynamic configuration has the point symmetry C_1 .

Analysis of constrained symmetry for selective dynamics:
 Subroutine PRICEL returns:
 Original cell was already a primitive cell.

 Routine SETGRP: Setting up the symmetry group for a
 simple tetragonal supercell.

 Subroutine GETGRP returns: Found  1 space group operations
 (whereof  1 operations were pure point group operations)
 out of a pool of 16 trial point group operations.

The constrained configuration has the point symmetry C_1 .

 Subroutine INISYM returns: Found  1 space group operations
 (whereof  1 operations are pure point group operations),
 and found     1 'primitive' translations

                                     Primitive cell

  volume of cell :    9881.6133

  direct lattice vectors                    reciprocal lattice vectors
    21.138852197  0.000000000  0.000000000     0.047306258  0.000000000  0.000000000
     0.000000000 21.138852197  0.000000000     0.000000000  0.047306258  0.000000000
     0.000000000  0.000000000 22.113885220     0.000000000  0.000000000  0.045220457

  length of vectors
    21.138852197 21.138852197 22.113885220     0.047306258  0.047306258  0.045220457

  position of ions in fractional coordinates (direct lattice)
     0.399951201  0.425242954  0.603301976
     0.399957296  0.509675129  0.684179581
     0.400053355  0.632584174  0.713145052
     0.399972466  0.604759939  0.599963044
     0.000000000  0.000000000  0.406984115
     0.100000000  0.100000000  0.406984115
     0.000000000  0.100000000  0.502574971
     0.100000000  0.000000000  0.502574971
     0.000000000  0.200000000  0.406984115
[...]
    953       6.4777      0.00000
    954       6.5166      0.00000
    955       6.6537      0.00000
    956       6.6944      0.00000
    957       6.7166      0.00000
    958       6.7641      0.00000
    959       6.8434      0.00000
    960       6.9060      0.00000

 soft charge-density along one line, spin component           1
         0         1         2         3         4         5         6         7         8         9
 total charge-density along one line

------------------------ aborting loop because EDIFF is reached ----------------------------------------

  DFT-D2 method for vdW energy calculation

  Parameters of vdW forcefield:
         C6(Jnm^6/mol)     R0(A)
   Au      81.240          1.772
   Mg       0.630          1.243
   O        0.700          1.342

  vdW correction parametrized for the method pbe

  IVDW =   1
  VDW_RADIUS =    50.000 A
  VDW_S6 =     0.750
  VDW_SR =     1.000
  VDW_D =    20.000
  LVDW_EWALD = F

  Number of pair interactions contributing to vdW energy: 1118590
  Edisp (eV):   -9.62144

  FORCE on cell =-STRESS in cart. coord.  units (eV):
  Direction    XX          YY          ZZ          XY          YZ          ZX
  Alpha Z  1417.83424  1417.83424  1417.83424
  Ewald  478689.67923480803.91176************     0.83759   457.00324     0.56808
  Hartree508167.32905509813.95347************     0.62538   334.81927     0.41918
  E(xc)   -7848.58772 -7846.90813 -7877.29205     0.00075     0.60137     0.00048
  Local  ************************************    -1.44837  -780.25759    -0.97697
  n-local -8748.90595 -8759.19654 -8889.35867    -0.00449    -5.27820    -0.00386
  augment  3555.06037  3550.57117  3490.48743    -0.00293    -1.84065    -0.00289
  Kinetic 23306.69408 23294.96668 23536.50274    -0.00758    -5.06913    -0.00087
  Fock        0.00000     0.00000     0.00000     0.00000     0.00000     0.00000
  vdW       -13.32145   -13.66400    -8.21223     0.00013    -0.23265     0.00108
  Total    -161.05139  -160.60337    11.07177     0.00048    -0.25433     0.00423
  in kB     -26.11242   -26.03978     1.79515     0.00008    -0.04124     0.00069

 VOLUME and BASIS-vectors are now :
  energy-cutoff  :      520.00
  volume of cell :     9881.61
      direct lattice vectors                 reciprocal lattice vectors
    21.138852197  0.000000000  0.000000000     0.047306258  0.000000000  0.000000000
     0.000000000 21.138852197  0.000000000     0.000000000  0.047306258  0.000000000
     0.000000000  0.000000000 22.113885220     0.000000000  0.000000000  0.045220457

  length of vectors
    21.138852197 21.138852197 22.113885220     0.047306258  0.047306258  0.045220457

 FORCES acting on ions:
    Electron-Ion                     Ewald-Force                    Non-Local-Force
   0.616E-01 0.369E+03 -.196E+04   -.629E-01 -.366E+03 0.197E+04   0.218E-02 -.335E+01 -.430E+01
   0.196E+00 0.209E+03 -.198E+04   -.196E+00 -.211E+03 0.198E+04   0.691E-03 0.225E+01 0.384E+01
   -.393E+00 -.355E+03 -.186E+04   0.386E+00 0.351E+03 0.185E+04   0.667E-02 0.386E+01 0.566E+01
   0.139E+00 -.226E+03 -.180E+04   -.137E+00 0.227E+03 0.180E+04   -.242E-03 -.928E+00 -.253E+01
   0.728E+01 -.275E+01 0.936E+03   -.731E+01 0.276E+01 -.929E+03   0.165E-01 -.662E-02 -.744E+01
   0.131E+02 0.618E+01 0.939E+03   -.131E+02 -.620E+01 -.932E+03   0.346E-01 0.125E-01 -.745E+01
   0.949E+01 0.529E+01 -.918E+03   -.951E+01 -.529E+01 0.910E+03   0.144E-01 -.233E-02 0.735E+01
   0.158E+02 -.520E+01 -.915E+03   -.158E+02 0.521E+01 0.908E+03   0.188E-01 -.885E-02 0.735E+01
   0.977E+01 0.993E+01 0.938E+03   -.981E+01 -.994E+01 -.931E+03   0.299E-01 0.922E-02 -.745E+01
   0.254E+02 0.186E+02 0.950E+03   -.256E+02 -.186E+02 -.942E+03   0.114E+00 0.331E-01 -.747E+01
   0.184E+02 0.158E+02 -.913E+03   -.185E+02 -.158E+02 0.906E+03   0.222E-01 0.335E-02 0.734E+01
   0.240E+02 0.201E+02 -.912E+03   -.240E+02 -.201E+02 0.904E+03   0.476E-01 0.508E-02 0.734E+01
   0.172E+02 0.973E+01 0.945E+03   -.173E+02 -.974E+01 -.937E+03   0.570E-01 0.126E-01 -.746E+01
   0.394E+02 0.477E+01 0.962E+03   -.396E+02 -.479E+01 -.954E+03   0.191E+00 0.172E-01 -.750E+01
   0.286E+02 0.429E+01 -.908E+03   -.286E+02 -.430E+01 0.900E+03   0.288E-01 0.730E-02 0.734E+01
   0.538E+02 0.225E+02 -.897E+03   -.538E+02 -.225E+02 0.889E+03   0.568E-01 0.930E-02 0.731E+01
   0.191E+02 -.486E+01 0.947E+03   -.192E+02 0.486E+01 -.939E+03   0.705E-01 -.170E-03 -.746E+01
   0.313E+02 -.168E+02 0.955E+03   -.315E+02 0.168E+02 -.948E+03   0.157E+00 -.307E-01 -.748E+01
   0.231E+02 -.140E+02 -.910E+03   -.232E+02 0.140E+02 0.902E+03   0.345E-01 -.509E-03 0.734E+01
   0.622E+02 -.117E+02 -.892E+03   -.623E+02 0.117E+02 0.884E+03   0.100E+00 0.104E-01 0.731E+01
   0.122E+02 -.120E+02 0.941E+03   -.122E+02 0.121E+02 -.933E+03   0.405E-01 -.150E-01 -.745E+01
   0.157E+02 -.127E+02 0.942E+03   -.157E+02 0.128E+02 -.934E+03   0.426E-01 -.321E-01 -.745E+01
   0.116E+02 -.114E+02 -.916E+03   -.117E+02 0.114E+02 0.909E+03   0.181E-01 -.781E-02 0.735E+01
   0.329E+02 -.257E+02 -.906E+03   -.330E+02 0.258E+02 0.898E+03   0.651E-01 -.159E-01 0.734E+01
   0.133E+02 -.528E+01 0.943E+03   -.134E+02 0.530E+01 -.935E+03   0.280E-01 -.153E-01 -.745E+01
   0.952E+01 0.126E+02 0.948E+03   -.955E+01 -.127E+02 -.940E+03   0.258E-01 0.773E-01 -.746E+01
   0.188E+02 0.132E+02 -.911E+03   -.188E+02 -.132E+02 0.904E+03   0.254E-01 0.255E-01 0.734E+01
   0.117E+02 -.106E+02 -.908E+03   -.117E+02 0.106E+02 0.901E+03   0.116E-01 -.659E-02 0.734E+01
   0.206E+02 0.226E+02 0.951E+03   -.207E+02 -.227E+02 -.943E+03   0.898E-01 0.842E-01 -.746E+01
   0.265E+02 0.457E+02 0.986E+03   -.268E+02 -.462E+02 -.978E+03   0.243E+00 0.313E+00 -.750E+01
   0.559E+02 0.506E+02 -.887E+03   -.561E+02 -.506E+02 0.880E+03   0.196E+00 0.556E-03 0.728E+01
   0.240E+02 0.540E+02 -.894E+03   -.241E+02 -.542E+02 0.886E+03   0.317E-01 0.174E+00 0.731E+01
   0.470E+02 0.254E+02 0.982E+03   -.475E+02 -.255E+02 -.974E+03   0.411E+00 0.906E-01 -.761E+01
   0.505E+02 0.115E+02 0.104E+04   -.512E+02 -.117E+02 -.103E+04   0.552E+00 0.125E+00 -.766E+01
   0.113E+03 0.144E+02 -.846E+03   -.113E+03 -.145E+02 0.839E+03   0.290E+00 0.363E-01 0.721E+01
   0.128E+03 0.927E+02 -.764E+03   -.130E+03 -.928E+02 0.757E+03   0.157E+01 0.731E-01 0.653E+01
   0.535E+02 -.141E+02 0.991E+03   -.541E+02 0.141E+02 -.983E+03   0.552E+00 -.363E-01 -.763E+01
   0.351E+02 -.449E+02 0.101E+04   -.355E+02 0.454E+02 -.100E+04   0.348E+00 -.392E+00 -.749E+01
   0.780E+02 -.504E+02 -.868E+03   -.783E+02 0.504E+02 0.860E+03   0.286E+00 -.107E-01 0.727E+01
   0.156E+03 -.488E+02 -.721E+03   -.159E+03 0.489E+02 0.714E+03   0.258E+01 -.348E-01 0.669E+01
   0.274E+02 -.286E+02 0.960E+03   -.275E+02 0.288E+02 -.952E+03   0.121E+00 -.122E+00 -.747E+01
   0.121E+02 -.255E+02 0.954E+03   -.121E+02 0.257E+02 -.947E+03   0.278E-01 -.132E+00 -.748E+01
   0.250E+02 -.284E+02 -.906E+03   -.250E+02 0.285E+02 0.898E+03   0.216E-01 -.541E-01 0.734E+01
   0.386E+02 -.776E+02 -.869E+03   -.386E+02 0.779E+02 0.862E+03   -.980E-02 -.286E+00 0.727E+01
   -.176E-02 -.745E+01 0.948E+03   0.172E-02 0.747E+01 -.940E+03   0.293E-04 -.174E-01 -.746E+01
   -.952E+01 0.126E+02 0.948E+03   0.955E+01 -.127E+02 -.940E+03   -.258E-01 0.774E-01 -.746E+01
   -.407E-02 0.219E+02 -.906E+03   0.401E-02 -.220E+02 0.898E+03   0.477E-04 0.620E-01 0.733E+01
   -.117E+02 -.106E+02 -.908E+03   0.117E+02 0.106E+02 0.901E+03   -.116E-01 -.658E-02 0.734E+01
   -.583E-02 0.364E+02 0.964E+03   0.574E-02 -.368E+02 -.956E+03   0.714E-04 0.350E+00 -.754E+01
   -.265E+02 0.457E+02 0.986E+03   0.268E+02 -.461E+02 -.978E+03   -.243E+00 0.313E+00 -.750E+01
   -.365E-01 0.133E+03 -.820E+03   0.361E-01 -.135E+03 0.813E+03   0.312E-03 0.163E+01 0.721E+01
   -.241E+02 0.539E+02 -.894E+03   0.241E+02 -.542E+02 0.886E+03   -.315E-01 0.174E+00 0.731E+01
   -.203E-01 0.474E+02 0.105E+04   0.198E-01 -.480E+02 -.104E+04   0.400E-03 0.463E+00 -.549E+01
   -.505E+02 0.115E+02 0.104E+04   0.512E+02 -.117E+02 -.103E+04   -.552E+00 0.125E+00 -.766E+01
   -.979E-01 0.196E+02 -.583E+03   0.971E-01 -.212E+02 0.579E+03   0.854E-03 0.142E+01 0.451E+01
   -.128E+03 0.927E+02 -.764E+03   0.130E+03 -.928E+02 0.757E+03   -.157E+01 0.735E-01 0.653E+01
   -.162E-01 -.272E+02 0.107E+04   0.157E-01 0.276E+02 -.106E+04   0.420E-03 -.312E+00 -.423E+01
   -.351E+02 -.449E+02 0.101E+04   0.355E+02 0.454E+02 -.100E+04   -.348E+00 -.393E+00 -.749E+01
   -.276E-01 -.162E+03 -.734E+03   0.275E-01 0.166E+03 0.727E+03   0.862E-04 -.247E+01 0.618E+01
   -.156E+03 -.488E+02 -.721E+03   0.159E+03 0.488E+02 0.715E+03   -.258E+01 -.353E-01 0.669E+01
[...]
   -.101E+02 0.914E+01 0.708E+03   0.101E+02 -.915E+01 -.712E+03   -.376E-01 0.167E-01 0.348E+01
   0.211E-02 0.632E+01 0.704E+03   -.206E-02 -.632E+01 -.708E+03   -.536E-04 0.719E-02 0.349E+01
   -.185E+02 0.966E+01 -.684E+03   0.185E+02 -.967E+01 0.688E+03   -.298E-01 0.856E-02 -.366E+01
   0.474E-02 0.256E+01 -.685E+03   -.466E-02 -.257E+01 0.690E+03   -.894E-04 0.717E-02 -.365E+01
   -.147E+02 0.235E+01 0.712E+03   0.147E+02 -.236E+01 -.716E+03   -.532E-01 0.110E-01 0.347E+01
   0.349E-02 0.607E+01 0.708E+03   -.342E-02 -.608E+01 -.712E+03   -.843E-04 0.108E-01 0.349E+01
   -.210E+02 -.474E+01 -.682E+03   0.210E+02 0.474E+01 0.687E+03   -.376E-01 0.543E-02 -.367E+01
   0.251E-02 -.831E+01 -.687E+03   -.247E-02 0.831E+01 0.691E+03   -.595E-04 -.150E-02 -.364E+01
   -.121E+02 -.802E+01 0.710E+03   0.121E+02 0.803E+01 -.714E+03   -.491E-01 -.144E-01 0.348E+01
   0.291E-02 -.296E+01 0.709E+03   -.287E-02 0.296E+01 -.713E+03   -.704E-04 0.831E-03 0.348E+01
   -.126E+02 -.117E+02 -.687E+03   0.126E+02 0.117E+02 0.691E+03   -.282E-01 -.115E-01 -.364E+01
   0.110E-02 -.709E+01 -.690E+03   -.107E-02 0.710E+01 0.694E+03   -.328E-04 -.817E-02 -.363E+01
   -.669E+01 -.666E+01 0.705E+03   0.671E+01 0.667E+01 -.709E+03   -.257E-01 -.177E-01 0.349E+01
   0.138E-02 -.762E+01 0.706E+03   -.135E-02 0.763E+01 -.710E+03   -.392E-04 -.126E-01 0.349E+01
   0.879E-05 -.373E+01 0.264E+01   0.958E-12 0.122E-11 0.209E-10   -.309E-03 0.373E+01 -.325E+01

 POSITION                                       TOTAL-FORCE (eV/Angst)
      8.45451      8.98915     13.34135         0.001168     -0.018805     -0.004539
      8.45464     10.77395     15.12987         0.000184     -0.109009      0.071655
      8.45667     13.37210     15.77041        -0.000877      0.079647      0.095714
      8.45496     12.78393     13.26751         0.001503     -0.034194     -0.057151
      0.00000      0.00000      9.00000        -0.004534      0.001835      0.375325
      2.11389      2.11389      9.00000        -0.009512     -0.003472      0.376519
      0.00000      2.11389     11.11389        -0.003751      0.000676     -0.344036
      2.11389      0.00000     11.11389        -0.005153      0.002330     -0.342412
      0.00000      4.22777      9.00000        -0.007885     -0.002502      0.376874
      2.11389      6.34166      9.00000        -0.029555     -0.008841      0.383824
      0.00000      6.34166     11.11389        -0.005115     -0.000663     -0.338699
      2.11389      4.22777     11.11389        -0.011798     -0.001071     -0.336296
      0.00000      8.45554      9.00000        -0.014939     -0.003416      0.379956
      2.11389     10.56943      9.00000        -0.050150     -0.005066      0.390498
      0.00000     10.56943     11.11389        -0.006116     -0.002095     -0.334126
      2.11389      8.45554     11.11389        -0.010092     -0.001837     -0.317740
      0.00000     12.68331      9.00000        -0.018287     -0.000068      0.380349
      2.11389     14.79720      9.00000        -0.040895      0.008578      0.384934
      0.00000     14.79720     11.11389        -0.008174     -0.000017     -0.337793
      2.11389     12.68331     11.11389        -0.020681     -0.003500     -0.316172
      0.00000     16.91108      9.00000        -0.010695      0.004183      0.377193
      2.11389     19.02497      9.00000        -0.011761      0.008828      0.376785
      0.00000     19.02497     11.11389        -0.004715      0.002150     -0.343512
      2.11389     16.91108     11.11389        -0.016032      0.004128     -0.333744
      4.22777      0.00000      9.00000        -0.007778      0.004011      0.377913
      6.34166      2.11389      9.00000        -0.007442     -0.020230      0.380710
      4.22777      2.11389     11.11389        -0.006907     -0.005988     -0.336969
      6.34166      0.00000     11.11389        -0.003132      0.001432     -0.336231
      4.22777      4.22777      9.00000        -0.025073     -0.023345      0.380098
      6.34166      6.34166      9.00000        -0.079671     -0.095863      0.374130
      4.22777      6.34166     11.11389        -0.042002      0.006231     -0.294291
      6.34166      4.22777     11.11389        -0.008086     -0.039195     -0.309841
      4.22777      8.45554      9.00000        -0.102911     -0.024036      0.413361
      6.34166     10.56943      9.00000        -0.182460     -0.042264      0.384669
      4.22777     10.56943     11.11389        -0.052351     -0.012631     -0.236453
      6.34166      8.45554     11.11389        -0.543069      0.003644     -0.079005
      4.22777     12.68331      9.00000        -0.136051      0.008646      0.417048
      6.34166     14.79720      9.00000        -0.112974      0.125214      0.362290
      4.22777     14.79720     11.11389        -0.064643     -0.001747     -0.282786
      6.34166     12.68331     11.11389        -0.930554     -0.011221     -0.227294
      4.22777     16.91108      9.00000        -0.034007      0.034166      0.381319
      6.34166     19.02497      9.00000        -0.007708      0.034087      0.384849
      4.22777     19.02497     11.11389        -0.005848      0.013036     -0.333802
      6.34166     16.91108     11.11389         0.009630      0.060108     -0.279641
      8.45554      0.00000      9.00000        -0.000009      0.004684      0.380016
     10.56943      2.11389      9.00000         0.007429     -0.020238      0.380707
      8.45554      2.11389     11.11389        -0.000011     -0.013540     -0.330635
     10.56943      0.00000     11.11389         0.003117      0.001427     -0.336231
      8.45554      4.22777      9.00000        -0.000023     -0.086303      0.395517
     10.56943      6.34166      9.00000         0.079620     -0.095916      0.374094
      8.45554      6.34166     11.11389        -0.000112     -0.469548     -0.204491
     10.56943      4.22777     11.11389         0.008052     -0.039268     -0.309865
      8.45554      8.45554      9.00000        -0.000127     -0.098838     -0.027992
     10.56943     10.56943      9.00000         0.182410     -0.042259      0.384605
      8.45554     10.56943     11.11389         0.000008     -0.148901     -0.132918
     10.56943      8.45554     11.11389         0.542188      0.003736     -0.078769
      8.45554     12.68331      9.00000        -0.000136      0.072500     -0.296784
     10.56943     14.79720      9.00000         0.112956      0.125277      0.362322
      8.45554     14.79720     11.11389         0.000049      0.968976     -0.198229
     10.56943     12.68331     11.11389         0.929858     -0.011047     -0.226742
[...]
     19.02497      6.34166     11.11389        -0.000018      0.001188      0.481541
     16.91108      6.34166      9.00000        -0.010398      0.004647     -0.519781
     19.02497      4.22777      9.00000        -0.000011      0.002020     -0.517313
     16.91108      8.45554     11.11389        -0.008343      0.002377      0.474817
     19.02497     10.56943     11.11389        -0.000017      0.001983      0.478431
     16.91108     10.56943      9.00000        -0.014717      0.003032     -0.522316
     19.02497      8.45554      9.00000        -0.000021      0.003010     -0.519368
     16.91108     12.68331     11.11389        -0.010563      0.001476      0.474020
     19.02497     14.79720     11.11389        -0.000021     -0.000422      0.480838
     16.91108     14.79720      9.00000        -0.013559     -0.004017     -0.520124
     19.02497     12.68331      9.00000        -0.000020      0.000203     -0.519470
     16.91108     16.91108     11.11389        -0.007811     -0.003195      0.481022
     19.02497     19.02497     11.11389        -0.000010     -0.002250      0.485047
     16.91108     19.02497      9.00000        -0.007066     -0.004856     -0.517115
     19.02497     16.91108      9.00000        -0.000008     -0.003505     -0.517511
    total drift:                               -0.000300     -0.001587     -0.605467

  FREE ENERGIE OF THE ION-ELECTRON SYSTEM (eV)
  free  energy   TOTEN  =     -1156.44614460 eV

  energy  without entropy=    -1156.44614460  energy(sigma->0) =    -1156.44614460