 vasp.6.4.0 14Feb23 (build Jul 14 2023 13:46:40) complex

 executed on             LinuxIFC date 2023.07.30  05:26:03

 INCAR:
   SYSTEM = MgO-rocksalt
   ISMEAR = 0
   SIGMA = 0.05
   EDIFF = 1E-6
   ALGO = ALL
   ISTART = 0
   IBRION = -1
   NSW = 0
   ISYM = 2
   DIPOL = 0.5 0.5 0.5
   IDIPOL = 3
   LDIPOL = .TRUE.
   METAGGA = TPSS
   ENCUT = 520
   PREC = Accurate
   LASPH = .TRUE.
   LREAL = Auto
   ISPIN = 1
   NELM = 200
   NELMIN = 8
   NCORE = 16
   KPAR = 1
   LWAVE = .FALSE.
   LCHARG = .FALSE.

 POTCAR:    PAW_PBE Ag 02Apr2005
 POTCAR:    PAW_PBE Mg_pv 13Apr2007
 POTCAR:    PAW_PBE O 08Apr2002
 POTCAR:    PAW_PBE Ag 02Apr2005
   VRHFIN =Ag : s1 d10

   TITEL  = PAW_PBE Ag 02Apr2005
   POMASS =  107.868; ZVAL   =   11.000    mass and valenz
   ENMAX  =  249.844; ENMIN  =  187.383 eV

   TITEL  = PAW_PBE Mg_pv 13Apr2007
   POMASS =   24.305; ZVAL   =    8.000    mass and valenz
   ENMAX  =  403.929; ENMIN  =  302.947 eV

   TITEL  = PAW_PBE O 08Apr2002
   POMASS =   16.000; ZVAL   =    6.000    mass and valenz
   ENMAX  =  400.000; ENMIN  =  300.000 eV

 Optimization of the real space projectors (new method)

 maximal supplied QI-value         = 15.12
 optimisation between [QCUT,QGAM] = [ 11.64, 23.28] = [ 37.95,151.78] Ry
 Optimized for a Real-space Cutoff    1.45 Angstroem

   l    n(q)    QCUT    max X(q) W(low)/X(q) W(high)/X(q)  e(spline)
   2      9    11.641    53.897    0.22E-03    0.42E-04    0.28E-06
   2      9    11.641    52.416    0.23E-03    0.44E-04    0.29E-06
   0     10    11.641   122.045    0.51E-04    0.25E-04    0.16E-06
   0     10    11.641    73.629    0.49E-04    0.24E-04    0.16E-06
   1     10    11.641    15.255    0.99E-04    0.55E-04    0.11E-06
   1     10    11.641     9.562    0.81E-04    0.47E-04    0.95E-07
 Optimization of the real space projectors (new method)

[...]

   l    n(q)    QCUT    max X(q) W(low)/X(q) W(high)/X(q)  e(spline)
   1      8    11.527     2.974    0.44E-04    0.56E-04    0.12E-06
   1      8    11.527     4.279    0.12E-03    0.12E-03    0.26E-06
   0      9    11.527    16.381    0.46E-04    0.64E-04    0.78E-07
   0      9    11.527     5.611    0.26E-04    0.43E-04    0.55E-07
   2      8    11.527     4.652    0.22E-03    0.72E-04    0.47E-07
 Optimization of the real space projectors (new method)

 maximal supplied QI-value         = 24.76
 optimisation between [QCUT,QGAM] = [ 11.64, 23.27] = [ 37.91,151.63] Ry
 Optimized for a Real-space Cutoff    1.14 Angstroem

   l    n(q)    QCUT    max X(q) W(low)/X(q) W(high)/X(q)  e(spline)
   0      8    11.635    20.381    0.10E-03    0.33E-03    0.24E-06
   0      8    11.635    15.268    0.11E-03    0.35E-03    0.26E-06
   1      7    11.635     5.964    0.24E-03    0.31E-03    0.30E-06
   1      7    11.635     5.382    0.22E-03    0.25E-03    0.26E-06
  PAW_PBE Ag 02Apr2005                  :
  PAW_PBE Mg_pv 13Apr2007               :
  PAW_PBE O 08Apr2002                   :

 POSCAR: Ag Mg  O
  positions in direct lattice
  velocities in cartesian coordinates

 METAGGA = TPSS                                        LMAXTAU =  6    LMIXTAU =  F

 ion  position               nearest neighbor table
   1  0.404  0.596  0.628-   2 2.63   4 2.74 157 2.77
   2  0.317  0.683  0.613- 138 2.50   1 2.63  59 3.04  40 3.04
   3  0.583  0.417  0.613- 173 2.50   4 2.63  75 3.04  56 3.04
   4  0.496  0.504  0.628-   3 2.63   1 2.74 154 2.77
   5  0.000  0.000  0.407- 107 2.11 108 2.11 123 2.11 188 2.11 105 2.11
   6  0.100  0.100  0.407- 107 2.11 108 2.11 112 2.11 127 2.11 106 2.11
   7  0.000  0.100  0.503- 105 2.11 106 2.11 109 2.11 186 2.11 107 2.11
   8  0.100  0.000  0.503- 105 2.11 106 2.11 122 2.11 125 2.11 108 2.11
   9  0.000  0.200  0.407- 111 2.11 107 2.11 112 2.11 192 2.11 109 2.11
  10  0.100  0.300  0.407- 112 2.11 111 2.11 116 2.11 131 2.11 110 2.11
  11  0.000  0.300  0.503- 109 2.11 110 2.11 113 2.11 190 2.11 111 2.11
  12  0.100  0.200  0.503- 110 2.11 109 2.11 106 2.11 129 2.11 112 2.11
  13  0.000  0.400  0.407- 111 2.11 115 2.11 116 2.11 196 2.11 113 2.11
  14  0.100  0.500  0.407- 115 2.11 116 2.11 120 2.11 135 2.11 114 2.11
  15  0.000  0.500  0.503- 113 2.11 114 2.11 117 2.11 194 2.11 115 2.11
  16  0.100  0.400  0.503- 110 2.11 113 2.11 114 2.11 133 2.11 116 2.11
  17  0.000  0.600  0.407- 115 2.11 119 2.11 120 2.11 200 2.11 117 2.11
  18  0.100  0.700  0.407- 124 2.11 120 2.11 119 2.11 139 2.11 118 2.11
  19  0.000  0.700  0.503- 121 2.11 118 2.11 117 2.11 198 2.11 119 2.11
  20  0.100  0.600  0.503- 114 2.11 117 2.11 118 2.11 137 2.11 120 2.11
  21  0.000  0.800  0.407- 119 2.11 123 2.11 124 2.11 204 2.11 121 2.11
  22  0.100  0.900  0.407- 108 2.11 123 2.11 124 2.11 143 2.11 122 2.11
  23  0.000  0.900  0.503- 105 2.11 121 2.11 122 2.11 202 2.11 123 2.11
  24  0.100  0.800  0.503- 118 2.11 121 2.11 122 2.11 141 2.11 124 2.11
  25  0.200  0.000  0.407- 128 2.11 127 2.11 108 2.11 143 2.11 125 2.11
  26  0.300  0.100  0.407- 127 2.11 128 2.11 132 2.11 147 2.11 126 2.11
  27  0.200  0.100  0.503- 126 2.11 125 2.11 106 2.11 129 2.11 127 2.11
  28  0.300  0.000  0.503- 125 2.11 126 2.11 142 2.11 145 2.11 128 2.11
  29  0.200  0.200  0.407- 131 2.11 132 2.11 112 2.11 127 2.11 129 2.11
  30  0.300  0.300  0.407- 131 2.11 132 2.11 136 2.11 151 2.11 130 2.11
  31  0.200  0.300  0.503- 129 2.11 130 2.11 110 2.11 133 2.11 131 2.11
  32  0.300  0.200  0.503- 129 2.11 130 2.11 126 2.11 149 2.11 132 2.11
  33  0.200  0.400  0.407- 136 2.11 131 2.11 135 2.11 116 2.11 133 2.11
  34  0.300  0.500  0.407- 135 2.11 136 2.11 140 2.11 155 2.11 134 2.11
  35  0.200  0.500  0.503- 134 2.11 133 2.11 114 2.11 137 2.11 135 2.11
  36  0.300  0.400  0.503- 133 2.11 130 2.11 134 2.11 153 2.11 136 2.11
  37  0.200  0.600  0.407- 140 2.11 135 2.11 139 2.11 120 2.11 137 2.11
  38  0.300  0.700  0.407- 139 2.11 144 2.11 140 2.11 159 2.11 138 2.11
  39  0.200  0.700  0.503- 138 2.11 141 2.11 118 2.11 137 2.11 139 2.11
  40  0.300  0.600  0.503- 137 2.11 134 2.11 138 2.11 157 2.11 140 2.11   2 3.04
  41  0.200  0.800  0.407- 139 2.11 144 2.11 143 2.11 124 2.11 141 2.11
  42  0.300  0.900  0.407- 143 2.11 128 2.11 144 2.11 163 2.11 142 2.11
  43  0.200  0.900  0.503- 142 2.11 125 2.11 141 2.11 122 2.11 143 2.11
  44  0.300  0.800  0.503- 138 2.11 141 2.11 142 2.11 161 2.11 144 2.11
  45  0.400  0.000  0.407- 128 2.11 147 2.11 148 2.11 163 2.11 145 2.11
  46  0.500  0.100  0.407- 147 2.11 148 2.11 152 2.11 167 2.11 146 2.11
  47  0.400  0.100  0.503- 126 2.11 145 2.11 146 2.11 149 2.11 147 2.11
  48  0.500  0.000  0.503- 145 2.11 146 2.11 162 2.11 165 2.11 148 2.11
  49  0.400  0.200  0.407- 151 2.11 147 2.11 132 2.11 152 2.11 149 2.11
  50  0.500  0.300  0.407- 152 2.11 151 2.11 156 2.11 171 2.11 150 2.11
  51  0.400  0.300  0.503- 149 2.11 130 2.11 150 2.11 153 2.11 151 2.11
  52  0.500  0.200  0.503- 150 2.11 149 2.11 146 2.11 169 2.11 152 2.11
  53  0.400  0.400  0.407- 136 2.11 151 2.11 155 2.11 156 2.11 153 2.11
  54  0.500  0.500  0.407- 155 2.11 156 2.11 160 2.11 175 2.11 154 2.11
  55  0.400  0.500  0.503- 134 2.11 153 2.11 154 2.11 157 2.11 155 2.11
  56  0.500  0.400  0.503- 150 2.11 153 2.11 154 2.11 173 2.11 156 2.11   3 3.04
  57  0.400  0.600  0.407- 140 2.11 155 2.11 159 2.11 160 2.11 157 2.11
  58  0.500  0.700  0.407- 164 2.11 160 2.11 159 2.11 179 2.11 158 2.11
  59  0.400  0.700  0.503- 161 2.11 157 2.11 158 2.11 138 2.11 159 2.11   2 3.04
  60  0.500  0.600  0.503- 154 2.11 157 2.11 158 2.11 177 2.11 160 2.11
[...]
 190  0.900  0.300  0.503-  92 2.11  91 2.11  11 2.11  96 2.11  90 2.11
 191  0.800  0.300  0.407-  70 2.11  89 2.11  90 2.11  93 2.11  91 2.11
 192  0.900  0.200  0.407-  90 2.11  86 2.11  89 2.11   9 2.11  92 2.11
 193  0.800  0.400  0.503-  76 2.11  91 2.11  95 2.11  96 2.11  93 2.11
 194  0.900  0.500  0.503-  15 2.11  95 2.11  96 2.11 100 2.11  94 2.11
 195  0.800  0.500  0.407-  74 2.11  93 2.11  94 2.11  97 2.11  95 2.11
 196  0.900  0.400  0.407-  13 2.11  90 2.11  93 2.11  94 2.11  96 2.11
 197  0.800  0.600  0.503-  80 2.11  95 2.11  99 2.11 100 2.11  97 2.11
 198  0.900  0.700  0.503- 104 2.11  99 2.11 100 2.11  19 2.11  98 2.11
 199  0.800  0.700  0.407-  78 2.11 101 2.11  98 2.11  97 2.11  99 2.11
 200  0.900  0.600  0.407-  17 2.11  94 2.11  97 2.11  98 2.11 100 2.11
 201  0.800  0.800  0.503-  84 2.11  99 2.11 103 2.11 104 2.11 101 2.11
 202  0.900  0.900  0.503-  23 2.11  88 2.11 103 2.11 104 2.11 102 2.11
 203  0.800  0.900  0.407-  82 2.11  85 2.11 101 2.11 102 2.11 103 2.11
 204  0.900  0.800  0.407-  98 2.11  21 2.11 101 2.11 102 2.11 104 2.11

  LATTYP: Found a simple tetragonal cell.
 ALAT       =    21.1388521970
 C/A-ratio  =     1.0461251639

  Lattice vectors:

 A1 = (  21.1388521970,   0.0000000000,   0.0000000000)
 A2 = (   0.0000000000,  21.1388521970,   0.0000000000)
 A3 = (   0.0000000000,   0.0000000000,  22.1138852197)

Analysis of symmetry for initial positions (statically):
 Subroutine PRICEL returns:
 Original cell was already a primitive cell.

 Routine SETGRP: Setting up the symmetry group for a
 simple tetragonal supercell.

 Subroutine GETGRP returns: Found  2 space group operations
 (whereof  1 operations were pure point group operations)
 out of a pool of 16 trial point group operations.

The static configuration has the point symmetry C_1 .
 The point group associated with its full space group is C_1h.

Analysis of symmetry for dynamics (positions and initial velocities):
 Subroutine PRICEL returns:
 Original cell was already a primitive cell.

[...]

The dynamic configuration has the point symmetry C_1 .
 The point group associated with its full space group is C_1h.

Analysis of constrained symmetry for selective dynamics:
 Subroutine PRICEL returns:
 Original cell was already a primitive cell.

 Routine SETGRP: Setting up the symmetry group for a
 simple tetragonal supercell.

 Subroutine GETGRP returns: Found  2 space group operations
 (whereof  1 operations were pure point group operations)
 out of a pool of 16 trial point group operations.

The constrained configuration has the point symmetry C_1 .
 The point group associated with its full space group is C_1h.

 Subroutine INISYM returns: Found  2 space group operations
 (whereof  1 operations are pure point group operations),
 and found     1 'primitive' translations

                                     Primitive cell

  volume of cell :    9881.6133

  direct lattice vectors                    reciprocal lattice vectors
    21.138852197  0.000000000  0.000000000     0.047306258  0.000000000  0.000000000
     0.000000000 21.138852197  0.000000000     0.000000000  0.047306258  0.000000000
     0.000000000  0.000000000 22.113885220     0.000000000  0.000000000  0.045220457

  length of vectors
    21.138852197 21.138852197 22.113885220     0.047306258  0.047306258  0.045220457

  position of ions in fractional coordinates (direct lattice)
     0.404209587  0.595838152  0.627872356
     0.316904301  0.683142271  0.613368187
     0.583141798  0.416904774  0.613368187
     0.495837679  0.504209587  0.627872356
     0.000000000  0.000000000  0.406984115
     0.100000000  0.100000000  0.406984115
     0.000000000  0.100000000  0.502574971
[...]
     52     -43.3242      2.00000
     53     -43.3224      2.00000
     54     -43.3223      2.00000
     55     -43.3204      2.00000
     56     -43.3204      2.00000
     57     -43.3202      2.00000
     58     -43.3164      2.00000
     59     -43.3148      2.00000
     60     -43.3148      2.00000
[...]
    882       6.3381      0.00000
    883       6.3583      0.00000
    884       6.3713      0.00000
    885       6.4429      0.00000
    886       6.4872      0.00000
    887       6.5412      0.00000
    888       6.5449      0.00000
    889       6.6196      0.00000
    890       6.6460      0.00000
    891       6.6767      0.00000
    892       6.7493      0.00000
    893       6.7638      0.00000
    894       6.8025      0.00000
    895       6.8786      0.00000
    896       6.9598      0.00000

 soft charge-density along one line, spin component           1
         0         1         2         3         4         5         6         7         8         9
 total charge-density along one line

------------------------ aborting loop because EDIFF is reached ----------------------------------------

  FORCE on cell =-STRESS in cart. coord.  units (eV):
  Direction    XX          YY          ZZ          XY          YZ          ZX
  Alpha Z  1401.13727  1401.13727  1401.13727
  Ewald  484692.10145484692.10210************ -1322.16574    -0.00388    -0.00457
  Hartree514157.20132514157.20166************ -1069.11851     0.00103     0.00109
  E(xc)   -8315.90264 -8315.90263 -8341.23699    -0.79363     0.00002     0.00002
  Local  ************************************  2383.30873     0.00065     0.00111
  n-local -8976.87062 -8976.87086 -9101.63979     1.68843     0.00002    -0.00024
  augment  4146.71026  4146.71026  4095.26351     1.63851     0.00128     0.00130
  Kinetic 23260.65860 23260.65889 23512.50971     5.55070     0.00078     0.00105
  Fock        0.00000     0.00000     0.00000     0.00000     0.00000     0.00000
  Total    -165.31636  -165.31636     8.52362     0.10849    -0.00017    -0.00017
  in kB     -26.80394   -26.80394     1.38200     0.01759    -0.00003    -0.00003

 VOLUME and BASIS-vectors are now :
  energy-cutoff  :      520.00
  volume of cell :     9881.61
      direct lattice vectors                 reciprocal lattice vectors
    21.138852197  0.000000000  0.000000000     0.047306258  0.000000000  0.000000000
     0.000000000 21.138852197  0.000000000     0.000000000  0.047306258  0.000000000
     0.000000000  0.000000000 22.113885220     0.000000000  0.000000000  0.045220457

  length of vectors
    21.138852197 21.138852197 22.113885220     0.047306258  0.047306258  0.045220457

 FORCES acting on ions:
    Electron-Ion                     Ewald-Force                    Non-Local-Force
   0.254E+02 -.254E+02 -.207E+04   -.273E+02 0.273E+02 0.207E+04   0.188E+01 -.188E+01 0.391E-03
   0.235E+03 -.235E+03 -.209E+04   -.231E+03 0.231E+03 0.209E+04   -.407E+01 0.407E+01 -.280E+00
   -.235E+03 0.235E+03 -.209E+04   0.231E+03 -.231E+03 0.209E+04   0.407E+01 -.407E+01 -.280E+00
   -.254E+02 0.254E+02 -.207E+04   0.273E+02 -.273E+02 0.207E+04   -.188E+01 0.188E+01 0.391E-03
   0.489E+01 -.489E+01 0.938E+03   -.492E+01 0.492E+01 -.930E+03   0.209E-01 -.209E-01 -.794E+01
   0.905E+01 0.161E+01 0.939E+03   -.905E+01 -.156E+01 -.931E+03   -.311E-02 -.391E-01 -.794E+01
   0.313E+01 0.314E+01 -.919E+03   -.312E+01 -.312E+01 0.911E+03   -.148E-01 -.148E-01 0.787E+01
   0.146E+02 -.117E+02 -.916E+03   -.146E+02 0.118E+02 0.908E+03   0.181E-01 -.716E-01 0.787E+01
   0.161E+01 0.905E+01 0.939E+03   -.156E+01 -.905E+01 -.931E+03   -.391E-01 -.311E-02 -.794E+01
   0.143E+02 0.157E+02 0.945E+03   -.142E+02 -.157E+02 -.937E+03   -.322E-01 0.165E-02 -.795E+01
   0.211E+01 0.156E+02 -.915E+03   -.203E+01 -.156E+02 0.907E+03   -.647E-01 -.149E-02 0.787E+01
   0.130E+02 0.130E+02 -.917E+03   -.129E+02 -.129E+02 0.908E+03   -.287E-01 -.287E-01 0.787E+01
   0.445E+01 0.112E+02 0.946E+03   -.438E+01 -.112E+02 -.938E+03   -.512E-01 0.121E-01 -.795E+01
   0.289E+02 0.120E+02 0.958E+03   -.289E+02 -.121E+02 -.950E+03   0.120E-01 0.780E-01 -.796E+01
   0.127E+02 0.836E+01 -.910E+03   -.127E+02 -.838E+01 0.901E+03   -.207E-01 0.186E-01 0.786E+01
   0.305E+02 0.240E+02 -.907E+03   -.304E+02 -.241E+02 0.899E+03   -.679E-01 0.288E-01 0.785E+01
   0.128E+02 -.212E+01 0.950E+03   -.129E+02 0.210E+01 -.942E+03   0.552E-01 0.221E-01 -.795E+01
   0.337E+02 -.125E+02 0.963E+03   -.340E+02 0.125E+02 -.955E+03   0.233E+00 0.322E-01 -.796E+01
   0.225E+02 -.126E+02 -.909E+03   -.226E+02 0.125E+02 0.901E+03   0.106E+00 0.157E-01 0.787E+01
   0.606E+02 0.529E+01 -.892E+03   -.608E+02 -.541E+01 0.884E+03   0.114E+00 0.916E-01 0.785E+01
   0.120E+02 -.133E+02 0.945E+03   -.121E+02 0.133E+02 -.937E+03   0.102E+00 -.102E-01 -.794E+01
   0.168E+02 -.168E+02 0.946E+03   -.169E+02 0.169E+02 -.938E+03   0.729E-01 -.729E-01 -.793E+01
   0.117E+02 -.146E+02 -.916E+03   -.118E+02 0.146E+02 0.908E+03   0.717E-01 -.181E-01 0.787E+01
   0.428E+02 -.304E+02 -.901E+03   -.431E+02 0.304E+02 0.893E+03   0.255E+00 -.201E-01 0.788E+01
   0.133E+02 -.120E+02 0.945E+03   -.133E+02 0.122E+02 -.937E+03   0.102E-01 -.102E+00 -.794E+01
   0.112E+02 0.445E+01 0.946E+03   -.112E+02 -.438E+01 -.938E+03   0.121E-01 -.512E-01 -.795E+01
   0.156E+02 0.211E+01 -.915E+03   -.156E+02 -.203E+01 0.907E+03   -.149E-02 -.647E-01 0.787E+01
   0.126E+02 -.225E+02 -.909E+03   -.125E+02 0.226E+02 0.901E+03   -.157E-01 -.106E+00 0.787E+01
   0.157E+02 0.143E+02 0.945E+03   -.157E+02 -.142E+02 -.937E+03   0.165E-02 -.322E-01 -.795E+01
   0.264E+02 0.335E+02 0.965E+03   -.264E+02 -.335E+02 -.956E+03   0.624E-01 -.966E-02 -.799E+01
   0.333E+02 0.333E+02 -.906E+03   -.333E+02 -.333E+02 0.898E+03   -.372E-01 -.372E-01 0.785E+01
   0.240E+02 0.305E+02 -.907E+03   -.241E+02 -.304E+02 0.899E+03   0.288E-01 -.679E-01 0.785E+01
   0.335E+02 0.264E+02 0.965E+03   -.335E+02 -.264E+02 -.956E+03   -.966E-02 0.624E-01 -.799E+01
   0.466E+02 0.293E+02 0.101E+04   -.467E+02 -.296E+02 -.101E+04   0.665E-01 0.268E+00 -.816E+01
   0.816E+02 0.439E+02 -.871E+03   -.814E+02 -.441E+02 0.863E+03   -.136E+00 0.205E+00 0.778E+01
   0.719E+02 0.719E+02 -.864E+03   -.718E+02 -.718E+02 0.856E+03   -.630E-01 -.630E-01 0.777E+01
   0.514E+02 0.399E+01 0.995E+03   -.516E+02 -.427E+01 -.986E+03   0.154E+00 0.213E+00 -.793E+01
   0.340E+02 -.340E+02 0.103E+04   -.340E+02 0.339E+02 -.102E+04   -.200E-01 0.199E-01 -.651E+01
   0.116E+03 -.393E+02 -.827E+03   -.117E+03 0.391E+02 0.819E+03   0.114E+01 0.167E+00 0.787E+01
   0.123E+03 0.488E+02 -.709E+03   -.123E+03 -.506E+02 0.703E+03   0.962E-01 0.126E+01 0.646E+01
   0.324E+02 -.324E+02 0.974E+03   -.326E+02 0.326E+02 -.966E+03   0.140E+00 -.140E+00 -.781E+01
   0.125E+02 -.337E+02 0.963E+03   -.125E+02 0.340E+02 -.955E+03   -.322E-01 -.233E+00 -.796E+01
   0.304E+02 -.428E+02 -.901E+03   -.304E+02 0.431E+02 0.893E+03   0.201E-01 -.255E+00 0.788E+01
   0.393E+02 -.116E+03 -.827E+03   -.391E+02 0.117E+03 0.819E+03   -.167E+00 -.114E+01 0.787E+01
   0.213E+01 -.128E+02 0.950E+03   -.210E+01 0.129E+02 -.942E+03   -.221E-01 -.551E-01 -.795E+01
   -.213E+01 0.128E+02 0.950E+03   0.210E+01 -.129E+02 -.942E+03   0.221E-01 0.552E-01 -.795E+01
   0.835E+01 0.127E+02 -.910E+03   -.838E+01 -.127E+02 0.901E+03   0.186E-01 -.207E-01 0.786E+01
   -.836E+01 -.128E+02 -.910E+03   0.838E+01 0.127E+02 0.901E+03   -.186E-01 0.208E-01 0.786E+01
   0.120E+02 0.289E+02 0.958E+03   -.121E+02 -.289E+02 -.950E+03   0.780E-01 0.120E-01 -.796E+01
   0.399E+01 0.514E+02 0.995E+03   -.427E+01 -.516E+02 -.986E+03   0.213E+00 0.154E+00 -.793E+01
   0.439E+02 0.816E+02 -.871E+03   -.441E+02 -.814E+02 0.863E+03   0.205E+00 -.136E+00 0.778E+01
   0.529E+01 0.606E+02 -.892E+03   -.541E+01 -.608E+02 0.884E+03   0.916E-01 0.114E+00 0.785E+01
   0.293E+02 0.466E+02 0.101E+04   -.296E+02 -.467E+02 -.101E+04   0.268E+00 0.665E-01 -.816E+01
   -.111E+02 0.111E+02 0.106E+04   0.109E+02 -.109E+02 -.105E+04   0.154E+00 -.154E+00 -.770E+01
   0.858E+02 0.858E+02 -.704E+03   -.863E+02 -.863E+02 0.697E+03   0.416E+00 0.416E+00 0.695E+01
   0.488E+02 0.123E+03 -.709E+03   -.506E+02 -.123E+03 0.703E+03   0.126E+01 0.962E-01 0.646E+01
   0.111E+02 -.111E+02 0.106E+04   -.109E+02 0.109E+02 -.105E+04   -.154E+00 0.154E+00 -.770E+01
   -.293E+02 -.466E+02 0.101E+04   0.296E+02 0.467E+02 -.101E+04   -.269E+00 -.665E-01 -.816E+01
   -.488E+02 -.123E+03 -.709E+03   0.506E+02 0.123E+03 0.703E+03   -.126E+01 -.962E-01 0.646E+01
   -.857E+02 -.857E+02 -.704E+03   0.863E+02 0.863E+02 0.697E+03   -.416E+00 -.416E+00 0.695E+01
[...]
   -.193E+02 0.147E+02 0.718E+03   0.194E+02 -.148E+02 -.722E+03   -.166E+00 0.616E-01 0.354E+01
   -.621E+01 0.833E+01 0.707E+03   0.625E+01 -.834E+01 -.711E+03   -.607E-01 0.305E-01 0.350E+01
   -.458E+02 0.136E+02 -.670E+03   0.460E+02 -.135E+02 0.674E+03   -.179E+00 -.725E-01 -.364E+01
   -.151E+02 0.147E+01 -.682E+03   0.151E+02 -.144E+01 0.686E+03   -.410E-01 -.348E-01 -.363E+01
   -.261E+02 -.707E+00 0.724E+03   0.261E+02 0.794E+00 -.728E+03   -.102E+00 -.111E+00 0.349E+01
   -.107E+02 0.733E+01 0.713E+03   0.107E+02 -.732E+01 -.717E+03   -.837E-01 -.119E-01 0.350E+01
   -.345E+02 -.150E+02 -.676E+03   0.345E+02 0.151E+02 0.680E+03   -.802E-02 -.962E-01 -.366E+01
   -.432E+01 -.110E+02 -.685E+03   0.428E+01 0.110E+02 0.690E+03   0.447E-01 -.680E-02 -.362E+01
   -.157E+02 -.126E+02 0.715E+03   0.157E+02 0.126E+02 -.719E+03   0.251E-01 -.310E-01 0.347E+01
   -.650E+01 -.442E+01 0.713E+03   0.649E+01 0.444E+01 -.717E+03   0.549E-02 -.245E-01 0.349E+01
   -.145E+02 -.157E+02 -.686E+03   0.144E+02 0.157E+02 0.690E+03   0.446E-01 0.156E-01 -.362E+01
   -.118E+01 -.845E+01 -.690E+03   0.115E+01 0.845E+01 0.694E+03   0.388E-01 0.466E-02 -.360E+01
   -.765E+01 -.764E+01 0.707E+03   0.763E+01 0.763E+01 -.711E+03   0.200E-01 0.200E-01 0.349E+01
   -.153E+01 -.923E+01 0.708E+03   0.148E+01 0.924E+01 -.712E+03   0.488E-01 -.405E-02 0.349E+01
   -.733E+00 0.733E+00 0.154E+02   0.385E-11 -.112E-11 -.944E-11   -.856E-03 -.856E-03 -.161E+02

 POSITION                                       TOTAL-FORCE (eV/Angst)
      8.54453     12.59533     13.88470        -0.011243      0.010864      0.012230
      6.69899     14.44084     13.56395         0.015553     -0.016125      0.033941
     12.32695      8.81289     13.56395        -0.016125      0.015553      0.033941
     10.48144     10.65841     13.88470         0.010864     -0.011243      0.012230
      0.00000      0.00000      9.00000        -0.005841      0.005830      0.408167
      2.11389      2.11389      9.00000         0.000793      0.010431      0.409651
      0.00000      2.11389     11.11389         0.003915      0.003915     -0.387842
      2.11389      0.00000     11.11389        -0.005307      0.019095     -0.387129
      0.00000      4.22777      9.00000         0.010431      0.000793      0.409651
      2.11389      6.34166      9.00000         0.008801     -0.000002      0.412958
      0.00000      6.34166     11.11389         0.017167      0.000673     -0.385334
      2.11389      4.22777     11.11389         0.007956      0.007956     -0.385665
      0.00000      8.45554      9.00000         0.013247     -0.003070      0.411186
      2.11389     10.56943      9.00000        -0.004776     -0.022114      0.413660
      0.00000     10.56943     11.11389         0.005794     -0.005035     -0.380890
      2.11389      8.45554     11.11389         0.018804     -0.006505     -0.377138
      0.00000     12.68331      9.00000        -0.014736     -0.006652      0.411376
      2.11389     14.79720      9.00000        -0.059884     -0.009633      0.409948
      0.00000     14.79720     11.11389        -0.027322     -0.004816     -0.382877
      2.11389     12.68331     11.11389        -0.031058     -0.026725     -0.367915
      0.00000     16.91108      9.00000        -0.026874      0.003096      0.409234
      2.11389     19.02497      9.00000        -0.021376      0.021377      0.403468
      0.00000     19.02497     11.11389        -0.019080      0.005314     -0.387133
      2.11389     16.91108     11.11389        -0.069214      0.006656     -0.384382
      4.22777      0.00000      9.00000        -0.003092      0.026860      0.409251
      6.34166      2.11389      9.00000        -0.003070      0.013247      0.411186
      4.22777      2.11389     11.11389         0.000673      0.017167     -0.385334
      6.34166      0.00000     11.11389         0.004838      0.027297     -0.382868
      4.22777      4.22777      9.00000        -0.000002      0.008801      0.412958
      6.34166      6.34166      9.00000        -0.015204      0.003212      0.424500
      4.22777      6.34166     11.11389         0.011462      0.011462     -0.375519
      6.34166      4.22777     11.11389        -0.006505      0.018804     -0.377138
      4.22777      8.45554      9.00000         0.003212     -0.015204      0.424500
      6.34166     10.56943      9.00000        -0.017199     -0.070263      0.454633
      4.22777     10.56943     11.11389         0.047736     -0.045726     -0.323159
      6.34166      8.45554     11.11389         0.025187      0.025187     -0.322256
      4.22777     12.68331      9.00000        -0.049223     -0.068525      0.392543
      6.34166     14.79720      9.00000         0.006461     -0.006392      0.062090
      4.22777     14.79720     11.11389        -0.378602     -0.056102     -0.421067
      6.34166     12.68331     11.11389        -0.036569     -0.507895     -0.119743
      4.22777     16.91108      9.00000        -0.047645      0.047665      0.363622
      6.34166     19.02497      9.00000         0.009680      0.059910      0.409946
      4.22777     19.02497     11.11389        -0.006630      0.069198     -0.384368
      6.34166     16.91108     11.11389         0.056123      0.378696     -0.421107
      8.45554      0.00000      9.00000         0.006646      0.014740      0.411385
     10.56943      2.11389      9.00000        -0.006652     -0.014736      0.411376
      8.45554      2.11389     11.11389        -0.005035      0.005794     -0.380890
     10.56943      0.00000     11.11389         0.005069     -0.005830     -0.380898
      8.45554      4.22777      9.00000        -0.022114     -0.004776      0.413660
     10.56943      6.34166      9.00000        -0.068525     -0.049223      0.392543
      8.45554      6.34166     11.11389        -0.045726      0.047736     -0.323159
     10.56943      4.22777     11.11389        -0.026725     -0.031058     -0.367915
      8.45554      8.45554      9.00000        -0.070263     -0.017199      0.454633
     10.56943     10.56943      9.00000        -0.050346      0.050398      0.305617
      8.45554     10.56943     11.11389        -0.147930     -0.147930     -0.130818
     10.56943      8.45554     11.11389        -0.507895     -0.036569     -0.119743
      8.45554     12.68331      9.00000         0.050398     -0.050346      0.305617
     10.56943     14.79720      9.00000         0.070281      0.017187      0.454675
      8.45554     14.79720     11.11389         0.508265      0.036635     -0.119770
     10.56943     12.68331     11.11389         0.148094      0.148094     -0.130682
[...]
     19.02497      6.34166     11.11389        -0.024760      0.003095      0.498138
     16.91108      6.34166      9.00000        -0.046738      0.017009     -0.512583
     19.02497      4.22777      9.00000        -0.016800      0.008437     -0.521764
     16.91108      8.45554     11.11389        -0.052786     -0.019542      0.490844
     19.02497     10.56943     11.11389        -0.011578     -0.009675      0.492944
     16.91108     10.56943      9.00000        -0.030557     -0.030594     -0.524214
     19.02497      8.45554      9.00000        -0.023380     -0.003289     -0.523014
     16.91108     12.68331     11.11389        -0.003229     -0.027159      0.483058
     19.02497     14.79720     11.11389         0.012333     -0.001826      0.495279
     16.91108     14.79720      9.00000         0.006752     -0.008750     -0.528938
     19.02497     12.68331      9.00000         0.001458     -0.006752     -0.525725
     16.91108     16.91108     11.11389         0.012184      0.004192      0.494466
     19.02497     19.02497     11.11389         0.010662      0.001231      0.499734
     16.91108     19.02497      9.00000         0.005433      0.005433     -0.524563
     19.02497     16.91108      9.00000         0.013458     -0.001157     -0.524028
    total drift:                               -0.733661      0.732431     -0.710562

  FREE ENERGIE OF THE ION-ELECTRON SYSTEM (eV)
  free  energy   TOTEN  =     -1796.53079413 eV

  energy  without entropy=    -1796.53079413  energy(sigma->0) =    -1796.53079413