 vasp.6.3.0 20Jan22 (build Apr  1 2022 16:44:48) complex
 executed on        HPECrayEX_GCC date 2022.12.11  17:23:50

 INCAR:
   SYSTEM = MgO-rocksalt
   ISMEAR = 0
   SIGMA = 0.05
   EDIFF = 1E-6
   ALGO = ALL
   ISTART = 0
   IBRION = -1
   NSW = 0
   ISYM = 2
   DIPOL = 0.5 0.5 0.5
   IDIPOL = 3
   LDIPOL = .TRUE.
   METAGGA = R2SCAN
   IVDW = 12
   VDW_S8 = 0.7898
   VDW_A1 = 0.4948
   VDW_A2 = 5.7308
   ENCUT = 520
   PREC = Accurate
   LASPH = .TRUE.
   LREAL = Auto
   ISPIN = 1
   NELM = 200
   NELMIN = 8
   NCORE = 4
   KPAR = 2
   LWAVE = .FALSE.
   LCHARG = .FALSE.

 POTCAR:    PAW_PBE Cu 22Jun2005
 POTCAR:    PAW_PBE Mg_pv 13Apr2007
 POTCAR:    PAW_PBE O 08Apr2002
 POTCAR:    PAW_PBE Cu 22Jun2005
   VRHFIN =Cu: d10 p1

   TITEL  = PAW_PBE Cu 22Jun2005
   POMASS =   63.546; ZVAL   =   11.000    mass and valenz
   ENMAX  =  295.446; ENMIN  =  221.585 eV

   TITEL  = PAW_PBE Mg_pv 13Apr2007
   POMASS =   24.305; ZVAL   =    8.000    mass and valenz
   ENMAX  =  403.929; ENMIN  =  302.947 eV

   TITEL  = PAW_PBE O 08Apr2002
   POMASS =   16.000; ZVAL   =    6.000    mass and valenz
   ENMAX  =  400.000; ENMIN  =  300.000 eV

 Optimization of the real space projectors (new method)

 maximal supplied QI-value         = 16.25
 optimisation between [QCUT,QGAM] = [ 11.54, 23.24] = [ 37.28,151.24] Ry
 Optimized for a Real-space Cutoff    1.53 Angstroem

   l    n(q)    QCUT    max X(q) W(low)/X(q) W(high)/X(q)  e(spline)
   2     10    11.539     4.610    0.96E-04    0.13E-03    0.19E-06
   2     10    11.539     8.522    0.16E-03    0.21E-03    0.28E-06
   0     11    11.539    51.609    0.45E-04    0.31E-04    0.11E-06
   0     11    11.539    27.747    0.39E-04    0.29E-04    0.10E-06
   1     10    11.539    20.408    0.70E-05    0.38E-04    0.18E-06
   1     10    11.539    13.425    0.66E-05    0.34E-04    0.17E-06
 Optimization of the real space projectors (new method)

[...]

   l    n(q)    QCUT    max X(q) W(low)/X(q) W(high)/X(q)  e(spline)
   1      8    11.527     2.974    0.44E-04    0.56E-04    0.12E-06
   1      8    11.527     4.279    0.12E-03    0.12E-03    0.26E-06
   0      9    11.527    16.381    0.46E-04    0.64E-04    0.78E-07
   0      9    11.527     5.611    0.26E-04    0.43E-04    0.55E-07
   2      8    11.527     4.652    0.22E-03    0.72E-04    0.47E-07
 Optimization of the real space projectors (new method)

 maximal supplied QI-value         = 24.76
 optimisation between [QCUT,QGAM] = [ 11.64, 23.27] = [ 37.91,151.63] Ry
 Optimized for a Real-space Cutoff    1.14 Angstroem

   l    n(q)    QCUT    max X(q) W(low)/X(q) W(high)/X(q)  e(spline)
   0      8    11.635    20.381    0.10E-03    0.33E-03    0.24E-06
   0      8    11.635    15.268    0.11E-03    0.35E-03    0.26E-06
   1      7    11.635     5.964    0.24E-03    0.31E-03    0.30E-06
   1      7    11.635     5.382    0.22E-03    0.25E-03    0.26E-06
  PAW_PBE Cu 22Jun2005                  :
  PAW_PBE Mg_pv 13Apr2007               :
  PAW_PBE O 08Apr2002                   :

 POSCAR: Cu Mg  O
  positions in direct lattice

 METAGGA = R2SCA    LMAXTAU =  6    LMIXTAU =  F

 ion  position               nearest neighbor table
   1  0.500  0.600  0.727-   2 2.22
   2  0.500  0.600  0.627-   1 2.22
   3  0.000  0.000  0.407- 105 2.11 106 2.11 121 2.11 186 2.11 103 2.11
   4  0.100  0.100  0.407- 105 2.11 106 2.11 110 2.11 125 2.11 104 2.11
   5  0.000  0.100  0.503- 103 2.11 104 2.11 107 2.11 184 2.11 105 2.11
   6  0.100  0.000  0.503- 103 2.11 104 2.11 120 2.11 123 2.11 106 2.11
   7  0.000  0.200  0.407- 109 2.11 105 2.11 110 2.11 190 2.11 107 2.11
   8  0.100  0.300  0.407- 110 2.11 109 2.11 114 2.11 129 2.11 108 2.11
   9  0.000  0.300  0.503- 107 2.11 108 2.11 111 2.11 188 2.11 109 2.11
  10  0.100  0.200  0.503- 108 2.11 107 2.11 104 2.11 127 2.11 110 2.11
  11  0.000  0.400  0.407- 109 2.11 113 2.11 114 2.11 194 2.11 111 2.11
  12  0.100  0.500  0.407- 113 2.11 114 2.11 118 2.11 133 2.11 112 2.11
  13  0.000  0.500  0.503- 111 2.11 112 2.11 115 2.11 192 2.11 113 2.11
  14  0.100  0.400  0.503- 108 2.11 111 2.11 112 2.11 131 2.11 114 2.11
  15  0.000  0.600  0.407- 113 2.11 117 2.11 118 2.11 198 2.11 115 2.11
  16  0.100  0.700  0.407- 122 2.11 118 2.11 117 2.11 137 2.11 116 2.11
  17  0.000  0.700  0.503- 119 2.11 116 2.11 115 2.11 196 2.11 117 2.11
  18  0.100  0.600  0.503- 112 2.11 115 2.11 116 2.11 135 2.11 118 2.11
  19  0.000  0.800  0.407- 117 2.11 121 2.11 122 2.11 202 2.11 119 2.11
  20  0.100  0.900  0.407- 106 2.11 121 2.11 122 2.11 141 2.11 120 2.11
  21  0.000  0.900  0.503- 103 2.11 119 2.11 120 2.11 200 2.11 121 2.11
  22  0.100  0.800  0.503- 116 2.11 119 2.11 120 2.11 139 2.11 122 2.11
  23  0.200  0.000  0.407- 126 2.11 125 2.11 106 2.11 141 2.11 123 2.11
  24  0.300  0.100  0.407- 125 2.11 126 2.11 130 2.11 145 2.11 124 2.11
  25  0.200  0.100  0.503- 124 2.11 123 2.11 104 2.11 127 2.11 125 2.11
  26  0.300  0.000  0.503- 123 2.11 124 2.11 140 2.11 143 2.11 126 2.11
  27  0.200  0.200  0.407- 129 2.11 130 2.11 110 2.11 125 2.11 127 2.11
  28  0.300  0.300  0.407- 129 2.11 130 2.11 134 2.11 149 2.11 128 2.11
  29  0.200  0.300  0.503- 127 2.11 128 2.11 108 2.11 131 2.11 129 2.11
  30  0.300  0.200  0.503- 127 2.11 128 2.11 124 2.11 147 2.11 130 2.11
  31  0.200  0.400  0.407- 134 2.11 129 2.11 133 2.11 114 2.11 131 2.11
  32  0.300  0.500  0.407- 133 2.11 134 2.11 138 2.11 153 2.11 132 2.11
  33  0.200  0.500  0.503- 132 2.11 131 2.11 112 2.11 135 2.11 133 2.11
  34  0.300  0.400  0.503- 131 2.11 128 2.11 132 2.11 151 2.11 134 2.11
  35  0.200  0.600  0.407- 138 2.11 133 2.11 137 2.11 118 2.11 135 2.11
  36  0.300  0.700  0.407- 137 2.11 142 2.11 138 2.11 157 2.11 136 2.11
  37  0.200  0.700  0.503- 136 2.11 139 2.11 116 2.11 135 2.11 137 2.11
  38  0.300  0.600  0.503- 135 2.11 132 2.11 136 2.11 155 2.11 138 2.11
  39  0.200  0.800  0.407- 137 2.11 142 2.11 141 2.11 122 2.11 139 2.11
  40  0.300  0.900  0.407- 141 2.11 126 2.11 142 2.11 161 2.11 140 2.11
  41  0.200  0.900  0.503- 140 2.11 123 2.11 139 2.11 120 2.11 141 2.11
  42  0.300  0.800  0.503- 136 2.11 139 2.11 140 2.11 159 2.11 142 2.11
  43  0.400  0.000  0.407- 126 2.11 145 2.11 146 2.11 161 2.11 143 2.11
  44  0.500  0.100  0.407- 145 2.11 146 2.11 150 2.11 165 2.11 144 2.11
  45  0.400  0.100  0.503- 124 2.11 143 2.11 144 2.11 147 2.11 145 2.11
  46  0.500  0.000  0.503- 143 2.11 144 2.11 160 2.11 163 2.11 146 2.11
  47  0.400  0.200  0.407- 149 2.11 145 2.11 130 2.11 150 2.11 147 2.11
  48  0.500  0.300  0.407- 150 2.11 149 2.11 154 2.11 169 2.11 148 2.11
  49  0.400  0.300  0.503- 147 2.11 128 2.11 148 2.11 151 2.11 149 2.11
  50  0.500  0.200  0.503- 148 2.11 147 2.11 144 2.11 167 2.11 150 2.11
  51  0.400  0.400  0.407- 134 2.11 149 2.11 153 2.11 154 2.11 151 2.11
  52  0.500  0.500  0.407- 153 2.11 154 2.11 158 2.11 173 2.11 152 2.11
  53  0.400  0.500  0.503- 132 2.11 151 2.11 152 2.11 155 2.11 153 2.11
  54  0.500  0.400  0.503- 148 2.11 151 2.11 152 2.11 171 2.11 154 2.11
  55  0.400  0.600  0.407- 138 2.11 153 2.11 157 2.11 158 2.11 155 2.11
  56  0.500  0.700  0.407- 162 2.11 158 2.11 157 2.11 177 2.11 156 2.11
  57  0.400  0.700  0.503- 159 2.11 155 2.11 156 2.11 136 2.11 157 2.11
  58  0.500  0.600  0.503- 152 2.11 155 2.11 156 2.11 175 2.11 158 2.11
  59  0.400  0.800  0.407- 157 2.11 142 2.11 161 2.11 162 2.11 159 2.11
  60  0.500  0.900  0.407- 146 2.11 161 2.11 162 2.11 181 2.11 160 2.11
[...]
 188  0.900  0.300  0.503-  90 2.11  89 2.11   9 2.11  94 2.11  88 2.11
 189  0.800  0.300  0.407-  68 2.11  87 2.11  88 2.11  91 2.11  89 2.11
 190  0.900  0.200  0.407-  88 2.11  84 2.11  87 2.11   7 2.11  90 2.11
 191  0.800  0.400  0.503-  74 2.11  89 2.11  93 2.11  94 2.11  91 2.11
 192  0.900  0.500  0.503-  13 2.11  93 2.11  94 2.11  98 2.11  92 2.11
 193  0.800  0.500  0.407-  72 2.11  91 2.11  92 2.11  95 2.11  93 2.11
 194  0.900  0.400  0.407-  11 2.11  88 2.11  91 2.11  92 2.11  94 2.11
 195  0.800  0.600  0.503-  78 2.11  93 2.11  97 2.11  98 2.11  95 2.11
 196  0.900  0.700  0.503- 102 2.11  97 2.11  98 2.11  17 2.11  96 2.11
 197  0.800  0.700  0.407-  76 2.11  99 2.11  96 2.11  95 2.11  97 2.11
 198  0.900  0.600  0.407-  15 2.11  92 2.11  95 2.11  96 2.11  98 2.11
 199  0.800  0.800  0.503-  82 2.11  97 2.11 101 2.11 102 2.11  99 2.11
 200  0.900  0.900  0.503-  21 2.11  86 2.11 101 2.11 102 2.11 100 2.11
 201  0.800  0.900  0.407-  80 2.11  83 2.11  99 2.11 100 2.11 101 2.11
 202  0.900  0.800  0.407-  96 2.11  19 2.11  99 2.11 100 2.11 102 2.11

  LATTYP: Found a simple tetragonal cell.
 ALAT       =    21.1388521970
 C/A-ratio  =     1.0461251639

  Lattice vectors:

 A1 = (  21.1388521970,   0.0000000000,   0.0000000000)
 A2 = (   0.0000000000,  21.1388521970,   0.0000000000)
 A3 = (   0.0000000000,   0.0000000000,  22.1138852197)

Analysis of symmetry for initial positions (statically):
 Subroutine PRICEL returns:
 Original cell was already a primitive cell.

 Routine SETGRP: Setting up the symmetry group for a
 simple tetragonal supercell.

 Subroutine GETGRP returns: Found  8 space group operations
 (whereof  2 operations were pure point group operations)
 out of a pool of 16 trial point group operations.

The static configuration has the point symmetry C_1h.
 The point group associated with its full space group is C_4v.

Analysis of symmetry for dynamics (positions and initial velocities):
 Subroutine PRICEL returns:
 Original cell was already a primitive cell.

 Routine SETGRP: Setting up the symmetry group for a
 simple tetragonal supercell.

 Subroutine GETGRP returns: Found  8 space group operations
 (whereof  2 operations were pure point group operations)
 out of a pool of 16 trial point group operations.

The dynamic configuration has the point symmetry C_1h.
 The point group associated with its full space group is C_4v.

 Subroutine INISYM returns: Found  8 space group operations
 (whereof  2 operations are pure point group operations),
 and found     1 'primitive' translations

                                     Primitive cell

  volume of cell :    9881.6133

  direct lattice vectors                    reciprocal lattice vectors
    21.138852197  0.000000000  0.000000000     0.047306258  0.000000000  0.000000000
     0.000000000 21.138852197  0.000000000     0.000000000  0.047306258  0.000000000
     0.000000000  0.000000000 22.113885220     0.000000000  0.000000000  0.045220457

  length of vectors
    21.138852197 21.138852197 22.113885220     0.047306258  0.047306258  0.045220457

  position of ions in fractional coordinates (direct lattice)
     0.499999974  0.599999938  0.727338351
     0.499999974  0.599999938  0.626793897
     0.000000000  0.000000000  0.406984115
     0.100000000  0.100000000  0.406984115
     0.000000000  0.100000000  0.502574971
     0.100000000  0.000000000  0.502574971
     0.000000000  0.200000000  0.406984115
     0.100000000  0.300000000  0.406984115
     0.000000000  0.300000000  0.502574971
     0.100000000  0.200000000  0.502574971
     0.000000000  0.400000000  0.406984115
     0.100000000  0.500000000  0.406984115
     0.000000000  0.500000000  0.502574971
     0.100000000  0.400000000  0.502574971
[...]
    893       6.2325      0.00000
    894       6.2398      0.00000
    895       6.2412      0.00000
    896       6.2437      0.00000

 soft charge-density along one line, spin component           1
         0         1         2         3         4         5         6         7         8         9
 total charge-density along one line

------------------------ aborting loop because EDIFF is reached ----------------------------------------

 WARNING: Using user supplied parameters
     VDW_A1 = 0.495
     VDW_A2 = 5.731
     VDW_S8 = 0.79
     because the xc functional is not supported. Required parameters not
     defined in the INCAR file will be replaced with PBE defaults ones.

         DFTD3 V3.0 Rev 1
 IVDW         = 12
 DF unknown
 parameters
 VDW_S6       =    1.0000
 VDW_S8       =    0.7898
 VDW_A1       =    0.4948
 VDW_A2       =    5.7308
 k1-k3        =   16.0000    1.3333   -4.0000
 VDW_RADIUS   =   50.2022 A
 VDW_CNRADIUS =   21.1671 A
 Edisp (eV)  -12.56725

 E6    (eV) :    -8.5104
 E8    (eV) :    -4.0568
 % E8        : 32.28

  FORCE on cell =-STRESS in cart. coord.  units (eV):
  Direction    XX          YY          ZZ          XY          YZ          ZX
  Alpha Z  1354.41543  1354.41543  1354.41543
  Ewald  475029.56835475029.56835************     0.00000    -0.00002    -0.00001
  Hartree504158.16883504158.16875************     0.00000    -0.00002    -0.00001
  E(xc)   -8412.81169 -8412.81166 -8413.37202    -0.00000    -0.00000    -0.00000
  Local  ************************************    -0.00000     0.00004     0.00002
  n-local -8732.45855 -8732.45850 -8859.57989    -0.00000     0.00000    -0.00000
  augment  3889.22537  3889.22654  3824.90258     0.00000     0.00000    -0.00004
  Kinetic 22920.41741 22920.41735 23141.84839    -0.00001     0.00000     0.00002
  Fock        0.00000     0.00000     0.00000     0.00000     0.00000     0.00000
  vdW       -13.13760   -13.13760    -2.45649    -0.00000     0.00000     0.00000
  Total    -236.30538  -236.30538   -20.39736     0.00000     0.00000     0.00000
  in kB     -38.31390   -38.31390    -3.30717     0.00000     0.00000     0.00000

 VOLUME and BASIS-vectors are now :
  energy-cutoff  :      520.00
  volume of cell :     9881.61
      direct lattice vectors                 reciprocal lattice vectors
    21.138852197  0.000000000  0.000000000     0.047306258  0.000000000  0.000000000
     0.000000000 21.138852197  0.000000000     0.000000000  0.047306258  0.000000000
     0.000000000  0.000000000 22.113885220     0.000000000  0.000000000  0.045220457

  length of vectors
    21.138852197 21.138852197 22.113885220     0.047306258  0.047306258  0.045220457

 FORCES acting on ions:
    Electron-Ion                     Ewald-Force                    Non-Local-Force
   0.173E-03 0.548E-07 -.178E+04   -.169E-07 -.399E-07 0.177E+04   0.000E+00 0.000E+00 0.139E+02
   0.178E-03 0.795E-05 -.169E+04   -.312E-05 -.740E-05 0.170E+04   0.000E+00 0.000E+00 -.132E+02
   0.535E-04 -.303E+01 0.931E+03   -.952E-06 0.304E+01 -.923E+03   0.000E+00 -.250E-02 -.753E+01
   0.303E+01 -.318E-03 0.931E+03   -.304E+01 -.226E-05 -.923E+03   0.250E-02 -.339E-20 -.753E+01
   0.531E-04 -.318E-03 -.923E+03   -.103E-05 -.245E-05 0.915E+03   0.000E+00 0.000E+00 0.757E+01
   0.443E+01 -.443E+01 -.922E+03   -.443E+01 0.443E+01 0.914E+03   0.168E-02 -.168E-02 0.757E+01
   0.535E-04 0.303E+01 0.931E+03   -.952E-06 -.304E+01 -.923E+03   0.000E+00 0.250E-02 -.753E+01
   0.474E+01 0.591E+01 0.933E+03   -.475E+01 -.591E+01 -.925E+03   0.644E-02 0.619E-02 -.753E+01
   0.540E-04 0.639E+01 -.921E+03   -.171E-05 -.639E+01 0.913E+03   0.000E+00 0.198E-02 0.757E+01
   0.443E+01 0.443E+01 -.922E+03   -.443E+01 -.443E+01 0.914E+03   0.168E-02 0.168E-02 0.757E+01
   0.543E-04 0.532E+01 0.933E+03   -.177E-05 -.533E+01 -.925E+03   0.339E-20 0.442E-02 -.754E+01
   0.848E+01 0.414E+01 0.937E+03   -.851E+01 -.414E+01 -.929E+03   0.209E-01 0.461E-02 -.754E+01
   0.557E-04 0.441E+01 -.919E+03   -.324E-05 -.441E+01 0.911E+03   -.339E-20 0.129E-02 0.756E+01
   0.953E+01 0.843E+01 -.919E+03   -.954E+01 -.844E+01 0.911E+03   0.607E-02 0.277E-02 0.756E+01
   0.549E-04 -.323E-03 0.935E+03   -.242E-05 0.230E-05 -.927E+03   -.339E-20 0.000E+00 -.754E+01
   0.848E+01 -.414E+01 0.937E+03   -.851E+01 0.414E+01 -.929E+03   0.209E-01 -.461E-02 -.754E+01
   0.557E-04 -.441E+01 -.919E+03   -.324E-05 0.441E+01 0.911E+03   0.000E+00 -.129E-02 0.756E+01
   0.142E+02 -.324E-03 -.916E+03   -.142E+02 0.387E-05 0.908E+03   0.111E-01 -.847E-21 0.756E+01
   0.543E-04 -.532E+01 0.933E+03   -.177E-05 0.533E+01 -.925E+03   0.000E+00 -.442E-02 -.754E+01
   0.474E+01 -.591E+01 0.933E+03   -.475E+01 0.591E+01 -.925E+03   0.644E-02 -.619E-02 -.753E+01
   0.540E-04 -.639E+01 -.921E+03   -.171E-05 0.639E+01 0.913E+03   0.000E+00 -.198E-02 0.757E+01
   0.953E+01 -.843E+01 -.919E+03   -.954E+01 0.844E+01 0.911E+03   0.607E-02 -.277E-02 0.756E+01
   0.591E+01 -.474E+01 0.933E+03   -.591E+01 0.475E+01 -.925E+03   0.619E-02 -.644E-02 -.753E+01
   0.532E+01 -.316E-03 0.933E+03   -.533E+01 -.419E-05 -.925E+03   0.442E-02 0.847E-21 -.754E+01
   0.639E+01 -.316E-03 -.921E+03   -.639E+01 -.406E-05 0.913E+03   0.198E-02 0.508E-20 0.757E+01
   0.843E+01 -.953E+01 -.919E+03   -.844E+01 0.954E+01 0.911E+03   0.277E-02 -.607E-02 0.756E+01
   0.591E+01 0.474E+01 0.933E+03   -.591E+01 -.475E+01 -.925E+03   0.619E-02 0.644E-02 -.753E+01
   0.951E+01 0.124E+02 0.939E+03   -.953E+01 -.124E+02 -.931E+03   0.182E-01 0.271E-01 -.754E+01
   0.118E+02 0.118E+02 -.918E+03   -.118E+02 -.118E+02 0.910E+03   0.615E-02 0.615E-02 0.756E+01
   0.843E+01 0.953E+01 -.919E+03   -.844E+01 -.954E+01 0.911E+03   0.277E-02 0.607E-02 0.756E+01
   0.124E+02 0.951E+01 0.939E+03   -.124E+02 -.953E+01 -.931E+03   0.271E-01 0.182E-01 -.754E+01
   0.221E+02 0.114E+02 0.955E+03   -.223E+02 -.115E+02 -.947E+03   0.937E-01 0.538E-01 -.757E+01
   0.275E+02 0.104E+02 -.909E+03   -.276E+02 -.104E+02 0.901E+03   0.322E-01 0.384E-02 0.755E+01
   0.262E+02 0.262E+02 -.904E+03   -.263E+02 -.263E+02 0.896E+03   0.271E-01 0.271E-01 0.754E+01
   0.185E+02 -.325E-03 0.945E+03   -.186E+02 0.458E-05 -.936E+03   0.865E-01 0.339E-20 -.756E+01
   0.221E+02 -.114E+02 0.955E+03   -.223E+02 0.115E+02 -.947E+03   0.937E-01 -.538E-01 -.757E+01
   0.275E+02 -.104E+02 -.909E+03   -.276E+02 0.104E+02 0.901E+03   0.322E-01 -.384E-02 0.755E+01
   0.560E+02 -.338E-03 -.880E+03   -.564E+02 0.178E-04 0.872E+03   0.289E+00 0.169E-20 0.750E+01
   0.124E+02 -.951E+01 0.939E+03   -.124E+02 0.953E+01 -.931E+03   0.271E-01 -.182E-01 -.754E+01
   0.951E+01 -.124E+02 0.939E+03   -.953E+01 0.124E+02 -.931E+03   0.182E-01 -.271E-01 -.754E+01
   0.118E+02 -.118E+02 -.918E+03   -.118E+02 0.118E+02 0.910E+03   0.615E-02 -.615E-02 0.756E+01
   0.262E+02 -.262E+02 -.904E+03   -.263E+02 0.263E+02 0.896E+03   0.271E-01 -.271E-01 0.754E+01
   0.414E+01 -.848E+01 0.937E+03   -.414E+01 0.851E+01 -.929E+03   0.461E-02 -.209E-01 -.754E+01
   0.526E-04 -.315E-03 0.935E+03   0.970E-06 -.573E-05 -.927E+03   0.000E+00 -.339E-20 -.754E+01
   0.441E+01 -.313E-03 -.919E+03   -.441E+01 -.767E-05 0.911E+03   0.129E-02 0.254E-20 0.756E+01
   0.523E-04 -.142E+02 -.916E+03   0.164E-05 0.142E+02 0.908E+03   0.000E+00 -.111E-01 0.756E+01
   0.414E+01 0.848E+01 0.937E+03   -.414E+01 -.851E+01 -.929E+03   0.461E-02 0.209E-01 -.754E+01
   0.519E-04 0.185E+02 0.945E+03   0.193E-05 -.186E+02 -.936E+03   0.000E+00 0.865E-01 -.756E+01
   0.104E+02 0.275E+02 -.909E+03   -.104E+02 -.276E+02 0.901E+03   0.384E-02 0.322E-01 0.755E+01
   0.523E-04 0.142E+02 -.916E+03   0.163E-05 -.142E+02 0.908E+03   -.339E-20 0.111E-01 0.756E+01
   0.114E+02 0.221E+02 0.955E+03   -.115E+02 -.223E+02 -.947E+03   0.538E-01 0.937E-01 -.757E+01
   0.489E-04 0.229E+02 0.983E+03   0.603E-05 -.229E+02 -.975E+03   0.000E+00 0.531E-01 -.730E+01
   0.514E+02 0.514E+02 -.846E+03   -.517E+02 -.517E+02 0.838E+03   0.226E+00 0.226E+00 0.745E+01
   0.486E-04 0.560E+02 -.880E+03   0.753E-05 -.564E+02 0.872E+03   -.339E-20 0.289E+00 0.750E+01
   0.229E+02 -.334E-03 0.983E+03   -.229E+02 0.143E-04 -.975E+03   0.531E-01 -.254E-20 -.730E+01
   0.489E-04 -.229E+02 0.983E+03   0.603E-05 0.229E+02 -.975E+03   0.000E+00 -.531E-01 -.730E+01
   0.514E+02 -.514E+02 -.846E+03   -.517E+02 0.517E+02 0.838E+03   0.226E+00 -.226E+00 0.745E+01
   0.250E-04 -.413E-03 -.711E+03   0.389E-04 0.922E-04 0.703E+03   -.339E-20 -.339E-20 0.694E+01
   0.114E+02 -.221E+02 0.955E+03   -.115E+02 0.223E+02 -.947E+03   0.538E-01 -.937E-01 -.757E+01
   0.519E-04 -.185E+02 0.945E+03   0.193E-05 0.186E+02 -.936E+03   0.339E-20 -.865E-01 -.756E+01
[...]
   -.630E+01 0.630E+01 0.703E+03   0.631E+01 -.631E+01 -.707E+03   -.139E-01 0.139E-01 0.344E+01
   -.260E+01 0.260E+01 0.700E+03   0.261E+01 -.261E+01 -.704E+03   -.381E-02 0.381E-02 0.345E+01
   -.143E+02 0.106E+02 -.687E+03   0.143E+02 -.106E+02 0.691E+03   -.191E-01 0.153E-01 -.350E+01
   -.956E+01 0.424E+01 -.689E+03   0.956E+01 -.425E+01 0.693E+03   -.100E-01 0.347E-02 -.349E+01
   -.124E+02 0.493E+01 0.709E+03   0.125E+02 -.495E+01 -.713E+03   -.461E-01 0.237E-01 0.343E+01
   -.498E+01 0.474E+01 0.703E+03   0.499E+01 -.474E+01 -.707E+03   -.116E-01 0.928E-02 0.344E+01
   -.238E+02 -.157E-02 -.681E+03   0.238E+02 0.558E-05 0.685E+03   -.391E-01 -.212E-20 -.353E+01
   -.956E+01 -.425E+01 -.689E+03   0.956E+01 0.425E+01 0.693E+03   -.100E-01 -.347E-02 -.349E+01
   -.124E+02 -.493E+01 0.709E+03   0.125E+02 0.495E+01 -.713E+03   -.461E-01 -.237E-01 0.343E+01
   -.697E+01 -.156E-02 0.705E+03   0.698E+01 0.210E-05 -.708E+03   -.189E-01 0.805E-20 0.344E+01
   -.143E+02 -.106E+02 -.687E+03   0.143E+02 0.106E+02 0.691E+03   -.191E-01 -.153E-01 -.350E+01
   -.481E+01 -.576E+01 -.692E+03   0.481E+01 0.576E+01 0.696E+03   -.423E-02 -.446E-02 -.348E+01
   -.630E+01 -.630E+01 0.703E+03   0.631E+01 0.631E+01 -.707E+03   -.139E-01 -.139E-01 0.344E+01
   -.498E+01 -.474E+01 0.703E+03   0.499E+01 0.474E+01 -.707E+03   -.116E-01 -.928E-02 0.344E+01
   -.990E-02 -.190E+00 0.406E+01   0.115E-11 0.103E-11 0.134E-10   -.538E-16 0.833E-16 -.136E+01

 POSITION                                       TOTAL-FORCE (eV/Angst)
     10.56943     12.68331     16.08428         0.000000      0.000000     -0.272726
     10.56943     12.68331     13.86085         0.000000      0.000000      0.167703
      0.00000      0.00000      9.00000         0.000000      0.000690      0.526551
      2.11389      2.11389      9.00000        -0.000690      0.000000      0.526551
      0.00000      2.11389     11.11389         0.000000      0.000000     -0.497822
      2.11389      0.00000     11.11389        -0.000420      0.000420     -0.497324
      0.00000      4.22777      9.00000         0.000000     -0.000690      0.526551
      2.11389      6.34166      9.00000        -0.001746     -0.001707      0.527158
      0.00000      6.34166     11.11389         0.000000     -0.000525     -0.497025
      2.11389      4.22777     11.11389        -0.000420     -0.000420     -0.497324
      0.00000      8.45554      9.00000         0.000000     -0.001232      0.527399
      2.11389     10.56943      9.00000        -0.005543     -0.001334      0.528692
      0.00000     10.56943     11.11389         0.000000     -0.000358     -0.495465
      2.11389      8.45554     11.11389        -0.001343     -0.000708     -0.495103
      0.00000     12.68331      9.00000         0.000000      0.000000      0.527928
      2.11389     14.79720      9.00000        -0.005543      0.001334      0.528692
      0.00000     14.79720     11.11389         0.000000      0.000358     -0.495465
      2.11389     12.68331     11.11389        -0.002134      0.000000     -0.493131
      0.00000     16.91108      9.00000         0.000000      0.001232      0.527399
      2.11389     19.02497      9.00000        -0.001746      0.001707      0.527158
      0.00000     19.02497     11.11389         0.000000      0.000525     -0.497025
      2.11389     16.91108     11.11389        -0.001343      0.000708     -0.495103
      4.22777      0.00000      9.00000        -0.001707      0.001746      0.527158
      6.34166      2.11389      9.00000        -0.001232      0.000000      0.527399
      4.22777      2.11389     11.11389        -0.000525      0.000000     -0.497025
      6.34166      0.00000     11.11389        -0.000708      0.001343     -0.495103
      4.22777      4.22777      9.00000        -0.001707     -0.001746      0.527158
      6.34166      6.34166      9.00000        -0.005082     -0.007356      0.529347
      4.22777      6.34166     11.11389        -0.001382     -0.001382     -0.494616
      6.34166      4.22777     11.11389        -0.000708     -0.001343     -0.495103
      4.22777      8.45554      9.00000        -0.007356     -0.005082      0.529347
      6.34166     10.56943      9.00000        -0.026243     -0.016980      0.533436
      4.22777     10.56943     11.11389        -0.006547     -0.000738     -0.486293
      6.34166      8.45554     11.11389        -0.004669     -0.004669     -0.481111
      4.22777     12.68331      9.00000        -0.021831      0.000000      0.534064
      6.34166     14.79720      9.00000        -0.026243      0.016980      0.533436
      4.22777     14.79720     11.11389        -0.006547      0.000738     -0.486293
      6.34166     12.68331     11.11389        -0.078235      0.000000     -0.446459
      4.22777     16.91108      9.00000        -0.007356      0.005082      0.529347
      6.34166     19.02497      9.00000        -0.005082      0.007356      0.529347
      4.22777     19.02497     11.11389        -0.001382      0.001382     -0.494616
      6.34166     16.91108     11.11389        -0.004669      0.004669     -0.481111
      8.45554      0.00000      9.00000        -0.001334      0.005543      0.528692
     10.56943      2.11389      9.00000         0.000000      0.000000      0.527928
      8.45554      2.11389     11.11389        -0.000358      0.000000     -0.495465
     10.56943      0.00000     11.11389         0.000000      0.002134     -0.493131
      8.45554      4.22777      9.00000        -0.001334     -0.005543      0.528692
     10.56943      6.34166      9.00000         0.000000     -0.021831      0.534064
      8.45554      6.34166     11.11389        -0.000738     -0.006547     -0.486293
     10.56943      4.22777     11.11389         0.000000     -0.002134     -0.493131
      8.45554      8.45554      9.00000        -0.016980     -0.026243      0.533436
     10.56943     10.56943      9.00000         0.000000     -0.011556      0.458555
      8.45554     10.56943     11.11389        -0.060667     -0.060667     -0.415344
     10.56943      8.45554     11.11389         0.000000     -0.078235     -0.446459
      8.45554     12.68331      9.00000        -0.011556      0.000000      0.458555
     10.56943     14.79720      9.00000         0.000000      0.011556      0.458555
      8.45554     14.79720     11.11389        -0.060667      0.060667     -0.415344
     10.56943     12.68331     11.11389         0.000000      0.000000     -0.986241
      8.45554     16.91108      9.00000        -0.016980      0.026243      0.533436
     10.56943     19.02497      9.00000         0.000000      0.021831      0.534064
[...]
     19.02497      6.34166     11.11389        -0.001188      0.001261      0.341165
     16.91108      6.34166      9.00000        -0.003894      0.003894     -0.372740
     19.02497      4.22777      9.00000        -0.001067      0.001067     -0.371475
     16.91108      8.45554     11.11389        -0.005433      0.004350      0.335706
     19.02497     10.56943     11.11389        -0.002895      0.001010      0.338116
     16.91108     10.56943      9.00000        -0.012832      0.006564     -0.375825
     19.02497      8.45554      9.00000        -0.003242      0.002604     -0.372602
     16.91108     12.68331     11.11389        -0.011496      0.000000      0.328424
     19.02497     14.79720     11.11389        -0.002895     -0.001010      0.338116
     16.91108     14.79720      9.00000        -0.012832     -0.006564     -0.375825
     19.02497     12.68331      9.00000        -0.005307      0.000000     -0.373693
     16.91108     16.91108     11.11389        -0.005433     -0.004350      0.335706
     19.02497     19.02497     11.11389        -0.001188     -0.001261      0.341165
     16.91108     19.02497      9.00000        -0.003894     -0.003894     -0.372740
     19.02497     16.91108      9.00000        -0.003242     -0.002604     -0.372602
    total drift:                               -0.009898     -0.189564      2.704861

  FREE ENERGIE OF THE ION-ELECTRON SYSTEM (eV)
  free  energy   TOTEN  =     -1578.96096519 eV

  energy  without entropy=    -1578.96096519  energy(sigma->0) =    -1578.96096519