 vasp.6.3.0 20Jan22 (build Apr  1 2022 16:44:48) complex
 executed on        HPECrayEX_GCC date 2023.01.09  10:56:14

 INCAR:
   SYSTEM = MgO-rocksalt
   ISMEAR = 0
   SIGMA = 0.05
   EDIFF = 1E-6
   ALGO = ALL
   ISTART = 0
   IBRION = -1
   NSW = 0
   ISYM = 2
   DIPOL = 0.5 0.5 0.5
   IDIPOL = 3
   LDIPOL = .TRUE.
   GGA = PE
   IVDW = 212
   LVDWEXPANSION = .TRUE.
   ENCUT = 520
   PREC = Accurate
   LASPH = .TRUE.
   LREAL = Auto
   ISPIN = 1
   NELM = 200
   NELMIN = 8
   NCORE = 4
   KPAR = 2
   LWAVE = .FALSE.
   LCHARG = .FALSE.

 POTCAR:    PAW_PBE Au 04Oct2007
 POTCAR:    PAW_PBE Mg_pv 13Apr2007
 POTCAR:    PAW_PBE O 08Apr2002
 POTCAR:    PAW_PBE Au 04Oct2007
   VRHFIN =Au: s1d10

   TITEL  = PAW_PBE Au 04Oct2007
   POMASS =  196.966; ZVAL   =   11.000    mass and valenz
   ENMAX  =  229.943; ENMIN  =  172.457 eV

   TITEL  = PAW_PBE Mg_pv 13Apr2007
   POMASS =   24.305; ZVAL   =    8.000    mass and valenz
   ENMAX  =  403.929; ENMIN  =  302.947 eV

   TITEL  = PAW_PBE O 08Apr2002
   POMASS =   16.000; ZVAL   =    6.000    mass and valenz
   ENMAX  =  400.000; ENMIN  =  300.000 eV

 Optimization of the real space projectors (new method)

 maximal supplied QI-value         = 15.12
 optimisation between [QCUT,QGAM] = [ 11.64, 23.28] = [ 37.95,151.78] Ry
 Optimized for a Real-space Cutoff    1.49 Angstroem

   l    n(q)    QCUT    max X(q) W(low)/X(q) W(high)/X(q)  e(spline)
   2      9    11.641    60.898    0.24E-03    0.10E-03    0.19E-06
   2      9    11.641    58.894    0.25E-03    0.10E-03    0.19E-06
   0     10    11.641   109.617    0.73E-04    0.33E-04    0.11E-06
   0     10    11.641    75.026    0.71E-04    0.32E-04    0.11E-06
   1     10    11.641    16.344    0.27E-04    0.97E-04    0.16E-06
   1     10    11.641    10.160    0.23E-04    0.77E-04    0.13E-06
 Optimization of the real space projectors (new method)

[...]

   l    n(q)    QCUT    max X(q) W(low)/X(q) W(high)/X(q)  e(spline)
   1      8    11.527     2.974    0.44E-04    0.56E-04    0.12E-06
   1      8    11.527     4.279    0.12E-03    0.12E-03    0.26E-06
   0      9    11.527    16.381    0.46E-04    0.64E-04    0.78E-07
   0      9    11.527     5.611    0.26E-04    0.43E-04    0.55E-07
   2      8    11.527     4.652    0.22E-03    0.72E-04    0.47E-07
 Optimization of the real space projectors (new method)

 maximal supplied QI-value         = 24.76
 optimisation between [QCUT,QGAM] = [ 11.64, 23.27] = [ 37.91,151.63] Ry
 Optimized for a Real-space Cutoff    1.14 Angstroem

   l    n(q)    QCUT    max X(q) W(low)/X(q) W(high)/X(q)  e(spline)
   0      8    11.635    20.381    0.10E-03    0.33E-03    0.24E-06
   0      8    11.635    15.268    0.11E-03    0.35E-03    0.26E-06
   1      7    11.635     5.964    0.24E-03    0.31E-03    0.30E-06
   1      7    11.635     5.382    0.22E-03    0.25E-03    0.26E-06
  PAW_PBE Au 04Oct2007                  :
  PAW_PBE Mg_pv 13Apr2007               :
  PAW_PBE O 08Apr2002                   :

 POSCAR: Au Mg  O
  positions in direct lattice
  velocities in cartesian coordinates
 exchange correlation table for  LEXCH =        8
   RHO(1)=    0.500       N(1)  =     2000
   RHO(2)=  100.500       N(2)  =     4000

 ion  position               nearest neighbor table
   1  0.290  0.507  0.638-   2 2.69   3 2.71
   2  0.397  0.442  0.618-   1 2.69   4 2.69 153 2.70   3 2.70  55 2.83
   3  0.397  0.569  0.609- 157 2.45   2 2.70   1 2.71   4 2.71  55 2.78
   4  0.505  0.506  0.637-   2 2.69   3 2.71
   5  0.000  0.000  0.407- 107 2.11 108 2.11 123 2.11 188 2.11 105 2.11
   6  0.100  0.100  0.407- 107 2.11 108 2.11 112 2.11 127 2.11 106 2.11
   7  0.000  0.100  0.503- 105 2.11 106 2.11 109 2.11 186 2.11 107 2.11
   8  0.100  0.000  0.503- 105 2.11 106 2.11 122 2.11 125 2.11 108 2.11
   9  0.000  0.200  0.407- 111 2.11 107 2.11 112 2.11 192 2.11 109 2.11
  10  0.100  0.300  0.407- 112 2.11 111 2.11 116 2.11 131 2.11 110 2.11
  11  0.000  0.300  0.503- 109 2.11 110 2.11 113 2.11 190 2.11 111 2.11
  12  0.100  0.200  0.503- 110 2.11 109 2.11 106 2.11 129 2.11 112 2.11
  13  0.000  0.400  0.407- 111 2.11 115 2.11 116 2.11 196 2.11 113 2.11
  14  0.100  0.500  0.407- 115 2.11 116 2.11 120 2.11 135 2.11 114 2.11
  15  0.000  0.500  0.503- 113 2.11 114 2.11 117 2.11 194 2.11 115 2.11
  16  0.100  0.400  0.503- 110 2.11 113 2.11 114 2.11 133 2.11 116 2.11
  17  0.000  0.600  0.407- 115 2.11 119 2.11 120 2.11 200 2.11 117 2.11
  18  0.100  0.700  0.407- 124 2.11 120 2.11 119 2.11 139 2.11 118 2.11
  19  0.000  0.700  0.503- 121 2.11 118 2.11 117 2.11 198 2.11 119 2.11
  20  0.100  0.600  0.503- 114 2.11 117 2.11 118 2.11 137 2.11 120 2.11
  21  0.000  0.800  0.407- 119 2.11 123 2.11 124 2.11 204 2.11 121 2.11
  22  0.100  0.900  0.407- 108 2.11 123 2.11 124 2.11 143 2.11 122 2.11
  23  0.000  0.900  0.503- 105 2.11 121 2.11 122 2.11 202 2.11 123 2.11
  24  0.100  0.800  0.503- 118 2.11 121 2.11 122 2.11 141 2.11 124 2.11
  25  0.200  0.000  0.407- 128 2.11 127 2.11 108 2.11 143 2.11 125 2.11
  26  0.300  0.100  0.407- 127 2.11 128 2.11 132 2.11 147 2.11 126 2.11
  27  0.200  0.100  0.503- 126 2.11 125 2.11 106 2.11 129 2.11 127 2.11
  28  0.300  0.000  0.503- 125 2.11 126 2.11 142 2.11 145 2.11 128 2.11
  29  0.200  0.200  0.407- 131 2.11 132 2.11 112 2.11 127 2.11 129 2.11
  30  0.300  0.300  0.407- 131 2.11 132 2.11 136 2.11 151 2.11 130 2.11
  31  0.200  0.300  0.503- 129 2.11 130 2.11 110 2.11 133 2.11 131 2.11
  32  0.300  0.200  0.503- 129 2.11 130 2.11 126 2.11 149 2.11 132 2.11
  33  0.200  0.400  0.407- 136 2.11 131 2.11 135 2.11 116 2.11 133 2.11
  34  0.300  0.500  0.407- 135 2.11 136 2.11 140 2.11 155 2.11 134 2.11
  35  0.200  0.500  0.503- 134 2.11 133 2.11 114 2.11 137 2.11 135 2.11
  36  0.300  0.400  0.503- 133 2.11 130 2.11 134 2.11 153 2.11 136 2.11
  37  0.200  0.600  0.407- 140 2.11 135 2.11 139 2.11 120 2.11 137 2.11
  38  0.300  0.700  0.407- 139 2.11 144 2.11 140 2.11 159 2.11 138 2.11
  39  0.200  0.700  0.503- 138 2.11 141 2.11 118 2.11 137 2.11 139 2.11
  40  0.300  0.600  0.503- 137 2.11 134 2.11 138 2.11 157 2.11 140 2.11
  41  0.200  0.800  0.407- 139 2.11 144 2.11 143 2.11 124 2.11 141 2.11
  42  0.300  0.900  0.407- 143 2.11 128 2.11 144 2.11 163 2.11 142 2.11
  43  0.200  0.900  0.503- 142 2.11 125 2.11 141 2.11 122 2.11 143 2.11
  44  0.300  0.800  0.503- 138 2.11 141 2.11 142 2.11 161 2.11 144 2.11
  45  0.400  0.000  0.407- 128 2.11 147 2.11 148 2.11 163 2.11 145 2.11
  46  0.500  0.100  0.407- 147 2.11 148 2.11 152 2.11 167 2.11 146 2.11
  47  0.400  0.100  0.503- 126 2.11 145 2.11 146 2.11 149 2.11 147 2.11
  48  0.500  0.000  0.503- 145 2.11 146 2.11 162 2.11 165 2.11 148 2.11
  49  0.400  0.200  0.407- 151 2.11 147 2.11 132 2.11 152 2.11 149 2.11
  50  0.500  0.300  0.407- 152 2.11 151 2.11 156 2.11 171 2.11 150 2.11
  51  0.400  0.300  0.503- 149 2.11 130 2.11 150 2.11 153 2.11 151 2.11
  52  0.500  0.200  0.503- 150 2.11 149 2.11 146 2.11 169 2.11 152 2.11
  53  0.400  0.400  0.407- 136 2.11 151 2.11 155 2.11 156 2.11 153 2.11
  54  0.500  0.500  0.407- 155 2.11 156 2.11 160 2.11 175 2.11 154 2.11
  55  0.400  0.500  0.503- 134 2.11 153 2.11 154 2.11 157 2.11 155 2.11   3 2.78   2 2.83
  56  0.500  0.400  0.503- 150 2.11 153 2.11 154 2.11 173 2.11 156 2.11
  57  0.400  0.600  0.407- 140 2.11 155 2.11 159 2.11 160 2.11 157 2.11
  58  0.500  0.700  0.407- 164 2.11 160 2.11 159 2.11 179 2.11 158 2.11
  59  0.400  0.700  0.503- 161 2.11 157 2.11 158 2.11 138 2.11 159 2.11
  60  0.500  0.600  0.503- 154 2.11 157 2.11 158 2.11 177 2.11 160 2.11
[...]
 190  0.900  0.300  0.503-  92 2.11  91 2.11  11 2.11  96 2.11  90 2.11
 191  0.800  0.300  0.407-  70 2.11  89 2.11  90 2.11  93 2.11  91 2.11
 192  0.900  0.200  0.407-  90 2.11  86 2.11  89 2.11   9 2.11  92 2.11
 193  0.800  0.400  0.503-  76 2.11  91 2.11  95 2.11  96 2.11  93 2.11
 194  0.900  0.500  0.503-  15 2.11  95 2.11  96 2.11 100 2.11  94 2.11
 195  0.800  0.500  0.407-  74 2.11  93 2.11  94 2.11  97 2.11  95 2.11
 196  0.900  0.400  0.407-  13 2.11  90 2.11  93 2.11  94 2.11  96 2.11
 197  0.800  0.600  0.503-  80 2.11  95 2.11  99 2.11 100 2.11  97 2.11
 198  0.900  0.700  0.503- 104 2.11  99 2.11 100 2.11  19 2.11  98 2.11
 199  0.800  0.700  0.407-  78 2.11 101 2.11  98 2.11  97 2.11  99 2.11
 200  0.900  0.600  0.407-  17 2.11  94 2.11  97 2.11  98 2.11 100 2.11
 201  0.800  0.800  0.503-  84 2.11  99 2.11 103 2.11 104 2.11 101 2.11
 202  0.900  0.900  0.503-  23 2.11  88 2.11 103 2.11 104 2.11 102 2.11
 203  0.800  0.900  0.407-  82 2.11  85 2.11 101 2.11 102 2.11 103 2.11
 204  0.900  0.800  0.407-  98 2.11  21 2.11 101 2.11 102 2.11 104 2.11

  LATTYP: Found a simple tetragonal cell.
 ALAT       =    21.1388521970
 C/A-ratio  =     1.0461251639

  Lattice vectors:

 A1 = (  21.1388521970,   0.0000000000,   0.0000000000)
 A2 = (   0.0000000000,  21.1388521970,   0.0000000000)
 A3 = (   0.0000000000,   0.0000000000,  22.1138852197)

Analysis of symmetry for initial positions (statically):
 Subroutine PRICEL returns:
 Original cell was already a primitive cell.

 Routine SETGRP: Setting up the symmetry group for a
 simple tetragonal supercell.

 Subroutine GETGRP returns: Found  1 space group operations
 (whereof  1 operations were pure point group operations)
 out of a pool of 16 trial point group operations.

The static configuration has the point symmetry C_1 .

Analysis of symmetry for dynamics (positions and initial velocities):
 Subroutine PRICEL returns:
 Original cell was already a primitive cell.

[...]

The dynamic configuration has the point symmetry C_1 .

Analysis of constrained symmetry for selective dynamics:
 Subroutine PRICEL returns:
 Original cell was already a primitive cell.

 Routine SETGRP: Setting up the symmetry group for a
 simple tetragonal supercell.

 Subroutine GETGRP returns: Found  1 space group operations
 (whereof  1 operations were pure point group operations)
 out of a pool of 16 trial point group operations.

The constrained configuration has the point symmetry C_1 .

 Subroutine INISYM returns: Found  1 space group operations
 (whereof  1 operations are pure point group operations),
 and found     1 'primitive' translations

                                     Primitive cell

  volume of cell :    9881.6133

  direct lattice vectors                    reciprocal lattice vectors
    21.138852197  0.000000000  0.000000000     0.047306258  0.000000000  0.000000000
     0.000000000 21.138852197  0.000000000     0.000000000  0.047306258  0.000000000
     0.000000000  0.000000000 22.113885220     0.000000000  0.000000000  0.045220457

  length of vectors
    21.138852197 21.138852197 22.113885220     0.047306258  0.047306258  0.045220457

  position of ions in fractional coordinates (direct lattice)
     0.289582037  0.506611861  0.637734502
     0.396872600  0.441829059  0.617838819
     0.397097437  0.569428494  0.609235494
     0.504915500  0.505823463  0.636583568
     0.000000000  0.000000000  0.406984115
     0.100000000  0.100000000  0.406984115
     0.000000000  0.100000000  0.502574971
     0.100000000  0.000000000  0.502574971
     0.000000000  0.200000000  0.406984115
     0.100000000  0.300000000  0.406984115
[...]
   O         167.872          4.745         17.714          4.746         17.720          3.280
   O         168.081          4.746         17.725          4.747         17.736          3.282
   O         168.984          4.750         17.773          4.753         17.802          3.291
   O         169.008          4.751         17.774          4.753         17.801          3.291
   O         168.118          4.746         17.727          4.747         17.738          3.283
   O         168.219          4.747         17.732          4.748         17.744          3.284
   O         168.921          4.750         17.769          4.752         17.793          3.291
   O         168.948          4.750         17.771          4.752         17.795          3.291

  vdW correction parametrized for the method pbe

  IVDW = 212
  VDW_RADIUS =    50.000 A
  VDW_SR =     0.820
  VDW_D =     6.000
  SCSRAD =   120.000 A
  LVDWSCS = T
  LSCSGRAD = T
  LSCALER0 = T
  ITIM = -1
  Edisp (eV):  -10.04798

  FORCE on cell =-STRESS in cart. coord.  units (eV):
  Direction    XX          YY          ZZ          XY          YZ          ZX
  Alpha Z  1417.83424  1417.83424  1417.83424
  Ewald  484651.50164483712.19756************    -3.57601   -87.59049   -13.50229
  Hartree513666.33625512882.40129************    -3.38971   -60.81958    -9.41800
  E(xc)   -7846.28193 -7846.89776 -7878.58808     0.00004    -0.10825    -0.02498
  Local  ************************************     7.09519   146.37359    22.49860
  n-local -8772.98179 -8773.01400 -8885.90570    -0.08547     0.89962     0.30764
  augment  3550.98041  3551.53348  3499.69860    -0.00943     0.32609     0.00917
  Kinetic 23293.28944 23294.13696 23558.06771    -0.04334     0.93634     0.14901
  Fock        0.00000     0.00000     0.00000     0.00000     0.00000     0.00000
  vdW       -10.20777   -10.17803    -3.33981    -0.00069    -0.00018    -0.00048
  Total    -158.42841  -158.60587    16.00544    -0.00943     0.01715     0.01867
  in kB     -25.68714   -25.71591     2.59508    -0.00153     0.00278     0.00303

 VOLUME and BASIS-vectors are now :
  energy-cutoff  :      520.00
  volume of cell :     9881.61
      direct lattice vectors                 reciprocal lattice vectors
    21.138852197  0.000000000  0.000000000     0.047306258  0.000000000  0.000000000
     0.000000000 21.138852197  0.000000000     0.000000000  0.047306258  0.000000000
     0.000000000  0.000000000 22.113885220     0.000000000  0.000000000  0.045220457

  length of vectors
    21.138852197 21.138852197 22.113885220     0.047306258  0.047306258  0.045220457

 FORCES acting on ions:
    Electron-Ion                     Ewald-Force                    Non-Local-Force
   0.484E+03 -.684E+01 -.207E+04   -.480E+03 0.671E+01 0.207E+04   -.428E+01 0.146E+00 0.731E+00
   0.183E+01 0.484E+03 -.204E+04   -.183E+01 -.480E+03 0.204E+04   -.308E-02 -.407E+01 -.657E+00
   -.140E+01 -.471E+03 -.203E+04   0.131E+01 0.468E+03 0.203E+04   0.993E-01 0.332E+01 -.882E+00
   -.484E+03 -.422E+01 -.207E+04   0.480E+03 0.406E+01 0.207E+04   0.430E+01 0.169E+00 0.626E+00
   0.664E+01 -.546E+00 0.936E+03   -.667E+01 0.554E+00 -.929E+03   0.220E-01 -.594E-02 -.743E+01
   0.127E+02 0.109E+02 0.940E+03   -.127E+02 -.109E+02 -.933E+03   0.444E-01 -.375E-02 -.743E+01
   0.954E+01 0.100E+02 -.918E+03   -.956E+01 -.100E+02 0.910E+03   0.216E-01 -.155E-01 0.736E+01
   0.135E+02 -.967E+00 -.917E+03   -.136E+02 0.979E+00 0.909E+03   0.360E-01 -.943E-02 0.736E+01
   0.107E+02 0.143E+02 0.941E+03   -.108E+02 -.143E+02 -.933E+03   0.303E-01 -.135E-01 -.744E+01
   0.288E+02 0.247E+02 0.956E+03   -.289E+02 -.247E+02 -.948E+03   0.102E+00 -.857E-02 -.747E+01
   0.227E+02 0.217E+02 -.910E+03   -.227E+02 -.216E+02 0.903E+03   0.147E-01 -.284E-01 0.735E+01
   0.259E+02 0.288E+02 -.910E+03   -.260E+02 -.288E+02 0.902E+03   0.630E-01 -.308E-01 0.735E+01
   0.211E+02 0.113E+02 0.951E+03   -.212E+02 -.112E+02 -.943E+03   0.366E-01 -.750E-02 -.745E+01
   0.468E+02 0.135E+01 0.974E+03   -.470E+02 -.137E+01 -.966E+03   0.132E+00 0.126E-01 -.752E+01
   0.376E+02 0.108E+01 -.903E+03   -.376E+02 -.108E+01 0.895E+03   -.284E-01 0.569E-02 0.734E+01
   0.704E+02 0.318E+02 -.884E+03   -.704E+02 -.317E+02 0.877E+03   0.134E-01 -.509E-01 0.730E+01
   0.217E+02 -.102E+02 0.952E+03   -.218E+02 0.101E+02 -.944E+03   0.452E-01 0.175E-01 -.745E+01
   0.305E+02 -.247E+02 0.958E+03   -.306E+02 0.246E+02 -.950E+03   0.137E+00 0.132E-01 -.747E+01
   0.240E+02 -.215E+02 -.910E+03   -.240E+02 0.215E+02 0.902E+03   0.233E-01 0.317E-01 0.735E+01
   0.738E+02 -.293E+02 -.882E+03   -.738E+02 0.292E+02 0.875E+03   0.282E-01 0.659E-01 0.730E+01
   0.113E+02 -.148E+02 0.941E+03   -.114E+02 0.148E+02 -.934E+03   0.399E-01 0.943E-02 -.744E+01
   0.132E+02 -.123E+02 0.941E+03   -.133E+02 0.123E+02 -.933E+03   0.539E-01 -.134E-01 -.743E+01
   0.995E+01 -.113E+02 -.918E+03   -.999E+01 0.112E+02 0.910E+03   0.265E-01 0.647E-02 0.736E+01
   0.278E+02 -.304E+02 -.909E+03   -.279E+02 0.304E+02 0.901E+03   0.860E-01 0.253E-01 0.735E+01
   0.113E+02 -.104E+01 0.942E+03   -.114E+02 0.106E+01 -.934E+03   0.427E-01 -.158E-01 -.743E+01
   0.857E+01 0.192E+02 0.948E+03   -.862E+01 -.193E+02 -.940E+03   0.356E-01 0.545E-01 -.744E+01
   0.175E+02 0.214E+02 -.912E+03   -.175E+02 -.214E+02 0.904E+03   0.466E-01 0.924E-02 0.736E+01
   0.901E+01 -.181E+01 -.912E+03   -.904E+01 0.184E+01 0.905E+03   0.270E-01 -.208E-01 0.736E+01
   0.207E+02 0.301E+02 0.955E+03   -.209E+02 -.302E+02 -.947E+03   0.979E-01 0.383E-01 -.744E+01
   0.250E+02 0.556E+02 0.994E+03   -.253E+02 -.558E+02 -.986E+03   0.218E+00 0.183E+00 -.742E+01
   0.597E+02 0.698E+02 -.877E+03   -.600E+02 -.697E+02 0.870E+03   0.224E+00 -.891E-01 0.731E+01
   0.219E+02 0.653E+02 -.892E+03   -.219E+02 -.655E+02 0.885E+03   0.667E-01 0.144E+00 0.734E+01
   0.519E+02 0.322E+02 0.100E+04   -.524E+02 -.323E+02 -.992E+03   0.325E+00 0.308E-01 -.759E+01
   0.490E+02 0.440E+01 0.107E+04   -.496E+02 -.452E+01 -.106E+04   0.427E+00 0.933E-01 -.772E+01
   0.150E+03 0.678E+01 -.784E+03   -.150E+03 -.679E+01 0.778E+03   0.164E+00 0.810E-02 0.673E+01
   0.109E+03 0.136E+03 -.727E+03   -.111E+03 -.136E+03 0.720E+03   0.120E+01 -.630E-01 0.678E+01
   0.544E+02 -.294E+02 0.100E+04   -.549E+02 0.294E+02 -.995E+03   0.416E+00 0.115E-01 -.761E+01
   0.273E+02 -.571E+02 0.100E+04   -.277E+02 0.574E+02 -.993E+03   0.290E+00 -.221E+00 -.739E+01
   0.656E+02 -.726E+02 -.873E+03   -.660E+02 0.725E+02 0.865E+03   0.318E+00 0.104E+00 0.730E+01
   0.123E+03 -.131E+03 -.703E+03   -.126E+03 0.131E+03 0.697E+03   0.179E+01 0.187E+00 0.650E+01
   0.223E+02 -.319E+02 0.956E+03   -.224E+02 0.320E+02 -.949E+03   0.130E+00 -.651E-01 -.744E+01
   0.904E+01 -.220E+02 0.949E+03   -.910E+01 0.221E+02 -.942E+03   0.438E-01 -.106E+00 -.744E+01
   0.185E+02 -.244E+02 -.911E+03   -.186E+02 0.244E+02 0.904E+03   0.568E-01 -.412E-01 0.736E+01
   0.243E+02 -.713E+02 -.889E+03   -.244E+02 0.716E+02 0.882E+03   0.867E-01 -.230E+00 0.734E+01
   -.227E+00 -.142E+01 0.945E+03   0.225E+00 0.145E+01 -.938E+03   0.106E-02 -.253E-01 -.744E+01
   -.897E+01 0.191E+02 0.948E+03   0.902E+01 -.191E+02 -.940E+03   -.338E-01 0.545E-01 -.744E+01
   -.362E+00 0.311E+02 -.907E+03   0.360E+00 -.312E+02 0.900E+03   0.114E-02 0.620E-01 0.736E+01
   -.945E+01 -.177E+01 -.912E+03   0.948E+01 0.180E+01 0.905E+03   -.252E-01 -.213E-01 0.736E+01
   -.437E+00 0.439E+02 0.967E+03   0.435E+00 -.443E+02 -.959E+03   0.130E-02 0.262E+00 -.748E+01
   -.260E+02 0.548E+02 0.993E+03   0.262E+02 -.551E+02 -.986E+03   -.213E+00 0.194E+00 -.742E+01
   -.181E+01 0.139E+03 -.825E+03   0.180E+01 -.141E+03 0.817E+03   0.143E-02 0.110E+01 0.740E+01
   -.227E+02 0.644E+02 -.893E+03   0.228E+02 -.645E+02 0.885E+03   -.639E-01 0.144E+00 0.735E+01
   -.131E+01 0.563E+02 0.106E+04   0.129E+01 -.566E+02 -.105E+04   0.158E-01 0.259E+00 -.602E+01
   -.507E+02 0.423E+01 0.107E+04   0.513E+02 -.436E+01 -.106E+04   -.419E+00 0.936E-01 -.768E+01
   -.602E+01 0.231E+02 -.504E+03   0.598E+01 -.240E+02 0.499E+03   0.510E-01 0.652E+00 0.461E+01
   -.111E+03 0.133E+03 -.733E+03   0.112E+03 -.133E+03 0.726E+03   -.120E+01 -.313E-01 0.682E+01
   -.148E+01 -.517E+02 0.107E+04   0.146E+01 0.518E+02 -.106E+04   0.186E-01 -.129E+00 -.527E+01
   -.284E+02 -.563E+02 0.999E+03   0.288E+02 0.566E+02 -.991E+03   -.283E+00 -.232E+00 -.739E+01
   -.232E+01 -.154E+03 -.809E+03   0.231E+01 0.156E+03 0.801E+03   0.657E-02 -.165E+01 0.743E+01
   -.125E+03 -.128E+03 -.711E+03   0.127E+03 0.128E+03 0.705E+03   -.178E+01 0.160E+00 0.661E+01
[...]
   -.112E+02 0.118E+02 0.711E+03   0.113E+02 -.118E+02 -.715E+03   -.335E-01 -.125E-01 0.349E+01
   0.224E+00 0.909E+01 0.706E+03   -.223E+00 -.908E+01 -.710E+03   -.199E-02 -.142E-01 0.350E+01
   -.229E+02 0.115E+02 -.681E+03   0.229E+02 -.115E+02 0.685E+03   -.117E-01 -.216E-01 -.365E+01
   0.721E+00 0.567E+00 -.684E+03   -.717E+00 -.571E+00 0.688E+03   -.558E-02 0.577E-02 -.364E+01
   -.169E+02 0.543E+00 0.716E+03   0.169E+02 -.550E+00 -.720E+03   -.305E-01 0.873E-02 0.347E+01
   0.422E+00 0.675E+01 0.711E+03   -.419E+00 -.674E+01 -.715E+03   -.424E-02 -.795E-02 0.349E+01
   -.237E+02 -.105E+02 -.681E+03   0.237E+02 0.105E+02 0.685E+03   -.179E-01 0.337E-01 -.366E+01
   0.498E+00 -.125E+02 -.687E+03   -.495E+00 0.125E+02 0.691E+03   -.412E-02 0.272E-01 -.363E+01
   -.118E+02 -.117E+02 0.711E+03   0.118E+02 0.117E+02 -.715E+03   -.435E-01 0.160E-01 0.349E+01
   0.443E+00 -.609E+01 0.711E+03   -.440E+00 0.608E+01 -.715E+03   -.465E-02 0.177E-01 0.349E+01
   -.108E+02 -.142E+02 -.688E+03   0.109E+02 0.142E+02 0.692E+03   -.324E-01 0.152E-01 -.362E+01
   0.221E+00 -.709E+01 -.691E+03   -.220E+00 0.708E+01 0.695E+03   -.178E-02 0.480E-02 -.361E+01
   -.562E+01 -.656E+01 0.705E+03   0.564E+01 0.656E+01 -.709E+03   -.321E-01 -.410E-02 0.351E+01
   0.247E+00 -.939E+01 0.706E+03   -.245E+00 0.939E+01 -.710E+03   -.248E-02 0.102E-01 0.350E+01
   0.428E-01 0.781E+00 0.147E+02   0.273E-11 0.210E-11 0.218E-10   -.413E-01 -.779E+00 -.153E+02

 POSITION                                       TOTAL-FORCE (eV/Angst)
      6.12143     10.70919     14.10279        -0.104097      0.006769      0.043580
      8.38943      9.33976     13.66282         0.000905     -0.121045      0.038623
      8.39418     12.03706     13.47256         0.003186      0.124490      0.019648
     10.67333     10.69253     14.07734         0.104682      0.005033      0.041324
      0.00000      0.00000      9.00000        -0.006062      0.001647      0.343033
      2.11389      2.11389      9.00000        -0.012266      0.000838      0.343447
      0.00000      2.11389     11.11389        -0.005800      0.004198     -0.319985
      2.11389      0.00000     11.11389        -0.009999      0.002551     -0.319355
      0.00000      4.22777      9.00000        -0.007953      0.003740      0.345101
      2.11389      6.34166      9.00000        -0.026340      0.002694      0.352672
      0.00000      6.34166     11.11389        -0.003202      0.008220     -0.314101
      2.11389      4.22777     11.11389        -0.016352      0.008436     -0.314097
      0.00000      8.45554      9.00000        -0.009463      0.002439      0.350236
      2.11389     10.56943      9.00000        -0.035362     -0.003658      0.366135
      0.00000     10.56943     11.11389         0.008691     -0.001600     -0.306848
      2.11389      8.45554     11.11389         0.002939      0.018355     -0.283955
      0.00000     12.68331      9.00000        -0.011721     -0.005284      0.350472
      2.11389     14.79720      9.00000        -0.035284     -0.003935      0.353726
      0.00000     14.79720     11.11389        -0.005362     -0.009177     -0.313410
      2.11389     12.68331     11.11389        -0.001021     -0.022809     -0.281314
      0.00000     16.91108      9.00000        -0.010472     -0.002598      0.345244
      2.11389     19.02497      9.00000        -0.014898      0.003914      0.343293
      0.00000     19.02497     11.11389        -0.007081     -0.001711     -0.319690
      2.11389     16.91108     11.11389        -0.022304     -0.006812     -0.312787
      4.22777      0.00000      9.00000        -0.012095      0.004249      0.343318
      6.34166      2.11389      9.00000        -0.010394     -0.014298      0.344429
      4.22777      2.11389     11.11389        -0.013157     -0.002156     -0.316359
      6.34166      0.00000     11.11389        -0.007766      0.005471     -0.317045
      4.22777      4.22777      9.00000        -0.027727     -0.011561      0.344500
      6.34166      6.34166      9.00000        -0.070626     -0.058503      0.327915
      4.22777      6.34166     11.11389        -0.055413      0.028318     -0.281148
      6.34166      4.22777     11.11389        -0.020193     -0.037346     -0.305455
      4.22777      8.45554      9.00000        -0.082887     -0.006680      0.378736
      6.34166     10.56943      9.00000        -0.139933     -0.029760      0.344357
      4.22777     10.56943     11.11389        -0.018898     -0.000220     -0.057220
      6.34166      8.45554     11.11389        -0.391978      0.057437     -0.067401
      4.22777     12.68331      9.00000        -0.104883     -0.005411      0.381555
      6.34166     14.79720      9.00000        -0.094276      0.073189      0.313430
      4.22777     14.79720     11.11389        -0.077900     -0.033454     -0.271327
      6.34166     12.68331     11.11389        -0.607718     -0.079891     -0.030969
      4.22777     16.91108      9.00000        -0.036843      0.019409      0.343423
      6.34166     19.02497      9.00000        -0.012808      0.027910      0.344537
      4.22777     19.02497     11.11389        -0.016005      0.010604     -0.315374
      6.34166     16.91108     11.11389        -0.025928      0.060062     -0.300722
      8.45554      0.00000      9.00000        -0.000303      0.006683      0.343853
     10.56943      2.11389      9.00000         0.009888     -0.014324      0.344361
      8.45554      2.11389     11.11389        -0.000320     -0.015232     -0.314666
     10.56943      0.00000     11.11389         0.007235      0.005619     -0.317081
      8.45554      4.22777      9.00000        -0.000355     -0.066172      0.350417
     10.56943      6.34166      9.00000         0.069232     -0.061564      0.329280
      8.45554      6.34166     11.11389        -0.000609     -0.337224     -0.298942
     10.56943      4.22777     11.11389         0.019364     -0.037043     -0.305587
      8.45554      8.45554      9.00000        -0.005434     -0.052620      0.009962
     10.56943     10.56943      9.00000         0.138085     -0.029843      0.337217
      8.45554     10.56943     11.11389         0.010407     -0.279901     -0.342688
     10.56943      8.45554     11.11389         0.377875      0.051416     -0.060107
      8.45554     12.68331      9.00000        -0.006382      0.020984     -0.153195
     10.56943     14.79720      9.00000         0.092391      0.076494      0.313954
      8.45554     14.79720     11.11389        -0.002399      0.508684     -0.307115
     10.56943     12.68331     11.11389         0.582048     -0.077161     -0.028810
[...]
     19.02497      6.34166     11.11389        -0.000955     -0.006430      0.500590
     16.91108      6.34166      9.00000        -0.009462     -0.003264     -0.532311
     19.02497      4.22777      9.00000        -0.000554     -0.003839     -0.529483
     16.91108      8.45554     11.11389        -0.004018     -0.005577      0.493106
     19.02497     10.56943     11.11389        -0.001528      0.001583      0.496811
     16.91108     10.56943      9.00000        -0.008965      0.002407     -0.537340
     19.02497      8.45554      9.00000        -0.001166     -0.002108     -0.532755
     16.91108     12.68331     11.11389        -0.005805      0.008900      0.492533
     19.02497     14.79720     11.11389        -0.001132      0.007298      0.500110
     16.91108     14.79720      9.00000        -0.012236      0.004191     -0.532412
     19.02497     12.68331      9.00000        -0.001280      0.004776     -0.532807
     16.91108     16.91108     11.11389        -0.009078      0.003990      0.501290
     19.02497     19.02497     11.11389        -0.000494      0.001249      0.504552
     16.91108     19.02497      9.00000        -0.008853     -0.001191     -0.528563
     19.02497     16.91108      9.00000        -0.000686      0.002696     -0.529509
    total drift:                                0.001483      0.002556     -0.591971

  FREE ENERGIE OF THE ION-ELECTRON SYSTEM (eV)
  free  energy   TOTEN  =     -1155.71541451 eV

  energy  without entropy=    -1155.71541451  energy(sigma->0) =    -1155.71541451