 vasp.6.3.0 20Jan22 (build Apr  1 2022 16:44:48) complex
 executed on        HPECrayEX_GCC date 2022.12.11  06:11:34

 INCAR:
   SYSTEM = MgO-rocksalt
   ISMEAR = 0
   SIGMA = 0.05
   EDIFF = 1E-6
   ALGO = ALL
   ISTART = 0
   IBRION = -1
   NSW = 0
   ISYM = 2
   DIPOL = 0.5 0.5 0.5
   IDIPOL = 3
   LDIPOL = .TRUE.
   GGA = PS
   IVDW = 13
   VDW_S8 = 1.71885698
   VDW_A1 = 0.47901421
   VDW_A2 = 5.96771589
   ENCUT = 520
   PREC = Accurate
   LASPH = .TRUE.
   LREAL = Auto
   ISPIN = 1
   NELM = 200
   NELMIN = 8
   NCORE = 4
   KPAR = 2
   LWAVE = .FALSE.
   LCHARG = .FALSE.

 POTCAR:    PAW_PBE Ag 02Apr2005
 POTCAR:    PAW_PBE Mg_pv 13Apr2007
 POTCAR:    PAW_PBE O 08Apr2002
 POTCAR:    PAW_PBE Ag 02Apr2005
   VRHFIN =Ag : s1 d10

   TITEL  = PAW_PBE Ag 02Apr2005
   POMASS =  107.868; ZVAL   =   11.000    mass and valenz
   ENMAX  =  249.844; ENMIN  =  187.383 eV

   TITEL  = PAW_PBE Mg_pv 13Apr2007
   POMASS =   24.305; ZVAL   =    8.000    mass and valenz
   ENMAX  =  403.929; ENMIN  =  302.947 eV

   TITEL  = PAW_PBE O 08Apr2002
   POMASS =   16.000; ZVAL   =    6.000    mass and valenz
   ENMAX  =  400.000; ENMIN  =  300.000 eV

 Optimization of the real space projectors (new method)

 maximal supplied QI-value         = 15.12
 optimisation between [QCUT,QGAM] = [ 11.64, 23.28] = [ 37.95,151.78] Ry
 Optimized for a Real-space Cutoff    1.45 Angstroem

   l    n(q)    QCUT    max X(q) W(low)/X(q) W(high)/X(q)  e(spline)
   2      9    11.641    53.897    0.22E-03    0.42E-04    0.28E-06
   2      9    11.641    52.416    0.23E-03    0.44E-04    0.29E-06
   0     10    11.641   122.045    0.51E-04    0.25E-04    0.16E-06
   0     10    11.641    73.629    0.49E-04    0.24E-04    0.16E-06
   1     10    11.641    15.255    0.99E-04    0.55E-04    0.11E-06
   1     10    11.641     9.562    0.81E-04    0.47E-04    0.95E-07
 Optimization of the real space projectors (new method)

[...]

   l    n(q)    QCUT    max X(q) W(low)/X(q) W(high)/X(q)  e(spline)
   1      8    11.527     2.974    0.44E-04    0.56E-04    0.12E-06
   1      8    11.527     4.279    0.12E-03    0.12E-03    0.26E-06
   0      9    11.527    16.381    0.46E-04    0.64E-04    0.78E-07
   0      9    11.527     5.611    0.26E-04    0.43E-04    0.55E-07
   2      8    11.527     4.652    0.22E-03    0.72E-04    0.47E-07
 Optimization of the real space projectors (new method)

 maximal supplied QI-value         = 24.76
 optimisation between [QCUT,QGAM] = [ 11.64, 23.27] = [ 37.91,151.63] Ry
 Optimized for a Real-space Cutoff    1.14 Angstroem

   l    n(q)    QCUT    max X(q) W(low)/X(q) W(high)/X(q)  e(spline)
   0      8    11.635    20.381    0.10E-03    0.33E-03    0.24E-06
   0      8    11.635    15.268    0.11E-03    0.35E-03    0.26E-06
   1      7    11.635     5.964    0.24E-03    0.31E-03    0.30E-06
   1      7    11.635     5.382    0.22E-03    0.25E-03    0.26E-06
|               ----> ADVICE to this user running VASP <----                  |
|     You enforced a specific xc type in the INCAR file but a different       |
|     type was found in the POTCAR file.                                      |
|     I HOPE YOU KNOW WHAT YOU ARE DOING!                                     |

  PAW_PBE Ag 02Apr2005                  :
  PAW_PBE Mg_pv 13Apr2007               :
  PAW_PBE O 08Apr2002                   :

 POSCAR: Ag Mg  O
  positions in direct lattice
|           W    W    AA    RRRRR   N    N  II  N    N   GGGG   !!!           |
|           W    W   A  A   R    R  NN   N  II  NN   N  G    G  !!!           |
|           W    W  A    A  R    R  N N  N  II  N N  N  G       !!!           |
|           W WW W  AAAAAA  RRRRR   N  N N  II  N  N N  G  GGG   !            |
|           WW  WW  A    A  R   R   N   NN  II  N   NN  G    G                |
|           W    W  A    A  R    R  N    N  II  N    N   GGGG   !!!           |
|     Specifying the vdW parameters                                           |
|     VDW_S8 = 1.719                                                          |
|     VDW_A1 = 0.479                                                          |
|     VDW_A2 = 5.968                                                          |
|     in the INCAR file will overwrite the defaults for pbesol. Please        |
|     make sure that is what you intended.                                    |

 ion  position               nearest neighbor table
   1  0.500  0.600  0.746-   2 2.56
   2  0.500  0.600  0.630-   1 2.56  58 2.81
   3  0.000  0.000  0.407- 105 2.11 106 2.11 121 2.11 186 2.11 103 2.11
   4  0.100  0.100  0.407- 105 2.11 106 2.11 110 2.11 125 2.11 104 2.11
   5  0.000  0.100  0.503- 103 2.11 104 2.11 107 2.11 184 2.11 105 2.11
   6  0.100  0.000  0.503- 103 2.11 104 2.11 120 2.11 123 2.11 106 2.11
   7  0.000  0.200  0.407- 109 2.11 105 2.11 110 2.11 190 2.11 107 2.11
   8  0.100  0.300  0.407- 110 2.11 109 2.11 114 2.11 129 2.11 108 2.11
   9  0.000  0.300  0.503- 107 2.11 108 2.11 111 2.11 188 2.11 109 2.11
  10  0.100  0.200  0.503- 108 2.11 107 2.11 104 2.11 127 2.11 110 2.11
  11  0.000  0.400  0.407- 109 2.11 113 2.11 114 2.11 194 2.11 111 2.11
  12  0.100  0.500  0.407- 113 2.11 114 2.11 118 2.11 133 2.11 112 2.11
  13  0.000  0.500  0.503- 111 2.11 112 2.11 115 2.11 192 2.11 113 2.11
  14  0.100  0.400  0.503- 108 2.11 111 2.11 112 2.11 131 2.11 114 2.11
  15  0.000  0.600  0.407- 113 2.11 117 2.11 118 2.11 198 2.11 115 2.11
  16  0.100  0.700  0.407- 122 2.11 118 2.11 117 2.11 137 2.11 116 2.11
  17  0.000  0.700  0.503- 119 2.11 116 2.11 115 2.11 196 2.11 117 2.11
  18  0.100  0.600  0.503- 112 2.11 115 2.11 116 2.11 135 2.11 118 2.11
  19  0.000  0.800  0.407- 117 2.11 121 2.11 122 2.11 202 2.11 119 2.11
  20  0.100  0.900  0.407- 106 2.11 121 2.11 122 2.11 141 2.11 120 2.11
  21  0.000  0.900  0.503- 103 2.11 119 2.11 120 2.11 200 2.11 121 2.11
  22  0.100  0.800  0.503- 116 2.11 119 2.11 120 2.11 139 2.11 122 2.11
  23  0.200  0.000  0.407- 126 2.11 125 2.11 106 2.11 141 2.11 123 2.11
  24  0.300  0.100  0.407- 125 2.11 126 2.11 130 2.11 145 2.11 124 2.11
  25  0.200  0.100  0.503- 124 2.11 123 2.11 104 2.11 127 2.11 125 2.11
  26  0.300  0.000  0.503- 123 2.11 124 2.11 140 2.11 143 2.11 126 2.11
  27  0.200  0.200  0.407- 129 2.11 130 2.11 110 2.11 125 2.11 127 2.11
  28  0.300  0.300  0.407- 129 2.11 130 2.11 134 2.11 149 2.11 128 2.11
  29  0.200  0.300  0.503- 127 2.11 128 2.11 108 2.11 131 2.11 129 2.11
  30  0.300  0.200  0.503- 127 2.11 128 2.11 124 2.11 147 2.11 130 2.11
  31  0.200  0.400  0.407- 134 2.11 129 2.11 133 2.11 114 2.11 131 2.11
  32  0.300  0.500  0.407- 133 2.11 134 2.11 138 2.11 153 2.11 132 2.11
  33  0.200  0.500  0.503- 132 2.11 131 2.11 112 2.11 135 2.11 133 2.11
  34  0.300  0.400  0.503- 131 2.11 128 2.11 132 2.11 151 2.11 134 2.11
  35  0.200  0.600  0.407- 138 2.11 133 2.11 137 2.11 118 2.11 135 2.11
  36  0.300  0.700  0.407- 137 2.11 142 2.11 138 2.11 157 2.11 136 2.11
  37  0.200  0.700  0.503- 136 2.11 139 2.11 116 2.11 135 2.11 137 2.11
  38  0.300  0.600  0.503- 135 2.11 132 2.11 136 2.11 155 2.11 138 2.11
  39  0.200  0.800  0.407- 137 2.11 142 2.11 141 2.11 122 2.11 139 2.11
  40  0.300  0.900  0.407- 141 2.11 126 2.11 142 2.11 161 2.11 140 2.11
  41  0.200  0.900  0.503- 140 2.11 123 2.11 139 2.11 120 2.11 141 2.11
  42  0.300  0.800  0.503- 136 2.11 139 2.11 140 2.11 159 2.11 142 2.11
  43  0.400  0.000  0.407- 126 2.11 145 2.11 146 2.11 161 2.11 143 2.11
  44  0.500  0.100  0.407- 145 2.11 146 2.11 150 2.11 165 2.11 144 2.11
  45  0.400  0.100  0.503- 124 2.11 143 2.11 144 2.11 147 2.11 145 2.11
  46  0.500  0.000  0.503- 143 2.11 144 2.11 160 2.11 163 2.11 146 2.11
  47  0.400  0.200  0.407- 149 2.11 145 2.11 130 2.11 150 2.11 147 2.11
  48  0.500  0.300  0.407- 150 2.11 149 2.11 154 2.11 169 2.11 148 2.11
  49  0.400  0.300  0.503- 147 2.11 128 2.11 148 2.11 151 2.11 149 2.11
  50  0.500  0.200  0.503- 148 2.11 147 2.11 144 2.11 167 2.11 150 2.11
  51  0.400  0.400  0.407- 134 2.11 149 2.11 153 2.11 154 2.11 151 2.11
  52  0.500  0.500  0.407- 153 2.11 154 2.11 158 2.11 173 2.11 152 2.11
  53  0.400  0.500  0.503- 132 2.11 151 2.11 152 2.11 155 2.11 153 2.11
  54  0.500  0.400  0.503- 148 2.11 151 2.11 152 2.11 171 2.11 154 2.11
  55  0.400  0.600  0.407- 138 2.11 153 2.11 157 2.11 158 2.11 155 2.11
  56  0.500  0.700  0.407- 162 2.11 158 2.11 157 2.11 177 2.11 156 2.11
  57  0.400  0.700  0.503- 159 2.11 155 2.11 156 2.11 136 2.11 157 2.11
  58  0.500  0.600  0.503- 152 2.11 155 2.11 156 2.11 175 2.11 158 2.11   2 2.81
  59  0.400  0.800  0.407- 157 2.11 142 2.11 161 2.11 162 2.11 159 2.11
  60  0.500  0.900  0.407- 146 2.11 161 2.11 162 2.11 181 2.11 160 2.11
[...]
 188  0.900  0.300  0.503-  90 2.11  89 2.11   9 2.11  94 2.11  88 2.11
 189  0.800  0.300  0.407-  68 2.11  87 2.11  88 2.11  91 2.11  89 2.11
 190  0.900  0.200  0.407-  88 2.11  84 2.11  87 2.11   7 2.11  90 2.11
 191  0.800  0.400  0.503-  74 2.11  89 2.11  93 2.11  94 2.11  91 2.11
 192  0.900  0.500  0.503-  13 2.11  93 2.11  94 2.11  98 2.11  92 2.11
 193  0.800  0.500  0.407-  72 2.11  91 2.11  92 2.11  95 2.11  93 2.11
 194  0.900  0.400  0.407-  11 2.11  88 2.11  91 2.11  92 2.11  94 2.11
 195  0.800  0.600  0.503-  78 2.11  93 2.11  97 2.11  98 2.11  95 2.11
 196  0.900  0.700  0.503- 102 2.11  97 2.11  98 2.11  17 2.11  96 2.11
 197  0.800  0.700  0.407-  76 2.11  99 2.11  96 2.11  95 2.11  97 2.11
 198  0.900  0.600  0.407-  15 2.11  92 2.11  95 2.11  96 2.11  98 2.11
 199  0.800  0.800  0.503-  82 2.11  97 2.11 101 2.11 102 2.11  99 2.11
 200  0.900  0.900  0.503-  21 2.11  86 2.11 101 2.11 102 2.11 100 2.11
 201  0.800  0.900  0.407-  80 2.11  83 2.11  99 2.11 100 2.11 101 2.11
 202  0.900  0.800  0.407-  96 2.11  19 2.11  99 2.11 100 2.11 102 2.11

  LATTYP: Found a simple tetragonal cell.
 ALAT       =    21.1388521970
 C/A-ratio  =     1.0461251639

  Lattice vectors:

 A1 = (  21.1388521970,   0.0000000000,   0.0000000000)
 A2 = (   0.0000000000,  21.1388521970,   0.0000000000)
 A3 = (   0.0000000000,   0.0000000000,  22.1138852197)

Analysis of symmetry for initial positions (statically):
 Subroutine PRICEL returns:
 Original cell was already a primitive cell.

 Routine SETGRP: Setting up the symmetry group for a
 simple tetragonal supercell.

 Subroutine GETGRP returns: Found  8 space group operations
 (whereof  2 operations were pure point group operations)
 out of a pool of 16 trial point group operations.

The static configuration has the point symmetry C_1h.
 The point group associated with its full space group is C_4v.

Analysis of symmetry for dynamics (positions and initial velocities):
 Subroutine PRICEL returns:
 Original cell was already a primitive cell.

 Routine SETGRP: Setting up the symmetry group for a
 simple tetragonal supercell.

 Subroutine GETGRP returns: Found  8 space group operations
 (whereof  2 operations were pure point group operations)
 out of a pool of 16 trial point group operations.

The dynamic configuration has the point symmetry C_1h.
 The point group associated with its full space group is C_4v.

 Subroutine INISYM returns: Found  8 space group operations
 (whereof  2 operations are pure point group operations),
[...]
     54     -42.8062      2.00000
     55     -42.8062      2.00000
     56     -42.8061      2.00000
     57     -42.8060      2.00000
     58     -42.8057      2.00000
     59     -42.8045      2.00000
     60     -42.8040      2.00000
[...]
    882       5.1011      0.00000
    883       5.2208      0.00000
    884       5.2467      0.00000
    885       5.3139      0.00000
    886       5.3516      0.00000
    887       5.3732      0.00000
    888       5.4858      0.00000
    889       5.5206      0.00000
    890       5.5711      0.00000
    891       5.5877      0.00000
    892       5.6031      0.00000
    893       5.6043      0.00000
    894       5.6206      0.00000
    895       5.6338      0.00000
    896       5.6343      0.00000

 soft charge-density along one line, spin component           1
         0         1         2         3         4         5         6         7         8         9
 total charge-density along one line

------------------------ aborting loop because EDIFF is reached ----------------------------------------

  FORCE on cell =-STRESS in cart. coord.  units (eV):
  Direction    XX          YY          ZZ          XY          YZ          ZX
  Alpha Z  1357.53553  1357.53553  1357.53553
  Ewald  474351.88775474351.88775************     0.00000    -0.00002    -0.00001
  Hartree503054.25330503054.25326************     0.00000    -0.00001    -0.00000
  E(xc)   -7611.05455 -7611.05455 -7628.73794    -0.00000    -0.00000     0.00000
  Local  ************************************    -0.00000     0.00003     0.00001
  n-local -8820.35209 -8820.35207 -8943.07164     0.00000    -0.00000     0.00000
  augment  3401.55830  3401.55828  3338.37857    -0.00000     0.00000     0.00000
  Kinetic 22905.81541 22905.81537 23168.00042     0.00001     0.00000    -0.00000
  Fock        0.00000     0.00000     0.00000     0.00000     0.00000     0.00000
  vdW       -11.17570   -11.17570    -2.68796    -0.00000    -0.00000    -0.00000
  Total    -209.47668  -209.47668   -11.78649     0.00000    -0.00000     0.00000
  in kB     -33.96397   -33.96397    -1.91103     0.00000    -0.00000     0.00000

 VOLUME and BASIS-vectors are now :
  energy-cutoff  :      520.00
  volume of cell :     9881.61
      direct lattice vectors                 reciprocal lattice vectors
    21.138852197  0.000000000  0.000000000     0.047306258  0.000000000  0.000000000
     0.000000000 21.138852197  0.000000000     0.000000000  0.047306258  0.000000000
     0.000000000  0.000000000 22.113885220     0.000000000  0.000000000  0.045220457

  length of vectors
    21.138852197 21.138852197 22.113885220     0.047306258  0.047306258  0.045220457

 FORCES acting on ions:
    Electron-Ion                     Ewald-Force                    Non-Local-Force
   0.242E-03 0.130E-07 -.158E+04   -.699E-08 -.165E-07 0.157E+04   -.424E-21 -.424E-21 0.753E+01
   0.245E-03 0.685E-05 -.176E+04   -.266E-05 -.630E-05 0.177E+04   0.000E+00 0.000E+00 -.661E+01
   0.512E-04 -.296E+01 0.931E+03   -.928E-06 0.297E+01 -.923E+03   0.000E+00 -.276E-02 -.769E+01
   0.296E+01 -.323E-03 0.931E+03   -.297E+01 -.220E-05 -.923E+03   0.276E-02 -.169E-20 -.769E+01
   0.507E-04 -.323E-03 -.923E+03   -.101E-05 -.240E-05 0.915E+03   0.000E+00 0.000E+00 0.766E+01
   0.432E+01 -.432E+01 -.922E+03   -.432E+01 0.432E+01 0.914E+03   0.213E-02 -.213E-02 0.766E+01
   0.512E-04 0.296E+01 0.931E+03   -.928E-06 -.297E+01 -.923E+03   0.000E+00 0.276E-02 -.769E+01
   0.459E+01 0.574E+01 0.933E+03   -.460E+01 -.575E+01 -.925E+03   0.693E-02 0.672E-02 -.769E+01
   0.515E-04 0.624E+01 -.921E+03   -.166E-05 -.624E+01 0.913E+03   0.000E+00 0.253E-02 0.766E+01
   0.432E+01 0.432E+01 -.922E+03   -.432E+01 -.432E+01 0.914E+03   0.213E-02 0.213E-02 0.766E+01
   0.519E-04 0.519E+01 0.933E+03   -.171E-05 -.519E+01 -.925E+03   0.000E+00 0.475E-02 -.769E+01
   0.814E+01 0.401E+01 0.936E+03   -.817E+01 -.401E+01 -.928E+03   0.221E-01 0.480E-02 -.769E+01
   0.533E-04 0.430E+01 -.919E+03   -.312E-05 -.430E+01 0.911E+03   0.000E+00 0.166E-02 0.766E+01
   0.920E+01 0.819E+01 -.919E+03   -.921E+01 -.819E+01 0.911E+03   0.734E-02 0.352E-02 0.766E+01
   0.526E-04 -.327E-03 0.935E+03   -.233E-05 0.223E-05 -.927E+03   0.000E+00 -.339E-20 -.769E+01
   0.814E+01 -.401E+01 0.936E+03   -.817E+01 0.401E+01 -.928E+03   0.221E-01 -.480E-02 -.769E+01
   0.533E-04 -.430E+01 -.919E+03   -.312E-05 0.430E+01 0.911E+03   0.000E+00 -.166E-02 0.766E+01
   0.136E+02 -.329E-03 -.916E+03   -.136E+02 0.375E-05 0.908E+03   0.129E-01 0.000E+00 0.766E+01
   0.519E-04 -.519E+01 0.933E+03   -.171E-05 0.519E+01 -.925E+03   0.000E+00 -.475E-02 -.769E+01
   0.459E+01 -.574E+01 0.933E+03   -.460E+01 0.575E+01 -.925E+03   0.693E-02 -.672E-02 -.769E+01
   0.515E-04 -.624E+01 -.921E+03   -.166E-05 0.624E+01 0.913E+03   -.339E-20 -.253E-02 0.766E+01
   0.920E+01 -.819E+01 -.919E+03   -.921E+01 0.819E+01 0.911E+03   0.734E-02 -.352E-02 0.766E+01
   0.574E+01 -.460E+01 0.933E+03   -.575E+01 0.460E+01 -.925E+03   0.672E-02 -.693E-02 -.769E+01
   0.519E+01 -.321E-03 0.933E+03   -.519E+01 -.404E-05 -.925E+03   0.475E-02 -.339E-20 -.769E+01
   0.624E+01 -.321E-03 -.921E+03   -.624E+01 -.394E-05 0.913E+03   0.253E-02 -.424E-20 0.766E+01
   0.819E+01 -.920E+01 -.919E+03   -.819E+01 0.921E+01 0.911E+03   0.352E-02 -.734E-02 0.766E+01
   0.574E+01 0.459E+01 0.933E+03   -.575E+01 -.460E+01 -.925E+03   0.672E-02 0.693E-02 -.769E+01
   0.915E+01 0.119E+02 0.938E+03   -.917E+01 -.119E+02 -.930E+03   0.193E-01 0.282E-01 -.770E+01
   0.114E+02 0.114E+02 -.918E+03   -.114E+02 -.114E+02 0.910E+03   0.749E-02 0.749E-02 0.766E+01
   0.819E+01 0.920E+01 -.919E+03   -.819E+01 -.921E+01 0.911E+03   0.352E-02 0.734E-02 0.766E+01
   0.119E+02 0.915E+01 0.938E+03   -.119E+02 -.917E+01 -.930E+03   0.282E-01 0.193E-01 -.770E+01
   0.210E+02 0.109E+02 0.954E+03   -.211E+02 -.109E+02 -.946E+03   0.953E-01 0.552E-01 -.772E+01
   0.263E+02 0.100E+02 -.909E+03   -.263E+02 -.100E+02 0.901E+03   0.338E-01 0.460E-02 0.765E+01
   0.250E+02 0.250E+02 -.904E+03   -.250E+02 -.250E+02 0.896E+03   0.284E-01 0.284E-01 0.764E+01
   0.176E+02 -.329E-03 0.944E+03   -.177E+02 0.438E-05 -.936E+03   0.921E-01 0.847E-21 -.772E+01
   0.210E+02 -.109E+02 0.954E+03   -.211E+02 0.109E+02 -.946E+03   0.953E-01 -.552E-01 -.772E+01
   0.263E+02 -.100E+02 -.909E+03   -.263E+02 0.100E+02 0.901E+03   0.338E-01 -.460E-02 0.765E+01
   0.528E+02 -.342E-03 -.882E+03   -.531E+02 0.168E-04 0.874E+03   0.272E+00 -.254E-20 0.761E+01
   0.119E+02 -.915E+01 0.938E+03   -.119E+02 0.917E+01 -.930E+03   0.282E-01 -.193E-01 -.770E+01
   0.915E+01 -.119E+02 0.938E+03   -.917E+01 0.119E+02 -.930E+03   0.193E-01 -.282E-01 -.770E+01
   0.114E+02 -.114E+02 -.918E+03   -.114E+02 0.114E+02 0.910E+03   0.749E-02 -.749E-02 0.766E+01
   0.250E+02 -.250E+02 -.904E+03   -.250E+02 0.250E+02 0.896E+03   0.284E-01 -.284E-01 0.764E+01
   0.401E+01 -.814E+01 0.936E+03   -.401E+01 0.817E+01 -.928E+03   0.480E-02 -.221E-01 -.769E+01
   0.508E-04 -.320E-03 0.935E+03   0.943E-06 -.551E-05 -.927E+03   0.000E+00 -.339E-20 -.769E+01
   0.430E+01 -.318E-03 -.919E+03   -.430E+01 -.740E-05 0.911E+03   0.166E-02 0.169E-20 0.766E+01
   0.507E-04 -.136E+02 -.916E+03   0.158E-05 0.136E+02 0.908E+03   0.000E+00 -.129E-01 0.766E+01
   0.401E+01 0.814E+01 0.936E+03   -.401E+01 -.817E+01 -.928E+03   0.480E-02 0.221E-01 -.769E+01
   0.503E-04 0.176E+02 0.944E+03   0.185E-05 -.177E+02 -.936E+03   0.000E+00 0.921E-01 -.772E+01
   0.100E+02 0.263E+02 -.909E+03   -.100E+02 -.263E+02 0.901E+03   0.460E-02 0.338E-01 0.765E+01
   0.507E-04 0.136E+02 -.916E+03   0.158E-05 -.136E+02 0.908E+03   0.000E+00 0.129E-01 0.766E+01
   0.109E+02 0.210E+02 0.954E+03   -.109E+02 -.211E+02 -.946E+03   0.552E-01 0.953E-01 -.772E+01
   0.480E-04 0.214E+02 0.980E+03   0.565E-05 -.215E+02 -.972E+03   0.000E+00 0.449E-01 -.744E+01
   0.480E+02 0.480E+02 -.850E+03   -.483E+02 -.483E+02 0.842E+03   0.212E+00 0.212E+00 0.756E+01
   0.482E-04 0.528E+02 -.882E+03   0.710E-05 -.531E+02 0.874E+03   0.000E+00 0.272E+00 0.761E+01
   0.214E+02 -.338E-03 0.980E+03   -.215E+02 0.134E-04 -.972E+03   0.449E-01 -.169E-20 -.744E+01
   0.480E-04 -.214E+02 0.980E+03   0.565E-05 0.215E+02 -.972E+03   0.000E+00 -.449E-01 -.744E+01
   0.480E+02 -.480E+02 -.850E+03   -.483E+02 0.483E+02 0.842E+03   0.212E+00 -.212E+00 0.756E+01
   0.302E-04 -.411E-03 -.726E+03   0.355E-04 0.842E-04 0.719E+03   0.000E+00 0.000E+00 0.631E+01
   0.109E+02 -.210E+02 0.954E+03   -.109E+02 0.211E+02 -.946E+03   0.552E-01 -.953E-01 -.772E+01
   0.503E-04 -.176E+02 0.944E+03   0.185E-05 0.177E+02 -.936E+03   0.000E+00 -.921E-01 -.772E+01
[...]
   -.609E+01 0.609E+01 0.703E+03   0.610E+01 -.610E+01 -.707E+03   -.149E-01 0.149E-01 0.356E+01
   -.253E+01 0.253E+01 0.700E+03   0.254E+01 -.254E+01 -.704E+03   -.424E-02 0.424E-02 0.356E+01
   -.137E+02 0.102E+02 -.687E+03   0.137E+02 -.102E+02 0.691E+03   -.212E-01 0.169E-01 -.362E+01
   -.919E+01 0.411E+01 -.689E+03   0.920E+01 -.412E+01 0.693E+03   -.116E-01 0.407E-02 -.361E+01
   -.119E+02 0.473E+01 0.708E+03   0.119E+02 -.475E+01 -.712E+03   -.475E-01 0.254E-01 0.355E+01
   -.480E+01 0.460E+01 0.702E+03   0.481E+01 -.460E+01 -.706E+03   -.124E-01 0.101E-01 0.356E+01
   -.227E+02 -.156E-02 -.681E+03   0.227E+02 0.534E-05 0.686E+03   -.412E-01 0.508E-20 -.365E+01
   -.919E+01 -.411E+01 -.689E+03   0.920E+01 0.412E+01 0.693E+03   -.116E-01 -.407E-02 -.361E+01
   -.119E+02 -.473E+01 0.708E+03   0.119E+02 0.475E+01 -.712E+03   -.475E-01 -.254E-01 0.355E+01
   -.668E+01 -.155E-02 0.704E+03   0.669E+01 0.204E-05 -.708E+03   -.198E-01 -.339E-20 0.356E+01
   -.137E+02 -.102E+02 -.687E+03   0.137E+02 0.102E+02 0.691E+03   -.212E-01 -.169E-01 -.362E+01
   -.467E+01 -.561E+01 -.692E+03   0.467E+01 0.561E+01 0.696E+03   -.512E-02 -.545E-02 -.360E+01
   -.609E+01 -.609E+01 0.703E+03   0.610E+01 0.610E+01 -.707E+03   -.149E-01 -.149E-01 0.356E+01
   -.480E+01 -.460E+01 0.702E+03   0.481E+01 0.460E+01 -.706E+03   -.124E-01 -.101E-01 0.356E+01
   -.981E-02 -.190E+00 0.453E+01   0.106E-11 0.129E-11 -.443E-11   -.711E-16 0.919E-16 -.498E+01

 POSITION                                       TOTAL-FORCE (eV/Angst)
     10.56943     12.68331     16.48808        -0.000000      0.000000     -0.249829
     10.56943     12.68331     13.92383        -0.000000      0.000000      0.117086
      0.00000      0.00000      9.00000        -0.000000      0.000756      0.452154
      2.11389      2.11389      9.00000        -0.000756      0.000000      0.452154
      0.00000      2.11389     11.11389        -0.000000      0.000000     -0.446014
      2.11389      0.00000     11.11389        -0.000536      0.000536     -0.445543
      0.00000      4.22777      9.00000        -0.000000     -0.000756      0.452154
      2.11389      6.34166      9.00000        -0.001859     -0.001840      0.452668
      0.00000      6.34166     11.11389        -0.000000     -0.000667     -0.445250
      2.11389      4.22777     11.11389        -0.000536     -0.000536     -0.445543
      0.00000      8.45554      9.00000        -0.000000     -0.001324      0.452899
      2.11389     10.56943      9.00000        -0.005802     -0.001387      0.454030
      0.00000     10.56943     11.11389        -0.000000     -0.000447     -0.443845
      2.11389      8.45554     11.11389        -0.001667     -0.000920     -0.443489
      0.00000     12.68331      9.00000        -0.000000      0.000000      0.453437
      2.11389     14.79720      9.00000        -0.005802      0.001387      0.454030
      0.00000     14.79720     11.11389        -0.000000      0.000447     -0.443845
      2.11389     12.68331     11.11389        -0.002625      0.000000     -0.441752
      0.00000     16.91108      9.00000        -0.000000      0.001324      0.452899
      2.11389     19.02497      9.00000        -0.001859      0.001840      0.452668
      0.00000     19.02497     11.11389        -0.000000      0.000667     -0.445250
      2.11389     16.91108     11.11389        -0.001667      0.000920     -0.443489
      4.22777      0.00000      9.00000        -0.001840      0.001859      0.452668
      6.34166      2.11389      9.00000        -0.001324      0.000000      0.452899
      4.22777      2.11389     11.11389        -0.000667      0.000000     -0.445250
      6.34166      0.00000     11.11389        -0.000920      0.001667     -0.443489
      4.22777      4.22777      9.00000        -0.001840     -0.001859      0.452668
      6.34166      6.34166      9.00000        -0.005273     -0.007563      0.454576
      4.22777      6.34166     11.11389        -0.001743     -0.001743     -0.443037
      6.34166      4.22777     11.11389        -0.000920     -0.001667     -0.443489
      4.22777      8.45554      9.00000        -0.007563     -0.005273      0.454576
      6.34166     10.56943      9.00000        -0.026361     -0.017376      0.459192
      4.22777     10.56943     11.11389        -0.006906     -0.001117     -0.435615
      6.34166      8.45554     11.11389        -0.005180     -0.005180     -0.431266
      4.22777     12.68331      9.00000        -0.022826      0.000000      0.459582
      6.34166     14.79720      9.00000        -0.026361      0.017376      0.459192
      4.22777     14.79720     11.11389        -0.006906      0.001117     -0.435615
      6.34166     12.68331     11.11389        -0.075947      0.000000     -0.399195
      4.22777     16.91108      9.00000        -0.007563      0.005273      0.454576
      6.34166     19.02497      9.00000        -0.005273      0.007563      0.454576
      4.22777     19.02497     11.11389        -0.001743      0.001743     -0.443037
      6.34166     16.91108     11.11389        -0.005180      0.005180     -0.431266
      8.45554      0.00000      9.00000        -0.001387      0.005802      0.454030
     10.56943      2.11389      9.00000        -0.000000      0.000000      0.453437
      8.45554      2.11389     11.11389        -0.000447      0.000000     -0.443845
     10.56943      0.00000     11.11389        -0.000000      0.002625     -0.441752
      8.45554      4.22777      9.00000        -0.001387     -0.005802      0.454030
     10.56943      6.34166      9.00000        -0.000000     -0.022826      0.459582
      8.45554      6.34166     11.11389        -0.001117     -0.006906     -0.435615
     10.56943      4.22777     11.11389        -0.000000     -0.002625     -0.441752
      8.45554      8.45554      9.00000        -0.017376     -0.026361      0.459192
     10.56943     10.56943      9.00000        -0.000000     -0.008529      0.385966
      8.45554     10.56943     11.11389        -0.051911     -0.051911     -0.365128
     10.56943      8.45554     11.11389        -0.000000     -0.075947     -0.399195
      8.45554     12.68331      9.00000        -0.008529      0.000000      0.385966
     10.56943     14.79720      9.00000        -0.000000      0.008529      0.385966
      8.45554     14.79720     11.11389        -0.051911      0.051911     -0.365128
     10.56943     12.68331     11.11389        -0.000000      0.000000     -0.795134
      8.45554     16.91108      9.00000        -0.017376      0.026361      0.459192
     10.56943     19.02497      9.00000        -0.000000      0.022826      0.459582
[...]
     19.02497      6.34166     11.11389        -0.001389      0.001482      0.389878
     16.91108      6.34166      9.00000        -0.004067      0.004067     -0.398995
     19.02497      4.22777      9.00000        -0.001152      0.001152     -0.397889
     16.91108      8.45554     11.11389        -0.005879      0.004655      0.384850
     19.02497     10.56943     11.11389        -0.003239      0.001140      0.387030
     16.91108     10.56943      9.00000        -0.013001      0.006938     -0.402150
     19.02497      8.45554      9.00000        -0.003401      0.002764     -0.398893
     16.91108     12.68331     11.11389        -0.012073      0.000000      0.378165
     19.02497     14.79720     11.11389        -0.003239     -0.001140      0.387030
     16.91108     14.79720      9.00000        -0.013001     -0.006938     -0.402150
     19.02497     12.68331      9.00000        -0.005492      0.000000     -0.399920
     16.91108     16.91108     11.11389        -0.005879     -0.004655      0.384850
     19.02497     19.02497     11.11389        -0.001389     -0.001482      0.389878
     16.91108     19.02497      9.00000        -0.004067     -0.004067     -0.398995
     19.02497     16.91108      9.00000        -0.003401     -0.002764     -0.398893
    total drift:                               -0.009810     -0.189605     -0.445946

  FREE ENERGIE OF THE ION-ELECTRON SYSTEM (eV)
  free  energy   TOTEN  =     -1200.01611580 eV

  energy  without entropy=    -1200.01611580  energy(sigma->0) =    -1200.01611580