 vasp.6.3.0 20Jan22 (build Apr  1 2022 16:44:48) complex
 executed on        HPECrayEX_GCC date 2022.12.11  21:52:45

 INCAR:
   SYSTEM = MgO-rocksalt
   ISMEAR = 0
   SIGMA = 0.05
   EDIFF = 1E-6
   ALGO = ALL
   ISTART = 0
   IBRION = -1
   NSW = 0
   ISYM = 2
   DIPOL = 0.5 0.5 0.5
   IDIPOL = 3
   LDIPOL = .TRUE.
   METAGGA = M06L
   ENCUT = 520
   PREC = Accurate
   LASPH = .TRUE.
   LREAL = Auto
   ISPIN = 1
   NELM = 200
   NELMIN = 8
   NCORE = 4
   KPAR = 2
   LWAVE = .FALSE.
   LCHARG = .FALSE.

 POTCAR:    PAW_PBE Cu 22Jun2005
 POTCAR:    PAW_PBE Mg_pv 13Apr2007
 POTCAR:    PAW_PBE O 08Apr2002
 POTCAR:    PAW_PBE Cu 22Jun2005
   VRHFIN =Cu: d10 p1

   TITEL  = PAW_PBE Cu 22Jun2005
   POMASS =   63.546; ZVAL   =   11.000    mass and valenz
   ENMAX  =  295.446; ENMIN  =  221.585 eV

   TITEL  = PAW_PBE Mg_pv 13Apr2007
   POMASS =   24.305; ZVAL   =    8.000    mass and valenz
   ENMAX  =  403.929; ENMIN  =  302.947 eV

   TITEL  = PAW_PBE O 08Apr2002
   POMASS =   16.000; ZVAL   =    6.000    mass and valenz
   ENMAX  =  400.000; ENMIN  =  300.000 eV

 Optimization of the real space projectors (new method)

 maximal supplied QI-value         = 16.25
 optimisation between [QCUT,QGAM] = [ 11.54, 23.24] = [ 37.28,151.24] Ry
 Optimized for a Real-space Cutoff    1.53 Angstroem

   l    n(q)    QCUT    max X(q) W(low)/X(q) W(high)/X(q)  e(spline)
   2     10    11.539     4.610    0.96E-04    0.13E-03    0.19E-06
   2     10    11.539     8.522    0.16E-03    0.21E-03    0.28E-06
   0     11    11.539    51.609    0.45E-04    0.31E-04    0.11E-06
   0     11    11.539    27.747    0.39E-04    0.29E-04    0.10E-06
   1     10    11.539    20.408    0.70E-05    0.38E-04    0.18E-06
   1     10    11.539    13.425    0.66E-05    0.34E-04    0.17E-06
 Optimization of the real space projectors (new method)

[...]

   l    n(q)    QCUT    max X(q) W(low)/X(q) W(high)/X(q)  e(spline)
   1      8    11.527     2.974    0.44E-04    0.56E-04    0.12E-06
   1      8    11.527     4.279    0.12E-03    0.12E-03    0.26E-06
   0      9    11.527    16.381    0.46E-04    0.64E-04    0.78E-07
   0      9    11.527     5.611    0.26E-04    0.43E-04    0.55E-07
   2      8    11.527     4.652    0.22E-03    0.72E-04    0.47E-07
 Optimization of the real space projectors (new method)

 maximal supplied QI-value         = 24.76
 optimisation between [QCUT,QGAM] = [ 11.64, 23.27] = [ 37.91,151.63] Ry
 Optimized for a Real-space Cutoff    1.14 Angstroem

   l    n(q)    QCUT    max X(q) W(low)/X(q) W(high)/X(q)  e(spline)
   0      8    11.635    20.381    0.10E-03    0.33E-03    0.24E-06
   0      8    11.635    15.268    0.11E-03    0.35E-03    0.26E-06
   1      7    11.635     5.964    0.24E-03    0.31E-03    0.30E-06
   1      7    11.635     5.382    0.22E-03    0.25E-03    0.26E-06
  PAW_PBE Cu 22Jun2005                  :
  PAW_PBE Mg_pv 13Apr2007               :
  PAW_PBE O 08Apr2002                   :

 POSCAR: Cu Mg  O
  positions in direct lattice

 METAGGA = M06L     LMAXTAU =  6    LMIXTAU =  F

 ion  position               nearest neighbor table
   1  0.450  0.450  0.699-   2 2.23
   2  0.450  0.450  0.598-   1 2.23  53 2.59  54 2.59
   3  0.000  0.000  0.407- 105 2.11 106 2.11 121 2.11 186 2.11 103 2.11
   4  0.100  0.100  0.407- 105 2.11 106 2.11 110 2.11 125 2.11 104 2.11
   5  0.000  0.100  0.503- 103 2.11 104 2.11 107 2.11 184 2.11 105 2.11
   6  0.100  0.000  0.503- 103 2.11 104 2.11 120 2.11 123 2.11 106 2.11
   7  0.000  0.200  0.407- 109 2.11 105 2.11 110 2.11 190 2.11 107 2.11
   8  0.100  0.300  0.407- 110 2.11 109 2.11 114 2.11 129 2.11 108 2.11
   9  0.000  0.300  0.503- 107 2.11 108 2.11 111 2.11 188 2.11 109 2.11
  10  0.100  0.200  0.503- 108 2.11 107 2.11 104 2.11 127 2.11 110 2.11
  11  0.000  0.400  0.407- 109 2.11 113 2.11 114 2.11 194 2.11 111 2.11
  12  0.100  0.500  0.407- 113 2.11 114 2.11 118 2.11 133 2.11 112 2.11
  13  0.000  0.500  0.503- 111 2.11 112 2.11 115 2.11 192 2.11 113 2.11
  14  0.100  0.400  0.503- 108 2.11 111 2.11 112 2.11 131 2.11 114 2.11
  15  0.000  0.600  0.407- 113 2.11 117 2.11 118 2.11 198 2.11 115 2.11
  16  0.100  0.700  0.407- 122 2.11 118 2.11 117 2.11 137 2.11 116 2.11
  17  0.000  0.700  0.503- 119 2.11 116 2.11 115 2.11 196 2.11 117 2.11
  18  0.100  0.600  0.503- 112 2.11 115 2.11 116 2.11 135 2.11 118 2.11
  19  0.000  0.800  0.407- 117 2.11 121 2.11 122 2.11 202 2.11 119 2.11
  20  0.100  0.900  0.407- 106 2.11 121 2.11 122 2.11 141 2.11 120 2.11
  21  0.000  0.900  0.503- 103 2.11 119 2.11 120 2.11 200 2.11 121 2.11
  22  0.100  0.800  0.503- 116 2.11 119 2.11 120 2.11 139 2.11 122 2.11
  23  0.200  0.000  0.407- 126 2.11 125 2.11 106 2.11 141 2.11 123 2.11
  24  0.300  0.100  0.407- 125 2.11 126 2.11 130 2.11 145 2.11 124 2.11
  25  0.200  0.100  0.503- 124 2.11 123 2.11 104 2.11 127 2.11 125 2.11
  26  0.300  0.000  0.503- 123 2.11 124 2.11 140 2.11 143 2.11 126 2.11
  27  0.200  0.200  0.407- 129 2.11 130 2.11 110 2.11 125 2.11 127 2.11
  28  0.300  0.300  0.407- 129 2.11 130 2.11 134 2.11 149 2.11 128 2.11
  29  0.200  0.300  0.503- 127 2.11 128 2.11 108 2.11 131 2.11 129 2.11
  30  0.300  0.200  0.503- 127 2.11 128 2.11 124 2.11 147 2.11 130 2.11
  31  0.200  0.400  0.407- 134 2.11 129 2.11 133 2.11 114 2.11 131 2.11
  32  0.300  0.500  0.407- 133 2.11 134 2.11 138 2.11 153 2.11 132 2.11
  33  0.200  0.500  0.503- 132 2.11 131 2.11 112 2.11 135 2.11 133 2.11
  34  0.300  0.400  0.503- 131 2.11 128 2.11 132 2.11 151 2.11 134 2.11
  35  0.200  0.600  0.407- 138 2.11 133 2.11 137 2.11 118 2.11 135 2.11
  36  0.300  0.700  0.407- 137 2.11 142 2.11 138 2.11 157 2.11 136 2.11
  37  0.200  0.700  0.503- 136 2.11 139 2.11 116 2.11 135 2.11 137 2.11
  38  0.300  0.600  0.503- 135 2.11 132 2.11 136 2.11 155 2.11 138 2.11
  39  0.200  0.800  0.407- 137 2.11 142 2.11 141 2.11 122 2.11 139 2.11
  40  0.300  0.900  0.407- 141 2.11 126 2.11 142 2.11 161 2.11 140 2.11
  41  0.200  0.900  0.503- 140 2.11 123 2.11 139 2.11 120 2.11 141 2.11
  42  0.300  0.800  0.503- 136 2.11 139 2.11 140 2.11 159 2.11 142 2.11
  43  0.400  0.000  0.407- 126 2.11 145 2.11 146 2.11 161 2.11 143 2.11
  44  0.500  0.100  0.407- 145 2.11 146 2.11 150 2.11 165 2.11 144 2.11
  45  0.400  0.100  0.503- 124 2.11 143 2.11 144 2.11 147 2.11 145 2.11
  46  0.500  0.000  0.503- 143 2.11 144 2.11 160 2.11 163 2.11 146 2.11
  47  0.400  0.200  0.407- 149 2.11 145 2.11 130 2.11 150 2.11 147 2.11
  48  0.500  0.300  0.407- 150 2.11 149 2.11 154 2.11 169 2.11 148 2.11
  49  0.400  0.300  0.503- 147 2.11 128 2.11 148 2.11 151 2.11 149 2.11
  50  0.500  0.200  0.503- 148 2.11 147 2.11 144 2.11 167 2.11 150 2.11
  51  0.400  0.400  0.407- 134 2.11 149 2.11 153 2.11 154 2.11 151 2.11
  52  0.500  0.500  0.407- 153 2.11 154 2.11 158 2.11 173 2.11 152 2.11
  53  0.400  0.500  0.503- 132 2.11 151 2.11 152 2.11 155 2.11 153 2.11   2 2.59
  54  0.500  0.400  0.503- 148 2.11 151 2.11 152 2.11 171 2.11 154 2.11   2 2.59
  55  0.400  0.600  0.407- 138 2.11 153 2.11 157 2.11 158 2.11 155 2.11
  56  0.500  0.700  0.407- 162 2.11 158 2.11 157 2.11 177 2.11 156 2.11
  57  0.400  0.700  0.503- 159 2.11 155 2.11 156 2.11 136 2.11 157 2.11
  58  0.500  0.600  0.503- 152 2.11 155 2.11 156 2.11 175 2.11 158 2.11
  59  0.400  0.800  0.407- 157 2.11 142 2.11 161 2.11 162 2.11 159 2.11
  60  0.500  0.900  0.407- 146 2.11 161 2.11 162 2.11 181 2.11 160 2.11
[...]
 188  0.900  0.300  0.503-  90 2.11  89 2.11   9 2.11  94 2.11  88 2.11
 189  0.800  0.300  0.407-  68 2.11  87 2.11  88 2.11  91 2.11  89 2.11
 190  0.900  0.200  0.407-  88 2.11  84 2.11  87 2.11   7 2.11  90 2.11
 191  0.800  0.400  0.503-  74 2.11  89 2.11  93 2.11  94 2.11  91 2.11
 192  0.900  0.500  0.503-  13 2.11  93 2.11  94 2.11  98 2.11  92 2.11
 193  0.800  0.500  0.407-  72 2.11  91 2.11  92 2.11  95 2.11  93 2.11
 194  0.900  0.400  0.407-  11 2.11  88 2.11  91 2.11  92 2.11  94 2.11
 195  0.800  0.600  0.503-  78 2.11  93 2.11  97 2.11  98 2.11  95 2.11
 196  0.900  0.700  0.503- 102 2.11  97 2.11  98 2.11  17 2.11  96 2.11
 197  0.800  0.700  0.407-  76 2.11  99 2.11  96 2.11  95 2.11  97 2.11
 198  0.900  0.600  0.407-  15 2.11  92 2.11  95 2.11  96 2.11  98 2.11
 199  0.800  0.800  0.503-  82 2.11  97 2.11 101 2.11 102 2.11  99 2.11
 200  0.900  0.900  0.503-  21 2.11  86 2.11 101 2.11 102 2.11 100 2.11
 201  0.800  0.900  0.407-  80 2.11  83 2.11  99 2.11 100 2.11 101 2.11
 202  0.900  0.800  0.407-  96 2.11  19 2.11  99 2.11 100 2.11 102 2.11

  LATTYP: Found a simple tetragonal cell.
 ALAT       =    21.1388521970
 C/A-ratio  =     1.0461251639

  Lattice vectors:

 A1 = (  21.1388521970,   0.0000000000,   0.0000000000)
 A2 = (   0.0000000000,  21.1388521970,   0.0000000000)
 A3 = (   0.0000000000,   0.0000000000,  22.1138852197)

Analysis of symmetry for initial positions (statically):
 Subroutine PRICEL returns:
 Original cell was already a primitive cell.

 Routine SETGRP: Setting up the symmetry group for a
 simple tetragonal supercell.

 Subroutine GETGRP returns: Found  4 space group operations
 (whereof  2 operations were pure point group operations)
 out of a pool of 16 trial point group operations.

The static configuration has the point symmetry C_1h.
 The point group associated with its full space group is C_2v.

Analysis of symmetry for dynamics (positions and initial velocities):
 Subroutine PRICEL returns:
 Original cell was already a primitive cell.

 Routine SETGRP: Setting up the symmetry group for a
 simple tetragonal supercell.

 Subroutine GETGRP returns: Found  4 space group operations
 (whereof  2 operations were pure point group operations)
 out of a pool of 16 trial point group operations.

The dynamic configuration has the point symmetry C_1h.
 The point group associated with its full space group is C_2v.

 Subroutine INISYM returns: Found  4 space group operations
 (whereof  2 operations are pure point group operations),
 and found     1 'primitive' translations

                                     Primitive cell

  volume of cell :    9881.6133

  direct lattice vectors                    reciprocal lattice vectors
    21.138852197  0.000000000  0.000000000     0.047306258  0.000000000  0.000000000
     0.000000000 21.138852197  0.000000000     0.000000000  0.047306258  0.000000000
     0.000000000  0.000000000 22.113885220     0.000000000  0.000000000  0.045220457

  length of vectors
    21.138852197 21.138852197 22.113885220     0.047306258  0.047306258  0.045220457

  position of ions in fractional coordinates (direct lattice)
     0.449999988  0.450000018  0.698691433
     0.449999988  0.450000018  0.597977010
     0.000000000  0.000000000  0.406984115
     0.100000000  0.100000000  0.406984115
     0.000000000  0.100000000  0.502574971
     0.100000000  0.000000000  0.502574971
     0.000000000  0.200000000  0.406984115
     0.100000000  0.300000000  0.406984115
     0.000000000  0.300000000  0.502574971
     0.100000000  0.200000000  0.502574971
     0.000000000  0.400000000  0.406984115
     0.100000000  0.500000000  0.406984115
     0.000000000  0.500000000  0.502574971
     0.100000000  0.400000000  0.502574971
     0.000000000  0.600000000  0.406984115
[...]
     52     -44.6349      2.00000
     53     -44.6304      2.00000
     54     -44.6304      2.00000
     55     -44.6295      2.00000
     56     -44.6294      2.00000
     57     -44.6292      2.00000
     58     -44.6292      2.00000
     59     -44.6282      2.00000
     60     -44.6275      2.00000
[...]
    882      12.2049      0.00000
    883      12.5079      0.00000
    884      12.8477      0.00000
    885      13.2104      0.00000
    886      13.3107      0.00000
    887      13.6696      0.00000
    888      13.9767      0.00000
    889      14.0256      0.00000
    890      14.7196      0.00000
    891      14.7866      0.00000
    892      15.2732      0.00000
    893      16.2586      0.00000
    894      16.8774      0.00000
    895      17.1477      0.00000
    896      18.0408      0.00000

 soft charge-density along one line, spin component           1
         0         1         2         3         4         5         6         7         8         9
 total charge-density along one line

------------------------ aborting loop EDIFF was not reached (unconverged)  ----------------------------

  FORCE on cell =-STRESS in cart. coord.  units (eV):
  Direction    XX          YY          ZZ          XY          YZ          ZX
  Alpha Z  1354.41543  1354.41543  1354.41543
  Ewald  477360.44773477360.44773************   -13.54576    -0.00002     0.00002
  Hartree506597.67039506597.67035************    -3.59217    -0.00001     0.00001
  E(xc)   -8818.14145 -8816.84848 -8808.47263     0.40889    -0.03568    -0.00780
  Local  ************************************    15.75130     0.00002    -0.00002
  n-local -8693.36280 -8693.40594 -8836.08480    -0.83018     0.02145     0.02575
  augment  4240.45654  4239.82481  4212.72918     1.18139     0.00478     0.01292
  Kinetic 23033.59551 23033.56599 23240.25415    -0.46953     0.01372     0.01053
  Fock        0.00000     0.00000     0.00000     0.00000     0.00000     0.00000
  Total    -233.27978  -233.27978    12.51064    -1.09635     0.00000    -0.00000
  in kB     -37.82334   -37.82334     2.02844    -0.17776     0.00000    -0.00000

 VOLUME and BASIS-vectors are now :
  energy-cutoff  :      520.00
  volume of cell :     9881.61
      direct lattice vectors                 reciprocal lattice vectors
    21.138852197  0.000000000  0.000000000     0.047306258  0.000000000  0.000000000
     0.000000000 21.138852197  0.000000000     0.000000000  0.047306258  0.000000000
     0.000000000  0.000000000 22.113885220     0.000000000  0.000000000  0.045220457

  length of vectors
    21.138852197 21.138852197 22.113885220     0.047306258  0.047306258  0.045220457

 FORCES acting on ions:
    Electron-Ion                     Ewald-Force                    Non-Local-Force
   0.220E-04 -.966E-04 -.196E+04   0.441E-07 -.340E-07 0.195E+04   -.173E-17 0.000E+00 0.129E+02
   0.149E-04 -.874E-04 -.185E+04   0.798E-05 -.860E-05 0.186E+04   0.217E-18 0.000E+00 -.102E+02
   0.176E+01 0.176E+01 0.932E+03   -.176E+01 -.176E+01 -.923E+03   0.260E-02 0.260E-02 -.651E+01
   0.618E+01 0.618E+01 0.934E+03   -.623E+01 -.623E+01 -.925E+03   0.387E-01 0.387E-01 -.630E+01
   0.286E+01 0.582E+01 -.923E+03   -.287E+01 -.585E+01 0.914E+03   0.996E-02 0.288E-01 0.937E+01
   0.582E+01 0.286E+01 -.923E+03   -.585E+01 -.287E+01 0.914E+03   0.288E-01 0.996E-02 0.937E+01
   0.317E+01 0.614E+01 0.934E+03   -.320E+01 -.618E+01 -.925E+03   0.239E-01 0.323E-01 -.682E+01
   0.128E+02 0.756E+01 0.939E+03   -.129E+02 -.760E+01 -.930E+03   0.101E+00 0.260E-01 -.682E+01
   0.601E+01 0.671E+01 -.921E+03   -.606E+01 -.673E+01 0.912E+03   0.253E-01 0.114E-01 0.103E+02
   0.126E+02 0.113E+02 -.920E+03   -.127E+02 -.113E+02 0.911E+03   0.528E-01 0.304E-01 0.102E+02
   0.509E+01 0.209E+01 0.937E+03   -.516E+01 -.209E+01 -.928E+03   0.408E-01 0.295E-02 -.675E+01
   0.157E+02 -.309E+01 0.942E+03   -.158E+02 0.312E+01 -.932E+03   0.107E+00 -.174E-01 -.655E+01
   0.736E+01 -.270E+01 -.920E+03   -.739E+01 0.270E+01 0.911E+03   0.135E-01 0.342E-02 0.974E+01
   0.241E+02 0.448E+01 -.915E+03   -.242E+02 -.448E+01 0.906E+03   0.109E+00 0.312E-02 0.985E+01
   0.432E+01 -.527E+01 0.936E+03   -.434E+01 0.528E+01 -.927E+03   0.140E-01 -.353E-02 -.693E+01
   0.911E+01 -.843E+01 0.936E+03   -.916E+01 0.847E+01 -.927E+03   0.465E-01 -.214E-01 -.686E+01
   0.427E+01 -.770E+01 -.922E+03   -.428E+01 0.774E+01 0.913E+03   0.143E-01 -.176E-01 0.943E+01
   0.190E+02 -.106E+02 -.917E+03   -.190E+02 0.106E+02 0.908E+03   0.493E-01 -.105E-01 0.961E+01
   0.224E+01 -.471E+01 0.933E+03   -.226E+01 0.475E+01 -.924E+03   0.109E-01 -.206E-01 -.674E+01
   0.471E+01 -.224E+01 0.933E+03   -.475E+01 0.226E+01 -.924E+03   0.206E-01 -.109E-01 -.674E+01
   0.214E+01 -.214E+01 -.924E+03   -.215E+01 0.215E+01 0.915E+03   0.908E-02 -.908E-02 0.946E+01
   0.804E+01 -.804E+01 -.922E+03   -.808E+01 0.808E+01 0.913E+03   0.287E-01 -.287E-01 0.953E+01
   0.614E+01 0.317E+01 0.934E+03   -.618E+01 -.320E+01 -.925E+03   0.323E-01 0.239E-01 -.682E+01
   0.756E+01 0.128E+02 0.939E+03   -.760E+01 -.129E+02 -.930E+03   0.260E-01 0.101E+00 -.682E+01
   0.113E+02 0.126E+02 -.920E+03   -.113E+02 -.127E+02 0.911E+03   0.304E-01 0.528E-01 0.102E+02
   0.671E+01 0.601E+01 -.921E+03   -.673E+01 -.606E+01 0.912E+03   0.114E-01 0.253E-01 0.103E+02
   0.132E+02 0.132E+02 0.941E+03   -.134E+02 -.134E+02 -.932E+03   0.907E-01 0.907E-01 -.640E+01
   0.225E+02 0.225E+02 0.962E+03   -.228E+02 -.228E+02 -.953E+03   0.208E+00 0.208E+00 -.605E+01
   0.337E+02 0.213E+02 -.907E+03   -.340E+02 -.214E+02 0.898E+03   0.216E+00 0.346E-01 0.981E+01
   0.213E+02 0.337E+02 -.907E+03   -.214E+02 -.340E+02 0.898E+03   0.346E-01 0.216E+00 0.981E+01
   0.264E+02 0.575E+01 0.954E+03   -.268E+02 -.577E+01 -.944E+03   0.298E+00 0.991E-02 -.738E+01
   0.329E+02 -.110E+02 0.978E+03   -.333E+02 0.113E+02 -.969E+03   0.298E+00 -.169E+00 -.691E+01
   0.481E+02 -.101E+02 -.900E+03   -.484E+02 0.102E+02 0.890E+03   0.192E+00 -.313E-01 0.103E+02
   0.844E+02 0.289E+02 -.854E+03   -.861E+02 -.289E+02 0.845E+03   0.120E+01 -.688E-01 0.921E+01
   0.203E+02 -.130E+02 0.948E+03   -.205E+02 0.131E+02 -.939E+03   0.117E+00 -.776E-01 -.693E+01
   0.130E+02 -.203E+02 0.948E+03   -.131E+02 0.205E+02 -.939E+03   0.776E-01 -.117E+00 -.693E+01
   0.197E+02 -.197E+02 -.915E+03   -.198E+02 0.198E+02 0.906E+03   0.446E-01 -.446E-01 0.100E+02
   0.462E+02 -.462E+02 -.886E+03   -.464E+02 0.464E+02 0.877E+03   0.128E+00 -.128E+00 0.913E+01
   0.842E+01 -.911E+01 0.936E+03   -.847E+01 0.916E+01 -.927E+03   0.214E-01 -.465E-01 -.686E+01
   0.527E+01 -.432E+01 0.936E+03   -.528E+01 0.434E+01 -.927E+03   0.353E-02 -.140E-01 -.693E+01
   0.770E+01 -.427E+01 -.922E+03   -.774E+01 0.428E+01 0.913E+03   0.176E-01 -.143E-01 0.943E+01
   0.106E+02 -.190E+02 -.917E+03   -.106E+02 0.190E+02 0.908E+03   0.105E-01 -.493E-01 0.961E+01
   0.209E+01 0.509E+01 0.937E+03   -.209E+01 -.516E+01 -.928E+03   0.295E-02 0.408E-01 -.675E+01
   -.309E+01 0.157E+02 0.942E+03   0.312E+01 -.158E+02 -.932E+03   -.174E-01 0.107E+00 -.655E+01
   0.448E+01 0.241E+02 -.915E+03   -.448E+01 -.242E+02 0.906E+03   0.312E-02 0.109E+00 0.985E+01
   -.270E+01 0.736E+01 -.920E+03   0.270E+01 -.739E+01 0.911E+03   0.342E-02 0.135E-01 0.974E+01
   0.575E+01 0.264E+02 0.954E+03   -.577E+01 -.268E+02 -.944E+03   0.991E-02 0.298E+00 -.738E+01
   -.110E+02 0.329E+02 0.978E+03   0.113E+02 -.333E+02 -.969E+03   -.169E+00 0.298E+00 -.691E+01
   0.289E+02 0.844E+02 -.854E+03   -.289E+02 -.861E+02 0.845E+03   -.688E-01 0.120E+01 0.921E+01
   -.101E+02 0.481E+02 -.900E+03   0.102E+02 -.484E+02 0.890E+03   -.313E-01 0.192E+00 0.103E+02
   0.186E+02 0.186E+02 0.101E+04   -.186E+02 -.186E+02 -.100E+04   0.329E-01 0.329E-01 -.597E+01
   -.186E+02 -.186E+02 0.101E+04   0.186E+02 0.186E+02 -.100E+04   -.329E-01 -.329E-01 -.597E+01
   0.886E+02 -.886E+02 -.718E+03   -.903E+02 0.903E+02 0.710E+03   0.944E+00 -.944E+00 0.747E+01
   -.886E+02 0.886E+02 -.718E+03   0.903E+02 -.903E+02 0.710E+03   -.944E+00 0.944E+00 0.747E+01
   0.110E+02 -.329E+02 0.978E+03   -.113E+02 0.333E+02 -.969E+03   0.169E+00 -.298E+00 -.691E+01
   -.575E+01 -.264E+02 0.954E+03   0.577E+01 0.268E+02 -.944E+03   -.991E-02 -.298E+00 -.738E+01
   0.101E+02 -.481E+02 -.900E+03   -.102E+02 0.484E+02 0.890E+03   0.313E-01 -.192E+00 0.103E+02
   -.289E+02 -.844E+02 -.854E+03   0.289E+02 0.861E+02 0.845E+03   0.688E-01 -.120E+01 0.921E+01
   0.309E+01 -.157E+02 0.942E+03   -.312E+01 0.158E+02 -.932E+03   0.174E-01 -.107E+00 -.655E+01
   -.209E+01 -.509E+01 0.937E+03   0.209E+01 0.516E+01 -.928E+03   -.295E-02 -.408E-01 -.675E+01
[...]
   -.964E+01 0.566E+01 0.706E+03   0.970E+01 -.570E+01 -.709E+03   -.586E-01 0.285E-01 0.362E+01
   -.239E+01 0.459E+01 0.702E+03   0.240E+01 -.464E+01 -.705E+03   -.109E-01 0.170E-01 0.346E+01
   -.181E+02 0.333E+01 -.687E+03   0.182E+02 -.336E+01 0.691E+03   -.694E-01 0.163E-01 -.295E+01
   -.549E+01 -.206E+01 -.691E+03   0.554E+01 0.202E+01 0.694E+03   -.273E-01 0.449E-02 -.296E+01
   -.118E+02 -.232E+01 0.707E+03   0.119E+02 0.234E+01 -.711E+03   -.951E-01 -.327E-02 0.359E+01
   -.383E+01 0.157E+01 0.704E+03   0.387E+01 -.157E+01 -.707E+03   -.208E-01 0.172E-02 0.360E+01
   -.142E+02 -.792E+01 -.689E+03   0.143E+02 0.796E+01 0.692E+03   -.759E-01 -.209E-01 -.294E+01
   -.318E+01 -.574E+01 -.693E+03   0.321E+01 0.581E+01 0.696E+03   -.180E-01 -.240E-01 -.294E+01
   -.683E+01 -.631E+01 0.704E+03   0.687E+01 0.635E+01 -.707E+03   -.579E-01 -.416E-01 0.369E+01
   -.323E+01 -.396E+01 0.703E+03   0.325E+01 0.396E+01 -.707E+03   -.263E-01 -.142E-01 0.366E+01
   -.599E+01 -.599E+01 -.693E+03   0.606E+01 0.606E+01 0.696E+03   -.323E-01 -.323E-01 -.287E+01
   -.160E+01 -.160E+01 -.694E+03   0.161E+01 0.161E+01 0.698E+03   -.117E-01 -.117E-01 -.287E+01
   -.353E+01 -.167E+01 0.701E+03   0.356E+01 0.169E+01 -.704E+03   -.928E-02 -.689E-02 0.359E+01
   -.167E+01 -.353E+01 0.701E+03   0.169E+01 0.356E+01 -.704E+03   -.689E-02 -.928E-02 0.359E+01
   -.344E-01 0.199E-01 -.875E+02   0.298E-12 0.127E-11 0.114E-10   -.153E-15 0.180E-15 0.184E+03

 POSITION                                       TOTAL-FORCE (eV/Angst)
      9.51248      9.51248     15.45078        -0.000000      0.000000      0.346584
      9.51248      9.51248     13.22359        -0.000000      0.000000     -0.151634
      0.00000      0.00000      9.00000        -0.006193     -0.006193      1.695585
      2.11389      2.11389      9.00000        -0.013645     -0.013645      1.950780
      0.00000      2.11389     11.11389         0.002307      0.000879     -0.619688
      2.11389      0.00000     11.11389         0.000879      0.002307     -0.619688
      0.00000      4.22777      9.00000        -0.004825     -0.014569      1.283574
      2.11389      6.34166      9.00000        -0.021295     -0.026224      1.164153
      0.00000      6.34166     11.11389        -0.007975     -0.014623     -2.435442
      2.11389      4.22777     11.11389        -0.011306     -0.015540     -1.403091
      0.00000      8.45554      9.00000        -0.017851     -0.000256      1.210858
      2.11389     10.56943      9.00000        -0.046892      0.011370      1.714299
      0.00000     10.56943     11.11389        -0.023097     -0.020474     -1.272534
      2.11389      8.45554     11.11389        -0.047304      0.007625     -0.964396
      0.00000     12.68331      9.00000        -0.003346      0.007830      1.191388
      2.11389     14.79720      9.00000        -0.012201      0.016472      1.251238
      0.00000     14.79720     11.11389        -0.005301      0.020536     -1.362078
      2.11389     12.68331     11.11389        -0.025417      0.015279     -1.021364
      0.00000     16.91108      9.00000        -0.021431      0.016479      1.356667
      2.11389     19.02497      9.00000        -0.016479      0.021431      1.356667
      0.00000     19.02497     11.11389         0.003541     -0.003541     -1.113863
      2.11389     16.91108     11.11389        -0.014537      0.014537     -1.157589
      4.22777      0.00000      9.00000        -0.014569     -0.004825      1.283574
      6.34166      2.11389      9.00000        -0.026224     -0.021295      1.164153
      4.22777      2.11389     11.11389        -0.015540     -0.011306     -1.403091
      6.34166      0.00000     11.11389        -0.014623     -0.007975     -2.435442
      4.22777      4.22777      9.00000        -0.026216     -0.026216      1.735100
      6.34166      6.34166      9.00000        -0.105895     -0.105895      2.147240
      4.22777      6.34166     11.11389        -0.090266     -0.036423     -0.845316
      6.34166      4.22777     11.11389        -0.036423     -0.090266     -0.845316
      4.22777      8.45554      9.00000        -0.114542     -0.011804      0.934088
      6.34166     10.56943      9.00000        -0.141036      0.086571      1.531937
      4.22777     10.56943     11.11389        -0.069063      0.046296     -1.686970
      6.34166      8.45554     11.11389        -0.465451     -0.014818     -0.250690
      4.22777     12.68331      9.00000        -0.046963      0.039872      1.379546
      6.34166     14.79720      9.00000        -0.039872      0.046963      1.379546
      4.22777     14.79720     11.11389         0.010548     -0.010548     -0.490342
      6.34166     12.68331     11.11389        -0.091797      0.091797     -0.976268
      4.22777     16.91108      9.00000        -0.016472      0.012201      1.251238
      6.34166     19.02497      9.00000        -0.007830      0.003346      1.191388
      4.22777     19.02497     11.11389        -0.020536      0.005301     -1.362078
      6.34166     16.91108     11.11389        -0.015279      0.025417     -1.021364
      8.45554      0.00000      9.00000        -0.000256     -0.017851      1.210858
     10.56943      2.11389      9.00000         0.011370     -0.046892      1.714299
      8.45554      2.11389     11.11389         0.007625     -0.047304     -0.964396
     10.56943      0.00000     11.11389        -0.020474     -0.023097     -1.272534
      8.45554      4.22777      9.00000        -0.011804     -0.114542      0.934088
     10.56943      6.34166      9.00000         0.086571     -0.141036      1.531937
      8.45554      6.34166     11.11389        -0.014818     -0.465451     -0.250690
     10.56943      4.22777     11.11389         0.046296     -0.069063     -1.686970
      8.45554      8.45554      9.00000        -0.025908     -0.025908      1.060737
     10.56943     10.56943      9.00000         0.025908      0.025908      1.060737
      8.45554     10.56943     11.11389        -0.749675      0.749675     -1.204142
     10.56943      8.45554     11.11389         0.749675     -0.749675     -1.204142
      8.45554     12.68331      9.00000        -0.086571      0.141036      1.531937
     10.56943     14.79720      9.00000         0.011804      0.114542      0.934088
      8.45554     14.79720     11.11389        -0.046296      0.069063     -1.686970
     10.56943     12.68331     11.11389         0.014818      0.465451     -0.250690
      8.45554     16.91108      9.00000        -0.011370      0.046892      1.714299
     10.56943     19.02497      9.00000         0.000256      0.017851      1.210858
[...]
     19.02497      6.34166     11.11389        -0.014474      0.004934     -0.018291
     16.91108      6.34166      9.00000         0.012974     -0.014740     -0.177062
     19.02497      4.22777      9.00000        -0.002215     -0.025329     -0.366759
     16.91108      8.45554     11.11389         0.041333     -0.010051     -0.003629
     19.02497     10.56943     11.11389         0.025405     -0.031918     -0.031335
     16.91108     10.56943      9.00000        -0.006279      0.007155     -0.333378
     19.02497      8.45554      9.00000         0.019172     -0.001182     -0.183974
     16.91108     12.68331     11.11389        -0.022763      0.019922     -0.005637
     19.02497     14.79720     11.11389         0.010994      0.044957      0.004844
     16.91108     14.79720      9.00000        -0.016543     -0.008866     -0.111866
     19.02497     12.68331      9.00000        -0.002216     -0.011178     -0.202616
     16.91108     16.91108     11.11389         0.029349      0.029349      0.038542
     19.02497     19.02497     11.11389         0.005149      0.005149      0.044849
     16.91108     19.02497      9.00000         0.022268      0.012782     -0.244220
     19.02497     16.91108      9.00000         0.012782      0.022268     -0.244220
    total drift:                               -0.034364      0.019902     96.826153

  FREE ENERGIE OF THE ION-ELECTRON SYSTEM (eV)
  free  energy   TOTEN  =     -1672.41806933 eV

  energy  without entropy=    -1672.41238313  energy(sigma->0) =    -1672.41522623