 vasp.6.4.0 14Feb23 (build Dec 05 2023 14:15:48) complex

 executed on             LinuxIFC date 2023.12.11  11:09:55

 INCAR:
   SYSTEM = MgO-rocksalt
   ISMEAR = 0
   SIGMA = 0.05
   EDIFF = 1E-4
   ALGO = ALL
   ISTART = 0
   IBRION = -1
   NSW = 0
   ISYM = -1
   DIPOL = 0.5 0.5 0.5
   IDIPOL = 3
   LDIPOL = .TRUE.
   METAGGA = TPSS
   ENCUT = 520
   PREC = Accurate
   LASPH = .TRUE.
   LREAL = Auto
   ISPIN = 1
   NELM = 2000
   NELMIN = 8
   NCORE = 16
   LWAVE = .FALSE.
   LCHARG = .FALSE.

 POTCAR:    PAW_PBE Cu 22Jun2005
 POTCAR:    PAW_PBE Mg_pv 13Apr2007
 POTCAR:    PAW_PBE O 08Apr2002
 POTCAR:    PAW_PBE Cu 22Jun2005
   VRHFIN =Cu: d10 p1

   TITEL  = PAW_PBE Cu 22Jun2005
   POMASS =   63.546; ZVAL   =   11.000    mass and valenz
   ENMAX  =  295.446; ENMIN  =  221.585 eV

   TITEL  = PAW_PBE Mg_pv 13Apr2007
   POMASS =   24.305; ZVAL   =    8.000    mass and valenz
   ENMAX  =  403.929; ENMIN  =  302.947 eV

   TITEL  = PAW_PBE O 08Apr2002
   POMASS =   16.000; ZVAL   =    6.000    mass and valenz
   ENMAX  =  400.000; ENMIN  =  300.000 eV

 Optimization of the real space projectors (new method)

 maximal supplied QI-value         = 16.25
 optimisation between [QCUT,QGAM] = [ 11.54, 23.24] = [ 37.28,151.24] Ry
 Optimized for a Real-space Cutoff    1.53 Angstroem

   l    n(q)    QCUT    max X(q) W(low)/X(q) W(high)/X(q)  e(spline)
   2     10    11.539     4.610    0.96E-04    0.13E-03    0.19E-06
   2     10    11.539     8.522    0.16E-03    0.21E-03    0.28E-06
   0     11    11.539    51.609    0.45E-04    0.31E-04    0.11E-06
   0     11    11.539    27.747    0.39E-04    0.29E-04    0.10E-06
   1     10    11.539    20.408    0.70E-05    0.38E-04    0.18E-06
   1     10    11.539    13.425    0.66E-05    0.34E-04    0.17E-06
 Optimization of the real space projectors (new method)

[...]

   l    n(q)    QCUT    max X(q) W(low)/X(q) W(high)/X(q)  e(spline)
   1      8    11.527     2.974    0.44E-04    0.56E-04    0.12E-06
   1      8    11.527     4.279    0.12E-03    0.12E-03    0.26E-06
   0      9    11.527    16.381    0.46E-04    0.64E-04    0.78E-07
   0      9    11.527     5.611    0.26E-04    0.43E-04    0.55E-07
   2      8    11.527     4.652    0.22E-03    0.72E-04    0.47E-07
 Optimization of the real space projectors (new method)

 maximal supplied QI-value         = 24.76
 optimisation between [QCUT,QGAM] = [ 11.64, 23.27] = [ 37.91,151.63] Ry
 Optimized for a Real-space Cutoff    1.14 Angstroem

   l    n(q)    QCUT    max X(q) W(low)/X(q) W(high)/X(q)  e(spline)
   0      8    11.635    20.381    0.10E-03    0.33E-03    0.24E-06
   0      8    11.635    15.268    0.11E-03    0.35E-03    0.26E-06
   1      7    11.635     5.964    0.24E-03    0.31E-03    0.30E-06
   1      7    11.635     5.382    0.22E-03    0.25E-03    0.26E-06
  PAW_PBE Cu 22Jun2005                  :
  PAW_PBE Mg_pv 13Apr2007               :
  PAW_PBE O 08Apr2002                   :

 POSCAR: Cu Mg  O
  positions in direct lattice
  velocities in cartesian coordinates

 METAGGA = TPSS                                        LMAXTAU =  6    LMIXTAU =  F

 ion  position               nearest neighbor table
   1  0.398  0.602  0.598- 157 2.11   2 2.32
   2  0.321  0.679  0.599- 138 2.22   1 2.32
   3  0.579  0.421  0.599- 173 2.22   4 2.32
   4  0.502  0.498  0.598- 154 2.11   3 2.32
   5  0.000  0.000  0.407- 107 2.11 108 2.11 123 2.11 188 2.11 105 2.11
   6  0.100  0.100  0.407- 107 2.11 108 2.11 112 2.11 127 2.11 106 2.11
   7  0.000  0.100  0.503- 105 2.11 106 2.11 109 2.11 186 2.11 107 2.11
   8  0.100  0.000  0.503- 105 2.11 106 2.11 122 2.11 125 2.11 108 2.11
   9  0.000  0.200  0.407- 111 2.11 107 2.11 112 2.11 192 2.11 109 2.11
  10  0.100  0.300  0.407- 112 2.11 111 2.11 116 2.11 131 2.11 110 2.11
  11  0.000  0.300  0.503- 109 2.11 110 2.11 113 2.11 190 2.11 111 2.11
  12  0.100  0.200  0.503- 110 2.11 109 2.11 106 2.11 129 2.11 112 2.11
  13  0.000  0.400  0.407- 111 2.11 115 2.11 116 2.11 196 2.11 113 2.11
  14  0.100  0.500  0.407- 115 2.11 116 2.11 120 2.11 135 2.11 114 2.11
  15  0.000  0.500  0.503- 113 2.11 114 2.11 117 2.11 194 2.11 115 2.11
  16  0.100  0.400  0.503- 110 2.11 113 2.11 114 2.11 133 2.11 116 2.11
  17  0.000  0.600  0.407- 115 2.11 119 2.11 120 2.11 200 2.11 117 2.11
  18  0.100  0.700  0.407- 124 2.11 120 2.11 119 2.11 139 2.11 118 2.11
  19  0.000  0.700  0.503- 121 2.11 118 2.11 117 2.11 198 2.11 119 2.11
  20  0.100  0.600  0.503- 114 2.11 117 2.11 118 2.11 137 2.11 120 2.11
  21  0.000  0.800  0.407- 119 2.11 123 2.11 124 2.11 204 2.11 121 2.11
  22  0.100  0.900  0.407- 108 2.11 123 2.11 124 2.11 143 2.11 122 2.11
  23  0.000  0.900  0.503- 105 2.11 121 2.11 122 2.11 202 2.11 123 2.11
  24  0.100  0.800  0.503- 118 2.11 121 2.11 122 2.11 141 2.11 124 2.11
  25  0.200  0.000  0.407- 128 2.11 127 2.11 108 2.11 143 2.11 125 2.11
  26  0.300  0.100  0.407- 127 2.11 128 2.11 132 2.11 147 2.11 126 2.11
  27  0.200  0.100  0.503- 126 2.11 125 2.11 106 2.11 129 2.11 127 2.11
  28  0.300  0.000  0.503- 125 2.11 126 2.11 142 2.11 145 2.11 128 2.11
  29  0.200  0.200  0.407- 131 2.11 132 2.11 112 2.11 127 2.11 129 2.11
  30  0.300  0.300  0.407- 131 2.11 132 2.11 136 2.11 151 2.11 130 2.11
  31  0.200  0.300  0.503- 129 2.11 130 2.11 110 2.11 133 2.11 131 2.11
  32  0.300  0.200  0.503- 129 2.11 130 2.11 126 2.11 149 2.11 132 2.11
  33  0.200  0.400  0.407- 136 2.11 131 2.11 135 2.11 116 2.11 133 2.11
  34  0.300  0.500  0.407- 135 2.11 136 2.11 140 2.11 155 2.11 134 2.11
  35  0.200  0.500  0.503- 134 2.11 133 2.11 114 2.11 137 2.11 135 2.11
  36  0.300  0.400  0.503- 133 2.11 130 2.11 134 2.11 153 2.11 136 2.11
  37  0.200  0.600  0.407- 140 2.11 135 2.11 139 2.11 120 2.11 137 2.11
  38  0.300  0.700  0.407- 139 2.11 144 2.11 140 2.11 159 2.11 138 2.11
  39  0.200  0.700  0.503- 138 2.11 141 2.11 118 2.11 137 2.11 139 2.11
  40  0.300  0.600  0.503- 137 2.11 134 2.11 138 2.11 157 2.11 140 2.11
  41  0.200  0.800  0.407- 139 2.11 144 2.11 143 2.11 124 2.11 141 2.11
  42  0.300  0.900  0.407- 143 2.11 128 2.11 144 2.11 163 2.11 142 2.11
  43  0.200  0.900  0.503- 142 2.11 125 2.11 141 2.11 122 2.11 143 2.11
  44  0.300  0.800  0.503- 138 2.11 141 2.11 142 2.11 161 2.11 144 2.11
  45  0.400  0.000  0.407- 128 2.11 147 2.11 148 2.11 163 2.11 145 2.11
  46  0.500  0.100  0.407- 147 2.11 148 2.11 152 2.11 167 2.11 146 2.11
  47  0.400  0.100  0.503- 126 2.11 145 2.11 146 2.11 149 2.11 147 2.11
  48  0.500  0.000  0.503- 145 2.11 146 2.11 162 2.11 165 2.11 148 2.11
  49  0.400  0.200  0.407- 151 2.11 147 2.11 132 2.11 152 2.11 149 2.11
  50  0.500  0.300  0.407- 152 2.11 151 2.11 156 2.11 171 2.11 150 2.11
  51  0.400  0.300  0.503- 149 2.11 130 2.11 150 2.11 153 2.11 151 2.11
  52  0.500  0.200  0.503- 150 2.11 149 2.11 146 2.11 169 2.11 152 2.11
  53  0.400  0.400  0.407- 136 2.11 151 2.11 155 2.11 156 2.11 153 2.11
  54  0.500  0.500  0.407- 155 2.11 156 2.11 160 2.11 175 2.11 154 2.11
  55  0.400  0.500  0.503- 134 2.11 153 2.11 154 2.11 157 2.11 155 2.11
  56  0.500  0.400  0.503- 150 2.11 153 2.11 154 2.11 173 2.11 156 2.11
  57  0.400  0.600  0.407- 140 2.11 155 2.11 159 2.11 160 2.11 157 2.11
  58  0.500  0.700  0.407- 164 2.11 160 2.11 159 2.11 179 2.11 158 2.11
  59  0.400  0.700  0.503- 161 2.11 157 2.11 158 2.11 138 2.11 159 2.11
  60  0.500  0.600  0.503- 154 2.11 157 2.11 158 2.11 177 2.11 160 2.11
[...]
 190  0.900  0.300  0.503-  92 2.11  91 2.11  11 2.11  96 2.11  90 2.11
 191  0.800  0.300  0.407-  70 2.11  89 2.11  90 2.11  93 2.11  91 2.11
 192  0.900  0.200  0.407-  90 2.11  86 2.11  89 2.11   9 2.11  92 2.11
 193  0.800  0.400  0.503-  76 2.11  91 2.11  95 2.11  96 2.11  93 2.11
 194  0.900  0.500  0.503-  15 2.11  95 2.11  96 2.11 100 2.11  94 2.11
 195  0.800  0.500  0.407-  74 2.11  93 2.11  94 2.11  97 2.11  95 2.11
 196  0.900  0.400  0.407-  13 2.11  90 2.11  93 2.11  94 2.11  96 2.11
 197  0.800  0.600  0.503-  80 2.11  95 2.11  99 2.11 100 2.11  97 2.11
 198  0.900  0.700  0.503- 104 2.11  99 2.11 100 2.11  19 2.11  98 2.11
 199  0.800  0.700  0.407-  78 2.11 101 2.11  98 2.11  97 2.11  99 2.11
 200  0.900  0.600  0.407-  17 2.11  94 2.11  97 2.11  98 2.11 100 2.11
 201  0.800  0.800  0.503-  84 2.11  99 2.11 103 2.11 104 2.11 101 2.11
 202  0.900  0.900  0.503-  23 2.11  88 2.11 103 2.11 104 2.11 102 2.11
 203  0.800  0.900  0.407-  82 2.11  85 2.11 101 2.11 102 2.11 103 2.11
 204  0.900  0.800  0.407-  98 2.11  21 2.11 101 2.11 102 2.11 104 2.11

IMPORTANT INFORMATION: All symmetrisations will be switched off!
NOSYMM: (Re-)initialisation of all symmetry stuff for point group C_1.

                                     Primitive cell

  volume of cell :    9881.6133

  direct lattice vectors                    reciprocal lattice vectors
    21.138852197  0.000000000  0.000000000     0.047306258  0.000000000  0.000000000
     0.000000000 21.138852197  0.000000000     0.000000000  0.047306258  0.000000000
     0.000000000  0.000000000 22.113885220     0.000000000  0.000000000  0.045220457

  length of vectors
    21.138852197 21.138852197 22.113885220     0.047306258  0.047306258  0.045220457

  position of ions in fractional coordinates (direct lattice)
     0.398329241  0.601718395  0.597737471
     0.320617240  0.679428851  0.599224153
     0.579428377  0.420617713  0.599224153
     0.501717922  0.498329241  0.597737471
     0.000000000  0.000000000  0.406984115
     0.100000000  0.100000000  0.406984115
     0.000000000  0.100000000  0.502574971
     0.100000000  0.000000000  0.502574971
     0.000000000  0.200000000  0.406984115
     0.100000000  0.300000000  0.406984115
     0.000000000  0.300000000  0.502574971
     0.100000000  0.200000000  0.502574971
     0.000000000  0.400000000  0.406984115
     0.100000000  0.500000000  0.406984115
     0.000000000  0.500000000  0.502574971
     0.100000000  0.400000000  0.502574971
     0.000000000  0.600000000  0.406984115
     0.100000000  0.700000000  0.406984115
     0.000000000  0.700000000  0.502574971
     0.100000000  0.600000000  0.502574971
     0.000000000  0.800000000  0.406984115
     0.100000000  0.900000000  0.406984115
     0.000000000  0.900000000  0.502574971
     0.100000000  0.800000000  0.502574971
     0.200000000  0.000000000  0.406984115
     0.300000000  0.100000000  0.406984115
     0.200000000  0.100000000  0.502574971
     0.300000000  0.000000000  0.502574971
     0.200000000  0.200000000  0.406984115
     0.300000000  0.300000000  0.406984115
     0.200000000  0.300000000  0.502574971
     0.300000000  0.200000000  0.502574971
     0.200000000  0.400000000  0.406984115
     0.300000000  0.500000000  0.406984115
     0.200000000  0.500000000  0.502574971
     0.300000000  0.400000000  0.502574971
     0.200000000  0.600000000  0.406984115
     0.300000000  0.700000000  0.406984115
     0.200000000  0.700000000  0.502574971
     0.300000000  0.600000000  0.502574971
     0.200000000  0.800000000  0.406984115
     0.300000000  0.900000000  0.406984115
     0.200000000  0.900000000  0.502574971
     0.300000000  0.800000000  0.502574971
     0.400000000  0.000000000  0.406984115
     0.500000000  0.100000000  0.406984115
[...]
     52     -43.4166      2.00000
     53     -43.4148      2.00000
     54     -43.4142      2.00000
     55     -43.4125      2.00000
     56     -43.4109      2.00000
     57     -43.4074      2.00000
     58     -43.4072      2.00000
     59     -43.4066      2.00000
     60     -43.4054      2.00000
[...]
    882       4.4343      0.00000
    883       4.4707      0.00000
    884       4.4767      0.00000
    885       4.5153      0.00000
    886       4.5283      0.00000
    887       4.5579      0.00000
    888       4.5828      0.00000
    889       4.5927      0.00000
    890       4.6114      0.00000
    891       4.6307      0.00000
    892       4.6585      0.00000
    893       4.7168      0.00000
    894       4.7457      0.00000
    895       4.8297      0.00000
    896       4.8881      0.00000

 soft charge-density along one line, spin component           1
         0         1         2         3         4         5         6         7         8         9
 total charge-density along one line

------------------------ aborting loop because EDIFF is reached ----------------------------------------

  FORCE on cell =-STRESS in cart. coord.  units (eV):
  Direction    XX          YY          ZZ          XY          YZ          ZX
  Alpha Z  1394.80054  1394.80054  1394.80054
  Ewald  488949.61640488949.61538************ -1381.09674     0.00920     0.00911
  Hartree518669.77546518669.77507************ -1166.19424     0.00976     0.00654
  E(xc)   -8385.21076 -8385.21076 -8410.16541    -0.28925     0.00005     0.00011
  Local  ************************************  2542.20831    -0.01891    -0.01528
  n-local -9050.14314 -9050.14287 -9177.45211     0.34576    -0.00217    -0.00180
  augment  4217.77128  4217.77145  4163.80581     2.45385     0.00044     0.00074
  Kinetic 23079.62089 23079.62039 23323.19845     3.34401    -0.00237    -0.00119
  Fock        0.00000     0.00000     0.00000     0.00000     0.00000     0.00000
  Total    -163.86710  -163.86702     8.08567     0.77168    -0.00400    -0.00178
  in kB     -26.56896   -26.56894     1.31099     0.12512    -0.00065    -0.00029

 VOLUME and BASIS-vectors are now :
  energy-cutoff  :      520.00
  volume of cell :     9881.61
      direct lattice vectors                 reciprocal lattice vectors
    21.138852197  0.000000000  0.000000000     0.047306258  0.000000000  0.000000000
     0.000000000 21.138852197  0.000000000     0.000000000  0.047306258  0.000000000
     0.000000000  0.000000000 22.113885220     0.000000000  0.000000000  0.045220457

  length of vectors
    21.138852197 21.138852197 22.113885220     0.047306258  0.047306258  0.045220457

 FORCES acting on ions:
    Electron-Ion                     Ewald-Force                    Non-Local-Force
   -.649E+02 0.649E+02 -.222E+04   0.602E+02 -.602E+02 0.222E+04   0.463E+01 -.463E+01 -.171E+01
   0.287E+03 -.287E+03 -.222E+04   -.281E+03 0.281E+03 0.222E+04   -.642E+01 0.642E+01 -.161E+01
   -.287E+03 0.287E+03 -.222E+04   0.281E+03 -.281E+03 0.222E+04   0.642E+01 -.642E+01 -.161E+01
   0.649E+02 -.649E+02 -.222E+04   -.602E+02 0.602E+02 0.222E+04   -.464E+01 0.464E+01 -.171E+01
   0.519E+01 -.519E+01 0.938E+03   -.521E+01 0.522E+01 -.930E+03   0.199E-01 -.199E-01 -.795E+01
   0.962E+01 0.175E+01 0.939E+03   -.963E+01 -.171E+01 -.931E+03   0.573E-02 -.254E-01 -.796E+01
   0.326E+01 0.326E+01 -.920E+03   -.325E+01 -.325E+01 0.912E+03   -.904E-02 -.911E-02 0.786E+01
   0.151E+02 -.121E+02 -.918E+03   -.151E+02 0.122E+02 0.910E+03   0.165E-01 -.590E-01 0.785E+01
   0.175E+01 0.962E+01 0.939E+03   -.171E+01 -.963E+01 -.931E+03   -.253E-01 0.568E-02 -.796E+01
   0.156E+02 0.171E+02 0.945E+03   -.156E+02 -.171E+02 -.936E+03   0.608E-02 0.223E-01 -.797E+01
   0.235E+01 0.163E+02 -.917E+03   -.230E+01 -.163E+02 0.909E+03   -.383E-01 0.317E-02 0.785E+01
   0.136E+02 0.136E+02 -.918E+03   -.136E+02 -.136E+02 0.910E+03   -.102E-01 -.102E-01 0.785E+01
   0.497E+01 0.121E+02 0.946E+03   -.495E+01 -.121E+02 -.937E+03   -.222E-01 0.164E-01 -.797E+01
   0.327E+02 0.134E+02 0.959E+03   -.329E+02 -.135E+02 -.950E+03   0.976E-01 0.685E-01 -.800E+01
   0.137E+02 0.882E+01 -.912E+03   -.137E+02 -.883E+01 0.904E+03   -.438E-02 0.131E-01 0.784E+01
   0.328E+02 0.257E+02 -.910E+03   -.328E+02 -.257E+02 0.902E+03   -.822E-02 0.226E-01 0.783E+01
   0.143E+02 -.228E+01 0.950E+03   -.144E+02 0.226E+01 -.942E+03   0.656E-01 0.148E-01 -.797E+01
   0.382E+02 -.141E+02 0.964E+03   -.386E+02 0.141E+02 -.955E+03   0.297E+00 0.126E-01 -.801E+01
   0.238E+02 -.133E+02 -.912E+03   -.239E+02 0.133E+02 0.903E+03   0.844E-01 0.933E-02 0.784E+01
   0.668E+02 0.552E+01 -.896E+03   -.669E+02 -.560E+01 0.888E+03   0.100E+00 0.615E-01 0.781E+01
   0.131E+02 -.143E+02 0.945E+03   -.132E+02 0.143E+02 -.936E+03   0.970E-01 -.171E-01 -.796E+01
   0.182E+02 -.182E+02 0.946E+03   -.183E+02 0.183E+02 -.938E+03   0.782E-01 -.781E-01 -.795E+01
   0.121E+02 -.151E+02 -.918E+03   -.122E+02 0.151E+02 0.910E+03   0.590E-01 -.165E-01 0.785E+01
   0.455E+02 -.324E+02 -.904E+03   -.458E+02 0.324E+02 0.896E+03   0.241E+00 -.147E-01 0.784E+01
   0.143E+02 -.131E+02 0.945E+03   -.143E+02 0.132E+02 -.936E+03   0.170E-01 -.969E-01 -.796E+01
   0.121E+02 0.497E+01 0.946E+03   -.121E+02 -.494E+01 -.937E+03   0.163E-01 -.223E-01 -.797E+01
   0.163E+02 0.235E+01 -.917E+03   -.163E+02 -.230E+01 0.909E+03   0.317E-02 -.383E-01 0.785E+01
   0.133E+02 -.238E+02 -.912E+03   -.133E+02 0.239E+02 0.903E+03   -.945E-02 -.843E-01 0.784E+01
   0.171E+02 0.156E+02 0.945E+03   -.171E+02 -.156E+02 -.936E+03   0.222E-01 0.609E-02 -.797E+01
   0.300E+02 0.382E+02 0.965E+03   -.302E+02 -.383E+02 -.957E+03   0.108E+00 0.969E-01 -.802E+01
   0.357E+02 0.357E+02 -.909E+03   -.357E+02 -.357E+02 0.901E+03   0.597E-02 0.603E-02 0.783E+01
   0.257E+02 0.328E+02 -.910E+03   -.257E+02 -.328E+02 0.902E+03   0.225E-01 -.825E-02 0.783E+01
   0.382E+02 0.300E+02 0.965E+03   -.383E+02 -.302E+02 -.957E+03   0.969E-01 0.108E+00 -.802E+01
   0.576E+02 0.372E+02 0.103E+04   -.581E+02 -.377E+02 -.102E+04   0.387E+00 0.404E+00 -.820E+01
   0.928E+02 0.506E+02 -.875E+03   -.929E+02 -.507E+02 0.867E+03   0.644E-01 0.123E+00 0.772E+01
   0.820E+02 0.820E+02 -.869E+03   -.821E+02 -.821E+02 0.861E+03   0.681E-01 0.681E-01 0.774E+01
   0.619E+02 0.498E+01 0.100E+04   -.624E+02 -.523E+01 -.992E+03   0.434E+00 0.188E+00 -.809E+01
   0.431E+02 -.431E+02 0.105E+04   -.433E+02 0.433E+02 -.104E+04   0.190E+00 -.190E+00 -.637E+01
   0.137E+03 -.474E+02 -.830E+03   -.138E+03 0.472E+02 0.822E+03   0.140E+01 0.169E+00 0.773E+01
   0.176E+03 0.723E+02 -.668E+03   -.178E+03 -.740E+02 0.663E+03   0.127E+01 0.116E+01 0.514E+01
   0.373E+02 -.373E+02 0.976E+03   -.375E+02 0.375E+02 -.967E+03   0.203E+00 -.203E+00 -.788E+01
   0.141E+02 -.382E+02 0.964E+03   -.141E+02 0.386E+02 -.955E+03   -.127E-01 -.297E+00 -.801E+01
   0.324E+02 -.455E+02 -.904E+03   -.324E+02 0.458E+02 0.896E+03   0.146E-01 -.241E+00 0.784E+01
   0.475E+02 -.137E+03 -.830E+03   -.473E+02 0.138E+03 0.821E+03   -.169E+00 -.140E+01 0.773E+01
   0.228E+01 -.143E+02 0.950E+03   -.227E+01 0.144E+02 -.942E+03   -.148E-01 -.655E-01 -.797E+01
   -.228E+01 0.143E+02 0.950E+03   0.226E+01 -.144E+02 -.942E+03   0.148E-01 0.655E-01 -.797E+01
   0.882E+01 0.137E+02 -.912E+03   -.883E+01 -.137E+02 0.904E+03   0.131E-01 -.443E-02 0.784E+01
   -.882E+01 -.138E+02 -.912E+03   0.883E+01 0.137E+02 0.904E+03   -.130E-01 0.459E-02 0.784E+01
   0.134E+02 0.327E+02 0.959E+03   -.135E+02 -.329E+02 -.950E+03   0.685E-01 0.975E-01 -.800E+01
   0.498E+01 0.619E+02 0.100E+04   -.523E+01 -.624E+02 -.992E+03   0.188E+00 0.434E+00 -.809E+01
   0.506E+02 0.928E+02 -.875E+03   -.507E+02 -.929E+02 0.867E+03   0.123E+00 0.644E-01 0.772E+01
   0.552E+01 0.668E+02 -.896E+03   -.560E+01 -.669E+02 0.888E+03   0.614E-01 0.999E-01 0.781E+01
   0.372E+02 0.576E+02 0.103E+04   -.377E+02 -.581E+02 -.102E+04   0.404E+00 0.388E+00 -.820E+01
   -.134E+02 0.135E+02 0.109E+04   0.134E+02 -.134E+02 -.108E+04   0.581E-01 -.586E-01 -.641E+01
   0.120E+03 0.120E+03 -.680E+03   -.122E+03 -.122E+03 0.673E+03   0.149E+01 0.149E+01 0.662E+01
   0.723E+02 0.176E+03 -.668E+03   -.740E+02 -.178E+03 0.663E+03   0.116E+01 0.127E+01 0.514E+01
   0.135E+02 -.134E+02 0.109E+04   -.134E+02 0.134E+02 -.108E+04   -.587E-01 0.583E-01 -.641E+01
   -.372E+02 -.576E+02 0.103E+04   0.377E+02 0.581E+02 -.102E+04   -.404E+00 -.387E+00 -.820E+01
   -.722E+02 -.176E+03 -.668E+03   0.740E+02 0.178E+03 0.663E+03   -.116E+01 -.127E+01 0.513E+01
   -.120E+03 -.120E+03 -.680E+03   0.122E+03 0.122E+03 0.673E+03   -.149E+01 -.149E+01 0.661E+01
[...]
   -.214E+02 0.162E+02 0.718E+03   0.216E+02 -.163E+02 -.722E+03   -.179E+00 0.825E-01 0.349E+01
   -.665E+01 0.887E+01 0.707E+03   0.669E+01 -.890E+01 -.711E+03   -.551E-01 0.349E-01 0.348E+01
   -.498E+02 0.150E+02 -.673E+03   0.499E+02 -.149E+02 0.677E+03   -.176E+00 -.618E-01 -.375E+01
   -.161E+02 0.159E+01 -.684E+03   0.162E+02 -.157E+01 0.688E+03   -.393E-01 -.242E-01 -.368E+01
   -.299E+02 -.833E+00 0.725E+03   0.300E+02 0.895E+00 -.729E+03   -.142E+00 -.871E-01 0.342E+01
   -.118E+02 0.793E+01 0.713E+03   0.118E+02 -.793E+01 -.717E+03   -.798E-01 -.149E-02 0.346E+01
   -.376E+02 -.163E+02 -.678E+03   0.377E+02 0.163E+02 0.683E+03   -.457E-01 -.635E-01 -.373E+01
   -.470E+01 -.116E+02 -.687E+03   0.468E+01 0.116E+02 0.691E+03   0.222E-01 -.785E-02 -.366E+01
   -.175E+02 -.139E+02 0.715E+03   0.175E+02 0.139E+02 -.719E+03   -.334E-01 -.486E-01 0.345E+01
   -.727E+01 -.482E+01 0.713E+03   0.728E+01 0.483E+01 -.717E+03   -.131E-01 -.221E-01 0.346E+01
   -.153E+02 -.166E+02 -.688E+03   0.153E+02 0.166E+02 0.692E+03   0.709E-02 -.694E-02 -.366E+01
   -.129E+01 -.878E+01 -.691E+03   0.127E+01 0.878E+01 0.695E+03   0.235E-01 -.348E-02 -.363E+01
   -.823E+01 -.823E+01 0.707E+03   0.823E+01 0.823E+01 -.711E+03   -.183E-02 -.187E-02 0.347E+01
   -.170E+01 -.988E+01 0.708E+03   0.168E+01 0.989E+01 -.712E+03   0.267E-01 -.154E-01 0.347E+01
   -.149E-04 -.454E-02 0.210E+02   0.404E-11 -.141E-11 -.163E-10   0.248E-02 0.962E-03 -.218E+02

 POSITION                                       TOTAL-FORCE (eV/Angst)
      8.42022     12.71964     13.21830        -0.033008      0.032419      0.000444
      6.77748     14.36235     13.25117         0.039778     -0.040911      0.005859
     12.24845      8.89138     13.25117        -0.042020      0.042249      0.005123
     10.60574     10.53411     13.21830         0.037753     -0.036651      0.000322
      0.00000      0.00000      9.00000        -0.005975      0.006186      0.414756
      2.11389      2.11389      9.00000        -0.002087      0.006783      0.416142
      0.00000      2.11389     11.11389         0.002144      0.002633     -0.382395
      2.11389      0.00000     11.11389        -0.004963      0.015706     -0.379441
      0.00000      4.22777      9.00000         0.006489     -0.002006      0.416352
      2.11389      6.34166      9.00000        -0.001562     -0.005682      0.419473
      0.00000      6.34166     11.11389         0.009864     -0.000687     -0.377909
      2.11389      4.22777     11.11389         0.002622      0.002791     -0.379054
      0.00000      8.45554      9.00000         0.005580     -0.004132      0.419284
      2.11389     10.56943      9.00000        -0.027053     -0.019258      0.426108
      0.00000     10.56943     11.11389         0.001622     -0.003475     -0.370862
      2.11389      8.45554     11.11389         0.003311     -0.005090     -0.366586
      0.00000     12.68331      9.00000        -0.017826     -0.004773      0.420665
      2.11389     14.79720      9.00000        -0.076226     -0.004400      0.426279
      0.00000     14.79720     11.11389        -0.020801     -0.003119     -0.371894
      2.11389     12.68331     11.11389        -0.024835     -0.017581     -0.345957
      0.00000     16.91108      9.00000        -0.025617      0.004785      0.417682
      2.11389     19.02497      9.00000        -0.022771      0.022842      0.412450
      0.00000     19.02497     11.11389        -0.015753      0.004773     -0.379394
      2.11389     16.91108     11.11389        -0.062979      0.004625     -0.366367
      4.22777      0.00000      9.00000        -0.004819      0.025612      0.417530
      6.34166      2.11389      9.00000        -0.003791      0.005906      0.419128
      4.22777      2.11389     11.11389        -0.000653      0.010215     -0.377818
      6.34166      0.00000     11.11389         0.003341      0.020881     -0.371940
      4.22777      4.22777      9.00000        -0.005661     -0.001354      0.419565
      6.34166      6.34166      9.00000        -0.029480     -0.026962      0.432003
      4.22777      6.34166     11.11389        -0.000064     -0.000239     -0.365575
      6.34166      4.22777     11.11389        -0.005003      0.003561     -0.366648
      4.22777      8.45554      9.00000        -0.026948     -0.029571      0.431924
      6.34166     10.56943      9.00000        -0.111645     -0.115605      0.451068
      4.22777     10.56943     11.11389         0.001016     -0.016968     -0.284942
      6.34166      8.45554     11.11389        -0.011292     -0.011670     -0.294497
      4.22777     12.68331      9.00000        -0.122031     -0.062248      0.429499
      6.34166     14.79720      9.00000        -0.060915      0.060871      0.038709
      4.22777     14.79720     11.11389        -0.449222     -0.061008     -0.337365
      6.34166     12.68331     11.11389        -0.512373     -0.581786     -0.027643
      4.22777     16.91108      9.00000        -0.066650      0.066588      0.382709
      6.34166     19.02497      9.00000         0.004401      0.076322      0.426373
      4.22777     19.02497     11.11389        -0.004612      0.062880     -0.366438
      6.34166     16.91108     11.11389         0.061079      0.449397     -0.337130
      8.45554      0.00000      9.00000         0.004574      0.018214      0.420787
     10.56943      2.11389      9.00000        -0.004591     -0.017745      0.420770
      8.45554      2.11389     11.11389        -0.003389      0.001866     -0.371082
     10.56943      0.00000     11.11389         0.003326     -0.001735     -0.370769
      8.45554      4.22777      9.00000        -0.019234     -0.026988      0.426279
     10.56943      6.34166      9.00000        -0.061767     -0.121487      0.430316
      8.45554      6.34166     11.11389        -0.016309      0.001324     -0.284519
     10.56943      4.22777     11.11389        -0.017112     -0.024080     -0.345553
      8.45554      8.45554      9.00000        -0.115260     -0.111850      0.451395
     10.56943     10.56943      9.00000        -0.017144      0.017267      0.027214
      8.45554     10.56943     11.11389        -0.558501     -0.559320     -0.244129
     10.56943      8.45554     11.11389        -0.579300     -0.512493     -0.025713
      8.45554     12.68331      9.00000         0.017846     -0.017927      0.027408
     10.56943     14.79720      9.00000         0.115520      0.111895      0.451159
      8.45554     14.79720     11.11389         0.582292      0.512811     -0.027997
     10.56943     12.68331     11.11389         0.559738      0.558980     -0.244380
[...]
     19.02497      6.34166     11.11389        -0.020831      0.003541      0.486383
     16.91108      6.34166      9.00000        -0.051040      0.023333     -0.524975
     19.02497      4.22777      9.00000        -0.015008      0.009542     -0.528447
     16.91108      8.45554     11.11389        -0.053430     -0.016305      0.462463
     19.02497     10.56943     11.11389        -0.011432     -0.007051      0.479079
     16.91108     10.56943      9.00000        -0.042910     -0.025230     -0.542156
     19.02497      8.45554      9.00000        -0.022884     -0.000366     -0.531515
     16.91108     12.68331     11.11389        -0.014392     -0.019088      0.464521
     19.02497     14.79720     11.11389         0.006093     -0.002419      0.484293
     16.91108     14.79720      9.00000        -0.009428     -0.013599     -0.536422
     19.02497     12.68331      9.00000        -0.003619     -0.006354     -0.533999
     16.91108     16.91108     11.11389         0.001623     -0.001772      0.484411
     19.02497     19.02497     11.11389         0.006260     -0.000713      0.491149
     16.91108     19.02497      9.00000        -0.000673     -0.000500     -0.530307
     19.02497     16.91108      9.00000         0.007310     -0.004138     -0.530747
    total drift:                                0.002466     -0.003580     -0.827189

  FREE ENERGIE OF THE ION-ELECTRON SYSTEM (eV)
  free  energy   TOTEN  =     -1796.28887190 eV

  energy  without entropy=    -1796.28887190  energy(sigma->0) =    -1796.28887190