 vasp.6.3.0 20Jan22 (build Apr  1 2022 16:44:48) complex
 executed on        HPECrayEX_GCC date 2023.01.09  21:02:07

 INCAR:
   SYSTEM = MgO-rocksalt
   ISMEAR = 0
   SIGMA = 0.05
   EDIFF = 1E-6
   ALGO = ALL
   ISTART = 0
   IBRION = -1
   NSW = 0
   ISYM = 2
   DIPOL = 0.5 0.5 0.5
   IDIPOL = 3
   LDIPOL = .TRUE.
   GGA = MK
   PARAM1 = 0.1234
   PARAM2 = 1.0
   LUSE_VDW = .TRUE.
   AGGAC = 0.0
   ENCUT = 520
   PREC = Accurate
   LASPH = .TRUE.
   LREAL = Auto
   ISPIN = 1
   NELM = 200
   NELMIN = 8
   NCORE = 4
   KPAR = 2
   LWAVE = .FALSE.
   LCHARG = .FALSE.

 POTCAR:    PAW_PBE Au 04Oct2007
 POTCAR:    PAW_PBE Mg_pv 13Apr2007
 POTCAR:    PAW_PBE O 08Apr2002
|               ----> ADVICE to this user running VASP <----                  |
|     You have switched on vdW-DFT.                                           |
|     This routine was written and supplied by Jiri Klimes. We recommend      |
|     that you carefully read and cite the following publications:            |
|       J. Klimes, D.R. Bowler, A. Michelides                                 |
|          J. Phys.: Cond Matt. 22 022201 (2010)                              |
|       J. Klimes, D.R. Bowler, A. Michelides                                 |
|          Phys. Rev. B. 83, 195131 (2011)                                    |
|     and references therein.                                                 |

   TITEL  = PAW_PBE Au 04Oct2007
   POMASS =  196.966; ZVAL   =   11.000    mass and valenz
   ENMAX  =  229.943; ENMIN  =  172.457 eV

   TITEL  = PAW_PBE Mg_pv 13Apr2007
   POMASS =   24.305; ZVAL   =    8.000    mass and valenz
   ENMAX  =  403.929; ENMIN  =  302.947 eV

   TITEL  = PAW_PBE O 08Apr2002
   POMASS =   16.000; ZVAL   =    6.000    mass and valenz
   ENMAX  =  400.000; ENMIN  =  300.000 eV

 Optimization of the real space projectors (new method)

 maximal supplied QI-value         = 15.12
 optimisation between [QCUT,QGAM] = [ 11.64, 23.28] = [ 37.95,151.78] Ry
 Optimized for a Real-space Cutoff    1.49 Angstroem

   l    n(q)    QCUT    max X(q) W(low)/X(q) W(high)/X(q)  e(spline)
   2      9    11.641    60.898    0.24E-03    0.10E-03    0.19E-06
   2      9    11.641    58.894    0.25E-03    0.10E-03    0.19E-06
   0     10    11.641   109.617    0.73E-04    0.33E-04    0.11E-06
   0     10    11.641    75.026    0.71E-04    0.32E-04    0.11E-06
   1     10    11.641    16.344    0.27E-04    0.97E-04    0.16E-06
   1     10    11.641    10.160    0.23E-04    0.77E-04    0.13E-06
 Optimization of the real space projectors (new method)

[...]

   l    n(q)    QCUT    max X(q) W(low)/X(q) W(high)/X(q)  e(spline)
   1      8    11.527     2.974    0.44E-04    0.56E-04    0.12E-06
   1      8    11.527     4.279    0.12E-03    0.12E-03    0.26E-06
   0      9    11.527    16.381    0.46E-04    0.64E-04    0.78E-07
   0      9    11.527     5.611    0.26E-04    0.43E-04    0.55E-07
   2      8    11.527     4.652    0.22E-03    0.72E-04    0.47E-07
 Optimization of the real space projectors (new method)

 maximal supplied QI-value         = 24.76
 optimisation between [QCUT,QGAM] = [ 11.64, 23.27] = [ 37.91,151.63] Ry
 Optimized for a Real-space Cutoff    1.14 Angstroem

   l    n(q)    QCUT    max X(q) W(low)/X(q) W(high)/X(q)  e(spline)
   0      8    11.635    20.381    0.10E-03    0.33E-03    0.24E-06
   0      8    11.635    15.268    0.11E-03    0.35E-03    0.26E-06
   1      7    11.635     5.964    0.24E-03    0.31E-03    0.30E-06
   1      7    11.635     5.382    0.22E-03    0.25E-03    0.26E-06
|               ----> ADVICE to this user running VASP <----                  |
|     You enforced a specific xc type in the INCAR file but a different       |
|     type was found in the POTCAR file.                                      |
|     I HOPE YOU KNOW WHAT YOU ARE DOING!                                     |

  PAW_PBE Au 04Oct2007                  :
  PAW_PBE Mg_pv 13Apr2007               :
  PAW_PBE O 08Apr2002                   :

 POSCAR: Au Mg  O
  positions in direct lattice
  velocities in cartesian coordinates
 exchange correlation table for  LEXCH =       43
   RHO(1)=    0.500       N(1)  =     2000
   RHO(2)=  100.500       N(2)  =     4000

 ion  position               nearest neighbor table
   1  0.400  0.565  0.604- 157 2.36   3 2.61  55 2.63   4 2.77
   2  0.400  0.500  0.818-   3 2.52
   3  0.400  0.500  0.704-   2 2.52   4 2.61   1 2.61
   4  0.400  0.434  0.604- 153 2.35   3 2.61  55 2.64   1 2.77
   5  0.000  0.000  0.407- 107 2.11 108 2.11 123 2.11 188 2.11 105 2.11
   6  0.100  0.100  0.407- 107 2.11 108 2.11 112 2.11 127 2.11 106 2.11
   7  0.000  0.100  0.503- 105 2.11 106 2.11 109 2.11 186 2.11 107 2.11
   8  0.100  0.000  0.503- 105 2.11 106 2.11 122 2.11 125 2.11 108 2.11
   9  0.000  0.200  0.407- 111 2.11 107 2.11 112 2.11 192 2.11 109 2.11
  10  0.100  0.300  0.407- 112 2.11 111 2.11 116 2.11 131 2.11 110 2.11
  11  0.000  0.300  0.503- 109 2.11 110 2.11 113 2.11 190 2.11 111 2.11
  12  0.100  0.200  0.503- 110 2.11 109 2.11 106 2.11 129 2.11 112 2.11
  13  0.000  0.400  0.407- 111 2.11 115 2.11 116 2.11 196 2.11 113 2.11
  14  0.100  0.500  0.407- 115 2.11 116 2.11 120 2.11 135 2.11 114 2.11
  15  0.000  0.500  0.503- 113 2.11 114 2.11 117 2.11 194 2.11 115 2.11
  16  0.100  0.400  0.503- 110 2.11 113 2.11 114 2.11 133 2.11 116 2.11
  17  0.000  0.600  0.407- 115 2.11 119 2.11 120 2.11 200 2.11 117 2.11
  18  0.100  0.700  0.407- 124 2.11 120 2.11 119 2.11 139 2.11 118 2.11
  19  0.000  0.700  0.503- 121 2.11 118 2.11 117 2.11 198 2.11 119 2.11
  20  0.100  0.600  0.503- 114 2.11 117 2.11 118 2.11 137 2.11 120 2.11
  21  0.000  0.800  0.407- 119 2.11 123 2.11 124 2.11 204 2.11 121 2.11
  22  0.100  0.900  0.407- 108 2.11 123 2.11 124 2.11 143 2.11 122 2.11
  23  0.000  0.900  0.503- 105 2.11 121 2.11 122 2.11 202 2.11 123 2.11
  24  0.100  0.800  0.503- 118 2.11 121 2.11 122 2.11 141 2.11 124 2.11
  25  0.200  0.000  0.407- 128 2.11 127 2.11 108 2.11 143 2.11 125 2.11
  26  0.300  0.100  0.407- 127 2.11 128 2.11 132 2.11 147 2.11 126 2.11
  27  0.200  0.100  0.503- 126 2.11 125 2.11 106 2.11 129 2.11 127 2.11
  28  0.300  0.000  0.503- 125 2.11 126 2.11 142 2.11 145 2.11 128 2.11
  29  0.200  0.200  0.407- 131 2.11 132 2.11 112 2.11 127 2.11 129 2.11
  30  0.300  0.300  0.407- 131 2.11 132 2.11 136 2.11 151 2.11 130 2.11
  31  0.200  0.300  0.503- 129 2.11 130 2.11 110 2.11 133 2.11 131 2.11
  32  0.300  0.200  0.503- 129 2.11 130 2.11 126 2.11 149 2.11 132 2.11
  33  0.200  0.400  0.407- 136 2.11 131 2.11 135 2.11 116 2.11 133 2.11
  34  0.300  0.500  0.407- 135 2.11 136 2.11 140 2.11 155 2.11 134 2.11
  35  0.200  0.500  0.503- 134 2.11 133 2.11 114 2.11 137 2.11 135 2.11
  36  0.300  0.400  0.503- 133 2.11 130 2.11 134 2.11 153 2.11 136 2.11
  37  0.200  0.600  0.407- 140 2.11 135 2.11 139 2.11 120 2.11 137 2.11
  38  0.300  0.700  0.407- 139 2.11 144 2.11 140 2.11 159 2.11 138 2.11
  39  0.200  0.700  0.503- 138 2.11 141 2.11 118 2.11 137 2.11 139 2.11
  40  0.300  0.600  0.503- 137 2.11 134 2.11 138 2.11 157 2.11 140 2.11
  41  0.200  0.800  0.407- 139 2.11 144 2.11 143 2.11 124 2.11 141 2.11
  42  0.300  0.900  0.407- 143 2.11 128 2.11 144 2.11 163 2.11 142 2.11
  43  0.200  0.900  0.503- 142 2.11 125 2.11 141 2.11 122 2.11 143 2.11
  44  0.300  0.800  0.503- 138 2.11 141 2.11 142 2.11 161 2.11 144 2.11
  45  0.400  0.000  0.407- 128 2.11 147 2.11 148 2.11 163 2.11 145 2.11
  46  0.500  0.100  0.407- 147 2.11 148 2.11 152 2.11 167 2.11 146 2.11
  47  0.400  0.100  0.503- 126 2.11 145 2.11 146 2.11 149 2.11 147 2.11
  48  0.500  0.000  0.503- 145 2.11 146 2.11 162 2.11 165 2.11 148 2.11
  49  0.400  0.200  0.407- 151 2.11 147 2.11 132 2.11 152 2.11 149 2.11
  50  0.500  0.300  0.407- 152 2.11 151 2.11 156 2.11 171 2.11 150 2.11
  51  0.400  0.300  0.503- 149 2.11 130 2.11 150 2.11 153 2.11 151 2.11
  52  0.500  0.200  0.503- 150 2.11 149 2.11 146 2.11 169 2.11 152 2.11
  53  0.400  0.400  0.407- 136 2.11 151 2.11 155 2.11 156 2.11 153 2.11
  54  0.500  0.500  0.407- 155 2.11 156 2.11 160 2.11 175 2.11 154 2.11
  55  0.400  0.500  0.503- 134 2.11 153 2.11 154 2.11 157 2.11 155 2.11   1 2.63   4 2.64
  56  0.500  0.400  0.503- 150 2.11 153 2.11 154 2.11 173 2.11 156 2.11
  57  0.400  0.600  0.407- 140 2.11 155 2.11 159 2.11 160 2.11 157 2.11
  58  0.500  0.700  0.407- 164 2.11 160 2.11 159 2.11 179 2.11 158 2.11
  59  0.400  0.700  0.503- 161 2.11 157 2.11 158 2.11 138 2.11 159 2.11
  60  0.500  0.600  0.503- 154 2.11 157 2.11 158 2.11 177 2.11 160 2.11
[...]
 190  0.900  0.300  0.503-  92 2.11  91 2.11  11 2.11  96 2.11  90 2.11
 191  0.800  0.300  0.407-  70 2.11  89 2.11  90 2.11  93 2.11  91 2.11
 192  0.900  0.200  0.407-  90 2.11  86 2.11  89 2.11   9 2.11  92 2.11
 193  0.800  0.400  0.503-  76 2.11  91 2.11  95 2.11  96 2.11  93 2.11
 194  0.900  0.500  0.503-  15 2.11  95 2.11  96 2.11 100 2.11  94 2.11
 195  0.800  0.500  0.407-  74 2.11  93 2.11  94 2.11  97 2.11  95 2.11
 196  0.900  0.400  0.407-  13 2.11  90 2.11  93 2.11  94 2.11  96 2.11
 197  0.800  0.600  0.503-  80 2.11  95 2.11  99 2.11 100 2.11  97 2.11
 198  0.900  0.700  0.503- 104 2.11  99 2.11 100 2.11  19 2.11  98 2.11
 199  0.800  0.700  0.407-  78 2.11 101 2.11  98 2.11  97 2.11  99 2.11
 200  0.900  0.600  0.407-  17 2.11  94 2.11  97 2.11  98 2.11 100 2.11
 201  0.800  0.800  0.503-  84 2.11  99 2.11 103 2.11 104 2.11 101 2.11
 202  0.900  0.900  0.503-  23 2.11  88 2.11 103 2.11 104 2.11 102 2.11
 203  0.800  0.900  0.407-  82 2.11  85 2.11 101 2.11 102 2.11 103 2.11
 204  0.900  0.800  0.407-  98 2.11  21 2.11 101 2.11 102 2.11 104 2.11

  LATTYP: Found a simple tetragonal cell.
 ALAT       =    21.1388521970
 C/A-ratio  =     1.0461251639

  Lattice vectors:

 A1 = (  21.1388521970,   0.0000000000,   0.0000000000)
 A2 = (   0.0000000000,  21.1388521970,   0.0000000000)
 A3 = (   0.0000000000,   0.0000000000,  22.1138852197)

Analysis of symmetry for initial positions (statically):
 Subroutine PRICEL returns:
 Original cell was already a primitive cell.

 Routine SETGRP: Setting up the symmetry group for a
 simple tetragonal supercell.

 Subroutine GETGRP returns: Found  1 space group operations
 (whereof  1 operations were pure point group operations)
 out of a pool of 16 trial point group operations.

The static configuration has the point symmetry C_1 .

Analysis of symmetry for dynamics (positions and initial velocities):
 Subroutine PRICEL returns:
 Original cell was already a primitive cell.

[...]

The dynamic configuration has the point symmetry C_1 .

Analysis of constrained symmetry for selective dynamics:
 Subroutine PRICEL returns:
 Original cell was already a primitive cell.

 Routine SETGRP: Setting up the symmetry group for a
 simple tetragonal supercell.

 Subroutine GETGRP returns: Found  1 space group operations
 (whereof  1 operations were pure point group operations)
 out of a pool of 16 trial point group operations.

The constrained configuration has the point symmetry C_1 .

 Subroutine INISYM returns: Found  1 space group operations
 (whereof  1 operations are pure point group operations),
 and found     1 'primitive' translations

[...]
     52     -43.3489      2.00000
     53     -43.3487      2.00000
     54     -43.3485      2.00000
     55     -43.3483      2.00000
     56     -43.3376      2.00000
     57     -43.3373      2.00000
     58     -43.3373      2.00000
     59     -43.3370      2.00000
     60     -43.3340      2.00000
[...]
    946       5.4183      0.00000
    947       5.4460      0.00000
    948       5.4815      0.00000
    949       5.5391      0.00000
    950       5.5660      0.00000
    951       5.5924      0.00000
    952       5.6451      0.00000
    953       5.6994      0.00000
    954       5.7812      0.00000
    955       5.8943      0.00000
    956       5.9334      0.00000
    957       6.0020      0.00000
    958       6.1536      0.00000
    959       6.2501      0.00000
    960       6.4031      0.00000

 soft charge-density along one line, spin component           1
         0         1         2         3         4         5         6         7         8         9
 total charge-density along one line

------------------------ aborting loop because EDIFF is reached ----------------------------------------

  FORCE on cell =-STRESS in cart. coord.  units (eV):
  Direction    XX          YY          ZZ          XY          YZ          ZX
  Alpha Z  1417.83424  1417.83424  1417.83424
  Ewald  475017.55858476123.61356************     0.15895     0.50430    -0.54556
  Hartree504308.33864505104.02229************     0.11350     0.17851    -0.38519
  E(xc)   -7853.20962 -7852.67044 -7851.64726     0.00006     0.00026    -0.00046
  Local  ************************************    -0.26830    -0.66917     0.91143
  n-local -8794.94540 -8803.74047 -8928.14375    -0.00085     0.01775     0.00696
  augment  3556.15010  3551.00692  3486.07853    -0.00103    -0.00831     0.00284
  Kinetic 23314.96459 23302.90973 23520.81442    -0.00227     0.00530     0.01315
  Fock        0.00000     0.00000     0.00000     0.00000     0.00000     0.00000
  Total    -185.73905  -186.06479    -0.20450     0.00007     0.02864     0.00319
  in kB     -30.11521   -30.16803    -0.03316     0.00001     0.00464     0.00052

 VOLUME and BASIS-vectors are now :
  energy-cutoff  :      520.00
  volume of cell :     9881.61
      direct lattice vectors                 reciprocal lattice vectors
    21.138852197  0.000000000  0.000000000     0.047306258  0.000000000  0.000000000
     0.000000000 21.138852197  0.000000000     0.000000000  0.047306258  0.000000000
     0.000000000  0.000000000 22.113885220     0.000000000  0.000000000  0.045220457

  length of vectors
    21.138852197 21.138852197 22.113885220     0.047306258  0.047306258  0.045220457

 FORCES acting on ions:
    Electron-Ion                     Ewald-Force                    Non-Local-Force
   -.145E+00 -.383E+03 -.190E+04   0.143E+00 0.380E+03 0.191E+04   0.286E-02 0.341E+01 -.284E+01
   0.317E-01 -.106E+00 -.126E+04   -.320E-01 0.987E-01 0.126E+04   0.393E-03 0.649E-02 0.665E+01
   0.161E+00 0.643E+00 -.172E+04   -.160E+00 -.643E+00 0.172E+04   -.924E-03 0.323E-02 0.178E+01
   -.298E-01 0.383E+03 -.190E+04   0.285E-01 -.379E+03 0.191E+04   0.246E-02 -.337E+01 -.284E+01
   0.633E+01 0.232E-01 0.935E+03   -.637E+01 -.232E-01 -.927E+03   0.272E-01 0.305E-04 -.730E+01
   0.124E+02 0.940E+01 0.938E+03   -.125E+02 -.943E+01 -.930E+03   0.602E-01 0.246E-01 -.730E+01
   0.907E+01 0.848E+01 -.917E+03   -.910E+01 -.848E+01 0.910E+03   0.304E-01 0.327E-02 0.718E+01
   0.132E+02 0.415E-01 -.916E+03   -.133E+02 -.416E-01 0.909E+03   0.414E-01 0.479E-04 0.718E+01
   0.980E+01 0.114E+02 0.938E+03   -.986E+01 -.114E+02 -.930E+03   0.489E-01 0.119E-01 -.730E+01
   0.257E+02 0.184E+02 0.949E+03   -.259E+02 -.184E+02 -.941E+03   0.162E+00 0.315E-01 -.733E+01
   0.189E+02 0.157E+02 -.912E+03   -.189E+02 -.157E+02 0.904E+03   0.506E-01 0.867E-03 0.717E+01
   0.243E+02 0.227E+02 -.910E+03   -.244E+02 -.227E+02 0.903E+03   0.976E-01 0.168E-01 0.717E+01
   0.171E+02 0.780E+01 0.944E+03   -.172E+02 -.781E+01 -.936E+03   0.780E-01 0.540E-02 -.732E+01
   0.374E+02 -.460E-01 0.959E+03   -.377E+02 0.461E-01 -.951E+03   0.203E+00 -.113E-03 -.734E+01
   0.272E+02 -.374E-01 -.907E+03   -.272E+02 0.374E-01 0.900E+03   0.514E-01 -.933E-05 0.716E+01
   0.540E+02 0.187E+02 -.895E+03   -.541E+02 -.187E+02 0.887E+03   0.136E+00 -.668E-03 0.714E+01
   0.170E+02 -.785E+01 0.944E+03   -.171E+02 0.785E+01 -.936E+03   0.779E-01 -.545E-02 -.732E+01
   0.256E+02 -.184E+02 0.949E+03   -.258E+02 0.184E+02 -.941E+03   0.162E+00 -.316E-01 -.733E+01
   0.188E+02 -.157E+02 -.912E+03   -.189E+02 0.157E+02 0.904E+03   0.506E-01 -.878E-03 0.717E+01
   0.539E+02 -.188E+02 -.895E+03   -.541E+02 0.188E+02 0.887E+03   0.136E+00 0.610E-03 0.714E+01
   0.978E+01 -.114E+02 0.938E+03   -.984E+01 0.114E+02 -.930E+03   0.488E-01 -.119E-01 -.730E+01
   0.124E+02 -.934E+01 0.938E+03   -.125E+02 0.938E+01 -.930E+03   0.601E-01 -.244E-01 -.730E+01
   0.905E+01 -.843E+01 -.918E+03   -.909E+01 0.843E+01 0.910E+03   0.304E-01 -.326E-02 0.718E+01
   0.242E+02 -.226E+02 -.910E+03   -.243E+02 0.227E+02 0.903E+03   0.973E-01 -.168E-01 0.717E+01
   0.113E+02 0.447E-01 0.939E+03   -.114E+02 -.449E-01 -.932E+03   0.497E-01 0.139E-03 -.731E+01
   0.897E+01 0.176E+02 0.946E+03   -.903E+01 -.178E+02 -.938E+03   0.461E-01 0.119E+00 -.732E+01
   0.178E+02 0.191E+02 -.911E+03   -.179E+02 -.191E+02 0.904E+03   0.591E-01 0.582E-01 0.717E+01
   0.935E+01 0.818E-01 -.911E+03   -.939E+01 -.820E-01 0.904E+03   0.289E-01 0.115E-03 0.717E+01
   0.205E+02 0.250E+02 0.950E+03   -.207E+02 -.251E+02 -.942E+03   0.140E+00 0.108E+00 -.731E+01
   0.263E+02 0.456E+02 0.985E+03   -.267E+02 -.460E+02 -.977E+03   0.316E+00 0.317E+00 -.725E+01
   0.564E+02 0.507E+02 -.883E+03   -.569E+02 -.507E+02 0.876E+03   0.345E+00 0.214E-01 0.712E+01
   0.238E+02 0.576E+02 -.891E+03   -.239E+02 -.580E+02 0.884E+03   0.850E-01 0.302E+00 0.715E+01
   0.468E+02 0.217E+02 0.981E+03   -.474E+02 -.217E+02 -.973E+03   0.471E+00 0.527E-01 -.742E+01
   0.497E+02 -.146E+00 0.104E+04   -.504E+02 0.149E+00 -.103E+04   0.506E+00 -.165E-02 -.746E+01
   0.110E+03 -.160E+00 -.846E+03   -.111E+03 0.160E+00 0.839E+03   0.286E+00 -.193E-04 0.704E+01
   0.128E+03 0.923E+02 -.759E+03   -.131E+03 -.922E+02 0.752E+03   0.192E+01 -.447E-01 0.673E+01
   0.468E+02 -.218E+02 0.981E+03   -.474E+02 0.218E+02 -.973E+03   0.470E+00 -.532E-01 -.742E+01
   0.262E+02 -.455E+02 0.985E+03   -.266E+02 0.460E+02 -.977E+03   0.315E+00 -.316E+00 -.725E+01
   0.562E+02 -.507E+02 -.884E+03   -.567E+02 0.507E+02 0.876E+03   0.343E+00 -.216E-01 0.712E+01
   0.128E+03 -.927E+02 -.759E+03   -.130E+03 0.926E+02 0.753E+03   0.190E+01 0.434E-01 0.674E+01
   0.204E+02 -.249E+02 0.950E+03   -.206E+02 0.250E+02 -.942E+03   0.140E+00 -.107E+00 -.731E+01
   0.895E+01 -.175E+02 0.946E+03   -.901E+01 0.176E+02 -.938E+03   0.461E-01 -.119E+00 -.732E+01
   0.178E+02 -.189E+02 -.911E+03   -.178E+02 0.190E+02 0.904E+03   0.590E-01 -.579E-01 0.717E+01
   0.237E+02 -.574E+02 -.891E+03   -.238E+02 0.578E+02 0.884E+03   0.850E-01 -.300E+00 0.715E+01
   -.638E-02 0.628E-01 0.943E+03   0.633E-02 -.631E-01 -.935E+03   0.437E-04 0.232E-03 -.731E+01
   -.898E+01 0.176E+02 0.946E+03   0.904E+01 -.178E+02 -.938E+03   -.461E-01 0.119E+00 -.732E+01
   -.111E-01 0.296E+02 -.905E+03   0.110E-01 -.298E+02 0.898E+03   0.614E-04 0.134E+00 0.717E+01
   -.936E+01 0.814E-01 -.911E+03   0.940E+01 -.815E-01 0.904E+03   -.288E-01 0.119E-03 0.717E+01
   -.134E-01 0.391E+02 0.963E+03   0.133E-01 -.396E+02 -.955E+03   0.782E-04 0.431E+00 -.736E+01
   -.263E+02 0.455E+02 0.985E+03   0.268E+02 -.460E+02 -.977E+03   -.316E+00 0.317E+00 -.725E+01
   -.633E-01 0.130E+03 -.820E+03   0.629E-01 -.132E+03 0.812E+03   0.280E-03 0.190E+01 0.722E+01
   -.238E+02 0.576E+02 -.891E+03   0.239E+02 -.580E+02 0.884E+03   -.849E-01 0.302E+00 0.715E+01
   -.418E-01 0.441E+02 0.104E+04   0.411E-01 -.444E+02 -.104E+04   0.532E-03 0.235E+00 -.495E+01
   -.497E+02 -.143E+00 0.104E+04   0.504E+02 0.146E+00 -.103E+04   -.505E+00 -.171E-02 -.746E+01
   -.224E+00 -.541E+00 -.530E+03   0.224E+00 0.562E+00 0.527E+03   0.100E-02 -.201E-01 0.299E+01
   -.128E+03 0.922E+02 -.759E+03   0.131E+03 -.921E+02 0.752E+03   -.192E+01 -.443E-01 0.673E+01
   -.385E-01 -.443E+02 0.104E+04   0.379E-01 0.446E+02 -.104E+04   0.387E-03 -.236E+00 -.497E+01
   -.262E+02 -.455E+02 0.985E+03   0.267E+02 0.459E+02 -.977E+03   -.315E+00 -.316E+00 -.725E+01
   -.543E-01 -.129E+03 -.820E+03   0.540E-01 0.132E+03 0.813E+03   0.255E-03 -.188E+01 0.722E+01
   -.128E+03 -.926E+02 -.760E+03   0.130E+03 0.925E+02 0.753E+03   -.190E+01 0.431E-01 0.674E+01
[...]
   -.102E+02 0.905E+01 0.708E+03   0.102E+02 -.906E+01 -.712E+03   -.594E-01 0.142E-01 0.355E+01
   0.618E-02 0.733E+01 0.704E+03   -.613E-02 -.734E+01 -.708E+03   -.678E-04 0.930E-02 0.355E+01
   -.185E+02 0.775E+01 -.683E+03   0.185E+02 -.775E+01 0.687E+03   -.536E-01 0.172E-03 -.378E+01
   0.157E-01 -.216E-01 -.685E+03   -.156E-01 0.217E-01 0.689E+03   -.126E-03 -.101E-04 -.377E+01
   -.139E+02 -.208E-01 0.711E+03   0.140E+02 0.209E-01 -.715E+03   -.692E-01 -.520E-04 0.354E+01
   0.102E-01 0.484E+01 0.707E+03   -.101E-01 -.484E+01 -.711E+03   -.109E-03 0.368E-02 0.355E+01
   -.185E+02 -.779E+01 -.683E+03   0.185E+02 0.779E+01 0.687E+03   -.536E-01 -.213E-03 -.378E+01
   0.110E-01 -.949E+01 -.688E+03   -.110E-01 0.949E+01 0.692E+03   -.964E-04 -.155E-02 -.376E+01
   -.101E+02 -.906E+01 0.708E+03   0.102E+02 0.907E+01 -.712E+03   -.593E-01 -.143E-01 0.355E+01
   0.100E-01 -.487E+01 0.707E+03   -.994E-02 0.487E+01 -.711E+03   -.106E-03 -.373E-02 0.355E+01
   -.969E+01 -.109E+02 -.688E+03   0.972E+01 0.109E+02 0.692E+03   -.411E-01 -.947E-02 -.375E+01
   0.564E-02 -.535E+01 -.691E+03   -.560E-02 0.535E+01 0.695E+03   -.523E-04 -.343E-02 -.374E+01
   -.541E+01 -.504E+01 0.703E+03   0.543E+01 0.505E+01 -.707E+03   -.357E-01 -.117E-01 0.356E+01
   0.595E-02 -.732E+01 0.704E+03   -.591E-02 0.733E+01 -.708E+03   -.641E-04 -.928E-02 0.355E+01
   0.592E-02 -.371E-01 0.581E+01   0.152E-11 0.136E-11 0.200E-10   -.505E-02 0.362E-01 -.624E+01

 POSITION                                       TOTAL-FORCE (eV/Angst)
      8.45440     11.94847     13.35506         0.000724     -0.011973     -0.017143
      8.45328     10.56231     18.09008         0.000020     -0.001142     -0.034705
      8.45334     10.56083     15.56737         0.000444      0.003561     -0.012689
      8.45399      9.17859     13.35199         0.001120      0.022611     -0.016951
      0.00000      0.00000      9.00000        -0.007555     -0.000007      0.366759
      2.11389      2.11389      9.00000        -0.016798     -0.006955      0.366961
      0.00000      2.11389     11.11389        -0.008203     -0.000896     -0.319573
      2.11389      0.00000     11.11389        -0.011507     -0.000011     -0.318553
      0.00000      4.22777      9.00000        -0.013145     -0.003366      0.368142
      2.11389      6.34166      9.00000        -0.043135     -0.008822      0.372403
      0.00000      6.34166     11.11389        -0.012897      0.000029     -0.313497
      2.11389      4.22777     11.11389        -0.025662     -0.004575     -0.311954
      0.00000      8.45554      9.00000        -0.020731     -0.001390      0.370751
      2.11389     10.56943      9.00000        -0.055266      0.000037      0.376668
      0.00000     10.56943     11.11389        -0.012593      0.000000     -0.308485
      2.11389      8.45554     11.11389        -0.032779      0.001160     -0.293336
      0.00000     12.68331      9.00000        -0.020705      0.001422      0.370743
      2.11389     14.79720      9.00000        -0.043012      0.008834      0.372373
      0.00000     14.79720     11.11389        -0.012890     -0.000023     -0.313522
      2.11389     12.68331     11.11389        -0.032761     -0.001136     -0.293399
      0.00000     16.91108      9.00000        -0.013118      0.003373      0.368128
      2.11389     19.02497      9.00000        -0.016770      0.006925      0.366957
      0.00000     19.02497     11.11389        -0.008190      0.000896     -0.319585
      2.11389     16.91108     11.11389        -0.025608      0.004588     -0.312000
      4.22777      0.00000      9.00000        -0.014105     -0.000032      0.367412
      6.34166      2.11389      9.00000        -0.013495     -0.031794      0.368594
      4.22777      2.11389     11.11389        -0.016582     -0.015109     -0.313127
      6.34166      0.00000     11.11389        -0.008252     -0.000028     -0.313862
      4.22777      4.22777      9.00000        -0.039896     -0.030933      0.365373
      6.34166      6.34166      9.00000        -0.103152     -0.101174      0.332445
      4.22777      6.34166     11.11389        -0.087745     -0.003640     -0.279522
      6.34166      4.22777     11.11389        -0.025101     -0.077967     -0.293189
      4.22777      8.45554      9.00000        -0.120835     -0.013180      0.390429
      6.34166     10.56943      9.00000        -0.166736      0.000566      0.356449
      4.22777     10.56943     11.11389        -0.070926      0.000006     -0.226762
      6.34166      8.45554     11.11389        -0.632201      0.029724     -0.171443
      4.22777     12.68331      9.00000        -0.120425      0.013331      0.390304
      6.34166     14.79720      9.00000        -0.102814      0.100819      0.332682
      4.22777     14.79720     11.11389        -0.087401      0.003735     -0.279780
      6.34166     12.68331     11.11389        -0.626518     -0.029767     -0.171252
      4.22777     16.91108      9.00000        -0.039772      0.030831      0.365370
      6.34166     19.02497      9.00000        -0.013469      0.031659      0.368564
      4.22777     19.02497     11.11389        -0.016573      0.015061     -0.313172
      6.34166     16.91108     11.11389        -0.025109      0.077653     -0.293414
      8.45554      0.00000      9.00000        -0.000016     -0.000060      0.368295
     10.56943      2.11389      9.00000         0.013460     -0.031807      0.368582
      8.45554      2.11389     11.11389        -0.000017     -0.033645     -0.308089
     10.56943      0.00000     11.11389         0.008214     -0.000022     -0.313860
      8.45554      4.22777      9.00000        -0.000028     -0.109801      0.374400
     10.56943      6.34166      9.00000         0.103090     -0.101250      0.332423
      8.45554      6.34166     11.11389        -0.000102     -0.585117     -0.273133
     10.56943      4.22777     11.11389         0.025046     -0.078024     -0.293204
      8.45554      8.45554      9.00000        -0.000183     -0.042742     -0.162644
     10.56943     10.56943      9.00000         0.166652      0.000589      0.356438
      8.45554     10.56943     11.11389         0.000575      0.001029     -0.866089
     10.56943      8.45554     11.11389         0.631533      0.029830     -0.171367
      8.45554     12.68331      9.00000        -0.000132      0.042705     -0.159348
     10.56943     14.79720      9.00000         0.102758      0.100876      0.332659
      8.45554     14.79720     11.11389        -0.000094      0.580845     -0.273150
     10.56943     12.68331     11.11389         0.626039     -0.029850     -0.171310
[...]
     19.02497      6.34166     11.11389        -0.000036      0.000425      0.357642
     16.91108      6.34166      9.00000        -0.016408      0.003965     -0.411802
     19.02497      4.22777      9.00000        -0.000021      0.002592     -0.410220
     16.91108      8.45554     11.11389        -0.014849      0.000029      0.350920
     19.02497     10.56943     11.11389        -0.000042      0.000003      0.354337
     16.91108     10.56943      9.00000        -0.019147     -0.000007     -0.413822
     19.02497      8.45554      9.00000        -0.000039      0.001023     -0.411904
     16.91108     12.68331     11.11389        -0.014829     -0.000033      0.350942
     19.02497     14.79720     11.11389        -0.000033     -0.000415      0.357667
     16.91108     14.79720      9.00000        -0.016370     -0.003965     -0.411793
     19.02497     12.68331      9.00000        -0.000032     -0.001030     -0.411897
     16.91108     16.91108     11.11389        -0.011337     -0.002612      0.358670
     19.02497     19.02497     11.11389        -0.000018     -0.000951      0.362298
     16.91108     19.02497      9.00000        -0.009835     -0.003230     -0.409709
     19.02497     16.91108      9.00000        -0.000023     -0.002580     -0.410217
    total drift:                                0.000870     -0.000927     -0.428838

  FREE ENERGIE OF THE ION-ELECTRON SYSTEM (eV)
  free  energy   TOTEN  =      -743.56711676 eV

  energy  without entropy=     -743.56711676  energy(sigma->0) =     -743.56711676