 vasp.6.3.0 20Jan22 (build Apr  1 2022 16:44:48) complex
 executed on        HPECrayEX_GCC date 2023.01.09  20:06:00

 INCAR:
   SYSTEM = MgO-rocksalt
   ISMEAR = 0
   SIGMA = 0.05
   EDIFF = 1E-6
   ALGO = ALL
   ISTART = 0
   IBRION = -1
   NSW = 0
   ISYM = 2
   DIPOL = 0.5 0.5 0.5
   IDIPOL = 3
   LDIPOL = .TRUE.
   GGA = RE
   IVDW = 21
   VDW_SR = 0.6
   ENCUT = 520
   PREC = Accurate
   LASPH = .TRUE.
   LREAL = Auto
   ISPIN = 1
   NELM = 200
   NELMIN = 8
   NCORE = 4
   KPAR = 2
   LWAVE = .FALSE.
   LCHARG = .FALSE.

 POTCAR:    PAW_PBE Au 04Oct2007
 POTCAR:    PAW_PBE Mg_pv 13Apr2007
 POTCAR:    PAW_PBE O 08Apr2002
 POTCAR:    PAW_PBE Au 04Oct2007
   VRHFIN =Au: s1d10

   TITEL  = PAW_PBE Au 04Oct2007
   POMASS =  196.966; ZVAL   =   11.000    mass and valenz
   ENMAX  =  229.943; ENMIN  =  172.457 eV

   TITEL  = PAW_PBE Mg_pv 13Apr2007
   POMASS =   24.305; ZVAL   =    8.000    mass and valenz
   ENMAX  =  403.929; ENMIN  =  302.947 eV

   TITEL  = PAW_PBE O 08Apr2002
   POMASS =   16.000; ZVAL   =    6.000    mass and valenz
   ENMAX  =  400.000; ENMIN  =  300.000 eV

 Optimization of the real space projectors (new method)

 maximal supplied QI-value         = 15.12
 optimisation between [QCUT,QGAM] = [ 11.64, 23.28] = [ 37.95,151.78] Ry
 Optimized for a Real-space Cutoff    1.49 Angstroem

   l    n(q)    QCUT    max X(q) W(low)/X(q) W(high)/X(q)  e(spline)
   2      9    11.641    60.898    0.24E-03    0.10E-03    0.19E-06
   2      9    11.641    58.894    0.25E-03    0.10E-03    0.19E-06
   0     10    11.641   109.617    0.73E-04    0.33E-04    0.11E-06
   0     10    11.641    75.026    0.71E-04    0.32E-04    0.11E-06
   1     10    11.641    16.344    0.27E-04    0.97E-04    0.16E-06
   1     10    11.641    10.160    0.23E-04    0.77E-04    0.13E-06
 Optimization of the real space projectors (new method)

[...]

   l    n(q)    QCUT    max X(q) W(low)/X(q) W(high)/X(q)  e(spline)
   1      8    11.527     2.974    0.44E-04    0.56E-04    0.12E-06
   1      8    11.527     4.279    0.12E-03    0.12E-03    0.26E-06
   0      9    11.527    16.381    0.46E-04    0.64E-04    0.78E-07
   0      9    11.527     5.611    0.26E-04    0.43E-04    0.55E-07
   2      8    11.527     4.652    0.22E-03    0.72E-04    0.47E-07
 Optimization of the real space projectors (new method)

 maximal supplied QI-value         = 24.76
 optimisation between [QCUT,QGAM] = [ 11.64, 23.27] = [ 37.91,151.63] Ry
 Optimized for a Real-space Cutoff    1.14 Angstroem

   l    n(q)    QCUT    max X(q) W(low)/X(q) W(high)/X(q)  e(spline)
   0      8    11.635    20.381    0.10E-03    0.33E-03    0.24E-06
   0      8    11.635    15.268    0.11E-03    0.35E-03    0.26E-06
   1      7    11.635     5.964    0.24E-03    0.31E-03    0.30E-06
   1      7    11.635     5.382    0.22E-03    0.25E-03    0.26E-06
|               ----> ADVICE to this user running VASP <----                  |
|     You enforced a specific xc type in the INCAR file but a different       |
|     type was found in the POTCAR file.                                      |
|     I HOPE YOU KNOW WHAT YOU ARE DOING!                                     |

  PAW_PBE Au 04Oct2007                  :
  PAW_PBE Mg_pv 13Apr2007               :
  PAW_PBE O 08Apr2002                   :

 POSCAR: Au Mg  O
  positions in direct lattice
  velocities in cartesian coordinates
 exchange correlation table for  LEXCH =       40
   RHO(1)=    0.500       N(1)  =     2000
   RHO(2)=  100.500       N(2)  =     4000

 ion  position               nearest neighbor table
   1  0.400  0.425  0.603- 153 2.29   2 2.53  55 2.73
   2  0.400  0.510  0.684-   1 2.53   3 2.68   4 2.74
   3  0.400  0.633  0.713-   4 2.57   2 2.68
   4  0.400  0.605  0.600- 157 2.16   3 2.57   2 2.74  59 2.95  40 3.02  60 3.02
   5  0.000  0.000  0.407- 107 2.11 108 2.11 123 2.11 188 2.11 105 2.11
   6  0.100  0.100  0.407- 107 2.11 108 2.11 112 2.11 127 2.11 106 2.11
   7  0.000  0.100  0.503- 105 2.11 106 2.11 109 2.11 186 2.11 107 2.11
   8  0.100  0.000  0.503- 105 2.11 106 2.11 122 2.11 125 2.11 108 2.11
   9  0.000  0.200  0.407- 111 2.11 107 2.11 112 2.11 192 2.11 109 2.11
  10  0.100  0.300  0.407- 112 2.11 111 2.11 116 2.11 131 2.11 110 2.11
  11  0.000  0.300  0.503- 109 2.11 110 2.11 113 2.11 190 2.11 111 2.11
  12  0.100  0.200  0.503- 110 2.11 109 2.11 106 2.11 129 2.11 112 2.11
  13  0.000  0.400  0.407- 111 2.11 115 2.11 116 2.11 196 2.11 113 2.11
  14  0.100  0.500  0.407- 115 2.11 116 2.11 120 2.11 135 2.11 114 2.11
  15  0.000  0.500  0.503- 113 2.11 114 2.11 117 2.11 194 2.11 115 2.11
  16  0.100  0.400  0.503- 110 2.11 113 2.11 114 2.11 133 2.11 116 2.11
  17  0.000  0.600  0.407- 115 2.11 119 2.11 120 2.11 200 2.11 117 2.11
  18  0.100  0.700  0.407- 124 2.11 120 2.11 119 2.11 139 2.11 118 2.11
  19  0.000  0.700  0.503- 121 2.11 118 2.11 117 2.11 198 2.11 119 2.11
  20  0.100  0.600  0.503- 114 2.11 117 2.11 118 2.11 137 2.11 120 2.11
  21  0.000  0.800  0.407- 119 2.11 123 2.11 124 2.11 204 2.11 121 2.11
  22  0.100  0.900  0.407- 108 2.11 123 2.11 124 2.11 143 2.11 122 2.11
  23  0.000  0.900  0.503- 105 2.11 121 2.11 122 2.11 202 2.11 123 2.11
  24  0.100  0.800  0.503- 118 2.11 121 2.11 122 2.11 141 2.11 124 2.11
  25  0.200  0.000  0.407- 128 2.11 127 2.11 108 2.11 143 2.11 125 2.11
  26  0.300  0.100  0.407- 127 2.11 128 2.11 132 2.11 147 2.11 126 2.11
  27  0.200  0.100  0.503- 126 2.11 125 2.11 106 2.11 129 2.11 127 2.11
  28  0.300  0.000  0.503- 125 2.11 126 2.11 142 2.11 145 2.11 128 2.11
  29  0.200  0.200  0.407- 131 2.11 132 2.11 112 2.11 127 2.11 129 2.11
  30  0.300  0.300  0.407- 131 2.11 132 2.11 136 2.11 151 2.11 130 2.11
  31  0.200  0.300  0.503- 129 2.11 130 2.11 110 2.11 133 2.11 131 2.11
  32  0.300  0.200  0.503- 129 2.11 130 2.11 126 2.11 149 2.11 132 2.11
  33  0.200  0.400  0.407- 136 2.11 131 2.11 135 2.11 116 2.11 133 2.11
  34  0.300  0.500  0.407- 135 2.11 136 2.11 140 2.11 155 2.11 134 2.11
  35  0.200  0.500  0.503- 134 2.11 133 2.11 114 2.11 137 2.11 135 2.11
  36  0.300  0.400  0.503- 133 2.11 130 2.11 134 2.11 153 2.11 136 2.11
  37  0.200  0.600  0.407- 140 2.11 135 2.11 139 2.11 120 2.11 137 2.11
  38  0.300  0.700  0.407- 139 2.11 144 2.11 140 2.11 159 2.11 138 2.11
  39  0.200  0.700  0.503- 138 2.11 141 2.11 118 2.11 137 2.11 139 2.11
  40  0.300  0.600  0.503- 137 2.11 134 2.11 138 2.11 157 2.11 140 2.11   4 3.02
  41  0.200  0.800  0.407- 139 2.11 144 2.11 143 2.11 124 2.11 141 2.11
  42  0.300  0.900  0.407- 143 2.11 128 2.11 144 2.11 163 2.11 142 2.11
  43  0.200  0.900  0.503- 142 2.11 125 2.11 141 2.11 122 2.11 143 2.11
  44  0.300  0.800  0.503- 138 2.11 141 2.11 142 2.11 161 2.11 144 2.11
  45  0.400  0.000  0.407- 128 2.11 147 2.11 148 2.11 163 2.11 145 2.11
  46  0.500  0.100  0.407- 147 2.11 148 2.11 152 2.11 167 2.11 146 2.11
  47  0.400  0.100  0.503- 126 2.11 145 2.11 146 2.11 149 2.11 147 2.11
  48  0.500  0.000  0.503- 145 2.11 146 2.11 162 2.11 165 2.11 148 2.11
  49  0.400  0.200  0.407- 151 2.11 147 2.11 132 2.11 152 2.11 149 2.11
  50  0.500  0.300  0.407- 152 2.11 151 2.11 156 2.11 171 2.11 150 2.11
  51  0.400  0.300  0.503- 149 2.11 130 2.11 150 2.11 153 2.11 151 2.11
  52  0.500  0.200  0.503- 150 2.11 149 2.11 146 2.11 169 2.11 152 2.11
  53  0.400  0.400  0.407- 136 2.11 151 2.11 155 2.11 156 2.11 153 2.11
  54  0.500  0.500  0.407- 155 2.11 156 2.11 160 2.11 175 2.11 154 2.11
  55  0.400  0.500  0.503- 134 2.11 153 2.11 154 2.11 157 2.11 155 2.11   1 2.73
  56  0.500  0.400  0.503- 150 2.11 153 2.11 154 2.11 173 2.11 156 2.11
  57  0.400  0.600  0.407- 140 2.11 155 2.11 159 2.11 160 2.11 157 2.11
  58  0.500  0.700  0.407- 164 2.11 160 2.11 159 2.11 179 2.11 158 2.11
  59  0.400  0.700  0.503- 161 2.11 157 2.11 158 2.11 138 2.11 159 2.11   4 2.95
  60  0.500  0.600  0.503- 154 2.11 157 2.11 158 2.11 177 2.11 160 2.11   4 3.02
[...]
 190  0.900  0.300  0.503-  92 2.11  91 2.11  11 2.11  96 2.11  90 2.11
 191  0.800  0.300  0.407-  70 2.11  89 2.11  90 2.11  93 2.11  91 2.11
 192  0.900  0.200  0.407-  90 2.11  86 2.11  89 2.11   9 2.11  92 2.11
 193  0.800  0.400  0.503-  76 2.11  91 2.11  95 2.11  96 2.11  93 2.11
 194  0.900  0.500  0.503-  15 2.11  95 2.11  96 2.11 100 2.11  94 2.11
 195  0.800  0.500  0.407-  74 2.11  93 2.11  94 2.11  97 2.11  95 2.11
 196  0.900  0.400  0.407-  13 2.11  90 2.11  93 2.11  94 2.11  96 2.11
 197  0.800  0.600  0.503-  80 2.11  95 2.11  99 2.11 100 2.11  97 2.11
 198  0.900  0.700  0.503- 104 2.11  99 2.11 100 2.11  19 2.11  98 2.11
 199  0.800  0.700  0.407-  78 2.11 101 2.11  98 2.11  97 2.11  99 2.11
 200  0.900  0.600  0.407-  17 2.11  94 2.11  97 2.11  98 2.11 100 2.11
 201  0.800  0.800  0.503-  84 2.11  99 2.11 103 2.11 104 2.11 101 2.11
 202  0.900  0.900  0.503-  23 2.11  88 2.11 103 2.11 104 2.11 102 2.11
 203  0.800  0.900  0.407-  82 2.11  85 2.11 101 2.11 102 2.11 103 2.11
 204  0.900  0.800  0.407-  98 2.11  21 2.11 101 2.11 102 2.11 104 2.11

  LATTYP: Found a simple tetragonal cell.
 ALAT       =    21.1388521970
 C/A-ratio  =     1.0461251639

  Lattice vectors:

 A1 = (  21.1388521970,   0.0000000000,   0.0000000000)
 A2 = (   0.0000000000,  21.1388521970,   0.0000000000)
 A3 = (   0.0000000000,   0.0000000000,  22.1138852197)

Analysis of symmetry for initial positions (statically):
 Subroutine PRICEL returns:
 Original cell was already a primitive cell.

 Routine SETGRP: Setting up the symmetry group for a
 simple tetragonal supercell.

 Subroutine GETGRP returns: Found  1 space group operations
 (whereof  1 operations were pure point group operations)
 out of a pool of 16 trial point group operations.

The static configuration has the point symmetry C_1 .

Analysis of symmetry for dynamics (positions and initial velocities):
 Subroutine PRICEL returns:
 Original cell was already a primitive cell.

[...]

The dynamic configuration has the point symmetry C_1 .

Analysis of constrained symmetry for selective dynamics:
 Subroutine PRICEL returns:
 Original cell was already a primitive cell.

 Routine SETGRP: Setting up the symmetry group for a
 simple tetragonal supercell.

 Subroutine GETGRP returns: Found  1 space group operations
 (whereof  1 operations were pure point group operations)
 out of a pool of 16 trial point group operations.

The constrained configuration has the point symmetry C_1 .

 Subroutine INISYM returns: Found  1 space group operations
 (whereof  1 operations are pure point group operations),
 and found     1 'primitive' translations

                                     Primitive cell

  volume of cell :    9881.6133

  direct lattice vectors                    reciprocal lattice vectors
    21.138852197  0.000000000  0.000000000     0.047306258  0.000000000  0.000000000
     0.000000000 21.138852197  0.000000000     0.000000000  0.047306258  0.000000000
     0.000000000  0.000000000 22.113885220     0.000000000  0.000000000  0.045220457

  length of vectors
    21.138852197 21.138852197 22.113885220     0.047306258  0.047306258  0.045220457

  position of ions in fractional coordinates (direct lattice)
     0.399951201  0.425242954  0.603301976
     0.399957296  0.509675129  0.684179581
[...]
   O         168.251          4.747         17.734          3.28409411
   O         168.226          4.747         17.733          3.28384491
   O         166.838          4.740         17.659          3.27027588
   O         167.080          4.742         17.672          3.27264597
   O         168.221          4.747         17.733          3.28379818
   O         168.228          4.747         17.733          3.28387084
   O         167.085          4.742         17.673          3.27269599
   O         167.228          4.742         17.680          3.27408718
   O         168.189          4.747         17.731          3.28348884
   O         168.203          4.747         17.732          3.28362280

  vdW correction parametrized for the method         

  IVDW =  21
  VDW_RADIUS =    50.000 A
  VDW_IDAMPF =  0
  VDW_S6 =     1.000
  VDW_SR =     0.600
  VDW_D =    20.000
  LVDW_ONECELL = F F F
  LVDW_SAMETYPE T T T
  LVDW_EWALD = F

  Number of pair interactions contributing to vdW energy: 1118590
  Edisp (eV):  -68.88188

  FORCE on cell =-STRESS in cart. coord.  units (eV):
  Direction    XX          YY          ZZ          XY          YZ          ZX
  Alpha Z  1417.83424  1417.83424  1417.83424
  Ewald  478689.67923480803.91176************     0.83759   457.00324     0.56808
  Hartree508227.63467509875.84662************     0.62603   335.15768     0.41963
  E(xc)   -7875.95507 -7873.63436 -7921.78128     0.00104     0.78861     0.00068
  Local  ************************************    -1.44903  -780.54248    -0.97746
  n-local -8694.97388 -8705.38246 -8837.02398    -0.00449    -5.35494    -0.00386
  augment  3550.91421  3546.54811  3485.01023    -0.00287    -1.80003    -0.00284
  Kinetic 23329.04115 23317.40846 23549.24293    -0.00752    -5.05185    -0.00079
  Fock        0.00000     0.00000     0.00000     0.00000     0.00000     0.00000
  vdW         3.56628     2.57384    15.64063    -0.00060     1.69533    -0.00089
  Total     -97.91395   -97.33256    58.40797     0.00016     1.89558     0.00255
  in kB     -15.87550   -15.78123     9.47011     0.00003     0.30734     0.00041

 VOLUME and BASIS-vectors are now :
  energy-cutoff  :      520.00
  volume of cell :     9881.61
      direct lattice vectors                 reciprocal lattice vectors
    21.138852197  0.000000000  0.000000000     0.047306258  0.000000000  0.000000000
     0.000000000 21.138852197  0.000000000     0.000000000  0.047306258  0.000000000
     0.000000000  0.000000000 22.113885220     0.000000000  0.000000000  0.045220457

  length of vectors
    21.138852197 21.138852197 22.113885220     0.047306258  0.047306258  0.045220457

 FORCES acting on ions:
    Electron-Ion                     Ewald-Force                    Non-Local-Force
   0.616E-01 0.369E+03 -.196E+04   -.629E-01 -.366E+03 0.197E+04   0.219E-02 -.338E+01 -.432E+01
   0.196E+00 0.209E+03 -.198E+04   -.196E+00 -.211E+03 0.198E+04   0.706E-03 0.230E+01 0.389E+01
   -.393E+00 -.354E+03 -.186E+04   0.386E+00 0.351E+03 0.185E+04   0.673E-02 0.388E+01 0.572E+01
   0.139E+00 -.226E+03 -.180E+04   -.137E+00 0.227E+03 0.180E+04   -.251E-03 -.949E+00 -.251E+01
   0.728E+01 -.275E+01 0.936E+03   -.731E+01 0.276E+01 -.929E+03   0.168E-01 -.665E-02 -.755E+01
   0.131E+02 0.618E+01 0.939E+03   -.131E+02 -.620E+01 -.932E+03   0.353E-01 0.130E-01 -.756E+01
   0.949E+01 0.529E+01 -.918E+03   -.951E+01 -.529E+01 0.910E+03   0.147E-01 -.202E-02 0.747E+01
   0.158E+02 -.520E+01 -.915E+03   -.158E+02 0.521E+01 0.908E+03   0.193E-01 -.889E-02 0.746E+01
   0.977E+01 0.992E+01 0.939E+03   -.981E+01 -.994E+01 -.931E+03   0.305E-01 0.978E-02 -.756E+01
   0.254E+02 0.185E+02 0.950E+03   -.256E+02 -.186E+02 -.942E+03   0.115E+00 0.341E-01 -.759E+01
   0.184E+02 0.158E+02 -.913E+03   -.185E+02 -.158E+02 0.906E+03   0.232E-01 0.394E-02 0.746E+01
   0.240E+02 0.201E+02 -.912E+03   -.240E+02 -.201E+02 0.904E+03   0.489E-01 0.604E-02 0.745E+01
   0.172E+02 0.973E+01 0.945E+03   -.173E+02 -.974E+01 -.937E+03   0.582E-01 0.130E-01 -.757E+01
   0.394E+02 0.477E+01 0.962E+03   -.396E+02 -.479E+01 -.954E+03   0.195E+00 0.174E-01 -.761E+01
   0.286E+02 0.429E+01 -.908E+03   -.286E+02 -.430E+01 0.900E+03   0.305E-01 0.737E-02 0.745E+01
   0.538E+02 0.225E+02 -.897E+03   -.538E+02 -.225E+02 0.889E+03   0.596E-01 0.103E-01 0.742E+01
   0.191E+02 -.486E+01 0.947E+03   -.192E+02 0.486E+01 -.939E+03   0.718E-01 -.512E-03 -.757E+01
   0.313E+02 -.168E+02 0.955E+03   -.315E+02 0.168E+02 -.948E+03   0.159E+00 -.317E-01 -.759E+01
   0.231E+02 -.140E+02 -.910E+03   -.232E+02 0.140E+02 0.902E+03   0.357E-01 -.112E-02 0.746E+01
   0.622E+02 -.117E+02 -.892E+03   -.623E+02 0.117E+02 0.884E+03   0.104E+00 0.971E-02 0.742E+01
   0.122E+02 -.120E+02 0.941E+03   -.122E+02 0.121E+02 -.933E+03   0.412E-01 -.156E-01 -.756E+01
   0.157E+02 -.127E+02 0.942E+03   -.157E+02 0.128E+02 -.934E+03   0.433E-01 -.327E-01 -.756E+01
   0.116E+02 -.114E+02 -.916E+03   -.117E+02 0.114E+02 0.909E+03   0.184E-01 -.817E-02 0.746E+01
   0.329E+02 -.257E+02 -.906E+03   -.330E+02 0.258E+02 0.898E+03   0.668E-01 -.172E-01 0.745E+01
   0.133E+02 -.528E+01 0.943E+03   -.134E+02 0.530E+01 -.935E+03   0.285E-01 -.154E-01 -.757E+01
   0.952E+01 0.126E+02 0.948E+03   -.955E+01 -.127E+02 -.940E+03   0.263E-01 0.789E-01 -.758E+01
   0.188E+02 0.132E+02 -.912E+03   -.188E+02 -.132E+02 0.904E+03   0.261E-01 0.267E-01 0.745E+01
   0.117E+02 -.106E+02 -.908E+03   -.117E+02 0.106E+02 0.901E+03   0.120E-01 -.662E-02 0.745E+01
   0.206E+02 0.226E+02 0.951E+03   -.207E+02 -.227E+02 -.943E+03   0.913E-01 0.858E-01 -.758E+01
   0.264E+02 0.457E+02 0.986E+03   -.268E+02 -.462E+02 -.978E+03   0.247E+00 0.318E+00 -.762E+01
   0.559E+02 0.506E+02 -.887E+03   -.561E+02 -.506E+02 0.880E+03   0.201E+00 0.290E-02 0.740E+01
   0.240E+02 0.539E+02 -.894E+03   -.241E+02 -.542E+02 0.886E+03   0.328E-01 0.178E+00 0.742E+01
   0.470E+02 0.254E+02 0.982E+03   -.475E+02 -.255E+02 -.974E+03   0.419E+00 0.926E-01 -.773E+01
   0.505E+02 0.115E+02 0.104E+04   -.512E+02 -.117E+02 -.103E+04   0.558E+00 0.126E+00 -.779E+01
   0.113E+03 0.144E+02 -.846E+03   -.113E+03 -.145E+02 0.839E+03   0.301E+00 0.368E-01 0.733E+01
   0.128E+03 0.927E+02 -.764E+03   -.130E+03 -.928E+02 0.757E+03   0.159E+01 0.791E-01 0.666E+01
   0.534E+02 -.141E+02 0.991E+03   -.541E+02 0.141E+02 -.983E+03   0.561E+00 -.378E-01 -.775E+01
   0.351E+02 -.449E+02 0.101E+04   -.355E+02 0.454E+02 -.100E+04   0.352E+00 -.398E+00 -.761E+01
   0.780E+02 -.504E+02 -.868E+03   -.783E+02 0.504E+02 0.860E+03   0.293E+00 -.135E-01 0.739E+01
   0.156E+03 -.488E+02 -.721E+03   -.159E+03 0.489E+02 0.714E+03   0.261E+01 -.410E-01 0.683E+01
   0.274E+02 -.286E+02 0.960E+03   -.275E+02 0.288E+02 -.952E+03   0.122E+00 -.124E+00 -.759E+01
   0.121E+02 -.255E+02 0.955E+03   -.121E+02 0.257E+02 -.947E+03   0.281E-01 -.134E+00 -.759E+01
   0.250E+02 -.284E+02 -.906E+03   -.250E+02 0.285E+02 0.898E+03   0.223E-01 -.558E-01 0.745E+01
   0.386E+02 -.776E+02 -.869E+03   -.386E+02 0.779E+02 0.862E+03   -.883E-02 -.294E+00 0.738E+01
   -.176E-02 -.745E+01 0.948E+03   0.172E-02 0.747E+01 -.940E+03   0.287E-04 -.173E-01 -.757E+01
   -.952E+01 0.126E+02 0.948E+03   0.955E+01 -.127E+02 -.940E+03   -.262E-01 0.790E-01 -.758E+01
   -.408E-02 0.219E+02 -.906E+03   0.401E-02 -.220E+02 0.898E+03   0.487E-04 0.644E-01 0.745E+01
   -.117E+02 -.106E+02 -.908E+03   0.117E+02 0.106E+02 0.901E+03   -.119E-01 -.660E-02 0.745E+01
   -.584E-02 0.364E+02 0.964E+03   0.574E-02 -.368E+02 -.956E+03   0.715E-04 0.357E+00 -.766E+01
   -.265E+02 0.457E+02 0.986E+03   0.268E+02 -.461E+02 -.978E+03   -.247E+00 0.318E+00 -.762E+01
   -.365E-01 0.133E+03 -.820E+03   0.361E-01 -.135E+03 0.813E+03   0.312E-03 0.167E+01 0.735E+01
   -.241E+02 0.539E+02 -.894E+03   0.241E+02 -.542E+02 0.886E+03   -.327E-01 0.178E+00 0.742E+01
   -.203E-01 0.474E+02 0.105E+04   0.198E-01 -.480E+02 -.104E+04   0.404E-03 0.469E+00 -.558E+01
   -.505E+02 0.115E+02 0.104E+04   0.512E+02 -.117E+02 -.103E+04   -.557E+00 0.126E+00 -.778E+01
   -.979E-01 0.195E+02 -.583E+03   0.971E-01 -.212E+02 0.579E+03   0.875E-03 0.144E+01 0.461E+01
   -.128E+03 0.927E+02 -.764E+03   0.130E+03 -.928E+02 0.757E+03   -.159E+01 0.796E-01 0.667E+01
   -.162E-01 -.272E+02 0.107E+04   0.157E-01 0.276E+02 -.106E+04   0.423E-03 -.318E+00 -.430E+01
   -.351E+02 -.449E+02 0.101E+04   0.355E+02 0.454E+02 -.100E+04   -.352E+00 -.398E+00 -.761E+01
   -.276E-01 -.162E+03 -.734E+03   0.275E-01 0.166E+03 0.727E+03   0.904E-04 -.249E+01 0.632E+01
   -.156E+03 -.488E+02 -.721E+03   0.159E+03 0.488E+02 0.715E+03   -.261E+01 -.414E-01 0.683E+01
[...]
   -.101E+02 0.914E+01 0.708E+03   0.101E+02 -.915E+01 -.712E+03   -.383E-01 0.173E-01 0.340E+01
   0.210E-02 0.632E+01 0.704E+03   -.206E-02 -.632E+01 -.708E+03   -.533E-04 0.767E-02 0.341E+01
   -.185E+02 0.966E+01 -.684E+03   0.185E+02 -.967E+01 0.688E+03   -.308E-01 0.904E-02 -.359E+01
   0.473E-02 0.256E+01 -.685E+03   -.466E-02 -.257E+01 0.690E+03   -.883E-04 0.720E-02 -.357E+01
   -.147E+02 0.235E+01 0.712E+03   0.147E+02 -.236E+01 -.716E+03   -.543E-01 0.111E-01 0.339E+01
   0.349E-02 0.607E+01 0.708E+03   -.342E-02 -.608E+01 -.712E+03   -.837E-04 0.112E-01 0.340E+01
   -.210E+02 -.474E+01 -.682E+03   0.210E+02 0.474E+01 0.687E+03   -.388E-01 0.500E-02 -.359E+01
   0.251E-02 -.831E+01 -.687E+03   -.247E-02 0.831E+01 0.691E+03   -.573E-04 -.204E-02 -.357E+01
   -.121E+02 -.801E+01 0.710E+03   0.121E+02 0.803E+01 -.714E+03   -.499E-01 -.151E-01 0.340E+01
   0.292E-02 -.296E+01 0.709E+03   -.287E-02 0.296E+01 -.713E+03   -.705E-04 0.501E-03 0.340E+01
   -.126E+02 -.117E+02 -.687E+03   0.126E+02 0.117E+02 0.691E+03   -.288E-01 -.122E-01 -.356E+01
   0.110E-02 -.709E+01 -.690E+03   -.107E-02 0.710E+01 0.694E+03   -.318E-04 -.845E-02 -.355E+01
   -.669E+01 -.666E+01 0.705E+03   0.671E+01 0.667E+01 -.709E+03   -.260E-01 -.180E-01 0.341E+01
   0.138E-02 -.762E+01 0.706E+03   -.135E-02 0.763E+01 -.710E+03   -.402E-04 -.131E-01 0.341E+01
   -.837E-04 -.376E+01 0.269E+01   0.958E-12 0.122E-11 0.209E-10   -.289E-03 0.376E+01 -.335E+01

 POSITION                                       TOTAL-FORCE (eV/Angst)
      8.45451      8.98915     13.34135         0.000488     -0.398469     -0.523088
      8.45464     10.77395     15.12987         0.000372      0.925445      0.301926
      8.45667     13.37210     15.77041        -0.000898     -0.008297      0.184143
      8.45496     12.78393     13.26751         0.001102     -0.381699      0.153977
      0.00000      0.00000      9.00000        -0.004611      0.001838      0.306819
      2.11389      2.11389      9.00000        -0.009719     -0.003659      0.308216
      0.00000      2.11389     11.11389        -0.003600      0.000728     -0.273540
      2.11389      0.00000     11.11389        -0.004961      0.002270     -0.271911
      0.00000      4.22777      9.00000        -0.008042     -0.002717      0.308520
      2.11389      6.34166      9.00000        -0.029855     -0.009340      0.316204
      0.00000      6.34166     11.11389        -0.004609     -0.000437     -0.268167
      2.11389      4.22777     11.11389        -0.010941     -0.000648     -0.265826
      0.00000      8.45554      9.00000        -0.015413     -0.003621      0.311988
      2.11389     10.56943      9.00000        -0.050625     -0.005130      0.323639
      0.00000     10.56943     11.11389        -0.005163     -0.002099     -0.263563
      2.11389      8.45554     11.11389        -0.010400     -0.001403     -0.247545
      0.00000     12.68331      9.00000        -0.018787      0.000091      0.312403
      2.11389     14.79720      9.00000        -0.041049      0.009075      0.317383
      0.00000     14.79720     11.11389        -0.007657     -0.000211     -0.267261
      2.11389     12.68331     11.11389        -0.021870     -0.003946     -0.246150
      0.00000     16.91108      9.00000        -0.010892      0.004433      0.308893
      2.11389     19.02497      9.00000        -0.012018      0.009067      0.308548
      0.00000     19.02497     11.11389        -0.004529      0.002043     -0.273007
      2.11389     16.91108     11.11389        -0.014880      0.003753     -0.263296
      4.22777      0.00000      9.00000        -0.008008      0.004057      0.309742
      6.34166      2.11389      9.00000        -0.007647     -0.020370      0.312932
      4.22777      2.11389     11.11389        -0.006604     -0.005266     -0.266475
      6.34166      0.00000     11.11389        -0.002931      0.001282     -0.265656
      4.22777      4.22777      9.00000        -0.025253     -0.023642      0.312903
      6.34166      6.34166      9.00000        -0.081631     -0.097848      0.299927
      4.22777      6.34166     11.11389        -0.050472      0.004358     -0.226032
      6.34166      4.22777     11.11389        -0.010032     -0.047094     -0.241008
      4.22777      8.45554      9.00000        -0.104104     -0.024457      0.345995
      6.34166     10.56943      9.00000        -0.185733     -0.042330      0.292605
      4.22777     10.56943     11.11389        -0.082189     -0.013585     -0.173071
      6.34166      8.45554     11.11389        -0.539099     -0.010058     -0.001424
      4.22777     12.68331      9.00000        -0.137099      0.009148      0.348964
      6.34166     14.79720      9.00000        -0.115246      0.127576      0.278415
      4.22777     14.79720     11.11389        -0.083950      0.001691     -0.216281
      6.34166     12.68331     11.11389        -0.909110      0.002554     -0.130747
      4.22777     16.91108      9.00000        -0.033959      0.034311      0.314519
      6.34166     19.02497      9.00000        -0.007923      0.034027      0.317220
      4.22777     19.02497     11.11389        -0.005483      0.011970     -0.263324
      6.34166     16.91108     11.11389         0.003195      0.079523     -0.213394
      8.45554      0.00000      9.00000        -0.000009      0.004750      0.312139
     10.56943      2.11389      9.00000         0.007636     -0.020376      0.312930
      8.45554      2.11389     11.11389        -0.000011     -0.014407     -0.260237
     10.56943      0.00000     11.11389         0.002913      0.001276     -0.265656
      8.45554      4.22777      9.00000        -0.000027     -0.087832      0.327420
     10.56943      6.34166      9.00000         0.081580     -0.097896      0.299900
      8.45554      6.34166     11.11389        -0.000096     -0.511678     -0.162838
     10.56943      4.22777     11.11389         0.009996     -0.047154     -0.241029
      8.45554      8.45554      9.00000        -0.000118     -0.100259     -0.117471
     10.56943     10.56943      9.00000         0.185677     -0.042326      0.292575
      8.45554     10.56943     11.11389        -0.000011     -0.190276      0.010029
     10.56943      8.45554     11.11389         0.538593     -0.010039     -0.001576
      8.45554     12.68331      9.00000        -0.000132      0.073371     -0.395898
     10.56943     14.79720      9.00000         0.115230      0.127637      0.278452
      8.45554     14.79720     11.11389         0.000036      0.928719     -0.082947
     10.56943     12.68331     11.11389         0.908614      0.002690     -0.130409
[...]
     19.02497      6.34166     11.11389        -0.000018      0.001594      0.858655
     16.91108      6.34166      9.00000        -0.010884      0.004923     -0.898825
     19.02497      4.22777      9.00000        -0.000017      0.002184     -0.896792
     16.91108      8.45554     11.11389        -0.009564      0.002896      0.851182
     19.02497     10.56943     11.11389        -0.000018      0.002020      0.855177
     16.91108     10.56943      9.00000        -0.015596      0.003078     -0.900911
     19.02497      8.45554      9.00000        -0.000017      0.003147     -0.898533
     16.91108     12.68331     11.11389        -0.011946      0.001065      0.850316
     19.02497     14.79720     11.11389        -0.000014     -0.000831      0.857848
     16.91108     14.79720      9.00000        -0.014151     -0.004309     -0.899050
     19.02497     12.68331      9.00000        -0.000015      0.000095     -0.898597
     16.91108     16.91108     11.11389        -0.008405     -0.003765      0.858035
     19.02497     19.02497     11.11389        -0.000008     -0.002475      0.862535
     16.91108     19.02497      9.00000        -0.007273     -0.005025     -0.896538
     19.02497     16.91108      9.00000        -0.000005     -0.003701     -0.896932
    total drift:                               -0.000372     -0.001056     -0.659554

  FREE ENERGIE OF THE ION-ELECTRON SYSTEM (eV)
  free  energy   TOTEN  =     -1162.85200355 eV

  energy  without entropy=    -1162.85200355  energy(sigma->0) =    -1162.85200355