 vasp.6.4.1 05Apr23 (build May 06 2023 19:47:20) complex

 executed on             LinuxIFC date 2023.07.03  23:28:22

 INCAR:
   SYSTEM = MgO-rocksalt
   ISMEAR = 0
   SIGMA = 0.05
   EDIFF = 1E-6
   ALGO = ALL
   ISTART = 0
   IBRION = -1
   NSW = 0
   ISYM = 2
   DIPOL = 0.5 0.5 0.5
   IDIPOL = 3
   LDIPOL = .TRUE.
   LHFCALC = .TRUE.
   GGA = B5
   AEXX = 0.2
   AGGAX = 0.72
   AGGAC = 0.81
   ALDAC = 0.19
   IVDW = 11
   VDW_S6 = 1.0
   VDW_SR = 1.261
   VDW_S8 = 1.703
   ENCUT = 520
   PREC = Accurate
   LASPH = .TRUE.
   LREAL = Auto
   ISPIN = 1
   NELM = 200
   NELMIN = 8
   NCORE = 16
   KPAR = 1
   LWAVE = .FALSE.
   LCHARG = .FALSE.

 POTCAR:    PAW_PBE Ag 02Apr2005
 POTCAR:    PAW_PBE Mg_pv 13Apr2007
 POTCAR:    PAW_PBE O 08Apr2002
|           W    W    AA    RRRRR   N    N  II  N    N   GGGG   !!!           |
|           W    W   A  A   R    R  NN   N  II  NN   N  G    G  !!!           |
|           W    W  A    A  R    R  N N  N  II  N N  N  G       !!!           |
|           W WW W  AAAAAA  RRRRR   N  N N  II  N  N N  G  GGG   !            |
|           WW  WW  A    A  R   R   N   NN  II  N   NN  G    G                |
|           W    W  A    A  R    R  N    N  II  N    N   GGGG   !!!           |
|     You have selected ISYM=2 for a HF type calculation. This will           |
|     symmetrize the charge density but not the exchange potential. I         |
|     suggest to use ISYM=3 instead. This uses symmetry to obtain the         |
|     orbitals at all k-points in the Brillouin zone, but does not apply      |
|     symmetry to the Hartree potential directly. The resultant charge        |
|     might have lower symmetry than the crystal but, at least, Hartree       |
|     and exchange are fully compatible.                                      |

   TITEL  = PAW_PBE Ag 02Apr2005
   POMASS =  107.868; ZVAL   =   11.000    mass and valenz
   ENMAX  =  249.844; ENMIN  =  187.383 eV

   TITEL  = PAW_PBE Mg_pv 13Apr2007
   POMASS =   24.305; ZVAL   =    8.000    mass and valenz
   ENMAX  =  403.929; ENMIN  =  302.947 eV

   TITEL  = PAW_PBE O 08Apr2002
   POMASS =   16.000; ZVAL   =    6.000    mass and valenz
   ENMAX  =  400.000; ENMIN  =  300.000 eV

 Optimization of the real space projectors (new method)

 maximal supplied QI-value         = 15.12
 optimisation between [QCUT,QGAM] = [ 11.64, 23.28] = [ 37.95,151.78] Ry
 Optimized for a Real-space Cutoff    1.45 Angstroem

   l    n(q)    QCUT    max X(q) W(low)/X(q) W(high)/X(q)  e(spline)
   2      9    11.641    53.897    0.22E-03    0.42E-04    0.28E-06
   2      9    11.641    52.416    0.23E-03    0.44E-04    0.29E-06
   0     10    11.641   122.045    0.51E-04    0.25E-04    0.16E-06
   0     10    11.641    73.629    0.49E-04    0.24E-04    0.16E-06
   1     10    11.641    15.255    0.99E-04    0.55E-04    0.11E-06
   1     10    11.641     9.562    0.81E-04    0.47E-04    0.95E-07
 Optimization of the real space projectors (new method)

[...]

   l    n(q)    QCUT    max X(q) W(low)/X(q) W(high)/X(q)  e(spline)
   1      8    11.527     2.974    0.44E-04    0.56E-04    0.12E-06
   1      8    11.527     4.279    0.12E-03    0.12E-03    0.26E-06
   0      9    11.527    16.381    0.46E-04    0.64E-04    0.78E-07
   0      9    11.527     5.611    0.26E-04    0.43E-04    0.55E-07
   2      8    11.527     4.652    0.22E-03    0.72E-04    0.47E-07
 Optimization of the real space projectors (new method)

 maximal supplied QI-value         = 24.76
 optimisation between [QCUT,QGAM] = [ 11.64, 23.27] = [ 37.91,151.63] Ry
 Optimized for a Real-space Cutoff    1.14 Angstroem

   l    n(q)    QCUT    max X(q) W(low)/X(q) W(high)/X(q)  e(spline)
   0      8    11.635    20.381    0.10E-03    0.33E-03    0.24E-06
   0      8    11.635    15.268    0.11E-03    0.35E-03    0.26E-06
   1      7    11.635     5.964    0.24E-03    0.31E-03    0.30E-06
   1      7    11.635     5.382    0.22E-03    0.25E-03    0.26E-06
|               ----> ADVICE to this user running VASP <----                  |
|     You enforced a specific xc type in the INCAR file but a different       |
|     type was found in the POTCAR file.                                      |
|     I HOPE YOU KNOW WHAT YOU ARE DOING!                                     |

  PAW_PBE Ag 02Apr2005                  :
  PAW_PBE Mg_pv 13Apr2007               :
  PAW_PBE O 08Apr2002                   :

 POSCAR: Ag Mg  O
  positions in direct lattice
 exchange correlation table for  LEXCH =       12
   RHO(1)=    0.500       N(1)  =     2000
   RHO(2)=  100.500       N(2)  =     4000

 ion  position               nearest neighbor table
   1  0.500  0.500  0.720-   2 2.55
   2  0.500  0.500  0.605- 152 2.27   1 2.55
   3  0.000  0.000  0.407- 105 2.11 106 2.11 121 2.11 186 2.11 103 2.11
   4  0.100  0.100  0.407- 105 2.11 106 2.11 110 2.11 125 2.11 104 2.11
   5  0.000  0.100  0.503- 103 2.11 104 2.11 107 2.11 184 2.11 105 2.11
   6  0.100  0.000  0.503- 103 2.11 104 2.11 120 2.11 123 2.11 106 2.11
   7  0.000  0.200  0.407- 109 2.11 105 2.11 110 2.11 190 2.11 107 2.11
   8  0.100  0.300  0.407- 110 2.11 109 2.11 114 2.11 129 2.11 108 2.11
   9  0.000  0.300  0.503- 107 2.11 108 2.11 111 2.11 188 2.11 109 2.11
  10  0.100  0.200  0.503- 108 2.11 107 2.11 104 2.11 127 2.11 110 2.11
  11  0.000  0.400  0.407- 109 2.11 113 2.11 114 2.11 194 2.11 111 2.11
  12  0.100  0.500  0.407- 113 2.11 114 2.11 118 2.11 133 2.11 112 2.11
  13  0.000  0.500  0.503- 111 2.11 112 2.11 115 2.11 192 2.11 113 2.11
  14  0.100  0.400  0.503- 108 2.11 111 2.11 112 2.11 131 2.11 114 2.11
  15  0.000  0.600  0.407- 113 2.11 117 2.11 118 2.11 198 2.11 115 2.11
  16  0.100  0.700  0.407- 122 2.11 118 2.11 117 2.11 137 2.11 116 2.11
  17  0.000  0.700  0.503- 119 2.11 116 2.11 115 2.11 196 2.11 117 2.11
  18  0.100  0.600  0.503- 112 2.11 115 2.11 116 2.11 135 2.11 118 2.11
  19  0.000  0.800  0.407- 117 2.11 121 2.11 122 2.11 202 2.11 119 2.11
  20  0.100  0.900  0.407- 106 2.11 121 2.11 122 2.11 141 2.11 120 2.11
  21  0.000  0.900  0.503- 103 2.11 119 2.11 120 2.11 200 2.11 121 2.11
  22  0.100  0.800  0.503- 116 2.11 119 2.11 120 2.11 139 2.11 122 2.11
  23  0.200  0.000  0.407- 126 2.11 125 2.11 106 2.11 141 2.11 123 2.11
  24  0.300  0.100  0.407- 125 2.11 126 2.11 130 2.11 145 2.11 124 2.11
  25  0.200  0.100  0.503- 124 2.11 123 2.11 104 2.11 127 2.11 125 2.11
  26  0.300  0.000  0.503- 123 2.11 124 2.11 140 2.11 143 2.11 126 2.11
  27  0.200  0.200  0.407- 129 2.11 130 2.11 110 2.11 125 2.11 127 2.11
  28  0.300  0.300  0.407- 129 2.11 130 2.11 134 2.11 149 2.11 128 2.11
  29  0.200  0.300  0.503- 127 2.11 128 2.11 108 2.11 131 2.11 129 2.11
  30  0.300  0.200  0.503- 127 2.11 128 2.11 124 2.11 147 2.11 130 2.11
  31  0.200  0.400  0.407- 134 2.11 129 2.11 133 2.11 114 2.11 131 2.11
  32  0.300  0.500  0.407- 133 2.11 134 2.11 138 2.11 153 2.11 132 2.11
  33  0.200  0.500  0.503- 132 2.11 131 2.11 112 2.11 135 2.11 133 2.11
  34  0.300  0.400  0.503- 131 2.11 128 2.11 132 2.11 151 2.11 134 2.11
  35  0.200  0.600  0.407- 138 2.11 133 2.11 137 2.11 118 2.11 135 2.11
  36  0.300  0.700  0.407- 137 2.11 142 2.11 138 2.11 157 2.11 136 2.11
  37  0.200  0.700  0.503- 136 2.11 139 2.11 116 2.11 135 2.11 137 2.11
  38  0.300  0.600  0.503- 135 2.11 132 2.11 136 2.11 155 2.11 138 2.11
  39  0.200  0.800  0.407- 137 2.11 142 2.11 141 2.11 122 2.11 139 2.11
  40  0.300  0.900  0.407- 141 2.11 126 2.11 142 2.11 161 2.11 140 2.11
  41  0.200  0.900  0.503- 140 2.11 123 2.11 139 2.11 120 2.11 141 2.11
  42  0.300  0.800  0.503- 136 2.11 139 2.11 140 2.11 159 2.11 142 2.11
  43  0.400  0.000  0.407- 126 2.11 145 2.11 146 2.11 161 2.11 143 2.11
  44  0.500  0.100  0.407- 145 2.11 146 2.11 150 2.11 165 2.11 144 2.11
  45  0.400  0.100  0.503- 124 2.11 143 2.11 144 2.11 147 2.11 145 2.11
  46  0.500  0.000  0.503- 143 2.11 144 2.11 160 2.11 163 2.11 146 2.11
  47  0.400  0.200  0.407- 149 2.11 145 2.11 130 2.11 150 2.11 147 2.11
  48  0.500  0.300  0.407- 150 2.11 149 2.11 154 2.11 169 2.11 148 2.11
  49  0.400  0.300  0.503- 147 2.11 128 2.11 148 2.11 151 2.11 149 2.11
  50  0.500  0.200  0.503- 148 2.11 147 2.11 144 2.11 167 2.11 150 2.11
  51  0.400  0.400  0.407- 134 2.11 149 2.11 153 2.11 154 2.11 151 2.11
  52  0.500  0.500  0.407- 153 2.11 154 2.11 158 2.11 173 2.11 152 2.11
  53  0.400  0.500  0.503- 132 2.11 151 2.11 152 2.11 155 2.11 153 2.11
  54  0.500  0.400  0.503- 148 2.11 151 2.11 152 2.11 171 2.11 154 2.11
  55  0.400  0.600  0.407- 138 2.11 153 2.11 157 2.11 158 2.11 155 2.11
  56  0.500  0.700  0.407- 162 2.11 158 2.11 157 2.11 177 2.11 156 2.11
  57  0.400  0.700  0.503- 159 2.11 155 2.11 156 2.11 136 2.11 157 2.11
  58  0.500  0.600  0.503- 152 2.11 155 2.11 156 2.11 175 2.11 158 2.11
  59  0.400  0.800  0.407- 157 2.11 142 2.11 161 2.11 162 2.11 159 2.11
  60  0.500  0.900  0.407- 146 2.11 161 2.11 162 2.11 181 2.11 160 2.11
[...]
 188  0.900  0.300  0.503-  90 2.11  89 2.11   9 2.11  94 2.11  88 2.11
 189  0.800  0.300  0.407-  68 2.11  87 2.11  88 2.11  91 2.11  89 2.11
 190  0.900  0.200  0.407-  88 2.11  84 2.11  87 2.11   7 2.11  90 2.11
 191  0.800  0.400  0.503-  74 2.11  89 2.11  93 2.11  94 2.11  91 2.11
 192  0.900  0.500  0.503-  13 2.11  93 2.11  94 2.11  98 2.11  92 2.11
 193  0.800  0.500  0.407-  72 2.11  91 2.11  92 2.11  95 2.11  93 2.11
 194  0.900  0.400  0.407-  11 2.11  88 2.11  91 2.11  92 2.11  94 2.11
 195  0.800  0.600  0.503-  78 2.11  93 2.11  97 2.11  98 2.11  95 2.11
 196  0.900  0.700  0.503- 102 2.11  97 2.11  98 2.11  17 2.11  96 2.11
 197  0.800  0.700  0.407-  76 2.11  99 2.11  96 2.11  95 2.11  97 2.11
 198  0.900  0.600  0.407-  15 2.11  92 2.11  95 2.11  96 2.11  98 2.11
 199  0.800  0.800  0.503-  82 2.11  97 2.11 101 2.11 102 2.11  99 2.11
 200  0.900  0.900  0.503-  21 2.11  86 2.11 101 2.11 102 2.11 100 2.11
 201  0.800  0.900  0.407-  80 2.11  83 2.11  99 2.11 100 2.11 101 2.11
 202  0.900  0.800  0.407-  96 2.11  19 2.11  99 2.11 100 2.11 102 2.11

  LATTYP: Found a simple tetragonal cell.
 ALAT       =    21.1388521970
 C/A-ratio  =     1.0461251639

  Lattice vectors:

 A1 = (  21.1388521970,   0.0000000000,   0.0000000000)
 A2 = (   0.0000000000,  21.1388521970,   0.0000000000)
 A3 = (   0.0000000000,   0.0000000000,  22.1138852197)

Analysis of symmetry for initial positions (statically):
 Subroutine PRICEL returns:
 Original cell was already a primitive cell.

 Routine SETGRP: Setting up the symmetry group for a
 simple tetragonal supercell.

 Subroutine GETGRP returns: Found  8 space group operations
 (whereof  8 operations were pure point group operations)
 out of a pool of 16 trial point group operations.

The static configuration has the point symmetry C_4v.

Analysis of symmetry for dynamics (positions and initial velocities):
 Subroutine PRICEL returns:
 Original cell was already a primitive cell.

 Routine SETGRP: Setting up the symmetry group for a
 simple tetragonal supercell.

 Subroutine GETGRP returns: Found  8 space group operations
 (whereof  8 operations were pure point group operations)
 out of a pool of 16 trial point group operations.

The dynamic configuration has the point symmetry C_4v.

[...]
     41     -46.4001      2.00000
     42     -46.4001      2.00000
     43     -46.4000      2.00000
     44     -46.3938      2.00000
     45     -46.3936      2.00000
     46     -46.3936      2.00000
     47     -46.3936      2.00000
     48     -46.3922      2.00000
     49     -46.3921      2.00000
     50     -46.3921      2.00000
     51     -46.3920      2.00000
     52     -46.3813      2.00000
     53     -46.3812      2.00000
     54     -46.3801      2.00000
     55     -46.3797      2.00000
     56     -46.3797      2.00000
     57     -46.3790      2.00000
     58     -46.3790      2.00000
     59     -46.3785      2.00000
     60     -46.3776      2.00000
[...]
    850       4.8658      0.00000
    851       4.8947      0.00000
    852       4.9419      0.00000
    853       4.9573      0.00000
    854       5.0019      0.00000
    855       5.0211      0.00000
    856       5.0416      0.00000
    857       5.0648      0.00000
    858       5.0786      0.00000
    859       5.1133      0.00000
    860       5.1419      0.00000
    861       5.2948      0.00000
    862       5.3667      0.00000
    863       5.4108      0.00000
    864       5.4410      0.00000

 soft charge-density along one line, spin component           1
         0         1         2         3         4         5         6         7         8         9
 total charge-density along one line

------------------------ aborting loop because EDIFF is reached ----------------------------------------

 WARNING: Using user supplied parameters
     VDW_S8 = 1.703
     VDW_SR = 1.261
     because the xc functional is not supported. Required parameters not
     defined in the INCAR file will be replaced with PBE defaults ones.

         DFTD3 V3.0 Rev 1
 IVDW         = 11
 DF unknown
 parameters
 VDW_S6       =    1.0000
 VDW_S8       =    1.7030
 VDW_SR       =    1.2610
 rs18     =    1.0000
 alpha6   =   14.0000
 alpha8   =   16.0000
 k1-k3    =   16.0000    1.3333   -4.0000
 VDW_RADIUS   =   50.2022 A
 VDW_CNRADIUS =   21.1671 A
 Edisp (eV)  -33.14339

 E6    (eV) :    -6.9633
 E8    (eV) :   -26.1801
 % E8        : 78.99

 VOLUME and BASIS-vectors are now :
  energy-cutoff  :      520.00
  volume of cell :     9881.61
      direct lattice vectors                 reciprocal lattice vectors
    21.138852197  0.000000000  0.000000000     0.047306258  0.000000000  0.000000000
     0.000000000 21.138852197  0.000000000     0.000000000  0.047306258  0.000000000
     0.000000000  0.000000000 22.113885220     0.000000000  0.000000000  0.045220457

  length of vectors
    21.138852197 21.138852197 22.113885220     0.047306258  0.047306258  0.045220457

 FORCES acting on ions:
    Electron-Ion                     Ewald-Force                    Non-Local-Force
   -.228E-12 -.753E-12 -.174E+04   -.566E-13 0.511E-14 0.173E+04   0.354E-22 -.781E-22 0.819E+01
   -.438E-13 0.990E-12 -.191E+04   0.200E-13 -.120E-13 0.191E+04   -.324E-22 -.288E-22 -.475E+01
   0.153E-12 0.106E-11 0.930E+03   0.941E-13 0.746E-13 -.923E+03   0.331E-23 -.316E-23 -.671E+01
   0.361E+01 0.361E+01 0.931E+03   -.362E+01 -.362E+01 -.924E+03   0.693E-02 0.693E-02 -.671E+01
   0.128E-12 0.386E+01 -.922E+03   0.131E-12 -.386E+01 0.915E+03   -.174E-22 0.311E-02 0.666E+01
   0.386E+01 0.565E-12 -.922E+03   -.386E+01 0.515E-13 0.915E+03   0.311E-02 0.120E-22 0.666E+01
   0.144E-12 0.528E+01 0.932E+03   0.155E-10 -.529E+01 -.924E+03   -.763E-23 0.809E-02 -.671E+01
   0.706E+01 0.663E+01 0.935E+03   -.709E+01 -.665E+01 -.927E+03   0.245E-01 0.122E-01 -.671E+01
   0.119E-12 0.697E+01 -.920E+03   0.207E-11 -.698E+01 0.912E+03   0.130E-22 0.478E-02 0.666E+01
   0.664E+01 0.791E+01 -.921E+03   -.665E+01 -.792E+01 0.913E+03   0.930E-02 0.688E-02 0.666E+01
   0.142E-12 0.357E+01 0.934E+03   -.175E-10 -.357E+01 -.927E+03   -.161E-22 0.517E-02 -.671E+01
   0.998E+01 -.134E-12 0.937E+03   -.100E+02 0.123E-12 -.929E+03   0.406E-01 0.256E-22 -.672E+01
   0.129E-12 -.750E-12 -.918E+03   0.229E-12 0.266E-13 0.911E+03   -.247E-23 -.776E-23 0.665E+01
   0.134E+02 0.588E+01 -.917E+03   -.134E+02 -.588E+01 0.909E+03   0.211E-01 0.400E-02 0.665E+01
   0.142E-12 -.357E+01 0.934E+03   0.114E-11 0.357E+01 -.927E+03   0.150E-22 -.517E-02 -.671E+01
   0.706E+01 -.663E+01 0.935E+03   -.709E+01 0.665E+01 -.927E+03   0.245E-01 -.122E-01 -.671E+01
   0.141E-12 -.697E+01 -.920E+03   -.927E-12 0.698E+01 0.912E+03   0.268E-23 -.478E-02 0.666E+01
   0.134E+02 -.588E+01 -.917E+03   -.134E+02 0.588E+01 0.909E+03   0.211E-01 -.400E-02 0.665E+01
   0.149E-12 -.528E+01 0.932E+03   0.909E-12 0.529E+01 -.924E+03   0.771E-23 -.809E-02 -.671E+01
   0.361E+01 -.361E+01 0.931E+03   -.362E+01 0.362E+01 -.924E+03   0.693E-02 -.693E-02 -.671E+01
   0.132E-12 -.386E+01 -.922E+03   -.899E-12 0.386E+01 0.915E+03   0.128E-22 -.311E-02 0.666E+01
   0.664E+01 -.791E+01 -.921E+03   -.665E+01 0.792E+01 0.913E+03   0.930E-02 -.688E-02 0.666E+01
   0.528E+01 -.742E-12 0.932E+03   -.529E+01 0.293E-13 -.924E+03   0.809E-02 0.549E-23 -.671E+01
   0.663E+01 0.706E+01 0.935E+03   -.665E+01 -.709E+01 -.927E+03   0.122E-01 0.245E-01 -.671E+01
   0.791E+01 0.664E+01 -.921E+03   -.792E+01 -.665E+01 0.913E+03   0.688E-02 0.930E-02 0.666E+01
   0.697E+01 0.325E-12 -.920E+03   -.698E+01 0.528E-13 0.912E+03   0.478E-02 -.953E-23 0.666E+01
   0.890E+01 0.890E+01 0.935E+03   -.893E+01 -.893E+01 -.927E+03   0.252E-01 0.252E-01 -.671E+01
   0.167E+02 0.167E+02 0.947E+03   -.168E+02 -.168E+02 -.939E+03   0.805E-01 0.805E-01 -.673E+01
   0.200E+02 0.149E+02 -.914E+03   -.201E+02 -.149E+02 0.906E+03   0.421E-01 0.144E-01 0.665E+01
   0.149E+02 0.200E+02 -.914E+03   -.149E+02 -.201E+02 0.906E+03   0.144E-01 0.421E-01 0.665E+01
   0.181E+02 0.714E+01 0.943E+03   -.182E+02 -.716E+01 -.935E+03   0.968E-01 0.196E-01 -.673E+01
   0.294E+02 -.183E-11 0.962E+03   -.299E+02 0.426E-13 -.954E+03   0.306E+00 -.295E-22 -.679E+01
   0.340E+02 -.233E-11 -.907E+03   -.341E+02 -.853E-13 0.899E+03   0.742E-01 0.120E-22 0.663E+01
   0.497E+02 0.255E+02 -.889E+03   -.501E+02 -.255E+02 0.882E+03   0.233E+00 0.226E-01 0.660E+01
   0.181E+02 -.714E+01 0.943E+03   -.182E+02 0.716E+01 -.935E+03   0.968E-01 -.196E-01 -.673E+01
   0.167E+02 -.167E+02 0.947E+03   -.168E+02 0.168E+02 -.939E+03   0.805E-01 -.805E-01 -.673E+01
   0.200E+02 -.149E+02 -.914E+03   -.201E+02 0.149E+02 0.906E+03   0.421E-01 -.144E-01 0.665E+01
   0.497E+02 -.255E+02 -.889E+03   -.501E+02 0.255E+02 0.882E+03   0.233E+00 -.226E-01 0.660E+01
   0.890E+01 -.890E+01 0.935E+03   -.893E+01 0.893E+01 -.927E+03   0.252E-01 -.252E-01 -.671E+01
   0.663E+01 -.706E+01 0.935E+03   -.665E+01 0.709E+01 -.927E+03   0.122E-01 -.245E-01 -.671E+01
   0.791E+01 -.664E+01 -.921E+03   -.792E+01 0.665E+01 0.913E+03   0.688E-02 -.930E-02 0.666E+01
   0.149E+02 -.200E+02 -.914E+03   -.149E+02 0.201E+02 0.906E+03   0.144E-01 -.421E-01 0.665E+01
   0.357E+01 0.140E-12 0.934E+03   -.357E+01 0.857E-13 -.927E+03   0.517E-02 0.123E-22 -.671E+01
   -.218E-12 0.998E+01 0.937E+03   0.435E-11 -.100E+02 -.929E+03   -.130E-22 0.406E-01 -.672E+01
   0.588E+01 0.134E+02 -.917E+03   -.588E+01 -.134E+02 0.909E+03   0.400E-02 0.211E-01 0.665E+01
   -.229E-12 -.480E-12 -.918E+03   0.875E-13 0.546E-13 0.911E+03   0.339E-24 -.617E-23 0.665E+01
   0.714E+01 0.181E+02 0.943E+03   -.716E+01 -.182E+02 -.935E+03   0.196E-01 0.968E-01 -.673E+01
   -.214E-12 0.294E+02 0.962E+03   -.558E-11 -.299E+02 -.954E+03   0.127E-22 0.306E+00 -.679E+01
   0.255E+02 0.497E+02 -.889E+03   -.255E+02 -.501E+02 0.882E+03   0.226E-01 0.233E+00 0.660E+01
   -.216E-12 0.340E+02 -.907E+03   -.191E-10 -.341E+02 0.899E+03   -.125E-22 0.742E-01 0.663E+01
   0.222E+02 0.222E+02 0.978E+03   -.225E+02 -.225E+02 -.970E+03   0.219E+00 0.219E+00 -.668E+01
   -.246E-12 0.293E-11 0.101E+04   -.457E-13 0.941E-13 -.100E+04   0.104E-22 0.517E-23 -.488E+01
   0.104E+03 0.173E-10 -.791E+03   -.106E+03 -.200E-13 0.784E+03   0.176E+01 0.373E-22 0.658E+01
   -.242E-12 0.104E+03 -.791E+03   0.216E-10 -.106E+03 0.784E+03   -.743E-23 0.176E+01 0.658E+01
   0.222E+02 -.222E+02 0.978E+03   -.225E+02 0.225E+02 -.970E+03   0.219E+00 -.219E+00 -.668E+01
   -.219E-12 -.294E+02 0.962E+03   -.183E-10 0.299E+02 -.954E+03   -.308E-22 -.306E+00 -.679E+01
   0.255E+02 -.497E+02 -.889E+03   -.255E+02 0.501E+02 0.882E+03   0.226E-01 -.233E+00 0.660E+01
   -.224E-12 -.104E+03 -.791E+03   0.182E-10 0.106E+03 0.784E+03   0.378E-22 -.176E+01 0.658E+01
   0.714E+01 -.181E+02 0.943E+03   -.716E+01 0.182E+02 -.935E+03   0.196E-01 -.968E-01 -.673E+01
   -.197E-12 -.998E+01 0.937E+03   0.205E-10 0.100E+02 -.929E+03   -.295E-22 -.406E-01 -.672E+01
[...]
   -.100E+02 0.764E+01 0.706E+03   0.100E+02 -.767E+01 -.710E+03   -.519E-01 0.362E-01 0.316E+01
   -.374E+01 0.463E+01 0.701E+03   0.376E+01 -.464E+01 -.705E+03   -.134E-01 0.137E-01 0.317E+01
   -.220E+02 0.831E+01 -.684E+03   0.221E+02 -.832E+01 0.688E+03   -.580E-01 0.157E-01 -.329E+01
   -.112E+02 -.434E-11 -.689E+03   0.112E+02 0.104E-10 0.693E+03   -.223E-01 0.120E-22 -.326E+01
   -.153E+02 0.296E-10 0.710E+03   0.154E+02 -.166E-11 -.714E+03   -.867E-01 0.551E-22 0.315E+01
   -.684E+01 0.327E+01 0.704E+03   0.686E+01 -.328E+01 -.708E+03   -.285E-01 0.100E-01 0.316E+01
   -.220E+02 -.831E+01 -.684E+03   0.221E+02 0.832E+01 0.688E+03   -.580E-01 -.157E-01 -.329E+01
   -.745E+01 -.654E+01 -.691E+03   0.747E+01 0.655E+01 0.695E+03   -.154E-01 -.963E-02 -.325E+01
   -.100E+02 -.764E+01 0.706E+03   0.100E+02 0.767E+01 -.710E+03   -.519E-01 -.362E-01 0.316E+01
   -.684E+01 -.327E+01 0.704E+03   0.686E+01 0.328E+01 -.708E+03   -.285E-01 -.100E-01 0.316E+01
   -.922E+01 -.922E+01 -.690E+03   0.923E+01 0.923E+01 0.694E+03   -.223E-01 -.223E-01 -.325E+01
   -.341E+01 -.341E+01 -.693E+03   0.342E+01 0.342E+01 0.697E+03   -.582E-02 -.582E-02 -.323E+01
   -.463E+01 -.374E+01 0.701E+03   0.464E+01 0.376E+01 -.705E+03   -.137E-01 -.134E-01 0.317E+01
   -.374E+01 -.463E+01 0.701E+03   0.376E+01 0.464E+01 -.705E+03   -.134E-01 -.137E-01 0.317E+01
   0.141E-10 -.126E-10 -.227E+01   0.368E-11 -.909E-12 -.443E-11   0.767E-15 0.451E-16 0.203E+01

 POSITION                                       TOTAL-FORCE (eV/Angst)
     10.56943     10.56943     15.92762         0.000000     -0.000000      0.210582
     10.56943     10.56943     13.38041         0.000000     -0.000000      0.345989
      0.00000      0.00000      9.00000         0.000000     -0.000000      0.425965
      2.11389      2.11389      9.00000        -0.002176     -0.002176      0.426188
      0.00000      2.11389     11.11389         0.000000     -0.000953     -0.407717
      2.11389      0.00000     11.11389        -0.000953     -0.000000     -0.407717
      0.00000      4.22777      9.00000         0.000000     -0.002550      0.426320
      2.11389      6.34166      9.00000        -0.007332     -0.003834      0.428025
      0.00000      6.34166     11.11389         0.000000     -0.001429     -0.405381
      2.11389      4.22777     11.11389        -0.002671     -0.002069     -0.405786
      0.00000      8.45554      9.00000         0.000000     -0.001648      0.427998
      2.11389     10.56943      9.00000        -0.012009     -0.000000      0.429333
      0.00000     10.56943     11.11389         0.000000     -0.000000     -0.403605
      2.11389      8.45554     11.11389        -0.005407     -0.001126     -0.401337
      0.00000     12.68331      9.00000         0.000000      0.001648      0.427998
      2.11389     14.79720      9.00000        -0.007332      0.003834      0.428025
      0.00000     14.79720     11.11389         0.000000      0.001429     -0.405381
      2.11389     12.68331     11.11389        -0.005407      0.001126     -0.401337
      0.00000     16.91108      9.00000         0.000000      0.002550      0.426320
      2.11389     19.02497      9.00000        -0.002176      0.002176      0.426188
      0.00000     19.02497     11.11389         0.000000      0.000953     -0.407717
      2.11389     16.91108     11.11389        -0.002671      0.002069     -0.405786
      4.22777      0.00000      9.00000        -0.002550     -0.000000      0.426320
      6.34166      2.11389      9.00000        -0.003834     -0.007332      0.428025
      4.22777      2.11389     11.11389        -0.002069     -0.002671     -0.405786
      6.34166      0.00000     11.11389        -0.001429     -0.000000     -0.405381
      4.22777      4.22777      9.00000        -0.007850     -0.007850      0.427709
      6.34166      6.34166      9.00000        -0.025483     -0.025483      0.430785
      4.22777      6.34166     11.11389        -0.011067     -0.003902     -0.397421
      6.34166      4.22777     11.11389        -0.003902     -0.011067     -0.397421
      4.22777      8.45554      9.00000        -0.028465     -0.006238      0.433592
      6.34166     10.56943      9.00000        -0.085016     -0.000000      0.450555
      4.22777     10.56943     11.11389        -0.015780     -0.000000     -0.387171
      6.34166      8.45554     11.11389        -0.046805      0.002962     -0.352359
      4.22777     12.68331      9.00000        -0.028465      0.006238      0.433592
      6.34166     14.79720      9.00000        -0.025483      0.025483      0.430785
      4.22777     14.79720     11.11389        -0.011067      0.003902     -0.397421
      6.34166     12.68331     11.11389        -0.046805     -0.002962     -0.352359
      4.22777     16.91108      9.00000        -0.007850      0.007850      0.427709
      6.34166     19.02497      9.00000        -0.003834      0.007332      0.428025
      4.22777     19.02497     11.11389        -0.002069      0.002671     -0.405786
      6.34166     16.91108     11.11389        -0.003902      0.011067     -0.397421
      8.45554      0.00000      9.00000        -0.001648     -0.000000      0.427998
     10.56943      2.11389      9.00000         0.000000     -0.012009      0.429333
      8.45554      2.11389     11.11389        -0.001126     -0.005407     -0.401337
     10.56943      0.00000     11.11389         0.000000     -0.000000     -0.403605
      8.45554      4.22777      9.00000        -0.006238     -0.028465      0.433592
     10.56943      6.34166      9.00000         0.000000     -0.085016      0.450555
      8.45554      6.34166     11.11389         0.002962     -0.046805     -0.352359
     10.56943      4.22777     11.11389         0.000000     -0.015780     -0.387171
      8.45554      8.45554      9.00000        -0.073822     -0.073822      0.413686
     10.56943     10.56943      9.00000         0.000000     -0.000000      0.024144
      8.45554     10.56943     11.11389        -0.830198     -0.000000     -0.590143
     10.56943      8.45554     11.11389         0.000000     -0.830198     -0.590143
      8.45554     12.68331      9.00000        -0.073822      0.073822      0.413686
     10.56943     14.79720      9.00000         0.000000      0.085016      0.450555
      8.45554     14.79720     11.11389         0.002962      0.046805     -0.352359
     10.56943     12.68331     11.11389         0.000000      0.830198     -0.590143
      8.45554     16.91108      9.00000        -0.006238      0.028465      0.433592
     10.56943     19.02497      9.00000         0.000000      0.012009      0.429333
[...]
     19.02497      6.34166     11.11389        -0.005061      0.003166      0.389753
     16.91108      6.34166      9.00000        -0.016779      0.011701     -0.416480
     19.02497      4.22777      9.00000        -0.004300      0.004439     -0.413925
     16.91108      8.45554     11.11389        -0.019343      0.005303      0.376700
     19.02497     10.56943     11.11389        -0.007327     -0.000000      0.386245
     16.91108     10.56943      9.00000        -0.028304     -0.000000     -0.420039
     19.02497      8.45554      9.00000        -0.009149      0.003271     -0.415862
     16.91108     12.68331     11.11389        -0.019343     -0.005303      0.376700
     19.02497     14.79720     11.11389        -0.005061     -0.003166      0.389753
     16.91108     14.79720      9.00000        -0.016779     -0.011701     -0.416480
     19.02497     12.68331      9.00000        -0.009149     -0.003271     -0.415862
     16.91108     16.91108     11.11389        -0.007269     -0.007269      0.389205
     19.02497     19.02497     11.11389        -0.001897     -0.001897      0.393630
     16.91108     19.02497      9.00000        -0.004439     -0.004300     -0.413925
     19.02497     16.91108      9.00000        -0.004300     -0.004439     -0.413925
    total drift:                                0.000000     -0.000000     -0.264230

  FREE ENERGIE OF THE ION-ELECTRON SYSTEM (eV)
  free  energy   TOTEN  =     -1365.45142349 eV

  energy  without entropy=    -1365.45142349  energy(sigma->0) =    -1365.45142349