 vasp.6.3.0 20Jan22 (build Apr  1 2022 16:44:48) complex
 executed on        HPECrayEX_GCC date 2022.12.11  09:49:10

 INCAR:
   SYSTEM = MgO-rocksalt
   ISMEAR = 0
   SIGMA = 0.05
   EDIFF = 1E-6
   ALGO = ALL
   ISTART = 0
   IBRION = -1
   NSW = 0
   ISYM = 2
   DIPOL = 0.5 0.5 0.5
   IDIPOL = 3
   LDIPOL = .TRUE.
   METAGGA = M06L
   ENCUT = 520
   PREC = Accurate
   LASPH = .TRUE.
   LREAL = Auto
   ISPIN = 1
   NELM = 200
   NELMIN = 8
   NCORE = 4
   KPAR = 2
   LWAVE = .FALSE.
   LCHARG = .FALSE.

 POTCAR:    PAW_PBE Au 04Oct2007
 POTCAR:    PAW_PBE Mg_pv 13Apr2007
 POTCAR:    PAW_PBE O 08Apr2002
 POTCAR:    PAW_PBE Au 04Oct2007
   VRHFIN =Au: s1d10

   TITEL  = PAW_PBE Au 04Oct2007
   POMASS =  196.966; ZVAL   =   11.000    mass and valenz
   ENMAX  =  229.943; ENMIN  =  172.457 eV

   TITEL  = PAW_PBE Mg_pv 13Apr2007
   POMASS =   24.305; ZVAL   =    8.000    mass and valenz
   ENMAX  =  403.929; ENMIN  =  302.947 eV

   TITEL  = PAW_PBE O 08Apr2002
   POMASS =   16.000; ZVAL   =    6.000    mass and valenz
   ENMAX  =  400.000; ENMIN  =  300.000 eV

 Optimization of the real space projectors (new method)

 maximal supplied QI-value         = 15.12
 optimisation between [QCUT,QGAM] = [ 11.64, 23.28] = [ 37.95,151.78] Ry
 Optimized for a Real-space Cutoff    1.49 Angstroem

   l    n(q)    QCUT    max X(q) W(low)/X(q) W(high)/X(q)  e(spline)
   2      9    11.641    60.898    0.24E-03    0.10E-03    0.19E-06
   2      9    11.641    58.894    0.25E-03    0.10E-03    0.19E-06
   0     10    11.641   109.617    0.73E-04    0.33E-04    0.11E-06
   0     10    11.641    75.026    0.71E-04    0.32E-04    0.11E-06
   1     10    11.641    16.344    0.27E-04    0.97E-04    0.16E-06
   1     10    11.641    10.160    0.23E-04    0.77E-04    0.13E-06
 Optimization of the real space projectors (new method)

[...]

   l    n(q)    QCUT    max X(q) W(low)/X(q) W(high)/X(q)  e(spline)
   1      8    11.527     2.974    0.44E-04    0.56E-04    0.12E-06
   1      8    11.527     4.279    0.12E-03    0.12E-03    0.26E-06
   0      9    11.527    16.381    0.46E-04    0.64E-04    0.78E-07
   0      9    11.527     5.611    0.26E-04    0.43E-04    0.55E-07
   2      8    11.527     4.652    0.22E-03    0.72E-04    0.47E-07
 Optimization of the real space projectors (new method)

 maximal supplied QI-value         = 24.76
 optimisation between [QCUT,QGAM] = [ 11.64, 23.27] = [ 37.91,151.63] Ry
 Optimized for a Real-space Cutoff    1.14 Angstroem

   l    n(q)    QCUT    max X(q) W(low)/X(q) W(high)/X(q)  e(spline)
   0      8    11.635    20.381    0.10E-03    0.33E-03    0.24E-06
   0      8    11.635    15.268    0.11E-03    0.35E-03    0.26E-06
   1      7    11.635     5.964    0.24E-03    0.31E-03    0.30E-06
   1      7    11.635     5.382    0.22E-03    0.25E-03    0.26E-06
  PAW_PBE Au 04Oct2007                  :
  PAW_PBE Mg_pv 13Apr2007               :
  PAW_PBE O 08Apr2002                   :

 POSCAR: Au Mg  O
  positions in direct lattice

 METAGGA = M06L     LMAXTAU =  6    LMIXTAU =  F

 ion  position               nearest neighbor table
   1  0.543  0.457  0.618-   2 2.55  54 2.97  73 2.97
   2  0.457  0.543  0.618-   1 2.55  53 2.97  58 2.97
   3  0.000  0.000  0.407- 105 2.11 106 2.11 121 2.11 186 2.11 103 2.11
   4  0.100  0.100  0.407- 105 2.11 106 2.11 110 2.11 125 2.11 104 2.11
   5  0.000  0.100  0.503- 103 2.11 104 2.11 107 2.11 184 2.11 105 2.11
   6  0.100  0.000  0.503- 103 2.11 104 2.11 120 2.11 123 2.11 106 2.11
   7  0.000  0.200  0.407- 109 2.11 105 2.11 110 2.11 190 2.11 107 2.11
   8  0.100  0.300  0.407- 110 2.11 109 2.11 114 2.11 129 2.11 108 2.11
   9  0.000  0.300  0.503- 107 2.11 108 2.11 111 2.11 188 2.11 109 2.11
  10  0.100  0.200  0.503- 108 2.11 107 2.11 104 2.11 127 2.11 110 2.11
  11  0.000  0.400  0.407- 109 2.11 113 2.11 114 2.11 194 2.11 111 2.11
  12  0.100  0.500  0.407- 113 2.11 114 2.11 118 2.11 133 2.11 112 2.11
  13  0.000  0.500  0.503- 111 2.11 112 2.11 115 2.11 192 2.11 113 2.11
  14  0.100  0.400  0.503- 108 2.11 111 2.11 112 2.11 131 2.11 114 2.11
  15  0.000  0.600  0.407- 113 2.11 117 2.11 118 2.11 198 2.11 115 2.11
  16  0.100  0.700  0.407- 122 2.11 118 2.11 117 2.11 137 2.11 116 2.11
  17  0.000  0.700  0.503- 119 2.11 116 2.11 115 2.11 196 2.11 117 2.11
  18  0.100  0.600  0.503- 112 2.11 115 2.11 116 2.11 135 2.11 118 2.11
  19  0.000  0.800  0.407- 117 2.11 121 2.11 122 2.11 202 2.11 119 2.11
  20  0.100  0.900  0.407- 106 2.11 121 2.11 122 2.11 141 2.11 120 2.11
  21  0.000  0.900  0.503- 103 2.11 119 2.11 120 2.11 200 2.11 121 2.11
  22  0.100  0.800  0.503- 116 2.11 119 2.11 120 2.11 139 2.11 122 2.11
  23  0.200  0.000  0.407- 126 2.11 125 2.11 106 2.11 141 2.11 123 2.11
  24  0.300  0.100  0.407- 125 2.11 126 2.11 130 2.11 145 2.11 124 2.11
  25  0.200  0.100  0.503- 124 2.11 123 2.11 104 2.11 127 2.11 125 2.11
  26  0.300  0.000  0.503- 123 2.11 124 2.11 140 2.11 143 2.11 126 2.11
  27  0.200  0.200  0.407- 129 2.11 130 2.11 110 2.11 125 2.11 127 2.11
  28  0.300  0.300  0.407- 129 2.11 130 2.11 134 2.11 149 2.11 128 2.11
  29  0.200  0.300  0.503- 127 2.11 128 2.11 108 2.11 131 2.11 129 2.11
  30  0.300  0.200  0.503- 127 2.11 128 2.11 124 2.11 147 2.11 130 2.11
  31  0.200  0.400  0.407- 134 2.11 129 2.11 133 2.11 114 2.11 131 2.11
  32  0.300  0.500  0.407- 133 2.11 134 2.11 138 2.11 153 2.11 132 2.11
  33  0.200  0.500  0.503- 132 2.11 131 2.11 112 2.11 135 2.11 133 2.11
  34  0.300  0.400  0.503- 131 2.11 128 2.11 132 2.11 151 2.11 134 2.11
  35  0.200  0.600  0.407- 138 2.11 133 2.11 137 2.11 118 2.11 135 2.11
  36  0.300  0.700  0.407- 137 2.11 142 2.11 138 2.11 157 2.11 136 2.11
  37  0.200  0.700  0.503- 136 2.11 139 2.11 116 2.11 135 2.11 137 2.11
  38  0.300  0.600  0.503- 135 2.11 132 2.11 136 2.11 155 2.11 138 2.11
  39  0.200  0.800  0.407- 137 2.11 142 2.11 141 2.11 122 2.11 139 2.11
  40  0.300  0.900  0.407- 141 2.11 126 2.11 142 2.11 161 2.11 140 2.11
  41  0.200  0.900  0.503- 140 2.11 123 2.11 139 2.11 120 2.11 141 2.11
  42  0.300  0.800  0.503- 136 2.11 139 2.11 140 2.11 159 2.11 142 2.11
  43  0.400  0.000  0.407- 126 2.11 145 2.11 146 2.11 161 2.11 143 2.11
  44  0.500  0.100  0.407- 145 2.11 146 2.11 150 2.11 165 2.11 144 2.11
  45  0.400  0.100  0.503- 124 2.11 143 2.11 144 2.11 147 2.11 145 2.11
  46  0.500  0.000  0.503- 143 2.11 144 2.11 160 2.11 163 2.11 146 2.11
  47  0.400  0.200  0.407- 149 2.11 145 2.11 130 2.11 150 2.11 147 2.11
  48  0.500  0.300  0.407- 150 2.11 149 2.11 154 2.11 169 2.11 148 2.11
  49  0.400  0.300  0.503- 147 2.11 128 2.11 148 2.11 151 2.11 149 2.11
  50  0.500  0.200  0.503- 148 2.11 147 2.11 144 2.11 167 2.11 150 2.11
  51  0.400  0.400  0.407- 134 2.11 149 2.11 153 2.11 154 2.11 151 2.11
  52  0.500  0.500  0.407- 153 2.11 154 2.11 158 2.11 173 2.11 152 2.11
  53  0.400  0.500  0.503- 132 2.11 151 2.11 152 2.11 155 2.11 153 2.11   2 2.97
  54  0.500  0.400  0.503- 148 2.11 151 2.11 152 2.11 171 2.11 154 2.11   1 2.97
  55  0.400  0.600  0.407- 138 2.11 153 2.11 157 2.11 158 2.11 155 2.11
  56  0.500  0.700  0.407- 162 2.11 158 2.11 157 2.11 177 2.11 156 2.11
  57  0.400  0.700  0.503- 159 2.11 155 2.11 156 2.11 136 2.11 157 2.11
  58  0.500  0.600  0.503- 152 2.11 155 2.11 156 2.11 175 2.11 158 2.11   2 2.97
  59  0.400  0.800  0.407- 157 2.11 142 2.11 161 2.11 162 2.11 159 2.11
  60  0.500  0.900  0.407- 146 2.11 161 2.11 162 2.11 181 2.11 160 2.11
[...]
 188  0.900  0.300  0.503-  90 2.11  89 2.11   9 2.11  94 2.11  88 2.11
 189  0.800  0.300  0.407-  68 2.11  87 2.11  88 2.11  91 2.11  89 2.11
 190  0.900  0.200  0.407-  88 2.11  84 2.11  87 2.11   7 2.11  90 2.11
 191  0.800  0.400  0.503-  74 2.11  89 2.11  93 2.11  94 2.11  91 2.11
 192  0.900  0.500  0.503-  13 2.11  93 2.11  94 2.11  98 2.11  92 2.11
 193  0.800  0.500  0.407-  72 2.11  91 2.11  92 2.11  95 2.11  93 2.11
 194  0.900  0.400  0.407-  11 2.11  88 2.11  91 2.11  92 2.11  94 2.11
 195  0.800  0.600  0.503-  78 2.11  93 2.11  97 2.11  98 2.11  95 2.11
 196  0.900  0.700  0.503- 102 2.11  97 2.11  98 2.11  17 2.11  96 2.11
 197  0.800  0.700  0.407-  76 2.11  99 2.11  96 2.11  95 2.11  97 2.11
 198  0.900  0.600  0.407-  15 2.11  92 2.11  95 2.11  96 2.11  98 2.11
 199  0.800  0.800  0.503-  82 2.11  97 2.11 101 2.11 102 2.11  99 2.11
 200  0.900  0.900  0.503-  21 2.11  86 2.11 101 2.11 102 2.11 100 2.11
 201  0.800  0.900  0.407-  80 2.11  83 2.11  99 2.11 100 2.11 101 2.11
 202  0.900  0.800  0.407-  96 2.11  19 2.11  99 2.11 100 2.11 102 2.11

  LATTYP: Found a simple tetragonal cell.
 ALAT       =    21.1388521970
 C/A-ratio  =     1.0461251639

  Lattice vectors:

 A1 = (  21.1388521970,   0.0000000000,   0.0000000000)
 A2 = (   0.0000000000,  21.1388521970,   0.0000000000)
 A3 = (   0.0000000000,   0.0000000000,  22.1138852197)

Analysis of symmetry for initial positions (statically):
 Subroutine PRICEL returns:
 Original cell was already a primitive cell.

 Routine SETGRP: Setting up the symmetry group for a
 simple tetragonal supercell.

 Subroutine GETGRP returns: Found  4 space group operations
 (whereof  4 operations were pure point group operations)
 out of a pool of 16 trial point group operations.

The static configuration has the point symmetry C_2v.

Analysis of symmetry for dynamics (positions and initial velocities):
 Subroutine PRICEL returns:
 Original cell was already a primitive cell.

 Routine SETGRP: Setting up the symmetry group for a
 simple tetragonal supercell.

 Subroutine GETGRP returns: Found  4 space group operations
 (whereof  4 operations were pure point group operations)
 out of a pool of 16 trial point group operations.

The dynamic configuration has the point symmetry C_2v.

 Subroutine INISYM returns: Found  4 space group operations
 (whereof  4 operations are pure point group operations),
 and found     1 'primitive' translations

                                     Primitive cell

  volume of cell :    9881.6133

  direct lattice vectors                    reciprocal lattice vectors
    21.138852197  0.000000000  0.000000000     0.047306258  0.000000000  0.000000000
     0.000000000 21.138852197  0.000000000     0.000000000  0.047306258  0.000000000
     0.000000000  0.000000000 22.113885220     0.000000000  0.000000000  0.045220457

  length of vectors
    21.138852197 21.138852197 22.113885220     0.047306258  0.047306258  0.045220457

  position of ions in fractional coordinates (direct lattice)
     0.542717991  0.457282009  0.618300337
     0.457282009  0.542717991  0.618300337
     0.000000000  0.000000000  0.406984115
     0.100000000  0.100000000  0.406984115
     0.000000000  0.100000000  0.502574971
     0.100000000  0.000000000  0.502574971
     0.000000000  0.200000000  0.406984115
     0.100000000  0.300000000  0.406984115
     0.000000000  0.300000000  0.502574971
     0.100000000  0.200000000  0.502574971
     0.000000000  0.400000000  0.406984115
     0.100000000  0.500000000  0.406984115
     0.000000000  0.500000000  0.502574971
     0.100000000  0.400000000  0.502574971
     0.000000000  0.600000000  0.406984115
     0.100000000  0.700000000  0.406984115
     0.000000000  0.700000000  0.502574971
[...]
     52     -44.6027      2.00000
     53     -44.6025      2.00000
     54     -44.6017      2.00000
     55     -44.6013      2.00000
     56     -44.6008      2.00000
     57     -44.5999      2.00000
     58     -44.5997      2.00000
     59     -44.5995      2.00000
     60     -44.5985      2.00000
[...]
    882       8.0495      0.00000
    883       8.2046      0.00000
    884       8.2078      0.00000
    885       8.2343      0.00000
    886       8.4519      0.00000
    887       8.4931      0.00000
    888       8.5174      0.00000
    889       8.5269      0.00000
    890       8.5806      0.00000
    891       8.6050      0.00000
    892       8.6916      0.00000
    893       8.8240      0.00000
    894       8.8632      0.00000
    895       9.3526      0.00000
    896       9.3892      0.00000

 soft charge-density along one line, spin component           1
         0         1         2         3         4         5         6         7         8         9
 total charge-density along one line

------------------------ aborting loop EDIFF was not reached (unconverged)  ----------------------------

  FORCE on cell =-STRESS in cart. coord.  units (eV):
  Direction    XX          YY          ZZ          XY          YZ          ZX
  Alpha Z  1365.75682  1365.75682  1365.75682
  Ewald  480014.30065480014.30065************  -325.75939     0.00000     0.00000
  Hartree508947.85422508947.85422************  -226.11540    -0.00000    -0.00000
  E(xc)   -8827.97491 -8827.97729 -8820.76760    -0.37608    -0.00128     0.00027
  Local  ************************************   540.41212    -0.00000    -0.00000
  n-local -8681.90599 -8681.90192 -8815.67051     8.22609     0.03929     0.01256
  augment  4256.38283  4256.38283  4236.15977     0.32613     0.00001     0.00000
  Kinetic 23162.86310 23162.95398 23380.89311     3.27460    -0.00432     0.00212
  Fock        0.00000     0.00000     0.00000     0.00000     0.00000     0.00000
  Total    -224.31723  -224.31723    21.07711    -0.01201     0.00000     0.00000
  in kB     -36.37017   -36.37017     3.41738    -0.00195     0.00000     0.00000

 VOLUME and BASIS-vectors are now :
  energy-cutoff  :      520.00
  volume of cell :     9881.61
      direct lattice vectors                 reciprocal lattice vectors
    21.138852197  0.000000000  0.000000000     0.047306258  0.000000000  0.000000000
     0.000000000 21.138852197  0.000000000     0.000000000  0.047306258  0.000000000
     0.000000000  0.000000000 22.113885220     0.000000000  0.000000000  0.045220457

  length of vectors
    21.138852197 21.138852197 22.113885220     0.047306258  0.047306258  0.045220457

 FORCES acting on ions:
    Electron-Ion                     Ewald-Force                    Non-Local-Force
   -.191E+03 0.191E+03 -.209E+04   0.187E+03 -.187E+03 0.210E+04   0.400E+01 -.400E+01 -.784E+00
   0.191E+03 -.191E+03 -.209E+04   -.187E+03 0.187E+03 0.210E+04   -.400E+01 0.400E+01 -.784E+00
   -.367E-10 0.649E-09 0.932E+03   0.977E-10 -.173E-08 -.923E+03   0.000E+00 0.000E+00 -.793E+01
   0.386E+01 0.386E+01 0.933E+03   -.386E+01 -.386E+01 -.924E+03   -.121E-01 -.121E-01 -.733E+01
   -.271E+00 0.424E+01 -.924E+03   0.291E+00 -.424E+01 0.915E+03   -.226E-01 -.113E-01 0.978E+01
   0.424E+01 -.271E+00 -.924E+03   -.424E+01 0.291E+00 0.915E+03   -.113E-01 -.226E-01 0.978E+01
   -.358E+00 0.589E+01 0.934E+03   0.393E+00 -.590E+01 -.925E+03   -.242E-01 0.112E-01 -.706E+01
   0.773E+01 0.753E+01 0.937E+03   -.774E+01 -.755E+01 -.927E+03   0.108E-02 0.157E-01 -.611E+01
   -.694E+00 0.772E+01 -.922E+03   0.730E+00 -.773E+01 0.913E+03   -.371E-01 -.462E-02 0.992E+01
   0.691E+01 0.855E+01 -.923E+03   -.689E+01 -.856E+01 0.914E+03   -.135E-01 0.964E-02 0.961E+01
   -.325E+00 0.401E+01 0.937E+03   0.350E+00 -.402E+01 -.928E+03   -.169E-01 0.426E-02 -.653E+01
   0.119E+02 0.416E+00 0.940E+03   -.120E+02 -.441E+00 -.931E+03   0.589E-01 0.224E-01 -.740E+01
   0.113E-09 -.974E-09 -.921E+03   -.299E-09 0.260E-08 0.911E+03   0.000E+00 0.000E+00 0.927E+01
   0.149E+02 0.709E+01 -.919E+03   -.149E+02 -.712E+01 0.910E+03   0.727E-02 0.185E-01 0.972E+01
   0.325E+00 -.401E+01 0.937E+03   -.350E+00 0.402E+01 -.928E+03   0.169E-01 -.426E-02 -.653E+01
   0.877E+01 -.756E+01 0.937E+03   -.887E+01 0.758E+01 -.928E+03   0.771E-01 -.117E-01 -.663E+01
   0.694E+00 -.772E+01 -.922E+03   -.730E+00 0.773E+01 0.913E+03   0.371E-01 0.462E-02 0.992E+01
   0.165E+02 -.626E+01 -.919E+03   -.166E+02 0.625E+01 0.909E+03   0.752E-01 0.101E-01 0.949E+01
   0.358E+00 -.589E+01 0.934E+03   -.393E+00 0.590E+01 -.925E+03   0.242E-01 -.112E-01 -.706E+01
   0.424E+01 -.424E+01 0.933E+03   -.427E+01 0.427E+01 -.924E+03   0.215E-01 -.215E-01 -.760E+01
   0.271E+00 -.424E+01 -.924E+03   -.291E+00 0.424E+01 0.915E+03   0.226E-01 0.113E-01 0.978E+01
   0.815E+01 -.911E+01 -.922E+03   -.821E+01 0.914E+01 0.913E+03   0.411E-01 -.197E-01 0.965E+01
   0.589E+01 -.358E+00 0.934E+03   -.590E+01 0.393E+00 -.925E+03   0.112E-01 -.242E-01 -.706E+01
   0.753E+01 0.773E+01 0.937E+03   -.755E+01 -.774E+01 -.927E+03   0.157E-01 0.108E-02 -.611E+01
   0.855E+01 0.691E+01 -.923E+03   -.856E+01 -.689E+01 0.914E+03   0.964E-02 -.135E-01 0.961E+01
   0.772E+01 -.694E+00 -.922E+03   -.773E+01 0.730E+00 0.913E+03   -.462E-02 -.371E-01 0.992E+01
   0.991E+01 0.991E+01 0.937E+03   -.993E+01 -.993E+01 -.928E+03   0.296E-02 0.296E-02 -.707E+01
   0.196E+02 0.196E+02 0.950E+03   -.197E+02 -.197E+02 -.941E+03   0.704E-01 0.704E-01 -.699E+01
   0.222E+02 0.170E+02 -.917E+03   -.222E+02 -.170E+02 0.907E+03   0.694E-03 0.389E-01 0.955E+01
   0.170E+02 0.222E+02 -.917E+03   -.170E+02 -.222E+02 0.907E+03   0.389E-01 0.694E-03 0.955E+01
   0.211E+02 0.902E+01 0.946E+03   -.212E+02 -.910E+01 -.937E+03   0.619E-01 0.609E-01 -.701E+01
   0.358E+02 0.224E+01 0.971E+03   -.361E+02 -.245E+01 -.962E+03   0.169E+00 0.153E+00 -.754E+01
   0.416E+02 0.242E+01 -.907E+03   -.418E+02 -.249E+01 0.898E+03   0.103E+00 0.659E-01 0.955E+01
   0.579E+02 0.331E+02 -.890E+03   -.579E+02 -.333E+02 0.881E+03   -.336E-01 0.127E+00 0.959E+01
   0.224E+02 -.787E+01 0.948E+03   -.227E+02 0.786E+01 -.939E+03   0.224E+00 0.149E-01 -.688E+01
   0.207E+02 -.207E+02 0.954E+03   -.209E+02 0.209E+02 -.945E+03   0.138E+00 -.138E+00 -.689E+01
   0.254E+02 -.181E+02 -.915E+03   -.256E+02 0.181E+02 0.906E+03   0.154E+00 -.278E-01 0.989E+01
   0.686E+02 -.307E+02 -.879E+03   -.696E+02 0.306E+02 0.870E+03   0.734E+00 0.826E-01 0.957E+01
   0.107E+02 -.107E+02 0.938E+03   -.108E+02 0.108E+02 -.929E+03   0.496E-01 -.496E-01 -.692E+01
   0.756E+01 -.877E+01 0.937E+03   -.758E+01 0.887E+01 -.928E+03   0.117E-01 -.771E-01 -.663E+01
   0.911E+01 -.815E+01 -.922E+03   -.914E+01 0.821E+01 0.913E+03   0.197E-01 -.411E-01 0.965E+01
   0.181E+02 -.254E+02 -.915E+03   -.181E+02 0.256E+02 0.906E+03   0.278E-01 -.154E+00 0.989E+01
   0.401E+01 -.325E+00 0.937E+03   -.402E+01 0.350E+00 -.928E+03   0.426E-02 -.169E-01 -.653E+01
   0.416E+00 0.119E+02 0.940E+03   -.441E+00 -.120E+02 -.931E+03   0.224E-01 0.589E-01 -.740E+01
   0.709E+01 0.149E+02 -.919E+03   -.712E+01 -.149E+02 0.910E+03   0.185E-01 0.727E-02 0.972E+01
   0.112E-09 0.294E-08 -.921E+03   -.299E-09 -.785E-08 0.911E+03   0.000E+00 0.000E+00 0.927E+01
   0.902E+01 0.211E+02 0.946E+03   -.910E+01 -.212E+02 -.937E+03   0.609E-01 0.619E-01 -.701E+01
   0.224E+01 0.358E+02 0.971E+03   -.245E+01 -.361E+02 -.962E+03   0.153E+00 0.169E+00 -.754E+01
   0.331E+02 0.579E+02 -.890E+03   -.333E+02 -.579E+02 0.881E+03   0.127E+00 -.336E-01 0.959E+01
   0.242E+01 0.416E+02 -.907E+03   -.249E+01 -.418E+02 0.898E+03   0.659E-01 0.103E+00 0.955E+01
   0.268E+02 0.268E+02 0.987E+03   -.271E+02 -.271E+02 -.978E+03   0.182E+00 0.182E+00 -.684E+01
   -.864E-09 -.708E-08 0.103E+04   0.229E-08 0.189E-07 -.102E+04   0.000E+00 0.000E+00 -.771E+01
   0.113E+03 0.254E+02 -.756E+03   -.113E+03 -.264E+02 0.749E+03   0.192E+00 0.675E+00 0.740E+01
   0.254E+02 0.113E+03 -.756E+03   -.264E+02 -.113E+03 0.749E+03   0.675E+00 0.192E+00 0.740E+01
   0.256E+02 -.256E+02 0.993E+03   -.256E+02 0.256E+02 -.985E+03   -.143E-03 0.143E-03 -.622E+01
   -.224E+01 -.358E+02 0.971E+03   0.245E+01 0.361E+02 -.962E+03   -.153E+00 -.169E+00 -.754E+01
   0.307E+02 -.686E+02 -.879E+03   -.306E+02 0.696E+02 0.870E+03   -.826E-01 -.734E+00 0.957E+01
   -.254E+02 -.113E+03 -.756E+03   0.264E+02 0.113E+03 0.749E+03   -.675E+00 -.192E+00 0.740E+01
   0.787E+01 -.224E+02 0.948E+03   -.786E+01 0.227E+02 -.939E+03   -.149E-01 -.224E+00 -.688E+01
   -.416E+00 -.119E+02 0.940E+03   0.441E+00 0.120E+02 -.931E+03   -.224E-01 -.589E-01 -.740E+01
[...]
   -.124E+02 0.908E+01 0.708E+03   0.125E+02 -.913E+01 -.712E+03   -.113E+00 0.543E-01 0.371E+01
   -.458E+01 0.534E+01 0.702E+03   0.463E+01 -.537E+01 -.706E+03   -.374E-01 0.227E-01 0.359E+01
   -.283E+02 0.912E+01 -.683E+03   0.284E+02 -.912E+01 0.687E+03   -.130E+00 -.213E-01 -.296E+01
   -.132E+02 -.548E+00 -.690E+03   0.132E+02 0.564E+00 0.693E+03   -.377E-01 -.289E-01 -.305E+01
   -.185E+02 -.811E+00 0.713E+03   0.186E+02 0.876E+00 -.717E+03   -.109E+00 -.784E-01 0.358E+01
   -.840E+01 0.355E+01 0.706E+03   0.848E+01 -.355E+01 -.709E+03   -.655E-01 -.396E-02 0.364E+01
   -.253E+02 -.107E+02 -.685E+03   0.253E+02 0.107E+02 0.688E+03   -.282E-01 -.595E-01 -.303E+01
   -.794E+01 -.732E+01 -.692E+03   0.794E+01 0.734E+01 0.695E+03   0.894E-02 -.946E-02 -.289E+01
   -.113E+02 -.887E+01 0.707E+03   0.114E+02 0.890E+01 -.711E+03   -.138E-01 -.255E-01 0.356E+01
   -.777E+01 -.394E+01 0.705E+03   0.780E+01 0.396E+01 -.709E+03   -.214E-01 -.248E-01 0.359E+01
   -.100E+02 -.100E+02 -.692E+03   0.100E+02 0.100E+02 0.695E+03   0.468E-04 0.468E-04 -.300E+01
   -.357E+01 -.357E+01 -.694E+03   0.356E+01 0.356E+01 0.698E+03   0.995E-02 0.995E-02 -.300E+01
   -.508E+01 -.399E+01 0.702E+03   0.511E+01 0.400E+01 -.706E+03   -.176E-01 0.619E-02 0.349E+01
   -.399E+01 -.508E+01 0.702E+03   0.400E+01 0.511E+01 -.706E+03   0.619E-02 -.176E-01 0.349E+01
   0.335E-02 0.335E-02 -.783E+02   0.186E-11 0.838E-12 0.231E-10   0.226E-15 0.200E-14 0.151E+03

 POSITION                                       TOTAL-FORCE (eV/Angst)
     11.47244      9.66642     13.67302         0.397690     -0.397690     -0.164832
      9.66642     11.47244     13.67302        -0.397690      0.397690     -0.164832
      0.00000      0.00000      9.00000        -0.000000     -0.000000      0.500087
      2.11389      2.11389      9.00000        -0.004926     -0.004926      0.842199
      0.00000      2.11389     11.11389         0.016558      0.000132     -3.200586
      2.11389      0.00000     11.11389         0.000132      0.016558     -3.200586
      0.00000      4.22777      9.00000         0.005727     -0.002580      1.368870
      2.11389      6.34166      9.00000        -0.030654      0.001281      2.281802
      0.00000      6.34166     11.11389         0.001289      0.046409     -0.723213
      2.11389      4.22777     11.11389         0.014314     -0.008277     -1.384400
      0.00000      8.45554      9.00000         0.002823      0.004259      1.755669
      2.11389     10.56943      9.00000        -0.034271      0.000539      0.800719
      0.00000     10.56943     11.11389        -0.000000     -0.000000     -0.971974
      2.11389      8.45554     11.11389         0.019718      0.075990     -1.156714
      0.00000     12.68331      9.00000        -0.002823     -0.004259      1.755669
      2.11389     14.79720      9.00000        -0.032175      0.002116      1.829459
      0.00000     14.79720     11.11389        -0.001289     -0.046409     -0.723213
      2.11389     12.68331     11.11389        -0.032963     -0.020522     -0.633490
      0.00000     16.91108      9.00000        -0.005727      0.002580      1.368870
      2.11389     19.02497      9.00000        -0.015808      0.015808      0.523215
      0.00000     19.02497     11.11389        -0.016558     -0.000132     -3.200586
      2.11389     16.91108     11.11389        -0.023816      0.012826     -1.250442
      4.22777      0.00000      9.00000        -0.002580      0.005727      1.368870
      6.34166      2.11389      9.00000         0.001281     -0.030654      2.281802
      4.22777      2.11389     11.11389        -0.008277      0.014314     -1.384400
      6.34166      0.00000     11.11389         0.046409      0.001289     -0.723213
      4.22777      4.22777      9.00000        -0.027639     -0.027639      1.042576
      6.34166      6.34166      9.00000        -0.036136     -0.036136      1.504103
      4.22777      6.34166     11.11389        -0.018310      0.001376     -1.946738
      6.34166      4.22777     11.11389         0.001376     -0.018310     -1.946738
      4.22777      8.45554      9.00000        -0.032073     -0.026920      1.259006
      6.34166     10.56943      9.00000        -0.069629     -0.050340      0.640018
      4.22777     10.56943     11.11389        -0.066950     -0.005913     -2.160679
      6.34166      8.45554     11.11389         0.001930     -0.050831     -0.710274
      4.22777     12.68331      9.00000        -0.066592      0.007030      1.521761
      6.34166     14.79720      9.00000        -0.051208      0.051208      1.457521
      4.22777     14.79720     11.11389        -0.080941      0.026378      0.148642
      6.34166     12.68331     11.11389        -0.156123     -0.058261     -0.646851
      4.22777     16.91108      9.00000        -0.016113      0.016113      1.459879
      6.34166     19.02497      9.00000        -0.002116      0.032175      1.829459
      4.22777     19.02497     11.11389        -0.012826      0.023816     -1.250442
      6.34166     16.91108     11.11389        -0.026378      0.080941      0.148642
      8.45554      0.00000      9.00000         0.004259      0.002823      1.755669
     10.56943      2.11389      9.00000         0.000539     -0.034271      0.800719
      8.45554      2.11389     11.11389         0.075990      0.019718     -1.156714
     10.56943      0.00000     11.11389        -0.000000     -0.000000     -0.971974
      8.45554      4.22777      9.00000        -0.026920     -0.032073      1.259006
     10.56943      6.34166      9.00000        -0.050340     -0.069629      0.640018
      8.45554      6.34166     11.11389        -0.050831      0.001930     -0.710274
     10.56943      4.22777     11.11389        -0.005913     -0.066950     -2.160679
      8.45554      8.45554      9.00000        -0.060074     -0.060074      1.938031
     10.56943     10.56943      9.00000        -0.000000     -0.000000      0.364768
      8.45554     10.56943     11.11389        -0.259522     -0.344973     -0.622091
     10.56943      8.45554     11.11389        -0.344973     -0.259522     -0.622091
      8.45554     12.68331      9.00000        -0.014258      0.014258      1.055232
     10.56943     14.79720      9.00000         0.050340      0.069629      0.640018
      8.45554     14.79720     11.11389         0.058261      0.156123     -0.646851
     10.56943     12.68331     11.11389         0.344973      0.259522     -0.622091
      8.45554     16.91108      9.00000        -0.007030      0.066592      1.521761
     10.56943     19.02497      9.00000        -0.000539      0.034271      0.800719
[...]
     19.02497      6.34166     11.11389        -0.005682      0.004325      0.126650
     16.91108      6.34166      9.00000        -0.004325      0.014753     -0.284811
     19.02497      4.22777      9.00000         0.006213     -0.006367     -0.083043
     16.91108      8.45554     11.11389        -0.015949     -0.019963      0.114343
     19.02497     10.56943     11.11389         0.004107     -0.011895      0.020012
     16.91108     10.56943      9.00000        -0.005407     -0.014194     -0.042103
     19.02497      8.45554      9.00000         0.013993     -0.008557     -0.100581
     16.91108     12.68331     11.11389         0.011483     -0.015312      0.056031
     19.02497     14.79720     11.11389         0.008500      0.005739      0.159873
     16.91108     14.79720      9.00000         0.009435     -0.000570     -0.093839
     19.02497     12.68331      9.00000         0.012724      0.012308     -0.101693
     16.91108     16.91108     11.11389         0.014608      0.014608      0.026624
     19.02497     19.02497     11.11389        -0.003001     -0.003001      0.015223
     16.91108     19.02497      9.00000         0.005106      0.017470     -0.180215
     19.02497     16.91108      9.00000         0.017470      0.005106     -0.180215
    total drift:                                0.003354      0.003355     72.163230

  FREE ENERGIE OF THE ION-ELECTRON SYSTEM (eV)
  free  energy   TOTEN  =     -1737.14503251 eV

  energy  without entropy=    -1737.14503250  energy(sigma->0) =    -1737.14503250