 vasp.6.3.0 20Jan22 (build Apr  1 2022 16:44:48) complex
 executed on        HPECrayEX_GCC date 2022.10.18  17:21:23

 INCAR:
   SYSTEM = MgO-rocksalt
   ISMEAR = 0
   SIGMA = 0.05
   EDIFF = 1E-6
   ALGO = ALL
   ISTART = 0
   IBRION = -1
   NSW = 0
   ISYM = 2
   DIPOL = 0.5 0.5 0.5
   IDIPOL = 3
   LDIPOL = .TRUE.
   LHFCALC = .TRUE.
   HFSCREEN = 0.2
   GGA = PE
   IVDW = 13
   VDW_S8 = 1.19528249
   VDW_A1 = 0.38663183
   VDW_A2 = 5.19133469
   ENCUT = 520
   PREC = Accurate
   LASPH = .TRUE.
   LREAL = Auto
   ISPIN = 1
   NELM = 200
   NELMIN = 8
   NCORE = 4
   KPAR = 2
   LWAVE = .FALSE.
   LCHARG = .FALSE.

 POTCAR:    PAW_PBE Au 04Oct2007
 POTCAR:    PAW_PBE Mg_pv 13Apr2007
 POTCAR:    PAW_PBE O 08Apr2002
|           W    W    AA    RRRRR   N    N  II  N    N   GGGG   !!!           |
|           W    W   A  A   R    R  NN   N  II  NN   N  G    G  !!!           |
|           W    W  A    A  R    R  N N  N  II  N N  N  G       !!!           |
|           W WW W  AAAAAA  RRRRR   N  N N  II  N  N N  G  GGG   !            |
|           WW  WW  A    A  R   R   N   NN  II  N   NN  G    G                |
|           W    W  A    A  R    R  N    N  II  N    N   GGGG   !!!           |
|     You have selected ISYM=2 for a HF type calculation. This will           |
|     symmetrize the charge density but not the exchange potential. I         |
|     suggest to use ISYM=3 instead. This uses symmetry to obtain the         |
|     orbitals at all k-points in the Brillouin zone, but does not apply      |
|     symmetry to the Hartree potential directly. The resultant charge        |
|     might have lower symmetry than the crystal but, at least, Hartree       |
|     and exchange are fully compatible.                                      |

   TITEL  = PAW_PBE Au 04Oct2007
   POMASS =  196.966; ZVAL   =   11.000    mass and valenz
   ENMAX  =  229.943; ENMIN  =  172.457 eV

   TITEL  = PAW_PBE Mg_pv 13Apr2007
   POMASS =   24.305; ZVAL   =    8.000    mass and valenz
   ENMAX  =  403.929; ENMIN  =  302.947 eV

   TITEL  = PAW_PBE O 08Apr2002
   POMASS =   16.000; ZVAL   =    6.000    mass and valenz
   ENMAX  =  400.000; ENMIN  =  300.000 eV

 Optimization of the real space projectors (new method)

 maximal supplied QI-value         = 15.12
 optimisation between [QCUT,QGAM] = [ 11.64, 23.28] = [ 37.95,151.78] Ry
 Optimized for a Real-space Cutoff    1.49 Angstroem

   l    n(q)    QCUT    max X(q) W(low)/X(q) W(high)/X(q)  e(spline)
   2      9    11.641    60.898    0.24E-03    0.10E-03    0.19E-06
   2      9    11.641    58.894    0.25E-03    0.10E-03    0.19E-06
   0     10    11.641   109.617    0.73E-04    0.33E-04    0.11E-06
   0     10    11.641    75.026    0.71E-04    0.32E-04    0.11E-06
   1     10    11.641    16.344    0.27E-04    0.97E-04    0.16E-06
   1     10    11.641    10.160    0.23E-04    0.77E-04    0.13E-06
 Optimization of the real space projectors (new method)

[...]

   l    n(q)    QCUT    max X(q) W(low)/X(q) W(high)/X(q)  e(spline)
   1      8    11.527     2.974    0.44E-04    0.56E-04    0.12E-06
   1      8    11.527     4.279    0.12E-03    0.12E-03    0.26E-06
   0      9    11.527    16.381    0.46E-04    0.64E-04    0.78E-07
   0      9    11.527     5.611    0.26E-04    0.43E-04    0.55E-07
   2      8    11.527     4.652    0.22E-03    0.72E-04    0.47E-07
 Optimization of the real space projectors (new method)

 maximal supplied QI-value         = 24.76
 optimisation between [QCUT,QGAM] = [ 11.64, 23.27] = [ 37.91,151.63] Ry
 Optimized for a Real-space Cutoff    1.14 Angstroem

   l    n(q)    QCUT    max X(q) W(low)/X(q) W(high)/X(q)  e(spline)
   0      8    11.635    20.381    0.10E-03    0.33E-03    0.24E-06
   0      8    11.635    15.268    0.11E-03    0.35E-03    0.26E-06
   1      7    11.635     5.964    0.24E-03    0.31E-03    0.30E-06
   1      7    11.635     5.382    0.22E-03    0.25E-03    0.26E-06
  PAW_PBE Au 04Oct2007                  :
  PAW_PBE Mg_pv 13Apr2007               :
  PAW_PBE O 08Apr2002                   :

 POSCAR: Au Mg  O
  positions in direct lattice
|           W    W    AA    RRRRR   N    N  II  N    N   GGGG   !!!           |
|           W    W   A  A   R    R  NN   N  II  NN   N  G    G  !!!           |
|           W    W  A    A  R    R  N N  N  II  N N  N  G       !!!           |
|           W WW W  AAAAAA  RRRRR   N  N N  II  N  N N  G  GGG   !            |
|           WW  WW  A    A  R   R   N   NN  II  N   NN  G    G                |
|           W    W  A    A  R    R  N    N  II  N    N   GGGG   !!!           |
|     Specifying the vdW parameters                                           |
|     VDW_S8 = 1.195                                                          |
|     VDW_A1 = 0.387                                                          |
|     VDW_A2 = 5.191                                                          |
|     in the INCAR file will overwrite the defaults for hse06. Please         |
|     make sure that is what you intended.                                    |

 ion  position               nearest neighbor table
   1  0.661  0.500  0.614-   2 2.57 172 2.59  73 2.77
   2  0.539  0.500  0.614-   1 2.57 152 2.59  73 2.77
   3  0.000  0.000  0.407- 105 2.11 106 2.11 121 2.11 186 2.11 103 2.11
   4  0.100  0.100  0.407- 105 2.11 106 2.11 110 2.11 125 2.11 104 2.11
   5  0.000  0.100  0.503- 103 2.11 104 2.11 107 2.11 184 2.11 105 2.11
   6  0.100  0.000  0.503- 103 2.11 104 2.11 120 2.11 123 2.11 106 2.11
   7  0.000  0.200  0.407- 109 2.11 105 2.11 110 2.11 190 2.11 107 2.11
   8  0.100  0.300  0.407- 110 2.11 109 2.11 114 2.11 129 2.11 108 2.11
   9  0.000  0.300  0.503- 107 2.11 108 2.11 111 2.11 188 2.11 109 2.11
  10  0.100  0.200  0.503- 108 2.11 107 2.11 104 2.11 127 2.11 110 2.11
  11  0.000  0.400  0.407- 109 2.11 113 2.11 114 2.11 194 2.11 111 2.11
  12  0.100  0.500  0.407- 113 2.11 114 2.11 118 2.11 133 2.11 112 2.11
  13  0.000  0.500  0.503- 111 2.11 112 2.11 115 2.11 192 2.11 113 2.11
  14  0.100  0.400  0.503- 108 2.11 111 2.11 112 2.11 131 2.11 114 2.11
  15  0.000  0.600  0.407- 113 2.11 117 2.11 118 2.11 198 2.11 115 2.11
  16  0.100  0.700  0.407- 122 2.11 118 2.11 117 2.11 137 2.11 116 2.11
  17  0.000  0.700  0.503- 119 2.11 116 2.11 115 2.11 196 2.11 117 2.11
  18  0.100  0.600  0.503- 112 2.11 115 2.11 116 2.11 135 2.11 118 2.11
  19  0.000  0.800  0.407- 117 2.11 121 2.11 122 2.11 202 2.11 119 2.11
  20  0.100  0.900  0.407- 106 2.11 121 2.11 122 2.11 141 2.11 120 2.11
  21  0.000  0.900  0.503- 103 2.11 119 2.11 120 2.11 200 2.11 121 2.11
  22  0.100  0.800  0.503- 116 2.11 119 2.11 120 2.11 139 2.11 122 2.11
  23  0.200  0.000  0.407- 126 2.11 125 2.11 106 2.11 141 2.11 123 2.11
  24  0.300  0.100  0.407- 125 2.11 126 2.11 130 2.11 145 2.11 124 2.11
  25  0.200  0.100  0.503- 124 2.11 123 2.11 104 2.11 127 2.11 125 2.11
  26  0.300  0.000  0.503- 123 2.11 124 2.11 140 2.11 143 2.11 126 2.11
  27  0.200  0.200  0.407- 129 2.11 130 2.11 110 2.11 125 2.11 127 2.11
  28  0.300  0.300  0.407- 129 2.11 130 2.11 134 2.11 149 2.11 128 2.11
  29  0.200  0.300  0.503- 127 2.11 128 2.11 108 2.11 131 2.11 129 2.11
  30  0.300  0.200  0.503- 127 2.11 128 2.11 124 2.11 147 2.11 130 2.11
  31  0.200  0.400  0.407- 134 2.11 129 2.11 133 2.11 114 2.11 131 2.11
  32  0.300  0.500  0.407- 133 2.11 134 2.11 138 2.11 153 2.11 132 2.11
  33  0.200  0.500  0.503- 132 2.11 131 2.11 112 2.11 135 2.11 133 2.11
  34  0.300  0.400  0.503- 131 2.11 128 2.11 132 2.11 151 2.11 134 2.11
  35  0.200  0.600  0.407- 138 2.11 133 2.11 137 2.11 118 2.11 135 2.11
  36  0.300  0.700  0.407- 137 2.11 142 2.11 138 2.11 157 2.11 136 2.11
  37  0.200  0.700  0.503- 136 2.11 139 2.11 116 2.11 135 2.11 137 2.11
  38  0.300  0.600  0.503- 135 2.11 132 2.11 136 2.11 155 2.11 138 2.11
  39  0.200  0.800  0.407- 137 2.11 142 2.11 141 2.11 122 2.11 139 2.11
  40  0.300  0.900  0.407- 141 2.11 126 2.11 142 2.11 161 2.11 140 2.11
  41  0.200  0.900  0.503- 140 2.11 123 2.11 139 2.11 120 2.11 141 2.11
  42  0.300  0.800  0.503- 136 2.11 139 2.11 140 2.11 159 2.11 142 2.11
  43  0.400  0.000  0.407- 126 2.11 145 2.11 146 2.11 161 2.11 143 2.11
  44  0.500  0.100  0.407- 145 2.11 146 2.11 150 2.11 165 2.11 144 2.11
  45  0.400  0.100  0.503- 124 2.11 143 2.11 144 2.11 147 2.11 145 2.11
  46  0.500  0.000  0.503- 143 2.11 144 2.11 160 2.11 163 2.11 146 2.11
  47  0.400  0.200  0.407- 149 2.11 145 2.11 130 2.11 150 2.11 147 2.11
  48  0.500  0.300  0.407- 150 2.11 149 2.11 154 2.11 169 2.11 148 2.11
  49  0.400  0.300  0.503- 147 2.11 128 2.11 148 2.11 151 2.11 149 2.11
  50  0.500  0.200  0.503- 148 2.11 147 2.11 144 2.11 167 2.11 150 2.11
  51  0.400  0.400  0.407- 134 2.11 149 2.11 153 2.11 154 2.11 151 2.11
  52  0.500  0.500  0.407- 153 2.11 154 2.11 158 2.11 173 2.11 152 2.11
  53  0.400  0.500  0.503- 132 2.11 151 2.11 152 2.11 155 2.11 153 2.11
  54  0.500  0.400  0.503- 148 2.11 151 2.11 152 2.11 171 2.11 154 2.11
  55  0.400  0.600  0.407- 138 2.11 153 2.11 157 2.11 158 2.11 155 2.11
  56  0.500  0.700  0.407- 162 2.11 158 2.11 157 2.11 177 2.11 156 2.11
  57  0.400  0.700  0.503- 159 2.11 155 2.11 156 2.11 136 2.11 157 2.11
  58  0.500  0.600  0.503- 152 2.11 155 2.11 156 2.11 175 2.11 158 2.11
  59  0.400  0.800  0.407- 157 2.11 142 2.11 161 2.11 162 2.11 159 2.11
  60  0.500  0.900  0.407- 146 2.11 161 2.11 162 2.11 181 2.11 160 2.11
[...]
 188  0.900  0.300  0.503-  90 2.11  89 2.11   9 2.11  94 2.11  88 2.11
 189  0.800  0.300  0.407-  68 2.11  87 2.11  88 2.11  91 2.11  89 2.11
 190  0.900  0.200  0.407-  88 2.11  84 2.11  87 2.11   7 2.11  90 2.11
 191  0.800  0.400  0.503-  74 2.11  89 2.11  93 2.11  94 2.11  91 2.11
 192  0.900  0.500  0.503-  13 2.11  93 2.11  94 2.11  98 2.11  92 2.11
 193  0.800  0.500  0.407-  72 2.11  91 2.11  92 2.11  95 2.11  93 2.11
 194  0.900  0.400  0.407-  11 2.11  88 2.11  91 2.11  92 2.11  94 2.11
 195  0.800  0.600  0.503-  78 2.11  93 2.11  97 2.11  98 2.11  95 2.11
 196  0.900  0.700  0.503- 102 2.11  97 2.11  98 2.11  17 2.11  96 2.11
 197  0.800  0.700  0.407-  76 2.11  99 2.11  96 2.11  95 2.11  97 2.11
 198  0.900  0.600  0.407-  15 2.11  92 2.11  95 2.11  96 2.11  98 2.11
 199  0.800  0.800  0.503-  82 2.11  97 2.11 101 2.11 102 2.11  99 2.11
 200  0.900  0.900  0.503-  21 2.11  86 2.11 101 2.11 102 2.11 100 2.11
 201  0.800  0.900  0.407-  80 2.11  83 2.11  99 2.11 100 2.11 101 2.11
 202  0.900  0.800  0.407-  96 2.11  19 2.11  99 2.11 100 2.11 102 2.11

  LATTYP: Found a simple tetragonal cell.
 ALAT       =    21.1388521970
 C/A-ratio  =     1.0461251639

  Lattice vectors:

 A1 = (  21.1388521970,   0.0000000000,   0.0000000000)
 A2 = (   0.0000000000,  21.1388521970,   0.0000000000)
 A3 = (   0.0000000000,   0.0000000000,  22.1138852197)

Analysis of symmetry for initial positions (statically):
 Subroutine PRICEL returns:
 Original cell was already a primitive cell.

 Routine SETGRP: Setting up the symmetry group for a
 simple tetragonal supercell.

 Subroutine GETGRP returns: Found  4 space group operations
 (whereof  2 operations were pure point group operations)
 out of a pool of 16 trial point group operations.

[...]
     22     -46.6533      2.00000
     23     -46.6498      2.00000
     24     -46.6496      2.00000
     25     -46.6355      2.00000
     26     -46.6355      2.00000
     27     -46.6333      2.00000
     28     -46.6331      2.00000
     29     -46.6263      2.00000
     30     -46.6237      2.00000
     31     -46.6236      2.00000
     32     -46.6235      2.00000
     33     -46.6235      2.00000
     34     -46.6215      2.00000
     35     -46.6205      2.00000
     36     -46.6181      2.00000
     37     -46.6167      2.00000
     38     -46.6165      2.00000
     39     -46.6165      2.00000
     40     -46.6165      2.00000
     41     -46.6147      2.00000
     42     -46.6116      2.00000
     43     -46.6111      2.00000
     44     -46.6089      2.00000
     45     -46.6078      2.00000
     46     -46.6077      2.00000
     47     -46.6076      2.00000
     48     -46.6070      2.00000
     49     -46.6067      2.00000
     50     -46.6026      2.00000
     51     -46.6025      2.00000
     52     -46.6024      2.00000
     53     -46.6021      2.00000
     54     -46.6016      2.00000
     55     -46.6016      2.00000
     56     -46.6009      2.00000
     57     -46.6008      2.00000
     58     -46.5991      2.00000
     59     -46.5988      2.00000
     60     -46.5978      2.00000
[...]
    946       6.5300      0.00000
    947       6.5940      0.00000
    948       6.6496      0.00000
    949       6.7203      0.00000
    950       6.7330      0.00000
    951       6.8211      0.00000
    952       6.8768      0.00000
    953       6.9555      0.00000
    954       7.0710      0.00000
    955       7.1861      0.00000
    956       7.2248      0.00000
    957       7.2683      0.00000
    958       7.4253      0.00000
    959       7.4321      0.00000
    960       7.5204      0.00000

 soft charge-density along one line, spin component           1
         0         1         2         3         4         5         6         7         8         9
 total charge-density along one line

------------------------ aborting loop because EDIFF is reached ----------------------------------------

 VOLUME and BASIS-vectors are now :
  energy-cutoff  :      520.00
  volume of cell :     9881.61
      direct lattice vectors                 reciprocal lattice vectors
    21.138852197  0.000000000  0.000000000     0.047306258  0.000000000  0.000000000
     0.000000000 21.138852197  0.000000000     0.000000000  0.047306258  0.000000000
     0.000000000  0.000000000 22.113885220     0.000000000  0.000000000  0.045220457

  length of vectors
    21.138852197 21.138852197 22.113885220     0.047306258  0.047306258  0.045220457

 FORCES acting on ions:
    Electron-Ion                     Ewald-Force                    Non-Local-Force
   -.271E+03 -.141E-05 -.213E+04   0.264E+03 0.167E-07 0.213E+04   0.658E+01 0.000E+00 -.815E+00
   0.271E+03 -.104E-05 -.213E+04   -.264E+03 0.167E-07 0.213E+04   -.658E+01 0.000E+00 -.815E+00
   -.334E+01 0.483E-06 0.932E+03   0.333E+01 0.847E-08 -.923E+03   0.376E-02 0.000E+00 -.718E+01
   -.184E-03 0.373E+01 0.932E+03   -.146E-05 -.375E+01 -.923E+03   0.339E-20 0.131E-01 -.718E+01
   -.483E+01 0.534E+01 -.923E+03   0.482E+01 -.536E+01 0.915E+03   0.551E-02 0.147E-01 0.713E+01
   -.184E-03 0.482E-06 -.924E+03   -.150E-05 0.890E-08 0.915E+03   0.000E+00 0.000E+00 0.713E+01
   -.565E+01 0.749E+01 0.934E+03   0.565E+01 -.753E+01 -.926E+03   -.230E-02 0.283E-01 -.718E+01
   -.182E-03 0.677E+01 0.935E+03   -.302E-05 -.681E+01 -.926E+03   0.000E+00 0.252E-01 -.718E+01
   -.117E+02 0.108E+02 -.920E+03   0.117E+02 -.109E+02 0.911E+03   -.163E-01 0.322E-01 0.713E+01
   -.183E-03 0.778E+01 -.923E+03   -.268E-05 -.781E+01 0.914E+03   0.000E+00 0.220E-01 0.713E+01
   -.112E+02 0.557E+01 0.939E+03   0.113E+02 -.560E+01 -.931E+03   -.422E-01 0.234E-01 -.718E+01
   -.181E-03 0.495E-06 0.937E+03   -.440E-05 -.915E-08 -.929E+03   0.000E+00 0.000E+00 -.718E+01
   -.189E+02 0.461E-06 -.917E+03   0.190E+02 -.161E-07 0.908E+03   -.606E-01 0.000E+00 0.713E+01
   -.180E-03 0.562E+01 -.920E+03   -.565E-05 -.565E+01 0.912E+03   0.000E+00 0.162E-01 0.713E+01
   -.112E+02 -.557E+01 0.939E+03   0.113E+02 0.560E+01 -.931E+03   -.422E-01 -.234E-01 -.718E+01
   -.182E-03 -.677E+01 0.935E+03   -.302E-05 0.681E+01 -.926E+03   0.000E+00 -.252E-01 -.718E+01
   -.117E+02 -.108E+02 -.920E+03   0.117E+02 0.109E+02 0.911E+03   -.163E-01 -.322E-01 0.713E+01
   -.180E-03 -.562E+01 -.920E+03   -.565E-05 0.565E+01 0.912E+03   0.000E+00 -.162E-01 0.713E+01
   -.565E+01 -.749E+01 0.934E+03   0.565E+01 0.753E+01 -.926E+03   -.230E-02 -.283E-01 -.718E+01
   -.184E-03 -.373E+01 0.932E+03   -.146E-05 0.375E+01 -.923E+03   0.339E-20 -.131E-01 -.718E+01
   -.483E+01 -.534E+01 -.923E+03   0.482E+01 0.536E+01 0.915E+03   0.551E-02 -.147E-01 0.713E+01
   -.183E-03 -.778E+01 -.923E+03   -.268E-05 0.781E+01 0.914E+03   0.000E+00 -.220E-01 0.713E+01
   0.334E+01 0.482E-06 0.932E+03   -.333E+01 0.847E-08 -.923E+03   -.376E-02 0.000E+00 -.718E+01
   0.666E+01 0.599E+01 0.934E+03   -.665E+01 -.602E+01 -.925E+03   -.653E-02 0.199E-01 -.718E+01
   0.483E+01 0.534E+01 -.923E+03   -.482E+01 -.536E+01 0.915E+03   -.551E-02 0.147E-01 0.713E+01
   0.678E+01 0.477E-06 -.923E+03   -.676E+01 0.148E-07 0.914E+03   -.101E-01 0.000E+00 0.713E+01
   0.565E+01 0.749E+01 0.934E+03   -.565E+01 -.753E+01 -.926E+03   0.230E-02 0.283E-01 -.718E+01
   0.159E+02 0.131E+02 0.942E+03   -.159E+02 -.132E+02 -.933E+03   0.237E-01 0.637E-01 -.718E+01
   0.117E+02 0.108E+02 -.920E+03   -.117E+02 -.109E+02 0.911E+03   0.163E-01 0.322E-01 0.713E+01
   0.136E+02 0.150E+02 -.920E+03   -.136E+02 -.150E+02 0.911E+03   -.137E-01 0.449E-01 0.713E+01
   0.112E+02 0.557E+01 0.939E+03   -.113E+02 -.560E+01 -.931E+03   0.422E-01 0.234E-01 -.718E+01
   0.260E+02 0.548E-06 0.951E+03   -.262E+02 -.210E-07 -.942E+03   0.160E+00 0.000E+00 -.719E+01
   0.189E+02 0.537E-06 -.917E+03   -.190E+02 -.161E-07 0.908E+03   0.606E-01 0.000E+00 0.713E+01
   0.378E+02 0.157E+02 -.908E+03   -.380E+02 -.157E+02 0.900E+03   0.119E+00 0.522E-01 0.713E+01
   0.112E+02 -.557E+01 0.939E+03   -.113E+02 0.560E+01 -.931E+03   0.422E-01 -.234E-01 -.718E+01
   0.159E+02 -.131E+02 0.942E+03   -.159E+02 0.132E+02 -.933E+03   0.237E-01 -.637E-01 -.718E+01
   0.117E+02 -.108E+02 -.920E+03   -.117E+02 0.109E+02 0.911E+03   0.163E-01 -.322E-01 0.713E+01
   0.378E+02 -.157E+02 -.908E+03   -.380E+02 0.157E+02 0.900E+03   0.119E+00 -.522E-01 0.713E+01
   0.565E+01 -.749E+01 0.934E+03   -.565E+01 0.753E+01 -.926E+03   0.230E-02 -.283E-01 -.718E+01
   0.666E+01 -.599E+01 0.934E+03   -.665E+01 0.602E+01 -.925E+03   -.653E-02 -.199E-01 -.718E+01
   0.483E+01 -.534E+01 -.923E+03   -.482E+01 0.536E+01 0.915E+03   -.551E-02 -.147E-01 0.713E+01
   0.136E+02 -.150E+02 -.920E+03   -.136E+02 0.150E+02 0.911E+03   -.137E-01 -.449E-01 0.713E+01
   0.583E+01 0.476E-06 0.934E+03   -.582E+01 0.160E-07 -.926E+03   -.834E-02 0.000E+00 -.718E+01
   0.464E+01 0.109E+02 0.938E+03   -.463E+01 -.109E+02 -.929E+03   -.697E-02 0.189E-01 -.719E+01
   0.910E+01 0.116E+02 -.921E+03   -.908E+01 -.116E+02 0.912E+03   -.145E-01 0.129E-01 0.713E+01
   0.462E+01 0.468E-06 -.921E+03   -.461E+01 0.276E-07 0.912E+03   -.802E-02 0.000E+00 0.713E+01
   0.114E+02 0.165E+02 0.941E+03   -.114E+02 -.166E+02 -.933E+03   -.983E-02 0.622E-01 -.720E+01
   0.146E+02 0.322E+02 0.963E+03   -.146E+02 -.324E+02 -.954E+03   -.176E-01 0.185E+00 -.726E+01
   0.332E+02 0.378E+02 -.904E+03   -.331E+02 -.380E+02 0.896E+03   -.579E-01 0.169E+00 0.711E+01
   0.116E+02 0.351E+02 -.911E+03   -.116E+02 -.351E+02 0.903E+03   -.231E-01 0.840E-02 0.711E+01
   0.311E+02 0.181E+02 0.966E+03   -.312E+02 -.183E+02 -.958E+03   0.891E-01 0.140E+00 -.713E+01
   0.316E+02 0.659E-06 0.101E+04   -.317E+02 -.741E-07 -.100E+04   0.812E-01 0.000E+00 -.610E+01
   0.915E+02 0.740E-06 -.860E+03   -.928E+02 -.109E-06 0.851E+03   0.812E+00 0.000E+00 0.725E+01
   0.678E+02 0.940E+02 -.815E+03   -.674E+02 -.953E+02 0.807E+03   -.264E+00 0.886E+00 0.682E+01
   0.311E+02 -.181E+02 0.966E+03   -.312E+02 0.183E+02 -.958E+03   0.891E-01 -.140E+00 -.713E+01
   0.146E+02 -.322E+02 0.963E+03   -.146E+02 0.324E+02 -.954E+03   -.176E-01 -.185E+00 -.726E+01
   0.332E+02 -.378E+02 -.904E+03   -.331E+02 0.380E+02 0.896E+03   -.579E-01 -.169E+00 0.711E+01
   0.678E+02 -.940E+02 -.815E+03   -.674E+02 0.953E+02 0.807E+03   -.264E+00 -.886E+00 0.682E+01
   0.114E+02 -.165E+02 0.941E+03   -.114E+02 0.166E+02 -.933E+03   -.983E-02 -.622E-01 -.720E+01
   0.464E+01 -.109E+02 0.938E+03   -.463E+01 0.109E+02 -.929E+03   -.697E-02 -.189E-01 -.719E+01
[...]
   -.148E+02 0.164E+02 0.715E+03   0.148E+02 -.165E+02 -.719E+03   -.136E-01 0.121E+00 0.314E+01
   -.754E+01 0.824E+01 0.704E+03   0.754E+01 -.828E+01 -.708E+03   -.307E-02 0.422E-01 0.314E+01
   -.495E+02 0.299E+02 -.661E+03   0.496E+02 -.302E+02 0.665E+03   -.188E+00 0.337E+00 -.323E+01
   -.343E+02 0.231E-05 -.680E+03   0.344E+02 -.268E-07 0.684E+03   -.136E+00 0.000E+00 -.322E+01
   -.280E+02 0.232E-05 0.732E+03   0.283E+02 -.316E-07 -.736E+03   -.285E+00 0.000E+00 0.337E+01
   -.170E+02 0.721E+01 0.712E+03   0.171E+02 -.727E+01 -.716E+03   -.864E-01 0.715E-01 0.316E+01
   -.495E+02 -.299E+02 -.661E+03   0.496E+02 0.302E+02 0.665E+03   -.188E+00 -.337E+00 -.323E+01
   -.179E+02 -.145E+02 -.687E+03   0.179E+02 0.146E+02 0.691E+03   -.380E-01 -.840E-01 -.322E+01
   -.148E+02 -.164E+02 0.715E+03   0.148E+02 0.165E+02 -.719E+03   -.136E-01 -.121E+00 0.314E+01
   -.170E+02 -.721E+01 0.712E+03   0.171E+02 0.727E+01 -.716E+03   -.864E-01 -.715E-01 0.316E+01
   -.122E+02 -.183E+02 -.688E+03   0.122E+02 0.184E+02 0.692E+03   0.280E-01 -.328E-01 -.323E+01
   -.626E+01 -.586E+01 -.693E+03   0.625E+01 0.587E+01 0.697E+03   0.103E-01 -.143E-01 -.321E+01
   -.533E+01 -.636E+01 0.703E+03   0.532E+01 0.638E+01 -.707E+03   0.990E-02 -.174E-01 0.314E+01
   -.754E+01 -.824E+01 0.704E+03   0.754E+01 0.828E+01 -.708E+03   -.307E-02 -.422E-01 0.314E+01
   -.109E+00 0.285E-03 0.104E+02   0.128E-11 0.734E-12 0.284E-11   -.848E-15 0.160E-15 -.993E+01

 POSITION                                       TOTAL-FORCE (eV/Angst)
     13.96710     10.56943     13.56860        -0.106477     -0.000000      0.052956
     11.39952     10.56943     13.56860         0.106477     -0.000000      0.052956
      0.00000      0.00000      9.00000        -0.001183     -0.000000      0.587547
      2.11389      2.11389      9.00000         0.000000     -0.004148      0.587127
      0.00000      2.11389     11.11389        -0.001723     -0.004507     -0.572667
      2.11389      0.00000     11.11389         0.000000     -0.000000     -0.573367
      0.00000      4.22777      9.00000         0.000861     -0.008996      0.587115
      2.11389      6.34166      9.00000         0.000000     -0.008198      0.586988
      0.00000      6.34166     11.11389         0.004773     -0.010339     -0.570584
      2.11389      4.22777     11.11389         0.000000     -0.006974     -0.572370
      0.00000      8.45554      9.00000         0.012833     -0.007820      0.586850
      2.11389     10.56943      9.00000         0.000000     -0.000000      0.587156
      0.00000     10.56943     11.11389         0.017256     -0.000000     -0.569833
      2.11389      8.45554     11.11389         0.000000     -0.005332     -0.571109
      0.00000     12.68331      9.00000         0.012833      0.007820      0.586850
      2.11389     14.79720      9.00000         0.000000      0.008198      0.586988
      0.00000     14.79720     11.11389         0.004773      0.010339     -0.570584
      2.11389     12.68331     11.11389         0.000000      0.005332     -0.571109
      0.00000     16.91108      9.00000         0.000861      0.008996      0.587115
      2.11389     19.02497      9.00000         0.000000      0.004148      0.587127
      0.00000     19.02497     11.11389        -0.001723      0.004507     -0.572667
      2.11389     16.91108     11.11389         0.000000      0.006974     -0.572370
      4.22777      0.00000      9.00000         0.001183     -0.000000      0.587547
      6.34166      2.11389      9.00000         0.002088     -0.006017      0.588332
      4.22777      2.11389     11.11389         0.001723     -0.004507     -0.572667
      6.34166      0.00000     11.11389         0.003280     -0.000000     -0.572307
      4.22777      4.22777      9.00000        -0.000861     -0.008996      0.587115
      6.34166      6.34166      9.00000        -0.008283     -0.020682      0.586014
      4.22777      6.34166     11.11389        -0.004773     -0.010339     -0.570584
      6.34166      4.22777     11.11389         0.004280     -0.013376     -0.569275
      4.22777      8.45554      9.00000        -0.012833     -0.007820      0.586850
      6.34166     10.56943      9.00000        -0.046333     -0.000000      0.586368
      4.22777     10.56943     11.11389        -0.017256     -0.000000     -0.569833
      6.34166      8.45554     11.11389        -0.034364     -0.017352     -0.565547
      4.22777     12.68331      9.00000        -0.012833      0.007820      0.586850
      6.34166     14.79720      9.00000        -0.008283      0.020682      0.586014
      4.22777     14.79720     11.11389        -0.004773      0.010339     -0.570584
      6.34166     12.68331     11.11389        -0.034364      0.017352     -0.565547
      4.22777     16.91108      9.00000        -0.000861      0.008996      0.587115
      6.34166     19.02497      9.00000         0.002088      0.006017      0.588332
      4.22777     19.02497     11.11389         0.001723      0.004507     -0.572667
      6.34166     16.91108     11.11389         0.004280      0.013376     -0.569275
      8.45554      0.00000      9.00000         0.002750     -0.000000      0.588887
     10.56943      2.11389      9.00000         0.002437     -0.005607      0.590617
      8.45554      2.11389     11.11389         0.004883     -0.003497     -0.569548
     10.56943      0.00000     11.11389         0.002729     -0.000000     -0.569813
      8.45554      4.22777      9.00000         0.003424     -0.018294      0.592134
     10.56943      6.34166      9.00000         0.008434     -0.051186      0.611928
      8.45554      6.34166     11.11389         0.021532     -0.046511     -0.551886
     10.56943      4.22777     11.11389         0.008701      0.000878     -0.557033
      8.45554      8.45554      9.00000        -0.033997     -0.050952      0.566562
     10.56943     10.56943      9.00000        -0.010260     -0.000000      0.296279
      8.45554     10.56943     11.11389        -0.295085     -0.000000     -0.607728
     10.56943      8.45554     11.11389         0.121346     -0.317898     -0.443142
      8.45554     12.68331      9.00000        -0.033997      0.050952      0.566562
     10.56943     14.79720      9.00000         0.008434      0.051186      0.611928
      8.45554     14.79720     11.11389         0.021532      0.046511     -0.551886
     10.56943     12.68331     11.11389         0.121346      0.317898     -0.443142
      8.45554     16.91108      9.00000         0.003424      0.018294      0.592134
     10.56943     19.02497      9.00000         0.002437      0.005607      0.590617
[...]
     19.02497      6.34166     11.11389        -0.012895      0.027797      0.390760
     16.91108      6.34166      9.00000        -0.004689      0.040100     -0.412255
     19.02497      4.22777      9.00000        -0.001011      0.013833     -0.411863
     16.91108      8.45554     11.11389        -0.071227      0.115721      0.397296
     19.02497     10.56943     11.11389        -0.047256     -0.000000      0.392962
     16.91108     10.56943      9.00000        -0.105663     -0.000000     -0.338045
     19.02497      8.45554      9.00000        -0.028595      0.023276     -0.405911
     16.91108     12.68331     11.11389        -0.071227     -0.115721      0.397296
     19.02497     14.79720     11.11389        -0.012895     -0.027797      0.390760
     16.91108     14.79720      9.00000        -0.004689     -0.040100     -0.412255
     19.02497     12.68331      9.00000        -0.028595     -0.023276     -0.405911
     16.91108     16.91108     11.11389         0.008877     -0.011154      0.386745
     19.02497     19.02497     11.11389         0.003334     -0.004701      0.394511
     16.91108     19.02497      9.00000         0.003189     -0.005727     -0.412983
     19.02497     16.91108      9.00000        -0.001011     -0.013833     -0.411863
    total drift:                               -0.108707      0.000285     -0.637273

  FREE ENERGIE OF THE ION-ELECTRON SYSTEM (eV)
  free  energy   TOTEN  =     -1385.19641936 eV

  energy  without entropy=    -1385.19641936  energy(sigma->0) =    -1385.19641936