 vasp.6.4.0 14Feb23 (build Jul 14 2023 13:46:40) complex

 executed on             LinuxIFC date 2023.07.30  04:02:47

 INCAR:
   SYSTEM = MgO-rocksalt
   ISMEAR = 0
   SIGMA = 0.05
   EDIFF = 1E-6
   ALGO = ALL
   ISTART = 0
   IBRION = -1
   NSW = 0
   ISYM = 2
   DIPOL = 0.5 0.5 0.5
   IDIPOL = 3
   LDIPOL = .TRUE.
   METAGGA = TPSS
   ENCUT = 520
   PREC = Accurate
   LASPH = .TRUE.
   LREAL = Auto
   ISPIN = 1
   NELM = 200
   NELMIN = 8
   NCORE = 16
   KPAR = 1
   LWAVE = .FALSE.
   LCHARG = .FALSE.

 POTCAR:    PAW_PBE Ag 02Apr2005
 POTCAR:    PAW_PBE Mg_pv 13Apr2007
 POTCAR:    PAW_PBE O 08Apr2002
 POTCAR:    PAW_PBE Ag 02Apr2005
   VRHFIN =Ag : s1 d10

   TITEL  = PAW_PBE Ag 02Apr2005
   POMASS =  107.868; ZVAL   =   11.000    mass and valenz
   ENMAX  =  249.844; ENMIN  =  187.383 eV

   TITEL  = PAW_PBE Mg_pv 13Apr2007
   POMASS =   24.305; ZVAL   =    8.000    mass and valenz
   ENMAX  =  403.929; ENMIN  =  302.947 eV

   TITEL  = PAW_PBE O 08Apr2002
   POMASS =   16.000; ZVAL   =    6.000    mass and valenz
   ENMAX  =  400.000; ENMIN  =  300.000 eV

 Optimization of the real space projectors (new method)

 maximal supplied QI-value         = 15.12
 optimisation between [QCUT,QGAM] = [ 11.64, 23.28] = [ 37.95,151.78] Ry
 Optimized for a Real-space Cutoff    1.45 Angstroem

   l    n(q)    QCUT    max X(q) W(low)/X(q) W(high)/X(q)  e(spline)
   2      9    11.641    53.897    0.22E-03    0.42E-04    0.28E-06
   2      9    11.641    52.416    0.23E-03    0.44E-04    0.29E-06
   0     10    11.641   122.045    0.51E-04    0.25E-04    0.16E-06
   0     10    11.641    73.629    0.49E-04    0.24E-04    0.16E-06
   1     10    11.641    15.255    0.99E-04    0.55E-04    0.11E-06
   1     10    11.641     9.562    0.81E-04    0.47E-04    0.95E-07
 Optimization of the real space projectors (new method)

[...]

   l    n(q)    QCUT    max X(q) W(low)/X(q) W(high)/X(q)  e(spline)
   1      8    11.527     2.974    0.44E-04    0.56E-04    0.12E-06
   1      8    11.527     4.279    0.12E-03    0.12E-03    0.26E-06
   0      9    11.527    16.381    0.46E-04    0.64E-04    0.78E-07
   0      9    11.527     5.611    0.26E-04    0.43E-04    0.55E-07
   2      8    11.527     4.652    0.22E-03    0.72E-04    0.47E-07
 Optimization of the real space projectors (new method)

 maximal supplied QI-value         = 24.76
 optimisation between [QCUT,QGAM] = [ 11.64, 23.27] = [ 37.91,151.63] Ry
 Optimized for a Real-space Cutoff    1.14 Angstroem

   l    n(q)    QCUT    max X(q) W(low)/X(q) W(high)/X(q)  e(spline)
   0      8    11.635    20.381    0.10E-03    0.33E-03    0.24E-06
   0      8    11.635    15.268    0.11E-03    0.35E-03    0.26E-06
   1      7    11.635     5.964    0.24E-03    0.31E-03    0.30E-06
   1      7    11.635     5.382    0.22E-03    0.25E-03    0.26E-06
  PAW_PBE Ag 02Apr2005                  :
  PAW_PBE Mg_pv 13Apr2007               :
  PAW_PBE O 08Apr2002                   :

 POSCAR: Ag Mg  O
  positions in direct lattice

 METAGGA = TPSS                                        LMAXTAU =  6    LMIXTAU =  F

 ion  position               nearest neighbor table
   1  0.450  0.450  0.726-   2 2.56
   2  0.450  0.450  0.610-   1 2.56  53 2.81  54 2.81
   3  0.000  0.000  0.407- 105 2.11 106 2.11 121 2.11 186 2.11 103 2.11
   4  0.100  0.100  0.407- 105 2.11 106 2.11 110 2.11 125 2.11 104 2.11
   5  0.000  0.100  0.503- 103 2.11 104 2.11 107 2.11 184 2.11 105 2.11
   6  0.100  0.000  0.503- 103 2.11 104 2.11 120 2.11 123 2.11 106 2.11
   7  0.000  0.200  0.407- 109 2.11 105 2.11 110 2.11 190 2.11 107 2.11
   8  0.100  0.300  0.407- 110 2.11 109 2.11 114 2.11 129 2.11 108 2.11
   9  0.000  0.300  0.503- 107 2.11 108 2.11 111 2.11 188 2.11 109 2.11
  10  0.100  0.200  0.503- 108 2.11 107 2.11 104 2.11 127 2.11 110 2.11
  11  0.000  0.400  0.407- 109 2.11 113 2.11 114 2.11 194 2.11 111 2.11
  12  0.100  0.500  0.407- 113 2.11 114 2.11 118 2.11 133 2.11 112 2.11
  13  0.000  0.500  0.503- 111 2.11 112 2.11 115 2.11 192 2.11 113 2.11
  14  0.100  0.400  0.503- 108 2.11 111 2.11 112 2.11 131 2.11 114 2.11
  15  0.000  0.600  0.407- 113 2.11 117 2.11 118 2.11 198 2.11 115 2.11
  16  0.100  0.700  0.407- 122 2.11 118 2.11 117 2.11 137 2.11 116 2.11
  17  0.000  0.700  0.503- 119 2.11 116 2.11 115 2.11 196 2.11 117 2.11
  18  0.100  0.600  0.503- 112 2.11 115 2.11 116 2.11 135 2.11 118 2.11
  19  0.000  0.800  0.407- 117 2.11 121 2.11 122 2.11 202 2.11 119 2.11
  20  0.100  0.900  0.407- 106 2.11 121 2.11 122 2.11 141 2.11 120 2.11
  21  0.000  0.900  0.503- 103 2.11 119 2.11 120 2.11 200 2.11 121 2.11
  22  0.100  0.800  0.503- 116 2.11 119 2.11 120 2.11 139 2.11 122 2.11
  23  0.200  0.000  0.407- 126 2.11 125 2.11 106 2.11 141 2.11 123 2.11
  24  0.300  0.100  0.407- 125 2.11 126 2.11 130 2.11 145 2.11 124 2.11
  25  0.200  0.100  0.503- 124 2.11 123 2.11 104 2.11 127 2.11 125 2.11
  26  0.300  0.000  0.503- 123 2.11 124 2.11 140 2.11 143 2.11 126 2.11
  27  0.200  0.200  0.407- 129 2.11 130 2.11 110 2.11 125 2.11 127 2.11
  28  0.300  0.300  0.407- 129 2.11 130 2.11 134 2.11 149 2.11 128 2.11
  29  0.200  0.300  0.503- 127 2.11 128 2.11 108 2.11 131 2.11 129 2.11
  30  0.300  0.200  0.503- 127 2.11 128 2.11 124 2.11 147 2.11 130 2.11
  31  0.200  0.400  0.407- 134 2.11 129 2.11 133 2.11 114 2.11 131 2.11
  32  0.300  0.500  0.407- 133 2.11 134 2.11 138 2.11 153 2.11 132 2.11
  33  0.200  0.500  0.503- 132 2.11 131 2.11 112 2.11 135 2.11 133 2.11
  34  0.300  0.400  0.503- 131 2.11 128 2.11 132 2.11 151 2.11 134 2.11
  35  0.200  0.600  0.407- 138 2.11 133 2.11 137 2.11 118 2.11 135 2.11
  36  0.300  0.700  0.407- 137 2.11 142 2.11 138 2.11 157 2.11 136 2.11
  37  0.200  0.700  0.503- 136 2.11 139 2.11 116 2.11 135 2.11 137 2.11
  38  0.300  0.600  0.503- 135 2.11 132 2.11 136 2.11 155 2.11 138 2.11
  39  0.200  0.800  0.407- 137 2.11 142 2.11 141 2.11 122 2.11 139 2.11
  40  0.300  0.900  0.407- 141 2.11 126 2.11 142 2.11 161 2.11 140 2.11
  41  0.200  0.900  0.503- 140 2.11 123 2.11 139 2.11 120 2.11 141 2.11
  42  0.300  0.800  0.503- 136 2.11 139 2.11 140 2.11 159 2.11 142 2.11
  43  0.400  0.000  0.407- 126 2.11 145 2.11 146 2.11 161 2.11 143 2.11
  44  0.500  0.100  0.407- 145 2.11 146 2.11 150 2.11 165 2.11 144 2.11
  45  0.400  0.100  0.503- 124 2.11 143 2.11 144 2.11 147 2.11 145 2.11
  46  0.500  0.000  0.503- 143 2.11 144 2.11 160 2.11 163 2.11 146 2.11
  47  0.400  0.200  0.407- 149 2.11 145 2.11 130 2.11 150 2.11 147 2.11
  48  0.500  0.300  0.407- 150 2.11 149 2.11 154 2.11 169 2.11 148 2.11
  49  0.400  0.300  0.503- 147 2.11 128 2.11 148 2.11 151 2.11 149 2.11
  50  0.500  0.200  0.503- 148 2.11 147 2.11 144 2.11 167 2.11 150 2.11
  51  0.400  0.400  0.407- 134 2.11 149 2.11 153 2.11 154 2.11 151 2.11
  52  0.500  0.500  0.407- 153 2.11 154 2.11 158 2.11 173 2.11 152 2.11
  53  0.400  0.500  0.503- 132 2.11 151 2.11 152 2.11 155 2.11 153 2.11   2 2.81
  54  0.500  0.400  0.503- 148 2.11 151 2.11 152 2.11 171 2.11 154 2.11   2 2.81
  55  0.400  0.600  0.407- 138 2.11 153 2.11 157 2.11 158 2.11 155 2.11
  56  0.500  0.700  0.407- 162 2.11 158 2.11 157 2.11 177 2.11 156 2.11
  57  0.400  0.700  0.503- 159 2.11 155 2.11 156 2.11 136 2.11 157 2.11
  58  0.500  0.600  0.503- 152 2.11 155 2.11 156 2.11 175 2.11 158 2.11
  59  0.400  0.800  0.407- 157 2.11 142 2.11 161 2.11 162 2.11 159 2.11
  60  0.500  0.900  0.407- 146 2.11 161 2.11 162 2.11 181 2.11 160 2.11
[...]
 188  0.900  0.300  0.503-  90 2.11  89 2.11   9 2.11  94 2.11  88 2.11
 189  0.800  0.300  0.407-  68 2.11  87 2.11  88 2.11  91 2.11  89 2.11
 190  0.900  0.200  0.407-  88 2.11  84 2.11  87 2.11   7 2.11  90 2.11
 191  0.800  0.400  0.503-  74 2.11  89 2.11  93 2.11  94 2.11  91 2.11
 192  0.900  0.500  0.503-  13 2.11  93 2.11  94 2.11  98 2.11  92 2.11
 193  0.800  0.500  0.407-  72 2.11  91 2.11  92 2.11  95 2.11  93 2.11
 194  0.900  0.400  0.407-  11 2.11  88 2.11  91 2.11  92 2.11  94 2.11
 195  0.800  0.600  0.503-  78 2.11  93 2.11  97 2.11  98 2.11  95 2.11
 196  0.900  0.700  0.503- 102 2.11  97 2.11  98 2.11  17 2.11  96 2.11
 197  0.800  0.700  0.407-  76 2.11  99 2.11  96 2.11  95 2.11  97 2.11
 198  0.900  0.600  0.407-  15 2.11  92 2.11  95 2.11  96 2.11  98 2.11
 199  0.800  0.800  0.503-  82 2.11  97 2.11 101 2.11 102 2.11  99 2.11
 200  0.900  0.900  0.503-  21 2.11  86 2.11 101 2.11 102 2.11 100 2.11
 201  0.800  0.900  0.407-  80 2.11  83 2.11  99 2.11 100 2.11 101 2.11
 202  0.900  0.800  0.407-  96 2.11  19 2.11  99 2.11 100 2.11 102 2.11

  LATTYP: Found a simple tetragonal cell.
 ALAT       =    21.1388521970
 C/A-ratio  =     1.0461251639

  Lattice vectors:

 A1 = (  21.1388521970,   0.0000000000,   0.0000000000)
 A2 = (   0.0000000000,  21.1388521970,   0.0000000000)
 A3 = (   0.0000000000,   0.0000000000,  22.1138852197)

Analysis of symmetry for initial positions (statically):
 Subroutine PRICEL returns:
 Original cell was already a primitive cell.

 Routine SETGRP: Setting up the symmetry group for a
 simple tetragonal supercell.

 Subroutine GETGRP returns: Found  4 space group operations
 (whereof  2 operations were pure point group operations)
 out of a pool of 16 trial point group operations.

The static configuration has the point symmetry C_1h.
 The point group associated with its full space group is C_2v.

Analysis of symmetry for dynamics (positions and initial velocities):
 Subroutine PRICEL returns:
 Original cell was already a primitive cell.

 Routine SETGRP: Setting up the symmetry group for a
 simple tetragonal supercell.

 Subroutine GETGRP returns: Found  4 space group operations
 (whereof  2 operations were pure point group operations)
 out of a pool of 16 trial point group operations.

The dynamic configuration has the point symmetry C_1h.
 The point group associated with its full space group is C_2v.

 Subroutine INISYM returns: Found  4 space group operations
 (whereof  2 operations are pure point group operations),
 and found     1 'primitive' translations

                                     Primitive cell

  volume of cell :    9881.6133

  direct lattice vectors                    reciprocal lattice vectors
    21.138852197  0.000000000  0.000000000     0.047306258  0.000000000  0.000000000
     0.000000000 21.138852197  0.000000000     0.000000000  0.047306258  0.000000000
     0.000000000  0.000000000 22.113885220     0.000000000  0.000000000  0.045220457

  length of vectors
    21.138852197 21.138852197 22.113885220     0.047306258  0.047306258  0.045220457

  position of ions in fractional coordinates (direct lattice)
     0.449999988  0.450000018  0.725800575
     0.449999988  0.450000018  0.610040178
     0.000000000  0.000000000  0.406984115
     0.100000000  0.100000000  0.406984115
     0.000000000  0.100000000  0.502574971
     0.100000000  0.000000000  0.502574971
     0.000000000  0.200000000  0.406984115
     0.100000000  0.300000000  0.406984115
     0.000000000  0.300000000  0.502574971
     0.100000000  0.200000000  0.502574971
     0.000000000  0.400000000  0.406984115
     0.100000000  0.500000000  0.406984115
     0.000000000  0.500000000  0.502574971
     0.100000000  0.400000000  0.502574971
[...]
     52     -43.3056      2.00000
     53     -43.3051      2.00000
     54     -43.3049      2.00000
     55     -43.3046      2.00000
     56     -43.3042      2.00000
     57     -43.3041      2.00000
     58     -43.3027      2.00000
     59     -43.3022      2.00000
     60     -43.3020      2.00000
[...]
    850       4.0749      0.00000
    851       4.0813      0.00000
    852       4.1090      0.00000
    853       4.1271      0.00000
    854       4.1914      0.00000
    855       4.2063      0.00000
    856       4.2720      0.00000
    857       4.2845      0.00000
    858       4.2914      0.00000
    859       4.3033      0.00000
    860       4.3327      0.00000
    861       4.3870      0.00000
    862       5.8335      0.00000
    863      10.3978      0.00000
    864      11.8803      0.00000

 soft charge-density along one line, spin component           1
         0         1         2         3         4         5         6         7         8         9
 total charge-density along one line

------------------------ aborting loop because EDIFF is reached ----------------------------------------

  FORCE on cell =-STRESS in cart. coord.  units (eV):
  Direction    XX          YY          ZZ          XY          YZ          ZX
  Alpha Z  1357.53553  1357.53553  1357.53553
  Ewald  475865.30748475865.30748************    -8.48416    -0.00001     0.00001
  Hartree504756.91294504756.91291************    -2.01022    -0.00000     0.00001
  E(xc)   -8197.77888 -8197.77888 -8222.90809    -0.01776     0.00000    -0.00000
  Local  ************************************     9.11010     0.00001    -0.00001
  n-local -8951.27116 -8951.27112 -9079.99525    -0.54848    -0.00003     0.00002
  augment  3962.33209  3962.33208  3904.67634     0.75518     0.00000    -0.00000
  Kinetic 22988.27925 22988.27926 23230.55989     0.40592     0.00005    -0.00005
  Fock        0.00000     0.00000     0.00000     0.00000     0.00000     0.00000
  Total    -166.98937  -166.98937     8.05842    -0.78942     0.00000     0.00000
  in kB     -27.07519   -27.07519     1.30657    -0.12799     0.00000     0.00000

 VOLUME and BASIS-vectors are now :
  energy-cutoff  :      520.00
  volume of cell :     9881.61
      direct lattice vectors                 reciprocal lattice vectors
    21.138852197  0.000000000  0.000000000     0.047306258  0.000000000  0.000000000
     0.000000000 21.138852197  0.000000000     0.000000000  0.047306258  0.000000000
     0.000000000  0.000000000 22.113885220     0.000000000  0.000000000  0.045220457

  length of vectors
    21.138852197 21.138852197 22.113885220     0.047306258  0.047306258  0.045220457

 FORCES acting on ions:
    Electron-Ion                     Ewald-Force                    Non-Local-Force
   0.311E-04 -.137E-03 -.170E+04   0.119E-07 -.862E-08 0.169E+04   -.169E-21 -.406E-21 0.788E+01
   0.274E-04 -.132E-03 -.187E+04   0.417E-05 -.431E-05 0.188E+04   0.467E-22 0.299E-21 -.614E+01
   0.167E+01 0.167E+01 0.931E+03   -.168E+01 -.168E+01 -.923E+03   0.368E-02 0.368E-02 -.792E+01
   0.586E+01 0.586E+01 0.933E+03   -.588E+01 -.588E+01 -.925E+03   0.152E-01 0.152E-01 -.792E+01
   0.274E+01 0.562E+01 -.922E+03   -.275E+01 -.563E+01 0.914E+03   0.744E-02 0.469E-02 0.788E+01
   0.562E+01 0.274E+01 -.922E+03   -.563E+01 -.275E+01 0.914E+03   0.469E-02 0.744E-02 0.788E+01
   0.297E+01 0.586E+01 0.933E+03   -.299E+01 -.587E+01 -.925E+03   0.143E-01 0.793E-02 -.793E+01
   0.118E+02 0.706E+01 0.938E+03   -.119E+02 -.708E+01 -.930E+03   0.553E-01 0.105E-01 -.794E+01
   0.568E+01 0.644E+01 -.919E+03   -.570E+01 -.644E+01 0.911E+03   0.140E-01 0.244E-02 0.788E+01
   0.119E+02 0.107E+02 -.919E+03   -.120E+02 -.108E+02 0.911E+03   0.275E-01 0.912E-02 0.788E+01
   0.474E+01 0.198E+01 0.936E+03   -.476E+01 -.198E+01 -.928E+03   0.187E-01 0.560E-03 -.793E+01
   0.144E+02 -.287E+01 0.940E+03   -.144E+02 0.289E+01 -.932E+03   0.557E-01 -.121E-01 -.794E+01
   0.692E+01 -.257E+01 -.918E+03   -.693E+01 0.257E+01 0.910E+03   0.487E-02 -.320E-02 0.788E+01
   0.224E+02 0.420E+01 -.913E+03   -.225E+02 -.420E+01 0.905E+03   0.397E-01 -.517E-02 0.787E+01
   0.401E+01 -.499E+01 0.935E+03   -.402E+01 0.500E+01 -.926E+03   0.549E-02 -.715E-02 -.793E+01
   0.851E+01 -.792E+01 0.935E+03   -.853E+01 0.794E+01 -.927E+03   0.148E-01 -.138E-01 -.793E+01
   0.406E+01 -.742E+01 -.921E+03   -.406E+01 0.743E+01 0.913E+03   -.241E-02 -.400E-02 0.788E+01
   0.178E+02 -.998E+01 -.916E+03   -.178E+02 0.999E+01 0.908E+03   0.117E-01 -.887E-02 0.787E+01
   0.213E+01 -.451E+01 0.932E+03   -.213E+01 0.452E+01 -.924E+03   -.266E-03 -.501E-02 -.792E+01
   0.451E+01 -.214E+01 0.932E+03   -.452E+01 0.213E+01 -.924E+03   0.501E-02 0.266E-03 -.792E+01
   0.207E+01 -.207E+01 -.923E+03   -.207E+01 0.207E+01 0.915E+03   -.560E-04 0.560E-04 0.789E+01
   0.770E+01 -.770E+01 -.921E+03   -.770E+01 0.770E+01 0.913E+03   0.254E-02 -.254E-02 0.788E+01
   0.586E+01 0.297E+01 0.933E+03   -.587E+01 -.299E+01 -.925E+03   0.793E-02 0.143E-01 -.793E+01
   0.706E+01 0.118E+02 0.938E+03   -.708E+01 -.119E+02 -.930E+03   0.105E-01 0.553E-01 -.794E+01
   0.107E+02 0.119E+02 -.919E+03   -.108E+02 -.120E+02 0.911E+03   0.912E-02 0.275E-01 0.788E+01
   0.643E+01 0.568E+01 -.919E+03   -.644E+01 -.570E+01 0.911E+03   0.244E-02 0.140E-01 0.788E+01
   0.122E+02 0.122E+02 0.940E+03   -.123E+02 -.123E+02 -.931E+03   0.459E-01 0.459E-01 -.793E+01
   0.200E+02 0.200E+02 0.959E+03   -.201E+02 -.201E+02 -.950E+03   0.135E+00 0.135E+00 -.793E+01
   0.310E+02 0.196E+02 -.906E+03   -.311E+02 -.196E+02 0.898E+03   0.116E+00 0.572E-02 0.786E+01
   0.196E+02 0.310E+02 -.906E+03   -.196E+02 -.311E+02 0.898E+03   0.572E-02 0.116E+00 0.786E+01
   0.236E+02 0.518E+01 0.951E+03   -.239E+02 -.518E+01 -.943E+03   0.196E+00 0.250E-04 -.798E+01
   0.284E+02 -.954E+01 0.972E+03   -.287E+02 0.970E+01 -.964E+03   0.203E+00 -.120E+00 -.799E+01
   0.436E+02 -.919E+01 -.899E+03   -.437E+02 0.922E+01 0.891E+03   0.844E-01 -.232E-01 0.784E+01
   0.728E+02 0.249E+02 -.857E+03   -.739E+02 -.248E+02 0.849E+03   0.812E+00 -.578E-01 0.781E+01
   0.185E+02 -.119E+02 0.946E+03   -.185E+02 0.119E+02 -.938E+03   0.641E-01 -.455E-01 -.795E+01
   0.119E+02 -.185E+02 0.946E+03   -.119E+02 0.185E+02 -.938E+03   0.455E-01 -.641E-01 -.795E+01
   0.184E+02 -.184E+02 -.914E+03   -.184E+02 0.184E+02 0.906E+03   0.129E-01 -.129E-01 0.787E+01
   0.411E+02 -.411E+02 -.886E+03   -.412E+02 0.412E+02 0.878E+03   0.730E-01 -.730E-01 0.782E+01
   0.792E+01 -.851E+01 0.935E+03   -.794E+01 0.853E+01 -.927E+03   0.138E-01 -.148E-01 -.793E+01
   0.499E+01 -.401E+01 0.935E+03   -.500E+01 0.402E+01 -.926E+03   0.715E-02 -.549E-02 -.793E+01
   0.742E+01 -.406E+01 -.921E+03   -.743E+01 0.406E+01 0.913E+03   0.400E-02 0.241E-02 0.788E+01
   0.998E+01 -.178E+02 -.916E+03   -.999E+01 0.178E+02 0.908E+03   0.887E-02 -.117E-01 0.787E+01
   0.198E+01 0.474E+01 0.936E+03   -.198E+01 -.476E+01 -.928E+03   0.560E-03 0.187E-01 -.793E+01
   -.287E+01 0.144E+02 0.940E+03   0.289E+01 -.144E+02 -.932E+03   -.121E-01 0.557E-01 -.794E+01
   0.420E+01 0.224E+02 -.913E+03   -.420E+01 -.225E+02 0.905E+03   -.517E-02 0.397E-01 0.787E+01
   -.257E+01 0.692E+01 -.918E+03   0.257E+01 -.693E+01 0.910E+03   -.320E-02 0.487E-02 0.788E+01
   0.518E+01 0.236E+02 0.951E+03   -.518E+01 -.239E+02 -.943E+03   0.250E-04 0.196E+00 -.798E+01
   -.954E+01 0.284E+02 0.972E+03   0.970E+01 -.287E+02 -.964E+03   -.120E+00 0.203E+00 -.799E+01
   0.249E+02 0.728E+02 -.857E+03   -.248E+02 -.739E+02 0.849E+03   -.578E-01 0.812E+00 0.781E+01
   -.919E+01 0.436E+02 -.899E+03   0.922E+01 -.437E+02 0.891E+03   -.232E-01 0.844E-01 0.784E+01
   0.154E+02 0.154E+02 0.997E+03   -.154E+02 -.154E+02 -.989E+03   0.192E-01 0.192E-01 -.708E+01
   -.154E+02 -.154E+02 0.997E+03   0.154E+02 0.154E+02 -.989E+03   -.192E-01 -.192E-01 -.708E+01
   0.682E+02 -.682E+02 -.748E+03   -.692E+02 0.692E+02 0.741E+03   0.657E+00 -.657E+00 0.678E+01
   -.682E+02 0.682E+02 -.748E+03   0.692E+02 -.692E+02 0.741E+03   -.657E+00 0.657E+00 0.678E+01
   0.954E+01 -.284E+02 0.972E+03   -.970E+01 0.287E+02 -.964E+03   0.120E+00 -.203E+00 -.799E+01
   -.518E+01 -.236E+02 0.951E+03   0.518E+01 0.239E+02 -.943E+03   -.250E-04 -.196E+00 -.798E+01
   0.919E+01 -.436E+02 -.899E+03   -.922E+01 0.437E+02 0.891E+03   0.232E-01 -.844E-01 0.784E+01
   -.249E+02 -.728E+02 -.857E+03   0.248E+02 0.739E+02 0.849E+03   0.578E-01 -.812E+00 0.781E+01
   0.287E+01 -.144E+02 0.940E+03   -.289E+01 0.144E+02 -.932E+03   0.121E-01 -.557E-01 -.794E+01
   -.198E+01 -.474E+01 0.936E+03   0.198E+01 0.476E+01 -.928E+03   -.560E-03 -.187E-01 -.793E+01
[...]
   -.890E+01 0.529E+01 0.705E+03   0.892E+01 -.531E+01 -.709E+03   -.276E-01 0.219E-01 0.350E+01
   -.224E+01 0.440E+01 0.701E+03   0.224E+01 -.440E+01 -.705E+03   -.139E-02 0.926E-02 0.351E+01
   -.168E+02 0.314E+01 -.686E+03   0.169E+02 -.315E+01 0.690E+03   -.275E-01 0.143E-01 -.360E+01
   -.519E+01 -.193E+01 -.690E+03   0.519E+01 0.193E+01 0.694E+03   -.108E-01 0.678E-03 -.358E+01
   -.108E+02 -.217E+01 0.706E+03   0.108E+02 0.217E+01 -.710E+03   -.507E-01 0.941E-03 0.350E+01
   -.356E+01 0.148E+01 0.703E+03   0.357E+01 -.148E+01 -.707E+03   -.989E-02 0.576E-02 0.351E+01
   -.133E+02 -.748E+01 -.688E+03   0.133E+02 0.749E+01 0.692E+03   -.357E-01 -.739E-02 -.359E+01
   -.304E+01 -.556E+01 -.692E+03   0.304E+01 0.557E+01 0.696E+03   -.111E-01 -.698E-02 -.357E+01
   -.637E+01 -.594E+01 0.703E+03   0.639E+01 0.595E+01 -.707E+03   -.321E-01 -.224E-01 0.351E+01
   -.301E+01 -.375E+01 0.702E+03   0.302E+01 0.375E+01 -.706E+03   -.155E-01 -.752E-02 0.351E+01
   -.576E+01 -.576E+01 -.692E+03   0.578E+01 0.578E+01 0.696E+03   -.155E-01 -.155E-01 -.357E+01
   -.155E+01 -.155E+01 -.693E+03   0.155E+01 0.155E+01 0.698E+03   -.360E-02 -.360E-02 -.357E+01
   -.338E+01 -.159E+01 0.700E+03   0.339E+01 0.160E+01 -.704E+03   -.883E-02 -.843E-02 0.351E+01
   -.160E+01 -.338E+01 0.700E+03   0.160E+01 0.339E+01 -.704E+03   -.843E-02 -.883E-02 0.351E+01
   -.302E-01 0.151E-01 0.415E+01   0.340E-11 -.441E-12 -.625E-11   -.309E-15 -.101E-15 -.485E+01

 POSITION                                       TOTAL-FORCE (eV/Angst)
      9.51248      9.51248     16.05027        -0.000000      0.000000      0.036479
      9.51248      9.51248     13.49036        -0.000000      0.000000      0.040447
      0.00000      0.00000      9.00000        -0.000999     -0.000999      0.404535
      2.11389      2.11389      9.00000        -0.004232     -0.004232      0.404924
      0.00000      2.11389     11.11389        -0.001958     -0.001271     -0.394806
      2.11389      0.00000     11.11389        -0.001271     -0.001958     -0.394806
      0.00000      4.22777      9.00000        -0.003784     -0.002228      0.405309
      2.11389      6.34166      9.00000        -0.014531     -0.003072      0.407346
      0.00000      6.34166     11.11389        -0.003496     -0.000664     -0.392599
      2.11389      4.22777     11.11389        -0.006967     -0.002530     -0.391753
      0.00000      8.45554      9.00000        -0.004860     -0.000161      0.406368
      2.11389     10.56943      9.00000        -0.014627      0.003563      0.408849
      0.00000     10.56943     11.11389        -0.001017      0.000895     -0.391769
      2.11389      8.45554     11.11389        -0.008790      0.001590     -0.386571
      0.00000     12.68331      9.00000        -0.001476      0.002014      0.405970
      2.11389     14.79720      9.00000        -0.003977      0.003735      0.406342
      0.00000     14.79720     11.11389         0.000693      0.001065     -0.393785
      2.11389     12.68331     11.11389        -0.002334      0.002307     -0.388665
      0.00000     16.91108      9.00000         0.000050      0.001380      0.404885
      2.11389     19.02497      9.00000        -0.001380     -0.000050      0.404885
      0.00000     19.02497     11.11389         0.000028     -0.000028     -0.395414
      2.11389     16.91108     11.11389        -0.000587      0.000587     -0.393796
      4.22777      0.00000      9.00000        -0.002228     -0.003784      0.405309
      6.34166      2.11389      9.00000        -0.003072     -0.014531      0.407346
      4.22777      2.11389     11.11389        -0.002530     -0.006967     -0.391753
      6.34166      0.00000     11.11389        -0.000664     -0.003496     -0.392599
      4.22777      4.22777      9.00000        -0.013029     -0.013029      0.405592
      6.34166      6.34166      9.00000        -0.044604     -0.044604      0.398036
      4.22777      6.34166     11.11389        -0.027960     -0.001640     -0.378922
      6.34166      4.22777     11.11389        -0.001640     -0.027960     -0.378922
      4.22777      8.45554      9.00000        -0.049021      0.000050      0.417189
      6.34166     10.56943      9.00000        -0.057264      0.039308      0.410239
      4.22777     10.56943     11.11389        -0.019816      0.006679     -0.366337
      6.34166      8.45554     11.11389        -0.229260      0.026945     -0.309085
      4.22777     12.68331      9.00000        -0.017425      0.012746      0.411277
      6.34166     14.79720      9.00000        -0.012746      0.017425      0.411277
      4.22777     14.79720     11.11389        -0.002631      0.002631     -0.386451
      6.34166     12.68331     11.11389        -0.010237      0.010237     -0.341874
      4.22777     16.91108      9.00000        -0.003735      0.003977      0.406342
      6.34166     19.02497      9.00000        -0.002014      0.001476      0.405970
      4.22777     19.02497     11.11389        -0.001065     -0.000693     -0.393785
      6.34166     16.91108     11.11389        -0.002307      0.002334     -0.388665
      8.45554      0.00000      9.00000        -0.000161     -0.004860      0.406368
     10.56943      2.11389      9.00000         0.003563     -0.014627      0.408849
      8.45554      2.11389     11.11389         0.001590     -0.008790     -0.386571
     10.56943      0.00000     11.11389         0.000895     -0.001017     -0.391769
      8.45554      4.22777      9.00000         0.000050     -0.049021      0.417189
     10.56943      6.34166      9.00000         0.039308     -0.057264      0.410239
      8.45554      6.34166     11.11389         0.026945     -0.229260     -0.309085
     10.56943      4.22777     11.11389         0.006679     -0.019816     -0.366337
      8.45554      8.45554      9.00000        -0.003335     -0.003335      0.188319
     10.56943     10.56943      9.00000         0.003335      0.003335      0.188319
      8.45554     10.56943     11.11389        -0.419648      0.419648     -0.615820
     10.56943      8.45554     11.11389         0.419648     -0.419648     -0.615820
      8.45554     12.68331      9.00000        -0.039308      0.057264      0.410239
     10.56943     14.79720      9.00000        -0.000050      0.049021      0.417189
      8.45554     14.79720     11.11389        -0.006679      0.019816     -0.366337
     10.56943     12.68331     11.11389        -0.026945      0.229260     -0.309085
      8.45554     16.91108      9.00000        -0.003563      0.014627      0.408849
     10.56943     19.02497      9.00000         0.000161      0.004860      0.406368
[...]
     19.02497      6.34166     11.11389        -0.000443      0.001675      0.505404
     16.91108      6.34166      9.00000        -0.007606      0.006053     -0.521688
     19.02497      4.22777      9.00000        -0.000377      0.002557     -0.519188
     16.91108      8.45554     11.11389        -0.007752      0.003988      0.498480
     19.02497     10.56943     11.11389        -0.003004      0.000192      0.504383
     16.91108     10.56943      9.00000        -0.014032      0.000241     -0.522371
     19.02497      8.45554      9.00000        -0.002724      0.001590     -0.520234
     16.91108     12.68331     11.11389        -0.009939     -0.002092      0.501458
     19.02497     14.79720     11.11389        -0.003058     -0.001927      0.506810
     16.91108     14.79720      9.00000        -0.008833     -0.006170     -0.519542
     19.02497     12.68331      9.00000        -0.004279     -0.002086     -0.519678
     16.91108     16.91108     11.11389        -0.004260     -0.004260      0.507032
     19.02497     19.02497     11.11389        -0.000981     -0.000981      0.508595
     16.91108     19.02497      9.00000        -0.002427     -0.002328     -0.518567
     19.02497     16.91108      9.00000        -0.002328     -0.002427     -0.518567
    total drift:                               -0.030250      0.015098     -0.699660

  FREE ENERGIE OF THE ION-ELECTRON SYSTEM (eV)
  free  energy   TOTEN  =     -1777.10529799 eV

  energy  without entropy=    -1777.10529799  energy(sigma->0) =    -1777.10529799