 vasp.6.4.0 14Feb23 (build Jul 14 2023 13:46:40) complex

 executed on             LinuxIFC date 2023.07.30  06:17:27

 INCAR:
   SYSTEM = MgO-rocksalt
   ISMEAR = 0
   SIGMA = 0.05
   EDIFF = 1E-6
   ALGO = ALL
   ISTART = 0
   IBRION = -1
   NSW = 0
   ISYM = 2
   DIPOL = 0.5 0.5 0.5
   IDIPOL = 3
   LDIPOL = .TRUE.
   METAGGA = TPSS
   ENCUT = 520
   PREC = Accurate
   LASPH = .TRUE.
   LREAL = Auto
   ISPIN = 1
   NELM = 200
   NELMIN = 8
   NCORE = 16
   KPAR = 1
   LWAVE = .FALSE.
   LCHARG = .FALSE.

 POTCAR:    PAW_PBE Cu 22Jun2005
 POTCAR:    PAW_PBE Mg_pv 13Apr2007
 POTCAR:    PAW_PBE O 08Apr2002
 POTCAR:    PAW_PBE Cu 22Jun2005
   VRHFIN =Cu: d10 p1

   TITEL  = PAW_PBE Cu 22Jun2005
   POMASS =   63.546; ZVAL   =   11.000    mass and valenz
   ENMAX  =  295.446; ENMIN  =  221.585 eV

   TITEL  = PAW_PBE Mg_pv 13Apr2007
   POMASS =   24.305; ZVAL   =    8.000    mass and valenz
   ENMAX  =  403.929; ENMIN  =  302.947 eV

   TITEL  = PAW_PBE O 08Apr2002
   POMASS =   16.000; ZVAL   =    6.000    mass and valenz
   ENMAX  =  400.000; ENMIN  =  300.000 eV

 Optimization of the real space projectors (new method)

 maximal supplied QI-value         = 16.25
 optimisation between [QCUT,QGAM] = [ 11.54, 23.24] = [ 37.28,151.24] Ry
 Optimized for a Real-space Cutoff    1.53 Angstroem

   l    n(q)    QCUT    max X(q) W(low)/X(q) W(high)/X(q)  e(spline)
   2     10    11.539     4.610    0.96E-04    0.13E-03    0.19E-06
   2     10    11.539     8.522    0.16E-03    0.21E-03    0.28E-06
   0     11    11.539    51.609    0.45E-04    0.31E-04    0.11E-06
   0     11    11.539    27.747    0.39E-04    0.29E-04    0.10E-06
   1     10    11.539    20.408    0.70E-05    0.38E-04    0.18E-06
   1     10    11.539    13.425    0.66E-05    0.34E-04    0.17E-06
 Optimization of the real space projectors (new method)

[...]

   l    n(q)    QCUT    max X(q) W(low)/X(q) W(high)/X(q)  e(spline)
   1      8    11.527     2.974    0.44E-04    0.56E-04    0.12E-06
   1      8    11.527     4.279    0.12E-03    0.12E-03    0.26E-06
   0      9    11.527    16.381    0.46E-04    0.64E-04    0.78E-07
   0      9    11.527     5.611    0.26E-04    0.43E-04    0.55E-07
   2      8    11.527     4.652    0.22E-03    0.72E-04    0.47E-07
 Optimization of the real space projectors (new method)

 maximal supplied QI-value         = 24.76
 optimisation between [QCUT,QGAM] = [ 11.64, 23.27] = [ 37.91,151.63] Ry
 Optimized for a Real-space Cutoff    1.14 Angstroem

   l    n(q)    QCUT    max X(q) W(low)/X(q) W(high)/X(q)  e(spline)
   0      8    11.635    20.381    0.10E-03    0.33E-03    0.24E-06
   0      8    11.635    15.268    0.11E-03    0.35E-03    0.26E-06
   1      7    11.635     5.964    0.24E-03    0.31E-03    0.30E-06
   1      7    11.635     5.382    0.22E-03    0.25E-03    0.26E-06
  PAW_PBE Cu 22Jun2005                  :
  PAW_PBE Mg_pv 13Apr2007               :
  PAW_PBE O 08Apr2002                   :

 POSCAR: Cu Mg  O
  positions in direct lattice

 METAGGA = TPSS                                        LMAXTAU =  6    LMIXTAU =  F

 ion  position               nearest neighbor table
   1  0.654  0.500  0.605-   2 2.30  73 2.54
   2  0.546  0.500  0.605-   1 2.30  73 2.54
   3  0.000  0.000  0.407- 105 2.11 106 2.11 121 2.11 186 2.11 103 2.11
   4  0.100  0.100  0.407- 105 2.11 106 2.11 110 2.11 125 2.11 104 2.11
   5  0.000  0.100  0.503- 103 2.11 104 2.11 107 2.11 184 2.11 105 2.11
   6  0.100  0.000  0.503- 103 2.11 104 2.11 120 2.11 123 2.11 106 2.11
   7  0.000  0.200  0.407- 109 2.11 105 2.11 110 2.11 190 2.11 107 2.11
   8  0.100  0.300  0.407- 110 2.11 109 2.11 114 2.11 129 2.11 108 2.11
   9  0.000  0.300  0.503- 107 2.11 108 2.11 111 2.11 188 2.11 109 2.11
  10  0.100  0.200  0.503- 108 2.11 107 2.11 104 2.11 127 2.11 110 2.11
  11  0.000  0.400  0.407- 109 2.11 113 2.11 114 2.11 194 2.11 111 2.11
  12  0.100  0.500  0.407- 113 2.11 114 2.11 118 2.11 133 2.11 112 2.11
  13  0.000  0.500  0.503- 111 2.11 112 2.11 115 2.11 192 2.11 113 2.11
  14  0.100  0.400  0.503- 108 2.11 111 2.11 112 2.11 131 2.11 114 2.11
  15  0.000  0.600  0.407- 113 2.11 117 2.11 118 2.11 198 2.11 115 2.11
  16  0.100  0.700  0.407- 122 2.11 118 2.11 117 2.11 137 2.11 116 2.11
  17  0.000  0.700  0.503- 119 2.11 116 2.11 115 2.11 196 2.11 117 2.11
  18  0.100  0.600  0.503- 112 2.11 115 2.11 116 2.11 135 2.11 118 2.11
  19  0.000  0.800  0.407- 117 2.11 121 2.11 122 2.11 202 2.11 119 2.11
  20  0.100  0.900  0.407- 106 2.11 121 2.11 122 2.11 141 2.11 120 2.11
  21  0.000  0.900  0.503- 103 2.11 119 2.11 120 2.11 200 2.11 121 2.11
  22  0.100  0.800  0.503- 116 2.11 119 2.11 120 2.11 139 2.11 122 2.11
  23  0.200  0.000  0.407- 126 2.11 125 2.11 106 2.11 141 2.11 123 2.11
  24  0.300  0.100  0.407- 125 2.11 126 2.11 130 2.11 145 2.11 124 2.11
  25  0.200  0.100  0.503- 124 2.11 123 2.11 104 2.11 127 2.11 125 2.11
  26  0.300  0.000  0.503- 123 2.11 124 2.11 140 2.11 143 2.11 126 2.11
  27  0.200  0.200  0.407- 129 2.11 130 2.11 110 2.11 125 2.11 127 2.11
  28  0.300  0.300  0.407- 129 2.11 130 2.11 134 2.11 149 2.11 128 2.11
  29  0.200  0.300  0.503- 127 2.11 128 2.11 108 2.11 131 2.11 129 2.11
  30  0.300  0.200  0.503- 127 2.11 128 2.11 124 2.11 147 2.11 130 2.11
  31  0.200  0.400  0.407- 134 2.11 129 2.11 133 2.11 114 2.11 131 2.11
  32  0.300  0.500  0.407- 133 2.11 134 2.11 138 2.11 153 2.11 132 2.11
  33  0.200  0.500  0.503- 132 2.11 131 2.11 112 2.11 135 2.11 133 2.11
  34  0.300  0.400  0.503- 131 2.11 128 2.11 132 2.11 151 2.11 134 2.11
  35  0.200  0.600  0.407- 138 2.11 133 2.11 137 2.11 118 2.11 135 2.11
  36  0.300  0.700  0.407- 137 2.11 142 2.11 138 2.11 157 2.11 136 2.11
  37  0.200  0.700  0.503- 136 2.11 139 2.11 116 2.11 135 2.11 137 2.11
  38  0.300  0.600  0.503- 135 2.11 132 2.11 136 2.11 155 2.11 138 2.11
  39  0.200  0.800  0.407- 137 2.11 142 2.11 141 2.11 122 2.11 139 2.11
  40  0.300  0.900  0.407- 141 2.11 126 2.11 142 2.11 161 2.11 140 2.11
  41  0.200  0.900  0.503- 140 2.11 123 2.11 139 2.11 120 2.11 141 2.11
  42  0.300  0.800  0.503- 136 2.11 139 2.11 140 2.11 159 2.11 142 2.11
  43  0.400  0.000  0.407- 126 2.11 145 2.11 146 2.11 161 2.11 143 2.11
  44  0.500  0.100  0.407- 145 2.11 146 2.11 150 2.11 165 2.11 144 2.11
  45  0.400  0.100  0.503- 124 2.11 143 2.11 144 2.11 147 2.11 145 2.11
  46  0.500  0.000  0.503- 143 2.11 144 2.11 160 2.11 163 2.11 146 2.11
  47  0.400  0.200  0.407- 149 2.11 145 2.11 130 2.11 150 2.11 147 2.11
  48  0.500  0.300  0.407- 150 2.11 149 2.11 154 2.11 169 2.11 148 2.11
  49  0.400  0.300  0.503- 147 2.11 128 2.11 148 2.11 151 2.11 149 2.11
  50  0.500  0.200  0.503- 148 2.11 147 2.11 144 2.11 167 2.11 150 2.11
  51  0.400  0.400  0.407- 134 2.11 149 2.11 153 2.11 154 2.11 151 2.11
  52  0.500  0.500  0.407- 153 2.11 154 2.11 158 2.11 173 2.11 152 2.11
  53  0.400  0.500  0.503- 132 2.11 151 2.11 152 2.11 155 2.11 153 2.11
  54  0.500  0.400  0.503- 148 2.11 151 2.11 152 2.11 171 2.11 154 2.11
  55  0.400  0.600  0.407- 138 2.11 153 2.11 157 2.11 158 2.11 155 2.11
  56  0.500  0.700  0.407- 162 2.11 158 2.11 157 2.11 177 2.11 156 2.11
  57  0.400  0.700  0.503- 159 2.11 155 2.11 156 2.11 136 2.11 157 2.11
  58  0.500  0.600  0.503- 152 2.11 155 2.11 156 2.11 175 2.11 158 2.11
  59  0.400  0.800  0.407- 157 2.11 142 2.11 161 2.11 162 2.11 159 2.11
  60  0.500  0.900  0.407- 146 2.11 161 2.11 162 2.11 181 2.11 160 2.11
[...]
 188  0.900  0.300  0.503-  90 2.11  89 2.11   9 2.11  94 2.11  88 2.11
 189  0.800  0.300  0.407-  68 2.11  87 2.11  88 2.11  91 2.11  89 2.11
 190  0.900  0.200  0.407-  88 2.11  84 2.11  87 2.11   7 2.11  90 2.11
 191  0.800  0.400  0.503-  74 2.11  89 2.11  93 2.11  94 2.11  91 2.11
 192  0.900  0.500  0.503-  13 2.11  93 2.11  94 2.11  98 2.11  92 2.11
 193  0.800  0.500  0.407-  72 2.11  91 2.11  92 2.11  95 2.11  93 2.11
 194  0.900  0.400  0.407-  11 2.11  88 2.11  91 2.11  92 2.11  94 2.11
 195  0.800  0.600  0.503-  78 2.11  93 2.11  97 2.11  98 2.11  95 2.11
 196  0.900  0.700  0.503- 102 2.11  97 2.11  98 2.11  17 2.11  96 2.11
 197  0.800  0.700  0.407-  76 2.11  99 2.11  96 2.11  95 2.11  97 2.11
 198  0.900  0.600  0.407-  15 2.11  92 2.11  95 2.11  96 2.11  98 2.11
 199  0.800  0.800  0.503-  82 2.11  97 2.11 101 2.11 102 2.11  99 2.11
 200  0.900  0.900  0.503-  21 2.11  86 2.11 101 2.11 102 2.11 100 2.11
 201  0.800  0.900  0.407-  80 2.11  83 2.11  99 2.11 100 2.11 101 2.11
 202  0.900  0.800  0.407-  96 2.11  19 2.11  99 2.11 100 2.11 102 2.11

  LATTYP: Found a simple tetragonal cell.
 ALAT       =    21.1388521970
 C/A-ratio  =     1.0461251639

  Lattice vectors:

 A1 = (  21.1388521970,   0.0000000000,   0.0000000000)
 A2 = (   0.0000000000,  21.1388521970,   0.0000000000)
 A3 = (   0.0000000000,   0.0000000000,  22.1138852197)

Analysis of symmetry for initial positions (statically):
 Subroutine PRICEL returns:
 Original cell was already a primitive cell.

 Routine SETGRP: Setting up the symmetry group for a
 simple tetragonal supercell.

 Subroutine GETGRP returns: Found  4 space group operations
 (whereof  2 operations were pure point group operations)
 out of a pool of 16 trial point group operations.

The static configuration has the point symmetry C_1h.
 The point group associated with its full space group is C_2v.

Analysis of symmetry for dynamics (positions and initial velocities):
 Subroutine PRICEL returns:
 Original cell was already a primitive cell.

 Routine SETGRP: Setting up the symmetry group for a
 simple tetragonal supercell.

 Subroutine GETGRP returns: Found  4 space group operations
 (whereof  2 operations were pure point group operations)
 out of a pool of 16 trial point group operations.

The dynamic configuration has the point symmetry C_1h.
 The point group associated with its full space group is C_2v.

 Subroutine INISYM returns: Found  4 space group operations
 (whereof  2 operations are pure point group operations),
 and found     1 'primitive' translations

                                     Primitive cell

  volume of cell :    9881.6133

  direct lattice vectors                    reciprocal lattice vectors
    21.138852197  0.000000000  0.000000000     0.047306258  0.000000000  0.000000000
     0.000000000 21.138852197  0.000000000     0.000000000  0.047306258  0.000000000
     0.000000000  0.000000000 22.113885220     0.000000000  0.000000000  0.045220457

  length of vectors
    21.138852197 21.138852197 22.113885220     0.047306258  0.047306258  0.045220457

  position of ions in fractional coordinates (direct lattice)
     0.654285265  0.500000000  0.605295840
     0.545714664  0.500000000  0.605295840
     0.000000000  0.000000000  0.406984115
     0.100000000  0.100000000  0.406984115
     0.000000000  0.100000000  0.502574971
     0.100000000  0.000000000  0.502574971
     0.000000000  0.200000000  0.406984115
     0.100000000  0.300000000  0.406984115
     0.000000000  0.300000000  0.502574971
     0.100000000  0.200000000  0.502574971
     0.000000000  0.400000000  0.406984115
     0.100000000  0.500000000  0.406984115
     0.000000000  0.500000000  0.502574971
     0.100000000  0.400000000  0.502574971
     0.000000000  0.600000000  0.406984115
[...]
     52     -43.3257      2.00000
     53     -43.3254      2.00000
     54     -43.3240      2.00000
     55     -43.3236      2.00000
     56     -43.3227      2.00000
     57     -43.3222      2.00000
     58     -43.3220      2.00000
     59     -43.3214      2.00000
     60     -43.3197      2.00000
[...]
    850       4.0940      0.00000
    851       4.1247      0.00000
    852       4.1679      0.00000
    853       4.2200      0.00000
    854       4.2455      0.00000
    855       4.3039      0.00000
    856       4.3538      0.00000
    857       4.3737      0.00000
    858       4.3894      0.00000
    859       4.4206      0.00000
    860       4.4564      0.00000
    861       4.4664      0.00000
    862       4.4960      0.00000
    863       4.5477      0.00000
    864       4.5777      0.00000

 soft charge-density along one line, spin component           1
         0         1         2         3         4         5         6         7         8         9
 total charge-density along one line

------------------------ aborting loop because EDIFF is reached ----------------------------------------

  FORCE on cell =-STRESS in cart. coord.  units (eV):
  Direction    XX          YY          ZZ          XY          YZ          ZX
  Alpha Z  1354.41543  1354.41543  1354.41543
  Ewald  481679.40439480877.94746************     0.00000     0.00000     0.00004
  Hartree510540.63904509934.81712************    -0.00000     0.00000     0.00001
  E(xc)   -8232.28390 -8232.40026 -8257.97687    -0.00000    -0.00000    -0.00000
  Local  ************************************     0.00000    -0.00000    -0.00005
  n-local -8992.23008 -8989.50513 -9116.06448     0.00002     0.00005     0.00001
  augment  3993.87262  3997.86119  3941.52329    -0.00000     0.00000    -0.00000
  Kinetic 22893.33788 22898.10384 23141.96118    -0.00002    -0.00006    -0.00008
  Fock        0.00000     0.00000     0.00000     0.00000     0.00000     0.00000
  Total    -166.63698  -165.68579     7.92819     0.00000     0.00000     0.00000
  in kB     -27.01806   -26.86383     1.28545     0.00000     0.00000     0.00000

 VOLUME and BASIS-vectors are now :
  energy-cutoff  :      520.00
  volume of cell :     9881.61
      direct lattice vectors                 reciprocal lattice vectors
    21.138852197  0.000000000  0.000000000     0.047306258  0.000000000  0.000000000
     0.000000000 21.138852197  0.000000000     0.000000000  0.047306258  0.000000000
     0.000000000  0.000000000 22.113885220     0.000000000  0.000000000  0.045220457

  length of vectors
    21.138852197 21.138852197 22.113885220     0.047306258  0.047306258  0.045220457

 FORCES acting on ions:
    Electron-Ion                     Ewald-Force                    Non-Local-Force
   -.345E+03 -.101E-05 -.218E+04   0.333E+03 0.354E-07 0.218E+04   0.116E+02 0.485E-21 -.149E+01
   0.345E+03 -.562E-06 -.218E+04   -.333E+03 0.354E-07 0.218E+04   -.116E+02 -.490E-21 -.149E+01
   -.344E+01 0.484E-06 0.932E+03   0.344E+01 0.858E-08 -.923E+03   0.442E-02 0.738E-22 -.792E+01
   -.185E-03 0.376E+01 0.932E+03   -.150E-05 -.378E+01 -.923E+03   -.425E-20 0.134E-01 -.792E+01
   -.494E+01 0.535E+01 -.923E+03   0.493E+01 -.537E+01 0.915E+03   0.626E-02 0.152E-01 0.788E+01
   -.184E-03 0.483E-06 -.924E+03   -.153E-05 0.889E-08 0.916E+03   0.114E-20 -.141E-21 0.788E+01
   -.585E+01 0.758E+01 0.934E+03   0.585E+01 -.762E+01 -.925E+03   -.136E-02 0.289E-01 -.792E+01
   -.183E-03 0.683E+01 0.935E+03   -.312E-05 -.686E+01 -.926E+03   0.152E-20 0.255E-01 -.793E+01
   -.119E+02 0.108E+02 -.920E+03   0.119E+02 -.109E+02 0.912E+03   -.161E-01 0.323E-01 0.788E+01
   -.183E-03 0.776E+01 -.923E+03   -.273E-05 -.779E+01 0.915E+03   -.369E-21 0.224E-01 0.788E+01
   -.117E+02 0.564E+01 0.939E+03   0.117E+02 -.567E+01 -.930E+03   -.425E-01 0.235E-01 -.793E+01
   -.182E-03 0.498E-06 0.937E+03   -.454E-05 -.921E-08 -.928E+03   0.124E-20 0.379E-23 -.793E+01
   -.191E+02 0.480E-06 -.917E+03   0.192E+02 -.160E-07 0.909E+03   -.604E-01 0.163E-22 0.788E+01
   -.180E-03 0.559E+01 -.920E+03   -.571E-05 -.561E+01 0.912E+03   0.486E-20 0.163E-01 0.788E+01
   -.117E+02 -.564E+01 0.939E+03   0.117E+02 0.567E+01 -.930E+03   -.425E-01 -.235E-01 -.793E+01
   -.183E-03 -.683E+01 0.935E+03   -.312E-05 0.686E+01 -.926E+03   -.649E-21 -.255E-01 -.793E+01
   -.119E+02 -.108E+02 -.920E+03   0.119E+02 0.109E+02 0.912E+03   -.161E-01 -.323E-01 0.788E+01
   -.180E-03 -.559E+01 -.920E+03   -.571E-05 0.561E+01 0.912E+03   -.385E-20 -.163E-01 0.788E+01
   -.585E+01 -.758E+01 0.934E+03   0.585E+01 0.762E+01 -.925E+03   -.136E-02 -.289E-01 -.792E+01
   -.185E-03 -.376E+01 0.932E+03   -.150E-05 0.378E+01 -.923E+03   0.362E-20 -.134E-01 -.792E+01
   -.494E+01 -.535E+01 -.923E+03   0.493E+01 0.537E+01 0.915E+03   0.626E-02 -.152E-01 0.788E+01
   -.183E-03 -.776E+01 -.923E+03   -.273E-05 0.779E+01 0.915E+03   -.729E-21 -.224E-01 0.788E+01
   0.344E+01 0.483E-06 0.932E+03   -.344E+01 0.858E-08 -.923E+03   -.442E-02 0.226E-24 -.792E+01
   0.691E+01 0.613E+01 0.934E+03   -.690E+01 -.615E+01 -.925E+03   -.787E-02 0.201E-01 -.793E+01
   0.494E+01 0.535E+01 -.923E+03   -.493E+01 -.537E+01 0.915E+03   -.626E-02 0.152E-01 0.788E+01
   0.695E+01 0.477E-06 -.923E+03   -.694E+01 0.150E-07 0.915E+03   -.109E-01 0.448E-23 0.788E+01
   0.585E+01 0.758E+01 0.934E+03   -.585E+01 -.762E+01 -.925E+03   0.136E-02 0.289E-01 -.792E+01
   0.167E+02 0.135E+02 0.942E+03   -.167E+02 -.135E+02 -.933E+03   0.214E-01 0.650E-01 -.792E+01
   0.119E+02 0.108E+02 -.920E+03   -.119E+02 -.109E+02 0.912E+03   0.161E-01 0.323E-01 0.788E+01
   0.140E+02 0.151E+02 -.920E+03   -.140E+02 -.152E+02 0.912E+03   -.159E-01 0.463E-01 0.788E+01
   0.117E+02 0.564E+01 0.939E+03   -.117E+02 -.567E+01 -.930E+03   0.425E-01 0.235E-01 -.793E+01
   0.274E+02 0.536E-06 0.950E+03   -.276E+02 -.216E-07 -.942E+03   0.168E+00 -.815E-22 -.794E+01
   0.191E+02 0.527E-06 -.917E+03   -.192E+02 -.160E-07 0.909E+03   0.604E-01 -.720E-23 0.788E+01
   0.388E+02 0.157E+02 -.909E+03   -.389E+02 -.158E+02 0.901E+03   0.121E+00 0.509E-01 0.788E+01
   0.117E+02 -.564E+01 0.939E+03   -.117E+02 0.567E+01 -.930E+03   0.425E-01 -.235E-01 -.793E+01
   0.167E+02 -.135E+02 0.942E+03   -.167E+02 0.135E+02 -.933E+03   0.214E-01 -.650E-01 -.792E+01
   0.119E+02 -.108E+02 -.920E+03   -.119E+02 0.109E+02 0.912E+03   0.161E-01 -.323E-01 0.788E+01
   0.388E+02 -.157E+02 -.909E+03   -.389E+02 0.158E+02 0.901E+03   0.121E+00 -.509E-01 0.788E+01
   0.585E+01 -.758E+01 0.934E+03   -.585E+01 0.762E+01 -.925E+03   0.136E-02 -.289E-01 -.792E+01
   0.691E+01 -.613E+01 0.934E+03   -.690E+01 0.615E+01 -.925E+03   -.787E-02 -.201E-01 -.793E+01
   0.494E+01 -.535E+01 -.923E+03   -.493E+01 0.537E+01 0.915E+03   -.626E-02 -.152E-01 0.788E+01
   0.140E+02 -.151E+02 -.920E+03   -.140E+02 0.152E+02 0.912E+03   -.159E-01 -.463E-01 0.788E+01
   0.606E+01 0.476E-06 0.934E+03   -.604E+01 0.165E-07 -.926E+03   -.941E-02 0.746E-22 -.793E+01
   0.486E+01 0.113E+02 0.938E+03   -.485E+01 -.113E+02 -.929E+03   -.785E-02 0.178E-01 -.793E+01
   0.940E+01 0.118E+02 -.921E+03   -.938E+01 -.118E+02 0.912E+03   -.154E-01 0.123E-01 0.788E+01
   0.477E+01 0.466E-06 -.921E+03   -.476E+01 0.283E-07 0.913E+03   -.847E-02 -.506E-22 0.788E+01
   0.120E+02 0.171E+02 0.941E+03   -.120E+02 -.172E+02 -.933E+03   -.122E-01 0.626E-01 -.794E+01
   0.160E+02 0.345E+02 0.964E+03   -.160E+02 -.348E+02 -.955E+03   -.171E-01 0.193E+00 -.802E+01
   0.349E+02 0.387E+02 -.905E+03   -.348E+02 -.389E+02 0.897E+03   -.648E-01 0.173E+00 0.786E+01
   0.123E+02 0.364E+02 -.912E+03   -.123E+02 -.364E+02 0.904E+03   -.238E-01 0.423E-02 0.786E+01
   0.337E+02 0.191E+02 0.967E+03   -.338E+02 -.193E+02 -.959E+03   0.882E-01 0.146E+00 -.787E+01
   0.367E+02 0.646E-06 0.102E+04   -.367E+02 -.829E-07 -.101E+04   0.534E-01 0.237E-21 -.674E+01
   0.975E+02 0.691E-06 -.863E+03   -.986E+02 -.112E-06 0.854E+03   0.862E+00 -.681E-22 0.799E+01
   0.790E+02 0.104E+03 -.813E+03   -.786E+02 -.105E+03 0.805E+03   -.290E+00 0.908E+00 0.746E+01
   0.337E+02 -.191E+02 0.967E+03   -.338E+02 0.193E+02 -.959E+03   0.882E-01 -.146E+00 -.787E+01
   0.160E+02 -.345E+02 0.964E+03   -.160E+02 0.348E+02 -.955E+03   -.171E-01 -.193E+00 -.802E+01
   0.349E+02 -.387E+02 -.905E+03   -.348E+02 0.389E+02 0.897E+03   -.648E-01 -.173E+00 0.786E+01
   0.790E+02 -.104E+03 -.813E+03   -.786E+02 0.105E+03 0.805E+03   -.290E+00 -.908E+00 0.746E+01
   0.120E+02 -.171E+02 0.941E+03   -.120E+02 0.172E+02 -.933E+03   -.122E-01 -.626E-01 -.794E+01
   0.486E+01 -.113E+02 0.938E+03   -.485E+01 0.113E+02 -.929E+03   -.785E-02 -.178E-01 -.793E+01
[...]
   -.158E+02 0.172E+02 0.715E+03   0.158E+02 -.173E+02 -.719E+03   -.871E-02 0.124E+00 0.351E+01
   -.786E+01 0.844E+01 0.704E+03   0.786E+01 -.847E+01 -.708E+03   -.126E-02 0.436E-01 0.351E+01
   -.525E+02 0.307E+02 -.663E+03   0.526E+02 -.310E+02 0.667E+03   -.182E+00 0.344E+00 -.361E+01
   -.351E+02 0.235E-05 -.681E+03   0.352E+02 -.268E-07 0.685E+03   -.137E+00 -.173E-21 -.359E+01
   -.306E+02 0.236E-05 0.733E+03   0.308E+02 -.335E-07 -.737E+03   -.304E+00 -.434E-22 0.376E+01
   -.179E+02 0.742E+01 0.712E+03   0.180E+02 -.747E+01 -.716E+03   -.870E-01 0.752E-01 0.353E+01
   -.525E+02 -.307E+02 -.663E+03   0.526E+02 0.310E+02 0.667E+03   -.182E+00 -.344E+00 -.361E+01
   -.184E+02 -.146E+02 -.688E+03   0.184E+02 0.147E+02 0.692E+03   -.387E-01 -.880E-01 -.359E+01
   -.158E+02 -.172E+02 0.715E+03   0.158E+02 0.173E+02 -.719E+03   -.871E-02 -.124E+00 0.351E+01
   -.179E+02 -.742E+01 0.712E+03   0.180E+02 0.747E+01 -.716E+03   -.870E-01 -.752E-01 0.353E+01
   -.127E+02 -.187E+02 -.688E+03   0.127E+02 0.188E+02 0.692E+03   0.323E-01 -.319E-01 -.360E+01
   -.643E+01 -.592E+01 -.693E+03   0.642E+01 0.593E+01 0.697E+03   0.120E-01 -.145E-01 -.357E+01
   -.556E+01 -.657E+01 0.703E+03   0.555E+01 0.659E+01 -.707E+03   0.120E-01 -.170E-01 0.351E+01
   -.786E+01 -.844E+01 0.704E+03   0.786E+01 0.847E+01 -.708E+03   -.126E-02 -.436E-01 0.351E+01
   -.110E+00 0.289E-03 0.123E+02   0.327E-11 -.888E-12 0.341E-12   0.163E-15 -.229E-15 -.130E+02

 POSITION                                       TOTAL-FORCE (eV/Angst)
     13.83084     10.56943     13.38544        -0.067541      0.000000     -0.006663
     11.53578     10.56943     13.38544         0.067541      0.000000     -0.006663
      0.00000      0.00000      9.00000        -0.001215      0.000000      0.405333
      2.11389      2.11389      9.00000         0.000000     -0.003709      0.405046
      0.00000      2.11389     11.11389        -0.001687     -0.004056     -0.394480
      2.11389      0.00000     11.11389        -0.000000      0.000000     -0.395014
      0.00000      4.22777      9.00000         0.000527     -0.008000      0.404964
      2.11389      6.34166      9.00000        -0.000000     -0.007307      0.404906
      0.00000      6.34166     11.11389         0.004229     -0.009188     -0.392778
      2.11389      4.22777     11.11389         0.000000     -0.006191     -0.394243
      0.00000      8.45554      9.00000         0.011352     -0.006987      0.404893
      2.11389     10.56943      9.00000        -0.000000      0.000000      0.405098
      0.00000     10.56943     11.11389         0.015277      0.000000     -0.392262
      2.11389      8.45554     11.11389         0.000000     -0.004724     -0.393254
      0.00000     12.68331      9.00000         0.011352      0.006987      0.404893
      2.11389     14.79720      9.00000        -0.000000      0.007307      0.404906
      0.00000     14.79720     11.11389         0.004229      0.009188     -0.392778
      2.11389     12.68331     11.11389         0.000000      0.004724     -0.393254
      0.00000     16.91108      9.00000         0.000527      0.008000      0.404964
      2.11389     19.02497      9.00000        -0.000000      0.003709      0.405046
      0.00000     19.02497     11.11389        -0.001687      0.004056     -0.394480
      2.11389     16.91108     11.11389        -0.000000      0.006191     -0.394243
      4.22777      0.00000      9.00000         0.001215      0.000000      0.405333
      6.34166      2.11389      9.00000         0.002163     -0.005299      0.406025
      4.22777      2.11389     11.11389         0.001687     -0.004056     -0.394480
      6.34166      0.00000     11.11389         0.003080      0.000000     -0.394108
      4.22777      4.22777      9.00000        -0.000527     -0.008000      0.404964
      6.34166      6.34166      9.00000        -0.006947     -0.018657      0.403670
      4.22777      6.34166     11.11389        -0.004229     -0.009188     -0.392778
      6.34166      4.22777     11.11389         0.004169     -0.012095     -0.391734
      4.22777      8.45554      9.00000        -0.011352     -0.006987      0.404893
      6.34166     10.56943      9.00000        -0.042615      0.000000      0.404814
      4.22777     10.56943     11.11389        -0.015277      0.000000     -0.392262
      6.34166      8.45554     11.11389        -0.032667     -0.015718     -0.389176
      4.22777     12.68331      9.00000        -0.011352      0.006987      0.404893
      6.34166     14.79720      9.00000        -0.006947      0.018657      0.403670
      4.22777     14.79720     11.11389        -0.004229      0.009188     -0.392778
      6.34166     12.68331     11.11389        -0.032667      0.015718     -0.389176
      4.22777     16.91108      9.00000        -0.000527      0.008000      0.404964
      6.34166     19.02497      9.00000         0.002163      0.005299      0.406025
      4.22777     19.02497     11.11389         0.001687      0.004056     -0.394480
      6.34166     16.91108     11.11389         0.004169      0.012095     -0.391734
      8.45554      0.00000      9.00000         0.002686      0.000000      0.406415
     10.56943      2.11389      9.00000         0.002377     -0.004681      0.407864
      8.45554      2.11389     11.11389         0.004502     -0.002989     -0.391891
     10.56943      0.00000     11.11389         0.002498      0.000000     -0.392098
      8.45554      4.22777      9.00000         0.003545     -0.016086      0.409456
     10.56943      6.34166      9.00000         0.006872     -0.047278      0.426130
      8.45554      6.34166     11.11389         0.019011     -0.044103     -0.377951
     10.56943      4.22777     11.11389         0.007617      0.000624     -0.381375
      8.45554      8.45554      9.00000        -0.032323     -0.048560      0.383264
     10.56943     10.56943      9.00000         0.000055      0.000000      0.137655
      8.45554     10.56943     11.11389        -0.284518      0.000000     -0.418867
     10.56943      8.45554     11.11389         0.110682     -0.305541     -0.279970
      8.45554     12.68331      9.00000        -0.032323      0.048560      0.383264
     10.56943     14.79720      9.00000         0.006872      0.047278      0.426130
      8.45554     14.79720     11.11389         0.019011      0.044103     -0.377951
     10.56943     12.68331     11.11389         0.110682      0.305541     -0.279970
      8.45554     16.91108      9.00000         0.003545      0.016086      0.409456
     10.56943     19.02497      9.00000         0.002377      0.004681      0.407864
[...]
     19.02497      6.34166     11.11389        -0.011154      0.024668      0.503268
     16.91108      6.34166      9.00000        -0.002981      0.035315     -0.520600
     19.02497      4.22777      9.00000        -0.000419      0.012137     -0.519624
     16.91108      8.45554     11.11389        -0.057639      0.099334      0.504214
     19.02497     10.56943     11.11389        -0.039228      0.000000      0.503841
     16.91108     10.56943      9.00000        -0.098717      0.000000     -0.451487
     19.02497      8.45554      9.00000        -0.025000      0.020960     -0.514913
     16.91108     12.68331     11.11389        -0.057639     -0.099334      0.504214
     19.02497     14.79720     11.11389        -0.011154     -0.024668      0.503268
     16.91108     14.79720      9.00000        -0.002981     -0.035315     -0.520600
     19.02497     12.68331      9.00000        -0.025000     -0.020960     -0.514913
     16.91108     16.91108     11.11389         0.008645     -0.009207      0.499776
     19.02497     19.02497     11.11389         0.003267     -0.004040      0.506354
     16.91108     19.02497      9.00000         0.003227     -0.004770     -0.520555
     19.02497     16.91108      9.00000        -0.000419     -0.012137     -0.519624
    total drift:                               -0.109923      0.000289     -0.710076

  FREE ENERGIE OF THE ION-ELECTRON SYSTEM (eV)
  free  energy   TOTEN  =     -1776.92557456 eV

  energy  without entropy=    -1776.92557456  energy(sigma->0) =    -1776.92557456