 vasp.6.4.1 05Apr23 (build May 06 2023 19:47:20) complex

 executed on             LinuxIFC date 2023.07.04  02:19:17

 INCAR:
   SYSTEM = MgO-rocksalt
   ISMEAR = 0
   SIGMA = 0.05
   EDIFF = 1E-6
   ALGO = ALL
   ISTART = 0
   IBRION = -1
   NSW = 0
   ISYM = 2
   DIPOL = 0.5 0.5 0.5
   IDIPOL = 3
   LDIPOL = .TRUE.
   LHFCALC = .TRUE.
   GGA = B5
   AEXX = 0.2
   AGGAX = 0.72
   AGGAC = 0.81
   ALDAC = 0.19
   IVDW = 11
   VDW_S6 = 1.0
   VDW_SR = 1.261
   VDW_S8 = 1.703
   ENCUT = 520
   PREC = Accurate
   LASPH = .TRUE.
   LREAL = Auto
   ISPIN = 1
   NELM = 200
   NELMIN = 8
   NCORE = 16
   KPAR = 1
   LWAVE = .FALSE.
   LCHARG = .FALSE.

 POTCAR:    PAW_PBE Cu 22Jun2005
 POTCAR:    PAW_PBE Mg_pv 13Apr2007
 POTCAR:    PAW_PBE O 08Apr2002
|           W    W    AA    RRRRR   N    N  II  N    N   GGGG   !!!           |
|           W    W   A  A   R    R  NN   N  II  NN   N  G    G  !!!           |
|           W    W  A    A  R    R  N N  N  II  N N  N  G       !!!           |
|           W WW W  AAAAAA  RRRRR   N  N N  II  N  N N  G  GGG   !            |
|           WW  WW  A    A  R   R   N   NN  II  N   NN  G    G                |
|           W    W  A    A  R    R  N    N  II  N    N   GGGG   !!!           |
|     You have selected ISYM=2 for a HF type calculation. This will           |
|     symmetrize the charge density but not the exchange potential. I         |
|     suggest to use ISYM=3 instead. This uses symmetry to obtain the         |
|     orbitals at all k-points in the Brillouin zone, but does not apply      |
|     symmetry to the Hartree potential directly. The resultant charge        |
|     might have lower symmetry than the crystal but, at least, Hartree       |
|     and exchange are fully compatible.                                      |

   TITEL  = PAW_PBE Cu 22Jun2005
   POMASS =   63.546; ZVAL   =   11.000    mass and valenz
   ENMAX  =  295.446; ENMIN  =  221.585 eV

   TITEL  = PAW_PBE Mg_pv 13Apr2007
   POMASS =   24.305; ZVAL   =    8.000    mass and valenz
   ENMAX  =  403.929; ENMIN  =  302.947 eV

   TITEL  = PAW_PBE O 08Apr2002
   POMASS =   16.000; ZVAL   =    6.000    mass and valenz
   ENMAX  =  400.000; ENMIN  =  300.000 eV

 Optimization of the real space projectors (new method)

 maximal supplied QI-value         = 16.25
 optimisation between [QCUT,QGAM] = [ 11.54, 23.24] = [ 37.28,151.24] Ry
 Optimized for a Real-space Cutoff    1.53 Angstroem

   l    n(q)    QCUT    max X(q) W(low)/X(q) W(high)/X(q)  e(spline)
   2     10    11.539     4.610    0.96E-04    0.13E-03    0.19E-06
   2     10    11.539     8.522    0.16E-03    0.21E-03    0.28E-06
   0     11    11.539    51.609    0.45E-04    0.31E-04    0.11E-06
   0     11    11.539    27.747    0.39E-04    0.29E-04    0.10E-06
   1     10    11.539    20.408    0.70E-05    0.38E-04    0.18E-06
   1     10    11.539    13.425    0.66E-05    0.34E-04    0.17E-06
 Optimization of the real space projectors (new method)

[...]

   l    n(q)    QCUT    max X(q) W(low)/X(q) W(high)/X(q)  e(spline)
   1      8    11.527     2.974    0.44E-04    0.56E-04    0.12E-06
   1      8    11.527     4.279    0.12E-03    0.12E-03    0.26E-06
   0      9    11.527    16.381    0.46E-04    0.64E-04    0.78E-07
   0      9    11.527     5.611    0.26E-04    0.43E-04    0.55E-07
   2      8    11.527     4.652    0.22E-03    0.72E-04    0.47E-07
 Optimization of the real space projectors (new method)

 maximal supplied QI-value         = 24.76
 optimisation between [QCUT,QGAM] = [ 11.64, 23.27] = [ 37.91,151.63] Ry
 Optimized for a Real-space Cutoff    1.14 Angstroem

   l    n(q)    QCUT    max X(q) W(low)/X(q) W(high)/X(q)  e(spline)
   0      8    11.635    20.381    0.10E-03    0.33E-03    0.24E-06
   0      8    11.635    15.268    0.11E-03    0.35E-03    0.26E-06
   1      7    11.635     5.964    0.24E-03    0.31E-03    0.30E-06
   1      7    11.635     5.382    0.22E-03    0.25E-03    0.26E-06
|               ----> ADVICE to this user running VASP <----                  |
|     You enforced a specific xc type in the INCAR file but a different       |
|     type was found in the POTCAR file.                                      |
|     I HOPE YOU KNOW WHAT YOU ARE DOING!                                     |

  PAW_PBE Cu 22Jun2005                  :
  PAW_PBE Mg_pv 13Apr2007               :
  PAW_PBE O 08Apr2002                   :

 POSCAR: Cu Mg  O
  positions in direct lattice
 exchange correlation table for  LEXCH =       12
   RHO(1)=    0.500       N(1)  =     2000
   RHO(2)=  100.500       N(2)  =     4000

 ion  position               nearest neighbor table
   1  0.500  0.500  0.691-   2 2.22
   2  0.500  0.500  0.590- 152 1.94   1 2.22
   3  0.000  0.000  0.407- 105 2.11 106 2.11 121 2.11 186 2.11 103 2.11
   4  0.100  0.100  0.407- 105 2.11 106 2.11 110 2.11 125 2.11 104 2.11
   5  0.000  0.100  0.503- 103 2.11 104 2.11 107 2.11 184 2.11 105 2.11
   6  0.100  0.000  0.503- 103 2.11 104 2.11 120 2.11 123 2.11 106 2.11
   7  0.000  0.200  0.407- 109 2.11 105 2.11 110 2.11 190 2.11 107 2.11
   8  0.100  0.300  0.407- 110 2.11 109 2.11 114 2.11 129 2.11 108 2.11
   9  0.000  0.300  0.503- 107 2.11 108 2.11 111 2.11 188 2.11 109 2.11
  10  0.100  0.200  0.503- 108 2.11 107 2.11 104 2.11 127 2.11 110 2.11
  11  0.000  0.400  0.407- 109 2.11 113 2.11 114 2.11 194 2.11 111 2.11
  12  0.100  0.500  0.407- 113 2.11 114 2.11 118 2.11 133 2.11 112 2.11
  13  0.000  0.500  0.503- 111 2.11 112 2.11 115 2.11 192 2.11 113 2.11
  14  0.100  0.400  0.503- 108 2.11 111 2.11 112 2.11 131 2.11 114 2.11
  15  0.000  0.600  0.407- 113 2.11 117 2.11 118 2.11 198 2.11 115 2.11
  16  0.100  0.700  0.407- 122 2.11 118 2.11 117 2.11 137 2.11 116 2.11
  17  0.000  0.700  0.503- 119 2.11 116 2.11 115 2.11 196 2.11 117 2.11
  18  0.100  0.600  0.503- 112 2.11 115 2.11 116 2.11 135 2.11 118 2.11
  19  0.000  0.800  0.407- 117 2.11 121 2.11 122 2.11 202 2.11 119 2.11
  20  0.100  0.900  0.407- 106 2.11 121 2.11 122 2.11 141 2.11 120 2.11
  21  0.000  0.900  0.503- 103 2.11 119 2.11 120 2.11 200 2.11 121 2.11
  22  0.100  0.800  0.503- 116 2.11 119 2.11 120 2.11 139 2.11 122 2.11
  23  0.200  0.000  0.407- 126 2.11 125 2.11 106 2.11 141 2.11 123 2.11
  24  0.300  0.100  0.407- 125 2.11 126 2.11 130 2.11 145 2.11 124 2.11
  25  0.200  0.100  0.503- 124 2.11 123 2.11 104 2.11 127 2.11 125 2.11
  26  0.300  0.000  0.503- 123 2.11 124 2.11 140 2.11 143 2.11 126 2.11
  27  0.200  0.200  0.407- 129 2.11 130 2.11 110 2.11 125 2.11 127 2.11
  28  0.300  0.300  0.407- 129 2.11 130 2.11 134 2.11 149 2.11 128 2.11
  29  0.200  0.300  0.503- 127 2.11 128 2.11 108 2.11 131 2.11 129 2.11
  30  0.300  0.200  0.503- 127 2.11 128 2.11 124 2.11 147 2.11 130 2.11
  31  0.200  0.400  0.407- 134 2.11 129 2.11 133 2.11 114 2.11 131 2.11
  32  0.300  0.500  0.407- 133 2.11 134 2.11 138 2.11 153 2.11 132 2.11
  33  0.200  0.500  0.503- 132 2.11 131 2.11 112 2.11 135 2.11 133 2.11
  34  0.300  0.400  0.503- 131 2.11 128 2.11 132 2.11 151 2.11 134 2.11
  35  0.200  0.600  0.407- 138 2.11 133 2.11 137 2.11 118 2.11 135 2.11
  36  0.300  0.700  0.407- 137 2.11 142 2.11 138 2.11 157 2.11 136 2.11
  37  0.200  0.700  0.503- 136 2.11 139 2.11 116 2.11 135 2.11 137 2.11
  38  0.300  0.600  0.503- 135 2.11 132 2.11 136 2.11 155 2.11 138 2.11
  39  0.200  0.800  0.407- 137 2.11 142 2.11 141 2.11 122 2.11 139 2.11
  40  0.300  0.900  0.407- 141 2.11 126 2.11 142 2.11 161 2.11 140 2.11
  41  0.200  0.900  0.503- 140 2.11 123 2.11 139 2.11 120 2.11 141 2.11
  42  0.300  0.800  0.503- 136 2.11 139 2.11 140 2.11 159 2.11 142 2.11
  43  0.400  0.000  0.407- 126 2.11 145 2.11 146 2.11 161 2.11 143 2.11
  44  0.500  0.100  0.407- 145 2.11 146 2.11 150 2.11 165 2.11 144 2.11
  45  0.400  0.100  0.503- 124 2.11 143 2.11 144 2.11 147 2.11 145 2.11
  46  0.500  0.000  0.503- 143 2.11 144 2.11 160 2.11 163 2.11 146 2.11
  47  0.400  0.200  0.407- 149 2.11 145 2.11 130 2.11 150 2.11 147 2.11
  48  0.500  0.300  0.407- 150 2.11 149 2.11 154 2.11 169 2.11 148 2.11
  49  0.400  0.300  0.503- 147 2.11 128 2.11 148 2.11 151 2.11 149 2.11
  50  0.500  0.200  0.503- 148 2.11 147 2.11 144 2.11 167 2.11 150 2.11
  51  0.400  0.400  0.407- 134 2.11 149 2.11 153 2.11 154 2.11 151 2.11
  52  0.500  0.500  0.407- 153 2.11 154 2.11 158 2.11 173 2.11 152 2.11
  53  0.400  0.500  0.503- 132 2.11 151 2.11 152 2.11 155 2.11 153 2.11
  54  0.500  0.400  0.503- 148 2.11 151 2.11 152 2.11 171 2.11 154 2.11
  55  0.400  0.600  0.407- 138 2.11 153 2.11 157 2.11 158 2.11 155 2.11
  56  0.500  0.700  0.407- 162 2.11 158 2.11 157 2.11 177 2.11 156 2.11
  57  0.400  0.700  0.503- 159 2.11 155 2.11 156 2.11 136 2.11 157 2.11
  58  0.500  0.600  0.503- 152 2.11 155 2.11 156 2.11 175 2.11 158 2.11
  59  0.400  0.800  0.407- 157 2.11 142 2.11 161 2.11 162 2.11 159 2.11
  60  0.500  0.900  0.407- 146 2.11 161 2.11 162 2.11 181 2.11 160 2.11
[...]
 188  0.900  0.300  0.503-  90 2.11  89 2.11   9 2.11  94 2.11  88 2.11
 189  0.800  0.300  0.407-  68 2.11  87 2.11  88 2.11  91 2.11  89 2.11
 190  0.900  0.200  0.407-  88 2.11  84 2.11  87 2.11   7 2.11  90 2.11
 191  0.800  0.400  0.503-  74 2.11  89 2.11  93 2.11  94 2.11  91 2.11
 192  0.900  0.500  0.503-  13 2.11  93 2.11  94 2.11  98 2.11  92 2.11
 193  0.800  0.500  0.407-  72 2.11  91 2.11  92 2.11  95 2.11  93 2.11
 194  0.900  0.400  0.407-  11 2.11  88 2.11  91 2.11  92 2.11  94 2.11
 195  0.800  0.600  0.503-  78 2.11  93 2.11  97 2.11  98 2.11  95 2.11
 196  0.900  0.700  0.503- 102 2.11  97 2.11  98 2.11  17 2.11  96 2.11
 197  0.800  0.700  0.407-  76 2.11  99 2.11  96 2.11  95 2.11  97 2.11
 198  0.900  0.600  0.407-  15 2.11  92 2.11  95 2.11  96 2.11  98 2.11
 199  0.800  0.800  0.503-  82 2.11  97 2.11 101 2.11 102 2.11  99 2.11
 200  0.900  0.900  0.503-  21 2.11  86 2.11 101 2.11 102 2.11 100 2.11
 201  0.800  0.900  0.407-  80 2.11  83 2.11  99 2.11 100 2.11 101 2.11
 202  0.900  0.800  0.407-  96 2.11  19 2.11  99 2.11 100 2.11 102 2.11

  LATTYP: Found a simple tetragonal cell.
 ALAT       =    21.1388521970
 C/A-ratio  =     1.0461251639

  Lattice vectors:

 A1 = (  21.1388521970,   0.0000000000,   0.0000000000)
 A2 = (   0.0000000000,  21.1388521970,   0.0000000000)
 A3 = (   0.0000000000,   0.0000000000,  22.1138852197)

Analysis of symmetry for initial positions (statically):
 Subroutine PRICEL returns:
 Original cell was already a primitive cell.

 Routine SETGRP: Setting up the symmetry group for a
 simple tetragonal supercell.

 Subroutine GETGRP returns: Found  8 space group operations
 (whereof  8 operations were pure point group operations)
 out of a pool of 16 trial point group operations.

The static configuration has the point symmetry C_4v.

Analysis of symmetry for dynamics (positions and initial velocities):
 Subroutine PRICEL returns:
 Original cell was already a primitive cell.

 Routine SETGRP: Setting up the symmetry group for a
 simple tetragonal supercell.

 Subroutine GETGRP returns: Found  8 space group operations
 (whereof  8 operations were pure point group operations)
 out of a pool of 16 trial point group operations.

The dynamic configuration has the point symmetry C_4v.

[...]
     41     -46.4187      2.00000
     42     -46.4187      2.00000
     43     -46.4183      2.00000
     44     -46.4113      2.00000
     45     -46.4110      2.00000
     46     -46.4110      2.00000
     47     -46.4110      2.00000
     48     -46.4099      2.00000
     49     -46.4098      2.00000
     50     -46.4098      2.00000
     51     -46.4097      2.00000
     52     -46.3981      2.00000
     53     -46.3980      2.00000
     54     -46.3968      2.00000
     55     -46.3964      2.00000
     56     -46.3964      2.00000
     57     -46.3958      2.00000
     58     -46.3958      2.00000
     59     -46.3953      2.00000
     60     -46.3942      2.00000
[...]
    850       4.8062      0.00000
    851       4.8545      0.00000
    852       4.9027      0.00000
    853       4.9457      0.00000
    854       4.9563      0.00000
    855       4.9852      0.00000
    856       5.0017      0.00000
    857       5.0254      0.00000
    858       5.0546      0.00000
    859       5.0787      0.00000
    860       5.1172      0.00000
    861       5.2015      0.00000
    862       5.2745      0.00000
    863       5.2979      0.00000
    864       5.3416      0.00000

 soft charge-density along one line, spin component           1
         0         1         2         3         4         5         6         7         8         9
 total charge-density along one line

------------------------ aborting loop because EDIFF is reached ----------------------------------------

 WARNING: Using user supplied parameters
     VDW_S8 = 1.703
     VDW_SR = 1.261
     because the xc functional is not supported. Required parameters not
     defined in the INCAR file will be replaced with PBE defaults ones.

         DFTD3 V3.0 Rev 1
 IVDW         = 11
 DF unknown
 parameters
 VDW_S6       =    1.0000
 VDW_S8       =    1.7030
 VDW_SR       =    1.2610
 rs18     =    1.0000
 alpha6   =   14.0000
 alpha8   =   16.0000
 k1-k3    =   16.0000    1.3333   -4.0000
 VDW_RADIUS   =   50.2022 A
 VDW_CNRADIUS =   21.1671 A
 Edisp (eV)  -32.66381

 E6    (eV) :    -6.9088
 E8    (eV) :   -25.7550
 % E8        : 78.85

 VOLUME and BASIS-vectors are now :
  energy-cutoff  :      520.00
  volume of cell :     9881.61
      direct lattice vectors                 reciprocal lattice vectors
    21.138852197  0.000000000  0.000000000     0.047306258  0.000000000  0.000000000
     0.000000000 21.138852197  0.000000000     0.000000000  0.047306258  0.000000000
     0.000000000  0.000000000 22.113885220     0.000000000  0.000000000  0.045220457

  length of vectors
    21.138852197 21.138852197 22.113885220     0.047306258  0.047306258  0.045220457

 FORCES acting on ions:
    Electron-Ion                     Ewald-Force                    Non-Local-Force
   -.636E-12 -.237E-11 -.201E+04   -.393E-13 0.324E-13 0.200E+04   0.636E-23 -.109E-22 0.131E+02
   -.436E-12 -.293E-11 -.192E+04   0.355E-14 -.178E-14 0.193E+04   -.118E-22 -.975E-23 -.692E+01
   0.157E-12 0.441E-12 0.930E+03   0.941E-13 0.746E-13 -.923E+03   0.128E-23 -.189E-23 -.671E+01
   0.382E+01 0.382E+01 0.931E+03   -.383E+01 -.383E+01 -.924E+03   0.709E-02 0.709E-02 -.671E+01
   0.148E-12 0.402E+01 -.923E+03   0.131E-12 -.402E+01 0.915E+03   0.115E-23 0.307E-02 0.666E+01
   0.402E+01 0.115E-11 -.923E+03   -.402E+01 0.515E-13 0.915E+03   0.307E-02 0.313E-23 0.666E+01
   0.147E-12 0.557E+01 0.932E+03   0.155E-10 -.558E+01 -.924E+03   0.257E-23 0.818E-02 -.671E+01
   0.767E+01 0.709E+01 0.935E+03   -.770E+01 -.711E+01 -.927E+03   0.256E-01 0.123E-01 -.671E+01
   0.135E-12 0.729E+01 -.920E+03   0.207E-11 -.730E+01 0.913E+03   0.965E-23 0.464E-02 0.666E+01
   0.701E+01 0.830E+01 -.921E+03   -.703E+01 -.831E+01 0.913E+03   0.923E-02 0.671E-02 0.666E+01
   0.158E-12 0.379E+01 0.935E+03   -.175E-10 -.379E+01 -.927E+03   0.101E-23 0.517E-02 -.671E+01
   0.110E+02 -.901E-12 0.937E+03   -.110E+02 0.123E-12 -.930E+03   0.422E-01 -.364E-24 -.672E+01
   0.143E-12 -.131E-11 -.919E+03   0.229E-12 0.266E-13 0.911E+03   0.212E-23 0.237E-23 0.665E+01
   0.144E+02 0.623E+01 -.917E+03   -.144E+02 -.623E+01 0.910E+03   0.200E-01 0.376E-02 0.665E+01
   0.147E-12 -.379E+01 0.935E+03   0.114E-11 0.379E+01 -.927E+03   0.599E-24 -.517E-02 -.671E+01
   0.767E+01 -.709E+01 0.935E+03   -.770E+01 0.711E+01 -.927E+03   0.256E-01 -.123E-01 -.671E+01
   0.140E-12 -.729E+01 -.920E+03   -.927E-12 0.730E+01 0.913E+03   -.834E-23 -.464E-02 0.666E+01
   0.144E+02 -.623E+01 -.917E+03   -.144E+02 0.623E+01 0.910E+03   0.200E-01 -.376E-02 0.665E+01
   0.154E-12 -.557E+01 0.932E+03   0.909E-12 0.558E+01 -.924E+03   0.880E-24 -.818E-02 -.671E+01
   0.382E+01 -.382E+01 0.931E+03   -.383E+01 0.383E+01 -.924E+03   0.709E-02 -.709E-02 -.671E+01
   0.144E-12 -.402E+01 -.923E+03   -.899E-12 0.402E+01 0.915E+03   -.653E-24 -.307E-02 0.666E+01
   0.701E+01 -.830E+01 -.921E+03   -.703E+01 0.831E+01 0.913E+03   0.923E-02 -.671E-02 0.666E+01
   0.557E+01 0.511E-13 0.932E+03   -.558E+01 0.293E-13 -.924E+03   0.818E-02 -.151E-23 -.671E+01
   0.709E+01 0.767E+01 0.935E+03   -.711E+01 -.770E+01 -.927E+03   0.123E-01 0.256E-01 -.671E+01
   0.830E+01 0.701E+01 -.921E+03   -.831E+01 -.703E+01 0.913E+03   0.671E-02 0.923E-02 0.666E+01
   0.729E+01 0.133E-11 -.920E+03   -.730E+01 0.528E-13 0.913E+03   0.464E-02 -.818E-23 0.666E+01
   0.962E+01 0.962E+01 0.935E+03   -.966E+01 -.966E+01 -.928E+03   0.262E-01 0.262E-01 -.671E+01
   0.188E+02 0.188E+02 0.948E+03   -.189E+02 -.189E+02 -.940E+03   0.865E-01 0.865E-01 -.673E+01
   0.216E+02 0.160E+02 -.915E+03   -.217E+02 -.161E+02 0.907E+03   0.412E-01 0.131E-01 0.664E+01
   0.160E+02 0.216E+02 -.915E+03   -.161E+02 -.217E+02 0.907E+03   0.131E-01 0.412E-01 0.664E+01
   0.202E+02 0.789E+01 0.944E+03   -.204E+02 -.792E+01 -.936E+03   0.103E+00 0.200E-01 -.674E+01
   0.343E+02 -.163E-11 0.965E+03   -.348E+02 0.426E-13 -.958E+03   0.363E+00 0.320E-23 -.682E+01
   0.375E+02 -.251E-11 -.907E+03   -.376E+02 -.853E-13 0.900E+03   0.671E-01 0.203E-23 0.663E+01
   0.565E+02 0.289E+02 -.889E+03   -.568E+02 -.289E+02 0.881E+03   0.232E+00 0.140E-01 0.659E+01
   0.202E+02 -.789E+01 0.944E+03   -.204E+02 0.792E+01 -.936E+03   0.103E+00 -.200E-01 -.674E+01
   0.188E+02 -.188E+02 0.948E+03   -.189E+02 0.189E+02 -.940E+03   0.865E-01 -.865E-01 -.673E+01
   0.216E+02 -.160E+02 -.915E+03   -.217E+02 0.161E+02 0.907E+03   0.412E-01 -.131E-01 0.664E+01
   0.565E+02 -.289E+02 -.889E+03   -.568E+02 0.289E+02 0.881E+03   0.232E+00 -.140E-01 0.659E+01
   0.962E+01 -.962E+01 0.935E+03   -.966E+01 0.966E+01 -.928E+03   0.262E-01 -.262E-01 -.671E+01
   0.709E+01 -.767E+01 0.935E+03   -.711E+01 0.770E+01 -.927E+03   0.123E-01 -.256E-01 -.671E+01
   0.830E+01 -.701E+01 -.921E+03   -.831E+01 0.703E+01 0.913E+03   0.671E-02 -.923E-02 0.666E+01
   0.160E+02 -.216E+02 -.915E+03   -.161E+02 0.217E+02 0.907E+03   0.131E-01 -.412E-01 0.664E+01
   0.379E+01 -.258E-12 0.935E+03   -.379E+01 0.857E-13 -.927E+03   0.517E-02 -.142E-23 -.671E+01
   -.203E-12 0.110E+02 0.937E+03   0.435E-11 -.110E+02 -.930E+03   0.189E-24 0.422E-01 -.672E+01
   0.623E+01 0.144E+02 -.917E+03   -.623E+01 -.144E+02 0.910E+03   0.376E-02 0.200E-01 0.665E+01
   -.231E-12 0.258E-12 -.919E+03   0.875E-13 0.546E-13 0.911E+03   -.682E-24 0.109E-23 0.665E+01
   0.789E+01 0.202E+02 0.944E+03   -.792E+01 -.204E+02 -.936E+03   0.200E-01 0.103E+00 -.674E+01
   -.183E-12 0.343E+02 0.965E+03   -.558E-11 -.348E+02 -.958E+03   0.113E-23 0.363E+00 -.682E+01
   0.289E+02 0.565E+02 -.889E+03   -.289E+02 -.568E+02 0.881E+03   0.140E-01 0.232E+00 0.659E+01
   -.225E-12 0.375E+02 -.907E+03   -.191E-10 -.376E+02 0.900E+03   0.414E-23 0.671E-01 0.663E+01
   0.267E+02 0.267E+02 0.985E+03   -.271E+02 -.271E+02 -.977E+03   0.265E+00 0.265E+00 -.671E+01
   -.229E-12 0.258E-11 0.103E+04   -.457E-13 0.941E-13 -.102E+04   0.464E-23 -.286E-23 -.442E+01
   0.134E+03 0.181E-10 -.773E+03   -.137E+03 -.200E-13 0.766E+03   0.220E+01 -.355E-23 0.637E+01
   -.224E-12 0.134E+03 -.773E+03   0.216E-10 -.137E+03 0.766E+03   0.240E-23 0.220E+01 0.637E+01
   0.267E+02 -.267E+02 0.985E+03   -.271E+02 0.271E+02 -.977E+03   0.265E+00 -.265E+00 -.671E+01
   -.208E-12 -.343E+02 0.965E+03   -.183E-10 0.348E+02 -.958E+03   0.183E-23 -.363E+00 -.682E+01
   0.289E+02 -.565E+02 -.889E+03   -.289E+02 0.568E+02 0.881E+03   0.140E-01 -.232E+00 0.659E+01
   -.242E-12 -.134E+03 -.773E+03   0.182E-10 0.137E+03 0.766E+03   0.168E-23 -.220E+01 0.637E+01
   0.789E+01 -.202E+02 0.944E+03   -.792E+01 0.204E+02 -.936E+03   0.200E-01 -.103E+00 -.674E+01
   -.214E-12 -.110E+02 0.937E+03   0.205E-10 0.110E+02 -.930E+03   0.351E-25 -.422E-01 -.672E+01
[...]
   -.110E+02 0.836E+01 0.706E+03   0.111E+02 -.839E+01 -.710E+03   -.545E-01 0.380E-01 0.315E+01
   -.402E+01 0.492E+01 0.701E+03   0.403E+01 -.493E+01 -.705E+03   -.138E-01 0.140E-01 0.316E+01
   -.241E+02 0.904E+01 -.684E+03   0.242E+02 -.905E+01 0.688E+03   -.561E-01 0.134E-01 -.330E+01
   -.121E+02 -.414E-11 -.689E+03   0.121E+02 0.104E-10 0.693E+03   -.216E-01 0.243E-22 -.326E+01
   -.172E+02 0.297E-10 0.711E+03   0.173E+02 -.166E-11 -.715E+03   -.901E-01 0.212E-23 0.314E+01
   -.750E+01 0.352E+01 0.704E+03   0.752E+01 -.352E+01 -.708E+03   -.293E-01 0.102E-01 0.316E+01
   -.241E+02 -.904E+01 -.684E+03   0.242E+02 0.905E+01 0.688E+03   -.561E-01 -.134E-01 -.330E+01
   -.796E+01 -.690E+01 -.691E+03   0.797E+01 0.691E+01 0.695E+03   -.152E-01 -.915E-02 -.325E+01
   -.110E+02 -.836E+01 0.706E+03   0.111E+02 0.839E+01 -.710E+03   -.545E-01 -.380E-01 0.315E+01
   -.750E+01 -.352E+01 0.704E+03   0.752E+01 0.352E+01 -.708E+03   -.293E-01 -.102E-01 0.316E+01
   -.981E+01 -.981E+01 -.691E+03   0.982E+01 0.982E+01 0.695E+03   -.220E-01 -.220E-01 -.325E+01
   -.357E+01 -.357E+01 -.693E+03   0.357E+01 0.357E+01 0.697E+03   -.579E-02 -.579E-02 -.323E+01
   -.492E+01 -.402E+01 0.701E+03   0.493E+01 0.403E+01 -.705E+03   -.140E-01 -.138E-01 0.316E+01
   -.402E+01 -.492E+01 0.701E+03   0.403E+01 0.493E+01 -.705E+03   -.138E-01 -.140E-01 0.316E+01
   0.140E-10 -.184E-10 -.616E+01   0.330E-11 -.178E-11 -.807E-11   0.399E-16 -.113E-15 0.568E+01

 POSITION                                       TOTAL-FORCE (eV/Angst)
     10.56943     10.56943     15.28023        -0.000000      0.000000      0.175046
     10.56943     10.56943     13.05633        -0.000000      0.000000     -0.051734
      0.00000      0.00000      9.00000        -0.000000      0.000000      0.424786
      2.11389      2.11389      9.00000        -0.002204     -0.002204      0.425100
      0.00000      2.11389     11.11389        -0.000000     -0.000936     -0.405790
      2.11389      0.00000     11.11389        -0.000936      0.000000     -0.405790
      0.00000      4.22777      9.00000        -0.000000     -0.002587      0.425438
      2.11389      6.34166      9.00000        -0.007638     -0.003891      0.426918
      0.00000      6.34166     11.11389        -0.000000     -0.001408     -0.403223
      2.11389      4.22777     11.11389        -0.002661     -0.002026     -0.403684
      0.00000      8.45554      9.00000        -0.000000     -0.001646      0.426789
      2.11389     10.56943      9.00000        -0.012431      0.000000      0.428521
      0.00000     10.56943     11.11389        -0.000000      0.000000     -0.401294
      2.11389      8.45554     11.11389        -0.005051     -0.001059     -0.398989
      0.00000     12.68331      9.00000        -0.000000      0.001646      0.426789
      2.11389     14.79720      9.00000        -0.007638      0.003891      0.426918
      0.00000     14.79720     11.11389        -0.000000      0.001408     -0.403223
      2.11389     12.68331     11.11389        -0.005051      0.001059     -0.398989
      0.00000     16.91108      9.00000        -0.000000      0.002587      0.425438
      2.11389     19.02497      9.00000        -0.002204      0.002204      0.425100
      0.00000     19.02497     11.11389        -0.000000      0.000936     -0.405790
      2.11389     16.91108     11.11389        -0.002661      0.002026     -0.403684
      4.22777      0.00000      9.00000        -0.002587      0.000000      0.425438
      6.34166      2.11389      9.00000        -0.003891     -0.007638      0.426918
      4.22777      2.11389     11.11389        -0.002026     -0.002661     -0.403684
      6.34166      0.00000     11.11389        -0.001408      0.000000     -0.403223
      4.22777      4.22777      9.00000        -0.008140     -0.008140      0.426746
      6.34166      6.34166      9.00000        -0.027107     -0.027107      0.430692
      4.22777      6.34166     11.11389        -0.010755     -0.003521     -0.394310
      6.34166      4.22777     11.11389        -0.003521     -0.010755     -0.394310
      4.22777      8.45554      9.00000        -0.030325     -0.006328      0.433071
      6.34166     10.56943      9.00000        -0.099520      0.000000      0.455257
      4.22777     10.56943     11.11389        -0.013084      0.000000     -0.382895
      6.34166      8.45554     11.11389        -0.046850      0.004732     -0.344036
      4.22777     12.68331      9.00000        -0.030325      0.006328      0.433071
      6.34166     14.79720      9.00000        -0.027107      0.027107      0.430692
      4.22777     14.79720     11.11389        -0.010755      0.003521     -0.394310
      6.34166     12.68331     11.11389        -0.046850     -0.004732     -0.344036
      4.22777     16.91108      9.00000        -0.008140      0.008140      0.426746
      6.34166     19.02497      9.00000        -0.003891      0.007638      0.426918
      4.22777     19.02497     11.11389        -0.002026      0.002661     -0.403684
      6.34166     16.91108     11.11389        -0.003521      0.010755     -0.394310
      8.45554      0.00000      9.00000        -0.001646      0.000000      0.426789
     10.56943      2.11389      9.00000        -0.000000     -0.012431      0.428521
      8.45554      2.11389     11.11389        -0.001059     -0.005051     -0.398989
     10.56943      0.00000     11.11389        -0.000000      0.000000     -0.401294
      8.45554      4.22777      9.00000        -0.006328     -0.030325      0.433071
     10.56943      6.34166      9.00000        -0.000000     -0.099520      0.455257
      8.45554      6.34166     11.11389         0.004732     -0.046850     -0.344036
     10.56943      4.22777     11.11389        -0.000000     -0.013084     -0.382895
      8.45554      8.45554      9.00000        -0.092081     -0.092081      0.415536
     10.56943     10.56943      9.00000        -0.000000      0.000000     -0.106323
      8.45554     10.56943     11.11389        -0.918929      0.000000     -0.415612
     10.56943      8.45554     11.11389        -0.000000     -0.918929     -0.415612
      8.45554     12.68331      9.00000        -0.092081      0.092081      0.415536
     10.56943     14.79720      9.00000        -0.000000      0.099520      0.455257
      8.45554     14.79720     11.11389         0.004732      0.046850     -0.344036
     10.56943     12.68331     11.11389        -0.000000      0.918929     -0.415612
      8.45554     16.91108      9.00000        -0.006328      0.030325      0.433071
     10.56943     19.02497      9.00000        -0.000000      0.012431      0.428521
[...]
     19.02497      6.34166     11.11389        -0.004967      0.002987      0.388976
     16.91108      6.34166      9.00000        -0.017678      0.012334     -0.417441
     19.02497      4.22777      9.00000        -0.004453      0.004510     -0.414227
     16.91108      8.45554     11.11389        -0.018775      0.004565      0.374262
     19.02497     10.56943     11.11389        -0.007129      0.000000      0.385197
     16.91108     10.56943      9.00000        -0.029520      0.000000     -0.422556
     19.02497      8.45554      9.00000        -0.009483      0.003308     -0.416440
     16.91108     12.68331     11.11389        -0.018775     -0.004565      0.374262
     19.02497     14.79720     11.11389        -0.004967     -0.002987      0.388976
     16.91108     14.79720      9.00000        -0.017678     -0.012334     -0.417441
     19.02497     12.68331      9.00000        -0.009483     -0.003308     -0.416440
     16.91108     16.91108     11.11389        -0.007182     -0.007182      0.388395
     19.02497     19.02497     11.11389        -0.001877     -0.001877      0.393139
     16.91108     19.02497      9.00000        -0.004510     -0.004453     -0.414227
     19.02497     16.91108      9.00000        -0.004453     -0.004510     -0.414227
    total drift:                                0.000000     -0.000000     -0.286828

  FREE ENERGIE OF THE ION-ELECTRON SYSTEM (eV)
  free  energy   TOTEN  =     -1365.97687666 eV

  energy  without entropy=    -1365.97687666  energy(sigma->0) =    -1365.97687666