 vasp.6.3.0 20Jan22 (build Apr  1 2022 16:44:48) complex
 executed on        HPECrayEX_GCC date 2023.01.09  09:51:57

 INCAR:
   SYSTEM = MgO-rocksalt
   ISMEAR = 0
   SIGMA = 0.05
   EDIFF = 1E-6
   ALGO = ALL
   ISTART = 0
   IBRION = -1
   NSW = 0
   ISYM = 2
   DIPOL = 0.5 0.5 0.5
   IDIPOL = 3
   LDIPOL = .TRUE.
   GGA = PE
   IVDW = 13
   VDW_S8 = 0.9595
   VDW_A1 = 0.3857
   VDW_A2 = 4.8069
   ENCUT = 520
   PREC = Accurate
   LASPH = .TRUE.
   LREAL = Auto
   ISPIN = 1
   NELM = 200
   NELMIN = 8
   NCORE = 4
   KPAR = 2
   LWAVE = .FALSE.
   LCHARG = .FALSE.

 POTCAR:    PAW_PBE Au 04Oct2007
 POTCAR:    PAW_PBE Mg_pv 13Apr2007
 POTCAR:    PAW_PBE O 08Apr2002
 POTCAR:    PAW_PBE Au 04Oct2007
   VRHFIN =Au: s1d10

   TITEL  = PAW_PBE Au 04Oct2007
   POMASS =  196.966; ZVAL   =   11.000    mass and valenz
   ENMAX  =  229.943; ENMIN  =  172.457 eV

   TITEL  = PAW_PBE Mg_pv 13Apr2007
   POMASS =   24.305; ZVAL   =    8.000    mass and valenz
   ENMAX  =  403.929; ENMIN  =  302.947 eV

   TITEL  = PAW_PBE O 08Apr2002
   POMASS =   16.000; ZVAL   =    6.000    mass and valenz
   ENMAX  =  400.000; ENMIN  =  300.000 eV

 Optimization of the real space projectors (new method)

 maximal supplied QI-value         = 15.12
 optimisation between [QCUT,QGAM] = [ 11.64, 23.28] = [ 37.95,151.78] Ry
 Optimized for a Real-space Cutoff    1.49 Angstroem

   l    n(q)    QCUT    max X(q) W(low)/X(q) W(high)/X(q)  e(spline)
   2      9    11.641    60.898    0.24E-03    0.10E-03    0.19E-06
   2      9    11.641    58.894    0.25E-03    0.10E-03    0.19E-06
   0     10    11.641   109.617    0.73E-04    0.33E-04    0.11E-06
   0     10    11.641    75.026    0.71E-04    0.32E-04    0.11E-06
   1     10    11.641    16.344    0.27E-04    0.97E-04    0.16E-06
   1     10    11.641    10.160    0.23E-04    0.77E-04    0.13E-06
 Optimization of the real space projectors (new method)

[...]

   l    n(q)    QCUT    max X(q) W(low)/X(q) W(high)/X(q)  e(spline)
   1      8    11.527     2.974    0.44E-04    0.56E-04    0.12E-06
   1      8    11.527     4.279    0.12E-03    0.12E-03    0.26E-06
   0      9    11.527    16.381    0.46E-04    0.64E-04    0.78E-07
   0      9    11.527     5.611    0.26E-04    0.43E-04    0.55E-07
   2      8    11.527     4.652    0.22E-03    0.72E-04    0.47E-07
 Optimization of the real space projectors (new method)

 maximal supplied QI-value         = 24.76
 optimisation between [QCUT,QGAM] = [ 11.64, 23.27] = [ 37.91,151.63] Ry
 Optimized for a Real-space Cutoff    1.14 Angstroem

   l    n(q)    QCUT    max X(q) W(low)/X(q) W(high)/X(q)  e(spline)
   0      8    11.635    20.381    0.10E-03    0.33E-03    0.24E-06
   0      8    11.635    15.268    0.11E-03    0.35E-03    0.26E-06
   1      7    11.635     5.964    0.24E-03    0.31E-03    0.30E-06
   1      7    11.635     5.382    0.22E-03    0.25E-03    0.26E-06
  PAW_PBE Au 04Oct2007                  :
  PAW_PBE Mg_pv 13Apr2007               :
  PAW_PBE O 08Apr2002                   :

 POSCAR: Au Mg  O
  positions in direct lattice
  velocities in cartesian coordinates
|           W    W    AA    RRRRR   N    N  II  N    N   GGGG   !!!           |
|           W    W   A  A   R    R  NN   N  II  NN   N  G    G  !!!           |
|           W    W  A    A  R    R  N N  N  II  N N  N  G       !!!           |
|           W WW W  AAAAAA  RRRRR   N  N N  II  N  N N  G  GGG   !            |
|           WW  WW  A    A  R   R   N   NN  II  N   NN  G    G                |
|           W    W  A    A  R    R  N    N  II  N    N   GGGG   !!!           |
|     Specifying the vdW parameters                                           |
|     VDW_S8 = 0.96                                                           |
|     VDW_A1 = 0.386                                                          |
|     VDW_A2 = 4.807                                                          |
|     in the INCAR file will overwrite the defaults for pbe. Please make      |
|     sure that is what you intended.                                         |

 ion  position               nearest neighbor table
   1  0.290  0.507  0.638-   2 2.69   3 2.71
   2  0.397  0.442  0.618-   1 2.69   4 2.69 153 2.70   3 2.70  55 2.83
   3  0.397  0.569  0.609- 157 2.45   2 2.70   1 2.71   4 2.71  55 2.78
   4  0.505  0.506  0.637-   2 2.69   3 2.71
   5  0.000  0.000  0.407- 107 2.11 108 2.11 123 2.11 188 2.11 105 2.11
   6  0.100  0.100  0.407- 107 2.11 108 2.11 112 2.11 127 2.11 106 2.11
   7  0.000  0.100  0.503- 105 2.11 106 2.11 109 2.11 186 2.11 107 2.11
   8  0.100  0.000  0.503- 105 2.11 106 2.11 122 2.11 125 2.11 108 2.11
   9  0.000  0.200  0.407- 111 2.11 107 2.11 112 2.11 192 2.11 109 2.11
  10  0.100  0.300  0.407- 112 2.11 111 2.11 116 2.11 131 2.11 110 2.11
  11  0.000  0.300  0.503- 109 2.11 110 2.11 113 2.11 190 2.11 111 2.11
  12  0.100  0.200  0.503- 110 2.11 109 2.11 106 2.11 129 2.11 112 2.11
  13  0.000  0.400  0.407- 111 2.11 115 2.11 116 2.11 196 2.11 113 2.11
  14  0.100  0.500  0.407- 115 2.11 116 2.11 120 2.11 135 2.11 114 2.11
  15  0.000  0.500  0.503- 113 2.11 114 2.11 117 2.11 194 2.11 115 2.11
  16  0.100  0.400  0.503- 110 2.11 113 2.11 114 2.11 133 2.11 116 2.11
  17  0.000  0.600  0.407- 115 2.11 119 2.11 120 2.11 200 2.11 117 2.11
  18  0.100  0.700  0.407- 124 2.11 120 2.11 119 2.11 139 2.11 118 2.11
  19  0.000  0.700  0.503- 121 2.11 118 2.11 117 2.11 198 2.11 119 2.11
  20  0.100  0.600  0.503- 114 2.11 117 2.11 118 2.11 137 2.11 120 2.11
  21  0.000  0.800  0.407- 119 2.11 123 2.11 124 2.11 204 2.11 121 2.11
  22  0.100  0.900  0.407- 108 2.11 123 2.11 124 2.11 143 2.11 122 2.11
  23  0.000  0.900  0.503- 105 2.11 121 2.11 122 2.11 202 2.11 123 2.11
  24  0.100  0.800  0.503- 118 2.11 121 2.11 122 2.11 141 2.11 124 2.11
  25  0.200  0.000  0.407- 128 2.11 127 2.11 108 2.11 143 2.11 125 2.11
  26  0.300  0.100  0.407- 127 2.11 128 2.11 132 2.11 147 2.11 126 2.11
  27  0.200  0.100  0.503- 126 2.11 125 2.11 106 2.11 129 2.11 127 2.11
  28  0.300  0.000  0.503- 125 2.11 126 2.11 142 2.11 145 2.11 128 2.11
  29  0.200  0.200  0.407- 131 2.11 132 2.11 112 2.11 127 2.11 129 2.11
  30  0.300  0.300  0.407- 131 2.11 132 2.11 136 2.11 151 2.11 130 2.11
  31  0.200  0.300  0.503- 129 2.11 130 2.11 110 2.11 133 2.11 131 2.11
  32  0.300  0.200  0.503- 129 2.11 130 2.11 126 2.11 149 2.11 132 2.11
  33  0.200  0.400  0.407- 136 2.11 131 2.11 135 2.11 116 2.11 133 2.11
  34  0.300  0.500  0.407- 135 2.11 136 2.11 140 2.11 155 2.11 134 2.11
  35  0.200  0.500  0.503- 134 2.11 133 2.11 114 2.11 137 2.11 135 2.11
  36  0.300  0.400  0.503- 133 2.11 130 2.11 134 2.11 153 2.11 136 2.11
  37  0.200  0.600  0.407- 140 2.11 135 2.11 139 2.11 120 2.11 137 2.11
  38  0.300  0.700  0.407- 139 2.11 144 2.11 140 2.11 159 2.11 138 2.11
  39  0.200  0.700  0.503- 138 2.11 141 2.11 118 2.11 137 2.11 139 2.11
  40  0.300  0.600  0.503- 137 2.11 134 2.11 138 2.11 157 2.11 140 2.11
  41  0.200  0.800  0.407- 139 2.11 144 2.11 143 2.11 124 2.11 141 2.11
  42  0.300  0.900  0.407- 143 2.11 128 2.11 144 2.11 163 2.11 142 2.11
  43  0.200  0.900  0.503- 142 2.11 125 2.11 141 2.11 122 2.11 143 2.11
  44  0.300  0.800  0.503- 138 2.11 141 2.11 142 2.11 161 2.11 144 2.11
  45  0.400  0.000  0.407- 128 2.11 147 2.11 148 2.11 163 2.11 145 2.11
  46  0.500  0.100  0.407- 147 2.11 148 2.11 152 2.11 167 2.11 146 2.11
  47  0.400  0.100  0.503- 126 2.11 145 2.11 146 2.11 149 2.11 147 2.11
  48  0.500  0.000  0.503- 145 2.11 146 2.11 162 2.11 165 2.11 148 2.11
  49  0.400  0.200  0.407- 151 2.11 147 2.11 132 2.11 152 2.11 149 2.11
  50  0.500  0.300  0.407- 152 2.11 151 2.11 156 2.11 171 2.11 150 2.11
  51  0.400  0.300  0.503- 149 2.11 130 2.11 150 2.11 153 2.11 151 2.11
  52  0.500  0.200  0.503- 150 2.11 149 2.11 146 2.11 169 2.11 152 2.11
  53  0.400  0.400  0.407- 136 2.11 151 2.11 155 2.11 156 2.11 153 2.11
  54  0.500  0.500  0.407- 155 2.11 156 2.11 160 2.11 175 2.11 154 2.11
  55  0.400  0.500  0.503- 134 2.11 153 2.11 154 2.11 157 2.11 155 2.11   3 2.78   2 2.83
  56  0.500  0.400  0.503- 150 2.11 153 2.11 154 2.11 173 2.11 156 2.11
  57  0.400  0.600  0.407- 140 2.11 155 2.11 159 2.11 160 2.11 157 2.11
  58  0.500  0.700  0.407- 164 2.11 160 2.11 159 2.11 179 2.11 158 2.11
  59  0.400  0.700  0.503- 161 2.11 157 2.11 158 2.11 138 2.11 159 2.11
  60  0.500  0.600  0.503- 154 2.11 157 2.11 158 2.11 177 2.11 160 2.11
[...]
 190  0.900  0.300  0.503-  92 2.11  91 2.11  11 2.11  96 2.11  90 2.11
 191  0.800  0.300  0.407-  70 2.11  89 2.11  90 2.11  93 2.11  91 2.11
 192  0.900  0.200  0.407-  90 2.11  86 2.11  89 2.11   9 2.11  92 2.11
 193  0.800  0.400  0.503-  76 2.11  91 2.11  95 2.11  96 2.11  93 2.11
 194  0.900  0.500  0.503-  15 2.11  95 2.11  96 2.11 100 2.11  94 2.11
 195  0.800  0.500  0.407-  74 2.11  93 2.11  94 2.11  97 2.11  95 2.11
 196  0.900  0.400  0.407-  13 2.11  90 2.11  93 2.11  94 2.11  96 2.11
 197  0.800  0.600  0.503-  80 2.11  95 2.11  99 2.11 100 2.11  97 2.11
 198  0.900  0.700  0.503- 104 2.11  99 2.11 100 2.11  19 2.11  98 2.11
 199  0.800  0.700  0.407-  78 2.11 101 2.11  98 2.11  97 2.11  99 2.11
 200  0.900  0.600  0.407-  17 2.11  94 2.11  97 2.11  98 2.11 100 2.11
 201  0.800  0.800  0.503-  84 2.11  99 2.11 103 2.11 104 2.11 101 2.11
 202  0.900  0.900  0.503-  23 2.11  88 2.11 103 2.11 104 2.11 102 2.11
 203  0.800  0.900  0.407-  82 2.11  85 2.11 101 2.11 102 2.11 103 2.11
 204  0.900  0.800  0.407-  98 2.11  21 2.11 101 2.11 102 2.11 104 2.11

  LATTYP: Found a simple tetragonal cell.
 ALAT       =    21.1388521970
 C/A-ratio  =     1.0461251639

  Lattice vectors:

 A1 = (  21.1388521970,   0.0000000000,   0.0000000000)
 A2 = (   0.0000000000,  21.1388521970,   0.0000000000)
 A3 = (   0.0000000000,   0.0000000000,  22.1138852197)

Analysis of symmetry for initial positions (statically):
 Subroutine PRICEL returns:
 Original cell was already a primitive cell.

 Routine SETGRP: Setting up the symmetry group for a
 simple tetragonal supercell.

 Subroutine GETGRP returns: Found  1 space group operations
 (whereof  1 operations were pure point group operations)
 out of a pool of 16 trial point group operations.

The static configuration has the point symmetry C_1 .

Analysis of symmetry for dynamics (positions and initial velocities):
 Subroutine PRICEL returns:
 Original cell was already a primitive cell.

[...]

The dynamic configuration has the point symmetry C_1 .

Analysis of constrained symmetry for selective dynamics:
 Subroutine PRICEL returns:
 Original cell was already a primitive cell.

 Routine SETGRP: Setting up the symmetry group for a
 simple tetragonal supercell.

 Subroutine GETGRP returns: Found  1 space group operations
 (whereof  1 operations were pure point group operations)
 out of a pool of 16 trial point group operations.

The constrained configuration has the point symmetry C_1 .

 Subroutine INISYM returns: Found  1 space group operations
 (whereof  1 operations are pure point group operations),
 and found     1 'primitive' translations

                                     Primitive cell

  volume of cell :    9881.6133

  direct lattice vectors                    reciprocal lattice vectors
[...]
     54     -43.0180      2.00000
     55     -43.0162      2.00000
     56     -43.0147      2.00000
     57     -43.0124      2.00000
     58     -43.0120      2.00000
     59     -43.0111      2.00000
     60     -43.0110      2.00000
[...]
    946       6.1707      0.00000
    947       6.2043      0.00000
    948       6.2215      0.00000
    949       6.3223      0.00000
    950       6.3472      0.00000
    951       6.4319      0.00000
    952       6.4595      0.00000
    953       6.5196      0.00000
    954       6.6660      0.00000
    955       6.7191      0.00000
    956       6.7781      0.00000
    957       6.7958      0.00000
    958       6.8534      0.00000
    959       6.9052      0.00000
    960       6.9728      0.00000

 soft charge-density along one line, spin component           1
         0         1         2         3         4         5         6         7         8         9
 total charge-density along one line

------------------------ aborting loop because EDIFF is reached ----------------------------------------

  FORCE on cell =-STRESS in cart. coord.  units (eV):
  Direction    XX          YY          ZZ          XY          YZ          ZX
  Alpha Z  1417.83424  1417.83424  1417.83424
  Ewald  484651.50164483712.19756************    -3.57601   -87.59049   -13.50229
  Hartree513666.63016512882.68033************    -3.38970   -60.81906    -9.41799
  E(xc)   -7846.28734 -7846.90331 -7878.59327     0.00004    -0.10824    -0.02498
  Local  ************************************     7.09515   146.37312    22.49862
  n-local -8773.00520 -8773.03330 -8885.91936    -0.08549     0.89960     0.30762
  augment  3550.99164  3551.54212  3499.69595    -0.00943     0.32611     0.00916
  Kinetic 23293.33793 23294.16675 23558.02715    -0.04329     0.93625     0.14900
  Fock        0.00000     0.00000     0.00000     0.00000     0.00000     0.00000
  vdW       -23.90440   -23.81508    -9.14563     0.00046     0.00409    -0.00198
  Total    -172.13195  -172.24880    10.19859    -0.00827     0.02137     0.01716
  in kB     -27.90900   -27.92794     1.65357    -0.00134     0.00346     0.00278

 VOLUME and BASIS-vectors are now :
  energy-cutoff  :      520.00
  volume of cell :     9881.61
      direct lattice vectors                 reciprocal lattice vectors
    21.138852197  0.000000000  0.000000000     0.047306258  0.000000000  0.000000000
     0.000000000 21.138852197  0.000000000     0.000000000  0.047306258  0.000000000
     0.000000000  0.000000000 22.113885220     0.000000000  0.000000000  0.045220457

  length of vectors
    21.138852197 21.138852197 22.113885220     0.047306258  0.047306258  0.045220457

 FORCES acting on ions:
    Electron-Ion                     Ewald-Force                    Non-Local-Force
   0.484E+03 -.684E+01 -.207E+04   -.480E+03 0.671E+01 0.207E+04   -.428E+01 0.146E+00 0.731E+00
   0.183E+01 0.484E+03 -.204E+04   -.183E+01 -.480E+03 0.204E+04   -.308E-02 -.407E+01 -.656E+00
   -.140E+01 -.471E+03 -.203E+04   0.131E+01 0.468E+03 0.203E+04   0.993E-01 0.332E+01 -.882E+00
   -.484E+03 -.422E+01 -.207E+04   0.480E+03 0.406E+01 0.207E+04   0.430E+01 0.169E+00 0.626E+00
   0.664E+01 -.546E+00 0.936E+03   -.667E+01 0.554E+00 -.929E+03   0.221E-01 -.594E-02 -.743E+01
   0.127E+02 0.109E+02 0.940E+03   -.127E+02 -.109E+02 -.933E+03   0.445E-01 -.381E-02 -.743E+01
   0.954E+01 0.100E+02 -.918E+03   -.956E+01 -.100E+02 0.910E+03   0.217E-01 -.155E-01 0.736E+01
   0.135E+02 -.967E+00 -.917E+03   -.136E+02 0.979E+00 0.909E+03   0.362E-01 -.943E-02 0.736E+01
   0.107E+02 0.143E+02 0.941E+03   -.108E+02 -.143E+02 -.933E+03   0.304E-01 -.136E-01 -.744E+01
   0.288E+02 0.247E+02 0.956E+03   -.289E+02 -.247E+02 -.948E+03   0.102E+00 -.873E-02 -.747E+01
   0.227E+02 0.217E+02 -.910E+03   -.227E+02 -.216E+02 0.903E+03   0.147E-01 -.285E-01 0.735E+01
   0.259E+02 0.288E+02 -.910E+03   -.260E+02 -.288E+02 0.902E+03   0.631E-01 -.309E-01 0.735E+01
   0.211E+02 0.113E+02 0.951E+03   -.212E+02 -.112E+02 -.943E+03   0.367E-01 -.764E-02 -.745E+01
   0.468E+02 0.135E+01 0.974E+03   -.470E+02 -.137E+01 -.966E+03   0.132E+00 0.126E-01 -.752E+01
   0.376E+02 0.108E+01 -.903E+03   -.376E+02 -.108E+01 0.895E+03   -.284E-01 0.568E-02 0.734E+01
   0.704E+02 0.318E+02 -.884E+03   -.704E+02 -.317E+02 0.877E+03   0.136E-01 -.510E-01 0.730E+01
   0.217E+02 -.102E+02 0.952E+03   -.218E+02 0.101E+02 -.944E+03   0.453E-01 0.177E-01 -.745E+01
   0.305E+02 -.247E+02 0.958E+03   -.306E+02 0.246E+02 -.950E+03   0.137E+00 0.134E-01 -.747E+01
   0.240E+02 -.215E+02 -.910E+03   -.240E+02 0.215E+02 0.902E+03   0.234E-01 0.318E-01 0.735E+01
   0.738E+02 -.293E+02 -.882E+03   -.738E+02 0.292E+02 0.875E+03   0.284E-01 0.660E-01 0.730E+01
   0.113E+02 -.148E+02 0.941E+03   -.114E+02 0.148E+02 -.934E+03   0.400E-01 0.950E-02 -.744E+01
   0.132E+02 -.123E+02 0.941E+03   -.133E+02 0.123E+02 -.933E+03   0.541E-01 -.134E-01 -.743E+01
   0.995E+01 -.113E+02 -.918E+03   -.999E+01 0.112E+02 0.910E+03   0.266E-01 0.652E-02 0.736E+01
   0.278E+02 -.304E+02 -.909E+03   -.279E+02 0.304E+02 0.901E+03   0.862E-01 0.254E-01 0.735E+01
   0.113E+02 -.104E+01 0.942E+03   -.114E+02 0.106E+01 -.934E+03   0.428E-01 -.158E-01 -.743E+01
   0.857E+01 0.192E+02 0.948E+03   -.862E+01 -.193E+02 -.940E+03   0.357E-01 0.545E-01 -.744E+01
   0.175E+02 0.214E+02 -.912E+03   -.175E+02 -.214E+02 0.904E+03   0.468E-01 0.918E-02 0.736E+01
   0.901E+01 -.181E+01 -.912E+03   -.904E+01 0.184E+01 0.905E+03   0.271E-01 -.208E-01 0.736E+01
   0.207E+02 0.301E+02 0.955E+03   -.209E+02 -.302E+02 -.947E+03   0.981E-01 0.382E-01 -.744E+01
   0.250E+02 0.556E+02 0.994E+03   -.253E+02 -.558E+02 -.986E+03   0.218E+00 0.183E+00 -.742E+01
   0.597E+02 0.698E+02 -.877E+03   -.600E+02 -.697E+02 0.870E+03   0.224E+00 -.892E-01 0.731E+01
   0.219E+02 0.653E+02 -.892E+03   -.219E+02 -.655E+02 0.885E+03   0.668E-01 0.143E+00 0.735E+01
   0.519E+02 0.322E+02 0.100E+04   -.524E+02 -.323E+02 -.992E+03   0.325E+00 0.306E-01 -.759E+01
   0.490E+02 0.440E+01 0.107E+04   -.496E+02 -.452E+01 -.106E+04   0.427E+00 0.934E-01 -.772E+01
   0.150E+03 0.678E+01 -.784E+03   -.150E+03 -.679E+01 0.778E+03   0.165E+00 0.810E-02 0.673E+01
   0.109E+03 0.136E+03 -.727E+03   -.111E+03 -.136E+03 0.720E+03   0.120E+01 -.632E-01 0.678E+01
   0.544E+02 -.294E+02 0.100E+04   -.549E+02 0.294E+02 -.995E+03   0.416E+00 0.117E-01 -.761E+01
   0.273E+02 -.571E+02 0.100E+04   -.277E+02 0.574E+02 -.993E+03   0.290E+00 -.221E+00 -.739E+01
   0.656E+02 -.726E+02 -.873E+03   -.660E+02 0.725E+02 0.865E+03   0.318E+00 0.105E+00 0.730E+01
   0.123E+03 -.131E+03 -.703E+03   -.126E+03 0.131E+03 0.697E+03   0.179E+01 0.188E+00 0.650E+01
   0.223E+02 -.319E+02 0.956E+03   -.224E+02 0.320E+02 -.949E+03   0.130E+00 -.650E-01 -.744E+01
   0.904E+01 -.220E+02 0.949E+03   -.910E+01 0.221E+02 -.942E+03   0.440E-01 -.106E+00 -.744E+01
   0.185E+02 -.244E+02 -.911E+03   -.186E+02 0.244E+02 0.904E+03   0.570E-01 -.411E-01 0.736E+01
   0.243E+02 -.713E+02 -.889E+03   -.244E+02 0.716E+02 0.882E+03   0.869E-01 -.230E+00 0.734E+01
   -.227E+00 -.142E+01 0.945E+03   0.225E+00 0.145E+01 -.938E+03   0.106E-02 -.253E-01 -.744E+01
   -.897E+01 0.191E+02 0.948E+03   0.902E+01 -.191E+02 -.940E+03   -.339E-01 0.545E-01 -.744E+01
   -.362E+00 0.311E+02 -.907E+03   0.360E+00 -.312E+02 0.900E+03   0.114E-02 0.619E-01 0.736E+01
   -.945E+01 -.177E+01 -.912E+03   0.948E+01 0.180E+01 0.905E+03   -.253E-01 -.213E-01 0.736E+01
   -.437E+00 0.439E+02 0.967E+03   0.435E+00 -.443E+02 -.959E+03   0.129E-02 0.262E+00 -.748E+01
   -.260E+02 0.548E+02 0.993E+03   0.262E+02 -.551E+02 -.986E+03   -.213E+00 0.193E+00 -.742E+01
   -.181E+01 0.139E+03 -.825E+03   0.180E+01 -.141E+03 0.817E+03   0.143E-02 0.110E+01 0.740E+01
   -.227E+02 0.644E+02 -.893E+03   0.228E+02 -.645E+02 0.885E+03   -.640E-01 0.143E+00 0.735E+01
   -.131E+01 0.563E+02 0.106E+04   0.129E+01 -.566E+02 -.105E+04   0.158E-01 0.259E+00 -.602E+01
   -.507E+02 0.423E+01 0.107E+04   0.513E+02 -.436E+01 -.106E+04   -.419E+00 0.936E-01 -.768E+01
   -.602E+01 0.231E+02 -.504E+03   0.598E+01 -.240E+02 0.499E+03   0.511E-01 0.652E+00 0.461E+01
   -.111E+03 0.133E+03 -.733E+03   0.112E+03 -.133E+03 0.726E+03   -.120E+01 -.315E-01 0.682E+01
   -.148E+01 -.517E+02 0.107E+04   0.146E+01 0.518E+02 -.106E+04   0.186E-01 -.129E+00 -.527E+01
   -.284E+02 -.563E+02 0.999E+03   0.288E+02 0.566E+02 -.991E+03   -.283E+00 -.232E+00 -.739E+01
   -.232E+01 -.154E+03 -.809E+03   0.231E+01 0.156E+03 0.801E+03   0.657E-02 -.165E+01 0.743E+01
   -.125E+03 -.128E+03 -.711E+03   0.127E+03 0.128E+03 0.705E+03   -.178E+01 0.161E+00 0.661E+01
[...]
   -.112E+02 0.118E+02 0.711E+03   0.113E+02 -.118E+02 -.715E+03   -.336E-01 -.125E-01 0.349E+01
   0.224E+00 0.909E+01 0.706E+03   -.223E+00 -.908E+01 -.710E+03   -.200E-02 -.143E-01 0.350E+01
   -.229E+02 0.115E+02 -.681E+03   0.229E+02 -.115E+02 0.685E+03   -.117E-01 -.216E-01 -.365E+01
   0.721E+00 0.567E+00 -.684E+03   -.717E+00 -.571E+00 0.688E+03   -.558E-02 0.576E-02 -.364E+01
   -.169E+02 0.543E+00 0.716E+03   0.169E+02 -.550E+00 -.720E+03   -.306E-01 0.875E-02 0.347E+01
   0.422E+00 0.675E+01 0.711E+03   -.419E+00 -.674E+01 -.715E+03   -.424E-02 -.778E-02 0.349E+01
   -.237E+02 -.105E+02 -.681E+03   0.237E+02 0.105E+02 0.685E+03   -.179E-01 0.338E-01 -.366E+01
   0.498E+00 -.125E+02 -.687E+03   -.495E+00 0.125E+02 0.691E+03   -.412E-02 0.272E-01 -.363E+01
   -.118E+02 -.117E+02 0.711E+03   0.118E+02 0.117E+02 -.715E+03   -.435E-01 0.160E-01 0.349E+01
   0.443E+00 -.609E+01 0.711E+03   -.440E+00 0.608E+01 -.715E+03   -.466E-02 0.176E-01 0.349E+01
   -.108E+02 -.142E+02 -.688E+03   0.109E+02 0.142E+02 0.692E+03   -.325E-01 0.152E-01 -.362E+01
   0.221E+00 -.709E+01 -.691E+03   -.220E+00 0.708E+01 0.695E+03   -.178E-02 0.480E-02 -.361E+01
   -.562E+01 -.656E+01 0.705E+03   0.564E+01 0.656E+01 -.709E+03   -.321E-01 -.409E-02 0.351E+01
   0.247E+00 -.939E+01 0.706E+03   -.245E+00 0.939E+01 -.710E+03   -.248E-02 0.102E-01 0.350E+01
   0.428E-01 0.781E+00 0.147E+02   0.273E-11 0.210E-11 0.218E-10   -.412E-01 -.779E+00 -.153E+02

 POSITION                                       TOTAL-FORCE (eV/Angst)
      6.12143     10.70919     14.10279        -0.080953      0.007304      0.000437
      8.38943      9.33976     13.66282         0.001008     -0.091906      0.001738
      8.39418     12.03706     13.47256         0.002872      0.093288     -0.000428
     10.67333     10.69253     14.07734         0.080989      0.005749     -0.000736
      0.00000      0.00000      9.00000        -0.006080      0.001644      0.362511
      2.11389      2.11389      9.00000        -0.012301      0.000903      0.362942
      0.00000      2.11389     11.11389        -0.005799      0.004251     -0.339452
      2.11389      0.00000     11.11389        -0.010031      0.002546     -0.338813
      0.00000      4.22777      9.00000        -0.007938      0.003815      0.364604
      2.11389      6.34166      9.00000        -0.026147      0.002962      0.372420
      0.00000      6.34166     11.11389        -0.002964      0.008380     -0.333497
      2.11389      4.22777     11.11389        -0.016220      0.008740     -0.333476
      0.00000      8.45554      9.00000        -0.009320      0.002580      0.369849
      2.11389     10.56943      9.00000        -0.034331     -0.003618      0.387090
      0.00000     10.56943     11.11389         0.009688     -0.001586     -0.325984
      2.11389      8.45554     11.11389         0.006840      0.020006     -0.301278
      0.00000     12.68331      9.00000        -0.011573     -0.005416      0.370095
      2.11389     14.79720      9.00000        -0.035044     -0.004224      0.373526
      0.00000     14.79720     11.11389        -0.005096     -0.009344     -0.332797
      2.11389     12.68331     11.11389         0.003374     -0.024445     -0.298371
      0.00000     16.91108      9.00000        -0.010454     -0.002684      0.364748
      2.11389     19.02497      9.00000        -0.014919      0.003842      0.362785
      0.00000     19.02497     11.11389        -0.007078     -0.001767     -0.339154
      2.11389     16.91108     11.11389        -0.022121     -0.007149     -0.332145
      4.22777      0.00000      9.00000        -0.012133      0.004233      0.362806
      6.34166      2.11389      9.00000        -0.010386     -0.014186      0.363983
      4.22777      2.11389     11.11389        -0.013147     -0.001943     -0.335760
      6.34166      0.00000     11.11389        -0.007755      0.005448     -0.336461
      4.22777      4.22777      9.00000        -0.027651     -0.011265      0.364157
      6.34166      6.34166      9.00000        -0.069825     -0.056390      0.350831
      4.22777      6.34166     11.11389        -0.051940      0.032836     -0.297638
      6.34166      4.22777     11.11389        -0.019625     -0.034778     -0.323830
      4.22777      8.45554      9.00000        -0.080725     -0.005180      0.402632
      6.34166     10.56943      9.00000        -0.135768     -0.029178      0.377601
      4.22777     10.56943     11.11389        -0.008164      0.000060     -0.075823
      6.34166      8.45554     11.11389        -0.387067      0.066382     -0.088434
      4.22777     12.68331      9.00000        -0.102294     -0.006897      0.406074
      6.34166     14.79720      9.00000        -0.093165      0.070627      0.337393
      4.22777     14.79720     11.11389        -0.073412     -0.038794     -0.287134
      6.34166     12.68331     11.11389        -0.604256     -0.087150     -0.057081
      4.22777     16.91108      9.00000        -0.036732      0.019061      0.363141
      6.34166     19.02497      9.00000        -0.012797      0.027772      0.364090
      4.22777     19.02497     11.11389        -0.015995      0.010343     -0.334771
      6.34166     16.91108     11.11389        -0.025067      0.056672     -0.318698
      8.45554      0.00000      9.00000        -0.000305      0.006669      0.363363
     10.56943      2.11389      9.00000         0.009880     -0.014205      0.363911
      8.45554      2.11389     11.11389        -0.000316     -0.014741     -0.333989
     10.56943      0.00000     11.11389         0.007224      0.005605     -0.336499
      8.45554      4.22777      9.00000        -0.000358     -0.065446      0.370613
     10.56943      6.34166      9.00000         0.068426     -0.059514      0.352081
      8.45554      6.34166     11.11389        -0.000682     -0.327245     -0.313130
     10.56943      4.22777     11.11389         0.018794     -0.034570     -0.324004
      8.45554      8.45554      9.00000        -0.005569     -0.047136      0.041281
     10.56943     10.56943      9.00000         0.133837     -0.029290      0.369940
      8.45554     10.56943     11.11389         0.010230     -0.280076     -0.393251
     10.56943      8.45554     11.11389         0.372227      0.060122     -0.080383
      8.45554     12.68331      9.00000        -0.006543      0.015792     -0.122255
     10.56943     14.79720      9.00000         0.091268      0.074028      0.337750
      8.45554     14.79720     11.11389        -0.002462      0.500188     -0.323149
     10.56943     12.68331     11.11389         0.577822     -0.084270     -0.053726
[...]
     19.02497      6.34166     11.11389        -0.000952     -0.006617      0.472688
     16.91108      6.34166      9.00000        -0.009374     -0.003420     -0.504505
     19.02497      4.22777      9.00000        -0.000551     -0.003915     -0.501629
     16.91108      8.45554     11.11389        -0.003719     -0.005903      0.465059
     19.02497     10.56943     11.11389        -0.001537      0.001568      0.468884
     16.91108     10.56943      9.00000        -0.008810      0.002392     -0.509735
     19.02497      8.45554      9.00000        -0.001168     -0.002241     -0.504950
     16.91108     12.68331     11.11389        -0.005475      0.009207      0.464471
     19.02497     14.79720     11.11389        -0.001137      0.007491      0.472215
     16.91108     14.79720      9.00000        -0.012141      0.004355     -0.504616
     19.02497     12.68331      9.00000        -0.001282      0.004902     -0.505004
     16.91108     16.91108     11.11389        -0.009016      0.004135      0.473388
     19.02497     19.02497     11.11389        -0.000497      0.001302      0.476689
     16.91108     19.02497      9.00000        -0.008853     -0.001138     -0.500696
     19.02497     16.91108      9.00000        -0.000686      0.002784     -0.501651
    total drift:                                0.001567      0.002597     -0.591096

  FREE ENERGIE OF THE ION-ELECTRON SYSTEM (eV)
  free  energy   TOTEN  =     -1166.00021397 eV

  energy  without entropy=    -1166.00021397  energy(sigma->0) =    -1166.00021397