 vasp.6.3.0 20Jan22 (build Apr  1 2022 16:44:48) complex
 executed on        HPECrayEX_GCC date 2023.01.09  20:36:28

 INCAR:
   SYSTEM = MgO-rocksalt
   ISMEAR = 0
   SIGMA = 0.05
   EDIFF = 1E-6
   ALGO = ALL
   ISTART = 0
   IBRION = -1
   NSW = 0
   ISYM = 2
   DIPOL = 0.5 0.5 0.5
   IDIPOL = 3
   LDIPOL = .TRUE.
   GGA = MK
   PARAM1 = 0.1234
   PARAM2 = 1.0
   LUSE_VDW = .TRUE.
   AGGAC = 0.0
   ENCUT = 520
   PREC = Accurate
   LASPH = .TRUE.
   LREAL = Auto
   ISPIN = 1
   NELM = 200
   NELMIN = 8
   NCORE = 4
   KPAR = 2
   LWAVE = .FALSE.
   LCHARG = .FALSE.

 POTCAR:    PAW_PBE Au 04Oct2007
 POTCAR:    PAW_PBE Mg_pv 13Apr2007
 POTCAR:    PAW_PBE O 08Apr2002
|               ----> ADVICE to this user running VASP <----                  |
|     You have switched on vdW-DFT.                                           |
|     This routine was written and supplied by Jiri Klimes. We recommend      |
|     that you carefully read and cite the following publications:            |
|       J. Klimes, D.R. Bowler, A. Michelides                                 |
|          J. Phys.: Cond Matt. 22 022201 (2010)                              |
|       J. Klimes, D.R. Bowler, A. Michelides                                 |
|          Phys. Rev. B. 83, 195131 (2011)                                    |
|     and references therein.                                                 |

   TITEL  = PAW_PBE Au 04Oct2007
   POMASS =  196.966; ZVAL   =   11.000    mass and valenz
   ENMAX  =  229.943; ENMIN  =  172.457 eV

   TITEL  = PAW_PBE Mg_pv 13Apr2007
   POMASS =   24.305; ZVAL   =    8.000    mass and valenz
   ENMAX  =  403.929; ENMIN  =  302.947 eV

   TITEL  = PAW_PBE O 08Apr2002
   POMASS =   16.000; ZVAL   =    6.000    mass and valenz
   ENMAX  =  400.000; ENMIN  =  300.000 eV

 Optimization of the real space projectors (new method)

 maximal supplied QI-value         = 15.12
 optimisation between [QCUT,QGAM] = [ 11.64, 23.28] = [ 37.95,151.78] Ry
 Optimized for a Real-space Cutoff    1.49 Angstroem

   l    n(q)    QCUT    max X(q) W(low)/X(q) W(high)/X(q)  e(spline)
   2      9    11.641    60.898    0.24E-03    0.10E-03    0.19E-06
   2      9    11.641    58.894    0.25E-03    0.10E-03    0.19E-06
   0     10    11.641   109.617    0.73E-04    0.33E-04    0.11E-06
   0     10    11.641    75.026    0.71E-04    0.32E-04    0.11E-06
   1     10    11.641    16.344    0.27E-04    0.97E-04    0.16E-06
   1     10    11.641    10.160    0.23E-04    0.77E-04    0.13E-06
 Optimization of the real space projectors (new method)

[...]

   l    n(q)    QCUT    max X(q) W(low)/X(q) W(high)/X(q)  e(spline)
   1      8    11.527     2.974    0.44E-04    0.56E-04    0.12E-06
   1      8    11.527     4.279    0.12E-03    0.12E-03    0.26E-06
   0      9    11.527    16.381    0.46E-04    0.64E-04    0.78E-07
   0      9    11.527     5.611    0.26E-04    0.43E-04    0.55E-07
   2      8    11.527     4.652    0.22E-03    0.72E-04    0.47E-07
 Optimization of the real space projectors (new method)

 maximal supplied QI-value         = 24.76
 optimisation between [QCUT,QGAM] = [ 11.64, 23.27] = [ 37.91,151.63] Ry
 Optimized for a Real-space Cutoff    1.14 Angstroem

   l    n(q)    QCUT    max X(q) W(low)/X(q) W(high)/X(q)  e(spline)
   0      8    11.635    20.381    0.10E-03    0.33E-03    0.24E-06
   0      8    11.635    15.268    0.11E-03    0.35E-03    0.26E-06
   1      7    11.635     5.964    0.24E-03    0.31E-03    0.30E-06
   1      7    11.635     5.382    0.22E-03    0.25E-03    0.26E-06
|               ----> ADVICE to this user running VASP <----                  |
|     You enforced a specific xc type in the INCAR file but a different       |
|     type was found in the POTCAR file.                                      |
|     I HOPE YOU KNOW WHAT YOU ARE DOING!                                     |

  PAW_PBE Au 04Oct2007                  :
  PAW_PBE Mg_pv 13Apr2007               :
  PAW_PBE O 08Apr2002                   :

 POSCAR: Au Mg  O
  positions in direct lattice
  velocities in cartesian coordinates
 exchange correlation table for  LEXCH =       43
   RHO(1)=    0.500       N(1)  =     2000
   RHO(2)=  100.500       N(2)  =     4000

 ion  position               nearest neighbor table
   1  0.400  0.425  0.603- 153 2.29   2 2.53  55 2.73
   2  0.400  0.510  0.684-   1 2.53   3 2.68   4 2.74
   3  0.400  0.633  0.713-   4 2.57   2 2.68
   4  0.400  0.605  0.600- 157 2.16   3 2.57   2 2.74  59 2.95  40 3.02  60 3.02
   5  0.000  0.000  0.407- 107 2.11 108 2.11 123 2.11 188 2.11 105 2.11
   6  0.100  0.100  0.407- 107 2.11 108 2.11 112 2.11 127 2.11 106 2.11
   7  0.000  0.100  0.503- 105 2.11 106 2.11 109 2.11 186 2.11 107 2.11
   8  0.100  0.000  0.503- 105 2.11 106 2.11 122 2.11 125 2.11 108 2.11
   9  0.000  0.200  0.407- 111 2.11 107 2.11 112 2.11 192 2.11 109 2.11
  10  0.100  0.300  0.407- 112 2.11 111 2.11 116 2.11 131 2.11 110 2.11
  11  0.000  0.300  0.503- 109 2.11 110 2.11 113 2.11 190 2.11 111 2.11
  12  0.100  0.200  0.503- 110 2.11 109 2.11 106 2.11 129 2.11 112 2.11
  13  0.000  0.400  0.407- 111 2.11 115 2.11 116 2.11 196 2.11 113 2.11
  14  0.100  0.500  0.407- 115 2.11 116 2.11 120 2.11 135 2.11 114 2.11
  15  0.000  0.500  0.503- 113 2.11 114 2.11 117 2.11 194 2.11 115 2.11
  16  0.100  0.400  0.503- 110 2.11 113 2.11 114 2.11 133 2.11 116 2.11
  17  0.000  0.600  0.407- 115 2.11 119 2.11 120 2.11 200 2.11 117 2.11
  18  0.100  0.700  0.407- 124 2.11 120 2.11 119 2.11 139 2.11 118 2.11
  19  0.000  0.700  0.503- 121 2.11 118 2.11 117 2.11 198 2.11 119 2.11
  20  0.100  0.600  0.503- 114 2.11 117 2.11 118 2.11 137 2.11 120 2.11
  21  0.000  0.800  0.407- 119 2.11 123 2.11 124 2.11 204 2.11 121 2.11
  22  0.100  0.900  0.407- 108 2.11 123 2.11 124 2.11 143 2.11 122 2.11
  23  0.000  0.900  0.503- 105 2.11 121 2.11 122 2.11 202 2.11 123 2.11
  24  0.100  0.800  0.503- 118 2.11 121 2.11 122 2.11 141 2.11 124 2.11
  25  0.200  0.000  0.407- 128 2.11 127 2.11 108 2.11 143 2.11 125 2.11
  26  0.300  0.100  0.407- 127 2.11 128 2.11 132 2.11 147 2.11 126 2.11
  27  0.200  0.100  0.503- 126 2.11 125 2.11 106 2.11 129 2.11 127 2.11
  28  0.300  0.000  0.503- 125 2.11 126 2.11 142 2.11 145 2.11 128 2.11
  29  0.200  0.200  0.407- 131 2.11 132 2.11 112 2.11 127 2.11 129 2.11
  30  0.300  0.300  0.407- 131 2.11 132 2.11 136 2.11 151 2.11 130 2.11
  31  0.200  0.300  0.503- 129 2.11 130 2.11 110 2.11 133 2.11 131 2.11
  32  0.300  0.200  0.503- 129 2.11 130 2.11 126 2.11 149 2.11 132 2.11
  33  0.200  0.400  0.407- 136 2.11 131 2.11 135 2.11 116 2.11 133 2.11
  34  0.300  0.500  0.407- 135 2.11 136 2.11 140 2.11 155 2.11 134 2.11
  35  0.200  0.500  0.503- 134 2.11 133 2.11 114 2.11 137 2.11 135 2.11
  36  0.300  0.400  0.503- 133 2.11 130 2.11 134 2.11 153 2.11 136 2.11
  37  0.200  0.600  0.407- 140 2.11 135 2.11 139 2.11 120 2.11 137 2.11
  38  0.300  0.700  0.407- 139 2.11 144 2.11 140 2.11 159 2.11 138 2.11
  39  0.200  0.700  0.503- 138 2.11 141 2.11 118 2.11 137 2.11 139 2.11
  40  0.300  0.600  0.503- 137 2.11 134 2.11 138 2.11 157 2.11 140 2.11   4 3.02
  41  0.200  0.800  0.407- 139 2.11 144 2.11 143 2.11 124 2.11 141 2.11
  42  0.300  0.900  0.407- 143 2.11 128 2.11 144 2.11 163 2.11 142 2.11
  43  0.200  0.900  0.503- 142 2.11 125 2.11 141 2.11 122 2.11 143 2.11
  44  0.300  0.800  0.503- 138 2.11 141 2.11 142 2.11 161 2.11 144 2.11
  45  0.400  0.000  0.407- 128 2.11 147 2.11 148 2.11 163 2.11 145 2.11
  46  0.500  0.100  0.407- 147 2.11 148 2.11 152 2.11 167 2.11 146 2.11
  47  0.400  0.100  0.503- 126 2.11 145 2.11 146 2.11 149 2.11 147 2.11
  48  0.500  0.000  0.503- 145 2.11 146 2.11 162 2.11 165 2.11 148 2.11
  49  0.400  0.200  0.407- 151 2.11 147 2.11 132 2.11 152 2.11 149 2.11
  50  0.500  0.300  0.407- 152 2.11 151 2.11 156 2.11 171 2.11 150 2.11
  51  0.400  0.300  0.503- 149 2.11 130 2.11 150 2.11 153 2.11 151 2.11
  52  0.500  0.200  0.503- 150 2.11 149 2.11 146 2.11 169 2.11 152 2.11
  53  0.400  0.400  0.407- 136 2.11 151 2.11 155 2.11 156 2.11 153 2.11
  54  0.500  0.500  0.407- 155 2.11 156 2.11 160 2.11 175 2.11 154 2.11
  55  0.400  0.500  0.503- 134 2.11 153 2.11 154 2.11 157 2.11 155 2.11   1 2.73
  56  0.500  0.400  0.503- 150 2.11 153 2.11 154 2.11 173 2.11 156 2.11
  57  0.400  0.600  0.407- 140 2.11 155 2.11 159 2.11 160 2.11 157 2.11
  58  0.500  0.700  0.407- 164 2.11 160 2.11 159 2.11 179 2.11 158 2.11
  59  0.400  0.700  0.503- 161 2.11 157 2.11 158 2.11 138 2.11 159 2.11   4 2.95
  60  0.500  0.600  0.503- 154 2.11 157 2.11 158 2.11 177 2.11 160 2.11   4 3.02
[...]
 190  0.900  0.300  0.503-  92 2.11  91 2.11  11 2.11  96 2.11  90 2.11
 191  0.800  0.300  0.407-  70 2.11  89 2.11  90 2.11  93 2.11  91 2.11
 192  0.900  0.200  0.407-  90 2.11  86 2.11  89 2.11   9 2.11  92 2.11
 193  0.800  0.400  0.503-  76 2.11  91 2.11  95 2.11  96 2.11  93 2.11
 194  0.900  0.500  0.503-  15 2.11  95 2.11  96 2.11 100 2.11  94 2.11
 195  0.800  0.500  0.407-  74 2.11  93 2.11  94 2.11  97 2.11  95 2.11
 196  0.900  0.400  0.407-  13 2.11  90 2.11  93 2.11  94 2.11  96 2.11
 197  0.800  0.600  0.503-  80 2.11  95 2.11  99 2.11 100 2.11  97 2.11
 198  0.900  0.700  0.503- 104 2.11  99 2.11 100 2.11  19 2.11  98 2.11
 199  0.800  0.700  0.407-  78 2.11 101 2.11  98 2.11  97 2.11  99 2.11
 200  0.900  0.600  0.407-  17 2.11  94 2.11  97 2.11  98 2.11 100 2.11
 201  0.800  0.800  0.503-  84 2.11  99 2.11 103 2.11 104 2.11 101 2.11
 202  0.900  0.900  0.503-  23 2.11  88 2.11 103 2.11 104 2.11 102 2.11
 203  0.800  0.900  0.407-  82 2.11  85 2.11 101 2.11 102 2.11 103 2.11
 204  0.900  0.800  0.407-  98 2.11  21 2.11 101 2.11 102 2.11 104 2.11

  LATTYP: Found a simple tetragonal cell.
 ALAT       =    21.1388521970
 C/A-ratio  =     1.0461251639

  Lattice vectors:

 A1 = (  21.1388521970,   0.0000000000,   0.0000000000)
 A2 = (   0.0000000000,  21.1388521970,   0.0000000000)
 A3 = (   0.0000000000,   0.0000000000,  22.1138852197)

Analysis of symmetry for initial positions (statically):
 Subroutine PRICEL returns:
 Original cell was already a primitive cell.

 Routine SETGRP: Setting up the symmetry group for a
 simple tetragonal supercell.

 Subroutine GETGRP returns: Found  1 space group operations
 (whereof  1 operations were pure point group operations)
 out of a pool of 16 trial point group operations.

The static configuration has the point symmetry C_1 .

Analysis of symmetry for dynamics (positions and initial velocities):
 Subroutine PRICEL returns:
 Original cell was already a primitive cell.

[...]

The dynamic configuration has the point symmetry C_1 .

Analysis of constrained symmetry for selective dynamics:
 Subroutine PRICEL returns:
 Original cell was already a primitive cell.

 Routine SETGRP: Setting up the symmetry group for a
 simple tetragonal supercell.

 Subroutine GETGRP returns: Found  1 space group operations
 (whereof  1 operations were pure point group operations)
 out of a pool of 16 trial point group operations.

The constrained configuration has the point symmetry C_1 .

 Subroutine INISYM returns: Found  1 space group operations
 (whereof  1 operations are pure point group operations),
[...]
     52     -43.2627      2.00000
     53     -43.2625      2.00000
     54     -43.2605      2.00000
     55     -43.2599      2.00000
     56     -43.2553      2.00000
     57     -43.2543      2.00000
     58     -43.2531      2.00000
     59     -43.2530      2.00000
     60     -43.2530      2.00000
[...]
    946       5.4690      0.00000
    947       5.4705      0.00000
    948       5.5276      0.00000
    949       5.5856      0.00000
    950       5.5945      0.00000
    951       5.6028      0.00000
    952       5.6525      0.00000
    953       5.7070      0.00000
    954       5.7803      0.00000
    955       5.8334      0.00000
    956       5.9142      0.00000
    957       6.0321      0.00000
    958       6.1418      0.00000
    959       6.2639      0.00000
    960       6.3748      0.00000

 soft charge-density along one line, spin component           1
         0         1         2         3         4         5         6         7         8         9
 total charge-density along one line

------------------------ aborting loop because EDIFF is reached ----------------------------------------

  FORCE on cell =-STRESS in cart. coord.  units (eV):
  Direction    XX          YY          ZZ          XY          YZ          ZX
  Alpha Z  1417.83424  1417.83424  1417.83424
  Ewald  478689.67923480803.91176************     0.83759   457.00324     0.56808
  Hartree508065.21567509709.80034************     0.62459   334.40209     0.41863
  E(xc)   -7853.37071 -7852.82983 -7851.95978     0.00025     0.33998     0.00016
  Local  ************************************    -1.44749  -779.62492    -0.97636
  n-local -8794.35024 -8804.44713 -8927.98748    -0.00440    -5.31062    -0.00384
  augment  3555.18104  3550.59712  3487.82107    -0.00297    -1.90869    -0.00292
  Kinetic 23313.72569 23302.36167 23524.34325    -0.00742    -5.02544    -0.00076
  Fock        0.00000     0.00000     0.00000     0.00000     0.00000     0.00000
  Total    -185.48315  -185.17290    -0.16747     0.00015    -0.12435     0.00299
  in kB     -30.07372   -30.02342    -0.02715     0.00002    -0.02016     0.00048

 VOLUME and BASIS-vectors are now :
  energy-cutoff  :      520.00
  volume of cell :     9881.61
      direct lattice vectors                 reciprocal lattice vectors
    21.138852197  0.000000000  0.000000000     0.047306258  0.000000000  0.000000000
     0.000000000 21.138852197  0.000000000     0.000000000  0.047306258  0.000000000
     0.000000000  0.000000000 22.113885220     0.000000000  0.000000000  0.045220457

  length of vectors
    21.138852197 21.138852197 22.113885220     0.047306258  0.047306258  0.045220457

 FORCES acting on ions:
    Electron-Ion                     Ewald-Force                    Non-Local-Force
   0.616E-01 0.369E+03 -.196E+04   -.629E-01 -.366E+03 0.197E+04   0.218E-02 -.328E+01 -.423E+01
   0.196E+00 0.209E+03 -.198E+04   -.196E+00 -.211E+03 0.198E+04   0.733E-03 0.224E+01 0.376E+01
   -.393E+00 -.355E+03 -.186E+04   0.386E+00 0.351E+03 0.185E+04   0.648E-02 0.378E+01 0.557E+01
   0.139E+00 -.226E+03 -.180E+04   -.137E+00 0.227E+03 0.180E+04   -.181E-03 -.906E+00 -.250E+01
   0.728E+01 -.275E+01 0.936E+03   -.731E+01 0.276E+01 -.929E+03   0.164E-01 -.678E-02 -.728E+01
   0.131E+02 0.618E+01 0.939E+03   -.131E+02 -.620E+01 -.932E+03   0.342E-01 0.123E-01 -.729E+01
   0.949E+01 0.529E+01 -.918E+03   -.951E+01 -.529E+01 0.910E+03   0.140E-01 -.240E-02 0.720E+01
   0.158E+02 -.520E+01 -.915E+03   -.158E+02 0.521E+01 0.908E+03   0.186E-01 -.900E-02 0.719E+01
   0.977E+01 0.993E+01 0.938E+03   -.981E+01 -.994E+01 -.931E+03   0.295E-01 0.935E-02 -.729E+01
   0.254E+02 0.186E+02 0.950E+03   -.256E+02 -.186E+02 -.942E+03   0.111E+00 0.334E-01 -.731E+01
   0.184E+02 0.158E+02 -.913E+03   -.185E+02 -.158E+02 0.906E+03   0.219E-01 0.341E-02 0.719E+01
   0.240E+02 0.201E+02 -.912E+03   -.240E+02 -.201E+02 0.904E+03   0.466E-01 0.520E-02 0.718E+01
   0.172E+02 0.973E+01 0.945E+03   -.173E+02 -.974E+01 -.937E+03   0.566E-01 0.129E-01 -.730E+01
   0.394E+02 0.477E+01 0.962E+03   -.396E+02 -.479E+01 -.954E+03   0.188E+00 0.177E-01 -.734E+01
   0.286E+02 0.429E+01 -.907E+03   -.286E+02 -.430E+01 0.900E+03   0.291E-01 0.748E-02 0.718E+01
   0.538E+02 0.225E+02 -.897E+03   -.538E+02 -.225E+02 0.889E+03   0.575E-01 0.974E-02 0.715E+01
   0.191E+02 -.486E+01 0.947E+03   -.192E+02 0.486E+01 -.939E+03   0.702E-01 -.204E-03 -.730E+01
   0.313E+02 -.168E+02 0.955E+03   -.315E+02 0.168E+02 -.948E+03   0.154E+00 -.310E-01 -.732E+01
   0.231E+02 -.140E+02 -.910E+03   -.232E+02 0.140E+02 0.902E+03   0.344E-01 -.518E-03 0.718E+01
   0.622E+02 -.117E+02 -.891E+03   -.623E+02 0.117E+02 0.884E+03   0.102E+00 0.104E-01 0.714E+01
   0.122E+02 -.120E+02 0.941E+03   -.122E+02 0.121E+02 -.933E+03   0.403E-01 -.153E-01 -.729E+01
   0.157E+02 -.127E+02 0.942E+03   -.157E+02 0.128E+02 -.934E+03   0.425E-01 -.322E-01 -.729E+01
   0.116E+02 -.114E+02 -.916E+03   -.117E+02 0.114E+02 0.909E+03   0.178E-01 -.796E-02 0.720E+01
   0.329E+02 -.257E+02 -.906E+03   -.330E+02 0.258E+02 0.898E+03   0.645E-01 -.164E-01 0.718E+01
   0.133E+02 -.528E+01 0.943E+03   -.134E+02 0.530E+01 -.935E+03   0.280E-01 -.157E-01 -.729E+01
   0.952E+01 0.126E+02 0.948E+03   -.955E+01 -.127E+02 -.940E+03   0.258E-01 0.752E-01 -.730E+01
   0.188E+02 0.132E+02 -.911E+03   -.188E+02 -.132E+02 0.904E+03   0.251E-01 0.248E-01 0.718E+01
   0.117E+02 -.106E+02 -.908E+03   -.117E+02 0.106E+02 0.901E+03   0.115E-01 -.735E-02 0.718E+01
   0.206E+02 0.226E+02 0.951E+03   -.207E+02 -.227E+02 -.943E+03   0.883E-01 0.830E-01 -.730E+01
   0.265E+02 0.458E+02 0.986E+03   -.268E+02 -.462E+02 -.978E+03   0.240E+00 0.309E+00 -.734E+01
   0.559E+02 0.506E+02 -.887E+03   -.561E+02 -.506E+02 0.880E+03   0.189E+00 0.229E-03 0.711E+01
   0.240E+02 0.540E+02 -.894E+03   -.241E+02 -.542E+02 0.886E+03   0.315E-01 0.169E+00 0.714E+01
   0.470E+02 0.254E+02 0.982E+03   -.475E+02 -.255E+02 -.974E+03   0.402E+00 0.900E-01 -.745E+01
   0.505E+02 0.115E+02 0.104E+04   -.512E+02 -.117E+02 -.103E+04   0.545E+00 0.126E+00 -.750E+01
   0.113E+03 0.144E+02 -.846E+03   -.113E+03 -.145E+02 0.839E+03   0.277E+00 0.382E-01 0.702E+01
   0.128E+03 0.927E+02 -.764E+03   -.130E+03 -.928E+02 0.757E+03   0.157E+01 0.717E-01 0.642E+01
   0.535E+02 -.141E+02 0.990E+03   -.541E+02 0.141E+02 -.983E+03   0.541E+00 -.355E-01 -.746E+01
   0.351E+02 -.449E+02 0.101E+04   -.355E+02 0.454E+02 -.100E+04   0.345E+00 -.388E+00 -.733E+01
   0.780E+02 -.504E+02 -.868E+03   -.783E+02 0.504E+02 0.860E+03   0.276E+00 -.109E-01 0.710E+01
   0.156E+03 -.488E+02 -.721E+03   -.159E+03 0.489E+02 0.714E+03   0.258E+01 -.219E-01 0.657E+01
   0.274E+02 -.286E+02 0.960E+03   -.275E+02 0.288E+02 -.952E+03   0.119E+00 -.121E+00 -.731E+01
   0.121E+02 -.255E+02 0.954E+03   -.121E+02 0.257E+02 -.947E+03   0.279E-01 -.130E+00 -.732E+01
   0.250E+02 -.284E+02 -.906E+03   -.250E+02 0.285E+02 0.898E+03   0.219E-01 -.539E-01 0.718E+01
   0.386E+02 -.776E+02 -.869E+03   -.386E+02 0.779E+02 0.862E+03   -.111E-01 -.275E+00 0.709E+01
   -.176E-02 -.745E+01 0.948E+03   0.172E-02 0.747E+01 -.940E+03   0.315E-04 -.179E-01 -.730E+01
   -.952E+01 0.126E+02 0.948E+03   0.955E+01 -.127E+02 -.940E+03   -.257E-01 0.753E-01 -.730E+01
   -.408E-02 0.219E+02 -.906E+03   0.401E-02 -.220E+02 0.898E+03   0.540E-04 0.619E-01 0.717E+01
   -.117E+02 -.106E+02 -.908E+03   0.117E+02 0.106E+02 0.901E+03   -.114E-01 -.733E-02 0.718E+01
   -.584E-02 0.364E+02 0.964E+03   0.574E-02 -.368E+02 -.956E+03   0.777E-04 0.342E+00 -.737E+01
   -.265E+02 0.457E+02 0.986E+03   0.268E+02 -.461E+02 -.978E+03   -.240E+00 0.309E+00 -.734E+01
   -.365E-01 0.133E+03 -.820E+03   0.361E-01 -.135E+03 0.813E+03   0.312E-03 0.162E+01 0.707E+01
   -.241E+02 0.539E+02 -.894E+03   0.241E+02 -.542E+02 0.886E+03   -.313E-01 0.169E+00 0.714E+01
   -.203E-01 0.474E+02 0.104E+04   0.198E-01 -.480E+02 -.104E+04   0.401E-03 0.451E+00 -.537E+01
   -.505E+02 0.115E+02 0.104E+04   0.512E+02 -.117E+02 -.103E+04   -.545E+00 0.126E+00 -.750E+01
   -.979E-01 0.196E+02 -.583E+03   0.971E-01 -.212E+02 0.579E+03   0.826E-03 0.139E+01 0.450E+01
   -.128E+03 0.927E+02 -.764E+03   0.130E+03 -.928E+02 0.757E+03   -.157E+01 0.721E-01 0.642E+01
   -.162E-01 -.272E+02 0.107E+04   0.157E-01 0.276E+02 -.106E+04   0.423E-03 -.302E+00 -.412E+01
   -.351E+02 -.449E+02 0.101E+04   0.355E+02 0.454E+02 -.100E+04   -.345E+00 -.388E+00 -.733E+01
   -.276E-01 -.162E+03 -.734E+03   0.275E-01 0.166E+03 0.727E+03   0.735E-04 -.248E+01 0.610E+01
   -.156E+03 -.488E+02 -.721E+03   0.159E+03 0.488E+02 0.715E+03   -.258E+01 -.224E-01 0.657E+01
[...]
   -.101E+02 0.914E+01 0.708E+03   0.101E+02 -.915E+01 -.712E+03   -.375E-01 0.169E-01 0.357E+01
   0.210E-02 0.632E+01 0.704E+03   -.206E-02 -.632E+01 -.708E+03   -.542E-04 0.726E-02 0.357E+01
   -.185E+02 0.966E+01 -.684E+03   0.185E+02 -.967E+01 0.688E+03   -.293E-01 0.888E-02 -.375E+01
   0.473E-02 0.256E+01 -.686E+03   -.466E-02 -.257E+01 0.690E+03   -.901E-04 0.734E-02 -.373E+01
   -.147E+02 0.235E+01 0.712E+03   0.147E+02 -.236E+01 -.716E+03   -.535E-01 0.113E-01 0.356E+01
   0.349E-02 0.607E+01 0.708E+03   -.342E-02 -.608E+01 -.712E+03   -.856E-04 0.112E-01 0.357E+01
   -.210E+02 -.474E+01 -.682E+03   0.210E+02 0.474E+01 0.687E+03   -.373E-01 0.543E-02 -.375E+01
   0.252E-02 -.831E+01 -.687E+03   -.247E-02 0.831E+01 0.691E+03   -.580E-04 -.155E-02 -.372E+01
   -.121E+02 -.801E+01 0.710E+03   0.121E+02 0.803E+01 -.714E+03   -.493E-01 -.146E-01 0.356E+01
   0.292E-02 -.296E+01 0.709E+03   -.287E-02 0.296E+01 -.713E+03   -.712E-04 0.830E-03 0.357E+01
   -.126E+02 -.117E+02 -.687E+03   0.126E+02 0.117E+02 0.691E+03   -.280E-01 -.117E-01 -.372E+01
   0.110E-02 -.709E+01 -.690E+03   -.107E-02 0.710E+01 0.694E+03   -.327E-04 -.831E-02 -.371E+01
   -.669E+01 -.666E+01 0.705E+03   0.671E+01 0.667E+01 -.709E+03   -.256E-01 -.179E-01 0.358E+01
   0.138E-02 -.762E+01 0.706E+03   -.135E-02 0.763E+01 -.710E+03   -.385E-04 -.129E-01 0.357E+01
   -.509E-04 -.368E+01 0.242E+01   0.958E-12 0.122E-11 0.209E-10   -.281E-03 0.368E+01 -.285E+01

 POSITION                                       TOTAL-FORCE (eV/Angst)
      8.45451      8.98915     13.34135         0.000803      0.008211     -0.022748
      8.45464     10.77395     15.12987         0.000277      0.012100     -0.028164
      8.45667     13.37210     15.77041        -0.001057     -0.018883     -0.027373
      8.45496     12.78393     13.26751         0.001446     -0.012580     -0.007482
      0.00000      0.00000      9.00000        -0.004547      0.001885      0.361016
      2.11389      2.11389      9.00000        -0.009497     -0.003457      0.362225
      0.00000      2.11389     11.11389        -0.003706      0.000681     -0.328725
      2.11389      0.00000     11.11389        -0.005139      0.002384     -0.327035
      0.00000      4.22777      9.00000        -0.007862     -0.002582      0.362562
      2.11389      6.34166      9.00000        -0.029417     -0.009102      0.369237
      0.00000      6.34166     11.11389        -0.005173     -0.000722     -0.323128
      2.11389      4.22777     11.11389        -0.011722     -0.001181     -0.320612
      0.00000      8.45554      9.00000        -0.015003     -0.003580      0.365635
      2.11389     10.56943      9.00000        -0.050072     -0.005244      0.375468
      0.00000     10.56943     11.11389        -0.006468     -0.002158     -0.318218
      2.11389      8.45554     11.11389        -0.010956     -0.002092     -0.300794
      0.00000     12.68331      9.00000        -0.018441     -0.000046      0.366035
      2.11389     14.79720      9.00000        -0.040815      0.008839      0.370175
      0.00000     14.79720     11.11389        -0.008367      0.000012     -0.322093
      2.11389     12.68331     11.11389        -0.022105     -0.003446     -0.298833
      0.00000     16.91108      9.00000        -0.010751      0.004317      0.362890
      2.11389     19.02497      9.00000        -0.011831      0.008958      0.362494
      0.00000     19.02497     11.11389        -0.004697      0.002205     -0.328143
      2.11389     16.91108     11.11389        -0.016183      0.004339     -0.317708
      4.22777      0.00000      9.00000        -0.007876      0.004142      0.363616
      6.34166      2.11389      9.00000        -0.007515     -0.019951      0.366238
      4.22777      2.11389     11.11389        -0.006911     -0.005939     -0.321332
      6.34166      0.00000     11.11389        -0.003134      0.001698     -0.320441
      4.22777      4.22777      9.00000        -0.024922     -0.023303      0.365551
      6.34166      6.34166      9.00000        -0.079499     -0.096027      0.358559
      4.22777      6.34166     11.11389        -0.042434      0.004626     -0.277165
      6.34166      4.22777     11.11389        -0.008877     -0.039536     -0.293188
      4.22777      8.45554      9.00000        -0.102210     -0.024296      0.396619
      6.34166     10.56943      9.00000        -0.182832     -0.042624      0.365562
      4.22777     10.56943     11.11389        -0.056109     -0.013119     -0.217559
      6.34166      8.45554     11.11389        -0.525987      0.004639     -0.054411
      4.22777     12.68331      9.00000        -0.135288      0.008708      0.399542
      6.34166     14.79720      9.00000        -0.113656      0.125619      0.346118
      4.22777     14.79720     11.11389        -0.065712      0.000437     -0.264505
      6.34166     12.68331     11.11389        -0.889921     -0.006626     -0.177621
      4.22777     16.91108      9.00000        -0.033959      0.034155      0.366474
      6.34166     19.02497      9.00000        -0.007850      0.034049      0.370073
      4.22777     19.02497     11.11389        -0.006034      0.013249     -0.317741
      6.34166     16.91108     11.11389         0.007558      0.061570     -0.261809
      8.45554      0.00000      9.00000        -0.000008      0.004861      0.365672
     10.56943      2.11389      9.00000         0.007500     -0.019964      0.366233
      8.45554      2.11389     11.11389        -0.000010     -0.013927     -0.314545
     10.56943      0.00000     11.11389         0.003114      0.001697     -0.320441
      8.45554      4.22777      9.00000        -0.000024     -0.085449      0.379564
     10.56943      6.34166      9.00000         0.079453     -0.096078      0.358516
      8.45554      6.34166     11.11389        -0.000105     -0.496575     -0.216874
     10.56943      4.22777     11.11389         0.008840     -0.039605     -0.293206
      8.45554      8.45554      9.00000        -0.000125     -0.098993     -0.045742
     10.56943     10.56943      9.00000         0.182772     -0.042621      0.365495
      8.45554     10.56943     11.11389        -0.000027     -0.177268     -0.060909
     10.56943      8.45554     11.11389         0.525460      0.004635     -0.054539
      8.45554     12.68331      9.00000        -0.000134      0.071635     -0.317406
     10.56943     14.79720      9.00000         0.113635      0.125686      0.346144
      8.45554     14.79720     11.11389         0.000035      0.915043     -0.137439
     10.56943     12.68331     11.11389         0.889401     -0.006468     -0.177268
[...]
     19.02497      6.34166     11.11389        -0.000022      0.001183      0.367617
     16.91108      6.34166      9.00000        -0.010342      0.004678     -0.407056
     19.02497      4.22777      9.00000        -0.000016      0.002016     -0.404554
     16.91108      8.45554     11.11389        -0.008050      0.002422      0.360744
     19.02497     10.56943     11.11389        -0.000025      0.002027      0.364415
     16.91108     10.56943      9.00000        -0.014768      0.003108     -0.409594
     19.02497      8.45554      9.00000        -0.000020      0.003088     -0.406682
     16.91108     12.68331     11.11389        -0.010280      0.001513      0.359900
     19.02497     14.79720     11.11389        -0.000013     -0.000417      0.366864
     16.91108     14.79720      9.00000        -0.013586     -0.004048     -0.407410
     19.02497     12.68331      9.00000        -0.000020      0.000212     -0.406802
     16.91108     16.91108     11.11389        -0.007678     -0.003210      0.367057
     19.02497     19.02497     11.11389        -0.000008     -0.002284      0.371184
     16.91108     19.02497      9.00000        -0.007022     -0.004908     -0.404377
     19.02497     16.91108      9.00000        -0.000005     -0.003560     -0.404784
    total drift:                               -0.000332     -0.000224     -0.428632

  FREE ENERGIE OF THE ION-ELECTRON SYSTEM (eV)
  free  energy   TOTEN  =      -744.18931722 eV

  energy  without entropy=     -744.18931722  energy(sigma->0) =     -744.18931722