 vasp.6.3.0 20Jan22 (build Apr  1 2022 16:44:48) complex
 executed on        HPECrayEX_GCC date 2023.01.17  23:58:14

 INCAR:
   SYSTEM = MgO-rocksalt
   ISMEAR = 0
   SIGMA = 0.05
   EDIFF = 1E-6
   ALGO = ALL
   ISTART = 0
   IBRION = -1
   NSW = 0
   ISYM = 2
   DIPOL = 0.5 0.5 0.5
   IDIPOL = 3
   LDIPOL = .TRUE.
   LHFCALC = .TRUE.
   GGA = B5
   AEXX = 0.2
   AGGAX = 0.72
   AGGAC = 0.81
   ALDAC = 0.19
   IVDW = 12
   VDW_S8 = 1.9889
   VDW_A1 = 0.3981
   VDW_A2 = 4.4211
   ENCUT = 520
   PREC = Accurate
   LASPH = .TRUE.
   LREAL = Auto
   ISPIN = 1
   NELM = 200
   NELMIN = 8
   NCORE = 4
   KPAR = 2
   LWAVE = .FALSE.
   LCHARG = .FALSE.

 POTCAR:    PAW_PBE Cu 22Jun2005
 POTCAR:    PAW_PBE Mg_pv 13Apr2007
 POTCAR:    PAW_PBE O 08Apr2002
|           W    W    AA    RRRRR   N    N  II  N    N   GGGG   !!!           |
|           W    W   A  A   R    R  NN   N  II  NN   N  G    G  !!!           |
|           W    W  A    A  R    R  N N  N  II  N N  N  G       !!!           |
|           W WW W  AAAAAA  RRRRR   N  N N  II  N  N N  G  GGG   !            |
|           WW  WW  A    A  R   R   N   NN  II  N   NN  G    G                |
|           W    W  A    A  R    R  N    N  II  N    N   GGGG   !!!           |
|     You have selected ISYM=2 for a HF type calculation. This will           |
|     symmetrize the charge density but not the exchange potential. I         |
|     suggest to use ISYM=3 instead. This uses symmetry to obtain the         |
|     orbitals at all k-points in the Brillouin zone, but does not apply      |
|     symmetry to the Hartree potential directly. The resultant charge        |
|     might have lower symmetry than the crystal but, at least, Hartree       |
|     and exchange are fully compatible.                                      |

   TITEL  = PAW_PBE Cu 22Jun2005
   POMASS =   63.546; ZVAL   =   11.000    mass and valenz
   ENMAX  =  295.446; ENMIN  =  221.585 eV

   TITEL  = PAW_PBE Mg_pv 13Apr2007
   POMASS =   24.305; ZVAL   =    8.000    mass and valenz
   ENMAX  =  403.929; ENMIN  =  302.947 eV

   TITEL  = PAW_PBE O 08Apr2002
   POMASS =   16.000; ZVAL   =    6.000    mass and valenz
   ENMAX  =  400.000; ENMIN  =  300.000 eV

 Optimization of the real space projectors (new method)

 maximal supplied QI-value         = 16.25
 optimisation between [QCUT,QGAM] = [ 11.54, 23.24] = [ 37.28,151.24] Ry
 Optimized for a Real-space Cutoff    1.53 Angstroem

   l    n(q)    QCUT    max X(q) W(low)/X(q) W(high)/X(q)  e(spline)
   2     10    11.539     4.610    0.96E-04    0.13E-03    0.19E-06
   2     10    11.539     8.522    0.16E-03    0.21E-03    0.28E-06
   0     11    11.539    51.609    0.45E-04    0.31E-04    0.11E-06
   0     11    11.539    27.747    0.39E-04    0.29E-04    0.10E-06
   1     10    11.539    20.408    0.70E-05    0.38E-04    0.18E-06
   1     10    11.539    13.425    0.66E-05    0.34E-04    0.17E-06
 Optimization of the real space projectors (new method)

[...]

   l    n(q)    QCUT    max X(q) W(low)/X(q) W(high)/X(q)  e(spline)
   1      8    11.527     2.974    0.44E-04    0.56E-04    0.12E-06
   1      8    11.527     4.279    0.12E-03    0.12E-03    0.26E-06
   0      9    11.527    16.381    0.46E-04    0.64E-04    0.78E-07
   0      9    11.527     5.611    0.26E-04    0.43E-04    0.55E-07
   2      8    11.527     4.652    0.22E-03    0.72E-04    0.47E-07
 Optimization of the real space projectors (new method)

 maximal supplied QI-value         = 24.76
 optimisation between [QCUT,QGAM] = [ 11.64, 23.27] = [ 37.91,151.63] Ry
 Optimized for a Real-space Cutoff    1.14 Angstroem

   l    n(q)    QCUT    max X(q) W(low)/X(q) W(high)/X(q)  e(spline)
   0      8    11.635    20.381    0.10E-03    0.33E-03    0.24E-06
   0      8    11.635    15.268    0.11E-03    0.35E-03    0.26E-06
   1      7    11.635     5.964    0.24E-03    0.31E-03    0.30E-06
   1      7    11.635     5.382    0.22E-03    0.25E-03    0.26E-06
|               ----> ADVICE to this user running VASP <----                  |
|     You enforced a specific xc type in the INCAR file but a different       |
|     type was found in the POTCAR file.                                      |
|     I HOPE YOU KNOW WHAT YOU ARE DOING!                                     |

  PAW_PBE Cu 22Jun2005                  :
  PAW_PBE Mg_pv 13Apr2007               :
  PAW_PBE O 08Apr2002                   :

 POSCAR: Cu Mg  O
  positions in direct lattice
  velocities in cartesian coordinates
 exchange correlation table for  LEXCH =       12
   RHO(1)=    0.500       N(1)  =     2000
   RHO(2)=  100.500       N(2)  =     4000

 ion  position               nearest neighbor table
   1  0.398  0.602  0.598- 157 2.11   2 2.32
   2  0.321  0.679  0.599- 138 2.22   1 2.32
   3  0.579  0.421  0.599- 173 2.22   4 2.32
   4  0.502  0.498  0.598- 154 2.11   3 2.32
   5  0.000  0.000  0.407- 107 2.11 108 2.11 123 2.11 188 2.11 105 2.11
   6  0.100  0.100  0.407- 107 2.11 108 2.11 112 2.11 127 2.11 106 2.11
   7  0.000  0.100  0.503- 105 2.11 106 2.11 109 2.11 186 2.11 107 2.11
   8  0.100  0.000  0.503- 105 2.11 106 2.11 122 2.11 125 2.11 108 2.11
   9  0.000  0.200  0.407- 111 2.11 107 2.11 112 2.11 192 2.11 109 2.11
  10  0.100  0.300  0.407- 112 2.11 111 2.11 116 2.11 131 2.11 110 2.11
  11  0.000  0.300  0.503- 109 2.11 110 2.11 113 2.11 190 2.11 111 2.11
  12  0.100  0.200  0.503- 110 2.11 109 2.11 106 2.11 129 2.11 112 2.11
  13  0.000  0.400  0.407- 111 2.11 115 2.11 116 2.11 196 2.11 113 2.11
  14  0.100  0.500  0.407- 115 2.11 116 2.11 120 2.11 135 2.11 114 2.11
  15  0.000  0.500  0.503- 113 2.11 114 2.11 117 2.11 194 2.11 115 2.11
  16  0.100  0.400  0.503- 110 2.11 113 2.11 114 2.11 133 2.11 116 2.11
  17  0.000  0.600  0.407- 115 2.11 119 2.11 120 2.11 200 2.11 117 2.11
  18  0.100  0.700  0.407- 124 2.11 120 2.11 119 2.11 139 2.11 118 2.11
  19  0.000  0.700  0.503- 121 2.11 118 2.11 117 2.11 198 2.11 119 2.11
  20  0.100  0.600  0.503- 114 2.11 117 2.11 118 2.11 137 2.11 120 2.11
  21  0.000  0.800  0.407- 119 2.11 123 2.11 124 2.11 204 2.11 121 2.11
  22  0.100  0.900  0.407- 108 2.11 123 2.11 124 2.11 143 2.11 122 2.11
  23  0.000  0.900  0.503- 105 2.11 121 2.11 122 2.11 202 2.11 123 2.11
  24  0.100  0.800  0.503- 118 2.11 121 2.11 122 2.11 141 2.11 124 2.11
  25  0.200  0.000  0.407- 128 2.11 127 2.11 108 2.11 143 2.11 125 2.11
  26  0.300  0.100  0.407- 127 2.11 128 2.11 132 2.11 147 2.11 126 2.11
  27  0.200  0.100  0.503- 126 2.11 125 2.11 106 2.11 129 2.11 127 2.11
  28  0.300  0.000  0.503- 125 2.11 126 2.11 142 2.11 145 2.11 128 2.11
  29  0.200  0.200  0.407- 131 2.11 132 2.11 112 2.11 127 2.11 129 2.11
  30  0.300  0.300  0.407- 131 2.11 132 2.11 136 2.11 151 2.11 130 2.11
  31  0.200  0.300  0.503- 129 2.11 130 2.11 110 2.11 133 2.11 131 2.11
  32  0.300  0.200  0.503- 129 2.11 130 2.11 126 2.11 149 2.11 132 2.11
  33  0.200  0.400  0.407- 136 2.11 131 2.11 135 2.11 116 2.11 133 2.11
  34  0.300  0.500  0.407- 135 2.11 136 2.11 140 2.11 155 2.11 134 2.11
  35  0.200  0.500  0.503- 134 2.11 133 2.11 114 2.11 137 2.11 135 2.11
  36  0.300  0.400  0.503- 133 2.11 130 2.11 134 2.11 153 2.11 136 2.11
  37  0.200  0.600  0.407- 140 2.11 135 2.11 139 2.11 120 2.11 137 2.11
  38  0.300  0.700  0.407- 139 2.11 144 2.11 140 2.11 159 2.11 138 2.11
  39  0.200  0.700  0.503- 138 2.11 141 2.11 118 2.11 137 2.11 139 2.11
  40  0.300  0.600  0.503- 137 2.11 134 2.11 138 2.11 157 2.11 140 2.11
  41  0.200  0.800  0.407- 139 2.11 144 2.11 143 2.11 124 2.11 141 2.11
  42  0.300  0.900  0.407- 143 2.11 128 2.11 144 2.11 163 2.11 142 2.11
  43  0.200  0.900  0.503- 142 2.11 125 2.11 141 2.11 122 2.11 143 2.11
  44  0.300  0.800  0.503- 138 2.11 141 2.11 142 2.11 161 2.11 144 2.11
  45  0.400  0.000  0.407- 128 2.11 147 2.11 148 2.11 163 2.11 145 2.11
  46  0.500  0.100  0.407- 147 2.11 148 2.11 152 2.11 167 2.11 146 2.11
  47  0.400  0.100  0.503- 126 2.11 145 2.11 146 2.11 149 2.11 147 2.11
  48  0.500  0.000  0.503- 145 2.11 146 2.11 162 2.11 165 2.11 148 2.11
  49  0.400  0.200  0.407- 151 2.11 147 2.11 132 2.11 152 2.11 149 2.11
  50  0.500  0.300  0.407- 152 2.11 151 2.11 156 2.11 171 2.11 150 2.11
  51  0.400  0.300  0.503- 149 2.11 130 2.11 150 2.11 153 2.11 151 2.11
  52  0.500  0.200  0.503- 150 2.11 149 2.11 146 2.11 169 2.11 152 2.11
  53  0.400  0.400  0.407- 136 2.11 151 2.11 155 2.11 156 2.11 153 2.11
  54  0.500  0.500  0.407- 155 2.11 156 2.11 160 2.11 175 2.11 154 2.11
  55  0.400  0.500  0.503- 134 2.11 153 2.11 154 2.11 157 2.11 155 2.11
  56  0.500  0.400  0.503- 150 2.11 153 2.11 154 2.11 173 2.11 156 2.11
  57  0.400  0.600  0.407- 140 2.11 155 2.11 159 2.11 160 2.11 157 2.11
  58  0.500  0.700  0.407- 164 2.11 160 2.11 159 2.11 179 2.11 158 2.11
  59  0.400  0.700  0.503- 161 2.11 157 2.11 158 2.11 138 2.11 159 2.11
  60  0.500  0.600  0.503- 154 2.11 157 2.11 158 2.11 177 2.11 160 2.11
[...]
 190  0.900  0.300  0.503-  92 2.11  91 2.11  11 2.11  96 2.11  90 2.11
 191  0.800  0.300  0.407-  70 2.11  89 2.11  90 2.11  93 2.11  91 2.11
 192  0.900  0.200  0.407-  90 2.11  86 2.11  89 2.11   9 2.11  92 2.11
 193  0.800  0.400  0.503-  76 2.11  91 2.11  95 2.11  96 2.11  93 2.11
 194  0.900  0.500  0.503-  15 2.11  95 2.11  96 2.11 100 2.11  94 2.11
 195  0.800  0.500  0.407-  74 2.11  93 2.11  94 2.11  97 2.11  95 2.11
 196  0.900  0.400  0.407-  13 2.11  90 2.11  93 2.11  94 2.11  96 2.11
 197  0.800  0.600  0.503-  80 2.11  95 2.11  99 2.11 100 2.11  97 2.11
 198  0.900  0.700  0.503- 104 2.11  99 2.11 100 2.11  19 2.11  98 2.11
 199  0.800  0.700  0.407-  78 2.11 101 2.11  98 2.11  97 2.11  99 2.11
 200  0.900  0.600  0.407-  17 2.11  94 2.11  97 2.11  98 2.11 100 2.11
 201  0.800  0.800  0.503-  84 2.11  99 2.11 103 2.11 104 2.11 101 2.11
 202  0.900  0.900  0.503-  23 2.11  88 2.11 103 2.11 104 2.11 102 2.11
 203  0.800  0.900  0.407-  82 2.11  85 2.11 101 2.11 102 2.11 103 2.11
 204  0.900  0.800  0.407-  98 2.11  21 2.11 101 2.11 102 2.11 104 2.11

  LATTYP: Found a simple tetragonal cell.
 ALAT       =    21.1388521970
 C/A-ratio  =     1.0461251639

  Lattice vectors:

 A1 = (  21.1388521970,   0.0000000000,   0.0000000000)
 A2 = (   0.0000000000,  21.1388521970,   0.0000000000)
 A3 = (   0.0000000000,   0.0000000000,  22.1138852197)

Analysis of symmetry for initial positions (statically):
 Subroutine PRICEL returns:
 Original cell was already a primitive cell.

 Routine SETGRP: Setting up the symmetry group for a
 simple tetragonal supercell.

 Subroutine GETGRP returns: Found  2 space group operations
 (whereof  1 operations were pure point group operations)
 out of a pool of 16 trial point group operations.

The static configuration has the point symmetry C_1 .
 The point group associated with its full space group is C_1h.

Analysis of symmetry for dynamics (positions and initial velocities):
 Subroutine PRICEL returns:
 Original cell was already a primitive cell.

[...]

The dynamic configuration has the point symmetry C_1 .
 The point group associated with its full space group is C_1h.

Analysis of constrained symmetry for selective dynamics:
 Subroutine PRICEL returns:
 Original cell was already a primitive cell.

[...]
     40     -46.5737      2.00000
     41     -46.5704      2.00000
     42     -46.5701      2.00000
     43     -46.5680      2.00000
     44     -46.5679      2.00000
     45     -46.5580      2.00000
     46     -46.5579      2.00000
     47     -46.5491      2.00000
     48     -46.5491      2.00000
     49     -46.5468      2.00000
     50     -46.5468      2.00000
     51     -46.5403      2.00000
     52     -46.5403      2.00000
     53     -46.4965      2.00000
     54     -46.4964      2.00000
     55     -46.4950      2.00000
     56     -46.4950      2.00000
     57     -46.4950      2.00000
     58     -46.4949      2.00000
     59     -46.4875      2.00000
     60     -46.4867      2.00000
[...]
   1010       7.2637      0.00000
   1011       7.3378      0.00000
   1012       7.4303      0.00000
   1013       7.5182      0.00000
   1014       7.5295      0.00000
   1015       7.6297      0.00000
   1016       7.7281      0.00000
   1017       7.7839      0.00000
   1018       7.7986      0.00000
   1019       7.8425      0.00000
   1020       7.8855      0.00000
   1021       8.0921      0.00000
   1022       8.1819      0.00000
   1023       8.2072      0.00000
   1024       8.3457      0.00000

 soft charge-density along one line, spin component           1
         0         1         2         3         4         5         6         7         8         9
 total charge-density along one line

------------------------ aborting loop because EDIFF is reached ----------------------------------------

 WARNING: Using user supplied parameters
     VDW_A1 = 0.398
     VDW_A2 = 4.421
     VDW_S8 = 1.989
     because the xc functional is not supported. Required parameters not
     defined in the INCAR file will be replaced with PBE defaults ones.

         DFTD3 V3.0 Rev 1
 IVDW         = 12
 DF unknown
 parameters
 VDW_S6       =    1.0000
 VDW_S8       =    1.9889
 VDW_A1       =    0.3981
 VDW_A2       =    4.4211
 k1-k3        =   16.0000    1.3333   -4.0000
 VDW_RADIUS   =   50.2022 A
 VDW_CNRADIUS =   21.1671 A
 Edisp (eV)  -62.60418

 E6    (eV) :   -21.3940
 E8    (eV) :   -41.2102
 % E8        : 65.83

 VOLUME and BASIS-vectors are now :
  energy-cutoff  :      520.00
  volume of cell :     9881.61
      direct lattice vectors                 reciprocal lattice vectors
    21.138852197  0.000000000  0.000000000     0.047306258  0.000000000  0.000000000
     0.000000000 21.138852197  0.000000000     0.000000000  0.047306258  0.000000000
     0.000000000  0.000000000 22.113885220     0.000000000  0.000000000  0.045220457

  length of vectors
    21.138852197 21.138852197 22.113885220     0.047306258  0.047306258  0.045220457

 FORCES acting on ions:
    Electron-Ion                     Ewald-Force                    Non-Local-Force
   -.657E+02 0.657E+02 -.222E+04   0.602E+02 -.602E+02 0.222E+04   0.547E+01 -.547E+01 -.233E+01
   0.287E+03 -.287E+03 -.222E+04   -.281E+03 0.281E+03 0.222E+04   -.644E+01 0.644E+01 -.226E+01
   -.287E+03 0.287E+03 -.222E+04   0.281E+03 -.281E+03 0.222E+04   0.644E+01 -.644E+01 -.226E+01
   0.657E+02 -.657E+02 -.222E+04   -.602E+02 0.602E+02 0.222E+04   -.547E+01 0.547E+01 -.233E+01
   0.519E+01 -.519E+01 0.937E+03   -.521E+01 0.522E+01 -.930E+03   0.183E-01 -.183E-01 -.673E+01
   0.962E+01 0.175E+01 0.938E+03   -.963E+01 -.171E+01 -.931E+03   0.640E-02 -.219E-01 -.673E+01
   0.326E+01 0.326E+01 -.920E+03   -.325E+01 -.325E+01 0.912E+03   -.771E-02 -.771E-02 0.663E+01
   0.151E+02 -.121E+02 -.917E+03   -.151E+02 0.122E+02 0.910E+03   0.176E-01 -.544E-01 0.663E+01
   0.174E+01 0.962E+01 0.938E+03   -.171E+01 -.963E+01 -.931E+03   -.219E-01 0.640E-02 -.673E+01
   0.156E+02 0.171E+02 0.944E+03   -.156E+02 -.171E+02 -.936E+03   0.842E-02 0.218E-01 -.674E+01
   0.235E+01 0.163E+02 -.916E+03   -.230E+01 -.163E+02 0.909E+03   -.351E-01 0.365E-02 0.663E+01
   0.136E+02 0.136E+02 -.918E+03   -.136E+02 -.136E+02 0.910E+03   -.812E-02 -.812E-02 0.663E+01
   0.497E+01 0.121E+02 0.945E+03   -.495E+01 -.121E+02 -.937E+03   -.187E-01 0.155E-01 -.674E+01
   0.327E+02 0.134E+02 0.958E+03   -.329E+02 -.135E+02 -.950E+03   0.897E-01 0.599E-01 -.677E+01
   0.137E+02 0.882E+01 -.911E+03   -.137E+02 -.883E+01 0.904E+03   -.336E-02 0.128E-01 0.661E+01
   0.328E+02 0.257E+02 -.909E+03   -.328E+02 -.257E+02 0.902E+03   -.118E-02 0.213E-01 0.661E+01
   0.143E+02 -.228E+01 0.949E+03   -.144E+02 0.226E+01 -.942E+03   0.574E-01 0.135E-01 -.675E+01
   0.382E+02 -.141E+02 0.963E+03   -.386E+02 0.141E+02 -.955E+03   0.251E+00 0.112E-01 -.677E+01
   0.238E+02 -.133E+02 -.911E+03   -.239E+02 0.133E+02 0.903E+03   0.853E-01 0.876E-02 0.662E+01
   0.667E+02 0.551E+01 -.895E+03   -.669E+02 -.560E+01 0.888E+03   0.993E-01 0.659E-01 0.659E+01
   0.131E+02 -.142E+02 0.944E+03   -.132E+02 0.143E+02 -.936E+03   0.859E-01 -.171E-01 -.674E+01
   0.182E+02 -.182E+02 0.945E+03   -.183E+02 0.183E+02 -.938E+03   0.711E-01 -.711E-01 -.673E+01
   0.121E+02 -.151E+02 -.917E+03   -.122E+02 0.151E+02 0.910E+03   0.545E-01 -.175E-01 0.663E+01
   0.455E+02 -.324E+02 -.904E+03   -.458E+02 0.324E+02 0.896E+03   0.224E+00 -.244E-01 0.663E+01
   0.142E+02 -.131E+02 0.944E+03   -.143E+02 0.132E+02 -.936E+03   0.171E-01 -.858E-01 -.674E+01
   0.121E+02 0.497E+01 0.945E+03   -.121E+02 -.494E+01 -.937E+03   0.155E-01 -.187E-01 -.674E+01
   0.163E+02 0.235E+01 -.916E+03   -.163E+02 -.230E+01 0.909E+03   0.365E-02 -.351E-01 0.663E+01
   0.133E+02 -.238E+02 -.911E+03   -.133E+02 0.239E+02 0.903E+03   -.879E-02 -.851E-01 0.662E+01
   0.171E+02 0.156E+02 0.944E+03   -.171E+02 -.156E+02 -.936E+03   0.218E-01 0.842E-02 -.674E+01
   0.300E+02 0.381E+02 0.965E+03   -.302E+02 -.383E+02 -.957E+03   0.962E-01 0.926E-01 -.679E+01
   0.356E+02 0.357E+02 -.908E+03   -.357E+02 -.357E+02 0.901E+03   0.110E-01 0.110E-01 0.660E+01
   0.256E+02 0.328E+02 -.909E+03   -.257E+02 -.328E+02 0.902E+03   0.213E-01 -.118E-02 0.661E+01
   0.381E+02 0.300E+02 0.965E+03   -.383E+02 -.302E+02 -.957E+03   0.926E-01 0.962E-01 -.679E+01
   0.576E+02 0.372E+02 0.102E+04   -.581E+02 -.377E+02 -.102E+04   0.355E+00 0.349E+00 -.692E+01
   0.928E+02 0.506E+02 -.874E+03   -.929E+02 -.507E+02 0.867E+03   0.912E-01 0.114E+00 0.651E+01
   0.820E+02 0.820E+02 -.869E+03   -.821E+02 -.821E+02 0.861E+03   0.920E-01 0.920E-01 0.653E+01
   0.619E+02 0.499E+01 0.100E+04   -.624E+02 -.523E+01 -.992E+03   0.382E+00 0.161E+00 -.684E+01
   0.431E+02 -.430E+02 0.105E+04   -.433E+02 0.433E+02 -.104E+04   0.177E+00 -.177E+00 -.545E+01
   0.136E+03 -.474E+02 -.829E+03   -.138E+03 0.472E+02 0.822E+03   0.127E+01 0.130E+00 0.670E+01
   0.176E+03 0.721E+02 -.669E+03   -.178E+03 -.740E+02 0.663E+03   0.133E+01 0.115E+01 0.498E+01
   0.373E+02 -.373E+02 0.975E+03   -.375E+02 0.375E+02 -.967E+03   0.178E+00 -.179E+00 -.665E+01
   0.141E+02 -.382E+02 0.963E+03   -.141E+02 0.386E+02 -.955E+03   -.113E-01 -.251E+00 -.677E+01
   0.324E+02 -.455E+02 -.904E+03   -.324E+02 0.458E+02 0.896E+03   0.243E-01 -.224E+00 0.663E+01
   0.474E+02 -.136E+03 -.829E+03   -.473E+02 0.138E+03 0.821E+03   -.130E+00 -.127E+01 0.670E+01
   0.228E+01 -.143E+02 0.949E+03   -.227E+01 0.144E+02 -.942E+03   -.136E-01 -.573E-01 -.675E+01
   -.228E+01 0.143E+02 0.949E+03   0.226E+01 -.144E+02 -.942E+03   0.135E-01 0.574E-01 -.675E+01
   0.881E+01 0.137E+02 -.911E+03   -.883E+01 -.137E+02 0.904E+03   0.128E-01 -.336E-02 0.661E+01
   -.881E+01 -.138E+02 -.911E+03   0.883E+01 0.137E+02 0.904E+03   -.129E-01 0.355E-02 0.661E+01
   0.134E+02 0.327E+02 0.958E+03   -.135E+02 -.329E+02 -.950E+03   0.599E-01 0.897E-01 -.677E+01
   0.499E+01 0.619E+02 0.100E+04   -.523E+01 -.624E+02 -.992E+03   0.161E+00 0.382E+00 -.684E+01
   0.506E+02 0.928E+02 -.874E+03   -.507E+02 -.929E+02 0.867E+03   0.114E+00 0.912E-01 0.651E+01
   0.551E+01 0.667E+02 -.895E+03   -.560E+01 -.669E+02 0.888E+03   0.659E-01 0.993E-01 0.659E+01
   0.372E+02 0.576E+02 0.102E+04   -.377E+02 -.581E+02 -.102E+04   0.349E+00 0.355E+00 -.692E+01
   -.134E+02 0.134E+02 0.109E+04   0.134E+02 -.134E+02 -.108E+04   0.311E-01 -.314E-01 -.544E+01
   0.120E+03 0.120E+03 -.680E+03   -.122E+03 -.122E+03 0.673E+03   0.147E+01 0.147E+01 0.636E+01
   0.721E+02 0.176E+03 -.669E+03   -.740E+02 -.178E+03 0.663E+03   0.115E+01 0.133E+01 0.498E+01
   0.134E+02 -.134E+02 0.109E+04   -.134E+02 0.134E+02 -.108E+04   -.314E-01 0.311E-01 -.544E+01
   -.372E+02 -.576E+02 0.102E+04   0.377E+02 0.581E+02 -.102E+04   -.349E+00 -.355E+00 -.692E+01
   -.721E+02 -.176E+03 -.669E+03   0.740E+02 0.178E+03 0.663E+03   -.115E+01 -.133E+01 0.498E+01
   -.120E+03 -.120E+03 -.680E+03   0.122E+03 0.122E+03 0.673E+03   -.147E+01 -.147E+01 0.636E+01
[...]
   -.215E+02 0.163E+02 0.718E+03   0.216E+02 -.163E+02 -.722E+03   -.156E+00 0.722E-01 0.316E+01
   -.665E+01 0.888E+01 0.707E+03   0.669E+01 -.890E+01 -.711E+03   -.488E-01 0.315E-01 0.314E+01
   -.498E+02 0.150E+02 -.673E+03   0.499E+02 -.149E+02 0.677E+03   -.181E+00 -.539E-01 -.336E+01
   -.161E+02 0.159E+01 -.684E+03   0.162E+02 -.157E+01 0.688E+03   -.376E-01 -.233E-01 -.332E+01
   -.299E+02 -.829E+00 0.725E+03   0.300E+02 0.895E+00 -.729E+03   -.124E+00 -.738E-01 0.310E+01
   -.118E+02 0.793E+01 0.713E+03   0.118E+02 -.793E+01 -.717E+03   -.722E-01 -.797E-03 0.313E+01
   -.376E+02 -.162E+02 -.678E+03   0.377E+02 0.163E+02 0.683E+03   -.440E-01 -.558E-01 -.337E+01
   -.470E+01 -.116E+02 -.687E+03   0.468E+01 0.116E+02 0.691E+03   0.200E-01 -.708E-02 -.331E+01
   -.175E+02 -.138E+02 0.715E+03   0.175E+02 0.139E+02 -.719E+03   -.330E-01 -.434E-01 0.311E+01
   -.728E+01 -.481E+01 0.713E+03   0.728E+01 0.483E+01 -.717E+03   -.122E-01 -.189E-01 0.312E+01
   -.153E+02 -.166E+02 -.688E+03   0.153E+02 0.166E+02 0.692E+03   0.367E-02 -.832E-02 -.331E+01
   -.129E+01 -.877E+01 -.691E+03   0.127E+01 0.878E+01 0.695E+03   0.208E-01 -.435E-02 -.328E+01
   -.824E+01 -.822E+01 0.707E+03   0.823E+01 0.823E+01 -.711E+03   -.336E-02 -.336E-02 0.313E+01
   -.171E+01 -.987E+01 0.708E+03   0.168E+01 0.989E+01 -.712E+03   0.231E-01 -.149E-01 0.313E+01
   -.729E+00 0.726E+00 0.190E+02   0.165E-11 -.114E-12 0.819E-11   0.269E-02 0.269E-02 -.175E+02

 POSITION                                       TOTAL-FORCE (eV/Angst)
      8.42022     12.71964     13.21830        -0.003631      0.003497      0.180958
      6.77748     14.36235     13.25117        -0.075996      0.075480      0.096443
     12.24845      8.89138     13.25117         0.075480     -0.075996      0.096443
     10.60574     10.53411     13.21830         0.003497     -0.003631      0.180958
      0.00000      0.00000      9.00000        -0.005793      0.005782      0.542823
      2.11389      2.11389      9.00000        -0.002090      0.006640      0.544013
      0.00000      2.11389     11.11389         0.002301      0.002301     -0.501732
      2.11389      0.00000     11.11389        -0.005521      0.016110     -0.499299
      0.00000      4.22777      9.00000         0.006640     -0.002090      0.544013
      2.11389      6.34166      9.00000        -0.002447     -0.006498      0.547645
      0.00000      6.34166     11.11389         0.010507     -0.000870     -0.497059
      2.11389      4.22777     11.11389         0.002709      0.002709     -0.498261
      0.00000      8.45554      9.00000         0.005526     -0.004615      0.546933
      2.11389     10.56943      9.00000        -0.026351     -0.018231      0.554276
      0.00000     10.56943     11.11389         0.002044     -0.003541     -0.489214
      2.11389      8.45554     11.11389         0.002535     -0.004862     -0.484473
      0.00000     12.68331      9.00000        -0.017227     -0.004592      0.547915
      2.11389     14.79720      9.00000        -0.070987     -0.004720      0.551334
      0.00000     14.79720     11.11389        -0.022724     -0.003406     -0.491147
      2.11389     12.68331     11.11389        -0.016284     -0.019014     -0.463591
      0.00000     16.91108      9.00000        -0.025534      0.005488      0.544542
      2.11389     19.02497      9.00000        -0.022885      0.022874      0.539830
      0.00000     19.02497     11.11389        -0.016119      0.005516     -0.499281
      2.11389     16.91108     11.11389        -0.060944      0.005492     -0.486844
      4.22777      0.00000      9.00000        -0.005491      0.025507      0.544514
      6.34166      2.11389      9.00000        -0.004615      0.005526      0.546933
      4.22777      2.11389     11.11389        -0.000870      0.010507     -0.497059
      6.34166      0.00000     11.11389         0.003419      0.022674     -0.491141
      4.22777      4.22777      9.00000        -0.006498     -0.002447      0.547645
      6.34166      6.34166      9.00000        -0.028264     -0.027082      0.559637
      4.22777      6.34166     11.11389        -0.001051     -0.001051     -0.482894
      6.34166      4.22777     11.11389        -0.004862      0.002535     -0.484473
      4.22777      8.45554      9.00000        -0.027082     -0.028264      0.559637
      6.34166     10.56943      9.00000        -0.105232     -0.104119      0.594148
      4.22777     10.56943     11.11389         0.009124     -0.005716     -0.399686
      6.34166      8.45554     11.11389        -0.003783     -0.003783     -0.412317
      4.22777     12.68331      9.00000        -0.112083     -0.055934      0.570456
      6.34166     14.79720      9.00000        -0.054382      0.054470      0.225276
      4.22777     14.79720     11.11389        -0.438114     -0.057776     -0.511985
      6.34166     12.68331     11.11389        -0.546371     -0.594534     -0.299014
      4.22777     16.91108      9.00000        -0.060657      0.060681      0.514233
      6.34166     19.02497      9.00000         0.004744      0.070970      0.551803
      4.22777     19.02497     11.11389        -0.005469      0.060929     -0.486825
      6.34166     16.91108     11.11389         0.057871      0.438222     -0.512016
      8.45554      0.00000      9.00000         0.004601      0.017183      0.547910
     10.56943      2.11389      9.00000        -0.004592     -0.017227      0.547915
      8.45554      2.11389     11.11389        -0.003541      0.002044     -0.489214
     10.56943      0.00000     11.11389         0.003553     -0.002104     -0.489267
      8.45554      4.22777      9.00000        -0.018231     -0.026351      0.554276
     10.56943      6.34166      9.00000        -0.055934     -0.112083      0.570456
      8.45554      6.34166     11.11389        -0.005716      0.009124     -0.399686
     10.56943      4.22777     11.11389        -0.019014     -0.016284     -0.463591
      8.45554      8.45554      9.00000        -0.104119     -0.105232      0.594148
     10.56943     10.56943      9.00000        -0.010965      0.011092      0.216688
      8.45554     10.56943     11.11389        -0.586464     -0.586464     -0.574171
     10.56943      8.45554     11.11389        -0.594534     -0.546371     -0.299014
      8.45554     12.68331      9.00000         0.011092     -0.010965      0.216688
     10.56943     14.79720      9.00000         0.104139      0.105233      0.594274
      8.45554     14.79720     11.11389         0.595188      0.546769     -0.299391
     10.56943     12.68331     11.11389         0.586799      0.586799     -0.574127
[...]
     19.02497      6.34166     11.11389        -0.022654      0.004768      0.372763
     16.91108      6.34166      9.00000        -0.052146      0.023895     -0.415501
     19.02497      4.22777      9.00000        -0.015831      0.010245     -0.420908
     16.91108      8.45554     11.11389        -0.063924     -0.016539      0.355030
     19.02497     10.56943     11.11389        -0.012619     -0.007600      0.365026
     16.91108     10.56943      9.00000        -0.043309     -0.024508     -0.433540
     19.02497      8.45554      9.00000        -0.023779     -0.000204     -0.423752
     16.91108     12.68331     11.11389        -0.016070     -0.019153      0.350079
     19.02497     14.79720     11.11389         0.006411     -0.002379      0.369719
     16.91108     14.79720      9.00000        -0.010932     -0.014274     -0.429082
     19.02497     12.68331      9.00000        -0.004100     -0.006170     -0.426617
     16.91108     16.91108     11.11389         0.001024     -0.002860      0.369958
     19.02497     19.02497     11.11389         0.006725     -0.001468      0.377233
     16.91108     19.02497      9.00000        -0.001098     -0.001098     -0.423266
     19.02497     16.91108      9.00000         0.007505     -0.004855     -0.423202
    total drift:                               -0.727418      0.728158     -0.265040

  FREE ENERGIE OF THE ION-ELECTRON SYSTEM (eV)
  free  energy   TOTEN  =     -1398.78349508 eV

  energy  without entropy=    -1398.78349508  energy(sigma->0) =    -1398.78349508