 vasp.6.4.0 14Feb23 (build Jul 14 2023 13:46:40) complex

 executed on             LinuxIFC date 2023.07.30  05:54:36

 INCAR:
   SYSTEM = MgO-rocksalt
   ISMEAR = 0
   SIGMA = 0.05
   EDIFF = 1E-6
   ALGO = ALL
   ISTART = 0
   IBRION = -1
   NSW = 0
   ISYM = 2
   DIPOL = 0.5 0.5 0.5
   IDIPOL = 3
   LDIPOL = .TRUE.
   METAGGA = TPSS
   ENCUT = 520
   PREC = Accurate
   LASPH = .TRUE.
   LREAL = Auto
   ISPIN = 1
   NELM = 200
   NELMIN = 8
   NCORE = 16
   KPAR = 1
   LWAVE = .FALSE.
   LCHARG = .FALSE.

 POTCAR:    PAW_PBE Au 04Oct2007
 POTCAR:    PAW_PBE Mg_pv 13Apr2007
 POTCAR:    PAW_PBE O 08Apr2002
 POTCAR:    PAW_PBE Au 04Oct2007
   VRHFIN =Au: s1d10

   TITEL  = PAW_PBE Au 04Oct2007
   POMASS =  196.966; ZVAL   =   11.000    mass and valenz
   ENMAX  =  229.943; ENMIN  =  172.457 eV

   TITEL  = PAW_PBE Mg_pv 13Apr2007
   POMASS =   24.305; ZVAL   =    8.000    mass and valenz
   ENMAX  =  403.929; ENMIN  =  302.947 eV

   TITEL  = PAW_PBE O 08Apr2002
   POMASS =   16.000; ZVAL   =    6.000    mass and valenz
   ENMAX  =  400.000; ENMIN  =  300.000 eV

 Optimization of the real space projectors (new method)

 maximal supplied QI-value         = 15.12
 optimisation between [QCUT,QGAM] = [ 11.64, 23.28] = [ 37.95,151.78] Ry
 Optimized for a Real-space Cutoff    1.49 Angstroem

   l    n(q)    QCUT    max X(q) W(low)/X(q) W(high)/X(q)  e(spline)
   2      9    11.641    60.898    0.24E-03    0.10E-03    0.19E-06
   2      9    11.641    58.894    0.25E-03    0.10E-03    0.19E-06
   0     10    11.641   109.617    0.73E-04    0.33E-04    0.11E-06
   0     10    11.641    75.026    0.71E-04    0.32E-04    0.11E-06
   1     10    11.641    16.344    0.27E-04    0.97E-04    0.16E-06
   1     10    11.641    10.160    0.23E-04    0.77E-04    0.13E-06
 Optimization of the real space projectors (new method)

[...]

   l    n(q)    QCUT    max X(q) W(low)/X(q) W(high)/X(q)  e(spline)
   1      8    11.527     2.974    0.44E-04    0.56E-04    0.12E-06
   1      8    11.527     4.279    0.12E-03    0.12E-03    0.26E-06
   0      9    11.527    16.381    0.46E-04    0.64E-04    0.78E-07
   0      9    11.527     5.611    0.26E-04    0.43E-04    0.55E-07
   2      8    11.527     4.652    0.22E-03    0.72E-04    0.47E-07
 Optimization of the real space projectors (new method)

 maximal supplied QI-value         = 24.76
 optimisation between [QCUT,QGAM] = [ 11.64, 23.27] = [ 37.91,151.63] Ry
 Optimized for a Real-space Cutoff    1.14 Angstroem

   l    n(q)    QCUT    max X(q) W(low)/X(q) W(high)/X(q)  e(spline)
   0      8    11.635    20.381    0.10E-03    0.33E-03    0.24E-06
   0      8    11.635    15.268    0.11E-03    0.35E-03    0.26E-06
   1      7    11.635     5.964    0.24E-03    0.31E-03    0.30E-06
   1      7    11.635     5.382    0.22E-03    0.25E-03    0.26E-06
  PAW_PBE Au 04Oct2007                  :
  PAW_PBE Mg_pv 13Apr2007               :
  PAW_PBE O 08Apr2002                   :

 POSCAR: Au Mg  O
  positions in direct lattice

 METAGGA = TPSS                                        LMAXTAU =  6    LMIXTAU =  F

 ion  position               nearest neighbor table
   1  0.560  0.500  0.629-   2 2.54  73 2.92
   2  0.440  0.500  0.629-   1 2.54  53 2.92
   3  0.000  0.000  0.407- 105 2.11 106 2.11 121 2.11 186 2.11 103 2.11
   4  0.100  0.100  0.407- 105 2.11 106 2.11 110 2.11 125 2.11 104 2.11
   5  0.000  0.100  0.503- 103 2.11 104 2.11 107 2.11 184 2.11 105 2.11
   6  0.100  0.000  0.503- 103 2.11 104 2.11 120 2.11 123 2.11 106 2.11
   7  0.000  0.200  0.407- 109 2.11 105 2.11 110 2.11 190 2.11 107 2.11
   8  0.100  0.300  0.407- 110 2.11 109 2.11 114 2.11 129 2.11 108 2.11
   9  0.000  0.300  0.503- 107 2.11 108 2.11 111 2.11 188 2.11 109 2.11
  10  0.100  0.200  0.503- 108 2.11 107 2.11 104 2.11 127 2.11 110 2.11
  11  0.000  0.400  0.407- 109 2.11 113 2.11 114 2.11 194 2.11 111 2.11
  12  0.100  0.500  0.407- 113 2.11 114 2.11 118 2.11 133 2.11 112 2.11
  13  0.000  0.500  0.503- 111 2.11 112 2.11 115 2.11 192 2.11 113 2.11
  14  0.100  0.400  0.503- 108 2.11 111 2.11 112 2.11 131 2.11 114 2.11
  15  0.000  0.600  0.407- 113 2.11 117 2.11 118 2.11 198 2.11 115 2.11
  16  0.100  0.700  0.407- 122 2.11 118 2.11 117 2.11 137 2.11 116 2.11
  17  0.000  0.700  0.503- 119 2.11 116 2.11 115 2.11 196 2.11 117 2.11
  18  0.100  0.600  0.503- 112 2.11 115 2.11 116 2.11 135 2.11 118 2.11
  19  0.000  0.800  0.407- 117 2.11 121 2.11 122 2.11 202 2.11 119 2.11
  20  0.100  0.900  0.407- 106 2.11 121 2.11 122 2.11 141 2.11 120 2.11
  21  0.000  0.900  0.503- 103 2.11 119 2.11 120 2.11 200 2.11 121 2.11
  22  0.100  0.800  0.503- 116 2.11 119 2.11 120 2.11 139 2.11 122 2.11
  23  0.200  0.000  0.407- 126 2.11 125 2.11 106 2.11 141 2.11 123 2.11
  24  0.300  0.100  0.407- 125 2.11 126 2.11 130 2.11 145 2.11 124 2.11
  25  0.200  0.100  0.503- 124 2.11 123 2.11 104 2.11 127 2.11 125 2.11
  26  0.300  0.000  0.503- 123 2.11 124 2.11 140 2.11 143 2.11 126 2.11
  27  0.200  0.200  0.407- 129 2.11 130 2.11 110 2.11 125 2.11 127 2.11
  28  0.300  0.300  0.407- 129 2.11 130 2.11 134 2.11 149 2.11 128 2.11
  29  0.200  0.300  0.503- 127 2.11 128 2.11 108 2.11 131 2.11 129 2.11
  30  0.300  0.200  0.503- 127 2.11 128 2.11 124 2.11 147 2.11 130 2.11
  31  0.200  0.400  0.407- 134 2.11 129 2.11 133 2.11 114 2.11 131 2.11
  32  0.300  0.500  0.407- 133 2.11 134 2.11 138 2.11 153 2.11 132 2.11
  33  0.200  0.500  0.503- 132 2.11 131 2.11 112 2.11 135 2.11 133 2.11
  34  0.300  0.400  0.503- 131 2.11 128 2.11 132 2.11 151 2.11 134 2.11
  35  0.200  0.600  0.407- 138 2.11 133 2.11 137 2.11 118 2.11 135 2.11
  36  0.300  0.700  0.407- 137 2.11 142 2.11 138 2.11 157 2.11 136 2.11
  37  0.200  0.700  0.503- 136 2.11 139 2.11 116 2.11 135 2.11 137 2.11
  38  0.300  0.600  0.503- 135 2.11 132 2.11 136 2.11 155 2.11 138 2.11
  39  0.200  0.800  0.407- 137 2.11 142 2.11 141 2.11 122 2.11 139 2.11
  40  0.300  0.900  0.407- 141 2.11 126 2.11 142 2.11 161 2.11 140 2.11
  41  0.200  0.900  0.503- 140 2.11 123 2.11 139 2.11 120 2.11 141 2.11
  42  0.300  0.800  0.503- 136 2.11 139 2.11 140 2.11 159 2.11 142 2.11
  43  0.400  0.000  0.407- 126 2.11 145 2.11 146 2.11 161 2.11 143 2.11
  44  0.500  0.100  0.407- 145 2.11 146 2.11 150 2.11 165 2.11 144 2.11
  45  0.400  0.100  0.503- 124 2.11 143 2.11 144 2.11 147 2.11 145 2.11
  46  0.500  0.000  0.503- 143 2.11 144 2.11 160 2.11 163 2.11 146 2.11
  47  0.400  0.200  0.407- 149 2.11 145 2.11 130 2.11 150 2.11 147 2.11
  48  0.500  0.300  0.407- 150 2.11 149 2.11 154 2.11 169 2.11 148 2.11
  49  0.400  0.300  0.503- 147 2.11 128 2.11 148 2.11 151 2.11 149 2.11
  50  0.500  0.200  0.503- 148 2.11 147 2.11 144 2.11 167 2.11 150 2.11
  51  0.400  0.400  0.407- 134 2.11 149 2.11 153 2.11 154 2.11 151 2.11
  52  0.500  0.500  0.407- 153 2.11 154 2.11 158 2.11 173 2.11 152 2.11
  53  0.400  0.500  0.503- 132 2.11 151 2.11 152 2.11 155 2.11 153 2.11   2 2.92
  54  0.500  0.400  0.503- 148 2.11 151 2.11 152 2.11 171 2.11 154 2.11
  55  0.400  0.600  0.407- 138 2.11 153 2.11 157 2.11 158 2.11 155 2.11
  56  0.500  0.700  0.407- 162 2.11 158 2.11 157 2.11 177 2.11 156 2.11
  57  0.400  0.700  0.503- 159 2.11 155 2.11 156 2.11 136 2.11 157 2.11
  58  0.500  0.600  0.503- 152 2.11 155 2.11 156 2.11 175 2.11 158 2.11
  59  0.400  0.800  0.407- 157 2.11 142 2.11 161 2.11 162 2.11 159 2.11
  60  0.500  0.900  0.407- 146 2.11 161 2.11 162 2.11 181 2.11 160 2.11
[...]
 188  0.900  0.300  0.503-  90 2.11  89 2.11   9 2.11  94 2.11  88 2.11
 189  0.800  0.300  0.407-  68 2.11  87 2.11  88 2.11  91 2.11  89 2.11
 190  0.900  0.200  0.407-  88 2.11  84 2.11  87 2.11   7 2.11  90 2.11
 191  0.800  0.400  0.503-  74 2.11  89 2.11  93 2.11  94 2.11  91 2.11
 192  0.900  0.500  0.503-  13 2.11  93 2.11  94 2.11  98 2.11  92 2.11
 193  0.800  0.500  0.407-  72 2.11  91 2.11  92 2.11  95 2.11  93 2.11
 194  0.900  0.400  0.407-  11 2.11  88 2.11  91 2.11  92 2.11  94 2.11
 195  0.800  0.600  0.503-  78 2.11  93 2.11  97 2.11  98 2.11  95 2.11
 196  0.900  0.700  0.503- 102 2.11  97 2.11  98 2.11  17 2.11  96 2.11
 197  0.800  0.700  0.407-  76 2.11  99 2.11  96 2.11  95 2.11  97 2.11
 198  0.900  0.600  0.407-  15 2.11  92 2.11  95 2.11  96 2.11  98 2.11
 199  0.800  0.800  0.503-  82 2.11  97 2.11 101 2.11 102 2.11  99 2.11
 200  0.900  0.900  0.503-  21 2.11  86 2.11 101 2.11 102 2.11 100 2.11
 201  0.800  0.900  0.407-  80 2.11  83 2.11  99 2.11 100 2.11 101 2.11
 202  0.900  0.800  0.407-  96 2.11  19 2.11  99 2.11 100 2.11 102 2.11

  LATTYP: Found a simple tetragonal cell.
 ALAT       =    21.1388521970
 C/A-ratio  =     1.0461251639

  Lattice vectors:

 A1 = (  21.1388521970,   0.0000000000,   0.0000000000)
 A2 = (   0.0000000000,  21.1388521970,   0.0000000000)
 A3 = (   0.0000000000,   0.0000000000,  22.1138852197)

Analysis of symmetry for initial positions (statically):
 Subroutine PRICEL returns:
 Original cell was already a primitive cell.

 Routine SETGRP: Setting up the symmetry group for a
 simple tetragonal supercell.

 Subroutine GETGRP returns: Found  4 space group operations
 (whereof  4 operations were pure point group operations)
 out of a pool of 16 trial point group operations.

The static configuration has the point symmetry C_2v.

Analysis of symmetry for dynamics (positions and initial velocities):
 Subroutine PRICEL returns:
 Original cell was already a primitive cell.

 Routine SETGRP: Setting up the symmetry group for a
 simple tetragonal supercell.

 Subroutine GETGRP returns: Found  4 space group operations
 (whereof  4 operations were pure point group operations)
 out of a pool of 16 trial point group operations.

The dynamic configuration has the point symmetry C_2v.

 Subroutine INISYM returns: Found  4 space group operations
 (whereof  4 operations are pure point group operations),
 and found     1 'primitive' translations

                                     Primitive cell

  volume of cell :    9881.6133

  direct lattice vectors                    reciprocal lattice vectors
    21.138852197  0.000000000  0.000000000     0.047306258  0.000000000  0.000000000
     0.000000000 21.138852197  0.000000000     0.000000000  0.047306258  0.000000000
     0.000000000  0.000000000 22.113885220     0.000000000  0.000000000  0.045220457

  length of vectors
    21.138852197 21.138852197 22.113885220     0.047306258  0.047306258  0.045220457

  position of ions in fractional coordinates (direct lattice)
     0.560001958  0.500000000  0.629184642
     0.439998042  0.500000000  0.629184642
     0.000000000  0.000000000  0.406984115
     0.100000000  0.100000000  0.406984115
     0.000000000  0.100000000  0.502574971
     0.100000000  0.000000000  0.502574971
     0.000000000  0.200000000  0.406984115
     0.100000000  0.300000000  0.406984115
     0.000000000  0.300000000  0.502574971
     0.100000000  0.200000000  0.502574971
     0.000000000  0.400000000  0.406984115
     0.100000000  0.500000000  0.406984115
     0.000000000  0.500000000  0.502574971
     0.100000000  0.400000000  0.502574971
     0.000000000  0.600000000  0.406984115
     0.100000000  0.700000000  0.406984115
     0.000000000  0.700000000  0.502574971
[...]
     52     -43.2867      2.00000
     53     -43.2863      2.00000
     54     -43.2863      2.00000
     55     -43.2859      2.00000
     56     -43.2856      2.00000
     57     -43.2853      2.00000
     58     -43.2850      2.00000
     59     -43.2838      2.00000
     60     -43.2836      2.00000
[...]
    850       4.3257      0.00000
    851       4.3417      0.00000
    852       4.3991      0.00000
    853       4.4321      0.00000
    854       4.4568      0.00000
    855       4.4829      0.00000
    856       4.4921      0.00000
    857       4.5169      0.00000
    858       4.5557      0.00000
    859       4.6056      0.00000
    860       4.6418      0.00000
    861       4.6511      0.00000
    862       4.6671      0.00000
    863       4.7109      0.00000
    864       4.7572      0.00000

 soft charge-density along one line, spin component           1
         0         1         2         3         4         5         6         7         8         9
 total charge-density along one line

------------------------ aborting loop because EDIFF is reached ----------------------------------------

  FORCE on cell =-STRESS in cart. coord.  units (eV):
  Direction    XX          YY          ZZ          XY          YZ          ZX
  Alpha Z  1365.75682  1365.75682  1365.75682
  Ewald  479365.16978478663.75728************     0.00000     0.00000    -0.00000
  Hartree508020.48811507544.32013************    -0.00000     0.00000    -0.00000
  E(xc)   -8177.83348 -8178.52086 -8204.06275    -0.00000    -0.00000     0.00000
  Local  ************************************    -0.00000    -0.00000    -0.00000
  n-local -8947.92325 -8932.65706 -9056.19120    -0.00002     0.00001    -0.00000
  augment  3907.89317  3911.11347  3854.50868    -0.00000    -0.00000     0.00000
  Kinetic 23016.16876 23026.43265 23271.46240    -0.00001     0.00000     0.00002
  Fock        0.00000     0.00000     0.00000     0.00000     0.00000     0.00000
  Total    -167.10010  -167.18733     8.28636     0.00000     0.00000     0.00000
  in kB     -27.09315   -27.10729     1.34353     0.00000     0.00000     0.00000

 VOLUME and BASIS-vectors are now :
  energy-cutoff  :      520.00
  volume of cell :     9881.61
      direct lattice vectors                 reciprocal lattice vectors
    21.138852197  0.000000000  0.000000000     0.047306258  0.000000000  0.000000000
     0.000000000 21.138852197  0.000000000     0.000000000  0.047306258  0.000000000
     0.000000000  0.000000000 22.113885220     0.000000000  0.000000000  0.045220457

  length of vectors
    21.138852197 21.138852197 22.113885220     0.047306258  0.047306258  0.045220457

 FORCES acting on ions:
    Electron-Ion                     Ewald-Force                    Non-Local-Force
   -.273E+03 -.246E-05 -.203E+04   0.267E+03 0.118E-07 0.203E+04   0.617E+01 -.378E-22 0.289E+00
   0.273E+03 -.246E-05 -.203E+04   -.267E+03 0.118E-07 0.203E+04   -.617E+01 0.906E-22 0.289E+00
   0.135E-12 -.264E-08 0.931E+03   0.941E-13 0.711E-08 -.923E+03   0.280E-23 -.136E-22 -.792E+01
   0.375E+01 0.413E+01 0.932E+03   -.375E+01 -.414E+01 -.924E+03   -.865E-03 0.884E-02 -.792E+01
   0.141E-12 0.441E+01 -.923E+03   0.131E-12 -.442E+01 0.915E+03   0.139E-22 0.765E-02 0.789E+01
   0.392E+01 -.375E-08 -.923E+03   -.392E+01 0.101E-07 0.915E+03   -.278E-02 0.634E-23 0.789E+01
   0.141E-12 0.609E+01 0.933E+03   0.155E-10 -.611E+01 -.925E+03   -.139E-21 0.141E-01 -.792E+01
   0.786E+01 0.783E+01 0.936E+03   -.787E+01 -.786E+01 -.928E+03   0.868E-02 0.212E-01 -.792E+01
   0.140E-12 0.822E+01 -.921E+03   0.207E-11 -.824E+01 0.912E+03   -.316E-22 0.152E-01 0.789E+01
   0.714E+01 0.920E+01 -.921E+03   -.714E+01 -.923E+01 0.913E+03   -.685E-03 0.165E-01 0.789E+01
   0.142E-12 0.422E+01 0.936E+03   -.175E-10 -.424E+01 -.928E+03   -.325E-22 0.102E-01 -.792E+01
   0.116E+02 0.406E-08 0.940E+03   -.116E+02 -.109E-07 -.932E+03   0.433E-01 -.162E-23 -.793E+01
   0.137E-12 0.418E-08 -.919E+03   0.229E-12 -.113E-07 0.910E+03   -.486E-24 0.340E-24 0.789E+01
   0.158E+02 0.726E+01 -.917E+03   -.158E+02 -.727E+01 0.909E+03   0.219E-01 0.142E-01 0.789E+01
   0.138E-12 -.422E+01 0.936E+03   0.114E-11 0.424E+01 -.928E+03   0.118E-22 -.102E-01 -.792E+01
   0.786E+01 -.783E+01 0.936E+03   -.787E+01 0.786E+01 -.928E+03   0.868E-02 -.212E-01 -.792E+01
   0.127E-12 -.822E+01 -.921E+03   -.927E-12 0.824E+01 0.912E+03   0.145E-22 -.152E-01 0.789E+01
   0.158E+02 -.726E+01 -.917E+03   -.158E+02 0.727E+01 0.909E+03   0.219E-01 -.142E-01 0.789E+01
   0.126E-12 -.609E+01 0.933E+03   0.909E-12 0.611E+01 -.925E+03   0.114E-21 -.141E-01 -.792E+01
   0.375E+01 -.413E+01 0.932E+03   -.375E+01 0.414E+01 -.924E+03   -.865E-03 -.884E-02 -.792E+01
   0.135E-12 -.441E+01 -.923E+03   -.899E-12 0.442E+01 0.915E+03   0.373E-22 -.765E-02 0.789E+01
   0.714E+01 -.920E+01 -.921E+03   -.714E+01 0.923E+01 0.913E+03   -.685E-03 -.165E-01 0.789E+01
   0.538E+01 -.408E-08 0.933E+03   -.537E+01 0.110E-07 -.925E+03   -.306E-02 -.637E-22 -.792E+01
   0.677E+01 0.797E+01 0.936E+03   -.677E+01 -.799E+01 -.927E+03   -.337E-02 0.154E-01 -.792E+01
   0.811E+01 0.755E+01 -.921E+03   -.811E+01 -.756E+01 0.913E+03   -.550E-02 0.102E-01 0.789E+01
   0.697E+01 -.763E-08 -.921E+03   -.696E+01 0.206E-07 0.913E+03   -.590E-02 0.667E-23 0.789E+01
   0.948E+01 0.103E+02 0.937E+03   -.948E+01 -.104E+02 -.928E+03   0.291E-02 0.243E-01 -.792E+01
   0.179E+02 0.199E+02 0.951E+03   -.180E+02 -.200E+02 -.942E+03   0.218E-01 0.610E-01 -.793E+01
   0.226E+02 0.184E+02 -.914E+03   -.226E+02 -.184E+02 0.905E+03   0.480E-02 0.378E-01 0.789E+01
   0.155E+02 0.232E+02 -.915E+03   -.155E+02 -.232E+02 0.906E+03   -.127E-01 0.283E-01 0.788E+01
   0.207E+02 0.881E+01 0.947E+03   -.208E+02 -.885E+01 -.939E+03   0.426E-01 0.375E-01 -.792E+01
   0.328E+02 0.135E-07 0.971E+03   -.328E+02 -.363E-07 -.963E+03   0.101E-01 0.677E-22 -.778E+01
   0.422E+02 0.122E-07 -.903E+03   -.423E+02 -.330E-07 0.895E+03   0.111E+00 -.745E-23 0.789E+01
   0.589E+02 0.353E+02 -.879E+03   -.589E+02 -.355E+02 0.871E+03   0.643E-01 0.119E+00 0.788E+01
   0.207E+02 -.881E+01 0.947E+03   -.208E+02 0.885E+01 -.939E+03   0.426E-01 -.375E-01 -.792E+01
   0.179E+02 -.199E+02 0.951E+03   -.180E+02 0.200E+02 -.942E+03   0.218E-01 -.610E-01 -.793E+01
   0.226E+02 -.184E+02 -.914E+03   -.226E+02 0.184E+02 0.905E+03   0.480E-02 -.378E-01 0.789E+01
   0.589E+02 -.353E+02 -.879E+03   -.589E+02 0.355E+02 0.871E+03   0.643E-01 -.119E+00 0.788E+01
   0.948E+01 -.103E+02 0.937E+03   -.948E+01 0.104E+02 -.928E+03   0.291E-02 -.243E-01 -.792E+01
   0.677E+01 -.797E+01 0.936E+03   -.677E+01 0.799E+01 -.927E+03   -.337E-02 -.154E-01 -.792E+01
   0.811E+01 -.755E+01 -.921E+03   -.811E+01 0.756E+01 0.913E+03   -.550E-02 -.102E-01 0.789E+01
   0.155E+02 -.232E+02 -.915E+03   -.155E+02 0.232E+02 0.906E+03   -.127E-01 -.283E-01 0.788E+01
   0.358E+01 -.701E-08 0.936E+03   -.358E+01 0.189E-07 -.927E+03   -.267E-02 -.540E-23 -.792E+01
   -.217E-12 0.111E+02 0.938E+03   0.435E-11 -.111E+02 -.930E+03   -.521E-22 0.147E-01 -.793E+01
   0.584E+01 0.147E+02 -.918E+03   -.583E+01 -.147E+02 0.910E+03   -.555E-02 0.411E-02 0.788E+01
   -.231E-12 -.108E-07 -.920E+03   0.875E-13 0.291E-07 0.911E+03   0.512E-22 -.697E-22 0.789E+01
   0.726E+01 0.204E+02 0.945E+03   -.726E+01 -.205E+02 -.937E+03   -.997E-03 0.570E-01 -.794E+01
   -.220E-12 0.329E+02 0.966E+03   -.558E-11 -.329E+02 -.957E+03   -.103E-22 0.607E-01 -.799E+01
   0.249E+02 0.582E+02 -.887E+03   -.248E+02 -.583E+02 0.879E+03   -.417E-01 0.117E+00 0.784E+01
   -.233E-12 0.375E+02 -.908E+03   -.191E-10 -.375E+02 0.900E+03   0.132E-22 -.139E-01 0.787E+01
   0.217E+02 0.255E+02 0.986E+03   -.217E+02 -.256E+02 -.977E+03   0.124E-01 0.238E-01 -.778E+01
   -.206E-12 0.272E-07 0.102E+04   -.457E-13 -.735E-07 -.101E+04   0.255E-22 0.281E-22 -.797E+01
   0.913E+02 0.951E-07 -.744E+03   -.911E+02 -.257E-06 0.737E+03   -.250E+00 0.309E-22 0.593E+01
   -.223E-12 0.101E+03 -.792E+03   0.216E-10 -.101E+03 0.784E+03   0.140E-22 0.196E-01 0.740E+01
   0.217E+02 -.255E+02 0.986E+03   -.217E+02 0.256E+02 -.977E+03   0.124E-01 -.238E-01 -.778E+01
   -.201E-12 -.329E+02 0.966E+03   -.183E-10 0.329E+02 -.957E+03   -.101E-22 -.607E-01 -.799E+01
   0.249E+02 -.582E+02 -.887E+03   -.248E+02 0.583E+02 0.879E+03   -.417E-01 -.117E+00 0.784E+01
   -.214E-12 -.101E+03 -.792E+03   0.182E-10 0.101E+03 0.784E+03   0.128E-22 -.196E-01 0.740E+01
   0.726E+01 -.204E+02 0.945E+03   -.726E+01 0.205E+02 -.937E+03   -.997E-03 -.570E-01 -.794E+01
   -.205E-12 -.111E+02 0.938E+03   0.205E-10 0.111E+02 -.930E+03   0.291E-22 -.147E-01 -.793E+01
[...]
   -.111E+02 0.915E+01 0.707E+03   0.111E+02 -.918E+01 -.711E+03   -.165E-01 0.387E-01 0.352E+01
   -.402E+01 0.536E+01 0.702E+03   0.402E+01 -.538E+01 -.706E+03   -.270E-02 0.181E-01 0.352E+01
   -.265E+02 0.109E+02 -.682E+03   0.265E+02 -.110E+02 0.686E+03   -.449E-01 0.521E-01 -.357E+01
   -.134E+02 0.426E-08 -.688E+03   0.134E+02 -.115E-07 0.692E+03   -.261E-01 0.173E-22 -.356E+01
   -.177E+02 0.532E-08 0.714E+03   0.178E+02 -.143E-07 -.718E+03   -.756E-01 -.726E-22 0.356E+01
   -.784E+01 0.394E+01 0.705E+03   0.786E+01 -.395E+01 -.709E+03   -.224E-01 0.224E-01 0.352E+01
   -.265E+02 -.109E+02 -.682E+03   0.265E+02 0.110E+02 0.686E+03   -.449E-01 -.521E-01 -.357E+01
   -.841E+01 -.784E+01 -.691E+03   0.842E+01 0.785E+01 0.695E+03   -.951E-02 -.248E-01 -.356E+01
   -.111E+02 -.915E+01 0.707E+03   0.111E+02 0.918E+01 -.711E+03   -.165E-01 -.387E-01 0.352E+01
   -.784E+01 -.394E+01 0.705E+03   0.786E+01 0.395E+01 -.709E+03   -.224E-01 -.224E-01 0.352E+01
   -.983E+01 -.108E+02 -.690E+03   0.983E+01 0.108E+02 0.694E+03   0.206E-03 -.220E-01 -.357E+01
   -.352E+01 -.390E+01 -.693E+03   0.352E+01 0.390E+01 0.697E+03   0.159E-02 -.866E-02 -.356E+01
   -.477E+01 -.427E+01 0.702E+03   0.477E+01 0.428E+01 -.706E+03   0.143E-02 -.113E-01 0.352E+01
   -.402E+01 -.536E+01 0.702E+03   0.402E+01 0.538E+01 -.706E+03   -.270E-02 -.181E-01 0.352E+01
   0.339E-10 -.503E-05 0.116E+02   0.393E-11 -.117E-11 -.398E-11   -.982E-15 0.416E-16 -.123E+02

 POSITION                                       TOTAL-FORCE (eV/Angst)
     11.83780     10.56943     13.91372        -0.036312      0.000000      0.063946
      9.30105     10.56943     13.91372         0.036312      0.000000      0.063946
      0.00000      0.00000      9.00000         0.000000      0.000000      0.403144
      2.11389      2.11389      9.00000         0.000234     -0.002404      0.403255
      0.00000      2.11389     11.11389        -0.000000     -0.002072     -0.397468
      2.11389      0.00000     11.11389         0.000786      0.000000     -0.397406
      0.00000      4.22777      9.00000        -0.000000     -0.003928      0.403027
      2.11389      6.34166      9.00000        -0.002474     -0.005963      0.402853
      0.00000      6.34166     11.11389        -0.000000     -0.004325     -0.396879
      2.11389      4.22777     11.11389         0.000206     -0.004503     -0.396856
      0.00000      8.45554      9.00000        -0.000000     -0.003010      0.402921
      2.11389     10.56943      9.00000        -0.011041      0.000000      0.403924
      0.00000     10.56943     11.11389        -0.000000      0.000000     -0.396738
      2.11389      8.45554     11.11389        -0.005905     -0.004255     -0.396171
      0.00000     12.68331      9.00000        -0.000000      0.003010      0.402921
      2.11389     14.79720      9.00000        -0.002474      0.005963      0.402853
      0.00000     14.79720     11.11389         0.000000      0.004325     -0.396879
      2.11389     12.68331     11.11389        -0.005905      0.004255     -0.396171
      0.00000     16.91108      9.00000        -0.000000      0.003928      0.403027
      2.11389     19.02497      9.00000         0.000234      0.002404      0.403255
      0.00000     19.02497     11.11389        -0.000000      0.002072     -0.397468
      2.11389     16.91108     11.11389         0.000206      0.004503     -0.396856
      4.22777      0.00000      9.00000         0.000857      0.000000      0.403590
      6.34166      2.11389      9.00000         0.000979     -0.004026      0.404389
      4.22777      2.11389     11.11389         0.001535     -0.002680     -0.396531
      6.34166      0.00000     11.11389         0.001693      0.000000     -0.396124
      4.22777      4.22777      9.00000        -0.000830     -0.006575      0.403717
      6.34166      6.34166      9.00000        -0.007121     -0.017392      0.405729
      4.22777      6.34166     11.11389        -0.001187     -0.010462     -0.394611
      6.34166      4.22777     11.11389         0.003641     -0.007156     -0.392383
      4.22777      8.45554      9.00000        -0.012419     -0.011435      0.402223
      6.34166     10.56943      9.00000        -0.001204      0.000000      0.364825
      4.22777     10.56943     11.11389        -0.038896      0.000000     -0.393107
      6.34166      8.45554     11.11389        -0.012036     -0.028019     -0.377069
      4.22777     12.68331      9.00000        -0.012419      0.011435      0.402223
      6.34166     14.79720      9.00000        -0.007121      0.017392      0.405729
      4.22777     14.79720     11.11389        -0.001187      0.010462     -0.394611
      6.34166     12.68331     11.11389        -0.012036      0.028019     -0.377069
      4.22777     16.91108      9.00000        -0.000830      0.006575      0.403717
      6.34166     19.02497      9.00000         0.000979      0.004026      0.404389
      4.22777     19.02497     11.11389         0.001535      0.002680     -0.396531
      6.34166     16.91108     11.11389         0.003641      0.007156     -0.392383
      8.45554      0.00000      9.00000         0.000787      0.000000      0.404304
     10.56943      2.11389      9.00000        -0.000000     -0.004135      0.405214
      8.45554      2.11389     11.11389         0.001695     -0.000703     -0.393914
     10.56943      0.00000     11.11389         0.000000      0.000000     -0.395027
      8.45554      4.22777      9.00000         0.000564     -0.014698      0.409287
     10.56943      6.34166      9.00000         0.000000     -0.019619      0.417291
      8.45554      6.34166     11.11389         0.017089     -0.038145     -0.361355
     10.56943      4.22777     11.11389        -0.000000      0.005034     -0.384947
      8.45554      8.45554      9.00000        -0.001542     -0.002557      0.362367
     10.56943     10.56943      9.00000        -0.000000      0.000000      0.363094
      8.45554     10.56943     11.11389         0.008113      0.000000     -0.305260
     10.56943      8.45554     11.11389         0.000000      0.029953     -0.136558
      8.45554     12.68331      9.00000        -0.001542      0.002557      0.362367
     10.56943     14.79720      9.00000        -0.000000      0.019619      0.417291
      8.45554     14.79720     11.11389         0.017089      0.038145     -0.361355
     10.56943     12.68331     11.11389        -0.000000     -0.029953     -0.136558
      8.45554     16.91108      9.00000         0.000564      0.014698      0.409287
     10.56943     19.02497      9.00000        -0.000000      0.004135      0.405214
[...]
     19.02497      6.34166     11.11389        -0.002602      0.006841      0.509396
     16.91108      6.34166      9.00000        -0.004558      0.010702     -0.517354
     19.02497      4.22777      9.00000        -0.000762      0.005020     -0.516663
     16.91108      8.45554     11.11389        -0.013111      0.014746      0.508741
     19.02497     10.56943     11.11389        -0.007300      0.000000      0.508962
     16.91108     10.56943      9.00000        -0.021753      0.000000     -0.506077
     19.02497      8.45554      9.00000        -0.006147      0.006215     -0.516424
     16.91108     12.68331     11.11389        -0.013111     -0.014746      0.508741
     19.02497     14.79720     11.11389        -0.002602     -0.006841      0.509396
     16.91108     14.79720      9.00000        -0.004558     -0.010702     -0.517354
     19.02497     12.68331      9.00000        -0.006147     -0.006215     -0.516424
     16.91108     16.91108     11.11389         0.000038     -0.006102      0.508401
     19.02497     19.02497     11.11389         0.000436     -0.002405      0.510300
     16.91108     19.02497      9.00000         0.000389     -0.003133     -0.517084
     19.02497     16.91108      9.00000        -0.000762     -0.005020     -0.516663
    total drift:                                0.000000     -0.000005     -0.707949

  FREE ENERGIE OF THE ION-ELECTRON SYSTEM (eV)
  free  energy   TOTEN  =     -1761.29641982 eV

  energy  without entropy=    -1761.29641982  energy(sigma->0) =    -1761.29641982