 vasp.6.4.0 14Feb23 (build Jul 14 2023 13:46:40) complex

 executed on             LinuxIFC date 2023.07.30  10:56:08

 INCAR:
   SYSTEM = MgO-rocksalt
   ISMEAR = 0
   SIGMA = 0.05
   EDIFF = 1E-6
   ALGO = ALL
   ISTART = 0
   IBRION = -1
   NSW = 0
   ISYM = 2
   DIPOL = 0.5 0.5 0.5
   IDIPOL = 3
   LDIPOL = .TRUE.
   METAGGA = R2SCAN
   LUSE_VDW = .TRUE.
   BPARAM = 11.95
   CPARAM = 0.0093
   ENCUT = 520
   PREC = Accurate
   LASPH = .TRUE.
   LREAL = Auto
   ISPIN = 1
   NELM = 200
   NELMIN = 8
   NCORE = 16
   KPAR = 1
   LWAVE = .FALSE.
   LCHARG = .FALSE.

 POTCAR:    PAW_PBE Cu 22Jun2005
 POTCAR:    PAW_PBE Mg_pv 13Apr2007
 POTCAR:    PAW_PBE O 08Apr2002
|               ----> ADVICE to this user running VASP <----                  |
|     You have switched on vdW-DFT.                                           |
|     This routine was written and supplied by Jiri Klimes. We recommend      |
|     that you carefully read and cite the following publications:            |
|       J. Klimes, D.R. Bowler, A. Michelides                                 |
|          J. Phys.: Cond Matt. 22 022201 (2010)                              |
|       J. Klimes, D.R. Bowler, A. Michelides                                 |
|          Phys. Rev. B. 83, 195131 (2011)                                    |
|     and references therein.                                                 |

   TITEL  = PAW_PBE Cu 22Jun2005
   POMASS =   63.546; ZVAL   =   11.000    mass and valenz
   ENMAX  =  295.446; ENMIN  =  221.585 eV

   TITEL  = PAW_PBE Mg_pv 13Apr2007
   POMASS =   24.305; ZVAL   =    8.000    mass and valenz
   ENMAX  =  403.929; ENMIN  =  302.947 eV

   TITEL  = PAW_PBE O 08Apr2002
   POMASS =   16.000; ZVAL   =    6.000    mass and valenz
   ENMAX  =  400.000; ENMIN  =  300.000 eV

 Optimization of the real space projectors (new method)

 maximal supplied QI-value         = 16.25
 optimisation between [QCUT,QGAM] = [ 11.54, 23.24] = [ 37.28,151.24] Ry
 Optimized for a Real-space Cutoff    1.53 Angstroem

   l    n(q)    QCUT    max X(q) W(low)/X(q) W(high)/X(q)  e(spline)
   2     10    11.539     4.610    0.96E-04    0.13E-03    0.19E-06
   2     10    11.539     8.522    0.16E-03    0.21E-03    0.28E-06
   0     11    11.539    51.609    0.45E-04    0.31E-04    0.11E-06
   0     11    11.539    27.747    0.39E-04    0.29E-04    0.10E-06
   1     10    11.539    20.408    0.70E-05    0.38E-04    0.18E-06
   1     10    11.539    13.425    0.66E-05    0.34E-04    0.17E-06
 Optimization of the real space projectors (new method)

[...]

   l    n(q)    QCUT    max X(q) W(low)/X(q) W(high)/X(q)  e(spline)
   1      8    11.527     2.974    0.44E-04    0.56E-04    0.12E-06
   1      8    11.527     4.279    0.12E-03    0.12E-03    0.26E-06
   0      9    11.527    16.381    0.46E-04    0.64E-04    0.78E-07
   0      9    11.527     5.611    0.26E-04    0.43E-04    0.55E-07
   2      8    11.527     4.652    0.22E-03    0.72E-04    0.47E-07
 Optimization of the real space projectors (new method)

 maximal supplied QI-value         = 24.76
 optimisation between [QCUT,QGAM] = [ 11.64, 23.27] = [ 37.91,151.63] Ry
 Optimized for a Real-space Cutoff    1.14 Angstroem

   l    n(q)    QCUT    max X(q) W(low)/X(q) W(high)/X(q)  e(spline)
   0      8    11.635    20.381    0.10E-03    0.33E-03    0.24E-06
   0      8    11.635    15.268    0.11E-03    0.35E-03    0.26E-06
   1      7    11.635     5.964    0.24E-03    0.31E-03    0.30E-06
   1      7    11.635     5.382    0.22E-03    0.25E-03    0.26E-06
  PAW_PBE Cu 22Jun2005                  :
  PAW_PBE Mg_pv 13Apr2007               :
  PAW_PBE O 08Apr2002                   :

 POSCAR: Cu Mg  O
  positions in direct lattice

 METAGGA = R2SCAN                                      LMAXTAU =  6    LMIXTAU =  F

 ion  position               nearest neighbor table
   1  0.487  0.413  0.634-   2 2.23
   2  0.413  0.487  0.634-   1 2.23
   3  0.000  0.000  0.407- 105 2.11 106 2.11 121 2.11 186 2.11 103 2.11
   4  0.100  0.100  0.407- 105 2.11 106 2.11 110 2.11 125 2.11 104 2.11
   5  0.000  0.100  0.503- 103 2.11 104 2.11 107 2.11 184 2.11 105 2.11
   6  0.100  0.000  0.503- 103 2.11 104 2.11 120 2.11 123 2.11 106 2.11
   7  0.000  0.200  0.407- 109 2.11 105 2.11 110 2.11 190 2.11 107 2.11
   8  0.100  0.300  0.407- 110 2.11 109 2.11 114 2.11 129 2.11 108 2.11
   9  0.000  0.300  0.503- 107 2.11 108 2.11 111 2.11 188 2.11 109 2.11
  10  0.100  0.200  0.503- 108 2.11 107 2.11 104 2.11 127 2.11 110 2.11
  11  0.000  0.400  0.407- 109 2.11 113 2.11 114 2.11 194 2.11 111 2.11
  12  0.100  0.500  0.407- 113 2.11 114 2.11 118 2.11 133 2.11 112 2.11
  13  0.000  0.500  0.503- 111 2.11 112 2.11 115 2.11 192 2.11 113 2.11
  14  0.100  0.400  0.503- 108 2.11 111 2.11 112 2.11 131 2.11 114 2.11
  15  0.000  0.600  0.407- 113 2.11 117 2.11 118 2.11 198 2.11 115 2.11
  16  0.100  0.700  0.407- 122 2.11 118 2.11 117 2.11 137 2.11 116 2.11
  17  0.000  0.700  0.503- 119 2.11 116 2.11 115 2.11 196 2.11 117 2.11
  18  0.100  0.600  0.503- 112 2.11 115 2.11 116 2.11 135 2.11 118 2.11
  19  0.000  0.800  0.407- 117 2.11 121 2.11 122 2.11 202 2.11 119 2.11
  20  0.100  0.900  0.407- 106 2.11 121 2.11 122 2.11 141 2.11 120 2.11
  21  0.000  0.900  0.503- 103 2.11 119 2.11 120 2.11 200 2.11 121 2.11
  22  0.100  0.800  0.503- 116 2.11 119 2.11 120 2.11 139 2.11 122 2.11
  23  0.200  0.000  0.407- 126 2.11 125 2.11 106 2.11 141 2.11 123 2.11
  24  0.300  0.100  0.407- 125 2.11 126 2.11 130 2.11 145 2.11 124 2.11
  25  0.200  0.100  0.503- 124 2.11 123 2.11 104 2.11 127 2.11 125 2.11
  26  0.300  0.000  0.503- 123 2.11 124 2.11 140 2.11 143 2.11 126 2.11
  27  0.200  0.200  0.407- 129 2.11 130 2.11 110 2.11 125 2.11 127 2.11
  28  0.300  0.300  0.407- 129 2.11 130 2.11 134 2.11 149 2.11 128 2.11
  29  0.200  0.300  0.503- 127 2.11 128 2.11 108 2.11 131 2.11 129 2.11
  30  0.300  0.200  0.503- 127 2.11 128 2.11 124 2.11 147 2.11 130 2.11
  31  0.200  0.400  0.407- 134 2.11 129 2.11 133 2.11 114 2.11 131 2.11
  32  0.300  0.500  0.407- 133 2.11 134 2.11 138 2.11 153 2.11 132 2.11
  33  0.200  0.500  0.503- 132 2.11 131 2.11 112 2.11 135 2.11 133 2.11
  34  0.300  0.400  0.503- 131 2.11 128 2.11 132 2.11 151 2.11 134 2.11
  35  0.200  0.600  0.407- 138 2.11 133 2.11 137 2.11 118 2.11 135 2.11
  36  0.300  0.700  0.407- 137 2.11 142 2.11 138 2.11 157 2.11 136 2.11
  37  0.200  0.700  0.503- 136 2.11 139 2.11 116 2.11 135 2.11 137 2.11
  38  0.300  0.600  0.503- 135 2.11 132 2.11 136 2.11 155 2.11 138 2.11
  39  0.200  0.800  0.407- 137 2.11 142 2.11 141 2.11 122 2.11 139 2.11
  40  0.300  0.900  0.407- 141 2.11 126 2.11 142 2.11 161 2.11 140 2.11
  41  0.200  0.900  0.503- 140 2.11 123 2.11 139 2.11 120 2.11 141 2.11
  42  0.300  0.800  0.503- 136 2.11 139 2.11 140 2.11 159 2.11 142 2.11
  43  0.400  0.000  0.407- 126 2.11 145 2.11 146 2.11 161 2.11 143 2.11
  44  0.500  0.100  0.407- 145 2.11 146 2.11 150 2.11 165 2.11 144 2.11
  45  0.400  0.100  0.503- 124 2.11 143 2.11 144 2.11 147 2.11 145 2.11
  46  0.500  0.000  0.503- 143 2.11 144 2.11 160 2.11 163 2.11 146 2.11
  47  0.400  0.200  0.407- 149 2.11 145 2.11 130 2.11 150 2.11 147 2.11
  48  0.500  0.300  0.407- 150 2.11 149 2.11 154 2.11 169 2.11 148 2.11
  49  0.400  0.300  0.503- 147 2.11 128 2.11 148 2.11 151 2.11 149 2.11
  50  0.500  0.200  0.503- 148 2.11 147 2.11 144 2.11 167 2.11 150 2.11
  51  0.400  0.400  0.407- 134 2.11 149 2.11 153 2.11 154 2.11 151 2.11
  52  0.500  0.500  0.407- 153 2.11 154 2.11 158 2.11 173 2.11 152 2.11
  53  0.400  0.500  0.503- 132 2.11 151 2.11 152 2.11 155 2.11 153 2.11
  54  0.500  0.400  0.503- 148 2.11 151 2.11 152 2.11 171 2.11 154 2.11
  55  0.400  0.600  0.407- 138 2.11 153 2.11 157 2.11 158 2.11 155 2.11
  56  0.500  0.700  0.407- 162 2.11 158 2.11 157 2.11 177 2.11 156 2.11
  57  0.400  0.700  0.503- 159 2.11 155 2.11 156 2.11 136 2.11 157 2.11
  58  0.500  0.600  0.503- 152 2.11 155 2.11 156 2.11 175 2.11 158 2.11
  59  0.400  0.800  0.407- 157 2.11 142 2.11 161 2.11 162 2.11 159 2.11
  60  0.500  0.900  0.407- 146 2.11 161 2.11 162 2.11 181 2.11 160 2.11
[...]
 188  0.900  0.300  0.503-  90 2.11  89 2.11   9 2.11  94 2.11  88 2.11
 189  0.800  0.300  0.407-  68 2.11  87 2.11  88 2.11  91 2.11  89 2.11
 190  0.900  0.200  0.407-  88 2.11  84 2.11  87 2.11   7 2.11  90 2.11
 191  0.800  0.400  0.503-  74 2.11  89 2.11  93 2.11  94 2.11  91 2.11
 192  0.900  0.500  0.503-  13 2.11  93 2.11  94 2.11  98 2.11  92 2.11
 193  0.800  0.500  0.407-  72 2.11  91 2.11  92 2.11  95 2.11  93 2.11
 194  0.900  0.400  0.407-  11 2.11  88 2.11  91 2.11  92 2.11  94 2.11
 195  0.800  0.600  0.503-  78 2.11  93 2.11  97 2.11  98 2.11  95 2.11
 196  0.900  0.700  0.503- 102 2.11  97 2.11  98 2.11  17 2.11  96 2.11
 197  0.800  0.700  0.407-  76 2.11  99 2.11  96 2.11  95 2.11  97 2.11
 198  0.900  0.600  0.407-  15 2.11  92 2.11  95 2.11  96 2.11  98 2.11
 199  0.800  0.800  0.503-  82 2.11  97 2.11 101 2.11 102 2.11  99 2.11
 200  0.900  0.900  0.503-  21 2.11  86 2.11 101 2.11 102 2.11 100 2.11
 201  0.800  0.900  0.407-  80 2.11  83 2.11  99 2.11 100 2.11 101 2.11
 202  0.900  0.800  0.407-  96 2.11  19 2.11  99 2.11 100 2.11 102 2.11

  LATTYP: Found a simple tetragonal cell.
 ALAT       =    21.1388521970
 C/A-ratio  =     1.0461251639

  Lattice vectors:

 A1 = (  21.1388521970,   0.0000000000,   0.0000000000)
 A2 = (   0.0000000000,  21.1388521970,   0.0000000000)
 A3 = (   0.0000000000,   0.0000000000,  22.1138852197)

Analysis of symmetry for initial positions (statically):
 Subroutine PRICEL returns:
 Original cell was already a primitive cell.

 Routine SETGRP: Setting up the symmetry group for a
 simple tetragonal supercell.

 Subroutine GETGRP returns: Found  4 space group operations
 (whereof  2 operations were pure point group operations)
 out of a pool of 16 trial point group operations.

The static configuration has the point symmetry C_1h.
 The point group associated with its full space group is C_2v.

Analysis of symmetry for dynamics (positions and initial velocities):
 Subroutine PRICEL returns:
 Original cell was already a primitive cell.

 Routine SETGRP: Setting up the symmetry group for a
 simple tetragonal supercell.

 Subroutine GETGRP returns: Found  4 space group operations
 (whereof  2 operations were pure point group operations)
 out of a pool of 16 trial point group operations.

The dynamic configuration has the point symmetry C_1h.
 The point group associated with its full space group is C_2v.

 Subroutine INISYM returns: Found  4 space group operations
 (whereof  2 operations are pure point group operations),
 and found     1 'primitive' translations

                                     Primitive cell

  volume of cell :    9881.6133

  direct lattice vectors                    reciprocal lattice vectors
    21.138852197  0.000000000  0.000000000     0.047306258  0.000000000  0.000000000
     0.000000000 21.138852197  0.000000000     0.000000000  0.047306258  0.000000000
     0.000000000  0.000000000 22.113885220     0.000000000  0.000000000  0.045220457

  length of vectors
    21.138852197 21.138852197 22.113885220     0.047306258  0.047306258  0.045220457

[...]
     52     -44.3754      2.00000
     53     -44.3753      2.00000
     54     -44.3745      2.00000
     55     -44.3743      2.00000
     56     -44.3742      2.00000
     57     -44.3729      2.00000
     58     -44.3721      2.00000
     59     -44.3716      2.00000
     60     -44.3715      2.00000
[...]
    850       4.8569      0.00000
    851       4.8611      0.00000
    852       4.8838      0.00000
    853       4.8924      0.00000
    854       4.9012      0.00000
    855       5.0365      0.00000
    856       5.0810      0.00000
    857       5.0995      0.00000
    858       5.1148      0.00000
    859       5.1367      0.00000
    860       5.1542      0.00000
    861       5.1890      0.00000
    862       5.3575      0.00000
    863       5.6420      0.00000
    864       5.7115      0.00000

 soft charge-density along one line, spin component           1
         0         1         2         3         4         5         6         7         8         9
 total charge-density along one line

------------------------ aborting loop because EDIFF is reached ----------------------------------------

  FORCE on cell =-STRESS in cart. coord.  units (eV):
  Direction    XX          YY          ZZ          XY          YZ          ZX
  Alpha Z  1354.41543  1354.41543  1354.41543
  Ewald  478638.37410478638.37410************  -389.48255     0.00001    -0.00000
  Hartree507647.83795507647.83798************  -288.55620     0.00000    -0.00000
  E(xc)   -8411.80872 -8411.80872 -8402.95164    -0.06480    -0.00000     0.00000
  Local  ************************************   670.64899    -0.00001     0.00000
  n-local -8732.31397 -8732.31403 -8853.25722     1.72163     0.00003     0.00003
  augment  3885.19121  3885.19112  3828.49712     3.06654     0.00001     0.00001
  Kinetic 22910.92355 22910.92355 23136.99212     3.12599    -0.00006     0.00005
  Fock        0.00000     0.00000     0.00000     0.00000     0.00000     0.00000
  Total    -232.46107  -232.46107   -20.17565     0.45960     0.00000    -0.00000
  in kB     -37.69059   -37.69059    -3.27122     0.07452     0.00000    -0.00000

 VOLUME and BASIS-vectors are now :
  energy-cutoff  :      520.00
  volume of cell :     9881.61
      direct lattice vectors                 reciprocal lattice vectors
    21.138852197  0.000000000  0.000000000     0.047306258  0.000000000  0.000000000
     0.000000000 21.138852197  0.000000000     0.000000000  0.047306258  0.000000000
     0.000000000  0.000000000 22.113885220     0.000000000  0.000000000  0.045220457

  length of vectors
    21.138852197 21.138852197 22.113885220     0.047306258  0.047306258  0.045220457

 FORCES acting on ions:
    Electron-Ion                     Ewald-Force                    Non-Local-Force
   -.256E+03 0.256E+03 -.200E+04   0.246E+03 -.246E+03 0.200E+04   0.970E+01 -.970E+01 0.300E+00
   0.256E+03 -.256E+03 -.200E+04   -.246E+03 0.246E+03 0.200E+04   -.970E+01 0.970E+01 0.300E+00
   0.175E+01 0.175E+01 0.931E+03   -.174E+01 -.174E+01 -.923E+03   -.204E-02 -.204E-02 -.749E+01
   0.626E+01 0.626E+01 0.933E+03   -.626E+01 -.626E+01 -.925E+03   -.483E-02 -.483E-02 -.749E+01
   0.269E+01 0.599E+01 -.922E+03   -.268E+01 -.599E+01 0.914E+03   -.926E-02 -.993E-03 0.753E+01
   0.599E+01 0.269E+01 -.922E+03   -.599E+01 -.268E+01 0.914E+03   -.993E-03 -.926E-02 0.753E+01
   0.302E+01 0.636E+01 0.934E+03   -.300E+01 -.637E+01 -.926E+03   -.113E-01 0.178E-02 -.749E+01
   0.130E+02 0.800E+01 0.939E+03   -.130E+02 -.801E+01 -.931E+03   -.120E-01 0.973E-02 -.749E+01
   0.590E+01 0.710E+01 -.919E+03   -.588E+01 -.710E+01 0.911E+03   -.142E-01 0.396E-02 0.753E+01
   0.127E+02 0.117E+02 -.919E+03   -.127E+02 -.117E+02 0.911E+03   -.175E-01 -.777E-03 0.753E+01
   0.524E+01 0.229E+01 0.937E+03   -.524E+01 -.229E+01 -.929E+03   -.238E-02 0.467E-02 -.749E+01
   0.166E+02 -.279E+01 0.942E+03   -.166E+02 0.278E+01 -.934E+03   0.271E-01 0.118E-01 -.749E+01
   0.808E+01 -.261E+01 -.918E+03   -.810E+01 0.261E+01 0.910E+03   0.110E-01 0.408E-02 0.753E+01
   0.254E+02 0.555E+01 -.913E+03   -.254E+02 -.558E+01 0.905E+03   -.491E-02 0.190E-01 0.753E+01
   0.483E+01 -.543E+01 0.935E+03   -.485E+01 0.543E+01 -.927E+03   0.158E-01 -.442E-03 -.749E+01
   0.991E+01 -.892E+01 0.936E+03   -.993E+01 0.893E+01 -.928E+03   0.171E-01 -.794E-02 -.748E+01
   0.501E+01 -.814E+01 -.921E+03   -.503E+01 0.814E+01 0.913E+03   0.175E-01 -.307E-02 0.753E+01
   0.212E+02 -.111E+02 -.915E+03   -.213E+02 0.111E+02 0.907E+03   0.391E-01 0.312E-02 0.753E+01
   0.255E+01 -.497E+01 0.932E+03   -.256E+01 0.498E+01 -.924E+03   0.885E-02 -.404E-02 -.749E+01
   0.497E+01 -.255E+01 0.932E+03   -.498E+01 0.256E+01 -.924E+03   0.404E-02 -.885E-02 -.749E+01
   0.234E+01 -.234E+01 -.923E+03   -.234E+01 0.234E+01 0.915E+03   0.381E-02 -.381E-02 0.753E+01
   0.883E+01 -.883E+01 -.921E+03   -.884E+01 0.884E+01 0.913E+03   0.123E-01 -.123E-01 0.753E+01
   0.636E+01 0.302E+01 0.934E+03   -.637E+01 -.300E+01 -.926E+03   0.178E-02 -.113E-01 -.749E+01
   0.800E+01 0.130E+02 0.939E+03   -.801E+01 -.130E+02 -.931E+03   0.973E-02 -.120E-01 -.749E+01
   0.117E+02 0.127E+02 -.919E+03   -.117E+02 -.127E+02 0.911E+03   -.777E-03 -.175E-01 0.753E+01
   0.710E+01 0.590E+01 -.919E+03   -.710E+01 -.588E+01 0.911E+03   0.396E-02 -.142E-01 0.753E+01
   0.135E+02 0.135E+02 0.941E+03   -.135E+02 -.135E+02 -.933E+03   -.415E-02 -.415E-02 -.750E+01
   0.225E+02 0.225E+02 0.962E+03   -.225E+02 -.225E+02 -.954E+03   0.927E-02 0.927E-02 -.754E+01
   0.344E+02 0.225E+02 -.906E+03   -.343E+02 -.226E+02 0.898E+03   -.514E-01 0.190E-01 0.751E+01
   0.225E+02 0.344E+02 -.906E+03   -.226E+02 -.343E+02 0.898E+03   0.190E-01 -.514E-01 0.751E+01
   0.268E+02 0.674E+01 0.954E+03   -.268E+02 -.679E+01 -.946E+03   -.120E-01 0.393E-01 -.749E+01
   0.316E+02 -.915E+01 0.980E+03   -.316E+02 0.909E+01 -.972E+03   -.434E-01 0.431E-01 -.732E+01
   0.529E+02 -.841E+01 -.894E+03   -.531E+02 0.835E+01 0.886E+03   0.101E+00 0.449E-01 0.753E+01
   0.801E+02 0.335E+02 -.848E+03   -.798E+02 -.337E+02 0.840E+03   -.165E+00 0.166E+00 0.741E+01
   0.216E+02 -.134E+02 0.950E+03   -.217E+02 0.134E+02 -.942E+03   0.268E-01 -.637E-02 -.747E+01
   0.134E+02 -.216E+02 0.950E+03   -.134E+02 0.217E+02 -.942E+03   0.637E-02 -.268E-01 -.747E+01
   0.220E+02 -.220E+02 -.912E+03   -.220E+02 0.220E+02 0.904E+03   0.288E-01 -.288E-01 0.754E+01
   0.510E+02 -.510E+02 -.872E+03   -.511E+02 0.511E+02 0.864E+03   0.683E-01 -.683E-01 0.757E+01
   0.892E+01 -.991E+01 0.936E+03   -.893E+01 0.993E+01 -.928E+03   0.794E-02 -.171E-01 -.748E+01
   0.543E+01 -.483E+01 0.935E+03   -.543E+01 0.485E+01 -.927E+03   0.442E-03 -.158E-01 -.749E+01
   0.814E+01 -.501E+01 -.921E+03   -.814E+01 0.503E+01 0.913E+03   0.307E-02 -.175E-01 0.753E+01
   0.111E+02 -.212E+02 -.915E+03   -.111E+02 0.213E+02 0.907E+03   -.312E-02 -.391E-01 0.753E+01
   0.229E+01 0.524E+01 0.937E+03   -.229E+01 -.524E+01 -.929E+03   0.467E-02 -.238E-02 -.749E+01
   -.279E+01 0.166E+02 0.942E+03   0.278E+01 -.166E+02 -.934E+03   0.118E-01 0.271E-01 -.749E+01
   0.555E+01 0.254E+02 -.913E+03   -.558E+01 -.254E+02 0.905E+03   0.190E-01 -.491E-02 0.753E+01
   -.262E+01 0.808E+01 -.918E+03   0.261E+01 -.810E+01 0.910E+03   0.408E-02 0.110E-01 0.753E+01
   0.674E+01 0.268E+02 0.954E+03   -.679E+01 -.268E+02 -.946E+03   0.393E-01 -.120E-01 -.749E+01
   -.915E+01 0.316E+02 0.980E+03   0.909E+01 -.316E+02 -.972E+03   0.431E-01 -.434E-01 -.732E+01
   0.335E+02 0.801E+02 -.848E+03   -.337E+02 -.798E+02 0.840E+03   0.166E+00 -.165E+00 0.741E+01
   -.841E+01 0.529E+02 -.894E+03   0.835E+01 -.531E+02 0.886E+03   0.449E-01 0.101E+00 0.753E+01
   0.165E+02 0.165E+02 0.100E+04   -.165E+02 -.165E+02 -.996E+03   0.110E-01 0.110E-01 -.766E+01
   -.165E+02 -.165E+02 0.100E+04   0.165E+02 0.165E+02 -.996E+03   -.110E-01 -.110E-01 -.766E+01
   0.523E+02 -.523E+02 -.719E+03   -.518E+02 0.518E+02 0.713E+03   -.345E+00 0.345E+00 0.617E+01
   -.523E+02 0.523E+02 -.719E+03   0.518E+02 -.518E+02 0.713E+03   0.345E+00 -.345E+00 0.617E+01
   0.915E+01 -.316E+02 0.980E+03   -.909E+01 0.316E+02 -.972E+03   -.431E-01 0.434E-01 -.732E+01
   -.674E+01 -.268E+02 0.954E+03   0.679E+01 0.268E+02 -.946E+03   -.393E-01 0.120E-01 -.749E+01
   0.841E+01 -.529E+02 -.894E+03   -.835E+01 0.531E+02 0.886E+03   -.449E-01 -.101E+00 0.753E+01
   -.335E+02 -.801E+02 -.848E+03   0.337E+02 0.798E+02 0.840E+03   -.166E+00 0.165E+00 0.741E+01
   0.279E+01 -.166E+02 0.942E+03   -.278E+01 0.166E+02 -.934E+03   -.118E-01 -.271E-01 -.749E+01
   -.229E+01 -.524E+01 0.937E+03   0.229E+01 0.524E+01 -.929E+03   -.467E-02 0.238E-02 -.749E+01
[...]
   -.104E+02 0.582E+01 0.706E+03   0.104E+02 -.582E+01 -.710E+03   -.252E-01 0.200E-02 0.348E+01
   -.274E+01 0.482E+01 0.702E+03   0.275E+01 -.482E+01 -.706E+03   -.134E-01 0.437E-02 0.348E+01
   -.198E+02 0.294E+01 -.686E+03   0.198E+02 -.292E+01 0.690E+03   -.206E-01 -.216E-01 -.349E+01
   -.571E+01 -.227E+01 -.690E+03   0.571E+01 0.227E+01 0.694E+03   0.245E-02 -.712E-02 -.349E+01
   -.122E+02 -.274E+01 0.708E+03   0.122E+02 0.275E+01 -.712E+03   -.183E-02 -.215E-01 0.347E+01
   -.414E+01 0.153E+01 0.704E+03   0.414E+01 -.153E+01 -.708E+03   -.814E-02 -.373E-02 0.348E+01
   -.145E+02 -.851E+01 -.689E+03   0.145E+02 0.852E+01 0.692E+03   0.132E-01 -.105E-01 -.349E+01
   -.301E+01 -.601E+01 -.692E+03   0.300E+01 0.601E+01 0.696E+03   0.118E-01 -.116E-02 -.349E+01
   -.688E+01 -.649E+01 0.704E+03   0.687E+01 0.649E+01 -.707E+03   0.105E-01 0.134E-02 0.347E+01
   -.315E+01 -.414E+01 0.703E+03   0.315E+01 0.414E+01 -.707E+03   0.885E-02 -.467E-02 0.348E+01
   -.609E+01 -.609E+01 -.693E+03   0.609E+01 0.609E+01 0.696E+03   0.826E-02 0.826E-02 -.349E+01
   -.160E+01 -.160E+01 -.694E+03   0.160E+01 0.160E+01 0.698E+03   0.258E-02 0.258E-02 -.349E+01
   -.363E+01 -.160E+01 0.701E+03   0.363E+01 0.159E+01 -.705E+03   0.593E-03 0.719E-02 0.348E+01
   -.160E+01 -.363E+01 0.701E+03   0.159E+01 0.363E+01 -.705E+03   0.719E-02 0.593E-03 0.348E+01
   -.307E-01 0.151E-01 0.620E+01   0.303E-11 -.732E-12 -.625E-11   0.183E-14 -.166E-14 -.339E+01

 POSITION                                       TOTAL-FORCE (eV/Angst)
     10.29957      8.72540     14.01778        -0.171949      0.171949     -0.063782
      8.72540     10.29957     14.01778         0.171949     -0.171949     -0.063782
      0.00000      0.00000      9.00000         0.000593      0.000593      0.516883
      2.11389      2.11389      9.00000         0.001434      0.001434      0.517300
      0.00000      2.11389     11.11389         0.002610      0.000317     -0.490274
      2.11389      0.00000     11.11389         0.000317      0.002610     -0.490274
      0.00000      4.22777      9.00000         0.003095     -0.000465      0.516943
      2.11389      6.34166      9.00000         0.003140     -0.002689      0.517533
      0.00000      6.34166     11.11389         0.003961     -0.001169     -0.489667
      2.11389      4.22777     11.11389         0.005066      0.000474     -0.488725
      0.00000      8.45554      9.00000         0.000564     -0.001486      0.516797
      2.11389     10.56943      9.00000        -0.007147     -0.003564      0.517038
      0.00000     10.56943     11.11389        -0.002972     -0.001022     -0.490104
      2.11389      8.45554     11.11389         0.001489     -0.005995     -0.487960
      0.00000     12.68331      9.00000        -0.004266      0.000168      0.516661
      2.11389     14.79720      9.00000        -0.004871      0.002397      0.515691
      0.00000     14.79720     11.11389        -0.004883      0.000930     -0.490691
      2.11389     12.68331     11.11389        -0.011117     -0.000725     -0.491711
      0.00000     16.91108      9.00000        -0.002462      0.001152      0.516627
      2.11389     19.02497      9.00000        -0.001152      0.002462      0.516627
      0.00000     19.02497     11.11389        -0.001096      0.001096     -0.490667
      2.11389     16.91108     11.11389        -0.003505      0.003505     -0.491182
      4.22777      0.00000      9.00000        -0.000465      0.003095      0.516943
      6.34166      2.11389      9.00000        -0.002689      0.003140      0.517533
      4.22777      2.11389     11.11389         0.000474      0.005066     -0.488725
      6.34166      0.00000     11.11389        -0.001169      0.003961     -0.489667
      4.22777      4.22777      9.00000         0.001583      0.001583      0.519774
      6.34166      6.34166      9.00000        -0.000718     -0.000718      0.530259
      4.22777      6.34166     11.11389         0.015581     -0.004117     -0.481048
      6.34166      4.22777     11.11389        -0.004117      0.015581     -0.481048
      4.22777      8.45554      9.00000         0.001367     -0.012508      0.516637
      6.34166     10.56943      9.00000         0.013910     -0.013976      0.472368
      4.22777     10.56943     11.11389        -0.036258     -0.014632     -0.489573
      6.34166      8.45554     11.11389         0.060548     -0.045268     -0.420264
      4.22777     12.68331      9.00000        -0.008138      0.002758      0.510973
      6.34166     14.79720      9.00000        -0.002758      0.008138      0.510973
      4.22777     14.79720     11.11389        -0.008589      0.008589     -0.494241
      6.34166     12.68331     11.11389        -0.020907      0.020907     -0.513460
      4.22777     16.91108      9.00000        -0.002397      0.004871      0.515691
      6.34166     19.02497      9.00000        -0.000168      0.004266      0.516661
      4.22777     19.02497     11.11389        -0.000930      0.004883     -0.490691
      6.34166     16.91108     11.11389         0.000725      0.011117     -0.491711
      8.45554      0.00000      9.00000        -0.001486      0.000564      0.516797
     10.56943      2.11389      9.00000        -0.003564     -0.007147      0.517038
      8.45554      2.11389     11.11389        -0.005995      0.001489     -0.487960
     10.56943      0.00000     11.11389        -0.001022     -0.002972     -0.490104
      8.45554      4.22777      9.00000        -0.012508      0.001367      0.516637
     10.56943      6.34166      9.00000        -0.013976      0.013910      0.472368
      8.45554      6.34166     11.11389        -0.045268      0.060548     -0.420264
     10.56943      4.22777     11.11389        -0.014632     -0.036258     -0.489573
      8.45554      8.45554      9.00000        -0.000388     -0.000388      0.538984
     10.56943     10.56943      9.00000         0.000388      0.000388      0.538984
      8.45554     10.56943     11.11389         0.135871     -0.135871     -0.391600
     10.56943      8.45554     11.11389        -0.135871      0.135871     -0.391600
      8.45554     12.68331      9.00000         0.013976     -0.013910      0.472368
     10.56943     14.79720      9.00000         0.012508     -0.001367      0.516637
      8.45554     14.79720     11.11389         0.014632      0.036258     -0.489573
     10.56943     12.68331     11.11389         0.045268     -0.060548     -0.420264
      8.45554     16.91108      9.00000         0.003564      0.007147      0.517038
     10.56943     19.02497      9.00000         0.001486     -0.000564      0.516797
[...]
     19.02497      6.34166     11.11389        -0.004200      0.000147      0.324709
     16.91108      6.34166      9.00000        -0.007054      0.000561     -0.348112
     19.02497      4.22777      9.00000        -0.003728      0.001223     -0.349779
     16.91108      8.45554     11.11389        -0.005944     -0.005979      0.324845
     19.02497     10.56943     11.11389         0.000650     -0.002006      0.323978
     16.91108     10.56943      9.00000        -0.000601     -0.005937     -0.350814
     19.02497      8.45554      9.00000        -0.002277     -0.001030     -0.349884
     16.91108     12.68331     11.11389         0.003559     -0.002948      0.322254
     19.02497     14.79720     11.11389         0.003292     -0.000346      0.324160
     16.91108     14.79720      9.00000         0.002882      0.000344     -0.351214
     19.02497     12.68331      9.00000         0.002447     -0.001316     -0.350417
     16.91108     16.91108     11.11389         0.002272      0.002272      0.323806
     19.02497     19.02497     11.11389         0.000705      0.000705      0.324645
     16.91108     19.02497      9.00000         0.000157      0.001991     -0.350303
     19.02497     16.91108      9.00000         0.001991      0.000157     -0.350303
    total drift:                               -0.030686      0.015122      2.808339

  FREE ENERGIE OF THE ION-ELECTRON SYSTEM (eV)
  free  energy   TOTEN  =     -1514.68116007 eV

  energy  without entropy=    -1514.68116007  energy(sigma->0) =    -1514.68116007