 vasp.6.3.0 20Jan22 (build Apr  1 2022 16:44:48) complex
 executed on        HPECrayEX_GCC date 2022.11.20  02:09:43

 INCAR:
   SYSTEM = MgO-rocksalt
   ISMEAR = 0
   SIGMA = 0.05
   EDIFF = 1E-6
   ALGO = ALL
   ISTART = 0
   IBRION = -1
   NSW = 0
   ISYM = 2
   DIPOL = 0.5 0.5 0.5
   IDIPOL = 3
   LDIPOL = .TRUE.
   LHFCALC = .TRUE.
   GGA = PE
   IVDW = 21
   VDW_SR = 0.96
   ENCUT = 520
   PREC = Accurate
   LASPH = .TRUE.
   LREAL = Auto
   ISPIN = 1
   NELM = 200
   NELMIN = 8
   NCORE = 4
   KPAR = 2
   LWAVE = .FALSE.
   LCHARG = .FALSE.

 POTCAR:    PAW_PBE Cu 22Jun2005
 POTCAR:    PAW_PBE Mg_pv 13Apr2007
 POTCAR:    PAW_PBE O 08Apr2002
|           W    W    AA    RRRRR   N    N  II  N    N   GGGG   !!!           |
|           W    W   A  A   R    R  NN   N  II  NN   N  G    G  !!!           |
|           W    W  A    A  R    R  N N  N  II  N N  N  G       !!!           |
|           W WW W  AAAAAA  RRRRR   N  N N  II  N  N N  G  GGG   !            |
|           WW  WW  A    A  R   R   N   NN  II  N   NN  G    G                |
|           W    W  A    A  R    R  N    N  II  N    N   GGGG   !!!           |
|     You have selected ISYM=2 for a HF type calculation. This will           |
|     symmetrize the charge density but not the exchange potential. I         |
|     suggest to use ISYM=3 instead. This uses symmetry to obtain the         |
|     orbitals at all k-points in the Brillouin zone, but does not apply      |
|     symmetry to the Hartree potential directly. The resultant charge        |
|     might have lower symmetry than the crystal but, at least, Hartree       |
|     and exchange are fully compatible.                                      |

   TITEL  = PAW_PBE Cu 22Jun2005
   POMASS =   63.546; ZVAL   =   11.000    mass and valenz
   ENMAX  =  295.446; ENMIN  =  221.585 eV

   TITEL  = PAW_PBE Mg_pv 13Apr2007
   POMASS =   24.305; ZVAL   =    8.000    mass and valenz
   ENMAX  =  403.929; ENMIN  =  302.947 eV

   TITEL  = PAW_PBE O 08Apr2002
   POMASS =   16.000; ZVAL   =    6.000    mass and valenz
   ENMAX  =  400.000; ENMIN  =  300.000 eV

 Optimization of the real space projectors (new method)

 maximal supplied QI-value         = 16.25
 optimisation between [QCUT,QGAM] = [ 11.54, 23.24] = [ 37.28,151.24] Ry
 Optimized for a Real-space Cutoff    1.53 Angstroem

   l    n(q)    QCUT    max X(q) W(low)/X(q) W(high)/X(q)  e(spline)
   2     10    11.539     4.610    0.96E-04    0.13E-03    0.19E-06
   2     10    11.539     8.522    0.16E-03    0.21E-03    0.28E-06
   0     11    11.539    51.609    0.45E-04    0.31E-04    0.11E-06
   0     11    11.539    27.747    0.39E-04    0.29E-04    0.10E-06
   1     10    11.539    20.408    0.70E-05    0.38E-04    0.18E-06
   1     10    11.539    13.425    0.66E-05    0.34E-04    0.17E-06
 Optimization of the real space projectors (new method)

[...]

   l    n(q)    QCUT    max X(q) W(low)/X(q) W(high)/X(q)  e(spline)
   1      8    11.527     2.974    0.44E-04    0.56E-04    0.12E-06
   1      8    11.527     4.279    0.12E-03    0.12E-03    0.26E-06
   0      9    11.527    16.381    0.46E-04    0.64E-04    0.78E-07
   0      9    11.527     5.611    0.26E-04    0.43E-04    0.55E-07
   2      8    11.527     4.652    0.22E-03    0.72E-04    0.47E-07
 Optimization of the real space projectors (new method)

 maximal supplied QI-value         = 24.76
 optimisation between [QCUT,QGAM] = [ 11.64, 23.27] = [ 37.91,151.63] Ry
 Optimized for a Real-space Cutoff    1.14 Angstroem

   l    n(q)    QCUT    max X(q) W(low)/X(q) W(high)/X(q)  e(spline)
   0      8    11.635    20.381    0.10E-03    0.33E-03    0.24E-06
   0      8    11.635    15.268    0.11E-03    0.35E-03    0.26E-06
   1      7    11.635     5.964    0.24E-03    0.31E-03    0.30E-06
   1      7    11.635     5.382    0.22E-03    0.25E-03    0.26E-06
  PAW_PBE Cu 22Jun2005                  :
  PAW_PBE Mg_pv 13Apr2007               :
  PAW_PBE O 08Apr2002                   :

 POSCAR: Cu Mg  O
  positions in direct lattice
 exchange correlation table for  LEXCH =        8
   RHO(1)=    0.500       N(1)  =     2000
   RHO(2)=  100.500       N(2)  =     4000

 ion  position               nearest neighbor table
   1  0.654  0.500  0.605-   2 2.30  73 2.54
   2  0.546  0.500  0.605-   1 2.30  73 2.54
   3  0.000  0.000  0.407- 105 2.11 106 2.11 121 2.11 186 2.11 103 2.11
   4  0.100  0.100  0.407- 105 2.11 106 2.11 110 2.11 125 2.11 104 2.11
   5  0.000  0.100  0.503- 103 2.11 104 2.11 107 2.11 184 2.11 105 2.11
   6  0.100  0.000  0.503- 103 2.11 104 2.11 120 2.11 123 2.11 106 2.11
   7  0.000  0.200  0.407- 109 2.11 105 2.11 110 2.11 190 2.11 107 2.11
   8  0.100  0.300  0.407- 110 2.11 109 2.11 114 2.11 129 2.11 108 2.11
   9  0.000  0.300  0.503- 107 2.11 108 2.11 111 2.11 188 2.11 109 2.11
  10  0.100  0.200  0.503- 108 2.11 107 2.11 104 2.11 127 2.11 110 2.11
  11  0.000  0.400  0.407- 109 2.11 113 2.11 114 2.11 194 2.11 111 2.11
  12  0.100  0.500  0.407- 113 2.11 114 2.11 118 2.11 133 2.11 112 2.11
  13  0.000  0.500  0.503- 111 2.11 112 2.11 115 2.11 192 2.11 113 2.11
  14  0.100  0.400  0.503- 108 2.11 111 2.11 112 2.11 131 2.11 114 2.11
  15  0.000  0.600  0.407- 113 2.11 117 2.11 118 2.11 198 2.11 115 2.11
  16  0.100  0.700  0.407- 122 2.11 118 2.11 117 2.11 137 2.11 116 2.11
  17  0.000  0.700  0.503- 119 2.11 116 2.11 115 2.11 196 2.11 117 2.11
  18  0.100  0.600  0.503- 112 2.11 115 2.11 116 2.11 135 2.11 118 2.11
  19  0.000  0.800  0.407- 117 2.11 121 2.11 122 2.11 202 2.11 119 2.11
  20  0.100  0.900  0.407- 106 2.11 121 2.11 122 2.11 141 2.11 120 2.11
  21  0.000  0.900  0.503- 103 2.11 119 2.11 120 2.11 200 2.11 121 2.11
  22  0.100  0.800  0.503- 116 2.11 119 2.11 120 2.11 139 2.11 122 2.11
  23  0.200  0.000  0.407- 126 2.11 125 2.11 106 2.11 141 2.11 123 2.11
  24  0.300  0.100  0.407- 125 2.11 126 2.11 130 2.11 145 2.11 124 2.11
  25  0.200  0.100  0.503- 124 2.11 123 2.11 104 2.11 127 2.11 125 2.11
  26  0.300  0.000  0.503- 123 2.11 124 2.11 140 2.11 143 2.11 126 2.11
  27  0.200  0.200  0.407- 129 2.11 130 2.11 110 2.11 125 2.11 127 2.11
  28  0.300  0.300  0.407- 129 2.11 130 2.11 134 2.11 149 2.11 128 2.11
  29  0.200  0.300  0.503- 127 2.11 128 2.11 108 2.11 131 2.11 129 2.11
  30  0.300  0.200  0.503- 127 2.11 128 2.11 124 2.11 147 2.11 130 2.11
  31  0.200  0.400  0.407- 134 2.11 129 2.11 133 2.11 114 2.11 131 2.11
  32  0.300  0.500  0.407- 133 2.11 134 2.11 138 2.11 153 2.11 132 2.11
  33  0.200  0.500  0.503- 132 2.11 131 2.11 112 2.11 135 2.11 133 2.11
  34  0.300  0.400  0.503- 131 2.11 128 2.11 132 2.11 151 2.11 134 2.11
  35  0.200  0.600  0.407- 138 2.11 133 2.11 137 2.11 118 2.11 135 2.11
  36  0.300  0.700  0.407- 137 2.11 142 2.11 138 2.11 157 2.11 136 2.11
  37  0.200  0.700  0.503- 136 2.11 139 2.11 116 2.11 135 2.11 137 2.11
  38  0.300  0.600  0.503- 135 2.11 132 2.11 136 2.11 155 2.11 138 2.11
  39  0.200  0.800  0.407- 137 2.11 142 2.11 141 2.11 122 2.11 139 2.11
  40  0.300  0.900  0.407- 141 2.11 126 2.11 142 2.11 161 2.11 140 2.11
  41  0.200  0.900  0.503- 140 2.11 123 2.11 139 2.11 120 2.11 141 2.11
  42  0.300  0.800  0.503- 136 2.11 139 2.11 140 2.11 159 2.11 142 2.11
  43  0.400  0.000  0.407- 126 2.11 145 2.11 146 2.11 161 2.11 143 2.11
  44  0.500  0.100  0.407- 145 2.11 146 2.11 150 2.11 165 2.11 144 2.11
  45  0.400  0.100  0.503- 124 2.11 143 2.11 144 2.11 147 2.11 145 2.11
  46  0.500  0.000  0.503- 143 2.11 144 2.11 160 2.11 163 2.11 146 2.11
  47  0.400  0.200  0.407- 149 2.11 145 2.11 130 2.11 150 2.11 147 2.11
  48  0.500  0.300  0.407- 150 2.11 149 2.11 154 2.11 169 2.11 148 2.11
  49  0.400  0.300  0.503- 147 2.11 128 2.11 148 2.11 151 2.11 149 2.11
  50  0.500  0.200  0.503- 148 2.11 147 2.11 144 2.11 167 2.11 150 2.11
  51  0.400  0.400  0.407- 134 2.11 149 2.11 153 2.11 154 2.11 151 2.11
  52  0.500  0.500  0.407- 153 2.11 154 2.11 158 2.11 173 2.11 152 2.11
  53  0.400  0.500  0.503- 132 2.11 151 2.11 152 2.11 155 2.11 153 2.11
  54  0.500  0.400  0.503- 148 2.11 151 2.11 152 2.11 171 2.11 154 2.11
  55  0.400  0.600  0.407- 138 2.11 153 2.11 157 2.11 158 2.11 155 2.11
  56  0.500  0.700  0.407- 162 2.11 158 2.11 157 2.11 177 2.11 156 2.11
  57  0.400  0.700  0.503- 159 2.11 155 2.11 156 2.11 136 2.11 157 2.11
  58  0.500  0.600  0.503- 152 2.11 155 2.11 156 2.11 175 2.11 158 2.11
  59  0.400  0.800  0.407- 157 2.11 142 2.11 161 2.11 162 2.11 159 2.11
  60  0.500  0.900  0.407- 146 2.11 161 2.11 162 2.11 181 2.11 160 2.11
[...]
 188  0.900  0.300  0.503-  90 2.11  89 2.11   9 2.11  94 2.11  88 2.11
 189  0.800  0.300  0.407-  68 2.11  87 2.11  88 2.11  91 2.11  89 2.11
 190  0.900  0.200  0.407-  88 2.11  84 2.11  87 2.11   7 2.11  90 2.11
 191  0.800  0.400  0.503-  74 2.11  89 2.11  93 2.11  94 2.11  91 2.11
 192  0.900  0.500  0.503-  13 2.11  93 2.11  94 2.11  98 2.11  92 2.11
 193  0.800  0.500  0.407-  72 2.11  91 2.11  92 2.11  95 2.11  93 2.11
 194  0.900  0.400  0.407-  11 2.11  88 2.11  91 2.11  92 2.11  94 2.11
 195  0.800  0.600  0.503-  78 2.11  93 2.11  97 2.11  98 2.11  95 2.11
 196  0.900  0.700  0.503- 102 2.11  97 2.11  98 2.11  17 2.11  96 2.11
 197  0.800  0.700  0.407-  76 2.11  99 2.11  96 2.11  95 2.11  97 2.11
 198  0.900  0.600  0.407-  15 2.11  92 2.11  95 2.11  96 2.11  98 2.11
 199  0.800  0.800  0.503-  82 2.11  97 2.11 101 2.11 102 2.11  99 2.11
 200  0.900  0.900  0.503-  21 2.11  86 2.11 101 2.11 102 2.11 100 2.11
 201  0.800  0.900  0.407-  80 2.11  83 2.11  99 2.11 100 2.11 101 2.11
 202  0.900  0.800  0.407-  96 2.11  19 2.11  99 2.11 100 2.11 102 2.11

  LATTYP: Found a simple tetragonal cell.
 ALAT       =    21.1388521970
 C/A-ratio  =     1.0461251639

  Lattice vectors:

 A1 = (  21.1388521970,   0.0000000000,   0.0000000000)
 A2 = (   0.0000000000,  21.1388521970,   0.0000000000)
 A3 = (   0.0000000000,   0.0000000000,  22.1138852197)

Analysis of symmetry for initial positions (statically):
 Subroutine PRICEL returns:
 Original cell was already a primitive cell.

 Routine SETGRP: Setting up the symmetry group for a
 simple tetragonal supercell.

 Subroutine GETGRP returns: Found  4 space group operations
 (whereof  2 operations were pure point group operations)
 out of a pool of 16 trial point group operations.

The static configuration has the point symmetry C_1h.
 The point group associated with its full space group is C_2v.

Analysis of symmetry for dynamics (positions and initial velocities):
 Subroutine PRICEL returns:
 Original cell was already a primitive cell.

 Routine SETGRP: Setting up the symmetry group for a
 simple tetragonal supercell.

 Subroutine GETGRP returns: Found  4 space group operations
 (whereof  2 operations were pure point group operations)
 out of a pool of 16 trial point group operations.

The dynamic configuration has the point symmetry C_1h.
 The point group associated with its full space group is C_2v.

 Subroutine INISYM returns: Found  4 space group operations
 (whereof  2 operations are pure point group operations),
 and found     1 'primitive' translations

                                     Primitive cell

  volume of cell :    9881.6133

[...]
   Mg          1.378          1.540          3.328          0.04687812
   Mg          1.375          1.539          3.325          0.04682850
   Mg          1.379          1.540          3.330          0.04689992
   Mg          1.374          1.539          3.324          0.04682017
   Mg          1.378          1.540          3.328          0.04687812
   Mg          1.377          1.540          3.328          0.04687127
   Mg          1.379          1.540          3.330          0.04690243
   Mg          1.374          1.539          3.324          0.04682017
   Mg          1.377          1.540          3.328          0.04687088
   Mg          1.377          1.540          3.328          0.04687141
[...]
   O         199.378          4.883         19.305          3.57499143
   O         199.631          4.884         19.317          3.57725507
   O         199.647          4.884         19.318          3.57739785
   O         204.152          4.903         19.535          3.61754154
   O         200.365          4.887         19.353          3.58383339
   O         199.314          4.883         19.302          3.57441566
   O         199.500          4.884         19.311          3.57608205
   O         204.152          4.903         19.535          3.61754154
   O         199.378          4.883         19.305          3.57499143
   O         199.631          4.884         19.317          3.57725508
   O         199.500          4.884         19.311          3.57608205
   O         199.448          4.884         19.308          3.57561449
   O         199.502          4.884         19.311          3.57610543
   O         199.683          4.885         19.320          3.57772042
   O         199.647          4.884         19.318          3.57739785

  vdW correction parametrized for the method         

  IVDW =  21
  VDW_RADIUS =    50.000 A
  VDW_IDAMPF =  0
  VDW_S6 =     1.000
  VDW_SR =     0.960
  VDW_D =    20.000
  LVDW_ONECELL = F F F
  LVDW_SAMETYPE T T T
  LVDW_EWALD = F

  Number of pair interactions contributing to vdW energy: 1097069
  Edisp (eV):   -7.09738

 VOLUME and BASIS-vectors are now :
  energy-cutoff  :      520.00
  volume of cell :     9881.61
      direct lattice vectors                 reciprocal lattice vectors
    21.138852197  0.000000000  0.000000000     0.047306258  0.000000000  0.000000000
     0.000000000 21.138852197  0.000000000     0.000000000  0.047306258  0.000000000
     0.000000000  0.000000000 22.113885220     0.000000000  0.000000000  0.045220457

  length of vectors
    21.138852197 21.138852197 22.113885220     0.047306258  0.047306258  0.045220457

 FORCES acting on ions:
    Electron-Ion                     Ewald-Force                    Non-Local-Force
   -.346E+03 -.101E-05 -.218E+04   0.333E+03 0.354E-07 0.218E+04   0.125E+02 0.000E+00 -.136E+01
   0.346E+03 -.545E-06 -.218E+04   -.333E+03 0.354E-07 0.218E+04   -.125E+02 0.000E+00 -.136E+01
   -.344E+01 0.482E-06 0.932E+03   0.344E+01 0.858E-08 -.923E+03   0.413E-02 0.000E+00 -.710E+01
   -.184E-03 0.376E+01 0.932E+03   -.150E-05 -.378E+01 -.923E+03   0.000E+00 0.118E-01 -.710E+01
   -.494E+01 0.535E+01 -.924E+03   0.493E+01 -.537E+01 0.915E+03   0.567E-02 0.135E-01 0.706E+01
   -.184E-03 0.481E-06 -.924E+03   -.153E-05 0.889E-08 0.916E+03   0.000E+00 0.000E+00 0.706E+01
   -.585E+01 0.758E+01 0.934E+03   0.585E+01 -.762E+01 -.925E+03   -.714E-03 0.254E-01 -.710E+01
   -.182E-03 0.683E+01 0.935E+03   -.312E-05 -.686E+01 -.926E+03   -.339E-20 0.229E-01 -.710E+01
   -.119E+02 0.108E+02 -.920E+03   0.119E+02 -.109E+02 0.912E+03   -.142E-01 0.300E-01 0.706E+01
   -.183E-03 0.776E+01 -.923E+03   -.273E-05 -.779E+01 0.915E+03   0.339E-20 0.204E-01 0.706E+01
   -.117E+02 0.564E+01 0.939E+03   0.117E+02 -.567E+01 -.930E+03   -.346E-01 0.211E-01 -.710E+01
   -.181E-03 0.496E-06 0.937E+03   -.454E-05 -.921E-08 -.928E+03   0.000E+00 0.000E+00 -.710E+01
   -.191E+02 0.478E-06 -.918E+03   0.192E+02 -.160E-07 0.909E+03   -.558E-01 0.000E+00 0.706E+01
   -.180E-03 0.559E+01 -.921E+03   -.571E-05 -.561E+01 0.912E+03   -.339E-20 0.152E-01 0.706E+01
   -.117E+02 -.564E+01 0.939E+03   0.117E+02 0.567E+01 -.930E+03   -.346E-01 -.211E-01 -.710E+01
   -.182E-03 -.683E+01 0.935E+03   -.312E-05 0.686E+01 -.926E+03   -.339E-20 -.229E-01 -.710E+01
   -.119E+02 -.108E+02 -.920E+03   0.119E+02 0.109E+02 0.912E+03   -.142E-01 -.300E-01 0.706E+01
   -.180E-03 -.559E+01 -.921E+03   -.571E-05 0.561E+01 0.912E+03   -.339E-20 -.152E-01 0.706E+01
   -.585E+01 -.758E+01 0.934E+03   0.585E+01 0.762E+01 -.925E+03   -.714E-03 -.254E-01 -.710E+01
   -.184E-03 -.376E+01 0.932E+03   -.150E-05 0.378E+01 -.923E+03   0.000E+00 -.118E-01 -.710E+01
   -.494E+01 -.535E+01 -.924E+03   0.493E+01 0.537E+01 0.915E+03   0.567E-02 -.135E-01 0.706E+01
   -.183E-03 -.776E+01 -.923E+03   -.273E-05 0.779E+01 0.915E+03   0.339E-20 -.204E-01 0.706E+01
   0.344E+01 0.481E-06 0.932E+03   -.344E+01 0.858E-08 -.923E+03   -.413E-02 0.000E+00 -.710E+01
   0.691E+01 0.613E+01 0.934E+03   -.690E+01 -.615E+01 -.925E+03   -.750E-02 0.173E-01 -.710E+01
   0.494E+01 0.535E+01 -.924E+03   -.493E+01 -.537E+01 0.915E+03   -.567E-02 0.135E-01 0.706E+01
   0.695E+01 0.475E-06 -.923E+03   -.694E+01 0.150E-07 0.915E+03   -.103E-01 0.000E+00 0.706E+01
   0.585E+01 0.758E+01 0.934E+03   -.585E+01 -.762E+01 -.925E+03   0.714E-03 0.254E-01 -.710E+01
   0.167E+02 0.135E+02 0.942E+03   -.167E+02 -.135E+02 -.933E+03   0.162E-01 0.556E-01 -.710E+01
   0.119E+02 0.108E+02 -.920E+03   -.119E+02 -.109E+02 0.912E+03   0.142E-01 0.300E-01 0.706E+01
   0.140E+02 0.151E+02 -.920E+03   -.140E+02 -.152E+02 0.912E+03   -.141E-01 0.414E-01 0.706E+01
   0.117E+02 0.564E+01 0.939E+03   -.117E+02 -.567E+01 -.930E+03   0.346E-01 0.211E-01 -.710E+01
   0.274E+02 0.533E-06 0.951E+03   -.276E+02 -.216E-07 -.942E+03   0.127E+00 0.000E+00 -.710E+01
   0.191E+02 0.525E-06 -.918E+03   -.192E+02 -.160E-07 0.909E+03   0.558E-01 0.000E+00 0.706E+01
   0.388E+02 0.157E+02 -.910E+03   -.389E+02 -.158E+02 0.901E+03   0.109E+00 0.497E-01 0.706E+01
   0.117E+02 -.564E+01 0.939E+03   -.117E+02 0.567E+01 -.930E+03   0.346E-01 -.211E-01 -.710E+01
   0.167E+02 -.135E+02 0.942E+03   -.167E+02 0.135E+02 -.933E+03   0.162E-01 -.556E-01 -.710E+01
   0.119E+02 -.108E+02 -.920E+03   -.119E+02 0.109E+02 0.912E+03   0.142E-01 -.300E-01 0.706E+01
   0.388E+02 -.157E+02 -.910E+03   -.389E+02 0.158E+02 0.901E+03   0.109E+00 -.497E-01 0.706E+01
   0.585E+01 -.758E+01 0.934E+03   -.585E+01 0.762E+01 -.925E+03   0.714E-03 -.254E-01 -.710E+01
   0.691E+01 -.613E+01 0.934E+03   -.690E+01 0.615E+01 -.925E+03   -.750E-02 -.173E-01 -.710E+01
   0.494E+01 -.535E+01 -.924E+03   -.493E+01 0.537E+01 0.915E+03   -.567E-02 -.135E-01 0.706E+01
   0.140E+02 -.151E+02 -.920E+03   -.140E+02 0.152E+02 0.912E+03   -.141E-01 -.414E-01 0.706E+01
   0.606E+01 0.474E-06 0.934E+03   -.604E+01 0.165E-07 -.926E+03   -.897E-02 0.000E+00 -.710E+01
   0.487E+01 0.113E+02 0.938E+03   -.485E+01 -.113E+02 -.929E+03   -.766E-02 0.142E-01 -.711E+01
   0.940E+01 0.118E+02 -.921E+03   -.938E+01 -.118E+02 0.912E+03   -.148E-01 0.114E-01 0.706E+01
   0.477E+01 0.464E-06 -.921E+03   -.476E+01 0.283E-07 0.913E+03   -.818E-02 0.000E+00 0.706E+01
   0.120E+02 0.171E+02 0.941E+03   -.120E+02 -.172E+02 -.933E+03   -.125E-01 0.523E-01 -.711E+01
   0.160E+02 0.346E+02 0.964E+03   -.160E+02 -.348E+02 -.955E+03   -.239E-01 0.148E+00 -.717E+01
   0.349E+02 0.387E+02 -.905E+03   -.348E+02 -.389E+02 0.897E+03   -.564E-01 0.156E+00 0.704E+01
   0.123E+02 0.363E+02 -.912E+03   -.123E+02 -.364E+02 0.904E+03   -.234E-01 0.604E-02 0.704E+01
   0.337E+02 0.192E+02 0.967E+03   -.338E+02 -.193E+02 -.959E+03   0.610E-01 0.117E+00 -.704E+01
   0.367E+02 0.643E-06 0.102E+04   -.367E+02 -.829E-07 -.101E+04   0.297E-01 0.000E+00 -.618E+01
   0.975E+02 0.688E-06 -.863E+03   -.986E+02 -.112E-06 0.854E+03   0.703E+00 0.000E+00 0.719E+01
   0.791E+02 0.104E+03 -.813E+03   -.786E+02 -.105E+03 0.805E+03   -.263E+00 0.793E+00 0.686E+01
   0.337E+02 -.192E+02 0.967E+03   -.338E+02 0.193E+02 -.959E+03   0.610E-01 -.117E+00 -.704E+01
   0.160E+02 -.346E+02 0.964E+03   -.160E+02 0.348E+02 -.955E+03   -.239E-01 -.148E+00 -.717E+01
   0.349E+02 -.387E+02 -.905E+03   -.348E+02 0.389E+02 0.897E+03   -.564E-01 -.156E+00 0.704E+01
   0.791E+02 -.104E+03 -.813E+03   -.786E+02 0.105E+03 0.805E+03   -.263E+00 -.793E+00 0.686E+01
   0.120E+02 -.171E+02 0.941E+03   -.120E+02 0.172E+02 -.933E+03   -.125E-01 -.523E-01 -.711E+01
   0.487E+01 -.113E+02 0.938E+03   -.485E+01 0.113E+02 -.929E+03   -.766E-02 -.142E-01 -.711E+01
[...]
   -.158E+02 0.172E+02 0.715E+03   0.158E+02 -.173E+02 -.719E+03   -.176E-02 0.101E+00 0.308E+01
   -.786E+01 0.844E+01 0.704E+03   0.786E+01 -.847E+01 -.708E+03   0.265E-03 0.366E-01 0.308E+01
   -.525E+02 0.307E+02 -.663E+03   0.526E+02 -.310E+02 0.667E+03   -.164E+00 0.296E+00 -.311E+01
   -.351E+02 0.234E-05 -.681E+03   0.352E+02 -.268E-07 0.685E+03   -.122E+00 0.000E+00 -.313E+01
   -.307E+02 0.235E-05 0.733E+03   0.308E+02 -.335E-07 -.737E+03   -.226E+00 0.000E+00 0.329E+01
   -.179E+02 0.742E+01 0.712E+03   0.180E+02 -.747E+01 -.716E+03   -.693E-01 0.604E-01 0.310E+01
   -.525E+02 -.307E+02 -.663E+03   0.526E+02 0.310E+02 0.667E+03   -.164E+00 -.296E+00 -.311E+01
   -.184E+02 -.146E+02 -.688E+03   0.184E+02 0.147E+02 0.692E+03   -.323E-01 -.765E-01 -.314E+01
   -.158E+02 -.172E+02 0.715E+03   0.158E+02 0.173E+02 -.719E+03   -.176E-02 -.101E+00 0.308E+01
   -.179E+02 -.742E+01 0.712E+03   0.180E+02 0.747E+01 -.716E+03   -.693E-01 -.604E-01 0.310E+01
   -.127E+02 -.187E+02 -.688E+03   0.127E+02 0.188E+02 0.692E+03   0.288E-01 -.283E-01 -.316E+01
   -.643E+01 -.592E+01 -.693E+03   0.642E+01 0.593E+01 0.697E+03   0.108E-01 -.127E-01 -.314E+01
   -.556E+01 -.657E+01 0.703E+03   0.555E+01 0.659E+01 -.707E+03   0.112E-01 -.142E-01 0.308E+01
   -.786E+01 -.844E+01 0.704E+03   0.786E+01 0.847E+01 -.708E+03   0.265E-03 -.366E-01 0.308E+01
   -.109E+00 0.286E-03 0.106E+02   0.185E-11 0.318E-12 0.106E-10   0.113E-14 -.305E-15 -.101E+02

 POSITION                                       TOTAL-FORCE (eV/Angst)
     13.83084     10.56943     13.38544         0.156841     -0.000000      0.107523
     11.53578     10.56943     13.38544        -0.156841     -0.000000      0.107523
      0.00000      0.00000      9.00000        -0.001307     -0.000000      0.570058
      2.11389      2.11389      9.00000         0.000000     -0.003793      0.569840
      0.00000      2.11389     11.11389        -0.001768     -0.004246     -0.557591
      2.11389      0.00000     11.11389         0.000000     -0.000000     -0.558014
      0.00000      4.22777      9.00000         0.000392     -0.008194      0.569658
      2.11389      6.34166      9.00000         0.000000     -0.007575      0.569441
      0.00000      6.34166     11.11389         0.004374     -0.009864     -0.556308
      2.11389      4.22777     11.11389         0.000000     -0.006610     -0.557458
      0.00000      8.45554      9.00000         0.010799     -0.007207      0.568808
      2.11389     10.56943      9.00000         0.000000     -0.000000      0.569377
      0.00000     10.56943     11.11389         0.016615     -0.000000     -0.556266
      2.11389      8.45554     11.11389         0.000000     -0.005072     -0.556722
      0.00000     12.68331      9.00000         0.010799      0.007207      0.568808
      2.11389     14.79720      9.00000         0.000000      0.007575      0.569441
      0.00000     14.79720     11.11389         0.004374      0.009864     -0.556308
      2.11389     12.68331     11.11389         0.000000      0.005072     -0.556722
      0.00000     16.91108      9.00000         0.000392      0.008194      0.569658
      2.11389     19.02497      9.00000         0.000000      0.003793      0.569840
      0.00000     19.02497     11.11389        -0.001768      0.004246     -0.557591
      2.11389     16.91108     11.11389         0.000000      0.006610     -0.557458
      4.22777      0.00000      9.00000         0.001307     -0.000000      0.570058
      6.34166      2.11389      9.00000         0.002418     -0.005339      0.570825
      4.22777      2.11389     11.11389         0.001768     -0.004246     -0.557591
      6.34166      0.00000     11.11389         0.003359     -0.000000     -0.557122
      4.22777      4.22777      9.00000        -0.000392     -0.008194      0.569658
      6.34166      6.34166      9.00000        -0.006222     -0.018562      0.567831
      4.22777      6.34166     11.11389        -0.004374     -0.009864     -0.556308
      6.34166      4.22777     11.11389         0.004343     -0.012672     -0.555123
      4.22777      8.45554      9.00000        -0.010799     -0.007207      0.568808
      6.34166     10.56943      9.00000        -0.038278     -0.000000      0.565674
      4.22777     10.56943     11.11389        -0.016615     -0.000000     -0.556266
      6.34166      8.45554     11.11389        -0.034310     -0.017523     -0.555206
      4.22777     12.68331      9.00000        -0.010799      0.007207      0.568808
      6.34166     14.79720      9.00000        -0.006222      0.018562      0.567831
      4.22777     14.79720     11.11389        -0.004374      0.009864     -0.556308
      6.34166     12.68331     11.11389        -0.034310      0.017523     -0.555206
      4.22777     16.91108      9.00000        -0.000392      0.008194      0.569658
      6.34166     19.02497      9.00000         0.002418      0.005339      0.570825
      4.22777     19.02497     11.11389         0.001768      0.004246     -0.557591
      6.34166     16.91108     11.11389         0.004343      0.012672     -0.555123
      8.45554      0.00000      9.00000         0.002996     -0.000000      0.571310
     10.56943      2.11389      9.00000         0.002688     -0.004330      0.572929
      8.45554      2.11389     11.11389         0.004996     -0.003223     -0.554896
     10.56943      0.00000     11.11389         0.002800     -0.000000     -0.554917
      8.45554      4.22777      9.00000         0.004186     -0.015713      0.573858
     10.56943      6.34166      9.00000         0.009896     -0.042688      0.587911
      8.45554      6.34166     11.11389         0.018719     -0.046923     -0.543970
     10.56943      4.22777     11.11389         0.008771      0.000057     -0.544495
      8.45554      8.45554      9.00000        -0.026952     -0.044946      0.544452
     10.56943     10.56943      9.00000         0.003058     -0.000000      0.323347
      8.45554     10.56943     11.11389        -0.267962     -0.000000     -0.607407
     10.56943      8.45554     11.11389         0.114779     -0.301078     -0.496934
      8.45554     12.68331      9.00000        -0.026952      0.044946      0.544452
     10.56943     14.79720      9.00000         0.009896      0.042688      0.587911
      8.45554     14.79720     11.11389         0.018719      0.046923     -0.543970
     10.56943     12.68331     11.11389         0.114779      0.301078     -0.496934
      8.45554     16.91108      9.00000         0.004186      0.015713      0.573858
     10.56943     19.02497      9.00000         0.002688      0.004330      0.572929
[...]
     19.02497      6.34166     11.11389        -0.011855      0.026223      0.413462
     16.91108      6.34166      9.00000        -0.000502      0.034142     -0.428670
     19.02497      4.22777      9.00000         0.000051      0.012189     -0.429495
     16.91108      8.45554     11.11389        -0.057914      0.098913      0.424460
     19.02497     10.56943     11.11389        -0.045196     -0.000000      0.418709
     16.91108     10.56943      9.00000        -0.087610     -0.000000     -0.359344
     19.02497      8.45554      9.00000        -0.023679      0.020005     -0.422429
     16.91108     12.68331     11.11389        -0.057914     -0.098913      0.424460
     19.02497     14.79720     11.11389        -0.011855     -0.026223      0.413462
     16.91108     14.79720      9.00000        -0.000502     -0.034142     -0.428670
     19.02497     12.68331      9.00000        -0.023679     -0.020005     -0.422429
     16.91108     16.91108     11.11389         0.008904     -0.010461      0.409083
     19.02497     19.02497     11.11389         0.003462     -0.004354      0.415106
     16.91108     19.02497      9.00000         0.003637     -0.004804     -0.430677
     19.02497     16.91108      9.00000         0.000051     -0.012189     -0.429495
    total drift:                               -0.108729      0.000286     -0.528201

  FREE ENERGIE OF THE ION-ELECTRON SYSTEM (eV)
  free  energy   TOTEN  =     -1430.54540817 eV

  energy  without entropy=    -1430.54540817  energy(sigma->0) =    -1430.54540817