 vasp.6.4.1 05Apr23 (build May 06 2023 19:47:20) complex

 executed on             LinuxIFC date 2023.07.03  17:43:36

 INCAR:
   SYSTEM = MgO-rocksalt
   ISMEAR = 0
   SIGMA = 0.05
   EDIFF = 1E-6
   ALGO = ALL
   ISTART = 0
   IBRION = -1
   NSW = 0
   ISYM = 2
   DIPOL = 0.5 0.5 0.5
   IDIPOL = 3
   LDIPOL = .TRUE.
   LHFCALC = .TRUE.
   GGA = PE
   IVDW = 11
   VDW_S6 = 1.0
   VDW_SR = 1.287
   VDW_S8 = 0.928
   ENCUT = 520
   PREC = Accurate
   LASPH = .TRUE.
   LREAL = Auto
   ISPIN = 1
   NELM = 200
   NELMIN = 8
   NCORE = 16
   KPAR = 1
   LWAVE = .FALSE.
   LCHARG = .FALSE.

 POTCAR:    PAW_PBE Au 04Oct2007
 POTCAR:    PAW_PBE Mg_pv 13Apr2007
 POTCAR:    PAW_PBE O 08Apr2002
|           W    W    AA    RRRRR   N    N  II  N    N   GGGG   !!!           |
|           W    W   A  A   R    R  NN   N  II  NN   N  G    G  !!!           |
|           W    W  A    A  R    R  N N  N  II  N N  N  G       !!!           |
|           W WW W  AAAAAA  RRRRR   N  N N  II  N  N N  G  GGG   !            |
|           WW  WW  A    A  R   R   N   NN  II  N   NN  G    G                |
|           W    W  A    A  R    R  N    N  II  N    N   GGGG   !!!           |
|     You have selected ISYM=2 for a HF type calculation. This will           |
|     symmetrize the charge density but not the exchange potential. I         |
|     suggest to use ISYM=3 instead. This uses symmetry to obtain the         |
|     orbitals at all k-points in the Brillouin zone, but does not apply      |
|     symmetry to the Hartree potential directly. The resultant charge        |
|     might have lower symmetry than the crystal but, at least, Hartree       |
|     and exchange are fully compatible.                                      |

   TITEL  = PAW_PBE Au 04Oct2007
   POMASS =  196.966; ZVAL   =   11.000    mass and valenz
   ENMAX  =  229.943; ENMIN  =  172.457 eV

   TITEL  = PAW_PBE Mg_pv 13Apr2007
   POMASS =   24.305; ZVAL   =    8.000    mass and valenz
   ENMAX  =  403.929; ENMIN  =  302.947 eV

   TITEL  = PAW_PBE O 08Apr2002
   POMASS =   16.000; ZVAL   =    6.000    mass and valenz
   ENMAX  =  400.000; ENMIN  =  300.000 eV

 Optimization of the real space projectors (new method)

 maximal supplied QI-value         = 15.12
 optimisation between [QCUT,QGAM] = [ 11.64, 23.28] = [ 37.95,151.78] Ry
 Optimized for a Real-space Cutoff    1.49 Angstroem

   l    n(q)    QCUT    max X(q) W(low)/X(q) W(high)/X(q)  e(spline)
   2      9    11.641    60.898    0.24E-03    0.10E-03    0.19E-06
   2      9    11.641    58.894    0.25E-03    0.10E-03    0.19E-06
   0     10    11.641   109.617    0.73E-04    0.33E-04    0.11E-06
   0     10    11.641    75.026    0.71E-04    0.32E-04    0.11E-06
   1     10    11.641    16.344    0.27E-04    0.97E-04    0.16E-06
   1     10    11.641    10.160    0.23E-04    0.77E-04    0.13E-06
 Optimization of the real space projectors (new method)

[...]

   l    n(q)    QCUT    max X(q) W(low)/X(q) W(high)/X(q)  e(spline)
   1      8    11.527     2.974    0.44E-04    0.56E-04    0.12E-06
   1      8    11.527     4.279    0.12E-03    0.12E-03    0.26E-06
   0      9    11.527    16.381    0.46E-04    0.64E-04    0.78E-07
   0      9    11.527     5.611    0.26E-04    0.43E-04    0.55E-07
   2      8    11.527     4.652    0.22E-03    0.72E-04    0.47E-07
 Optimization of the real space projectors (new method)

 maximal supplied QI-value         = 24.76
 optimisation between [QCUT,QGAM] = [ 11.64, 23.27] = [ 37.91,151.63] Ry
 Optimized for a Real-space Cutoff    1.14 Angstroem

   l    n(q)    QCUT    max X(q) W(low)/X(q) W(high)/X(q)  e(spline)
   0      8    11.635    20.381    0.10E-03    0.33E-03    0.24E-06
   0      8    11.635    15.268    0.11E-03    0.35E-03    0.26E-06
   1      7    11.635     5.964    0.24E-03    0.31E-03    0.30E-06
   1      7    11.635     5.382    0.22E-03    0.25E-03    0.26E-06
  PAW_PBE Au 04Oct2007                  :
  PAW_PBE Mg_pv 13Apr2007               :
  PAW_PBE O 08Apr2002                   :

 POSCAR: Au Mg  O
  positions in direct lattice
 exchange correlation table for  LEXCH =        8
   RHO(1)=    0.500       N(1)  =     2000
   RHO(2)=  100.500       N(2)  =     4000

 ion  position               nearest neighbor table
   1  0.450  0.450  0.719-   2 2.52
   2  0.450  0.450  0.605-   1 2.52  53 2.72 152 2.72 151 2.72  54 2.72
   3  0.000  0.000  0.407- 105 2.11 106 2.11 121 2.11 186 2.11 103 2.11
   4  0.100  0.100  0.407- 105 2.11 106 2.11 110 2.11 125 2.11 104 2.11
   5  0.000  0.100  0.503- 103 2.11 104 2.11 107 2.11 184 2.11 105 2.11
   6  0.100  0.000  0.503- 103 2.11 104 2.11 120 2.11 123 2.11 106 2.11
   7  0.000  0.200  0.407- 109 2.11 105 2.11 110 2.11 190 2.11 107 2.11
   8  0.100  0.300  0.407- 110 2.11 109 2.11 114 2.11 129 2.11 108 2.11
   9  0.000  0.300  0.503- 107 2.11 108 2.11 111 2.11 188 2.11 109 2.11
  10  0.100  0.200  0.503- 108 2.11 107 2.11 104 2.11 127 2.11 110 2.11
  11  0.000  0.400  0.407- 109 2.11 113 2.11 114 2.11 194 2.11 111 2.11
  12  0.100  0.500  0.407- 113 2.11 114 2.11 118 2.11 133 2.11 112 2.11
  13  0.000  0.500  0.503- 111 2.11 112 2.11 115 2.11 192 2.11 113 2.11
  14  0.100  0.400  0.503- 108 2.11 111 2.11 112 2.11 131 2.11 114 2.11
  15  0.000  0.600  0.407- 113 2.11 117 2.11 118 2.11 198 2.11 115 2.11
  16  0.100  0.700  0.407- 122 2.11 118 2.11 117 2.11 137 2.11 116 2.11
  17  0.000  0.700  0.503- 119 2.11 116 2.11 115 2.11 196 2.11 117 2.11
  18  0.100  0.600  0.503- 112 2.11 115 2.11 116 2.11 135 2.11 118 2.11
  19  0.000  0.800  0.407- 117 2.11 121 2.11 122 2.11 202 2.11 119 2.11
  20  0.100  0.900  0.407- 106 2.11 121 2.11 122 2.11 141 2.11 120 2.11
  21  0.000  0.900  0.503- 103 2.11 119 2.11 120 2.11 200 2.11 121 2.11
  22  0.100  0.800  0.503- 116 2.11 119 2.11 120 2.11 139 2.11 122 2.11
  23  0.200  0.000  0.407- 126 2.11 125 2.11 106 2.11 141 2.11 123 2.11
  24  0.300  0.100  0.407- 125 2.11 126 2.11 130 2.11 145 2.11 124 2.11
  25  0.200  0.100  0.503- 124 2.11 123 2.11 104 2.11 127 2.11 125 2.11
  26  0.300  0.000  0.503- 123 2.11 124 2.11 140 2.11 143 2.11 126 2.11
  27  0.200  0.200  0.407- 129 2.11 130 2.11 110 2.11 125 2.11 127 2.11
  28  0.300  0.300  0.407- 129 2.11 130 2.11 134 2.11 149 2.11 128 2.11
  29  0.200  0.300  0.503- 127 2.11 128 2.11 108 2.11 131 2.11 129 2.11
  30  0.300  0.200  0.503- 127 2.11 128 2.11 124 2.11 147 2.11 130 2.11
  31  0.200  0.400  0.407- 134 2.11 129 2.11 133 2.11 114 2.11 131 2.11
  32  0.300  0.500  0.407- 133 2.11 134 2.11 138 2.11 153 2.11 132 2.11
  33  0.200  0.500  0.503- 132 2.11 131 2.11 112 2.11 135 2.11 133 2.11
  34  0.300  0.400  0.503- 131 2.11 128 2.11 132 2.11 151 2.11 134 2.11
  35  0.200  0.600  0.407- 138 2.11 133 2.11 137 2.11 118 2.11 135 2.11
  36  0.300  0.700  0.407- 137 2.11 142 2.11 138 2.11 157 2.11 136 2.11
  37  0.200  0.700  0.503- 136 2.11 139 2.11 116 2.11 135 2.11 137 2.11
  38  0.300  0.600  0.503- 135 2.11 132 2.11 136 2.11 155 2.11 138 2.11
  39  0.200  0.800  0.407- 137 2.11 142 2.11 141 2.11 122 2.11 139 2.11
  40  0.300  0.900  0.407- 141 2.11 126 2.11 142 2.11 161 2.11 140 2.11
  41  0.200  0.900  0.503- 140 2.11 123 2.11 139 2.11 120 2.11 141 2.11
  42  0.300  0.800  0.503- 136 2.11 139 2.11 140 2.11 159 2.11 142 2.11
  43  0.400  0.000  0.407- 126 2.11 145 2.11 146 2.11 161 2.11 143 2.11
  44  0.500  0.100  0.407- 145 2.11 146 2.11 150 2.11 165 2.11 144 2.11
  45  0.400  0.100  0.503- 124 2.11 143 2.11 144 2.11 147 2.11 145 2.11
  46  0.500  0.000  0.503- 143 2.11 144 2.11 160 2.11 163 2.11 146 2.11
  47  0.400  0.200  0.407- 149 2.11 145 2.11 130 2.11 150 2.11 147 2.11
  48  0.500  0.300  0.407- 150 2.11 149 2.11 154 2.11 169 2.11 148 2.11
  49  0.400  0.300  0.503- 147 2.11 128 2.11 148 2.11 151 2.11 149 2.11
  50  0.500  0.200  0.503- 148 2.11 147 2.11 144 2.11 167 2.11 150 2.11
  51  0.400  0.400  0.407- 134 2.11 149 2.11 153 2.11 154 2.11 151 2.11
  52  0.500  0.500  0.407- 153 2.11 154 2.11 158 2.11 173 2.11 152 2.11
  53  0.400  0.500  0.503- 132 2.11 151 2.11 152 2.11 155 2.11 153 2.11   2 2.72
  54  0.500  0.400  0.503- 148 2.11 151 2.11 152 2.11 171 2.11 154 2.11   2 2.72
  55  0.400  0.600  0.407- 138 2.11 153 2.11 157 2.11 158 2.11 155 2.11
  56  0.500  0.700  0.407- 162 2.11 158 2.11 157 2.11 177 2.11 156 2.11
  57  0.400  0.700  0.503- 159 2.11 155 2.11 156 2.11 136 2.11 157 2.11
  58  0.500  0.600  0.503- 152 2.11 155 2.11 156 2.11 175 2.11 158 2.11
  59  0.400  0.800  0.407- 157 2.11 142 2.11 161 2.11 162 2.11 159 2.11
  60  0.500  0.900  0.407- 146 2.11 161 2.11 162 2.11 181 2.11 160 2.11
[...]
 188  0.900  0.300  0.503-  90 2.11  89 2.11   9 2.11  94 2.11  88 2.11
 189  0.800  0.300  0.407-  68 2.11  87 2.11  88 2.11  91 2.11  89 2.11
 190  0.900  0.200  0.407-  88 2.11  84 2.11  87 2.11   7 2.11  90 2.11
 191  0.800  0.400  0.503-  74 2.11  89 2.11  93 2.11  94 2.11  91 2.11
 192  0.900  0.500  0.503-  13 2.11  93 2.11  94 2.11  98 2.11  92 2.11
 193  0.800  0.500  0.407-  72 2.11  91 2.11  92 2.11  95 2.11  93 2.11
 194  0.900  0.400  0.407-  11 2.11  88 2.11  91 2.11  92 2.11  94 2.11
 195  0.800  0.600  0.503-  78 2.11  93 2.11  97 2.11  98 2.11  95 2.11
 196  0.900  0.700  0.503- 102 2.11  97 2.11  98 2.11  17 2.11  96 2.11
 197  0.800  0.700  0.407-  76 2.11  99 2.11  96 2.11  95 2.11  97 2.11
 198  0.900  0.600  0.407-  15 2.11  92 2.11  95 2.11  96 2.11  98 2.11
 199  0.800  0.800  0.503-  82 2.11  97 2.11 101 2.11 102 2.11  99 2.11
 200  0.900  0.900  0.503-  21 2.11  86 2.11 101 2.11 102 2.11 100 2.11
 201  0.800  0.900  0.407-  80 2.11  83 2.11  99 2.11 100 2.11 101 2.11
 202  0.900  0.800  0.407-  96 2.11  19 2.11  99 2.11 100 2.11 102 2.11

  LATTYP: Found a simple tetragonal cell.
 ALAT       =    21.1388521970
 C/A-ratio  =     1.0461251639

  Lattice vectors:

 A1 = (  21.1388521970,   0.0000000000,   0.0000000000)
 A2 = (   0.0000000000,  21.1388521970,   0.0000000000)
 A3 = (   0.0000000000,   0.0000000000,  22.1138852197)

Analysis of symmetry for initial positions (statically):
 Subroutine PRICEL returns:
 Original cell was already a primitive cell.

 Routine SETGRP: Setting up the symmetry group for a
 simple tetragonal supercell.

 Subroutine GETGRP returns: Found  4 space group operations
 (whereof  2 operations were pure point group operations)
 out of a pool of 16 trial point group operations.

The static configuration has the point symmetry C_1h.
 The point group associated with its full space group is C_2v.

Analysis of symmetry for dynamics (positions and initial velocities):
 Subroutine PRICEL returns:
 Original cell was already a primitive cell.

 Routine SETGRP: Setting up the symmetry group for a
 simple tetragonal supercell.

 Subroutine GETGRP returns: Found  4 space group operations
 (whereof  2 operations were pure point group operations)
 out of a pool of 16 trial point group operations.

The dynamic configuration has the point symmetry C_1h.
 The point group associated with its full space group is C_2v.

 Subroutine INISYM returns: Found  4 space group operations
 (whereof  2 operations are pure point group operations),
 and found     1 'primitive' translations

                                     Primitive cell

[...]
     60     -47.0044      2.00000
[...]
    850       4.9652      0.00000
    851       4.9690      0.00000
    852       4.9879      0.00000
    853       5.0427      0.00000
    854       5.0578      0.00000
    855       5.0802      0.00000
    856       5.1052      0.00000
    857       5.1145      0.00000
    858       5.1364      0.00000
    859       5.1706      0.00000
    860       5.2031      0.00000
    861       5.3526      0.00000
    862       5.3668      0.00000
    863       5.4160      0.00000
    864       5.4375      0.00000

 soft charge-density along one line, spin component           1
         0         1         2         3         4         5         6         7         8         9
 total charge-density along one line

------------------------ aborting loop because EDIFF is reached ----------------------------------------

|           W    W    AA    RRRRR   N    N  II  N    N   GGGG   !!!           |
|           W    W   A  A   R    R  NN   N  II  NN   N  G    G  !!!           |
|           W    W  A    A  R    R  N N  N  II  N N  N  G       !!!           |
|           W WW W  AAAAAA  RRRRR   N  N N  II  N  N N  G  GGG   !            |
|           WW  WW  A    A  R   R   N   NN  II  N   NN  G    G                |
|           W    W  A    A  R    R  N    N  II  N    N   GGGG   !!!           |
|     Specifying the vdW parameters                                           |
|     VDW_S8 = 0.928                                                          |
|     VDW_SR = 1.287                                                          |
|     in the INCAR file will overwrite the defaults for pbe0. Please make     |
|     sure that is what you intended.                                         |

         DFTD3 V3.0 Rev 1
 IVDW         = 11
 DF pbe0
 parameters
 VDW_S6       =    1.0000
 VDW_S8       =    0.9280
 VDW_SR       =    1.2870
 rs18     =    1.0000
 alpha6   =   14.0000
 alpha8   =   16.0000
 k1-k3    =   16.0000    1.3333   -4.0000
 VDW_RADIUS   =   50.2022 A
 VDW_CNRADIUS =   21.1671 A
 Edisp (eV)  -20.68808

 E6    (eV) :    -6.4521
 E8    (eV) :   -14.2359
 % E8        : 68.81

 VOLUME and BASIS-vectors are now :
  energy-cutoff  :      520.00
  volume of cell :     9881.61
      direct lattice vectors                 reciprocal lattice vectors
    21.138852197  0.000000000  0.000000000     0.047306258  0.000000000  0.000000000
     0.000000000 21.138852197  0.000000000     0.000000000  0.047306258  0.000000000
     0.000000000  0.000000000 22.113885220     0.000000000  0.000000000  0.045220457

  length of vectors
    21.138852197 21.138852197 22.113885220     0.047306258  0.047306258  0.045220457

 FORCES acting on ions:
    Electron-Ion                     Ewald-Force                    Non-Local-Force
   0.359E-04 -.158E-03 -.175E+04   0.163E-07 -.120E-07 0.174E+04   -.988E-21 -.113E-21 0.795E+01
   0.309E-04 -.151E-03 -.189E+04   0.539E-05 -.567E-05 0.190E+04   0.737E-21 -.232E-22 -.575E+01
   0.169E+01 0.169E+01 0.931E+03   -.170E+01 -.170E+01 -.923E+03   0.455E-02 0.455E-02 -.710E+01
   0.595E+01 0.595E+01 0.933E+03   -.598E+01 -.598E+01 -.925E+03   0.185E-01 0.185E-01 -.710E+01
   0.277E+01 0.569E+01 -.923E+03   -.278E+01 -.569E+01 0.914E+03   0.948E-02 0.591E-02 0.706E+01
   0.569E+01 0.277E+01 -.923E+03   -.569E+01 -.278E+01 0.914E+03   0.591E-02 0.948E-02 0.706E+01
   0.303E+01 0.595E+01 0.934E+03   -.305E+01 -.596E+01 -.925E+03   0.178E-01 0.952E-02 -.711E+01
   0.121E+02 0.722E+01 0.939E+03   -.122E+02 -.723E+01 -.930E+03   0.657E-01 0.116E-01 -.712E+01
   0.578E+01 0.652E+01 -.920E+03   -.580E+01 -.652E+01 0.911E+03   0.181E-01 0.288E-02 0.705E+01
   0.121E+02 0.109E+02 -.919E+03   -.122E+02 -.109E+02 0.911E+03   0.342E-01 0.118E-01 0.705E+01
   0.485E+01 0.201E+01 0.936E+03   -.488E+01 -.201E+01 -.928E+03   0.219E-01 0.308E-03 -.711E+01
   0.148E+02 -.293E+01 0.941E+03   -.149E+02 0.296E+01 -.932E+03   0.584E-01 -.159E-01 -.712E+01
   0.705E+01 -.260E+01 -.919E+03   -.706E+01 0.261E+01 0.910E+03   0.505E-02 -.425E-02 0.705E+01
   0.229E+02 0.429E+01 -.914E+03   -.230E+02 -.428E+01 0.905E+03   0.490E-01 -.765E-02 0.704E+01
   0.411E+01 -.507E+01 0.935E+03   -.411E+01 0.509E+01 -.927E+03   0.456E-02 -.870E-02 -.711E+01
   0.869E+01 -.807E+01 0.936E+03   -.871E+01 0.809E+01 -.927E+03   0.155E-01 -.153E-01 -.711E+01
   0.413E+01 -.751E+01 -.921E+03   -.412E+01 0.752E+01 0.913E+03   -.423E-02 -.480E-02 0.705E+01
   0.181E+02 -.101E+02 -.916E+03   -.181E+02 0.102E+02 0.908E+03   0.106E-01 -.115E-01 0.704E+01
   0.217E+01 -.458E+01 0.932E+03   -.217E+01 0.459E+01 -.924E+03   -.105E-02 -.568E-02 -.710E+01
   0.458E+01 -.217E+01 0.932E+03   -.459E+01 0.217E+01 -.924E+03   0.568E-02 0.105E-02 -.710E+01
   0.209E+01 -.209E+01 -.923E+03   -.209E+01 0.209E+01 0.915E+03   -.274E-03 0.274E-03 0.706E+01
   0.780E+01 -.780E+01 -.921E+03   -.781E+01 0.781E+01 0.913E+03   0.218E-02 -.218E-02 0.705E+01
   0.595E+01 0.303E+01 0.934E+03   -.596E+01 -.305E+01 -.925E+03   0.952E-02 0.178E-01 -.711E+01
   0.722E+01 0.121E+02 0.939E+03   -.723E+01 -.122E+02 -.930E+03   0.116E-01 0.657E-01 -.712E+01
   0.109E+02 0.121E+02 -.919E+03   -.109E+02 -.122E+02 0.911E+03   0.118E-01 0.342E-01 0.705E+01
   0.652E+01 0.578E+01 -.920E+03   -.652E+01 -.580E+01 0.911E+03   0.288E-02 0.181E-01 0.705E+01
   0.125E+02 0.125E+02 0.940E+03   -.126E+02 -.126E+02 -.932E+03   0.544E-01 0.544E-01 -.711E+01
   0.207E+02 0.207E+02 0.960E+03   -.210E+02 -.210E+02 -.951E+03   0.155E+00 0.155E+00 -.710E+01
   0.318E+02 0.201E+02 -.906E+03   -.320E+02 -.201E+02 0.898E+03   0.144E+00 0.792E-02 0.703E+01
   0.201E+02 0.318E+02 -.906E+03   -.201E+02 -.320E+02 0.898E+03   0.792E-02 0.144E+00 0.703E+01
   0.244E+02 0.537E+01 0.952E+03   -.248E+02 -.536E+01 -.943E+03   0.222E+00 -.659E-02 -.716E+01
   0.298E+02 -.996E+01 0.974E+03   -.301E+02 0.102E+02 -.965E+03   0.240E+00 -.147E+00 -.720E+01
   0.450E+02 -.944E+01 -.899E+03   -.451E+02 0.950E+01 0.891E+03   0.753E-01 -.341E-01 0.701E+01
   0.763E+02 0.262E+02 -.856E+03   -.777E+02 -.261E+02 0.848E+03   0.962E+00 -.964E-01 0.697E+01
   0.190E+02 -.122E+02 0.946E+03   -.191E+02 0.123E+02 -.938E+03   0.689E-01 -.502E-01 -.713E+01
   0.122E+02 -.190E+02 0.946E+03   -.123E+02 0.191E+02 -.938E+03   0.502E-01 -.689E-01 -.713E+01
   0.188E+02 -.188E+02 -.914E+03   -.188E+02 0.188E+02 0.906E+03   0.129E-01 -.129E-01 0.704E+01
   0.427E+02 -.427E+02 -.886E+03   -.428E+02 0.428E+02 0.877E+03   0.707E-01 -.707E-01 0.697E+01
   0.807E+01 -.869E+01 0.936E+03   -.809E+01 0.871E+01 -.927E+03   0.153E-01 -.155E-01 -.711E+01
   0.507E+01 -.411E+01 0.935E+03   -.509E+01 0.411E+01 -.927E+03   0.870E-02 -.456E-02 -.711E+01
   0.751E+01 -.413E+01 -.921E+03   -.752E+01 0.412E+01 0.913E+03   0.480E-02 0.423E-02 0.705E+01
   0.101E+02 -.181E+02 -.916E+03   -.102E+02 0.181E+02 0.908E+03   0.115E-01 -.106E-01 0.704E+01
   0.201E+01 0.485E+01 0.936E+03   -.201E+01 -.488E+01 -.928E+03   0.308E-03 0.219E-01 -.711E+01
   -.293E+01 0.148E+02 0.941E+03   0.296E+01 -.149E+02 -.932E+03   -.159E-01 0.584E-01 -.712E+01
   0.429E+01 0.229E+02 -.914E+03   -.428E+01 -.230E+02 0.905E+03   -.765E-02 0.490E-01 0.704E+01
   -.260E+01 0.705E+01 -.919E+03   0.261E+01 -.706E+01 0.910E+03   -.425E-02 0.505E-02 0.705E+01
   0.537E+01 0.244E+02 0.952E+03   -.536E+01 -.248E+02 -.943E+03   -.659E-02 0.222E+00 -.716E+01
   -.996E+01 0.298E+02 0.974E+03   0.102E+02 -.301E+02 -.965E+03   -.147E+00 0.240E+00 -.720E+01
   0.262E+02 0.763E+02 -.856E+03   -.261E+02 -.777E+02 0.848E+03   -.964E-01 0.962E+00 0.697E+01
   -.944E+01 0.450E+02 -.899E+03   0.950E+01 -.451E+02 0.891E+03   -.341E-01 0.753E-01 0.701E+01
   0.164E+02 0.164E+02 0.100E+04   -.164E+02 -.164E+02 -.993E+03   0.217E-01 0.217E-01 -.613E+01
   -.164E+02 -.164E+02 0.100E+04   0.164E+02 0.164E+02 -.993E+03   -.217E-01 -.217E-01 -.613E+01
   0.746E+02 -.746E+02 -.738E+03   -.762E+02 0.762E+02 0.731E+03   0.791E+00 -.791E+00 0.575E+01
   -.746E+02 0.746E+02 -.738E+03   0.762E+02 -.762E+02 0.731E+03   -.791E+00 0.791E+00 0.575E+01
   0.996E+01 -.298E+02 0.974E+03   -.102E+02 0.301E+02 -.965E+03   0.147E+00 -.240E+00 -.720E+01
   -.537E+01 -.244E+02 0.952E+03   0.536E+01 0.248E+02 -.943E+03   0.659E-02 -.222E+00 -.716E+01
   0.944E+01 -.450E+02 -.899E+03   -.950E+01 0.451E+02 0.891E+03   0.341E-01 -.753E-01 0.701E+01
   -.262E+02 -.763E+02 -.856E+03   0.261E+02 0.777E+02 0.848E+03   0.964E-01 -.962E+00 0.697E+01
   0.293E+01 -.148E+02 0.941E+03   -.296E+01 0.149E+02 -.932E+03   0.159E-01 -.584E-01 -.712E+01
   -.201E+01 -.485E+01 0.936E+03   0.201E+01 0.488E+01 -.928E+03   -.308E-03 -.219E-01 -.711E+01
[...]
   -.913E+01 0.540E+01 0.705E+03   0.915E+01 -.542E+01 -.709E+03   -.285E-01 0.238E-01 0.306E+01
   -.229E+01 0.446E+01 0.701E+03   0.229E+01 -.447E+01 -.705E+03   -.276E-03 0.102E-01 0.307E+01
   -.172E+02 0.319E+01 -.686E+03   0.172E+02 -.321E+01 0.691E+03   -.291E-01 0.187E-01 -.318E+01
   -.528E+01 -.196E+01 -.690E+03   0.529E+01 0.196E+01 0.694E+03   -.127E-01 0.132E-02 -.316E+01
   -.111E+02 -.222E+01 0.707E+03   0.111E+02 0.222E+01 -.711E+03   -.578E-01 0.399E-02 0.306E+01
   -.365E+01 0.150E+01 0.703E+03   0.366E+01 -.151E+01 -.707E+03   -.106E-01 0.703E-02 0.307E+01
   -.136E+02 -.762E+01 -.688E+03   0.136E+02 0.762E+01 0.692E+03   -.427E-01 -.800E-02 -.317E+01
   -.308E+01 -.563E+01 -.692E+03   0.309E+01 0.564E+01 0.696E+03   -.137E-01 -.812E-02 -.315E+01
   -.650E+01 -.605E+01 0.703E+03   0.653E+01 0.607E+01 -.707E+03   -.375E-01 -.258E-01 0.307E+01
   -.307E+01 -.381E+01 0.702E+03   0.309E+01 0.381E+01 -.706E+03   -.186E-01 -.830E-02 0.307E+01
   -.584E+01 -.584E+01 -.692E+03   0.586E+01 0.586E+01 0.696E+03   -.181E-01 -.181E-01 -.314E+01
   -.157E+01 -.157E+01 -.694E+03   0.157E+01 0.157E+01 0.698E+03   -.427E-02 -.427E-02 -.314E+01
   -.343E+01 -.162E+01 0.700E+03   0.344E+01 0.163E+01 -.704E+03   -.102E-01 -.102E-01 0.308E+01
   -.162E+01 -.343E+01 0.700E+03   0.163E+01 0.344E+01 -.704E+03   -.102E-01 -.102E-01 0.308E+01
   -.300E-01 0.148E-01 0.498E+01   0.374E-11 -.654E-12 -.352E-11   -.120E-14 -.937E-16 -.473E+01

 POSITION                                       TOTAL-FORCE (eV/Angst)
      9.51248      9.51248     15.90355         0.000000     -0.000000     -0.056267
      9.51248      9.51248     13.38478         0.000000     -0.000000     -0.040401
      0.00000      0.00000      9.00000        -0.001457     -0.001457      0.555117
      2.11389      2.11389      9.00000        -0.005959     -0.005959      0.555461
      0.00000      2.11389     11.11389        -0.002919     -0.001855     -0.538500
      2.11389      0.00000     11.11389        -0.001855     -0.002919     -0.538500
      0.00000      4.22777      9.00000        -0.005499     -0.003093      0.555987
      2.11389      6.34166      9.00000        -0.019950     -0.003845      0.558324
      0.00000      6.34166     11.11389        -0.005243     -0.000849     -0.535518
      2.11389      4.22777     11.11389        -0.010072     -0.003714     -0.534325
      0.00000      8.45554      9.00000        -0.006588     -0.000068      0.557308
      2.11389     10.56943      9.00000        -0.017704      0.005351      0.560355
      0.00000     10.56943     11.11389        -0.001151      0.001378     -0.534390
      2.11389      8.45554     11.11389        -0.012264      0.002849     -0.527535
      0.00000     12.68331      9.00000        -0.001391      0.002805      0.556941
      2.11389     14.79720      9.00000        -0.004734      0.004761      0.557516
      0.00000     14.79720     11.11389         0.001419      0.001438     -0.537089
      2.11389     12.68331     11.11389        -0.001968      0.003294     -0.530321
      0.00000     16.91108      9.00000         0.000337      0.001811      0.555557
      2.11389     19.02497      9.00000        -0.001811     -0.000337      0.555557
      0.00000     19.02497     11.11389         0.000106     -0.000106     -0.539313
      2.11389     16.91108     11.11389        -0.000507      0.000507     -0.537119
      4.22777      0.00000      9.00000        -0.003093     -0.005499      0.555987
      6.34166      2.11389      9.00000        -0.003845     -0.019950      0.558324
      4.22777      2.11389     11.11389        -0.003714     -0.010072     -0.534325
      6.34166      0.00000     11.11389        -0.000849     -0.005243     -0.535518
      4.22777      4.22777      9.00000        -0.017778     -0.017778      0.555899
      6.34166      6.34166      9.00000        -0.056776     -0.056776      0.544898
      4.22777      6.34166     11.11389        -0.038902     -0.001271     -0.516906
      6.34166      4.22777     11.11389        -0.001271     -0.038902     -0.516906
      4.22777      8.45554      9.00000        -0.063764      0.002885      0.570659
      6.34166     10.56943      9.00000        -0.073246      0.052818      0.577461
      4.22777     10.56943     11.11389        -0.012614      0.010179     -0.500746
      6.34166      8.45554     11.11389        -0.254126      0.063986     -0.388283
      4.22777     12.68331      9.00000        -0.020927      0.015621      0.564459
      6.34166     14.79720      9.00000        -0.015621      0.020927      0.564459
      4.22777     14.79720     11.11389        -0.002538      0.002538     -0.527317
      6.34166     12.68331     11.11389         0.001586     -0.001586     -0.464145
      4.22777     16.91108      9.00000        -0.004761      0.004734      0.557516
      6.34166     19.02497      9.00000        -0.002805      0.001391      0.556941
      4.22777     19.02497     11.11389        -0.001438     -0.001419     -0.537089
      6.34166     16.91108     11.11389        -0.003294      0.001968     -0.530321
      8.45554      0.00000      9.00000        -0.000068     -0.006588      0.557308
     10.56943      2.11389      9.00000         0.005351     -0.017704      0.560355
      8.45554      2.11389     11.11389         0.002849     -0.012264     -0.527535
     10.56943      0.00000     11.11389         0.001378     -0.001151     -0.534390
      8.45554      4.22777      9.00000         0.002885     -0.063764      0.570659
     10.56943      6.34166      9.00000         0.052818     -0.073246      0.577461
      8.45554      6.34166     11.11389         0.063986     -0.254126     -0.388283
     10.56943      4.22777     11.11389         0.010179     -0.012614     -0.500746
      8.45554      8.45554      9.00000         0.003090      0.003090      0.286623
     10.56943     10.56943      9.00000        -0.003090     -0.003090      0.286623
      8.45554     10.56943     11.11389        -0.639236      0.639236     -0.861576
     10.56943      8.45554     11.11389         0.639236     -0.639236     -0.861576
      8.45554     12.68331      9.00000        -0.052818      0.073246      0.577461
     10.56943     14.79720      9.00000        -0.002885      0.063764      0.570659
      8.45554     14.79720     11.11389        -0.010179      0.012614     -0.500746
     10.56943     12.68331     11.11389        -0.063986      0.254126     -0.388283
      8.45554     16.91108      9.00000        -0.005351      0.017704      0.560355
     10.56943     19.02497      9.00000         0.000068      0.006588      0.557308
[...]
     19.02497      6.34166     11.11389        -0.000175      0.002356      0.394398
     16.91108      6.34166      9.00000        -0.009419      0.007906     -0.418988
     19.02497      4.22777      9.00000        -0.000087      0.003394     -0.415895
     16.91108      8.45554     11.11389        -0.009972      0.006249      0.385796
     19.02497     10.56943     11.11389        -0.004263      0.000426      0.393082
     16.91108     10.56943      9.00000        -0.019221      0.001293     -0.419301
     19.02497      8.45554      9.00000        -0.003505      0.002336     -0.417169
     16.91108     12.68331     11.11389        -0.014335     -0.002746      0.389430
     19.02497     14.79720     11.11389        -0.004569     -0.002710      0.396248
     16.91108     14.79720      9.00000        -0.012453     -0.008526     -0.416098
     19.02497     12.68331      9.00000        -0.006184     -0.002767     -0.416413
     16.91108     16.91108     11.11389        -0.006034     -0.006034      0.396492
     19.02497     19.02497     11.11389        -0.001426     -0.001426      0.398597
     16.91108     19.02497      9.00000        -0.003368     -0.003371     -0.415066
     19.02497     16.91108      9.00000        -0.003371     -0.003368     -0.415066
    total drift:                               -0.029974      0.014833     -0.531330

  FREE ENERGIE OF THE ION-ELECTRON SYSTEM (eV)
  free  energy   TOTEN  =     -1444.27616211 eV

  energy  without entropy=    -1444.27616211  energy(sigma->0) =    -1444.27616211