 vasp.6.3.0 20Jan22 (build Apr  1 2022 16:44:48) complex
 executed on        HPECrayEX_GCC date 2022.11.18  15:56:10

 INCAR:
   SYSTEM = MgO-rocksalt
   ISMEAR = 0
   SIGMA = 0.05
   EDIFF = 1E-6
   ALGO = ALL
   ISTART = 0
   IBRION = -1
   NSW = 0
   ISYM = 2
   DIPOL = 0.5 0.5 0.5
   IDIPOL = 3
   LDIPOL = .TRUE.
   GGA = RE
   IVDW = 21
   VDW_SR = 0.6
   ENCUT = 520
   PREC = Accurate
   LASPH = .TRUE.
   LREAL = Auto
   ISPIN = 1
   NELM = 200
   NELMIN = 8
   NCORE = 4
   KPAR = 2
   LWAVE = .FALSE.
   LCHARG = .FALSE.

 POTCAR:    PAW_PBE Mg_pv 13Apr2007
 POTCAR:    PAW_PBE O 08Apr2002
 POTCAR:    PAW_PBE Mg_pv 13Apr2007
   VRHFIN =Mg: p6s2

   TITEL  = PAW_PBE Mg_pv 13Apr2007
   POMASS =   24.305; ZVAL   =    8.000    mass and valenz
   ENMAX  =  403.929; ENMIN  =  302.947 eV

   TITEL  = PAW_PBE O 08Apr2002
   POMASS =   16.000; ZVAL   =    6.000    mass and valenz
   ENMAX  =  400.000; ENMIN  =  300.000 eV

 Optimization of the real space projectors (new method)

 maximal supplied QI-value         = 18.90
 optimisation between [QCUT,QGAM] = [ 11.53, 23.24] = [ 37.21,151.29] Ry
 Optimized for a Real-space Cutoff    1.28 Angstroem

   l    n(q)    QCUT    max X(q) W(low)/X(q) W(high)/X(q)  e(spline)
   1      8    11.527     2.974    0.44E-04    0.56E-04    0.12E-06
   1      8    11.527     4.279    0.12E-03    0.12E-03    0.26E-06
   0      9    11.527    16.381    0.46E-04    0.64E-04    0.78E-07
   0      9    11.527     5.611    0.26E-04    0.43E-04    0.55E-07
   2      8    11.527     4.652    0.22E-03    0.72E-04    0.47E-07
 Optimization of the real space projectors (new method)

 maximal supplied QI-value         = 24.76
 optimisation between [QCUT,QGAM] = [ 11.64, 23.27] = [ 37.91,151.63] Ry
 Optimized for a Real-space Cutoff    1.14 Angstroem

   l    n(q)    QCUT    max X(q) W(low)/X(q) W(high)/X(q)  e(spline)
   0      8    11.635    20.381    0.10E-03    0.33E-03    0.24E-06
   0      8    11.635    15.268    0.11E-03    0.35E-03    0.26E-06
   1      7    11.635     5.964    0.24E-03    0.31E-03    0.30E-06
   1      7    11.635     5.382    0.22E-03    0.25E-03    0.26E-06
|               ----> ADVICE to this user running VASP <----                  |
|     You enforced a specific xc type in the INCAR file but a different       |
|     type was found in the POTCAR file.                                      |
|     I HOPE YOU KNOW WHAT YOU ARE DOING!                                     |

  PAW_PBE Mg_pv 13Apr2007               :
  PAW_PBE O 08Apr2002                   :

 POSCAR: Mg  O
  positions in direct lattice
 exchange correlation table for  LEXCH =       40
   RHO(1)=    0.500       N(1)  =     2000
   RHO(2)=  100.500       N(2)  =     4000

 ion  position               nearest neighbor table
   1  0.000  0.000  0.407- 103 2.11 104 2.11 119 2.11 184 2.11 101 2.11
   2  0.100  0.100  0.407- 103 2.11 104 2.11 108 2.11 123 2.11 102 2.11
   3  0.000  0.100  0.503- 101 2.11 102 2.11 105 2.11 182 2.11 103 2.11
   4  0.100  0.000  0.503- 101 2.11 102 2.11 118 2.11 121 2.11 104 2.11
   5  0.000  0.200  0.407- 107 2.11 103 2.11 108 2.11 188 2.11 105 2.11
   6  0.100  0.300  0.407- 108 2.11 107 2.11 112 2.11 127 2.11 106 2.11
   7  0.000  0.300  0.503- 105 2.11 106 2.11 109 2.11 186 2.11 107 2.11
   8  0.100  0.200  0.503- 106 2.11 105 2.11 102 2.11 125 2.11 108 2.11
   9  0.000  0.400  0.407- 107 2.11 111 2.11 112 2.11 192 2.11 109 2.11
  10  0.100  0.500  0.407- 111 2.11 112 2.11 116 2.11 131 2.11 110 2.11
  11  0.000  0.500  0.503- 109 2.11 110 2.11 113 2.11 190 2.11 111 2.11
  12  0.100  0.400  0.503- 106 2.11 109 2.11 110 2.11 129 2.11 112 2.11
  13  0.000  0.600  0.407- 111 2.11 115 2.11 116 2.11 196 2.11 113 2.11
  14  0.100  0.700  0.407- 120 2.11 116 2.11 115 2.11 135 2.11 114 2.11
  15  0.000  0.700  0.503- 117 2.11 114 2.11 113 2.11 194 2.11 115 2.11
  16  0.100  0.600  0.503- 110 2.11 113 2.11 114 2.11 133 2.11 116 2.11
  17  0.000  0.800  0.407- 115 2.11 119 2.11 120 2.11 200 2.11 117 2.11
  18  0.100  0.900  0.407- 104 2.11 119 2.11 120 2.11 139 2.11 118 2.11
  19  0.000  0.900  0.503- 101 2.11 117 2.11 118 2.11 198 2.11 119 2.11
  20  0.100  0.800  0.503- 114 2.11 117 2.11 118 2.11 137 2.11 120 2.11
  21  0.200  0.000  0.407- 124 2.11 123 2.11 104 2.11 139 2.11 121 2.11
  22  0.300  0.100  0.407- 123 2.11 124 2.11 128 2.11 143 2.11 122 2.11
  23  0.200  0.100  0.503- 122 2.11 121 2.11 102 2.11 125 2.11 123 2.11
  24  0.300  0.000  0.503- 121 2.11 122 2.11 138 2.11 141 2.11 124 2.11
  25  0.200  0.200  0.407- 127 2.11 128 2.11 108 2.11 123 2.11 125 2.11
  26  0.300  0.300  0.407- 127 2.11 128 2.11 132 2.11 147 2.11 126 2.11
  27  0.200  0.300  0.503- 125 2.11 126 2.11 106 2.11 129 2.11 127 2.11
  28  0.300  0.200  0.503- 125 2.11 126 2.11 122 2.11 145 2.11 128 2.11
  29  0.200  0.400  0.407- 132 2.11 127 2.11 131 2.11 112 2.11 129 2.11
  30  0.300  0.500  0.407- 131 2.11 132 2.11 136 2.11 151 2.11 130 2.11
  31  0.200  0.500  0.503- 130 2.11 129 2.11 110 2.11 133 2.11 131 2.11
  32  0.300  0.400  0.503- 129 2.11 126 2.11 130 2.11 149 2.11 132 2.11
  33  0.200  0.600  0.407- 136 2.11 131 2.11 135 2.11 116 2.11 133 2.11
  34  0.300  0.700  0.407- 135 2.11 140 2.11 136 2.11 155 2.11 134 2.11
  35  0.200  0.700  0.503- 134 2.11 137 2.11 114 2.11 133 2.11 135 2.11
  36  0.300  0.600  0.503- 133 2.11 130 2.11 134 2.11 153 2.11 136 2.11
  37  0.200  0.800  0.407- 135 2.11 140 2.11 139 2.11 120 2.11 137 2.11
  38  0.300  0.900  0.407- 139 2.11 124 2.11 140 2.11 159 2.11 138 2.11
  39  0.200  0.900  0.503- 138 2.11 121 2.11 137 2.11 118 2.11 139 2.11
  40  0.300  0.800  0.503- 134 2.11 137 2.11 138 2.11 157 2.11 140 2.11
  41  0.400  0.000  0.407- 124 2.11 143 2.11 144 2.11 159 2.11 141 2.11
  42  0.500  0.100  0.407- 143 2.11 144 2.11 148 2.11 163 2.11 142 2.11
  43  0.400  0.100  0.503- 122 2.11 141 2.11 142 2.11 145 2.11 143 2.11
  44  0.500  0.000  0.503- 141 2.11 142 2.11 158 2.11 161 2.11 144 2.11
  45  0.400  0.200  0.407- 147 2.11 143 2.11 128 2.11 148 2.11 145 2.11
  46  0.500  0.300  0.407- 148 2.11 147 2.11 152 2.11 167 2.11 146 2.11
  47  0.400  0.300  0.503- 145 2.11 126 2.11 146 2.11 149 2.11 147 2.11
  48  0.500  0.200  0.503- 146 2.11 145 2.11 142 2.11 165 2.11 148 2.11
  49  0.400  0.400  0.407- 132 2.11 147 2.11 151 2.11 152 2.11 149 2.11
  50  0.500  0.500  0.407- 151 2.11 152 2.11 156 2.11 171 2.11 150 2.11
  51  0.400  0.500  0.503- 130 2.11 149 2.11 150 2.11 153 2.11 151 2.11
  52  0.500  0.400  0.503- 146 2.11 149 2.11 150 2.11 169 2.11 152 2.11
  53  0.400  0.600  0.407- 136 2.11 151 2.11 155 2.11 156 2.11 153 2.11
  54  0.500  0.700  0.407- 160 2.11 156 2.11 155 2.11 175 2.11 154 2.11
  55  0.400  0.700  0.503- 157 2.11 153 2.11 154 2.11 134 2.11 155 2.11
  56  0.500  0.600  0.503- 150 2.11 153 2.11 154 2.11 173 2.11 156 2.11
  57  0.400  0.800  0.407- 155 2.11 140 2.11 159 2.11 160 2.11 157 2.11
  58  0.500  0.900  0.407- 144 2.11 159 2.11 160 2.11 179 2.11 158 2.11
  59  0.400  0.900  0.503- 138 2.11 141 2.11 157 2.11 158 2.11 159 2.11
  60  0.500  0.800  0.503- 154 2.11 157 2.11 158 2.11 177 2.11 160 2.11
[...]
 186  0.900  0.300  0.503-  88 2.11  87 2.11   7 2.11  92 2.11  86 2.11
 187  0.800  0.300  0.407-  66 2.11  85 2.11  86 2.11  89 2.11  87 2.11
 188  0.900  0.200  0.407-  86 2.11  82 2.11  85 2.11   5 2.11  88 2.11
 189  0.800  0.400  0.503-  72 2.11  87 2.11  91 2.11  92 2.11  89 2.11
 190  0.900  0.500  0.503-  11 2.11  91 2.11  92 2.11  96 2.11  90 2.11
 191  0.800  0.500  0.407-  70 2.11  89 2.11  90 2.11  93 2.11  91 2.11
 192  0.900  0.400  0.407-   9 2.11  86 2.11  89 2.11  90 2.11  92 2.11
 193  0.800  0.600  0.503-  76 2.11  91 2.11  95 2.11  96 2.11  93 2.11
 194  0.900  0.700  0.503- 100 2.11  95 2.11  96 2.11  15 2.11  94 2.11
 195  0.800  0.700  0.407-  74 2.11  97 2.11  94 2.11  93 2.11  95 2.11
 196  0.900  0.600  0.407-  13 2.11  90 2.11  93 2.11  94 2.11  96 2.11
 197  0.800  0.800  0.503-  80 2.11  95 2.11  99 2.11 100 2.11  97 2.11
 198  0.900  0.900  0.503-  19 2.11  84 2.11  99 2.11 100 2.11  98 2.11
 199  0.800  0.900  0.407-  78 2.11  81 2.11  97 2.11  98 2.11  99 2.11
 200  0.900  0.800  0.407-  94 2.11  17 2.11  97 2.11  98 2.11 100 2.11

  LATTYP: Found a simple tetragonal cell.
 ALAT       =    21.1388521970
 C/A-ratio  =     1.0461251639

  Lattice vectors:

 A1 = (  21.1388521970,   0.0000000000,   0.0000000000)
 A2 = (   0.0000000000,  21.1388521970,   0.0000000000)
 A3 = (   0.0000000000,   0.0000000000,  22.1138852197)

Analysis of symmetry for initial positions (statically):
 Subroutine PRICEL returns following result:

[...]

  50 primitive cells build up your supercell.

 Routine SETGRP: Setting up the symmetry group for a
 simple tetragonal supercell.

 Subroutine GETGRP returns: Found 16 space group operations
 (whereof  8 operations were pure point group operations)
 out of a pool of 16 trial point group operations.

The static configuration has the point symmetry C_4v.
 The point group associated with its full space group is D_4h.

Analysis of symmetry for dynamics (positions and initial velocities):
 Subroutine PRICEL returns following result:

  LATTYP: Found a simple tetragonal cell.
 ALAT       =     2.9894851470
 C/A-ratio  =     7.3972219738

  Lattice vectors:

 A1 = (   2.1138852197,  -2.1138852197,   0.0000000000)
 A2 = (   2.1138852197,   2.1138852197,   0.0000000000)
 A3 = (   0.0000000000,   0.0000000000,  22.1138852197)

  50 primitive cells build up your supercell.

 Routine SETGRP: Setting up the symmetry group for a
 simple tetragonal supercell.

 Subroutine GETGRP returns: Found 16 space group operations
 (whereof  8 operations were pure point group operations)
 out of a pool of 16 trial point group operations.

The dynamic configuration has the point symmetry C_4v.
 The point group associated with its full space group is D_4h.

 Subroutine INISYM returns: Found 16 space group operations
 (whereof  8 operations are pure point group operations),
 and found    50 'primitive' translations

                                     Primitive cell

  volume of cell :     197.6323

  direct lattice vectors                    reciprocal lattice vectors
     2.113885220 -2.113885220  0.000000000     0.236531291 -0.236531291  0.000000000
     2.113885220  2.113885220  0.000000000     0.236531291  0.236531291 -0.000000000
     0.000000000  0.000000000 22.113885220    -0.000000000  0.000000000  0.045220457

  length of vectors
     2.989485147  2.989485147 22.113885220     0.334505760  0.334505760  0.045220457

  position of ions in fractional coordinates (direct lattice)
     0.000000000  0.000000000  0.406984115
     0.500000000  0.500000000  0.502574971
     0.000000000  0.000000000  0.502574971
     0.500000000  0.500000000  0.406984115

  ion indices of the primitive-cell ions
   primitive index   ion index
                 1           1
                 2           3
                 3         101
                 4         103

 KPOINTS: KPOINTS created by Atomic Simulation Env

Automatic generation of k-mesh.
 Grid dimensions read from file:
 generate k-points for:    1    1    1

 Generating k-lattice:

[...]
   O         167.883          4.745         17.715          3.28049726
   O         167.883          4.745         17.715          3.28049726
   O         167.908          4.745         17.716          3.28074328
   O         167.908          4.745         17.716          3.28074328
   O         167.883          4.745         17.715          3.28049726
   O         167.883          4.745         17.715          3.28049726
   O         167.908          4.745         17.716          3.28074328
   O         167.908          4.745         17.716          3.28074328
   O         167.883          4.745         17.715          3.28049726
   O         167.883          4.745         17.715          3.28049726

  vdW correction parametrized for the method         

  IVDW =  21
  VDW_RADIUS =    50.000 A
  VDW_IDAMPF =  0
  VDW_S6 =     1.000
  VDW_SR =     0.600
  VDW_D =    20.000
  LVDW_ONECELL = F F F
  LVDW_SAMETYPE T T
  LVDW_EWALD = F

  Number of pair interactions contributing to vdW energy: 1075700
  Edisp (eV):  -66.05731

  FORCE on cell =-STRESS in cart. coord.  units (eV):
  Direction    XX          YY          ZZ          XY          YZ          ZX
  Alpha Z  1314.62240  1314.62240  1314.62240
  Ewald  475375.07443475375.07443************    -0.00000     0.00000    -0.00000
  Hartree503349.22721503349.22721************    -0.00000    -0.00000    -0.00000
  E(xc)   -7675.15556 -7675.15556 -7725.57307     0.00000    -0.00000    -0.00000
  Local  ************************************     0.00000    -0.00000    -0.00000
  n-local -8704.68023 -8704.68023 -8827.97024     0.00000     0.00000    -0.00000
  augment  3280.21414  3280.21414  3221.44104     0.00000     0.00000     0.00000
  Kinetic 22698.17396 22698.17401 22945.23990     0.00000    -0.00000    -0.00000
  Fock        0.00000     0.00000     0.00000     0.00000     0.00000     0.00000
  vdW         5.10811     5.10811    17.82060    -0.00000     0.00000    -0.00000
  Total     -99.57624   -99.57624    57.08974     0.00000     0.00000     0.00000
  in kB     -16.14501   -16.14501     9.25637     0.00000     0.00000     0.00000

 VOLUME and BASIS-vectors are now :
  energy-cutoff  :      520.00
  volume of cell :     9881.61
      direct lattice vectors                 reciprocal lattice vectors
    21.138852197  0.000000000  0.000000000     0.047306258  0.000000000  0.000000000
     0.000000000 21.138852197  0.000000000     0.000000000  0.047306258  0.000000000
     0.000000000  0.000000000 22.113885220     0.000000000  0.000000000  0.045220457

  length of vectors
    21.138852197 21.138852197 22.113885220     0.047306258  0.047306258  0.045220457

 FORCES acting on ions:
    Electron-Ion                     Ewald-Force                    Non-Local-Force
   0.109E-12 0.102E-12 0.926E+03   0.764E-13 0.213E-12 -.919E+03   -.155E-24 0.601E-24 -.751E+01
   -.389E-12 -.933E-12 0.926E+03   0.101E-09 0.101E-09 -.919E+03   0.569E-24 0.310E-24 -.751E+01
   0.127E-12 -.106E-11 -.926E+03   0.103E-12 0.101E-09 0.919E+03   0.856E-24 0.162E-24 0.751E+01
   -.290E-12 0.134E-12 -.926E+03   0.101E-09 0.107E-12 0.919E+03   0.504E-24 -.180E-23 0.751E+01
   0.845E-13 -.132E-11 0.926E+03   0.153E-10 -.470E-10 -.919E+03   0.171E-23 -.129E-23 -.751E+01
   -.403E-12 0.102E-11 0.926E+03   0.988E-10 0.269E-10 -.919E+03   -.145E-23 -.269E-23 -.751E+01
   0.873E-13 0.121E-11 -.926E+03   0.181E-11 0.268E-10 0.919E+03   0.452E-25 0.805E-24 0.751E+01
   -.323E-12 -.137E-11 -.926E+03   0.852E-10 -.470E-10 0.919E+03   0.620E-24 0.119E-23 0.751E+01
   0.931E-13 0.917E-12 0.926E+03   -.174E-10 -.803E-10 -.919E+03   -.318E-23 -.582E-24 -.751E+01
   -.370E-12 -.729E-12 0.926E+03   0.101E-09 0.228E-12 -.919E+03   0.185E-23 -.173E-23 -.751E+01
   0.115E-12 -.255E-12 -.926E+03   0.120E-12 0.126E-12 0.919E+03   0.186E-23 0.414E-24 0.751E+01
   -.311E-12 0.138E-11 -.926E+03   0.118E-09 -.804E-10 0.919E+03   0.127E-23 -.140E-23 0.751E+01
   0.128E-12 -.141E-11 0.926E+03   0.116E-11 0.950E-10 -.919E+03   0.517E-25 -.129E-23 -.751E+01
   -.410E-12 -.195E-11 0.926E+03   0.861E-10 -.402E-10 -.919E+03   0.217E-23 0.827E-24 -.751E+01
   0.121E-12 -.169E-11 -.926E+03   -.785E-12 -.402E-10 0.919E+03   -.111E-23 -.517E-24 0.751E+01
   -.317E-12 -.184E-11 -.926E+03   0.115E-09 0.844E-10 0.919E+03   0.207E-24 -.982E-24 0.751E+01
   0.970E-13 0.575E-12 0.926E+03   0.853E-12 0.253E-10 -.919E+03   0.124E-23 0.879E-24 -.751E+01
   -.386E-12 0.532E-12 0.926E+03   0.117E-09 -.800E-10 -.919E+03   -.620E-24 -.517E-24 -.751E+01
   0.970E-13 0.879E-12 -.926E+03   -.867E-12 -.799E-10 0.919E+03   -.150E-23 0.517E-24 0.751E+01
   -.344E-12 0.737E-12 -.926E+03   0.841E-10 0.360E-10 0.919E+03   0.258E-24 -.853E-24 0.751E+01
   -.660E-12 0.968E-13 0.926E+03   -.487E-10 0.101E-12 -.919E+03   0.233E-24 0.381E-24 -.751E+01
   0.398E-12 -.202E-11 0.926E+03   0.268E-10 0.993E-10 -.919E+03   0.103E-24 0.181E-23 -.751E+01
   -.740E-12 -.120E-11 -.926E+03   -.294E-10 0.893E-10 0.919E+03   -.336E-23 0.439E-24 0.751E+01
   0.354E-12 0.110E-12 -.926E+03   0.231E-10 0.941E-13 0.919E+03   0.156E-23 0.134E-23 0.751E+01
   -.667E-12 -.196E-12 0.926E+03   -.526E-10 -.478E-10 -.919E+03   0.121E-23 -.300E-23 -.751E+01
   0.415E-12 0.766E-12 0.926E+03   0.176E-10 0.247E-10 -.919E+03   0.233E-24 0.119E-23 -.751E+01
   -.747E-12 0.457E-12 -.926E+03   -.663E-10 0.274E-10 0.919E+03   0.905E-24 -.103E-23 0.751E+01
   0.367E-12 -.124E-12 -.926E+03   0.388E-11 -.448E-10 0.919E+03   0.269E-23 0.111E-23 0.751E+01
   -.656E-12 0.278E-11 0.926E+03   -.469E-10 -.688E-10 -.919E+03   0.336E-24 -.134E-23 -.751E+01
   0.413E-12 -.125E-11 0.926E+03   0.229E-10 0.218E-12 -.919E+03   -.155E-23 -.168E-23 -.751E+01
   -.735E-12 -.183E-11 -.926E+03   -.490E-10 0.107E-13 0.919E+03   0.217E-23 -.174E-23 0.751E+01
   0.374E-12 0.290E-11 -.926E+03   0.442E-10 -.787E-10 0.919E+03   0.620E-24 0.388E-24 0.751E+01
   -.671E-12 -.592E-12 0.926E+03   -.287E-10 0.834E-10 -.919E+03   0.103E-24 -.336E-23 -.751E+01
   0.397E-12 -.257E-11 0.926E+03   0.460E-11 -.379E-10 -.919E+03   -.103E-23 -.187E-23 -.751E+01
   -.754E-12 -.155E-11 -.926E+03   -.694E-10 -.410E-10 0.919E+03   0.750E-24 -.149E-23 0.751E+01
   0.372E-12 0.401E-12 -.926E+03   0.411E-10 0.828E-10 0.919E+03   0.129E-23 0.465E-24 0.751E+01
   -.666E-12 0.608E-12 0.926E+03   -.674E-10 0.259E-10 -.919E+03   -.837E-24 -.114E-23 -.751E+01
   0.392E-12 0.145E-12 0.926E+03   0.432E-10 -.784E-10 -.919E+03   -.189E-23 0.103E-23 -.751E+01
   -.731E-12 0.134E-12 -.926E+03   -.304E-10 -.686E-10 0.919E+03   0.191E-23 0.181E-23 0.751E+01
   0.366E-12 0.315E-11 -.926E+03   0.270E-11 0.337E-10 0.919E+03   0.258E-24 -.140E-23 0.751E+01
   0.377E-12 0.995E-13 0.926E+03   -.749E-10 0.449E-13 -.919E+03   0.103E-23 0.145E-23 -.751E+01
   -.209E-12 -.207E-11 0.926E+03   0.387E-11 0.992E-10 -.919E+03   0.168E-23 -.956E-24 -.751E+01
   0.495E-12 -.689E-11 -.926E+03   -.544E-10 0.890E-10 0.919E+03   0.134E-23 -.142E-24 0.751E+01
   -.194E-12 0.116E-12 -.926E+03   0.622E-14 0.933E-13 0.919E+03   -.155E-23 0.155E-24 0.751E+01
   0.387E-12 -.145E-11 0.926E+03   -.799E-10 -.471E-10 -.919E+03   -.248E-23 0.111E-23 -.751E+01
   -.204E-12 -.194E-11 0.926E+03   -.579E-11 0.245E-10 -.919E+03   0.103E-24 0.995E-24 -.751E+01
   0.498E-12 0.105E-10 -.926E+03   -.934E-10 0.267E-10 0.919E+03   -.108E-23 0.478E-24 0.751E+01
   -.201E-12 -.253E-11 -.926E+03   -.193E-10 -.446E-10 0.919E+03   -.310E-24 0.672E-24 0.751E+01
   0.382E-12 -.122E-11 0.926E+03   -.720E-10 -.686E-10 -.919E+03   -.102E-23 -.112E-23 -.751E+01
   -.233E-12 0.140E-11 0.926E+03   -.104E-12 0.214E-12 -.919E+03   0.918E-24 -.931E-24 -.751E+01
   0.484E-12 0.116E-10 -.926E+03   -.749E-10 0.933E-14 0.919E+03   0.362E-24 0.140E-23 0.751E+01
   -.204E-12 -.303E-11 -.926E+03   0.215E-10 -.787E-10 0.919E+03   0.569E-24 0.000E+00 0.751E+01
   0.362E-12 -.468E-11 0.926E+03   -.535E-10 0.832E-10 -.919E+03   0.517E-25 0.414E-24 -.751E+01
   -.236E-12 -.167E-11 0.926E+03   -.183E-10 -.377E-10 -.919E+03   -.119E-23 0.103E-23 -.751E+01
   0.482E-12 0.919E-11 -.926E+03   -.962E-10 -.403E-10 0.919E+03   0.238E-23 -.775E-24 0.751E+01
   -.218E-12 -.317E-11 -.926E+03   0.183E-10 0.827E-10 0.919E+03   0.142E-23 0.530E-24 0.751E+01
   0.371E-12 0.120E-11 0.926E+03   -.942E-10 0.252E-10 -.919E+03   -.801E-24 -.691E-24 -.751E+01
   -.213E-12 -.338E-11 0.926E+03   0.203E-10 -.783E-10 -.919E+03   0.181E-23 0.184E-23 -.751E+01
   0.483E-12 -.162E-10 -.926E+03   -.555E-10 -.683E-10 0.919E+03   -.155E-24 0.330E-24 0.751E+01
   -.220E-12 -.457E-12 -.926E+03   -.204E-10 0.335E-10 0.919E+03   0.176E-23 -.724E-24 0.751E+01
[...]
   0.546E-10 0.511E-10 0.696E+03   0.434E-10 0.494E-10 -.700E+03   -.101E-22 -.476E-23 0.347E+01
   0.315E-10 -.515E-10 0.696E+03   0.206E-11 -.614E-10 -.700E+03   -.512E-23 -.258E-23 0.347E+01
   0.547E-10 0.259E-10 -.696E+03   0.507E-10 -.136E-10 0.700E+03   -.269E-23 0.110E-22 -.347E+01
   0.314E-10 -.474E-11 -.696E+03   -.507E-11 0.103E-10 0.700E+03   -.181E-24 0.222E-23 -.347E+01
   0.545E-10 0.371E-11 0.696E+03   0.512E-10 -.169E-11 -.700E+03   -.827E-24 0.253E-23 0.347E+01
   0.315E-10 0.360E-10 0.696E+03   0.178E-11 -.155E-11 -.700E+03   0.372E-23 -.302E-23 0.347E+01
   0.547E-10 -.402E-10 -.696E+03   0.609E-10 0.119E-11 0.700E+03   -.476E-23 -.103E-24 -.347E+01
   0.315E-10 -.552E-10 -.696E+03   -.438E-11 -.488E-10 0.700E+03   -.455E-23 0.538E-23 -.347E+01
   0.546E-10 -.597E-10 0.696E+03   0.410E-10 -.598E-10 -.700E+03   -.100E-22 0.496E-23 0.347E+01
   0.315E-10 -.404E-10 0.696E+03   -.719E-13 0.697E-11 -.700E+03   0.155E-24 0.431E-23 0.347E+01
   0.547E-10 0.250E-10 -.696E+03   0.416E-10 0.415E-10 0.700E+03   -.393E-23 -.579E-23 -.347E+01
   0.314E-10 0.885E-10 -.696E+03   -.259E-11 -.308E-11 0.700E+03   -.155E-23 -.207E-23 -.347E+01
   0.546E-10 0.361E-10 0.696E+03   0.619E-10 0.573E-11 -.700E+03   -.662E-23 -.620E-24 0.347E+01
   0.315E-10 0.554E-10 0.696E+03   0.249E-12 0.561E-10 -.700E+03   -.801E-24 0.199E-23 0.347E+01
   0.129E-10 -.238E-10 -.510E-02   0.113E-11 0.441E-13 -.909E-12   -.273E-21 -.704E-22 -.398E-12

 POSITION                                       TOTAL-FORCE (eV/Angst)
      0.00000      0.00000      9.00000        -0.000000      0.000000      0.293541
      2.11389      2.11389      9.00000        -0.000000      0.000000      0.293541
      0.00000      2.11389     11.11389        -0.000000      0.000000     -0.293541
      2.11389      0.00000     11.11389        -0.000000      0.000000     -0.293541
      0.00000      4.22777      9.00000        -0.000000     -0.000000      0.293541
      2.11389      6.34166      9.00000        -0.000000     -0.000000      0.293541
      0.00000      6.34166     11.11389         0.000000      0.000000     -0.293541
      2.11389      4.22777     11.11389        -0.000000     -0.000000     -0.293541
      0.00000      8.45554      9.00000         0.000000      0.000000      0.293541
      2.11389     10.56943      9.00000         0.000000      0.000000      0.293541
      0.00000     10.56943     11.11389         0.000000     -0.000000     -0.293541
      2.11389      8.45554     11.11389         0.000000     -0.000000     -0.293541
      0.00000     12.68331      9.00000         0.000000      0.000000      0.293541
      2.11389     14.79720      9.00000        -0.000000     -0.000000      0.293541
      0.00000     14.79720     11.11389        -0.000000      0.000000     -0.293541
      2.11389     12.68331     11.11389         0.000000     -0.000000     -0.293541
      0.00000     16.91108      9.00000        -0.000000     -0.000000      0.293541
      2.11389     19.02497      9.00000        -0.000000      0.000000      0.293541
      0.00000     19.02497     11.11389        -0.000000     -0.000000     -0.293541
      2.11389     16.91108     11.11389        -0.000000     -0.000000     -0.293541
      4.22777      0.00000      9.00000         0.000000      0.000000      0.293541
      6.34166      2.11389      9.00000        -0.000000     -0.000000      0.293541
      4.22777      2.11389     11.11389        -0.000000     -0.000000     -0.293541
      6.34166      0.00000     11.11389         0.000000     -0.000000     -0.293541
      4.22777      4.22777      9.00000        -0.000000      0.000000      0.293541
      6.34166      6.34166      9.00000        -0.000000     -0.000000      0.293541
      4.22777      6.34166     11.11389        -0.000000      0.000000     -0.293541
      6.34166      4.22777     11.11389        -0.000000      0.000000     -0.293541
      4.22777      8.45554      9.00000         0.000000      0.000000      0.293541
      6.34166     10.56943      9.00000         0.000000      0.000000      0.293541
      4.22777     10.56943     11.11389         0.000000     -0.000000     -0.293541
      6.34166      8.45554     11.11389        -0.000000     -0.000000     -0.293541
      4.22777     12.68331      9.00000         0.000000      0.000000      0.293541
      6.34166     14.79720      9.00000         0.000000      0.000000      0.293541
      4.22777     14.79720     11.11389         0.000000      0.000000     -0.293541
      6.34166     12.68331     11.11389         0.000000      0.000000     -0.293541
      4.22777     16.91108      9.00000        -0.000000     -0.000000      0.293541
      6.34166     19.02497      9.00000        -0.000000     -0.000000      0.293541
      4.22777     19.02497     11.11389        -0.000000      0.000000     -0.293541
      6.34166     16.91108     11.11389         0.000000     -0.000000     -0.293541
      8.45554      0.00000      9.00000         0.000000     -0.000000      0.293541
     10.56943      2.11389      9.00000        -0.000000     -0.000000      0.293541
      8.45554      2.11389     11.11389         0.000000      0.000000     -0.293541
     10.56943      0.00000     11.11389         0.000000     -0.000000     -0.293541
      8.45554      4.22777      9.00000         0.000000      0.000000      0.293541
     10.56943      6.34166      9.00000         0.000000     -0.000000      0.293541
      8.45554      6.34166     11.11389        -0.000000      0.000000     -0.293541
     10.56943      4.22777     11.11389        -0.000000      0.000000     -0.293541
      8.45554      8.45554      9.00000        -0.000000      0.000000      0.293541
     10.56943     10.56943      9.00000         0.000000      0.000000      0.293541
      8.45554     10.56943     11.11389        -0.000000      0.000000     -0.293541
     10.56943      8.45554     11.11389        -0.000000      0.000000     -0.293541
      8.45554     12.68331      9.00000        -0.000000      0.000000      0.293541
     10.56943     14.79720      9.00000        -0.000000      0.000000      0.293541
      8.45554     14.79720     11.11389         0.000000      0.000000     -0.293541
     10.56943     12.68331     11.11389         0.000000      0.000000     -0.293541
      8.45554     16.91108      9.00000         0.000000     -0.000000      0.293541
     10.56943     19.02497      9.00000         0.000000      0.000000      0.293541
      8.45554     19.02497     11.11389         0.000000     -0.000000     -0.293541
     10.56943     16.91108     11.11389         0.000000     -0.000000     -0.293541
[...]
     19.02497      6.34166     11.11389         0.000000     -0.000000      0.883383
     16.91108      6.34166      9.00000        -0.000000      0.000000     -0.883383
     19.02497      4.22777      9.00000         0.000000     -0.000000     -0.883383
     16.91108      8.45554     11.11389         0.000000      0.000000      0.883383
     19.02497     10.56943     11.11389        -0.000000      0.000000      0.883383
     16.91108     10.56943      9.00000        -0.000000     -0.000000     -0.883383
     19.02497      8.45554      9.00000        -0.000000      0.000000     -0.883383
     16.91108     12.68331     11.11389        -0.000000      0.000000      0.883383
     19.02497     14.79720     11.11389        -0.000000      0.000000      0.883383
     16.91108     14.79720      9.00000         0.000000      0.000000     -0.883383
     19.02497     12.68331      9.00000         0.000000     -0.000000     -0.883383
     16.91108     16.91108     11.11389         0.000000      0.000000      0.883383
     19.02497     19.02497     11.11389         0.000000     -0.000000      0.883383
     16.91108     19.02497      9.00000        -0.000000     -0.000000     -0.883383
     19.02497     16.91108      9.00000         0.000000      0.000000     -0.883383
    total drift:                                0.000000     -0.000000     -0.005101

  FREE ENERGIE OF THE ION-ELECTRON SYSTEM (eV)
  free  energy   TOTEN  =     -1152.47248364 eV

  energy  without entropy=    -1152.47248364  energy(sigma->0) =    -1152.47248364