 vasp.6.3.0 20Jan22 (build Apr  1 2022 16:44:48) complex
 executed on        HPECrayEX_GCC date 2023.01.09  19:21:54

 INCAR:
   SYSTEM = MgO-rocksalt
   ISMEAR = 0
   SIGMA = 0.05
   EDIFF = 1E-6
   ALGO = ALL
   ISTART = 0
   IBRION = -1
   NSW = 0
   ISYM = 2
   DIPOL = 0.5 0.5 0.5
   IDIPOL = 3
   LDIPOL = .TRUE.
   GGA = RE
   IVDW = 21
   VDW_SR = 0.6
   ENCUT = 520
   PREC = Accurate
   LASPH = .TRUE.
   LREAL = Auto
   ISPIN = 1
   NELM = 200
   NELMIN = 8
   NCORE = 4
   KPAR = 2
   LWAVE = .FALSE.
   LCHARG = .FALSE.

 POTCAR:    PAW_PBE Cu 22Jun2005
 POTCAR:    PAW_PBE Mg_pv 13Apr2007
 POTCAR:    PAW_PBE O 08Apr2002
 POTCAR:    PAW_PBE Cu 22Jun2005
   VRHFIN =Cu: d10 p1

   TITEL  = PAW_PBE Cu 22Jun2005
   POMASS =   63.546; ZVAL   =   11.000    mass and valenz
   ENMAX  =  295.446; ENMIN  =  221.585 eV

   TITEL  = PAW_PBE Mg_pv 13Apr2007
   POMASS =   24.305; ZVAL   =    8.000    mass and valenz
   ENMAX  =  403.929; ENMIN  =  302.947 eV

   TITEL  = PAW_PBE O 08Apr2002
   POMASS =   16.000; ZVAL   =    6.000    mass and valenz
   ENMAX  =  400.000; ENMIN  =  300.000 eV

 Optimization of the real space projectors (new method)

 maximal supplied QI-value         = 16.25
 optimisation between [QCUT,QGAM] = [ 11.54, 23.24] = [ 37.28,151.24] Ry
 Optimized for a Real-space Cutoff    1.53 Angstroem

   l    n(q)    QCUT    max X(q) W(low)/X(q) W(high)/X(q)  e(spline)
   2     10    11.539     4.610    0.96E-04    0.13E-03    0.19E-06
   2     10    11.539     8.522    0.16E-03    0.21E-03    0.28E-06
   0     11    11.539    51.609    0.45E-04    0.31E-04    0.11E-06
   0     11    11.539    27.747    0.39E-04    0.29E-04    0.10E-06
   1     10    11.539    20.408    0.70E-05    0.38E-04    0.18E-06
   1     10    11.539    13.425    0.66E-05    0.34E-04    0.17E-06
 Optimization of the real space projectors (new method)

[...]

   l    n(q)    QCUT    max X(q) W(low)/X(q) W(high)/X(q)  e(spline)
   1      8    11.527     2.974    0.44E-04    0.56E-04    0.12E-06
   1      8    11.527     4.279    0.12E-03    0.12E-03    0.26E-06
   0      9    11.527    16.381    0.46E-04    0.64E-04    0.78E-07
   0      9    11.527     5.611    0.26E-04    0.43E-04    0.55E-07
   2      8    11.527     4.652    0.22E-03    0.72E-04    0.47E-07
 Optimization of the real space projectors (new method)

 maximal supplied QI-value         = 24.76
 optimisation between [QCUT,QGAM] = [ 11.64, 23.27] = [ 37.91,151.63] Ry
 Optimized for a Real-space Cutoff    1.14 Angstroem

   l    n(q)    QCUT    max X(q) W(low)/X(q) W(high)/X(q)  e(spline)
   0      8    11.635    20.381    0.10E-03    0.33E-03    0.24E-06
   0      8    11.635    15.268    0.11E-03    0.35E-03    0.26E-06
   1      7    11.635     5.964    0.24E-03    0.31E-03    0.30E-06
   1      7    11.635     5.382    0.22E-03    0.25E-03    0.26E-06
|               ----> ADVICE to this user running VASP <----                  |
|     You enforced a specific xc type in the INCAR file but a different       |
|     type was found in the POTCAR file.                                      |
|     I HOPE YOU KNOW WHAT YOU ARE DOING!                                     |

  PAW_PBE Cu 22Jun2005                  :
  PAW_PBE Mg_pv 13Apr2007               :
  PAW_PBE O 08Apr2002                   :

 POSCAR: Cu Mg  O
  positions in direct lattice
  velocities in cartesian coordinates
 exchange correlation table for  LEXCH =       40
   RHO(1)=    0.500       N(1)  =     2000
   RHO(2)=  100.500       N(2)  =     4000

 ion  position               nearest neighbor table
   1  0.398  0.602  0.598- 157 2.11   2 2.32
   2  0.321  0.679  0.599- 138 2.22   1 2.32
   3  0.579  0.421  0.599- 173 2.22   4 2.32
   4  0.502  0.498  0.598- 154 2.11   3 2.32
   5  0.000  0.000  0.407- 107 2.11 108 2.11 123 2.11 188 2.11 105 2.11
   6  0.100  0.100  0.407- 107 2.11 108 2.11 112 2.11 127 2.11 106 2.11
   7  0.000  0.100  0.503- 105 2.11 106 2.11 109 2.11 186 2.11 107 2.11
   8  0.100  0.000  0.503- 105 2.11 106 2.11 122 2.11 125 2.11 108 2.11
   9  0.000  0.200  0.407- 111 2.11 107 2.11 112 2.11 192 2.11 109 2.11
  10  0.100  0.300  0.407- 112 2.11 111 2.11 116 2.11 131 2.11 110 2.11
  11  0.000  0.300  0.503- 109 2.11 110 2.11 113 2.11 190 2.11 111 2.11
  12  0.100  0.200  0.503- 110 2.11 109 2.11 106 2.11 129 2.11 112 2.11
  13  0.000  0.400  0.407- 111 2.11 115 2.11 116 2.11 196 2.11 113 2.11
  14  0.100  0.500  0.407- 115 2.11 116 2.11 120 2.11 135 2.11 114 2.11
  15  0.000  0.500  0.503- 113 2.11 114 2.11 117 2.11 194 2.11 115 2.11
  16  0.100  0.400  0.503- 110 2.11 113 2.11 114 2.11 133 2.11 116 2.11
  17  0.000  0.600  0.407- 115 2.11 119 2.11 120 2.11 200 2.11 117 2.11
  18  0.100  0.700  0.407- 124 2.11 120 2.11 119 2.11 139 2.11 118 2.11
  19  0.000  0.700  0.503- 121 2.11 118 2.11 117 2.11 198 2.11 119 2.11
  20  0.100  0.600  0.503- 114 2.11 117 2.11 118 2.11 137 2.11 120 2.11
  21  0.000  0.800  0.407- 119 2.11 123 2.11 124 2.11 204 2.11 121 2.11
  22  0.100  0.900  0.407- 108 2.11 123 2.11 124 2.11 143 2.11 122 2.11
  23  0.000  0.900  0.503- 105 2.11 121 2.11 122 2.11 202 2.11 123 2.11
  24  0.100  0.800  0.503- 118 2.11 121 2.11 122 2.11 141 2.11 124 2.11
  25  0.200  0.000  0.407- 128 2.11 127 2.11 108 2.11 143 2.11 125 2.11
  26  0.300  0.100  0.407- 127 2.11 128 2.11 132 2.11 147 2.11 126 2.11
  27  0.200  0.100  0.503- 126 2.11 125 2.11 106 2.11 129 2.11 127 2.11
  28  0.300  0.000  0.503- 125 2.11 126 2.11 142 2.11 145 2.11 128 2.11
  29  0.200  0.200  0.407- 131 2.11 132 2.11 112 2.11 127 2.11 129 2.11
  30  0.300  0.300  0.407- 131 2.11 132 2.11 136 2.11 151 2.11 130 2.11
  31  0.200  0.300  0.503- 129 2.11 130 2.11 110 2.11 133 2.11 131 2.11
  32  0.300  0.200  0.503- 129 2.11 130 2.11 126 2.11 149 2.11 132 2.11
  33  0.200  0.400  0.407- 136 2.11 131 2.11 135 2.11 116 2.11 133 2.11
  34  0.300  0.500  0.407- 135 2.11 136 2.11 140 2.11 155 2.11 134 2.11
  35  0.200  0.500  0.503- 134 2.11 133 2.11 114 2.11 137 2.11 135 2.11
  36  0.300  0.400  0.503- 133 2.11 130 2.11 134 2.11 153 2.11 136 2.11
  37  0.200  0.600  0.407- 140 2.11 135 2.11 139 2.11 120 2.11 137 2.11
  38  0.300  0.700  0.407- 139 2.11 144 2.11 140 2.11 159 2.11 138 2.11
  39  0.200  0.700  0.503- 138 2.11 141 2.11 118 2.11 137 2.11 139 2.11
  40  0.300  0.600  0.503- 137 2.11 134 2.11 138 2.11 157 2.11 140 2.11
  41  0.200  0.800  0.407- 139 2.11 144 2.11 143 2.11 124 2.11 141 2.11
  42  0.300  0.900  0.407- 143 2.11 128 2.11 144 2.11 163 2.11 142 2.11
  43  0.200  0.900  0.503- 142 2.11 125 2.11 141 2.11 122 2.11 143 2.11
  44  0.300  0.800  0.503- 138 2.11 141 2.11 142 2.11 161 2.11 144 2.11
  45  0.400  0.000  0.407- 128 2.11 147 2.11 148 2.11 163 2.11 145 2.11
  46  0.500  0.100  0.407- 147 2.11 148 2.11 152 2.11 167 2.11 146 2.11
  47  0.400  0.100  0.503- 126 2.11 145 2.11 146 2.11 149 2.11 147 2.11
  48  0.500  0.000  0.503- 145 2.11 146 2.11 162 2.11 165 2.11 148 2.11
  49  0.400  0.200  0.407- 151 2.11 147 2.11 132 2.11 152 2.11 149 2.11
  50  0.500  0.300  0.407- 152 2.11 151 2.11 156 2.11 171 2.11 150 2.11
  51  0.400  0.300  0.503- 149 2.11 130 2.11 150 2.11 153 2.11 151 2.11
  52  0.500  0.200  0.503- 150 2.11 149 2.11 146 2.11 169 2.11 152 2.11
  53  0.400  0.400  0.407- 136 2.11 151 2.11 155 2.11 156 2.11 153 2.11
  54  0.500  0.500  0.407- 155 2.11 156 2.11 160 2.11 175 2.11 154 2.11
  55  0.400  0.500  0.503- 134 2.11 153 2.11 154 2.11 157 2.11 155 2.11
  56  0.500  0.400  0.503- 150 2.11 153 2.11 154 2.11 173 2.11 156 2.11
  57  0.400  0.600  0.407- 140 2.11 155 2.11 159 2.11 160 2.11 157 2.11
  58  0.500  0.700  0.407- 164 2.11 160 2.11 159 2.11 179 2.11 158 2.11
  59  0.400  0.700  0.503- 161 2.11 157 2.11 158 2.11 138 2.11 159 2.11
  60  0.500  0.600  0.503- 154 2.11 157 2.11 158 2.11 177 2.11 160 2.11
[...]
 190  0.900  0.300  0.503-  92 2.11  91 2.11  11 2.11  96 2.11  90 2.11
 191  0.800  0.300  0.407-  70 2.11  89 2.11  90 2.11  93 2.11  91 2.11
 192  0.900  0.200  0.407-  90 2.11  86 2.11  89 2.11   9 2.11  92 2.11
 193  0.800  0.400  0.503-  76 2.11  91 2.11  95 2.11  96 2.11  93 2.11
 194  0.900  0.500  0.503-  15 2.11  95 2.11  96 2.11 100 2.11  94 2.11
 195  0.800  0.500  0.407-  74 2.11  93 2.11  94 2.11  97 2.11  95 2.11
 196  0.900  0.400  0.407-  13 2.11  90 2.11  93 2.11  94 2.11  96 2.11
 197  0.800  0.600  0.503-  80 2.11  95 2.11  99 2.11 100 2.11  97 2.11
 198  0.900  0.700  0.503- 104 2.11  99 2.11 100 2.11  19 2.11  98 2.11
 199  0.800  0.700  0.407-  78 2.11 101 2.11  98 2.11  97 2.11  99 2.11
 200  0.900  0.600  0.407-  17 2.11  94 2.11  97 2.11  98 2.11 100 2.11
 201  0.800  0.800  0.503-  84 2.11  99 2.11 103 2.11 104 2.11 101 2.11
 202  0.900  0.900  0.503-  23 2.11  88 2.11 103 2.11 104 2.11 102 2.11
 203  0.800  0.900  0.407-  82 2.11  85 2.11 101 2.11 102 2.11 103 2.11
 204  0.900  0.800  0.407-  98 2.11  21 2.11 101 2.11 102 2.11 104 2.11

  LATTYP: Found a simple tetragonal cell.
 ALAT       =    21.1388521970
 C/A-ratio  =     1.0461251639

  Lattice vectors:

 A1 = (  21.1388521970,   0.0000000000,   0.0000000000)
 A2 = (   0.0000000000,  21.1388521970,   0.0000000000)
 A3 = (   0.0000000000,   0.0000000000,  22.1138852197)

Analysis of symmetry for initial positions (statically):
 Subroutine PRICEL returns:
 Original cell was already a primitive cell.

 Routine SETGRP: Setting up the symmetry group for a
 simple tetragonal supercell.

 Subroutine GETGRP returns: Found  2 space group operations
 (whereof  1 operations were pure point group operations)
 out of a pool of 16 trial point group operations.

The static configuration has the point symmetry C_1 .
 The point group associated with its full space group is C_1h.

Analysis of symmetry for dynamics (positions and initial velocities):
 Subroutine PRICEL returns:
 Original cell was already a primitive cell.

[...]

The dynamic configuration has the point symmetry C_1 .
 The point group associated with its full space group is C_1h.

Analysis of constrained symmetry for selective dynamics:
 Subroutine PRICEL returns:
 Original cell was already a primitive cell.

 Routine SETGRP: Setting up the symmetry group for a
 simple tetragonal supercell.

 Subroutine GETGRP returns: Found  2 space group operations
 (whereof  1 operations were pure point group operations)
 out of a pool of 16 trial point group operations.

The constrained configuration has the point symmetry C_1 .
 The point group associated with its full space group is C_1h.

 Subroutine INISYM returns: Found  2 space group operations
 (whereof  1 operations are pure point group operations),
 and found     1 'primitive' translations

                                     Primitive cell

  volume of cell :    9881.6133

  direct lattice vectors                    reciprocal lattice vectors
    21.138852197  0.000000000  0.000000000     0.047306258  0.000000000  0.000000000
     0.000000000 21.138852197  0.000000000     0.000000000  0.047306258  0.000000000
     0.000000000  0.000000000 22.113885220     0.000000000  0.000000000  0.045220457

  length of vectors
    21.138852197 21.138852197 22.113885220     0.047306258  0.047306258  0.045220457

  position of ions in fractional coordinates (direct lattice)
[...]
   O         168.252          4.747         17.734          3.28409995
   O         168.237          4.747         17.733          3.28395628
   O         166.227          4.737         17.627          3.26427795
   O         166.870          4.741         17.661          3.27058049
   O         168.300          4.747         17.737          3.28457227
   O         168.270          4.747         17.735          3.28427203
   O         166.898          4.741         17.663          3.27086052
   O         167.106          4.742         17.674          3.27289752
   O         168.233          4.747         17.733          3.28391612
   O         168.226          4.747         17.733          3.28384349

  vdW correction parametrized for the method         

  IVDW =  21
  VDW_RADIUS =    50.000 A
  VDW_IDAMPF =  0
  VDW_S6 =     1.000
  VDW_SR =     0.600
  VDW_D =    20.000
  LVDW_ONECELL = F F F
  LVDW_SAMETYPE T T T
  LVDW_EWALD = F

  Number of pair interactions contributing to vdW energy: 1118742
  Edisp (eV):  -68.44914

  FORCE on cell =-STRESS in cart. coord.  units (eV):
  Direction    XX          YY          ZZ          XY          YZ          ZX
  Alpha Z  1394.80054  1394.80054  1394.80054
  Ewald  488949.61640488949.61538************ -1381.09674     0.00920     0.00911
  Hartree518523.42301518523.42259************ -1166.37421     0.00772     0.00840
  E(xc)   -7933.19118 -7933.19118 -7981.37594    -0.81553     0.00019     0.00020
  Local  ************************************  2542.38421    -0.01638    -0.01722
  n-local -8803.58944 -8803.58942 -8926.94338     0.24352    -0.00156    -0.00167
  augment  3652.48026  3652.48029  3595.15037     2.39757     0.00042     0.00047
  Kinetic 23064.42030 23064.42036 23305.48026     3.43131    -0.00224    -0.00229
  Fock        0.00000     0.00000     0.00000     0.00000     0.00000     0.00000
  vdW         4.60371     4.60369    14.92518    -1.70969     0.00101     0.00100
  Total     -94.90867   -94.90867    57.13508    -1.53956    -0.00182    -0.00182
  in kB     -15.38823   -15.38823     9.26372    -0.24962    -0.00029    -0.00030

 VOLUME and BASIS-vectors are now :
  energy-cutoff  :      520.00
  volume of cell :     9881.61
      direct lattice vectors                 reciprocal lattice vectors
    21.138852197  0.000000000  0.000000000     0.047306258  0.000000000  0.000000000
     0.000000000 21.138852197  0.000000000     0.000000000  0.047306258  0.000000000
     0.000000000  0.000000000 22.113885220     0.000000000  0.000000000  0.045220457

  length of vectors
    21.138852197 21.138852197 22.113885220     0.047306258  0.047306258  0.045220457

 FORCES acting on ions:
    Electron-Ion                     Ewald-Force                    Non-Local-Force
   -.647E+02 0.647E+02 -.222E+04   0.602E+02 -.602E+02 0.222E+04   0.469E+01 -.469E+01 -.168E+01
   0.287E+03 -.287E+03 -.222E+04   -.281E+03 0.281E+03 0.222E+04   -.646E+01 0.646E+01 -.163E+01
   -.287E+03 0.287E+03 -.222E+04   0.281E+03 -.281E+03 0.222E+04   0.646E+01 -.646E+01 -.163E+01
   0.647E+02 -.647E+02 -.222E+04   -.602E+02 0.602E+02 0.222E+04   -.469E+01 0.469E+01 -.168E+01
   0.519E+01 -.519E+01 0.937E+03   -.521E+01 0.522E+01 -.930E+03   0.197E-01 -.197E-01 -.756E+01
   0.962E+01 0.175E+01 0.938E+03   -.963E+01 -.171E+01 -.931E+03   0.621E-02 -.245E-01 -.756E+01
   0.326E+01 0.326E+01 -.920E+03   -.325E+01 -.325E+01 0.912E+03   -.865E-02 -.865E-02 0.746E+01
   0.151E+02 -.121E+02 -.917E+03   -.151E+02 0.122E+02 0.910E+03   0.163E-01 -.577E-01 0.746E+01
   0.174E+01 0.962E+01 0.938E+03   -.171E+01 -.963E+01 -.931E+03   -.245E-01 0.621E-02 -.756E+01
   0.156E+02 0.171E+02 0.944E+03   -.156E+02 -.171E+02 -.936E+03   0.810E-02 0.233E-01 -.757E+01
   0.234E+01 0.163E+02 -.916E+03   -.230E+01 -.163E+02 0.909E+03   -.364E-01 0.376E-02 0.746E+01
   0.136E+02 0.136E+02 -.918E+03   -.136E+02 -.136E+02 0.910E+03   -.890E-02 -.890E-02 0.746E+01
   0.497E+01 0.121E+02 0.945E+03   -.495E+01 -.121E+02 -.937E+03   -.207E-01 0.168E-01 -.757E+01
   0.327E+02 0.134E+02 0.958E+03   -.329E+02 -.135E+02 -.950E+03   0.100E+00 0.677E-01 -.760E+01
   0.137E+02 0.882E+01 -.911E+03   -.137E+02 -.883E+01 0.904E+03   -.284E-02 0.128E-01 0.745E+01
   0.328E+02 0.257E+02 -.909E+03   -.328E+02 -.257E+02 0.902E+03   -.414E-02 0.230E-01 0.744E+01
   0.143E+02 -.228E+01 0.950E+03   -.144E+02 0.226E+01 -.942E+03   0.656E-01 0.141E-01 -.758E+01
   0.382E+02 -.141E+02 0.963E+03   -.386E+02 0.141E+02 -.955E+03   0.302E+00 0.111E-01 -.762E+01
   0.238E+02 -.133E+02 -.911E+03   -.239E+02 0.133E+02 0.903E+03   0.835E-01 0.835E-02 0.745E+01
   0.668E+02 0.553E+01 -.895E+03   -.669E+02 -.560E+01 0.888E+03   0.101E+00 0.590E-01 0.742E+01
   0.131E+02 -.142E+02 0.944E+03   -.132E+02 0.143E+02 -.936E+03   0.963E-01 -.174E-01 -.757E+01
   0.182E+02 -.182E+02 0.945E+03   -.183E+02 0.183E+02 -.938E+03   0.779E-01 -.779E-01 -.756E+01
   0.121E+02 -.151E+02 -.917E+03   -.122E+02 0.151E+02 0.910E+03   0.578E-01 -.163E-01 0.746E+01
   0.455E+02 -.324E+02 -.904E+03   -.458E+02 0.324E+02 0.896E+03   0.239E+00 -.149E-01 0.745E+01
   0.143E+02 -.131E+02 0.944E+03   -.143E+02 0.132E+02 -.936E+03   0.174E-01 -.962E-01 -.757E+01
   0.121E+02 0.497E+01 0.945E+03   -.121E+02 -.494E+01 -.937E+03   0.168E-01 -.207E-01 -.757E+01
   0.163E+02 0.235E+01 -.916E+03   -.163E+02 -.230E+01 0.909E+03   0.376E-02 -.364E-01 0.746E+01
   0.133E+02 -.238E+02 -.911E+03   -.133E+02 0.239E+02 0.903E+03   -.840E-02 -.833E-01 0.745E+01
   0.171E+02 0.156E+02 0.944E+03   -.171E+02 -.156E+02 -.936E+03   0.233E-01 0.810E-02 -.757E+01
   0.300E+02 0.381E+02 0.965E+03   -.302E+02 -.383E+02 -.957E+03   0.109E+00 0.101E+00 -.762E+01
   0.357E+02 0.357E+02 -.908E+03   -.357E+02 -.357E+02 0.901E+03   0.921E-02 0.921E-02 0.744E+01
   0.256E+02 0.328E+02 -.909E+03   -.257E+02 -.328E+02 0.902E+03   0.230E-01 -.414E-02 0.744E+01
   0.381E+02 0.300E+02 0.965E+03   -.383E+02 -.302E+02 -.957E+03   0.101E+00 0.109E+00 -.762E+01
   0.576E+02 0.372E+02 0.102E+04   -.581E+02 -.377E+02 -.102E+04   0.402E+00 0.410E+00 -.782E+01
   0.928E+02 0.506E+02 -.875E+03   -.929E+02 -.507E+02 0.867E+03   0.759E-01 0.123E+00 0.734E+01
   0.820E+02 0.820E+02 -.869E+03   -.821E+02 -.821E+02 0.861E+03   0.748E-01 0.748E-01 0.736E+01
   0.618E+02 0.498E+01 0.100E+04   -.624E+02 -.523E+01 -.992E+03   0.445E+00 0.187E+00 -.771E+01
   0.431E+02 -.430E+02 0.104E+04   -.433E+02 0.433E+02 -.104E+04   0.193E+00 -.194E+00 -.597E+01
   0.136E+03 -.474E+02 -.829E+03   -.138E+03 0.472E+02 0.822E+03   0.144E+01 0.155E+00 0.738E+01
   0.176E+03 0.722E+02 -.668E+03   -.178E+03 -.740E+02 0.663E+03   0.136E+01 0.120E+01 0.501E+01
   0.373E+02 -.373E+02 0.975E+03   -.375E+02 0.375E+02 -.967E+03   0.205E+00 -.205E+00 -.749E+01
   0.141E+02 -.382E+02 0.963E+03   -.141E+02 0.386E+02 -.955E+03   -.112E-01 -.302E+00 -.762E+01
   0.324E+02 -.455E+02 -.904E+03   -.324E+02 0.458E+02 0.896E+03   0.148E-01 -.239E+00 0.745E+01
   0.475E+02 -.136E+03 -.829E+03   -.473E+02 0.138E+03 0.821E+03   -.156E+00 -.144E+01 0.738E+01
   0.228E+01 -.143E+02 0.950E+03   -.227E+01 0.144E+02 -.942E+03   -.141E-01 -.654E-01 -.758E+01
   -.228E+01 0.143E+02 0.950E+03   0.226E+01 -.144E+02 -.942E+03   0.141E-01 0.656E-01 -.758E+01
   0.881E+01 0.137E+02 -.911E+03   -.883E+01 -.137E+02 0.904E+03   0.128E-01 -.284E-02 0.745E+01
   -.882E+01 -.137E+02 -.911E+03   0.883E+01 0.137E+02 0.904E+03   -.128E-01 0.306E-02 0.745E+01
   0.134E+02 0.327E+02 0.958E+03   -.135E+02 -.329E+02 -.950E+03   0.677E-01 0.100E+00 -.760E+01
   0.498E+01 0.618E+02 0.100E+04   -.523E+01 -.624E+02 -.992E+03   0.187E+00 0.445E+00 -.771E+01
   0.506E+02 0.928E+02 -.875E+03   -.507E+02 -.929E+02 0.867E+03   0.123E+00 0.759E-01 0.734E+01
   0.553E+01 0.668E+02 -.895E+03   -.560E+01 -.669E+02 0.888E+03   0.590E-01 0.101E+00 0.742E+01
   0.372E+02 0.576E+02 0.102E+04   -.377E+02 -.581E+02 -.102E+04   0.410E+00 0.402E+00 -.782E+01
   -.134E+02 0.135E+02 0.109E+04   0.134E+02 -.134E+02 -.108E+04   0.509E-01 -.513E-01 -.598E+01
   0.120E+03 0.120E+03 -.680E+03   -.122E+03 -.122E+03 0.673E+03   0.154E+01 0.154E+01 0.644E+01
   0.722E+02 0.176E+03 -.668E+03   -.740E+02 -.178E+03 0.663E+03   0.120E+01 0.136E+01 0.501E+01
   0.135E+02 -.134E+02 0.109E+04   -.134E+02 0.134E+02 -.108E+04   -.513E-01 0.509E-01 -.598E+01
   -.371E+02 -.576E+02 0.102E+04   0.377E+02 0.581E+02 -.102E+04   -.410E+00 -.402E+00 -.782E+01
   -.722E+02 -.176E+03 -.668E+03   0.740E+02 0.178E+03 0.663E+03   -.120E+01 -.136E+01 0.501E+01
   -.120E+03 -.120E+03 -.679E+03   0.122E+03 0.122E+03 0.673E+03   -.154E+01 -.154E+01 0.643E+01
[...]
   -.215E+02 0.163E+02 0.717E+03   0.216E+02 -.163E+02 -.722E+03   -.178E+00 0.838E-01 0.342E+01
   -.665E+01 0.888E+01 0.707E+03   0.669E+01 -.890E+01 -.711E+03   -.544E-01 0.351E-01 0.341E+01
   -.498E+02 0.150E+02 -.673E+03   0.499E+02 -.149E+02 0.677E+03   -.178E+00 -.586E-01 -.368E+01
   -.162E+02 0.159E+01 -.684E+03   0.162E+02 -.157E+01 0.688E+03   -.396E-01 -.229E-01 -.361E+01
   -.299E+02 -.827E+00 0.725E+03   0.300E+02 0.895E+00 -.729E+03   -.141E+00 -.860E-01 0.336E+01
   -.118E+02 0.793E+01 0.713E+03   0.118E+02 -.793E+01 -.717E+03   -.785E-01 -.780E-03 0.340E+01
   -.376E+02 -.162E+02 -.678E+03   0.377E+02 0.163E+02 0.683E+03   -.497E-01 -.620E-01 -.366E+01
   -.470E+01 -.116E+02 -.687E+03   0.468E+01 0.116E+02 0.691E+03   0.203E-01 -.849E-02 -.359E+01
   -.175E+02 -.138E+02 0.714E+03   0.175E+02 0.139E+02 -.719E+03   -.357E-01 -.488E-01 0.338E+01
   -.728E+01 -.481E+01 0.713E+03   0.728E+01 0.483E+01 -.717E+03   -.142E-01 -.217E-01 0.339E+01
   -.153E+02 -.166E+02 -.687E+03   0.153E+02 0.166E+02 0.692E+03   0.436E-02 -.879E-02 -.359E+01
   -.129E+01 -.877E+01 -.690E+03   0.127E+01 0.878E+01 0.695E+03   0.222E-01 -.427E-02 -.356E+01
   -.824E+01 -.823E+01 0.706E+03   0.823E+01 0.823E+01 -.711E+03   -.314E-02 -.314E-02 0.340E+01
   -.171E+01 -.987E+01 0.708E+03   0.168E+01 0.989E+01 -.712E+03   0.252E-01 -.161E-01 0.340E+01
   -.731E+00 0.727E+00 0.188E+02   0.165E-11 -.114E-12 0.819E-11   0.251E-02 0.251E-02 -.194E+02

 POSITION                                       TOTAL-FORCE (eV/Angst)
      8.42022     12.71964     13.21830         1.048301     -1.048170     -0.065487
      6.77748     14.36235     13.25117        -0.711319      0.710968     -0.055918
     12.24845      8.89138     13.25117         0.710968     -0.711319     -0.055918
     10.60574     10.53411     13.21830        -1.048170      1.048301     -0.065487
      0.00000      0.00000      9.00000        -0.005476      0.005462      0.306304
      2.11389      2.11389      9.00000        -0.001879      0.006328      0.307575
      0.00000      2.11389     11.11389         0.002231      0.002231     -0.270778
      2.11389      0.00000     11.11389        -0.004503      0.014601     -0.268408
      0.00000      4.22777      9.00000         0.006328     -0.001879      0.307575
      2.11389      6.34166      9.00000        -0.002397     -0.006325      0.311137
      0.00000      6.34166     11.11389         0.009578     -0.000525     -0.266893
      2.11389      4.22777     11.11389         0.002804      0.002804     -0.267972
      0.00000      8.45554      9.00000         0.005163     -0.004553      0.310807
      2.11389     10.56943      9.00000        -0.027063     -0.018604      0.318543
      0.00000     10.56943     11.11389         0.002082     -0.003031     -0.259839
      2.11389      8.45554     11.11389         0.003768     -0.004213     -0.255669
      0.00000     12.68331      9.00000        -0.017635     -0.004218      0.312396
      2.11389     14.79720      9.00000        -0.076292     -0.003535      0.318135
      0.00000     14.79720     11.11389        -0.021033     -0.003172     -0.260910
      2.11389     12.68331     11.11389        -0.032017     -0.018543     -0.236395
      0.00000     16.91108      9.00000        -0.024900      0.005143      0.309337
      2.11389     19.02497      9.00000        -0.022290      0.022285      0.304594
      0.00000     19.02497     11.11389        -0.014613      0.004497     -0.268412
      2.11389     16.91108     11.11389        -0.064822      0.005668     -0.255733
      4.22777      0.00000      9.00000        -0.005142      0.024877      0.309340
      6.34166      2.11389      9.00000        -0.004553      0.005163      0.310807
      4.22777      2.11389     11.11389        -0.000525      0.009578     -0.266893
      6.34166      0.00000     11.11389         0.003175      0.020979     -0.260913
      4.22777      4.22777      9.00000        -0.006325     -0.002397      0.311137
      6.34166      6.34166      9.00000        -0.028867     -0.027292      0.324371
      4.22777      6.34166     11.11389         0.000444      0.000444     -0.254402
      6.34166      4.22777     11.11389        -0.004213      0.003768     -0.255669
      4.22777      8.45554      9.00000        -0.027292     -0.028867      0.324371
      6.34166     10.56943      9.00000        -0.113520     -0.115098      0.336959
      4.22777     10.56943     11.11389        -0.012812     -0.026504     -0.181000
      6.34166      8.45554     11.11389        -0.023613     -0.023613     -0.190194
      4.22777     12.68331      9.00000        -0.122766     -0.061844      0.317155
      6.34166     14.79720      9.00000        -0.059878      0.059974     -0.079376
      4.22777     14.79720     11.11389        -0.456806     -0.053282     -0.226516
      6.34166     12.68331     11.11389        -0.527656     -0.559684      0.077957
      4.22777     16.91108      9.00000        -0.067248      0.067274      0.273275
      6.34166     19.02497      9.00000         0.003549      0.076267      0.318139
      4.22777     19.02497     11.11389        -0.005654      0.064821     -0.255727
      6.34166     16.91108     11.11389         0.053393      0.456851     -0.226510
      8.45554      0.00000      9.00000         0.004217      0.017586      0.312402
     10.56943      2.11389      9.00000        -0.004218     -0.017635      0.312396
      8.45554      2.11389     11.11389        -0.003031      0.002082     -0.259839
     10.56943      0.00000     11.11389         0.003028     -0.002148     -0.259835
      8.45554      4.22777      9.00000        -0.018604     -0.027063      0.318543
     10.56943      6.34166      9.00000        -0.061844     -0.122766      0.317155
      8.45554      6.34166     11.11389        -0.026504     -0.012812     -0.181000
     10.56943      4.22777     11.11389        -0.018543     -0.032017     -0.236395
      8.45554      8.45554      9.00000        -0.115098     -0.113520      0.336959
     10.56943     10.56943      9.00000        -0.015090      0.015212     -0.112405
      8.45554     10.56943     11.11389        -0.568749     -0.568749     -0.146879
     10.56943      8.45554     11.11389        -0.559684     -0.527656      0.077957
      8.45554     12.68331      9.00000         0.015212     -0.015090     -0.112405
     10.56943     14.79720      9.00000         0.115120      0.113502      0.336958
      8.45554     14.79720     11.11389         0.560306      0.528002      0.077593
     10.56943     12.68331     11.11389         0.569106      0.569106     -0.147058
[...]
     19.02497      6.34166     11.11389        -0.020941      0.003892      0.852832
     16.91108      6.34166      9.00000        -0.051218      0.024206     -0.893721
     19.02497      4.22777      9.00000        -0.015508      0.010047     -0.896467
     16.91108      8.45554     11.11389        -0.057885     -0.015922      0.832620
     19.02497     10.56943     11.11389        -0.012505     -0.005922      0.845130
     16.91108     10.56943      9.00000        -0.042205     -0.024399     -0.912054
     19.02497      8.45554      9.00000        -0.022563     -0.000004     -0.900048
     16.91108     12.68331     11.11389        -0.016145     -0.016715      0.829859
     19.02497     14.79720     11.11389         0.005383     -0.002999      0.850699
     16.91108     14.79720      9.00000        -0.011135     -0.014558     -0.903268
     19.02497     12.68331      9.00000        -0.004527     -0.006325     -0.901220
     16.91108     16.91108     11.11389         0.000334     -0.003366      0.851258
     19.02497     19.02497     11.11389         0.006126     -0.001473      0.858355
     16.91108     19.02497      9.00000        -0.001043     -0.001043     -0.898380
     19.02497     16.91108      9.00000         0.007018     -0.004676     -0.898427
    total drift:                               -0.728987      0.729946     -0.665054

  FREE ENERGIE OF THE ION-ELECTRON SYSTEM (eV)
  free  energy   TOTEN  =     -1161.15180019 eV

  energy  without entropy=    -1161.15180019  energy(sigma->0) =    -1161.15180019