 vasp.6.4.1 05Apr23 (build May 06 2023 19:47:20) complex

 executed on             LinuxIFC date 2023.07.05  06:45:18

 INCAR:
   SYSTEM = MgO-rocksalt
   ISMEAR = 0
   SIGMA = 0.05
   EDIFF = 1E-6
   ALGO = ALL
   ISTART = 0
   IBRION = -1
   NSW = 0
   ISYM = 2
   DIPOL = 0.5 0.5 0.5
   IDIPOL = 3
   LDIPOL = .TRUE.
   LHFCALC = .TRUE.
   GGA = B5
   AEXX = 0.2
   AGGAX = 0.72
   AGGAC = 0.81
   ALDAC = 0.19
   IVDW = 11
   VDW_S6 = 1.0
   VDW_SR = 1.261
   VDW_S8 = 1.703
   ENCUT = 520
   PREC = Accurate
   LASPH = .TRUE.
   LREAL = Auto
   ISPIN = 1
   NELM = 200
   NELMIN = 8
   NCORE = 16
   KPAR = 1
   LWAVE = .FALSE.
   LCHARG = .FALSE.

 POTCAR:    PAW_PBE Mg_pv 13Apr2007
 POTCAR:    PAW_PBE O 08Apr2002
|           W    W    AA    RRRRR   N    N  II  N    N   GGGG   !!!           |
|           W    W   A  A   R    R  NN   N  II  NN   N  G    G  !!!           |
|           W    W  A    A  R    R  N N  N  II  N N  N  G       !!!           |
|           W WW W  AAAAAA  RRRRR   N  N N  II  N  N N  G  GGG   !            |
|           WW  WW  A    A  R   R   N   NN  II  N   NN  G    G                |
|           W    W  A    A  R    R  N    N  II  N    N   GGGG   !!!           |
|     You have selected ISYM=2 for a HF type calculation. This will           |
|     symmetrize the charge density but not the exchange potential. I         |
|     suggest to use ISYM=3 instead. This uses symmetry to obtain the         |
|     orbitals at all k-points in the Brillouin zone, but does not apply      |
|     symmetry to the Hartree potential directly. The resultant charge        |
|     might have lower symmetry than the crystal but, at least, Hartree       |
|     and exchange are fully compatible.                                      |

   TITEL  = PAW_PBE Mg_pv 13Apr2007
   POMASS =   24.305; ZVAL   =    8.000    mass and valenz
   ENMAX  =  403.929; ENMIN  =  302.947 eV

   TITEL  = PAW_PBE O 08Apr2002
   POMASS =   16.000; ZVAL   =    6.000    mass and valenz
   ENMAX  =  400.000; ENMIN  =  300.000 eV

 Optimization of the real space projectors (new method)

 maximal supplied QI-value         = 18.90
 optimisation between [QCUT,QGAM] = [ 11.53, 23.24] = [ 37.21,151.29] Ry
 Optimized for a Real-space Cutoff    1.28 Angstroem

   l    n(q)    QCUT    max X(q) W(low)/X(q) W(high)/X(q)  e(spline)
   1      8    11.527     2.974    0.44E-04    0.56E-04    0.12E-06
   1      8    11.527     4.279    0.12E-03    0.12E-03    0.26E-06
   0      9    11.527    16.381    0.46E-04    0.64E-04    0.78E-07
   0      9    11.527     5.611    0.26E-04    0.43E-04    0.55E-07
   2      8    11.527     4.652    0.22E-03    0.72E-04    0.47E-07
 Optimization of the real space projectors (new method)

 maximal supplied QI-value         = 24.76
 optimisation between [QCUT,QGAM] = [ 11.64, 23.27] = [ 37.91,151.63] Ry
 Optimized for a Real-space Cutoff    1.14 Angstroem

   l    n(q)    QCUT    max X(q) W(low)/X(q) W(high)/X(q)  e(spline)
   0      8    11.635    20.381    0.10E-03    0.33E-03    0.24E-06
   0      8    11.635    15.268    0.11E-03    0.35E-03    0.26E-06
   1      7    11.635     5.964    0.24E-03    0.31E-03    0.30E-06
   1      7    11.635     5.382    0.22E-03    0.25E-03    0.26E-06
|               ----> ADVICE to this user running VASP <----                  |
|     You enforced a specific xc type in the INCAR file but a different       |
|     type was found in the POTCAR file.                                      |
|     I HOPE YOU KNOW WHAT YOU ARE DOING!                                     |

  PAW_PBE Mg_pv 13Apr2007               :
  PAW_PBE O 08Apr2002                   :

 POSCAR: Mg  O
  positions in direct lattice
 exchange correlation table for  LEXCH =       12
   RHO(1)=    0.500       N(1)  =     2000
   RHO(2)=  100.500       N(2)  =     4000

 ion  position               nearest neighbor table
   1  0.000  0.000  0.407- 103 2.11 104 2.11 119 2.11 184 2.11 101 2.11
   2  0.100  0.100  0.407- 103 2.11 104 2.11 108 2.11 123 2.11 102 2.11
   3  0.000  0.100  0.503- 101 2.11 102 2.11 105 2.11 182 2.11 103 2.11
   4  0.100  0.000  0.503- 101 2.11 102 2.11 118 2.11 121 2.11 104 2.11
   5  0.000  0.200  0.407- 107 2.11 103 2.11 108 2.11 188 2.11 105 2.11
   6  0.100  0.300  0.407- 108 2.11 107 2.11 112 2.11 127 2.11 106 2.11
   7  0.000  0.300  0.503- 105 2.11 106 2.11 109 2.11 186 2.11 107 2.11
   8  0.100  0.200  0.503- 106 2.11 105 2.11 102 2.11 125 2.11 108 2.11
   9  0.000  0.400  0.407- 107 2.11 111 2.11 112 2.11 192 2.11 109 2.11
  10  0.100  0.500  0.407- 111 2.11 112 2.11 116 2.11 131 2.11 110 2.11
  11  0.000  0.500  0.503- 109 2.11 110 2.11 113 2.11 190 2.11 111 2.11
  12  0.100  0.400  0.503- 106 2.11 109 2.11 110 2.11 129 2.11 112 2.11
  13  0.000  0.600  0.407- 111 2.11 115 2.11 116 2.11 196 2.11 113 2.11
  14  0.100  0.700  0.407- 120 2.11 116 2.11 115 2.11 135 2.11 114 2.11
  15  0.000  0.700  0.503- 117 2.11 114 2.11 113 2.11 194 2.11 115 2.11
  16  0.100  0.600  0.503- 110 2.11 113 2.11 114 2.11 133 2.11 116 2.11
  17  0.000  0.800  0.407- 115 2.11 119 2.11 120 2.11 200 2.11 117 2.11
  18  0.100  0.900  0.407- 104 2.11 119 2.11 120 2.11 139 2.11 118 2.11
  19  0.000  0.900  0.503- 101 2.11 117 2.11 118 2.11 198 2.11 119 2.11
  20  0.100  0.800  0.503- 114 2.11 117 2.11 118 2.11 137 2.11 120 2.11
  21  0.200  0.000  0.407- 124 2.11 123 2.11 104 2.11 139 2.11 121 2.11
  22  0.300  0.100  0.407- 123 2.11 124 2.11 128 2.11 143 2.11 122 2.11
  23  0.200  0.100  0.503- 122 2.11 121 2.11 102 2.11 125 2.11 123 2.11
  24  0.300  0.000  0.503- 121 2.11 122 2.11 138 2.11 141 2.11 124 2.11
  25  0.200  0.200  0.407- 127 2.11 128 2.11 108 2.11 123 2.11 125 2.11
  26  0.300  0.300  0.407- 127 2.11 128 2.11 132 2.11 147 2.11 126 2.11
  27  0.200  0.300  0.503- 125 2.11 126 2.11 106 2.11 129 2.11 127 2.11
  28  0.300  0.200  0.503- 125 2.11 126 2.11 122 2.11 145 2.11 128 2.11
  29  0.200  0.400  0.407- 132 2.11 127 2.11 131 2.11 112 2.11 129 2.11
  30  0.300  0.500  0.407- 131 2.11 132 2.11 136 2.11 151 2.11 130 2.11
  31  0.200  0.500  0.503- 130 2.11 129 2.11 110 2.11 133 2.11 131 2.11
  32  0.300  0.400  0.503- 129 2.11 126 2.11 130 2.11 149 2.11 132 2.11
  33  0.200  0.600  0.407- 136 2.11 131 2.11 135 2.11 116 2.11 133 2.11
  34  0.300  0.700  0.407- 135 2.11 140 2.11 136 2.11 155 2.11 134 2.11
  35  0.200  0.700  0.503- 134 2.11 137 2.11 114 2.11 133 2.11 135 2.11
  36  0.300  0.600  0.503- 133 2.11 130 2.11 134 2.11 153 2.11 136 2.11
  37  0.200  0.800  0.407- 135 2.11 140 2.11 139 2.11 120 2.11 137 2.11
  38  0.300  0.900  0.407- 139 2.11 124 2.11 140 2.11 159 2.11 138 2.11
  39  0.200  0.900  0.503- 138 2.11 121 2.11 137 2.11 118 2.11 139 2.11
  40  0.300  0.800  0.503- 134 2.11 137 2.11 138 2.11 157 2.11 140 2.11
  41  0.400  0.000  0.407- 124 2.11 143 2.11 144 2.11 159 2.11 141 2.11
  42  0.500  0.100  0.407- 143 2.11 144 2.11 148 2.11 163 2.11 142 2.11
  43  0.400  0.100  0.503- 122 2.11 141 2.11 142 2.11 145 2.11 143 2.11
  44  0.500  0.000  0.503- 141 2.11 142 2.11 158 2.11 161 2.11 144 2.11
  45  0.400  0.200  0.407- 147 2.11 143 2.11 128 2.11 148 2.11 145 2.11
  46  0.500  0.300  0.407- 148 2.11 147 2.11 152 2.11 167 2.11 146 2.11
  47  0.400  0.300  0.503- 145 2.11 126 2.11 146 2.11 149 2.11 147 2.11
  48  0.500  0.200  0.503- 146 2.11 145 2.11 142 2.11 165 2.11 148 2.11
  49  0.400  0.400  0.407- 132 2.11 147 2.11 151 2.11 152 2.11 149 2.11
  50  0.500  0.500  0.407- 151 2.11 152 2.11 156 2.11 171 2.11 150 2.11
  51  0.400  0.500  0.503- 130 2.11 149 2.11 150 2.11 153 2.11 151 2.11
  52  0.500  0.400  0.503- 146 2.11 149 2.11 150 2.11 169 2.11 152 2.11
  53  0.400  0.600  0.407- 136 2.11 151 2.11 155 2.11 156 2.11 153 2.11
  54  0.500  0.700  0.407- 160 2.11 156 2.11 155 2.11 175 2.11 154 2.11
  55  0.400  0.700  0.503- 157 2.11 153 2.11 154 2.11 134 2.11 155 2.11
  56  0.500  0.600  0.503- 150 2.11 153 2.11 154 2.11 173 2.11 156 2.11
  57  0.400  0.800  0.407- 155 2.11 140 2.11 159 2.11 160 2.11 157 2.11
  58  0.500  0.900  0.407- 144 2.11 159 2.11 160 2.11 179 2.11 158 2.11
  59  0.400  0.900  0.503- 138 2.11 141 2.11 157 2.11 158 2.11 159 2.11
  60  0.500  0.800  0.503- 154 2.11 157 2.11 158 2.11 177 2.11 160 2.11
[...]
 186  0.900  0.300  0.503-  88 2.11  87 2.11   7 2.11  92 2.11  86 2.11
 187  0.800  0.300  0.407-  66 2.11  85 2.11  86 2.11  89 2.11  87 2.11
 188  0.900  0.200  0.407-  86 2.11  82 2.11  85 2.11   5 2.11  88 2.11
 189  0.800  0.400  0.503-  72 2.11  87 2.11  91 2.11  92 2.11  89 2.11
 190  0.900  0.500  0.503-  11 2.11  91 2.11  92 2.11  96 2.11  90 2.11
 191  0.800  0.500  0.407-  70 2.11  89 2.11  90 2.11  93 2.11  91 2.11
 192  0.900  0.400  0.407-   9 2.11  86 2.11  89 2.11  90 2.11  92 2.11
 193  0.800  0.600  0.503-  76 2.11  91 2.11  95 2.11  96 2.11  93 2.11
 194  0.900  0.700  0.503- 100 2.11  95 2.11  96 2.11  15 2.11  94 2.11
 195  0.800  0.700  0.407-  74 2.11  97 2.11  94 2.11  93 2.11  95 2.11
 196  0.900  0.600  0.407-  13 2.11  90 2.11  93 2.11  94 2.11  96 2.11
 197  0.800  0.800  0.503-  80 2.11  95 2.11  99 2.11 100 2.11  97 2.11
 198  0.900  0.900  0.503-  19 2.11  84 2.11  99 2.11 100 2.11  98 2.11
 199  0.800  0.900  0.407-  78 2.11  81 2.11  97 2.11  98 2.11  99 2.11
 200  0.900  0.800  0.407-  94 2.11  17 2.11  97 2.11  98 2.11 100 2.11

  LATTYP: Found a simple tetragonal cell.
 ALAT       =    21.1388521970
 C/A-ratio  =     1.0461251639

  Lattice vectors:

 A1 = (  21.1388521970,   0.0000000000,   0.0000000000)
 A2 = (   0.0000000000,  21.1388521970,   0.0000000000)
 A3 = (   0.0000000000,   0.0000000000,  22.1138852197)

Analysis of symmetry for initial positions (statically):
 Subroutine PRICEL returns following result:

[...]

  50 primitive cells build up your supercell.

 Routine SETGRP: Setting up the symmetry group for a
 simple tetragonal supercell.

 Subroutine GETGRP returns: Found 16 space group operations
 (whereof  8 operations were pure point group operations)
 out of a pool of 16 trial point group operations.

The static configuration has the point symmetry C_4v.
 The point group associated with its full space group is D_4h.

Analysis of symmetry for dynamics (positions and initial velocities):
 Subroutine PRICEL returns following result:

  LATTYP: Found a simple tetragonal cell.
 ALAT       =     2.9894851470
 C/A-ratio  =     7.3972219738

  Lattice vectors:

 A1 = (   2.1138852197,  -2.1138852197,   0.0000000000)
 A2 = (   2.1138852197,   2.1138852197,   0.0000000000)
 A3 = (   0.0000000000,   0.0000000000,  22.1138852197)

  50 primitive cells build up your supercell.

 Routine SETGRP: Setting up the symmetry group for a
 simple tetragonal supercell.

 Subroutine GETGRP returns: Found 16 space group operations
 (whereof  8 operations were pure point group operations)
 out of a pool of 16 trial point group operations.

The dynamic configuration has the point symmetry C_4v.
 The point group associated with its full space group is D_4h.

 Subroutine INISYM returns: Found 16 space group operations
 (whereof  8 operations are pure point group operations),
 and found    50 'primitive' translations

                                     Primitive cell

  volume of cell :     197.6323

[...]
     41     -46.3570      2.00000
     42     -46.3570      2.00000
     43     -46.3570      2.00000
     44     -46.3570      2.00000
     45     -46.3570      2.00000
     46     -46.3538      2.00000
     47     -46.3538      2.00000
     48     -46.3538      2.00000
     49     -46.3538      2.00000
     50     -46.3533      2.00000
     51     -46.3533      2.00000
     52     -46.3533      2.00000
     53     -46.3533      2.00000
     54     -46.3533      2.00000
     55     -46.3533      2.00000
     56     -46.3533      2.00000
     57     -46.3533      2.00000
     58     -46.3527      2.00000
     59     -46.3527      2.00000
     60     -46.3527      2.00000
[...]
    850       5.1188      0.00000
    851       5.1339      0.00000
    852       5.1363      0.00000
    853       5.1414      0.00000
    854       5.1609      0.00000
    855       5.1767      0.00000
    856       5.1994      0.00000
    857       5.2220      0.00000
    858       5.2637      0.00000
    859       5.2647      0.00000
    860       5.3595      0.00000
    861       5.4569      0.00000
    862       5.4996      0.00000
    863       5.6033      0.00000
    864       5.7122      0.00000

 soft charge-density along one line, spin component           1
         0         1         2         3         4         5         6         7         8         9
 total charge-density along one line

------------------------ aborting loop because EDIFF is reached ----------------------------------------

 WARNING: Using user supplied parameters
     VDW_S8 = 1.703
     VDW_SR = 1.261
     because the xc functional is not supported. Required parameters not
     defined in the INCAR file will be replaced with PBE defaults ones.

         DFTD3 V3.0 Rev 1
 IVDW         = 11
 DF unknown
 parameters
 VDW_S6       =    1.0000
 VDW_S8       =    1.7030
 VDW_SR       =    1.2610
 rs18     =    1.0000
 alpha6   =   14.0000
 alpha8   =   16.0000
 k1-k3    =   16.0000    1.3333   -4.0000
 VDW_RADIUS   =   50.2022 A
 VDW_CNRADIUS =   21.1671 A
 Edisp (eV)  -32.09319

 E6    (eV) :    -6.7432
 E8    (eV) :   -25.3500
 % E8        : 78.99

 VOLUME and BASIS-vectors are now :
  energy-cutoff  :      520.00
  volume of cell :     9881.61
      direct lattice vectors                 reciprocal lattice vectors
    21.138852197  0.000000000  0.000000000     0.047306258  0.000000000  0.000000000
     0.000000000 21.138852197  0.000000000     0.000000000  0.047306258  0.000000000
     0.000000000  0.000000000 22.113885220     0.000000000  0.000000000  0.045220457

  length of vectors
    21.138852197 21.138852197 22.113885220     0.047306258  0.047306258  0.045220457

 FORCES acting on ions:
    Electron-Ion                     Ewald-Force                    Non-Local-Force
   0.136E-12 0.118E-12 0.926E+03   0.941E-13 0.746E-13 -.919E+03   0.109E-22 -.313E-23 -.668E+01
   -.309E-12 -.866E-12 0.926E+03   0.101E-09 0.101E-09 -.919E+03   0.256E-22 0.367E-23 -.668E+01
   0.128E-12 -.101E-11 -.926E+03   0.131E-12 0.101E-09 0.919E+03   0.210E-22 0.727E-24 0.668E+01
   -.272E-12 0.132E-12 -.926E+03   0.101E-09 0.515E-13 0.919E+03   -.880E-23 -.148E-22 0.668E+01
   0.150E-12 -.122E-11 0.926E+03   0.155E-10 -.470E-10 -.919E+03   -.479E-23 0.539E-22 -.668E+01
   -.354E-12 0.992E-12 0.926E+03   0.988E-10 0.268E-10 -.919E+03   0.311E-22 -.786E-24 -.668E+01
   0.106E-12 0.121E-11 -.926E+03   0.207E-11 0.268E-10 0.919E+03   0.244E-22 0.205E-22 0.668E+01
   -.289E-12 -.131E-11 -.926E+03   0.852E-10 -.471E-10 0.919E+03   0.240E-22 0.543E-22 0.668E+01
   0.128E-12 0.850E-12 0.926E+03   -.175E-10 -.803E-10 -.919E+03   0.333E-22 -.384E-23 -.668E+01
   -.379E-12 -.791E-12 0.926E+03   0.101E-09 0.123E-12 -.919E+03   -.781E-23 0.175E-22 -.668E+01
   0.894E-13 -.288E-12 -.926E+03   0.229E-12 0.266E-13 0.919E+03   0.558E-22 -.247E-22 0.668E+01
   -.330E-12 0.130E-11 -.926E+03   0.118E-09 -.804E-10 0.919E+03   0.203E-22 0.140E-22 0.668E+01
   0.126E-12 -.148E-11 0.926E+03   0.114E-11 0.950E-10 -.919E+03   -.465E-23 0.134E-22 -.668E+01
   -.354E-12 -.196E-11 0.926E+03   0.863E-10 -.402E-10 -.919E+03   -.401E-22 0.348E-23 -.668E+01
   0.884E-13 -.168E-11 -.926E+03   -.927E-12 -.402E-10 0.919E+03   -.418E-24 -.190E-22 0.668E+01
   -.329E-12 -.191E-11 -.926E+03   0.115E-09 0.843E-10 0.919E+03   0.493E-22 -.516E-23 0.668E+01
   0.104E-12 0.492E-12 0.926E+03   0.909E-12 0.253E-10 -.919E+03   -.233E-22 0.164E-22 -.668E+01
   -.340E-12 0.522E-12 0.926E+03   0.117E-09 -.800E-10 -.919E+03   0.109E-22 0.512E-22 -.668E+01
   0.818E-13 0.912E-12 -.926E+03   -.899E-12 -.799E-10 0.919E+03   0.349E-22 -.164E-22 0.668E+01
   -.320E-12 0.680E-12 -.926E+03   0.842E-10 0.360E-10 0.919E+03   -.107E-22 0.813E-23 0.668E+01
   -.584E-12 0.126E-12 0.926E+03   -.487E-10 0.293E-13 -.919E+03   0.985E-23 0.220E-22 -.668E+01
   0.388E-12 -.201E-11 0.926E+03   0.267E-10 0.993E-10 -.919E+03   0.158E-22 -.579E-23 -.668E+01
   -.730E-12 -.113E-11 -.926E+03   -.293E-10 0.892E-10 0.919E+03   0.294E-23 0.372E-23 0.668E+01
   0.382E-12 0.121E-12 -.926E+03   0.229E-10 0.528E-13 0.919E+03   -.143E-22 -.459E-23 0.668E+01
   -.641E-12 -.183E-12 0.926E+03   -.527E-10 -.477E-10 -.919E+03   -.636E-23 0.260E-23 -.668E+01
   0.369E-12 0.686E-12 0.926E+03   0.173E-10 0.245E-10 -.919E+03   -.405E-22 0.174E-22 -.668E+01
   -.774E-12 0.417E-12 -.926E+03   -.662E-10 0.274E-10 0.919E+03   0.225E-22 -.116E-22 0.668E+01
   0.345E-12 -.484E-13 -.926E+03   0.382E-11 -.448E-10 0.919E+03   0.679E-22 0.634E-23 0.668E+01
   -.681E-12 0.267E-11 0.926E+03   -.468E-10 -.689E-10 -.919E+03   -.798E-22 -.121E-23 -.668E+01
   0.389E-12 -.127E-11 0.926E+03   0.231E-10 0.426E-13 -.919E+03   -.114E-22 0.849E-23 -.668E+01
   -.784E-12 -.187E-11 -.926E+03   -.488E-10 -.853E-13 0.919E+03   0.287E-22 0.182E-22 0.668E+01
   0.336E-12 0.286E-11 -.926E+03   0.441E-10 -.788E-10 0.919E+03   0.685E-23 -.159E-22 0.668E+01
   -.654E-12 -.629E-12 0.926E+03   -.284E-10 0.833E-10 -.919E+03   -.430E-22 0.865E-23 -.668E+01
   0.424E-12 -.246E-11 0.926E+03   0.476E-11 -.380E-10 -.919E+03   0.137E-22 -.203E-23 -.668E+01
   -.726E-12 -.149E-11 -.926E+03   -.692E-10 -.410E-10 0.919E+03   0.156E-22 0.156E-22 0.668E+01
   0.383E-12 0.425E-12 -.926E+03   0.412E-10 0.828E-10 0.919E+03   -.258E-23 0.426E-22 0.668E+01
   -.589E-12 0.581E-12 0.926E+03   -.671E-10 0.258E-10 -.919E+03   -.746E-23 -.302E-22 -.668E+01
   0.447E-12 0.194E-12 0.926E+03   0.432E-10 -.785E-10 -.919E+03   -.889E-23 0.562E-23 -.668E+01
   -.690E-12 0.126E-12 -.926E+03   -.304E-10 -.686E-10 0.919E+03   -.446E-24 -.190E-22 0.668E+01
   0.411E-12 0.313E-11 -.926E+03   0.265E-11 0.337E-10 0.919E+03   0.122E-22 -.618E-23 0.668E+01
   0.310E-12 0.699E-13 0.926E+03   -.749E-10 0.857E-13 -.919E+03   -.270E-22 0.904E-23 -.668E+01
   -.209E-12 0.266E-12 0.926E+03   0.435E-11 0.991E-10 -.919E+03   0.169E-23 0.238E-22 -.668E+01
   0.407E-12 -.154E-10 -.926E+03   -.545E-10 0.890E-10 0.919E+03   0.108E-22 0.101E-22 0.668E+01
   -.253E-12 0.807E-13 -.926E+03   0.875E-13 0.546E-13 0.919E+03   0.885E-23 -.191E-23 0.668E+01
   0.332E-12 0.961E-11 0.926E+03   -.797E-10 -.471E-10 -.919E+03   -.264E-23 0.344E-22 -.668E+01
   -.163E-12 -.209E-11 0.926E+03   -.558E-11 0.243E-10 -.919E+03   -.226E-22 0.179E-22 -.668E+01
   0.429E-12 0.106E-10 -.926E+03   -.934E-10 0.267E-10 0.919E+03   0.701E-22 -.165E-22 0.668E+01
   -.223E-12 -.248E-11 -.926E+03   -.191E-10 -.447E-10 0.919E+03   0.230E-22 -.181E-22 0.668E+01
   0.340E-12 -.909E-11 0.926E+03   -.720E-10 -.686E-10 -.919E+03   -.658E-22 -.123E-22 -.668E+01
   -.149E-12 0.141E-11 0.926E+03   -.457E-13 0.941E-13 -.919E+03   0.103E-22 0.117E-23 -.668E+01
   0.432E-12 0.161E-10 -.926E+03   -.752E-10 -.200E-13 0.919E+03   0.413E-23 -.138E-22 0.668E+01
   -.194E-12 -.301E-11 -.926E+03   0.216E-10 -.786E-10 0.919E+03   -.242E-22 -.234E-23 0.668E+01
   0.342E-12 -.116E-10 0.926E+03   -.534E-10 0.832E-10 -.919E+03   0.218E-23 0.300E-23 -.668E+01
   -.202E-12 -.158E-11 0.926E+03   -.183E-10 -.378E-10 -.919E+03   -.351E-23 -.278E-22 -.668E+01
   0.432E-12 0.869E-11 -.926E+03   -.966E-10 -.403E-10 0.919E+03   0.795E-23 -.120E-22 0.668E+01
   -.221E-12 -.336E-11 -.926E+03   0.182E-10 0.826E-10 0.919E+03   0.570E-23 0.183E-23 0.668E+01
   0.340E-12 0.121E-10 0.926E+03   -.946E-10 0.252E-10 -.919E+03   -.252E-22 -.275E-22 -.668E+01
   -.211E-12 -.614E-11 0.926E+03   0.205E-10 -.784E-10 -.919E+03   -.208E-22 0.522E-23 -.668E+01
   0.417E-12 -.164E-10 -.926E+03   -.557E-10 -.683E-10 0.919E+03   0.599E-22 0.179E-22 0.668E+01
   -.245E-12 -.495E-12 -.926E+03   -.206E-10 0.335E-10 0.919E+03   0.641E-22 0.178E-23 0.668E+01
[...]
   0.546E-10 0.394E-10 0.696E+03   0.433E-10 0.495E-10 -.700E+03   0.724E-22 -.101E-21 0.319E+01
   0.314E-10 -.498E-10 0.696E+03   0.222E-11 -.613E-10 -.700E+03   0.156E-21 -.690E-22 0.319E+01
   0.548E-10 0.260E-10 -.696E+03   0.507E-10 -.136E-10 0.700E+03   0.398E-22 -.519E-22 -.319E+01
   0.314E-10 -.470E-11 -.696E+03   -.485E-11 0.104E-10 0.700E+03   -.406E-22 -.992E-22 -.319E+01
   0.546E-10 0.289E-10 0.696E+03   0.512E-10 -.166E-11 -.700E+03   0.180E-22 0.608E-22 0.319E+01
   0.315E-10 0.867E-10 0.696E+03   0.168E-11 -.149E-11 -.700E+03   -.161E-22 -.174E-22 0.319E+01
   0.547E-10 -.404E-10 -.696E+03   0.608E-10 0.120E-11 0.700E+03   0.505E-22 -.636E-22 -.319E+01
   0.314E-10 -.560E-10 -.696E+03   -.419E-11 -.488E-10 0.700E+03   -.278E-22 -.726E-22 -.319E+01
   0.546E-10 -.700E-10 0.696E+03   0.409E-10 -.598E-10 -.700E+03   0.291E-22 -.203E-24 0.319E+01
   0.315E-10 -.907E-10 0.696E+03   -.267E-12 0.700E-11 -.700E+03   0.433E-22 0.110E-21 0.319E+01
   0.548E-10 0.244E-10 -.696E+03   0.415E-10 0.415E-10 0.700E+03   0.434E-22 -.179E-22 -.319E+01
   0.314E-10 0.891E-10 -.696E+03   -.306E-11 -.298E-11 0.700E+03   -.171E-22 -.321E-22 -.319E+01
   0.546E-10 0.350E-10 0.696E+03   0.621E-10 0.568E-11 -.700E+03   -.182E-22 -.752E-22 0.319E+01
   0.315E-10 0.516E-10 0.696E+03   0.277E-12 0.562E-10 -.700E+03   -.216E-22 0.667E-22 0.319E+01
   0.113E-10 -.166E-10 0.776E-02   0.439E-11 -.322E-12 0.239E-11   0.185E-20 -.153E-20 -.116E-11

 POSITION                                       TOTAL-FORCE (eV/Angst)
      0.00000      0.00000      9.00000         0.000000     -0.000000      0.420973
      2.11389      2.11389      9.00000         0.000000     -0.000000      0.420973
      0.00000      2.11389     11.11389         0.000000      0.000000     -0.420973
      2.11389      0.00000     11.11389         0.000000     -0.000000     -0.420973
      0.00000      4.22777      9.00000        -0.000000     -0.000000      0.420973
      2.11389      6.34166      9.00000         0.000000     -0.000000      0.420973
      0.00000      6.34166     11.11389         0.000000     -0.000000     -0.420973
      2.11389      4.22777     11.11389        -0.000000      0.000000     -0.420973
      0.00000      8.45554      9.00000        -0.000000      0.000000      0.420973
      2.11389     10.56943      9.00000         0.000000      0.000000      0.420973
      0.00000     10.56943     11.11389         0.000000     -0.000000     -0.420973
      2.11389      8.45554     11.11389         0.000000     -0.000000     -0.420973
      0.00000     12.68331      9.00000         0.000000      0.000000      0.420973
      2.11389     14.79720      9.00000         0.000000     -0.000000      0.420973
      0.00000     14.79720     11.11389         0.000000     -0.000000     -0.420973
      2.11389     12.68331     11.11389         0.000000     -0.000000     -0.420973
      0.00000     16.91108      9.00000         0.000000     -0.000000      0.420973
      2.11389     19.02497      9.00000        -0.000000      0.000000      0.420973
      0.00000     19.02497     11.11389         0.000000      0.000000     -0.420973
      2.11389     16.91108     11.11389        -0.000000      0.000000     -0.420973
      4.22777      0.00000      9.00000        -0.000000     -0.000000      0.420973
      6.34166      2.11389      9.00000        -0.000000     -0.000000      0.420973
      4.22777      2.11389     11.11389         0.000000     -0.000000     -0.420973
      6.34166      0.00000     11.11389        -0.000000      0.000000     -0.420973
      4.22777      4.22777      9.00000         0.000000     -0.000000      0.420973
      6.34166      6.34166      9.00000        -0.000000     -0.000000      0.420973
      4.22777      6.34166     11.11389        -0.000000      0.000000     -0.420973
      6.34166      4.22777     11.11389         0.000000     -0.000000     -0.420973
      4.22777      8.45554      9.00000        -0.000000     -0.000000      0.420973
      6.34166     10.56943      9.00000         0.000000      0.000000      0.420973
      4.22777     10.56943     11.11389         0.000000     -0.000000     -0.420973
      6.34166      8.45554     11.11389        -0.000000     -0.000000     -0.420973
      4.22777     12.68331      9.00000        -0.000000      0.000000      0.420973
      6.34166     14.79720      9.00000         0.000000     -0.000000      0.420973
      4.22777     14.79720     11.11389         0.000000     -0.000000     -0.420973
      6.34166     12.68331     11.11389         0.000000     -0.000000     -0.420973
      4.22777     16.91108      9.00000         0.000000      0.000000      0.420973
      6.34166     19.02497      9.00000         0.000000      0.000000      0.420973
      4.22777     19.02497     11.11389        -0.000000     -0.000000     -0.420973
      6.34166     16.91108     11.11389         0.000000     -0.000000     -0.420973
      8.45554      0.00000      9.00000        -0.000000      0.000000      0.420973
     10.56943      2.11389      9.00000        -0.000000      0.000000      0.420973
      8.45554      2.11389     11.11389        -0.000000      0.000000     -0.420973
     10.56943      0.00000     11.11389        -0.000000      0.000000     -0.420973
      8.45554      4.22777      9.00000        -0.000000      0.000000      0.420973
     10.56943      6.34166      9.00000        -0.000000     -0.000000      0.420973
      8.45554      6.34166     11.11389         0.000000     -0.000000     -0.420973
     10.56943      4.22777     11.11389        -0.000000      0.000000     -0.420973
      8.45554      8.45554      9.00000        -0.000000      0.000000      0.420973
     10.56943     10.56943      9.00000        -0.000000     -0.000000      0.420973
      8.45554     10.56943     11.11389         0.000000     -0.000000     -0.420973
     10.56943      8.45554     11.11389         0.000000      0.000000     -0.420973
      8.45554     12.68331      9.00000        -0.000000     -0.000000      0.420973
     10.56943     14.79720      9.00000        -0.000000     -0.000000      0.420973
      8.45554     14.79720     11.11389         0.000000     -0.000000     -0.420973
     10.56943     12.68331     11.11389         0.000000     -0.000000     -0.420973
      8.45554     16.91108      9.00000         0.000000      0.000000      0.420973
     10.56943     19.02497      9.00000        -0.000000     -0.000000      0.420973
      8.45554     19.02497     11.11389        -0.000000      0.000000     -0.420973
     10.56943     16.91108     11.11389         0.000000     -0.000000     -0.420973
[...]
     19.02497      6.34166     11.11389        -0.000000     -0.000000      0.404570
     16.91108      6.34166      9.00000        -0.000000     -0.000000     -0.404570
     19.02497      4.22777      9.00000        -0.000000      0.000000     -0.404570
     16.91108      8.45554     11.11389        -0.000000      0.000000      0.404570
     19.02497     10.56943     11.11389         0.000000     -0.000000      0.404570
     16.91108     10.56943      9.00000        -0.000000     -0.000000     -0.404570
     19.02497      8.45554      9.00000        -0.000000     -0.000000     -0.404570
     16.91108     12.68331     11.11389         0.000000      0.000000      0.404570
     19.02497     14.79720     11.11389        -0.000000     -0.000000      0.404570
     16.91108     14.79720      9.00000        -0.000000      0.000000     -0.404570
     19.02497     12.68331      9.00000        -0.000000      0.000000     -0.404570
     16.91108     16.91108     11.11389         0.000000     -0.000000      0.404570
     19.02497     19.02497     11.11389         0.000000      0.000000      0.404570
     16.91108     19.02497      9.00000        -0.000000      0.000000     -0.404570
     19.02497     16.91108      9.00000        -0.000000      0.000000     -0.404570
    total drift:                                0.000000     -0.000000      0.007763

  FREE ENERGIE OF THE ION-ELECTRON SYSTEM (eV)
  free  energy   TOTEN  =     -1361.40695462 eV

  energy  without entropy=    -1361.40695462  energy(sigma->0) =    -1361.40695462