 vasp.6.3.0 20Jan22 (build Apr  1 2022 16:44:48) complex
 executed on        HPECrayEX_GCC date 2022.08.15  20:28:29

 INCAR:
   SYSTEM = MgO-rocksalt
   ISMEAR = 0
   SIGMA = 0.05
   EDIFF = 1E-6
   ALGO = ALL
   ISTART = 0
   IBRION = -1
   NSW = 0
   ISYM = 2
   DIPOL = 0.5 0.5 0.5
   IDIPOL = 3
   LDIPOL = .TRUE.
   GGA = MK
   PARAM1 = 0.1234
   PARAM2 = 1.0
   LUSE_VDW = .TRUE.
   AGGAC = 0.0
   ENCUT = 520
   PREC = Accurate
   LASPH = .TRUE.
   LREAL = Auto
   ISPIN = 1
   NELM = 200
   NELMIN = 8
   NCORE = 4
   KPAR = 2
   LWAVE = .FALSE.
   LCHARG = .FALSE.

 POTCAR:    PAW_PBE Au 04Oct2007
 POTCAR:    PAW_PBE Mg_pv 13Apr2007
 POTCAR:    PAW_PBE O 08Apr2002
|               ----> ADVICE to this user running VASP <----                  |
|     You have switched on vdW-DFT.                                           |
|     This routine was written and supplied by Jiri Klimes. We recommend      |
|     that you carefully read and cite the following publications:            |
|       J. Klimes, D.R. Bowler, A. Michelides                                 |
|          J. Phys.: Cond Matt. 22 022201 (2010)                              |
|       J. Klimes, D.R. Bowler, A. Michelides                                 |
|          Phys. Rev. B. 83, 195131 (2011)                                    |
|     and references therein.                                                 |

   TITEL  = PAW_PBE Au 04Oct2007
   POMASS =  196.966; ZVAL   =   11.000    mass and valenz
   ENMAX  =  229.943; ENMIN  =  172.457 eV

   TITEL  = PAW_PBE Mg_pv 13Apr2007
   POMASS =   24.305; ZVAL   =    8.000    mass and valenz
   ENMAX  =  403.929; ENMIN  =  302.947 eV

   TITEL  = PAW_PBE O 08Apr2002
   POMASS =   16.000; ZVAL   =    6.000    mass and valenz
   ENMAX  =  400.000; ENMIN  =  300.000 eV

 Optimization of the real space projectors (new method)

 maximal supplied QI-value         = 15.12
 optimisation between [QCUT,QGAM] = [ 11.64, 23.28] = [ 37.95,151.78] Ry
 Optimized for a Real-space Cutoff    1.49 Angstroem

   l    n(q)    QCUT    max X(q) W(low)/X(q) W(high)/X(q)  e(spline)
   2      9    11.641    60.898    0.24E-03    0.10E-03    0.19E-06
   2      9    11.641    58.894    0.25E-03    0.10E-03    0.19E-06
   0     10    11.641   109.617    0.73E-04    0.33E-04    0.11E-06
   0     10    11.641    75.026    0.71E-04    0.32E-04    0.11E-06
   1     10    11.641    16.344    0.27E-04    0.97E-04    0.16E-06
   1     10    11.641    10.160    0.23E-04    0.77E-04    0.13E-06
 Optimization of the real space projectors (new method)

[...]

   l    n(q)    QCUT    max X(q) W(low)/X(q) W(high)/X(q)  e(spline)
   1      8    11.527     2.974    0.44E-04    0.56E-04    0.12E-06
   1      8    11.527     4.279    0.12E-03    0.12E-03    0.26E-06
   0      9    11.527    16.381    0.46E-04    0.64E-04    0.78E-07
   0      9    11.527     5.611    0.26E-04    0.43E-04    0.55E-07
   2      8    11.527     4.652    0.22E-03    0.72E-04    0.47E-07
 Optimization of the real space projectors (new method)

 maximal supplied QI-value         = 24.76
 optimisation between [QCUT,QGAM] = [ 11.64, 23.27] = [ 37.91,151.63] Ry
 Optimized for a Real-space Cutoff    1.14 Angstroem

   l    n(q)    QCUT    max X(q) W(low)/X(q) W(high)/X(q)  e(spline)
   0      8    11.635    20.381    0.10E-03    0.33E-03    0.24E-06
   0      8    11.635    15.268    0.11E-03    0.35E-03    0.26E-06
   1      7    11.635     5.964    0.24E-03    0.31E-03    0.30E-06
   1      7    11.635     5.382    0.22E-03    0.25E-03    0.26E-06
|               ----> ADVICE to this user running VASP <----                  |
|     You enforced a specific xc type in the INCAR file but a different       |
|     type was found in the POTCAR file.                                      |
|     I HOPE YOU KNOW WHAT YOU ARE DOING!                                     |

  PAW_PBE Au 04Oct2007                  :
  PAW_PBE Mg_pv 13Apr2007               :
  PAW_PBE O 08Apr2002                   :

 POSCAR: Au Mg  O
  positions in direct lattice
 exchange correlation table for  LEXCH =       43
   RHO(1)=    0.500       N(1)  =     2000
   RHO(2)=  100.500       N(2)  =     4000

 ion  position               nearest neighbor table
   1  0.543  0.557  0.621-   2 2.56  58 2.91
   2  0.457  0.643  0.621-   1 2.56  58 2.91
   3  0.000  0.000  0.407- 105 2.11 106 2.11 121 2.11 186 2.11 103 2.11
   4  0.100  0.100  0.407- 105 2.11 106 2.11 110 2.11 125 2.11 104 2.11
   5  0.000  0.100  0.503- 103 2.11 104 2.11 107 2.11 184 2.11 105 2.11
   6  0.100  0.000  0.503- 103 2.11 104 2.11 120 2.11 123 2.11 106 2.11
   7  0.000  0.200  0.407- 109 2.11 105 2.11 110 2.11 190 2.11 107 2.11
   8  0.100  0.300  0.407- 110 2.11 109 2.11 114 2.11 129 2.11 108 2.11
   9  0.000  0.300  0.503- 107 2.11 108 2.11 111 2.11 188 2.11 109 2.11
  10  0.100  0.200  0.503- 108 2.11 107 2.11 104 2.11 127 2.11 110 2.11
  11  0.000  0.400  0.407- 109 2.11 113 2.11 114 2.11 194 2.11 111 2.11
  12  0.100  0.500  0.407- 113 2.11 114 2.11 118 2.11 133 2.11 112 2.11
  13  0.000  0.500  0.503- 111 2.11 112 2.11 115 2.11 192 2.11 113 2.11
  14  0.100  0.400  0.503- 108 2.11 111 2.11 112 2.11 131 2.11 114 2.11
  15  0.000  0.600  0.407- 113 2.11 117 2.11 118 2.11 198 2.11 115 2.11
  16  0.100  0.700  0.407- 122 2.11 118 2.11 117 2.11 137 2.11 116 2.11
  17  0.000  0.700  0.503- 119 2.11 116 2.11 115 2.11 196 2.11 117 2.11
  18  0.100  0.600  0.503- 112 2.11 115 2.11 116 2.11 135 2.11 118 2.11
  19  0.000  0.800  0.407- 117 2.11 121 2.11 122 2.11 202 2.11 119 2.11
  20  0.100  0.900  0.407- 106 2.11 121 2.11 122 2.11 141 2.11 120 2.11
  21  0.000  0.900  0.503- 103 2.11 119 2.11 120 2.11 200 2.11 121 2.11
  22  0.100  0.800  0.503- 116 2.11 119 2.11 120 2.11 139 2.11 122 2.11
  23  0.200  0.000  0.407- 126 2.11 125 2.11 106 2.11 141 2.11 123 2.11
  24  0.300  0.100  0.407- 125 2.11 126 2.11 130 2.11 145 2.11 124 2.11
  25  0.200  0.100  0.503- 124 2.11 123 2.11 104 2.11 127 2.11 125 2.11
  26  0.300  0.000  0.503- 123 2.11 124 2.11 140 2.11 143 2.11 126 2.11
  27  0.200  0.200  0.407- 129 2.11 130 2.11 110 2.11 125 2.11 127 2.11
  28  0.300  0.300  0.407- 129 2.11 130 2.11 134 2.11 149 2.11 128 2.11
  29  0.200  0.300  0.503- 127 2.11 128 2.11 108 2.11 131 2.11 129 2.11
  30  0.300  0.200  0.503- 127 2.11 128 2.11 124 2.11 147 2.11 130 2.11
  31  0.200  0.400  0.407- 134 2.11 129 2.11 133 2.11 114 2.11 131 2.11
  32  0.300  0.500  0.407- 133 2.11 134 2.11 138 2.11 153 2.11 132 2.11
  33  0.200  0.500  0.503- 132 2.11 131 2.11 112 2.11 135 2.11 133 2.11
  34  0.300  0.400  0.503- 131 2.11 128 2.11 132 2.11 151 2.11 134 2.11
  35  0.200  0.600  0.407- 138 2.11 133 2.11 137 2.11 118 2.11 135 2.11
  36  0.300  0.700  0.407- 137 2.11 142 2.11 138 2.11 157 2.11 136 2.11
  37  0.200  0.700  0.503- 136 2.11 139 2.11 116 2.11 135 2.11 137 2.11
  38  0.300  0.600  0.503- 135 2.11 132 2.11 136 2.11 155 2.11 138 2.11
  39  0.200  0.800  0.407- 137 2.11 142 2.11 141 2.11 122 2.11 139 2.11
  40  0.300  0.900  0.407- 141 2.11 126 2.11 142 2.11 161 2.11 140 2.11
  41  0.200  0.900  0.503- 140 2.11 123 2.11 139 2.11 120 2.11 141 2.11
  42  0.300  0.800  0.503- 136 2.11 139 2.11 140 2.11 159 2.11 142 2.11
  43  0.400  0.000  0.407- 126 2.11 145 2.11 146 2.11 161 2.11 143 2.11
  44  0.500  0.100  0.407- 145 2.11 146 2.11 150 2.11 165 2.11 144 2.11
  45  0.400  0.100  0.503- 124 2.11 143 2.11 144 2.11 147 2.11 145 2.11
  46  0.500  0.000  0.503- 143 2.11 144 2.11 160 2.11 163 2.11 146 2.11
  47  0.400  0.200  0.407- 149 2.11 145 2.11 130 2.11 150 2.11 147 2.11
  48  0.500  0.300  0.407- 150 2.11 149 2.11 154 2.11 169 2.11 148 2.11
  49  0.400  0.300  0.503- 147 2.11 128 2.11 148 2.11 151 2.11 149 2.11
  50  0.500  0.200  0.503- 148 2.11 147 2.11 144 2.11 167 2.11 150 2.11
  51  0.400  0.400  0.407- 134 2.11 149 2.11 153 2.11 154 2.11 151 2.11
  52  0.500  0.500  0.407- 153 2.11 154 2.11 158 2.11 173 2.11 152 2.11
  53  0.400  0.500  0.503- 132 2.11 151 2.11 152 2.11 155 2.11 153 2.11
  54  0.500  0.400  0.503- 148 2.11 151 2.11 152 2.11 171 2.11 154 2.11
  55  0.400  0.600  0.407- 138 2.11 153 2.11 157 2.11 158 2.11 155 2.11
  56  0.500  0.700  0.407- 162 2.11 158 2.11 157 2.11 177 2.11 156 2.11
  57  0.400  0.700  0.503- 159 2.11 155 2.11 156 2.11 136 2.11 157 2.11
  58  0.500  0.600  0.503- 152 2.11 155 2.11 156 2.11 175 2.11 158 2.11   2 2.91   1 2.91
  59  0.400  0.800  0.407- 157 2.11 142 2.11 161 2.11 162 2.11 159 2.11
  60  0.500  0.900  0.407- 146 2.11 161 2.11 162 2.11 181 2.11 160 2.11
[...]
 188  0.900  0.300  0.503-  90 2.11  89 2.11   9 2.11  94 2.11  88 2.11
 189  0.800  0.300  0.407-  68 2.11  87 2.11  88 2.11  91 2.11  89 2.11
 190  0.900  0.200  0.407-  88 2.11  84 2.11  87 2.11   7 2.11  90 2.11
 191  0.800  0.400  0.503-  74 2.11  89 2.11  93 2.11  94 2.11  91 2.11
 192  0.900  0.500  0.503-  13 2.11  93 2.11  94 2.11  98 2.11  92 2.11
 193  0.800  0.500  0.407-  72 2.11  91 2.11  92 2.11  95 2.11  93 2.11
 194  0.900  0.400  0.407-  11 2.11  88 2.11  91 2.11  92 2.11  94 2.11
 195  0.800  0.600  0.503-  78 2.11  93 2.11  97 2.11  98 2.11  95 2.11
 196  0.900  0.700  0.503- 102 2.11  97 2.11  98 2.11  17 2.11  96 2.11
 197  0.800  0.700  0.407-  76 2.11  99 2.11  96 2.11  95 2.11  97 2.11
 198  0.900  0.600  0.407-  15 2.11  92 2.11  95 2.11  96 2.11  98 2.11
 199  0.800  0.800  0.503-  82 2.11  97 2.11 101 2.11 102 2.11  99 2.11
 200  0.900  0.900  0.503-  21 2.11  86 2.11 101 2.11 102 2.11 100 2.11
 201  0.800  0.900  0.407-  80 2.11  83 2.11  99 2.11 100 2.11 101 2.11
 202  0.900  0.800  0.407-  96 2.11  19 2.11  99 2.11 100 2.11 102 2.11

  LATTYP: Found a simple tetragonal cell.
 ALAT       =    21.1388521970
 C/A-ratio  =     1.0461251639

  Lattice vectors:

 A1 = (  21.1388521970,   0.0000000000,   0.0000000000)
 A2 = (   0.0000000000,  21.1388521970,   0.0000000000)
 A3 = (   0.0000000000,   0.0000000000,  22.1138852197)

Analysis of symmetry for initial positions (statically):
 Subroutine PRICEL returns:
 Original cell was already a primitive cell.

 Routine SETGRP: Setting up the symmetry group for a
 simple tetragonal supercell.

 Subroutine GETGRP returns: Found  4 space group operations
 (whereof  1 operations were pure point group operations)
 out of a pool of 16 trial point group operations.

The static configuration has the point symmetry C_1 .
 The point group associated with its full space group is C_2v.

Analysis of symmetry for dynamics (positions and initial velocities):
 Subroutine PRICEL returns:
 Original cell was already a primitive cell.

 Routine SETGRP: Setting up the symmetry group for a
 simple tetragonal supercell.

 Subroutine GETGRP returns: Found  4 space group operations
 (whereof  1 operations were pure point group operations)
 out of a pool of 16 trial point group operations.

The dynamic configuration has the point symmetry C_1 .
 The point group associated with its full space group is C_2v.

 Subroutine INISYM returns: Found  4 space group operations
 (whereof  1 operations are pure point group operations),
 and found     1 'primitive' translations

                                     Primitive cell

  volume of cell :    9881.6133

[...]
     52     -43.2155      2.00000
     53     -43.2152      2.00000
     54     -43.2147      2.00000
     55     -43.2146      2.00000
     56     -43.2141      2.00000
     57     -43.2141      2.00000
     58     -43.2130      2.00000
     59     -43.2128      2.00000
     60     -43.2125      2.00000
[...]
    882       4.1909      0.00000
    883       4.3380      0.00000
    884       4.3541      0.00000
    885       4.3741      0.00000
    886       4.3901      0.00000
    887       4.5655      0.00000
    888       4.6172      0.00000
    889       4.7111      0.00000
    890       4.7396      0.00000
    891       4.8028      0.00000
    892       4.9619      0.00000
    893       5.0916      0.00000
    894       5.1873      0.00000
    895       5.2333      0.00000
    896       5.3295      0.00000

 soft charge-density along one line, spin component           1
         0         1         2         3         4         5         6         7         8         9
 total charge-density along one line

------------------------ aborting loop because EDIFF is reached ----------------------------------------

  FORCE on cell =-STRESS in cart. coord.  units (eV):
  Direction    XX          YY          ZZ          XY          YZ          ZX
  Alpha Z  1365.75682  1365.75682  1365.75682
  Ewald  479770.72537479770.72537************  -347.00501     0.00001    -0.00001
  Hartree508196.66400508196.66400************  -233.24488     0.00000    -0.00002
  E(xc)   -7753.39509 -7753.39509 -7753.29894    -0.19831    -0.00000     0.00000
  Local  ************************************   568.28111    -0.00001     0.00003
  n-local -8814.11555 -8814.11556 -8922.85906     5.51472    -0.00000     0.00000
  augment  3417.76921  3417.76921  3358.78112     1.71090     0.00000    -0.00000
  Kinetic 22995.60555 22995.60554 23231.82751     4.80377     0.00000     0.00000
  Fock        0.00000     0.00000     0.00000     0.00000     0.00000     0.00000
  Total    -187.12626  -187.12626     0.00135    -0.13769     0.00000     0.00000
  in kB     -30.34013   -30.34013     0.00022    -0.02232     0.00000     0.00000

 VOLUME and BASIS-vectors are now :
  energy-cutoff  :      520.00
  volume of cell :     9881.61
      direct lattice vectors                 reciprocal lattice vectors
    21.138852197  0.000000000  0.000000000     0.047306258  0.000000000  0.000000000
     0.000000000 21.138852197  0.000000000     0.000000000  0.047306258  0.000000000
     0.000000000  0.000000000 22.113885220     0.000000000  0.000000000  0.045220457

  length of vectors
    21.138852197 21.138852197 22.113885220     0.047306258  0.047306258  0.045220457

 FORCES acting on ions:
    Electron-Ion                     Ewald-Force                    Non-Local-Force
   -.192E+03 0.192E+03 -.208E+04   0.188E+03 -.188E+03 0.208E+04   0.395E+01 -.395E+01 0.166E+00
   0.192E+03 -.192E+03 -.208E+04   -.188E+03 0.188E+03 0.208E+04   -.395E+01 0.395E+01 0.166E+00
   0.203E+00 -.347E+01 0.931E+03   -.205E+00 0.348E+01 -.923E+03   0.201E-02 -.446E-02 -.726E+01
   0.347E+01 -.203E+00 0.931E+03   -.348E+01 0.205E+00 -.923E+03   0.446E-02 -.201E-02 -.726E+01
   -.127E-07 -.186E-03 -.923E+03   0.101E-06 -.159E-05 0.915E+03   0.000E+00 0.000E+00 0.722E+01
   0.533E+01 -.533E+01 -.922E+03   -.533E+01 0.533E+01 0.914E+03   0.657E-02 -.657E-02 0.722E+01
   -.203E+00 0.347E+01 0.931E+03   0.205E+00 -.348E+01 -.923E+03   -.201E-02 0.446E-02 -.726E+01
   0.527E+01 0.675E+01 0.933E+03   -.528E+01 -.676E+01 -.925E+03   0.678E-02 0.912E-02 -.726E+01
   -.565E+00 0.719E+01 -.922E+03   0.571E+00 -.720E+01 0.914E+03   -.477E-02 0.517E-02 0.722E+01
   0.472E+01 0.472E+01 -.922E+03   -.473E+01 -.473E+01 0.915E+03   0.189E-02 0.189E-02 0.722E+01
   -.469E+00 0.617E+01 0.934E+03   0.476E+00 -.618E+01 -.926E+03   -.510E-02 0.766E-02 -.726E+01
   0.102E+02 0.522E+01 0.937E+03   -.103E+02 -.523E+01 -.930E+03   0.257E-01 0.989E-02 -.727E+01
   -.543E+00 0.503E+01 -.919E+03   0.548E+00 -.503E+01 0.912E+03   -.442E-02 0.328E-02 0.722E+01
   0.105E+02 0.972E+01 -.919E+03   -.105E+02 -.973E+01 0.912E+03   0.613E-02 0.746E-02 0.722E+01
   0.238E-06 -.190E-03 0.936E+03   -.146E-06 0.155E-05 -.928E+03   0.000E+00 0.000E+00 -.726E+01
   0.111E+02 -.468E+01 0.938E+03   -.112E+02 0.469E+01 -.930E+03   0.380E-01 -.498E-02 -.727E+01
   0.543E+00 -.503E+01 -.919E+03   -.548E+00 0.503E+01 0.912E+03   0.442E-02 -.328E-02 0.722E+01
   0.175E+02 0.742E+00 -.916E+03   -.175E+02 -.747E+00 0.909E+03   0.221E-01 0.402E-02 0.721E+01
   0.469E+00 -.617E+01 0.934E+03   -.476E+00 0.618E+01 -.926E+03   0.510E-02 -.766E-02 -.726E+01
   0.610E+01 -.709E+01 0.933E+03   -.612E+01 0.710E+01 -.926E+03   0.144E-01 -.120E-01 -.726E+01
   0.565E+00 -.719E+01 -.922E+03   -.571E+00 0.720E+01 0.914E+03   0.477E-02 -.517E-02 0.722E+01
   0.124E+02 -.985E+01 -.919E+03   -.124E+02 0.986E+01 0.911E+03   0.210E-01 -.681E-02 0.722E+01
   0.709E+01 -.610E+01 0.933E+03   -.710E+01 0.612E+01 -.926E+03   0.120E-01 -.144E-01 -.726E+01
   0.617E+01 -.470E+00 0.934E+03   -.618E+01 0.476E+00 -.926E+03   0.766E-02 -.510E-02 -.726E+01
   0.719E+01 -.565E+00 -.922E+03   -.720E+01 0.571E+00 0.914E+03   0.517E-02 -.477E-02 0.722E+01
   0.985E+01 -.124E+02 -.919E+03   -.986E+01 0.124E+02 0.911E+03   0.681E-02 -.210E-01 0.722E+01
   0.675E+01 0.527E+01 0.933E+03   -.676E+01 -.528E+01 -.925E+03   0.912E-02 0.678E-02 -.726E+01
   0.117E+02 0.149E+02 0.940E+03   -.117E+02 -.150E+02 -.932E+03   0.263E-01 0.359E-01 -.727E+01
   0.133E+02 0.133E+02 -.919E+03   -.133E+02 -.133E+02 0.911E+03   0.939E-02 0.939E-02 0.721E+01
   0.972E+01 0.105E+02 -.919E+03   -.973E+01 -.105E+02 0.912E+03   0.746E-02 0.613E-02 0.722E+01
   0.149E+02 0.117E+02 0.940E+03   -.150E+02 -.117E+02 -.932E+03   0.359E-01 0.263E-01 -.727E+01
   0.290E+02 0.162E+02 0.961E+03   -.292E+02 -.163E+02 -.953E+03   0.150E+00 0.742E-01 -.730E+01
   0.333E+02 0.141E+02 -.910E+03   -.334E+02 -.142E+02 0.902E+03   0.397E-01 0.160E-01 0.720E+01
   0.320E+02 0.320E+02 -.905E+03   -.321E+02 -.321E+02 0.898E+03   0.352E-01 0.352E-01 0.719E+01
   0.243E+02 0.113E+01 0.948E+03   -.244E+02 -.115E+01 -.940E+03   0.105E+00 0.906E-02 -.728E+01
   0.309E+02 -.144E+02 0.965E+03   -.310E+02 0.145E+02 -.957E+03   0.101E+00 -.564E-01 -.725E+01
   0.374E+02 -.120E+02 -.907E+03   -.375E+02 0.120E+02 0.900E+03   0.733E-01 -.186E-02 0.720E+01
   0.794E+02 0.827E+01 -.870E+03   -.797E+02 -.832E+01 0.863E+03   0.272E+00 0.368E-01 0.716E+01
   0.164E+02 -.120E+02 0.941E+03   -.165E+02 0.120E+02 -.934E+03   0.453E-01 -.281E-01 -.726E+01
   0.120E+02 -.164E+02 0.941E+03   -.120E+02 0.165E+02 -.934E+03   0.281E-01 -.453E-01 -.726E+01
   0.149E+02 -.149E+02 -.918E+03   -.149E+02 0.149E+02 0.910E+03   0.191E-01 -.191E-01 0.722E+01
   0.369E+02 -.369E+02 -.899E+03   -.370E+02 0.370E+02 0.892E+03   0.594E-01 -.594E-01 0.720E+01
   0.468E+01 -.111E+02 0.938E+03   -.469E+01 0.112E+02 -.930E+03   0.498E-02 -.380E-01 -.727E+01
   0.234E-06 -.184E-03 0.936E+03   -.139E-06 -.416E-05 -.928E+03   0.000E+00 0.000E+00 -.726E+01
   0.503E+01 -.543E+00 -.919E+03   -.503E+01 0.548E+00 0.912E+03   0.328E-02 -.442E-02 0.722E+01
   -.742E+00 -.175E+02 -.916E+03   0.747E+00 0.175E+02 0.909E+03   -.402E-02 -.221E-01 0.721E+01
   0.522E+01 0.102E+02 0.937E+03   -.523E+01 -.103E+02 -.930E+03   0.989E-02 0.257E-01 -.727E+01
   0.113E+01 0.243E+02 0.948E+03   -.115E+01 -.244E+02 -.940E+03   0.906E-02 0.105E+00 -.728E+01
   0.141E+02 0.333E+02 -.910E+03   -.142E+02 -.334E+02 0.902E+03   0.160E-01 0.397E-01 0.720E+01
   0.742E+00 0.175E+02 -.916E+03   -.747E+00 -.175E+02 0.909E+03   0.402E-02 0.221E-01 0.721E+01
   0.162E+02 0.290E+02 0.961E+03   -.163E+02 -.292E+02 -.953E+03   0.742E-01 0.150E+00 -.730E+01
   0.317E+01 0.312E+02 0.100E+04   -.309E+01 -.313E+02 -.995E+03   -.535E-01 0.117E+00 -.693E+01
   0.710E+02 0.710E+02 -.837E+03   -.714E+02 -.714E+02 0.830E+03   0.278E+00 0.278E+00 0.701E+01
   0.827E+01 0.794E+02 -.870E+03   -.832E+01 -.797E+02 0.863E+03   0.368E-01 0.272E+00 0.716E+01
   0.312E+02 0.317E+01 0.100E+04   -.313E+02 -.309E+01 -.995E+03   0.117E+00 -.535E-01 -.693E+01
   -.317E+01 -.312E+02 0.100E+04   0.309E+01 0.313E+02 -.995E+03   0.535E-01 -.117E+00 -.693E+01
   0.782E+02 -.782E+02 -.793E+03   -.784E+02 0.784E+02 0.786E+03   0.136E+00 -.136E+00 0.654E+01
   -.224E-04 -.245E-03 -.657E+03   0.225E-04 0.543E-04 0.653E+03   0.000E+00 0.000E+00 0.430E+01
   0.144E+02 -.309E+02 0.965E+03   -.145E+02 0.310E+02 -.957E+03   0.564E-01 -.101E+00 -.725E+01
   -.113E+01 -.243E+02 0.948E+03   0.115E+01 0.244E+02 -.940E+03   -.906E-02 -.105E+00 -.728E+01
[...]
   -.800E+01 0.799E+01 0.704E+03   0.801E+01 -.801E+01 -.708E+03   -.258E-01 0.258E-01 0.361E+01
   -.318E+01 0.317E+01 0.701E+03   0.318E+01 -.318E+01 -.705E+03   -.864E-02 0.864E-02 0.361E+01
   -.190E+02 0.134E+02 -.686E+03   0.191E+02 -.135E+02 0.691E+03   -.417E-01 0.287E-01 -.368E+01
   -.123E+02 0.466E+01 -.689E+03   0.123E+02 -.466E+01 0.694E+03   -.232E-01 0.352E-02 -.368E+01
   -.167E+02 0.580E+01 0.712E+03   0.168E+02 -.581E+01 -.716E+03   -.737E-01 0.226E-01 0.361E+01
   -.657E+01 0.562E+01 0.704E+03   0.658E+01 -.564E+01 -.708E+03   -.237E-01 0.154E-01 0.361E+01
   -.309E+02 -.184E+01 -.681E+03   0.310E+02 0.185E+01 0.685E+03   -.583E-01 -.166E-01 -.371E+01
   -.111E+02 -.530E+01 -.690E+03   0.111E+02 0.531E+01 0.694E+03   -.146E-01 -.102E-01 -.368E+01
   -.156E+02 -.671E+01 0.710E+03   0.157E+02 0.673E+01 -.714E+03   -.568E-01 -.344E-01 0.359E+01
   -.883E+01 -.324E+00 0.706E+03   0.885E+01 0.327E+00 -.710E+03   -.285E-01 -.512E-02 0.360E+01
   -.165E+02 -.126E+02 -.688E+03   0.165E+02 0.127E+02 0.692E+03   -.240E-01 -.221E-01 -.369E+01
   -.513E+01 -.639E+01 -.693E+03   0.514E+01 0.639E+01 0.697E+03   -.430E-02 -.745E-02 -.367E+01
   -.736E+01 -.737E+01 0.703E+03   0.738E+01 0.738E+01 -.707E+03   -.186E-01 -.186E-01 0.360E+01
   -.573E+01 -.561E+01 0.703E+03   0.574E+01 0.562E+01 -.707E+03   -.133E-01 -.144E-01 0.360E+01
   -.146E-04 -.110E+00 0.119E+02   0.189E-11 0.696E-12 -.557E-11   0.633E-15 0.130E-15 -.123E+02

 POSITION                                       TOTAL-FORCE (eV/Angst)
     11.47450     11.77823     13.73072        -0.014172      0.014172     -0.026015
      9.66435     13.58839     13.73072         0.014172     -0.014172     -0.026015
      0.00000      0.00000      9.00000        -0.000554      0.001233      0.352597
      2.11389      2.11389      9.00000        -0.001233      0.000554      0.352597
      0.00000      2.11389     11.11389         0.000000      0.000000     -0.341010
      2.11389      0.00000     11.11389        -0.001789      0.001789     -0.340555
      0.00000      4.22777      9.00000         0.000554     -0.001233      0.352597
      2.11389      6.34166      9.00000        -0.001822     -0.002518      0.353227
      0.00000      6.34166     11.11389         0.001311     -0.001416     -0.340118
      2.11389      4.22777     11.11389        -0.000477     -0.000477     -0.340392
      0.00000      8.45554      9.00000         0.001368     -0.002161      0.353247
      2.11389     10.56943      9.00000        -0.006867     -0.002833      0.354332
      0.00000     10.56943     11.11389         0.001192     -0.000912     -0.338335
      2.11389      8.45554     11.11389        -0.001382     -0.002008     -0.337724
      0.00000     12.68331      9.00000         0.000000      0.000000      0.353739
      2.11389     14.79720      9.00000        -0.009938      0.001442      0.354360
      0.00000     14.79720     11.11389        -0.001192      0.000912     -0.338335
      2.11389     12.68331     11.11389        -0.005238     -0.001207     -0.335783
      0.00000     16.91108      9.00000        -0.001368      0.002161      0.353247
      2.11389     19.02497      9.00000        -0.003942      0.003342      0.352821
      0.00000     19.02497     11.11389        -0.001311      0.001416     -0.340118
      2.11389     16.91108     11.11389        -0.005515      0.001907     -0.338243
      4.22777      0.00000      9.00000        -0.003342      0.003942      0.352821
      6.34166      2.11389      9.00000        -0.002161      0.001368      0.353247
      4.22777      2.11389     11.11389        -0.001416      0.001311     -0.340118
      6.34166      0.00000     11.11389        -0.001907      0.005515     -0.338243
      4.22777      4.22777      9.00000        -0.002518     -0.001822      0.353227
      6.34166      6.34166      9.00000        -0.007302     -0.009704      0.355294
      4.22777      6.34166     11.11389        -0.002291     -0.002291     -0.336978
      6.34166      4.22777     11.11389        -0.002008     -0.001382     -0.337724
      4.22777      8.45554      9.00000        -0.009704     -0.007302      0.355294
      6.34166     10.56943      9.00000        -0.041514     -0.023612      0.360933
      4.22777     10.56943     11.11389        -0.008527     -0.004342     -0.327555
      6.34166      8.45554     11.11389        -0.007531     -0.007531     -0.320124
      4.22777     12.68331      9.00000        -0.028080     -0.002708      0.358374
      6.34166     14.79720      9.00000        -0.028237      0.017866      0.345088
      4.22777     14.79720     11.11389        -0.020819      0.000348     -0.329054
      6.34166     12.68331     11.11389        -0.084697     -0.007550     -0.284888
      4.22777     16.91108      9.00000        -0.012514      0.008124      0.353566
      6.34166     19.02497      9.00000        -0.008124      0.012514      0.353566
      4.22777     19.02497     11.11389        -0.005093      0.005093     -0.338079
      6.34166     16.91108     11.11389        -0.014601      0.014601     -0.326116
      8.45554      0.00000      9.00000        -0.001442      0.009938      0.354360
     10.56943      2.11389      9.00000         0.000000      0.000000      0.353739
      8.45554      2.11389     11.11389        -0.000912      0.001192     -0.338335
     10.56943      0.00000     11.11389         0.001207      0.005238     -0.335783
      8.45554      4.22777      9.00000        -0.002833     -0.006867      0.354332
     10.56943      6.34166      9.00000        -0.002708     -0.028080      0.358374
      8.45554      6.34166     11.11389        -0.004342     -0.008527     -0.327555
     10.56943      4.22777     11.11389        -0.001207     -0.005238     -0.335783
      8.45554      8.45554      9.00000        -0.023612     -0.041514      0.360933
     10.56943     10.56943      9.00000         0.021007     -0.031109      0.254001
      8.45554     10.56943     11.11389        -0.061794     -0.061794     -0.175112
     10.56943      8.45554     11.11389        -0.007550     -0.084697     -0.284888
      8.45554     12.68331      9.00000        -0.031109      0.021007      0.254001
     10.56943     14.79720      9.00000        -0.021007      0.031109      0.254001
      8.45554     14.79720     11.11389        -0.071464      0.071464     -0.296859
     10.56943     12.68331     11.11389         0.000000      0.000000      0.032611
      8.45554     16.91108      9.00000        -0.017866      0.028237      0.345088
     10.56943     19.02497      9.00000         0.002708      0.028080      0.358374
[...]
     19.02497      6.34166     11.11389        -0.003720      0.003270      0.382025
     16.91108      6.34166      9.00000        -0.007183      0.007183     -0.396040
     19.02497      4.22777      9.00000        -0.002403      0.002403     -0.395481
     16.91108      8.45554     11.11389        -0.012010      0.008322      0.378299
     19.02497     10.56943     11.11389        -0.006551      0.000987      0.378828
     16.91108     10.56943      9.00000        -0.020497      0.006188     -0.395710
     19.02497      8.45554      9.00000        -0.006602      0.004347     -0.396197
     16.91108     12.68331     11.11389        -0.017320     -0.004815      0.369760
     19.02497     14.79720     11.11389        -0.004112     -0.002818      0.378258
     16.91108     14.79720      9.00000        -0.016271     -0.009690     -0.400122
     19.02497     12.68331      9.00000        -0.007964     -0.001407     -0.397342
     16.91108     16.91108     11.11389        -0.006884     -0.006223      0.375119
     19.02497     19.02497     11.11389        -0.001197     -0.002081      0.381594
     16.91108     19.02497      9.00000        -0.005186     -0.005186     -0.396942
     19.02497     16.91108      9.00000        -0.003718     -0.004029     -0.396687
    total drift:                               -0.000015     -0.110120     -0.422429

  FREE ENERGIE OF THE ION-ELECTRON SYSTEM (eV)
  free  energy   TOTEN  =      -743.94634653 eV

  energy  without entropy=     -743.94634653  energy(sigma->0) =     -743.94634653