 vasp.6.4.1 05Apr23 (build May 06 2023 19:47:20) complex

 executed on             LinuxIFC date 2023.07.03  18:44:35

 INCAR:
   SYSTEM = MgO-rocksalt
   ISMEAR = 0
   SIGMA = 0.05
   EDIFF = 1E-6
   ALGO = ALL
   ISTART = 0
   IBRION = -1
   NSW = 0
   ISYM = 2
   DIPOL = 0.5 0.5 0.5
   IDIPOL = 3
   LDIPOL = .TRUE.
   GGA = PE
   IVDW = 11
   ENCUT = 520
   PREC = Accurate
   LASPH = .TRUE.
   LREAL = Auto
   ISPIN = 1
   NELM = 200
   NELMIN = 8
   NCORE = 16
   KPAR = 1
   LWAVE = .FALSE.
   LCHARG = .FALSE.

 POTCAR:    PAW_PBE Au 04Oct2007
 POTCAR:    PAW_PBE Mg_pv 13Apr2007
 POTCAR:    PAW_PBE O 08Apr2002
 POTCAR:    PAW_PBE Au 04Oct2007
   VRHFIN =Au: s1d10

   TITEL  = PAW_PBE Au 04Oct2007
   POMASS =  196.966; ZVAL   =   11.000    mass and valenz
   ENMAX  =  229.943; ENMIN  =  172.457 eV

   TITEL  = PAW_PBE Mg_pv 13Apr2007
   POMASS =   24.305; ZVAL   =    8.000    mass and valenz
   ENMAX  =  403.929; ENMIN  =  302.947 eV

   TITEL  = PAW_PBE O 08Apr2002
   POMASS =   16.000; ZVAL   =    6.000    mass and valenz
   ENMAX  =  400.000; ENMIN  =  300.000 eV

 Optimization of the real space projectors (new method)

 maximal supplied QI-value         = 15.12
 optimisation between [QCUT,QGAM] = [ 11.64, 23.28] = [ 37.95,151.78] Ry
 Optimized for a Real-space Cutoff    1.49 Angstroem

   l    n(q)    QCUT    max X(q) W(low)/X(q) W(high)/X(q)  e(spline)
   2      9    11.641    60.898    0.24E-03    0.10E-03    0.19E-06
   2      9    11.641    58.894    0.25E-03    0.10E-03    0.19E-06
   0     10    11.641   109.617    0.73E-04    0.33E-04    0.11E-06
   0     10    11.641    75.026    0.71E-04    0.32E-04    0.11E-06
   1     10    11.641    16.344    0.27E-04    0.97E-04    0.16E-06
   1     10    11.641    10.160    0.23E-04    0.77E-04    0.13E-06
 Optimization of the real space projectors (new method)

[...]

   l    n(q)    QCUT    max X(q) W(low)/X(q) W(high)/X(q)  e(spline)
   1      8    11.527     2.974    0.44E-04    0.56E-04    0.12E-06
   1      8    11.527     4.279    0.12E-03    0.12E-03    0.26E-06
   0      9    11.527    16.381    0.46E-04    0.64E-04    0.78E-07
   0      9    11.527     5.611    0.26E-04    0.43E-04    0.55E-07
   2      8    11.527     4.652    0.22E-03    0.72E-04    0.47E-07
 Optimization of the real space projectors (new method)

 maximal supplied QI-value         = 24.76
 optimisation between [QCUT,QGAM] = [ 11.64, 23.27] = [ 37.91,151.63] Ry
 Optimized for a Real-space Cutoff    1.14 Angstroem

   l    n(q)    QCUT    max X(q) W(low)/X(q) W(high)/X(q)  e(spline)
   0      8    11.635    20.381    0.10E-03    0.33E-03    0.24E-06
   0      8    11.635    15.268    0.11E-03    0.35E-03    0.26E-06
   1      7    11.635     5.964    0.24E-03    0.31E-03    0.30E-06
   1      7    11.635     5.382    0.22E-03    0.25E-03    0.26E-06
  PAW_PBE Au 04Oct2007                  :
  PAW_PBE Mg_pv 13Apr2007               :
  PAW_PBE O 08Apr2002                   :

 POSCAR: Au Mg  O
  positions in direct lattice
 exchange correlation table for  LEXCH =        8
   RHO(1)=    0.500       N(1)  =     2000
   RHO(2)=  100.500       N(2)  =     4000

 ion  position               nearest neighbor table
   1  0.543  0.557  0.621-   2 2.56  58 2.91
   2  0.457  0.643  0.621-   1 2.56  58 2.91
   3  0.000  0.000  0.407- 105 2.11 106 2.11 121 2.11 186 2.11 103 2.11
   4  0.100  0.100  0.407- 105 2.11 106 2.11 110 2.11 125 2.11 104 2.11
   5  0.000  0.100  0.503- 103 2.11 104 2.11 107 2.11 184 2.11 105 2.11
   6  0.100  0.000  0.503- 103 2.11 104 2.11 120 2.11 123 2.11 106 2.11
   7  0.000  0.200  0.407- 109 2.11 105 2.11 110 2.11 190 2.11 107 2.11
   8  0.100  0.300  0.407- 110 2.11 109 2.11 114 2.11 129 2.11 108 2.11
   9  0.000  0.300  0.503- 107 2.11 108 2.11 111 2.11 188 2.11 109 2.11
  10  0.100  0.200  0.503- 108 2.11 107 2.11 104 2.11 127 2.11 110 2.11
  11  0.000  0.400  0.407- 109 2.11 113 2.11 114 2.11 194 2.11 111 2.11
  12  0.100  0.500  0.407- 113 2.11 114 2.11 118 2.11 133 2.11 112 2.11
  13  0.000  0.500  0.503- 111 2.11 112 2.11 115 2.11 192 2.11 113 2.11
  14  0.100  0.400  0.503- 108 2.11 111 2.11 112 2.11 131 2.11 114 2.11
  15  0.000  0.600  0.407- 113 2.11 117 2.11 118 2.11 198 2.11 115 2.11
  16  0.100  0.700  0.407- 122 2.11 118 2.11 117 2.11 137 2.11 116 2.11
  17  0.000  0.700  0.503- 119 2.11 116 2.11 115 2.11 196 2.11 117 2.11
  18  0.100  0.600  0.503- 112 2.11 115 2.11 116 2.11 135 2.11 118 2.11
  19  0.000  0.800  0.407- 117 2.11 121 2.11 122 2.11 202 2.11 119 2.11
  20  0.100  0.900  0.407- 106 2.11 121 2.11 122 2.11 141 2.11 120 2.11
  21  0.000  0.900  0.503- 103 2.11 119 2.11 120 2.11 200 2.11 121 2.11
  22  0.100  0.800  0.503- 116 2.11 119 2.11 120 2.11 139 2.11 122 2.11
  23  0.200  0.000  0.407- 126 2.11 125 2.11 106 2.11 141 2.11 123 2.11
  24  0.300  0.100  0.407- 125 2.11 126 2.11 130 2.11 145 2.11 124 2.11
  25  0.200  0.100  0.503- 124 2.11 123 2.11 104 2.11 127 2.11 125 2.11
  26  0.300  0.000  0.503- 123 2.11 124 2.11 140 2.11 143 2.11 126 2.11
  27  0.200  0.200  0.407- 129 2.11 130 2.11 110 2.11 125 2.11 127 2.11
  28  0.300  0.300  0.407- 129 2.11 130 2.11 134 2.11 149 2.11 128 2.11
  29  0.200  0.300  0.503- 127 2.11 128 2.11 108 2.11 131 2.11 129 2.11
  30  0.300  0.200  0.503- 127 2.11 128 2.11 124 2.11 147 2.11 130 2.11
  31  0.200  0.400  0.407- 134 2.11 129 2.11 133 2.11 114 2.11 131 2.11
  32  0.300  0.500  0.407- 133 2.11 134 2.11 138 2.11 153 2.11 132 2.11
  33  0.200  0.500  0.503- 132 2.11 131 2.11 112 2.11 135 2.11 133 2.11
  34  0.300  0.400  0.503- 131 2.11 128 2.11 132 2.11 151 2.11 134 2.11
  35  0.200  0.600  0.407- 138 2.11 133 2.11 137 2.11 118 2.11 135 2.11
  36  0.300  0.700  0.407- 137 2.11 142 2.11 138 2.11 157 2.11 136 2.11
  37  0.200  0.700  0.503- 136 2.11 139 2.11 116 2.11 135 2.11 137 2.11
  38  0.300  0.600  0.503- 135 2.11 132 2.11 136 2.11 155 2.11 138 2.11
  39  0.200  0.800  0.407- 137 2.11 142 2.11 141 2.11 122 2.11 139 2.11
  40  0.300  0.900  0.407- 141 2.11 126 2.11 142 2.11 161 2.11 140 2.11
  41  0.200  0.900  0.503- 140 2.11 123 2.11 139 2.11 120 2.11 141 2.11
  42  0.300  0.800  0.503- 136 2.11 139 2.11 140 2.11 159 2.11 142 2.11
  43  0.400  0.000  0.407- 126 2.11 145 2.11 146 2.11 161 2.11 143 2.11
  44  0.500  0.100  0.407- 145 2.11 146 2.11 150 2.11 165 2.11 144 2.11
  45  0.400  0.100  0.503- 124 2.11 143 2.11 144 2.11 147 2.11 145 2.11
  46  0.500  0.000  0.503- 143 2.11 144 2.11 160 2.11 163 2.11 146 2.11
  47  0.400  0.200  0.407- 149 2.11 145 2.11 130 2.11 150 2.11 147 2.11
  48  0.500  0.300  0.407- 150 2.11 149 2.11 154 2.11 169 2.11 148 2.11
  49  0.400  0.300  0.503- 147 2.11 128 2.11 148 2.11 151 2.11 149 2.11
  50  0.500  0.200  0.503- 148 2.11 147 2.11 144 2.11 167 2.11 150 2.11
  51  0.400  0.400  0.407- 134 2.11 149 2.11 153 2.11 154 2.11 151 2.11
  52  0.500  0.500  0.407- 153 2.11 154 2.11 158 2.11 173 2.11 152 2.11
  53  0.400  0.500  0.503- 132 2.11 151 2.11 152 2.11 155 2.11 153 2.11
  54  0.500  0.400  0.503- 148 2.11 151 2.11 152 2.11 171 2.11 154 2.11
  55  0.400  0.600  0.407- 138 2.11 153 2.11 157 2.11 158 2.11 155 2.11
  56  0.500  0.700  0.407- 162 2.11 158 2.11 157 2.11 177 2.11 156 2.11
  57  0.400  0.700  0.503- 159 2.11 155 2.11 156 2.11 136 2.11 157 2.11
  58  0.500  0.600  0.503- 152 2.11 155 2.11 156 2.11 175 2.11 158 2.11   2 2.91   1 2.91
  59  0.400  0.800  0.407- 157 2.11 142 2.11 161 2.11 162 2.11 159 2.11
  60  0.500  0.900  0.407- 146 2.11 161 2.11 162 2.11 181 2.11 160 2.11
[...]
 188  0.900  0.300  0.503-  90 2.11  89 2.11   9 2.11  94 2.11  88 2.11
 189  0.800  0.300  0.407-  68 2.11  87 2.11  88 2.11  91 2.11  89 2.11
 190  0.900  0.200  0.407-  88 2.11  84 2.11  87 2.11   7 2.11  90 2.11
 191  0.800  0.400  0.503-  74 2.11  89 2.11  93 2.11  94 2.11  91 2.11
 192  0.900  0.500  0.503-  13 2.11  93 2.11  94 2.11  98 2.11  92 2.11
 193  0.800  0.500  0.407-  72 2.11  91 2.11  92 2.11  95 2.11  93 2.11
 194  0.900  0.400  0.407-  11 2.11  88 2.11  91 2.11  92 2.11  94 2.11
 195  0.800  0.600  0.503-  78 2.11  93 2.11  97 2.11  98 2.11  95 2.11
 196  0.900  0.700  0.503- 102 2.11  97 2.11  98 2.11  17 2.11  96 2.11
 197  0.800  0.700  0.407-  76 2.11  99 2.11  96 2.11  95 2.11  97 2.11
 198  0.900  0.600  0.407-  15 2.11  92 2.11  95 2.11  96 2.11  98 2.11
 199  0.800  0.800  0.503-  82 2.11  97 2.11 101 2.11 102 2.11  99 2.11
 200  0.900  0.900  0.503-  21 2.11  86 2.11 101 2.11 102 2.11 100 2.11
 201  0.800  0.900  0.407-  80 2.11  83 2.11  99 2.11 100 2.11 101 2.11
 202  0.900  0.800  0.407-  96 2.11  19 2.11  99 2.11 100 2.11 102 2.11

  LATTYP: Found a simple tetragonal cell.
 ALAT       =    21.1388521970
 C/A-ratio  =     1.0461251639

  Lattice vectors:

 A1 = (  21.1388521970,   0.0000000000,   0.0000000000)
 A2 = (   0.0000000000,  21.1388521970,   0.0000000000)
 A3 = (   0.0000000000,   0.0000000000,  22.1138852197)

Analysis of symmetry for initial positions (statically):
 Subroutine PRICEL returns:
 Original cell was already a primitive cell.

 Routine SETGRP: Setting up the symmetry group for a
 simple tetragonal supercell.

 Subroutine GETGRP returns: Found  4 space group operations
 (whereof  1 operations were pure point group operations)
 out of a pool of 16 trial point group operations.

The static configuration has the point symmetry C_1 .
 The point group associated with its full space group is C_2v.

Analysis of symmetry for dynamics (positions and initial velocities):
 Subroutine PRICEL returns:
 Original cell was already a primitive cell.

 Routine SETGRP: Setting up the symmetry group for a
 simple tetragonal supercell.

 Subroutine GETGRP returns: Found  4 space group operations
 (whereof  1 operations were pure point group operations)
 out of a pool of 16 trial point group operations.

The dynamic configuration has the point symmetry C_1 .
 The point group associated with its full space group is C_2v.

 Subroutine INISYM returns: Found  4 space group operations
 (whereof  1 operations are pure point group operations),
 and found     1 'primitive' translations

                                     Primitive cell

  volume of cell :    9881.6133

  direct lattice vectors                    reciprocal lattice vectors
    21.138852197  0.000000000  0.000000000     0.047306258  0.000000000  0.000000000
     0.000000000 21.138852197  0.000000000     0.000000000  0.047306258  0.000000000
     0.000000000  0.000000000 22.113885220     0.000000000  0.000000000  0.045220457

  length of vectors
    21.138852197 21.138852197 22.113885220     0.047306258  0.047306258  0.045220457

  position of ions in fractional coordinates (direct lattice)
     0.542815811  0.557184154  0.620909636
     0.457184189  0.642815775  0.620909636
     0.000000000  0.000000000  0.406984115
     0.100000000  0.100000000  0.406984115
     0.000000000  0.100000000  0.502574971
     0.100000000  0.000000000  0.502574971
     0.000000000  0.200000000  0.406984115
     0.100000000  0.300000000  0.406984115
     0.000000000  0.300000000  0.502574971
     0.100000000  0.200000000  0.502574971
     0.000000000  0.400000000  0.406984115
     0.100000000  0.500000000  0.406984115
     0.000000000  0.500000000  0.502574971
[...]
    855       4.5177      0.00000
    856       4.5498      0.00000
    857       4.5926      0.00000
    858       4.6465      0.00000
    859       4.6671      0.00000
    860       4.6831      0.00000
    861       4.6942      0.00000
    862       4.7795      0.00000
    863       4.9869      0.00000
    864       5.2632      0.00000

 soft charge-density along one line, spin component           1
         0         1         2         3         4         5         6         7         8         9
 total charge-density along one line

------------------------ aborting loop because EDIFF is reached ----------------------------------------

         DFTD3 V3.0 Rev 1
 IVDW         = 11
 DF pbe
 parameters
 VDW_S6       =    1.0000
 VDW_S8       =    0.7220
 VDW_SR       =    1.2170
 rs18     =    1.0000
 alpha6   =   14.0000
 alpha8   =   16.0000
 k1-k3    =   16.0000    1.3333   -4.0000
 VDW_RADIUS   =   50.2022 A
 VDW_CNRADIUS =   21.1671 A
 Edisp (eV)  -19.39277

 E6    (eV) :    -8.0735
 E8    (eV) :   -11.3193
 % E8        : 58.37

  FORCE on cell =-STRESS in cart. coord.  units (eV):
  Direction    XX          YY          ZZ          XY          YZ          ZX
  Alpha Z  1365.75682  1365.75682  1365.75682
  Ewald  479770.72537479770.72537************  -347.00501     0.00001    -0.00001
  Hartree508302.28457508302.28457************  -233.61493     0.00000    -0.00002
  E(xc)   -7747.87809 -7747.87809 -7779.56786    -0.42246     0.00000     0.00000
  Local  ************************************   568.73430    -0.00001     0.00003
  n-local -8769.31289 -8769.31287 -8884.78645     5.54121     0.00000    -0.00000
  augment  3418.18214  3418.18214  3361.75617     1.67742    -0.00000    -0.00000
  Kinetic 22988.17398 22988.17397 23244.06610     4.85248     0.00000    -0.00001
  Fock        0.00000     0.00000     0.00000     0.00000     0.00000     0.00000
  vdW       -26.19964   -26.19964    -3.07040    -0.25484    -0.00000    -0.00000
  Total    -175.64433  -175.64433    15.52097    -0.49184     0.00000     0.00000
  in kB     -28.47848   -28.47848     2.51653    -0.07975     0.00000     0.00000

 VOLUME and BASIS-vectors are now :
  energy-cutoff  :      520.00
  volume of cell :     9881.61
      direct lattice vectors                 reciprocal lattice vectors
    21.138852197  0.000000000  0.000000000     0.047306258  0.000000000  0.000000000
     0.000000000 21.138852197  0.000000000     0.000000000  0.047306258  0.000000000
     0.000000000  0.000000000 22.113885220     0.000000000  0.000000000  0.045220457

  length of vectors
    21.138852197 21.138852197 22.113885220     0.047306258  0.047306258  0.045220457

 FORCES acting on ions:
    Electron-Ion                     Ewald-Force                    Non-Local-Force
   -.192E+03 0.192E+03 -.208E+04   0.188E+03 -.188E+03 0.208E+04   0.405E+01 -.405E+01 0.124E+00
   0.192E+03 -.192E+03 -.208E+04   -.188E+03 0.188E+03 0.208E+04   -.405E+01 0.405E+01 0.124E+00
   0.203E+00 -.347E+01 0.931E+03   -.205E+00 0.348E+01 -.923E+03   0.202E-02 -.442E-02 -.742E+01
   0.347E+01 -.203E+00 0.931E+03   -.348E+01 0.205E+00 -.923E+03   0.442E-02 -.202E-02 -.742E+01
   -.127E-07 -.186E-03 -.923E+03   0.101E-06 -.159E-05 0.915E+03   0.777E-21 -.770E-21 0.738E+01
   0.533E+01 -.533E+01 -.922E+03   -.533E+01 0.533E+01 0.914E+03   0.658E-02 -.658E-02 0.738E+01
   -.203E+00 0.347E+01 0.931E+03   0.205E+00 -.348E+01 -.923E+03   -.202E-02 0.442E-02 -.742E+01
   0.527E+01 0.675E+01 0.933E+03   -.528E+01 -.676E+01 -.925E+03   0.666E-02 0.897E-02 -.742E+01
   -.565E+00 0.719E+01 -.922E+03   0.571E+00 -.720E+01 0.914E+03   -.481E-02 0.516E-02 0.738E+01
   0.472E+01 0.472E+01 -.922E+03   -.473E+01 -.473E+01 0.915E+03   0.186E-02 0.186E-02 0.738E+01
   -.469E+00 0.617E+01 0.934E+03   0.476E+00 -.618E+01 -.926E+03   -.517E-02 0.752E-02 -.742E+01
   0.102E+02 0.522E+01 0.937E+03   -.103E+02 -.523E+01 -.930E+03   0.254E-01 0.977E-02 -.742E+01
   -.543E+00 0.503E+01 -.919E+03   0.548E+00 -.503E+01 0.912E+03   -.446E-02 0.329E-02 0.737E+01
   0.105E+02 0.972E+01 -.919E+03   -.105E+02 -.973E+01 0.912E+03   0.592E-02 0.743E-02 0.737E+01
   0.238E-06 -.189E-03 0.936E+03   -.146E-06 0.155E-05 -.928E+03   0.288E-21 0.129E-20 -.742E+01
   0.111E+02 -.468E+01 0.938E+03   -.112E+02 0.469E+01 -.930E+03   0.385E-01 -.478E-02 -.742E+01
   0.543E+00 -.503E+01 -.919E+03   -.548E+00 0.503E+01 0.912E+03   0.446E-02 -.329E-02 0.737E+01
   0.175E+02 0.742E+00 -.916E+03   -.175E+02 -.747E+00 0.909E+03   0.213E-01 0.405E-02 0.737E+01
   0.469E+00 -.617E+01 0.934E+03   -.476E+00 0.618E+01 -.926E+03   0.517E-02 -.752E-02 -.742E+01
   0.610E+01 -.709E+01 0.933E+03   -.612E+01 0.710E+01 -.926E+03   0.144E-01 -.119E-01 -.742E+01
   0.565E+00 -.719E+01 -.922E+03   -.571E+00 0.720E+01 0.914E+03   0.481E-02 -.516E-02 0.738E+01
   0.124E+02 -.985E+01 -.919E+03   -.124E+02 0.986E+01 0.911E+03   0.208E-01 -.678E-02 0.737E+01
   0.709E+01 -.610E+01 0.933E+03   -.710E+01 0.612E+01 -.926E+03   0.119E-01 -.144E-01 -.742E+01
   0.617E+01 -.470E+00 0.934E+03   -.618E+01 0.476E+00 -.926E+03   0.752E-02 -.517E-02 -.742E+01
   0.719E+01 -.565E+00 -.922E+03   -.720E+01 0.571E+00 0.914E+03   0.516E-02 -.481E-02 0.738E+01
   0.985E+01 -.124E+02 -.919E+03   -.986E+01 0.124E+02 0.911E+03   0.678E-02 -.208E-01 0.737E+01
   0.675E+01 0.527E+01 0.933E+03   -.676E+01 -.528E+01 -.925E+03   0.897E-02 0.666E-02 -.742E+01
   0.117E+02 0.149E+02 0.940E+03   -.117E+02 -.150E+02 -.932E+03   0.260E-01 0.359E-01 -.743E+01
   0.133E+02 0.133E+02 -.919E+03   -.133E+02 -.133E+02 0.911E+03   0.923E-02 0.923E-02 0.737E+01
   0.972E+01 0.105E+02 -.919E+03   -.973E+01 -.105E+02 0.912E+03   0.743E-02 0.592E-02 0.737E+01
   0.149E+02 0.117E+02 0.940E+03   -.150E+02 -.117E+02 -.932E+03   0.359E-01 0.260E-01 -.743E+01
   0.290E+02 0.162E+02 0.961E+03   -.292E+02 -.163E+02 -.953E+03   0.155E+00 0.761E-01 -.747E+01
   0.333E+02 0.141E+02 -.910E+03   -.334E+02 -.142E+02 0.902E+03   0.384E-01 0.159E-01 0.736E+01
   0.320E+02 0.320E+02 -.905E+03   -.321E+02 -.321E+02 0.898E+03   0.345E-01 0.345E-01 0.735E+01
   0.243E+02 0.113E+01 0.948E+03   -.244E+02 -.115E+01 -.940E+03   0.107E+00 0.962E-02 -.745E+01
   0.309E+02 -.144E+02 0.965E+03   -.310E+02 0.145E+02 -.957E+03   0.103E+00 -.578E-01 -.741E+01
   0.374E+02 -.120E+02 -.907E+03   -.375E+02 0.120E+02 0.900E+03   0.732E-01 -.180E-02 0.736E+01
   0.793E+02 0.827E+01 -.870E+03   -.797E+02 -.832E+01 0.863E+03   0.287E+00 0.395E-01 0.734E+01
   0.164E+02 -.120E+02 0.942E+03   -.165E+02 0.120E+02 -.934E+03   0.457E-01 -.284E-01 -.742E+01
   0.120E+02 -.164E+02 0.942E+03   -.120E+02 0.165E+02 -.934E+03   0.284E-01 -.457E-01 -.742E+01
   0.149E+02 -.149E+02 -.918E+03   -.149E+02 0.149E+02 0.910E+03   0.189E-01 -.189E-01 0.737E+01
   0.369E+02 -.369E+02 -.899E+03   -.370E+02 0.370E+02 0.892E+03   0.616E-01 -.616E-01 0.737E+01
   0.468E+01 -.111E+02 0.938E+03   -.469E+01 0.112E+02 -.930E+03   0.478E-02 -.385E-01 -.742E+01
   0.235E-06 -.184E-03 0.936E+03   -.139E-06 -.416E-05 -.928E+03   -.128E-20 -.292E-21 -.742E+01
   0.503E+01 -.543E+00 -.919E+03   -.503E+01 0.548E+00 0.912E+03   0.329E-02 -.446E-02 0.737E+01
   -.742E+00 -.175E+02 -.916E+03   0.747E+00 0.175E+02 0.909E+03   -.405E-02 -.213E-01 0.737E+01
   0.522E+01 0.102E+02 0.937E+03   -.523E+01 -.103E+02 -.930E+03   0.977E-02 0.254E-01 -.742E+01
   0.113E+01 0.243E+02 0.948E+03   -.115E+01 -.244E+02 -.940E+03   0.962E-02 0.107E+00 -.745E+01
   0.141E+02 0.333E+02 -.910E+03   -.142E+02 -.334E+02 0.902E+03   0.159E-01 0.384E-01 0.736E+01
   0.742E+00 0.175E+02 -.916E+03   -.747E+00 -.175E+02 0.909E+03   0.405E-02 0.213E-01 0.737E+01
   0.162E+02 0.290E+02 0.961E+03   -.163E+02 -.292E+02 -.953E+03   0.761E-01 0.155E+00 -.747E+01
   0.317E+01 0.312E+02 0.100E+04   -.309E+01 -.313E+02 -.995E+03   -.557E-01 0.123E+00 -.707E+01
   0.710E+02 0.710E+02 -.837E+03   -.714E+02 -.714E+02 0.830E+03   0.301E+00 0.301E+00 0.719E+01
   0.827E+01 0.793E+02 -.870E+03   -.832E+01 -.797E+02 0.863E+03   0.395E-01 0.287E+00 0.734E+01
   0.312E+02 0.317E+01 0.100E+04   -.313E+02 -.309E+01 -.995E+03   0.123E+00 -.557E-01 -.707E+01
   -.317E+01 -.312E+02 0.100E+04   0.309E+01 0.313E+02 -.995E+03   0.557E-01 -.123E+00 -.707E+01
   0.782E+02 -.782E+02 -.793E+03   -.784E+02 0.784E+02 0.786E+03   0.131E+00 -.131E+00 0.662E+01
   -.225E-04 -.245E-03 -.657E+03   0.225E-04 0.543E-04 0.653E+03   -.127E-20 0.127E-20 0.427E+01
   0.144E+02 -.309E+02 0.965E+03   -.145E+02 0.310E+02 -.957E+03   0.578E-01 -.103E+00 -.741E+01
   -.113E+01 -.243E+02 0.948E+03   0.115E+01 0.244E+02 -.940E+03   -.962E-02 -.107E+00 -.745E+01
[...]
   -.800E+01 0.799E+01 0.704E+03   0.801E+01 -.801E+01 -.708E+03   -.257E-01 0.257E-01 0.352E+01
   -.318E+01 0.317E+01 0.701E+03   0.318E+01 -.318E+01 -.705E+03   -.858E-02 0.858E-02 0.353E+01
   -.190E+02 0.134E+02 -.686E+03   0.191E+02 -.135E+02 0.691E+03   -.417E-01 0.286E-01 -.360E+01
   -.123E+02 0.466E+01 -.689E+03   0.123E+02 -.466E+01 0.694E+03   -.233E-01 0.336E-02 -.360E+01
   -.167E+02 0.580E+01 0.712E+03   0.168E+02 -.581E+01 -.716E+03   -.745E-01 0.229E-01 0.352E+01
   -.657E+01 0.562E+01 0.704E+03   0.658E+01 -.564E+01 -.708E+03   -.236E-01 0.154E-01 0.352E+01
   -.309E+02 -.184E+01 -.681E+03   0.310E+02 0.185E+01 0.685E+03   -.584E-01 -.168E-01 -.364E+01
   -.111E+02 -.530E+01 -.690E+03   0.111E+02 0.531E+01 0.694E+03   -.146E-01 -.100E-01 -.360E+01
   -.156E+02 -.671E+01 0.710E+03   0.157E+02 0.673E+01 -.714E+03   -.563E-01 -.348E-01 0.351E+01
   -.883E+01 -.324E+00 0.706E+03   0.885E+01 0.327E+00 -.710E+03   -.280E-01 -.534E-02 0.352E+01
   -.165E+02 -.126E+02 -.688E+03   0.165E+02 0.127E+02 0.692E+03   -.238E-01 -.218E-01 -.361E+01
   -.513E+01 -.639E+01 -.693E+03   0.514E+01 0.639E+01 0.697E+03   -.421E-02 -.736E-02 -.359E+01
   -.736E+01 -.737E+01 0.703E+03   0.738E+01 0.738E+01 -.707E+03   -.184E-01 -.184E-01 0.352E+01
   -.573E+01 -.561E+01 0.703E+03   0.574E+01 0.562E+01 -.707E+03   -.130E-01 -.142E-01 0.352E+01
   -.147E-04 -.110E+00 0.121E+02   0.348E-11 -.155E-11 -.739E-11   -.470E-15 0.196E-15 -.128E+02

 POSITION                                       TOTAL-FORCE (eV/Angst)
     11.47450     11.77823     13.73072         0.034792     -0.034792      0.059436
      9.66435     13.58839     13.73072        -0.034792      0.034792      0.059436
      0.00000      0.00000      9.00000        -0.000555      0.001203      0.332731
      2.11389      2.11389      9.00000        -0.001203      0.000555      0.332731
      0.00000      2.11389     11.11389         0.000000      0.000000     -0.322193
      2.11389      0.00000     11.11389        -0.001749      0.001749     -0.321769
      0.00000      4.22777      9.00000         0.000555     -0.001203      0.332731
      2.11389      6.34166      9.00000        -0.001755     -0.002433      0.333356
      0.00000      6.34166     11.11389         0.001302     -0.001378     -0.321347
      2.11389      4.22777     11.11389        -0.000451     -0.000451     -0.321602
      0.00000      8.45554      9.00000         0.001368     -0.002085      0.333381
      2.11389     10.56943      9.00000        -0.006627     -0.002717      0.334566
      0.00000     10.56943     11.11389         0.001174     -0.000867     -0.319682
      2.11389      8.45554     11.11389        -0.001178     -0.001889     -0.319071
      0.00000     12.68331      9.00000         0.000000      0.000000      0.333896
      2.11389     14.79720      9.00000        -0.009813      0.001326      0.334683
      0.00000     14.79720     11.11389        -0.001174      0.000867     -0.319682
      2.11389     12.68331     11.11389        -0.004449     -0.001181     -0.317325
      0.00000     16.91108      9.00000        -0.001368      0.002085      0.333381
      2.11389     19.02497      9.00000        -0.003850      0.003260      0.332975
      0.00000     19.02497     11.11389        -0.001302      0.001378     -0.321347
      2.11389     16.91108     11.11389        -0.005174      0.001771     -0.319620
      4.22777      0.00000      9.00000        -0.003260      0.003850      0.332975
      6.34166      2.11389      9.00000        -0.002085      0.001368      0.333381
      4.22777      2.11389     11.11389        -0.001378      0.001302     -0.321347
      6.34166      0.00000     11.11389        -0.001771      0.005174     -0.319620
      4.22777      4.22777      9.00000        -0.002433     -0.001755      0.333356
      6.34166      6.34166      9.00000        -0.006976     -0.009366      0.335692
      4.22777      6.34166     11.11389        -0.002066     -0.002066     -0.318334
      6.34166      4.22777     11.11389        -0.001889     -0.001178     -0.319071
      4.22777      8.45554      9.00000        -0.009366     -0.006976      0.335692
      6.34166     10.56943      9.00000        -0.040532     -0.022743      0.345078
      4.22777     10.56943     11.11389        -0.006021     -0.003384     -0.309297
      6.34166      8.45554     11.11389        -0.004676     -0.004676     -0.301727
      4.22777     12.68331      9.00000        -0.027533     -0.002790      0.339948
      6.34166     14.79720      9.00000        -0.025191      0.016837      0.330143
      4.22777     14.79720     11.11389        -0.017300     -0.000577     -0.309890
      6.34166     12.68331     11.11389        -0.054765     -0.000800     -0.245235
      4.22777     16.91108      9.00000        -0.012136      0.007905      0.334260
      6.34166     19.02497      9.00000        -0.007905      0.012136      0.334260
      4.22777     19.02497     11.11389        -0.004718      0.004718     -0.319495
      6.34166     16.91108     11.11389        -0.007661      0.007661     -0.303715
      8.45554      0.00000      9.00000        -0.001326      0.009813      0.334683
     10.56943      2.11389      9.00000         0.000000      0.000000      0.333896
      8.45554      2.11389     11.11389        -0.000867      0.001174     -0.319682
     10.56943      0.00000     11.11389         0.001181      0.004449     -0.317325
      8.45554      4.22777      9.00000        -0.002717     -0.006627      0.334566
     10.56943      6.34166      9.00000        -0.002790     -0.027533      0.339948
      8.45554      6.34166     11.11389        -0.003384     -0.006021     -0.309297
     10.56943      4.22777     11.11389        -0.001181     -0.004449     -0.317325
      8.45554      8.45554      9.00000        -0.022743     -0.040532      0.345078
     10.56943     10.56943      9.00000         0.023907     -0.024387      0.254149
      8.45554     10.56943     11.11389        -0.022377     -0.022377     -0.106555
     10.56943      8.45554     11.11389        -0.000800     -0.054765     -0.245235
      8.45554     12.68331      9.00000        -0.024387      0.023907      0.254149
     10.56943     14.79720      9.00000        -0.023907      0.024387      0.254149
      8.45554     14.79720     11.11389        -0.102419      0.102419     -0.348081
     10.56943     12.68331     11.11389         0.000000      0.000000     -0.111958
      8.45554     16.91108      9.00000        -0.016837      0.025191      0.330143
     10.56943     19.02497      9.00000         0.002790      0.027533      0.339948
[...]
     19.02497      6.34166     11.11389        -0.003707      0.003264      0.507980
     16.91108      6.34166      9.00000        -0.007147      0.007147     -0.520849
     19.02497      4.22777      9.00000        -0.002383      0.002383     -0.520223
     16.91108      8.45554     11.11389        -0.012139      0.008374      0.504139
     19.02497     10.56943     11.11389        -0.006636      0.000969      0.504843
     16.91108     10.56943      9.00000        -0.020717      0.006296     -0.520515
     19.02497      8.45554      9.00000        -0.006553      0.004368     -0.520976
     16.91108     12.68331     11.11389        -0.017760     -0.004884      0.495114
     19.02497     14.79720     11.11389        -0.004140     -0.002813      0.504317
     16.91108     14.79720      9.00000        -0.016102     -0.009795     -0.525189
     19.02497     12.68331      9.00000        -0.007813     -0.001479     -0.522147
     16.91108     16.91108     11.11389        -0.006931     -0.006221      0.501188
     19.02497     19.02497     11.11389        -0.001169     -0.002069      0.507538
     16.91108     19.02497      9.00000        -0.005136     -0.005136     -0.521709
     19.02497     16.91108      9.00000        -0.003640     -0.003984     -0.521424
    total drift:                               -0.000015     -0.110166     -0.610512

  FREE ENERGIE OF THE ION-ELECTRON SYSTEM (eV)
  free  energy   TOTEN  =     -1160.53164662 eV

  energy  without entropy=    -1160.53164662  energy(sigma->0) =    -1160.53164662