 vasp.6.4.1 05Apr23 (build May 06 2023 19:47:20) complex

 executed on             LinuxIFC date 2023.07.04  00:39:24

 INCAR:
   SYSTEM = MgO-rocksalt
   ISMEAR = 0
   SIGMA = 0.05
   EDIFF = 1E-6
   ALGO = ALL
   ISTART = 0
   IBRION = -1
   NSW = 0
   ISYM = 2
   DIPOL = 0.5 0.5 0.5
   IDIPOL = 3
   LDIPOL = .TRUE.
   LHFCALC = .TRUE.
   GGA = PE
   IVDW = 11
   VDW_S6 = 1.0
   VDW_SR = 1.287
   VDW_S8 = 0.928
   ENCUT = 520
   PREC = Accurate
   LASPH = .TRUE.
   LREAL = Auto
   ISPIN = 1
   NELM = 200
   NELMIN = 8
   NCORE = 16
   KPAR = 1
   LWAVE = .FALSE.
   LCHARG = .FALSE.

 POTCAR:    PAW_PBE Ag 02Apr2005
 POTCAR:    PAW_PBE Mg_pv 13Apr2007
 POTCAR:    PAW_PBE O 08Apr2002
|           W    W    AA    RRRRR   N    N  II  N    N   GGGG   !!!           |
|           W    W   A  A   R    R  NN   N  II  NN   N  G    G  !!!           |
|           W    W  A    A  R    R  N N  N  II  N N  N  G       !!!           |
|           W WW W  AAAAAA  RRRRR   N  N N  II  N  N N  G  GGG   !            |
|           WW  WW  A    A  R   R   N   NN  II  N   NN  G    G                |
|           W    W  A    A  R    R  N    N  II  N    N   GGGG   !!!           |
|     You have selected ISYM=2 for a HF type calculation. This will           |
|     symmetrize the charge density but not the exchange potential. I         |
|     suggest to use ISYM=3 instead. This uses symmetry to obtain the         |
|     orbitals at all k-points in the Brillouin zone, but does not apply      |
|     symmetry to the Hartree potential directly. The resultant charge        |
|     might have lower symmetry than the crystal but, at least, Hartree       |
|     and exchange are fully compatible.                                      |

   TITEL  = PAW_PBE Ag 02Apr2005
   POMASS =  107.868; ZVAL   =   11.000    mass and valenz
   ENMAX  =  249.844; ENMIN  =  187.383 eV

   TITEL  = PAW_PBE Mg_pv 13Apr2007
   POMASS =   24.305; ZVAL   =    8.000    mass and valenz
   ENMAX  =  403.929; ENMIN  =  302.947 eV

   TITEL  = PAW_PBE O 08Apr2002
   POMASS =   16.000; ZVAL   =    6.000    mass and valenz
   ENMAX  =  400.000; ENMIN  =  300.000 eV

 Optimization of the real space projectors (new method)

 maximal supplied QI-value         = 15.12
 optimisation between [QCUT,QGAM] = [ 11.64, 23.28] = [ 37.95,151.78] Ry
 Optimized for a Real-space Cutoff    1.45 Angstroem

   l    n(q)    QCUT    max X(q) W(low)/X(q) W(high)/X(q)  e(spline)
   2      9    11.641    53.897    0.22E-03    0.42E-04    0.28E-06
   2      9    11.641    52.416    0.23E-03    0.44E-04    0.29E-06
   0     10    11.641   122.045    0.51E-04    0.25E-04    0.16E-06
   0     10    11.641    73.629    0.49E-04    0.24E-04    0.16E-06
   1     10    11.641    15.255    0.99E-04    0.55E-04    0.11E-06
   1     10    11.641     9.562    0.81E-04    0.47E-04    0.95E-07
 Optimization of the real space projectors (new method)

[...]

   l    n(q)    QCUT    max X(q) W(low)/X(q) W(high)/X(q)  e(spline)
   1      8    11.527     2.974    0.44E-04    0.56E-04    0.12E-06
   1      8    11.527     4.279    0.12E-03    0.12E-03    0.26E-06
   0      9    11.527    16.381    0.46E-04    0.64E-04    0.78E-07
   0      9    11.527     5.611    0.26E-04    0.43E-04    0.55E-07
   2      8    11.527     4.652    0.22E-03    0.72E-04    0.47E-07
 Optimization of the real space projectors (new method)

 maximal supplied QI-value         = 24.76
 optimisation between [QCUT,QGAM] = [ 11.64, 23.27] = [ 37.91,151.63] Ry
 Optimized for a Real-space Cutoff    1.14 Angstroem

   l    n(q)    QCUT    max X(q) W(low)/X(q) W(high)/X(q)  e(spline)
   0      8    11.635    20.381    0.10E-03    0.33E-03    0.24E-06
   0      8    11.635    15.268    0.11E-03    0.35E-03    0.26E-06
   1      7    11.635     5.964    0.24E-03    0.31E-03    0.30E-06
   1      7    11.635     5.382    0.22E-03    0.25E-03    0.26E-06
  PAW_PBE Ag 02Apr2005                  :
  PAW_PBE Mg_pv 13Apr2007               :
  PAW_PBE O 08Apr2002                   :

 POSCAR: Ag Mg  O
  positions in direct lattice
 exchange correlation table for  LEXCH =        8
   RHO(1)=    0.500       N(1)  =     2000
   RHO(2)=  100.500       N(2)  =     4000

 ion  position               nearest neighbor table
   1  0.561  0.500  0.635-   2 2.57  73 3.05
   2  0.439  0.500  0.635-   1 2.57  53 3.05
   3  0.000  0.000  0.407- 105 2.11 106 2.11 121 2.11 186 2.11 103 2.11
   4  0.100  0.100  0.407- 105 2.11 106 2.11 110 2.11 125 2.11 104 2.11
   5  0.000  0.100  0.503- 103 2.11 104 2.11 107 2.11 184 2.11 105 2.11
   6  0.100  0.000  0.503- 103 2.11 104 2.11 120 2.11 123 2.11 106 2.11
   7  0.000  0.200  0.407- 109 2.11 105 2.11 110 2.11 190 2.11 107 2.11
   8  0.100  0.300  0.407- 110 2.11 109 2.11 114 2.11 129 2.11 108 2.11
   9  0.000  0.300  0.503- 107 2.11 108 2.11 111 2.11 188 2.11 109 2.11
  10  0.100  0.200  0.503- 108 2.11 107 2.11 104 2.11 127 2.11 110 2.11
  11  0.000  0.400  0.407- 109 2.11 113 2.11 114 2.11 194 2.11 111 2.11
  12  0.100  0.500  0.407- 113 2.11 114 2.11 118 2.11 133 2.11 112 2.11
  13  0.000  0.500  0.503- 111 2.11 112 2.11 115 2.11 192 2.11 113 2.11
  14  0.100  0.400  0.503- 108 2.11 111 2.11 112 2.11 131 2.11 114 2.11
  15  0.000  0.600  0.407- 113 2.11 117 2.11 118 2.11 198 2.11 115 2.11
  16  0.100  0.700  0.407- 122 2.11 118 2.11 117 2.11 137 2.11 116 2.11
  17  0.000  0.700  0.503- 119 2.11 116 2.11 115 2.11 196 2.11 117 2.11
  18  0.100  0.600  0.503- 112 2.11 115 2.11 116 2.11 135 2.11 118 2.11
  19  0.000  0.800  0.407- 117 2.11 121 2.11 122 2.11 202 2.11 119 2.11
  20  0.100  0.900  0.407- 106 2.11 121 2.11 122 2.11 141 2.11 120 2.11
  21  0.000  0.900  0.503- 103 2.11 119 2.11 120 2.11 200 2.11 121 2.11
  22  0.100  0.800  0.503- 116 2.11 119 2.11 120 2.11 139 2.11 122 2.11
  23  0.200  0.000  0.407- 126 2.11 125 2.11 106 2.11 141 2.11 123 2.11
  24  0.300  0.100  0.407- 125 2.11 126 2.11 130 2.11 145 2.11 124 2.11
  25  0.200  0.100  0.503- 124 2.11 123 2.11 104 2.11 127 2.11 125 2.11
  26  0.300  0.000  0.503- 123 2.11 124 2.11 140 2.11 143 2.11 126 2.11
  27  0.200  0.200  0.407- 129 2.11 130 2.11 110 2.11 125 2.11 127 2.11
  28  0.300  0.300  0.407- 129 2.11 130 2.11 134 2.11 149 2.11 128 2.11
  29  0.200  0.300  0.503- 127 2.11 128 2.11 108 2.11 131 2.11 129 2.11
  30  0.300  0.200  0.503- 127 2.11 128 2.11 124 2.11 147 2.11 130 2.11
  31  0.200  0.400  0.407- 134 2.11 129 2.11 133 2.11 114 2.11 131 2.11
  32  0.300  0.500  0.407- 133 2.11 134 2.11 138 2.11 153 2.11 132 2.11
  33  0.200  0.500  0.503- 132 2.11 131 2.11 112 2.11 135 2.11 133 2.11
  34  0.300  0.400  0.503- 131 2.11 128 2.11 132 2.11 151 2.11 134 2.11
  35  0.200  0.600  0.407- 138 2.11 133 2.11 137 2.11 118 2.11 135 2.11
  36  0.300  0.700  0.407- 137 2.11 142 2.11 138 2.11 157 2.11 136 2.11
  37  0.200  0.700  0.503- 136 2.11 139 2.11 116 2.11 135 2.11 137 2.11
  38  0.300  0.600  0.503- 135 2.11 132 2.11 136 2.11 155 2.11 138 2.11
  39  0.200  0.800  0.407- 137 2.11 142 2.11 141 2.11 122 2.11 139 2.11
  40  0.300  0.900  0.407- 141 2.11 126 2.11 142 2.11 161 2.11 140 2.11
  41  0.200  0.900  0.503- 140 2.11 123 2.11 139 2.11 120 2.11 141 2.11
  42  0.300  0.800  0.503- 136 2.11 139 2.11 140 2.11 159 2.11 142 2.11
  43  0.400  0.000  0.407- 126 2.11 145 2.11 146 2.11 161 2.11 143 2.11
  44  0.500  0.100  0.407- 145 2.11 146 2.11 150 2.11 165 2.11 144 2.11
  45  0.400  0.100  0.503- 124 2.11 143 2.11 144 2.11 147 2.11 145 2.11
  46  0.500  0.000  0.503- 143 2.11 144 2.11 160 2.11 163 2.11 146 2.11
  47  0.400  0.200  0.407- 149 2.11 145 2.11 130 2.11 150 2.11 147 2.11
  48  0.500  0.300  0.407- 150 2.11 149 2.11 154 2.11 169 2.11 148 2.11
  49  0.400  0.300  0.503- 147 2.11 128 2.11 148 2.11 151 2.11 149 2.11
  50  0.500  0.200  0.503- 148 2.11 147 2.11 144 2.11 167 2.11 150 2.11
  51  0.400  0.400  0.407- 134 2.11 149 2.11 153 2.11 154 2.11 151 2.11
  52  0.500  0.500  0.407- 153 2.11 154 2.11 158 2.11 173 2.11 152 2.11
  53  0.400  0.500  0.503- 132 2.11 151 2.11 152 2.11 155 2.11 153 2.11   2 3.05
  54  0.500  0.400  0.503- 148 2.11 151 2.11 152 2.11 171 2.11 154 2.11
  55  0.400  0.600  0.407- 138 2.11 153 2.11 157 2.11 158 2.11 155 2.11
  56  0.500  0.700  0.407- 162 2.11 158 2.11 157 2.11 177 2.11 156 2.11
  57  0.400  0.700  0.503- 159 2.11 155 2.11 156 2.11 136 2.11 157 2.11
  58  0.500  0.600  0.503- 152 2.11 155 2.11 156 2.11 175 2.11 158 2.11
  59  0.400  0.800  0.407- 157 2.11 142 2.11 161 2.11 162 2.11 159 2.11
  60  0.500  0.900  0.407- 146 2.11 161 2.11 162 2.11 181 2.11 160 2.11
[...]
 188  0.900  0.300  0.503-  90 2.11  89 2.11   9 2.11  94 2.11  88 2.11
 189  0.800  0.300  0.407-  68 2.11  87 2.11  88 2.11  91 2.11  89 2.11
 190  0.900  0.200  0.407-  88 2.11  84 2.11  87 2.11   7 2.11  90 2.11
 191  0.800  0.400  0.503-  74 2.11  89 2.11  93 2.11  94 2.11  91 2.11
 192  0.900  0.500  0.503-  13 2.11  93 2.11  94 2.11  98 2.11  92 2.11
 193  0.800  0.500  0.407-  72 2.11  91 2.11  92 2.11  95 2.11  93 2.11
 194  0.900  0.400  0.407-  11 2.11  88 2.11  91 2.11  92 2.11  94 2.11
 195  0.800  0.600  0.503-  78 2.11  93 2.11  97 2.11  98 2.11  95 2.11
 196  0.900  0.700  0.503- 102 2.11  97 2.11  98 2.11  17 2.11  96 2.11
 197  0.800  0.700  0.407-  76 2.11  99 2.11  96 2.11  95 2.11  97 2.11
 198  0.900  0.600  0.407-  15 2.11  92 2.11  95 2.11  96 2.11  98 2.11
 199  0.800  0.800  0.503-  82 2.11  97 2.11 101 2.11 102 2.11  99 2.11
 200  0.900  0.900  0.503-  21 2.11  86 2.11 101 2.11 102 2.11 100 2.11
 201  0.800  0.900  0.407-  80 2.11  83 2.11  99 2.11 100 2.11 101 2.11
 202  0.900  0.800  0.407-  96 2.11  19 2.11  99 2.11 100 2.11 102 2.11

  LATTYP: Found a simple tetragonal cell.
 ALAT       =    21.1388521970
 C/A-ratio  =     1.0461251639

  Lattice vectors:

 A1 = (  21.1388521970,   0.0000000000,   0.0000000000)
 A2 = (   0.0000000000,  21.1388521970,   0.0000000000)
 A3 = (   0.0000000000,   0.0000000000,  22.1138852197)

Analysis of symmetry for initial positions (statically):
 Subroutine PRICEL returns:
 Original cell was already a primitive cell.

 Routine SETGRP: Setting up the symmetry group for a
 simple tetragonal supercell.

 Subroutine GETGRP returns: Found  4 space group operations
 (whereof  4 operations were pure point group operations)
 out of a pool of 16 trial point group operations.

The static configuration has the point symmetry C_2v.

Analysis of symmetry for dynamics (positions and initial velocities):
 Subroutine PRICEL returns:
 Original cell was already a primitive cell.

 Routine SETGRP: Setting up the symmetry group for a
 simple tetragonal supercell.

 Subroutine GETGRP returns: Found  4 space group operations
 (whereof  4 operations were pure point group operations)
 out of a pool of 16 trial point group operations.

The dynamic configuration has the point symmetry C_2v.

 Subroutine INISYM returns: Found  4 space group operations
 (whereof  4 operations are pure point group operations),
 and found     1 'primitive' translations

                                     Primitive cell

  volume of cell :    9881.6133

  direct lattice vectors                    reciprocal lattice vectors
[...]
     60     -46.9612      2.00000
[...]
    850       4.9652      0.00000
    851       4.9816      0.00000
    852       4.9979      0.00000
    853       5.0255      0.00000
    854       5.0344      0.00000
    855       5.1002      0.00000
    856       5.1335      0.00000
    857       5.1495      0.00000
    858       5.1703      0.00000
    859       5.1831      0.00000
    860       5.1978      0.00000
    861       5.3153      0.00000
    862       5.3299      0.00000
    863       5.3523      0.00000
    864       5.3827      0.00000

 soft charge-density along one line, spin component           1
         0         1         2         3         4         5         6         7         8         9
 total charge-density along one line

------------------------ aborting loop because EDIFF is reached ----------------------------------------

|           W    W    AA    RRRRR   N    N  II  N    N   GGGG   !!!           |
|           W    W   A  A   R    R  NN   N  II  NN   N  G    G  !!!           |
|           W    W  A    A  R    R  N N  N  II  N N  N  G       !!!           |
|           W WW W  AAAAAA  RRRRR   N  N N  II  N  N N  G  GGG   !            |
|           WW  WW  A    A  R   R   N   NN  II  N   NN  G    G                |
|           W    W  A    A  R    R  N    N  II  N    N   GGGG   !!!           |
|     Specifying the vdW parameters                                           |
|     VDW_S8 = 0.928                                                          |
|     VDW_SR = 1.287                                                          |
|     in the INCAR file will overwrite the defaults for pbe0. Please make     |
|     sure that is what you intended.                                         |

         DFTD3 V3.0 Rev 1
 IVDW         = 11
 DF pbe0
 parameters
 VDW_S6       =    1.0000
 VDW_S8       =    0.9280
 VDW_SR       =    1.2870
 rs18     =    1.0000
 alpha6   =   14.0000
 alpha8   =   16.0000
 k1-k3    =   16.0000    1.3333   -4.0000
 VDW_RADIUS   =   50.2022 A
 VDW_CNRADIUS =   21.1671 A
 Edisp (eV)  -20.91313

 E6    (eV) :    -6.4858
 E8    (eV) :   -14.4273
 % E8        : 68.99

 VOLUME and BASIS-vectors are now :
  energy-cutoff  :      520.00
  volume of cell :     9881.61
      direct lattice vectors                 reciprocal lattice vectors
    21.138852197  0.000000000  0.000000000     0.047306258  0.000000000  0.000000000
     0.000000000 21.138852197  0.000000000     0.000000000  0.047306258  0.000000000
     0.000000000  0.000000000 22.113885220     0.000000000  0.000000000  0.045220457

  length of vectors
    21.138852197 21.138852197 22.113885220     0.047306258  0.047306258  0.045220457

 FORCES acting on ions:
    Electron-Ion                     Ewald-Force                    Non-Local-Force
   -.268E+03 -.213E-05 -.199E+04   0.260E+03 0.836E-08 0.199E+04   0.743E+01 -.404E-22 -.150E+00
   0.268E+03 -.213E-05 -.199E+04   -.260E+03 0.836E-08 0.199E+04   -.743E+01 0.153E-21 -.150E+00
   0.134E-12 -.342E-08 0.932E+03   0.941E-13 0.701E-08 -.923E+03   0.299E-23 -.169E-23 -.709E+01
   0.368E+01 0.406E+01 0.933E+03   -.368E+01 -.407E+01 -.924E+03   -.241E-02 0.602E-02 -.709E+01
   0.172E-12 0.437E+01 -.923E+03   0.131E-12 -.438E+01 0.915E+03   0.641E-23 0.608E-02 0.707E+01
   0.388E+01 -.489E-08 -.923E+03   -.387E+01 0.100E-07 0.915E+03   -.339E-02 0.296E-23 0.707E+01
   0.132E-12 0.601E+01 0.933E+03   0.155E-10 -.602E+01 -.925E+03   0.169E-22 0.987E-02 -.709E+01
   0.766E+01 0.768E+01 0.937E+03   -.766E+01 -.770E+01 -.928E+03   0.205E-02 0.138E-01 -.709E+01
   0.164E-12 0.814E+01 -.921E+03   0.207E-11 -.816E+01 0.912E+03   0.162E-22 0.124E-01 0.707E+01
   0.703E+01 0.910E+01 -.921E+03   -.703E+01 -.912E+01 0.913E+03   -.208E-02 0.132E-01 0.707E+01
   0.124E-12 0.415E+01 0.937E+03   -.175E-10 -.417E+01 -.928E+03   0.290E-23 0.747E-02 -.709E+01
   0.112E+02 0.522E-08 0.940E+03   -.113E+02 -.107E-07 -.931E+03   0.161E-01 -.385E-23 -.709E+01
   0.163E-12 0.545E-08 -.919E+03   0.229E-12 -.112E-07 0.910E+03   0.835E-23 0.550E-23 0.707E+01
   0.154E+02 0.715E+01 -.917E+03   -.155E+02 -.717E+01 0.908E+03   0.167E-01 0.118E-01 0.707E+01
   0.124E-12 -.415E+01 0.937E+03   0.114E-11 0.417E+01 -.928E+03   0.134E-23 -.747E-02 -.709E+01
   0.766E+01 -.768E+01 0.937E+03   -.766E+01 0.770E+01 -.928E+03   0.205E-02 -.138E-01 -.709E+01
   0.180E-12 -.814E+01 -.921E+03   -.927E-12 0.816E+01 0.912E+03   -.249E-22 -.124E-01 0.707E+01
   0.154E+02 -.715E+01 -.917E+03   -.155E+02 0.717E+01 0.908E+03   0.167E-01 -.118E-01 0.707E+01
   0.125E-12 -.601E+01 0.933E+03   0.909E-12 0.602E+01 -.925E+03   -.151E-22 -.987E-02 -.709E+01
   0.368E+01 -.406E+01 0.933E+03   -.368E+01 0.407E+01 -.924E+03   -.241E-02 -.602E-02 -.709E+01
   0.180E-12 -.437E+01 -.923E+03   -.899E-12 0.438E+01 0.915E+03   0.130E-23 -.608E-02 0.707E+01
   0.703E+01 -.910E+01 -.921E+03   -.703E+01 0.912E+01 0.913E+03   -.208E-02 -.132E-01 0.707E+01
   0.528E+01 -.527E-08 0.933E+03   -.528E+01 0.108E-07 -.925E+03   -.485E-02 0.148E-23 -.709E+01
   0.663E+01 0.778E+01 0.936E+03   -.662E+01 -.779E+01 -.927E+03   -.624E-02 0.764E-02 -.709E+01
   0.800E+01 0.745E+01 -.921E+03   -.799E+01 -.746E+01 0.913E+03   -.695E-02 0.769E-02 0.707E+01
   0.688E+01 -.990E-08 -.921E+03   -.687E+01 0.203E-07 0.913E+03   -.722E-02 -.142E-22 0.707E+01
   0.924E+01 0.101E+02 0.937E+03   -.924E+01 -.101E+02 -.928E+03   -.360E-02 0.147E-01 -.709E+01
   0.172E+02 0.191E+02 0.950E+03   -.172E+02 -.192E+02 -.942E+03   -.234E-02 0.301E-01 -.709E+01
   0.221E+02 0.180E+02 -.914E+03   -.221E+02 -.181E+02 0.905E+03   0.113E-03 0.312E-01 0.707E+01
   0.152E+02 0.227E+02 -.915E+03   -.151E+02 -.227E+02 0.906E+03   -.155E-01 0.214E-01 0.707E+01
   0.200E+02 0.854E+01 0.947E+03   -.200E+02 -.857E+01 -.939E+03   0.120E-01 0.196E-01 -.708E+01
   0.310E+02 0.168E-07 0.970E+03   -.310E+02 -.344E-07 -.961E+03   -.669E-02 0.551E-23 -.699E+01
   0.409E+02 0.157E-07 -.903E+03   -.410E+02 -.321E-07 0.895E+03   0.766E-01 -.184E-22 0.709E+01
   0.561E+02 0.338E+02 -.880E+03   -.562E+02 -.339E+02 0.871E+03   0.223E-01 0.879E-01 0.710E+01
   0.200E+02 -.854E+01 0.947E+03   -.200E+02 0.857E+01 -.939E+03   0.120E-01 -.196E-01 -.708E+01
   0.172E+02 -.191E+02 0.950E+03   -.172E+02 0.192E+02 -.942E+03   -.234E-02 -.301E-01 -.709E+01
   0.221E+02 -.180E+02 -.914E+03   -.221E+02 0.181E+02 0.905E+03   0.113E-03 -.312E-01 0.707E+01
   0.561E+02 -.338E+02 -.880E+03   -.562E+02 0.339E+02 0.871E+03   0.223E-01 -.879E-01 0.710E+01
   0.924E+01 -.101E+02 0.937E+03   -.924E+01 0.101E+02 -.928E+03   -.360E-02 -.147E-01 -.709E+01
   0.663E+01 -.778E+01 0.936E+03   -.662E+01 0.779E+01 -.927E+03   -.624E-02 -.764E-02 -.709E+01
   0.800E+01 -.745E+01 -.921E+03   -.799E+01 0.746E+01 0.913E+03   -.695E-02 -.769E-02 0.707E+01
   0.152E+02 -.227E+02 -.915E+03   -.151E+02 0.227E+02 0.906E+03   -.155E-01 -.214E-01 0.707E+01
   0.351E+01 -.900E-08 0.936E+03   -.351E+01 0.184E-07 -.927E+03   -.385E-02 -.912E-23 -.709E+01
   -.214E-12 0.107E+02 0.939E+03   0.435E-11 -.107E+02 -.930E+03   0.286E-23 0.318E-02 -.709E+01
   0.574E+01 0.144E+02 -.918E+03   -.573E+01 -.144E+02 0.910E+03   -.672E-02 -.233E-03 0.707E+01
   -.245E-12 -.139E-07 -.920E+03   0.875E-13 0.285E-07 0.911E+03   -.132E-22 -.149E-22 0.707E+01
   0.703E+01 0.197E+02 0.945E+03   -.702E+01 -.198E+02 -.937E+03   -.727E-02 0.208E-01 -.710E+01
   -.207E-12 0.312E+02 0.965E+03   -.558E-11 -.313E+02 -.956E+03   0.158E-22 0.243E-01 -.713E+01
   0.238E+02 0.558E+02 -.887E+03   -.238E+02 -.559E+02 0.879E+03   -.433E-01 0.715E-01 0.705E+01
   -.237E-12 0.365E+02 -.908E+03   -.191E-10 -.364E+02 0.899E+03   0.122E-22 -.186E-01 0.706E+01
   0.204E+02 0.239E+02 0.984E+03   -.203E+02 -.240E+02 -.975E+03   -.690E-02 0.167E-01 -.702E+01
   -.216E-12 0.330E-07 0.101E+04   -.457E-13 -.677E-07 -.100E+04   0.201E-23 -.688E-23 -.715E+01
   0.822E+02 0.112E-06 -.757E+03   -.821E+02 -.229E-06 0.749E+03   -.111E+00 -.659E-23 0.648E+01
   -.249E-12 0.923E+02 -.798E+03   0.216E-10 -.924E+02 0.790E+03   0.127E-22 0.353E-01 0.674E+01
   0.204E+02 -.239E+02 0.984E+03   -.203E+02 0.240E+02 -.975E+03   -.690E-02 -.167E-01 -.702E+01
   -.228E-12 -.312E+02 0.965E+03   -.183E-10 0.313E+02 -.956E+03   -.212E-22 -.243E-01 -.713E+01
   0.238E+02 -.558E+02 -.887E+03   -.238E+02 0.559E+02 0.879E+03   -.433E-01 -.715E-01 0.705E+01
   -.243E-12 -.923E+02 -.798E+03   0.182E-10 0.924E+02 0.790E+03   -.119E-22 -.353E-01 0.674E+01
   0.703E+01 -.197E+02 0.945E+03   -.702E+01 0.198E+02 -.937E+03   -.727E-02 -.208E-01 -.710E+01
   -.226E-12 -.107E+02 0.939E+03   0.205E-10 0.107E+02 -.930E+03   -.432E-23 -.318E-02 -.709E+01
[...]
   -.107E+02 0.891E+01 0.707E+03   0.107E+02 -.893E+01 -.711E+03   -.213E-02 0.223E-01 0.310E+01
   -.393E+01 0.527E+01 0.702E+03   0.393E+01 -.528E+01 -.706E+03   0.707E-03 0.118E-01 0.310E+01
   -.257E+02 0.107E+02 -.681E+03   0.258E+02 -.107E+02 0.685E+03   -.289E-01 0.381E-01 -.310E+01
   -.131E+02 0.553E-08 -.688E+03   0.132E+02 -.113E-07 0.692E+03   -.175E-01 0.276E-23 -.311E+01
   -.170E+02 0.675E-08 0.713E+03   0.170E+02 -.138E-07 -.717E+03   -.306E-01 -.284E-22 0.313E+01
   -.761E+01 0.386E+01 0.705E+03   0.762E+01 -.387E+01 -.709E+03   -.973E-02 0.126E-01 0.310E+01
   -.257E+02 -.107E+02 -.681E+03   0.258E+02 0.107E+02 0.685E+03   -.289E-01 -.381E-01 -.310E+01
   -.826E+01 -.774E+01 -.690E+03   0.826E+01 0.775E+01 0.694E+03   -.538E-02 -.189E-01 -.311E+01
   -.107E+02 -.891E+01 0.707E+03   0.107E+02 0.893E+01 -.711E+03   -.213E-02 -.223E-01 0.310E+01
   -.761E+01 -.386E+01 0.705E+03   0.762E+01 0.387E+01 -.709E+03   -.973E-02 -.126E-01 0.310E+01
   -.965E+01 -.106E+02 -.690E+03   0.965E+01 0.106E+02 0.694E+03   0.401E-02 -.159E-01 -.312E+01
   -.348E+01 -.386E+01 -.693E+03   0.348E+01 0.386E+01 0.697E+03   0.265E-02 -.637E-02 -.311E+01
   -.468E+01 -.419E+01 0.702E+03   0.468E+01 0.419E+01 -.706E+03   0.470E-02 -.663E-02 0.309E+01
   -.393E+01 -.527E+01 0.702E+03   0.393E+01 0.528E+01 -.706E+03   0.707E-03 -.118E-01 0.310E+01
   -.870E-11 -.431E-05 0.590E+01   0.324E-11 -.102E-11 -.739E-11   -.997E-15 -.113E-15 -.567E+01

 POSITION                                       TOTAL-FORCE (eV/Angst)
     11.85490     10.56943     14.05048        -0.007752      0.000000     -0.045660
      9.28395     10.56943     14.05048         0.007752      0.000000     -0.045660
      0.00000      0.00000      9.00000         0.000000      0.000000      0.549614
      2.11389      2.11389      9.00000         0.000788     -0.001889      0.549558
      0.00000      2.11389     11.11389         0.000000     -0.001925     -0.546340
      2.11389      0.00000     11.11389         0.001112      0.000000     -0.546232
      0.00000      4.22777      9.00000         0.000000     -0.003189      0.549158
      2.11389      6.34166      9.00000        -0.000697     -0.004510      0.548418
      0.00000      6.34166     11.11389         0.000000     -0.004048     -0.546615
      2.11389      4.22777     11.11389         0.000720     -0.004152     -0.546277
      0.00000      8.45554      9.00000         0.000000     -0.002513      0.548358
      2.11389     10.56943      9.00000        -0.004686      0.000000      0.547689
      0.00000     10.56943     11.11389         0.000000      0.000000     -0.547296
      2.11389      8.45554     11.11389        -0.004936     -0.003929     -0.547523
      0.00000     12.68331      9.00000         0.000000      0.002513      0.548358
      2.11389     14.79720      9.00000        -0.000697      0.004510      0.548418
      0.00000     14.79720     11.11389         0.000000      0.004048     -0.546615
      2.11389     12.68331     11.11389        -0.004936      0.003929     -0.547523
      0.00000     16.91108      9.00000         0.000000      0.003189      0.549158
      2.11389     19.02497      9.00000         0.000788      0.001889      0.549558
      0.00000     19.02497     11.11389         0.000000      0.001925     -0.546340
      2.11389     16.91108     11.11389         0.000720      0.004152     -0.546277
      4.22777      0.00000      9.00000         0.001602      0.000000      0.549912
      6.34166      2.11389      9.00000         0.002132     -0.002228      0.550508
      4.22777      2.11389     11.11389         0.002306     -0.002314     -0.545732
      6.34166      0.00000     11.11389         0.002448      0.000000     -0.545235
      4.22777      4.22777      9.00000         0.001182     -0.004563      0.549471
      6.34166      6.34166      9.00000         0.000878     -0.009080      0.549189
      4.22777      6.34166     11.11389         0.000711     -0.009474     -0.546496
      6.34166      4.22777     11.11389         0.005614     -0.005663     -0.543444
      4.22777      8.45554      9.00000        -0.003783     -0.006742      0.545129
      6.34166     10.56943      9.00000         0.005290      0.000000      0.525676
      4.22777     10.56943     11.11389        -0.023222      0.000000     -0.550372
      6.34166      8.45554     11.11389         0.008494     -0.018169     -0.540709
      4.22777     12.68331      9.00000        -0.003783      0.006742      0.545129
      6.34166     14.79720      9.00000         0.000878      0.009080      0.549189
      4.22777     14.79720     11.11389         0.000711      0.009474     -0.546496
      6.34166     12.68331     11.11389         0.008494      0.018169     -0.540709
      4.22777     16.91108      9.00000         0.001182      0.004563      0.549471
      6.34166     19.02497      9.00000         0.002132      0.002228      0.550508
      4.22777     19.02497     11.11389         0.002306      0.002314     -0.545732
      6.34166     16.91108     11.11389         0.005614      0.005663     -0.543444
      8.45554      0.00000      9.00000         0.001327      0.000000      0.550619
     10.56943      2.11389      9.00000         0.000000     -0.000964      0.551308
      8.45554      2.11389     11.11389         0.002429      0.000634     -0.543650
     10.56943      0.00000     11.11389         0.000000      0.000000     -0.544462
      8.45554      4.22777      9.00000         0.002833     -0.005674      0.553384
     10.56943      6.34166      9.00000         0.000000     -0.007392      0.561826
      8.45554      6.34166     11.11389         0.023164     -0.010430     -0.515404
     10.56943      4.22777     11.11389         0.000000      0.009097     -0.536045
      8.45554      8.45554      9.00000         0.005985     -0.000170      0.535643
     10.56943     10.56943      9.00000         0.000000      0.000000      0.543331
      8.45554     10.56943     11.11389        -0.017758      0.000000     -0.765457
     10.56943      8.45554     11.11389         0.000000      0.084948     -0.248562
      8.45554     12.68331      9.00000         0.005985      0.000170      0.535643
     10.56943     14.79720      9.00000         0.000000      0.007392      0.561826
      8.45554     14.79720     11.11389         0.023164      0.010430     -0.515404
     10.56943     12.68331     11.11389         0.000000     -0.084948     -0.248562
      8.45554     16.91108      9.00000         0.002833      0.005674      0.553384
     10.56943     19.02497      9.00000         0.000000      0.000964      0.551308
[...]
     19.02497      6.34166     11.11389        -0.001841      0.006308      0.406783
     16.91108      6.34166      9.00000        -0.000862      0.007549     -0.407782
     19.02497      4.22777      9.00000         0.000218      0.003944     -0.409067
     16.91108      8.45554     11.11389        -0.010630      0.013065      0.412315
     19.02497     10.56943     11.11389        -0.005991      0.000000      0.408383
     16.91108     10.56943      9.00000        -0.011469      0.000000     -0.398947
     19.02497      8.45554      9.00000        -0.003321      0.004200     -0.407259
     16.91108     12.68331     11.11389        -0.010630     -0.013065      0.412315
     19.02497     14.79720     11.11389        -0.001841     -0.006308      0.406783
     16.91108     14.79720      9.00000        -0.000862     -0.007549     -0.407782
     19.02497     12.68331      9.00000        -0.003321     -0.004200     -0.407259
     16.91108     16.91108     11.11389         0.001233     -0.005353      0.405546
     19.02497     19.02497     11.11389         0.000858     -0.002128      0.405970
     16.91108     19.02497      9.00000         0.001536     -0.002216     -0.409625
     19.02497     16.91108      9.00000         0.000218     -0.003944     -0.409067
    total drift:                               -0.000000     -0.000004     -0.527876

  FREE ENERGIE OF THE ION-ELECTRON SYSTEM (eV)
  free  energy   TOTEN  =     -1443.33038077 eV

  energy  without entropy=    -1443.33038077  energy(sigma->0) =    -1443.33038077