 vasp.6.3.0 20Jan22 (build Apr  1 2022 16:44:48) complex
 executed on        HPECrayEX_GCC date 2023.01.10  12:29:08

 INCAR:
   SYSTEM = MgO-rocksalt
   ISMEAR = 0
   SIGMA = 0.05
   EDIFF = 1E-6
   ALGO = ALL
   ISTART = 0
   IBRION = -1
   NSW = 0
   ISYM = 2
   DIPOL = 0.5 0.5 0.5
   IDIPOL = 3
   LDIPOL = .TRUE.
   LHFCALC = .TRUE.
   GGA = PE
   IVDW = 21
   VDW_SR = 0.96
   ENCUT = 520
   PREC = Accurate
   LASPH = .TRUE.
   LREAL = Auto
   ISPIN = 1
   NELM = 200
   NELMIN = 8
   NCORE = 4
   KPAR = 2
   LWAVE = .FALSE.
   LCHARG = .FALSE.

 POTCAR:    PAW_PBE Au 04Oct2007
 POTCAR:    PAW_PBE Mg_pv 13Apr2007
 POTCAR:    PAW_PBE O 08Apr2002
|           W    W    AA    RRRRR   N    N  II  N    N   GGGG   !!!           |
|           W    W   A  A   R    R  NN   N  II  NN   N  G    G  !!!           |
|           W    W  A    A  R    R  N N  N  II  N N  N  G       !!!           |
|           W WW W  AAAAAA  RRRRR   N  N N  II  N  N N  G  GGG   !            |
|           WW  WW  A    A  R   R   N   NN  II  N   NN  G    G                |
|           W    W  A    A  R    R  N    N  II  N    N   GGGG   !!!           |
|     You have selected ISYM=2 for a HF type calculation. This will           |
|     symmetrize the charge density but not the exchange potential. I         |
|     suggest to use ISYM=3 instead. This uses symmetry to obtain the         |
|     orbitals at all k-points in the Brillouin zone, but does not apply      |
|     symmetry to the Hartree potential directly. The resultant charge        |
|     might have lower symmetry than the crystal but, at least, Hartree       |
|     and exchange are fully compatible.                                      |

   TITEL  = PAW_PBE Au 04Oct2007
   POMASS =  196.966; ZVAL   =   11.000    mass and valenz
   ENMAX  =  229.943; ENMIN  =  172.457 eV

   TITEL  = PAW_PBE Mg_pv 13Apr2007
   POMASS =   24.305; ZVAL   =    8.000    mass and valenz
   ENMAX  =  403.929; ENMIN  =  302.947 eV

   TITEL  = PAW_PBE O 08Apr2002
   POMASS =   16.000; ZVAL   =    6.000    mass and valenz
   ENMAX  =  400.000; ENMIN  =  300.000 eV

 Optimization of the real space projectors (new method)

 maximal supplied QI-value         = 15.12
 optimisation between [QCUT,QGAM] = [ 11.64, 23.28] = [ 37.95,151.78] Ry
 Optimized for a Real-space Cutoff    1.49 Angstroem

   l    n(q)    QCUT    max X(q) W(low)/X(q) W(high)/X(q)  e(spline)
   2      9    11.641    60.898    0.24E-03    0.10E-03    0.19E-06
   2      9    11.641    58.894    0.25E-03    0.10E-03    0.19E-06
   0     10    11.641   109.617    0.73E-04    0.33E-04    0.11E-06
   0     10    11.641    75.026    0.71E-04    0.32E-04    0.11E-06
   1     10    11.641    16.344    0.27E-04    0.97E-04    0.16E-06
   1     10    11.641    10.160    0.23E-04    0.77E-04    0.13E-06
 Optimization of the real space projectors (new method)

[...]

   l    n(q)    QCUT    max X(q) W(low)/X(q) W(high)/X(q)  e(spline)
   1      8    11.527     2.974    0.44E-04    0.56E-04    0.12E-06
   1      8    11.527     4.279    0.12E-03    0.12E-03    0.26E-06
   0      9    11.527    16.381    0.46E-04    0.64E-04    0.78E-07
   0      9    11.527     5.611    0.26E-04    0.43E-04    0.55E-07
   2      8    11.527     4.652    0.22E-03    0.72E-04    0.47E-07
 Optimization of the real space projectors (new method)

 maximal supplied QI-value         = 24.76
 optimisation between [QCUT,QGAM] = [ 11.64, 23.27] = [ 37.91,151.63] Ry
 Optimized for a Real-space Cutoff    1.14 Angstroem

   l    n(q)    QCUT    max X(q) W(low)/X(q) W(high)/X(q)  e(spline)
   0      8    11.635    20.381    0.10E-03    0.33E-03    0.24E-06
   0      8    11.635    15.268    0.11E-03    0.35E-03    0.26E-06
   1      7    11.635     5.964    0.24E-03    0.31E-03    0.30E-06
   1      7    11.635     5.382    0.22E-03    0.25E-03    0.26E-06
  PAW_PBE Au 04Oct2007                  :
  PAW_PBE Mg_pv 13Apr2007               :
  PAW_PBE O 08Apr2002                   :

 POSCAR: Au Mg  O
  positions in direct lattice
  velocities in cartesian coordinates
 exchange correlation table for  LEXCH =        8
   RHO(1)=    0.500       N(1)  =     2000
   RHO(2)=  100.500       N(2)  =     4000

 ion  position               nearest neighbor table
   1  0.290  0.507  0.638-   2 2.69   3 2.71
   2  0.397  0.442  0.618-   1 2.69   4 2.69 153 2.70   3 2.70  55 2.83
   3  0.397  0.569  0.609- 157 2.45   2 2.70   1 2.71   4 2.71  55 2.78
   4  0.505  0.506  0.637-   2 2.69   3 2.71
   5  0.000  0.000  0.407- 107 2.11 108 2.11 123 2.11 188 2.11 105 2.11
   6  0.100  0.100  0.407- 107 2.11 108 2.11 112 2.11 127 2.11 106 2.11
   7  0.000  0.100  0.503- 105 2.11 106 2.11 109 2.11 186 2.11 107 2.11
   8  0.100  0.000  0.503- 105 2.11 106 2.11 122 2.11 125 2.11 108 2.11
   9  0.000  0.200  0.407- 111 2.11 107 2.11 112 2.11 192 2.11 109 2.11
  10  0.100  0.300  0.407- 112 2.11 111 2.11 116 2.11 131 2.11 110 2.11
  11  0.000  0.300  0.503- 109 2.11 110 2.11 113 2.11 190 2.11 111 2.11
  12  0.100  0.200  0.503- 110 2.11 109 2.11 106 2.11 129 2.11 112 2.11
  13  0.000  0.400  0.407- 111 2.11 115 2.11 116 2.11 196 2.11 113 2.11
  14  0.100  0.500  0.407- 115 2.11 116 2.11 120 2.11 135 2.11 114 2.11
  15  0.000  0.500  0.503- 113 2.11 114 2.11 117 2.11 194 2.11 115 2.11
  16  0.100  0.400  0.503- 110 2.11 113 2.11 114 2.11 133 2.11 116 2.11
  17  0.000  0.600  0.407- 115 2.11 119 2.11 120 2.11 200 2.11 117 2.11
  18  0.100  0.700  0.407- 124 2.11 120 2.11 119 2.11 139 2.11 118 2.11
  19  0.000  0.700  0.503- 121 2.11 118 2.11 117 2.11 198 2.11 119 2.11
  20  0.100  0.600  0.503- 114 2.11 117 2.11 118 2.11 137 2.11 120 2.11
  21  0.000  0.800  0.407- 119 2.11 123 2.11 124 2.11 204 2.11 121 2.11
  22  0.100  0.900  0.407- 108 2.11 123 2.11 124 2.11 143 2.11 122 2.11
  23  0.000  0.900  0.503- 105 2.11 121 2.11 122 2.11 202 2.11 123 2.11
  24  0.100  0.800  0.503- 118 2.11 121 2.11 122 2.11 141 2.11 124 2.11
  25  0.200  0.000  0.407- 128 2.11 127 2.11 108 2.11 143 2.11 125 2.11
  26  0.300  0.100  0.407- 127 2.11 128 2.11 132 2.11 147 2.11 126 2.11
  27  0.200  0.100  0.503- 126 2.11 125 2.11 106 2.11 129 2.11 127 2.11
  28  0.300  0.000  0.503- 125 2.11 126 2.11 142 2.11 145 2.11 128 2.11
  29  0.200  0.200  0.407- 131 2.11 132 2.11 112 2.11 127 2.11 129 2.11
  30  0.300  0.300  0.407- 131 2.11 132 2.11 136 2.11 151 2.11 130 2.11
  31  0.200  0.300  0.503- 129 2.11 130 2.11 110 2.11 133 2.11 131 2.11
  32  0.300  0.200  0.503- 129 2.11 130 2.11 126 2.11 149 2.11 132 2.11
  33  0.200  0.400  0.407- 136 2.11 131 2.11 135 2.11 116 2.11 133 2.11
  34  0.300  0.500  0.407- 135 2.11 136 2.11 140 2.11 155 2.11 134 2.11
  35  0.200  0.500  0.503- 134 2.11 133 2.11 114 2.11 137 2.11 135 2.11
  36  0.300  0.400  0.503- 133 2.11 130 2.11 134 2.11 153 2.11 136 2.11
  37  0.200  0.600  0.407- 140 2.11 135 2.11 139 2.11 120 2.11 137 2.11
  38  0.300  0.700  0.407- 139 2.11 144 2.11 140 2.11 159 2.11 138 2.11
  39  0.200  0.700  0.503- 138 2.11 141 2.11 118 2.11 137 2.11 139 2.11
  40  0.300  0.600  0.503- 137 2.11 134 2.11 138 2.11 157 2.11 140 2.11
  41  0.200  0.800  0.407- 139 2.11 144 2.11 143 2.11 124 2.11 141 2.11
  42  0.300  0.900  0.407- 143 2.11 128 2.11 144 2.11 163 2.11 142 2.11
  43  0.200  0.900  0.503- 142 2.11 125 2.11 141 2.11 122 2.11 143 2.11
  44  0.300  0.800  0.503- 138 2.11 141 2.11 142 2.11 161 2.11 144 2.11
  45  0.400  0.000  0.407- 128 2.11 147 2.11 148 2.11 163 2.11 145 2.11
  46  0.500  0.100  0.407- 147 2.11 148 2.11 152 2.11 167 2.11 146 2.11
  47  0.400  0.100  0.503- 126 2.11 145 2.11 146 2.11 149 2.11 147 2.11
  48  0.500  0.000  0.503- 145 2.11 146 2.11 162 2.11 165 2.11 148 2.11
  49  0.400  0.200  0.407- 151 2.11 147 2.11 132 2.11 152 2.11 149 2.11
  50  0.500  0.300  0.407- 152 2.11 151 2.11 156 2.11 171 2.11 150 2.11
  51  0.400  0.300  0.503- 149 2.11 130 2.11 150 2.11 153 2.11 151 2.11
  52  0.500  0.200  0.503- 150 2.11 149 2.11 146 2.11 169 2.11 152 2.11
  53  0.400  0.400  0.407- 136 2.11 151 2.11 155 2.11 156 2.11 153 2.11
  54  0.500  0.500  0.407- 155 2.11 156 2.11 160 2.11 175 2.11 154 2.11
  55  0.400  0.500  0.503- 134 2.11 153 2.11 154 2.11 157 2.11 155 2.11   3 2.78   2 2.83
  56  0.500  0.400  0.503- 150 2.11 153 2.11 154 2.11 173 2.11 156 2.11
  57  0.400  0.600  0.407- 140 2.11 155 2.11 159 2.11 160 2.11 157 2.11
  58  0.500  0.700  0.407- 164 2.11 160 2.11 159 2.11 179 2.11 158 2.11
  59  0.400  0.700  0.503- 161 2.11 157 2.11 158 2.11 138 2.11 159 2.11
  60  0.500  0.600  0.503- 154 2.11 157 2.11 158 2.11 177 2.11 160 2.11
[...]
 190  0.900  0.300  0.503-  92 2.11  91 2.11  11 2.11  96 2.11  90 2.11
 191  0.800  0.300  0.407-  70 2.11  89 2.11  90 2.11  93 2.11  91 2.11
 192  0.900  0.200  0.407-  90 2.11  86 2.11  89 2.11   9 2.11  92 2.11
 193  0.800  0.400  0.503-  76 2.11  91 2.11  95 2.11  96 2.11  93 2.11
 194  0.900  0.500  0.503-  15 2.11  95 2.11  96 2.11 100 2.11  94 2.11
 195  0.800  0.500  0.407-  74 2.11  93 2.11  94 2.11  97 2.11  95 2.11
 196  0.900  0.400  0.407-  13 2.11  90 2.11  93 2.11  94 2.11  96 2.11
 197  0.800  0.600  0.503-  80 2.11  95 2.11  99 2.11 100 2.11  97 2.11
 198  0.900  0.700  0.503- 104 2.11  99 2.11 100 2.11  19 2.11  98 2.11
 199  0.800  0.700  0.407-  78 2.11 101 2.11  98 2.11  97 2.11  99 2.11
 200  0.900  0.600  0.407-  17 2.11  94 2.11  97 2.11  98 2.11 100 2.11
 201  0.800  0.800  0.503-  84 2.11  99 2.11 103 2.11 104 2.11 101 2.11
 202  0.900  0.900  0.503-  23 2.11  88 2.11 103 2.11 104 2.11 102 2.11
 203  0.800  0.900  0.407-  82 2.11  85 2.11 101 2.11 102 2.11 103 2.11
 204  0.900  0.800  0.407-  98 2.11  21 2.11 101 2.11 102 2.11 104 2.11

  LATTYP: Found a simple tetragonal cell.
 ALAT       =    21.1388521970
 C/A-ratio  =     1.0461251639

  Lattice vectors:

 A1 = (  21.1388521970,   0.0000000000,   0.0000000000)
 A2 = (   0.0000000000,  21.1388521970,   0.0000000000)
 A3 = (   0.0000000000,   0.0000000000,  22.1138852197)

Analysis of symmetry for initial positions (statically):
 Subroutine PRICEL returns:
 Original cell was already a primitive cell.

 Routine SETGRP: Setting up the symmetry group for a
 simple tetragonal supercell.

 Subroutine GETGRP returns: Found  1 space group operations
 (whereof  1 operations were pure point group operations)
 out of a pool of 16 trial point group operations.

The static configuration has the point symmetry C_1 .

Analysis of symmetry for dynamics (positions and initial velocities):
 Subroutine PRICEL returns:
 Original cell was already a primitive cell.

[...]

The dynamic configuration has the point symmetry C_1 .

Analysis of constrained symmetry for selective dynamics:
 Subroutine PRICEL returns:
 Original cell was already a primitive cell.

 Routine SETGRP: Setting up the symmetry group for a
 simple tetragonal supercell.

 Subroutine GETGRP returns: Found  1 space group operations
 (whereof  1 operations were pure point group operations)
 out of a pool of 16 trial point group operations.

The constrained configuration has the point symmetry C_1 .

 Subroutine INISYM returns: Found  1 space group operations
 (whereof  1 operations are pure point group operations),
 and found     1 'primitive' translations

[...]
   Mg          1.378          1.540          3.329          0.04688559
   Mg          1.379          1.540          3.330          0.04690060
   Mg          1.375          1.539          3.324          0.04682137
   Mg          1.376          1.540          3.327          0.04685383
   Mg          1.388          1.542          3.341          0.04705718
   Mg          1.370          1.539          3.319          0.04675132
   Mg          1.374          1.539          3.323          0.04680842
   Mg          1.378          1.540          3.329          0.04688419
   Mg          1.379          1.540          3.330          0.04689758
   Mg          1.373          1.539          3.322          0.04679558
[...]
   O         199.250          4.883         19.299          3.57384134
   O         199.816          4.885         19.326          3.57891542
   O         199.783          4.885         19.325          3.57861962
   O         199.188          4.882         19.296          3.57328621
   O         199.143          4.882         19.294          3.57288684
   O         199.870          4.885         19.329          3.57939945
   O         199.832          4.885         19.327          3.57906124
   O         199.188          4.882         19.296          3.57328419
   O         199.235          4.883         19.298          3.57370736
   O         199.813          4.885         19.326          3.57888935
   O         199.832          4.885         19.327          3.57905634
   O         199.269          4.883         19.300          3.57401767
   O         199.348          4.883         19.303          3.57471783
   O         199.755          4.885         19.323          3.57836615
   O         199.779          4.885         19.324          3.57858134

  vdW correction parametrized for the method         

  IVDW =  21
  VDW_RADIUS =    50.000 A
  VDW_IDAMPF =  0
  VDW_S6 =     1.000
  VDW_SR =     0.960
  VDW_D =    20.000
  LVDW_ONECELL = F F F
  LVDW_SAMETYPE T T T
  LVDW_EWALD = F

  Number of pair interactions contributing to vdW energy: 1118581
  Edisp (eV):   -7.43427

 VOLUME and BASIS-vectors are now :
  energy-cutoff  :      520.00
  volume of cell :     9881.61
      direct lattice vectors                 reciprocal lattice vectors
    21.138852197  0.000000000  0.000000000     0.047306258  0.000000000  0.000000000
     0.000000000 21.138852197  0.000000000     0.000000000  0.047306258  0.000000000
     0.000000000  0.000000000 22.113885220     0.000000000  0.000000000  0.045220457

  length of vectors
    21.138852197 21.138852197 22.113885220     0.047306258  0.047306258  0.045220457

 FORCES acting on ions:
    Electron-Ion                     Ewald-Force                    Non-Local-Force
   0.485E+03 -.687E+01 -.207E+04   -.480E+03 0.671E+01 0.207E+04   -.511E+01 0.153E+00 0.904E+00
   0.185E+01 0.485E+03 -.204E+04   -.183E+01 -.480E+03 0.204E+04   -.503E-02 -.492E+01 -.655E+00
   -.141E+01 -.472E+03 -.203E+04   0.131E+01 0.468E+03 0.203E+04   0.118E+00 0.406E+01 -.816E+00
   -.485E+03 -.424E+01 -.207E+04   0.480E+03 0.406E+01 0.207E+04   0.513E+01 0.175E+00 0.774E+00
   0.664E+01 -.546E+00 0.937E+03   -.667E+01 0.554E+00 -.929E+03   0.185E-01 -.518E-02 -.711E+01
   0.127E+02 0.109E+02 0.941E+03   -.127E+02 -.109E+02 -.933E+03   0.370E-01 -.450E-02 -.711E+01
   0.954E+01 0.100E+02 -.919E+03   -.956E+01 -.100E+02 0.910E+03   0.182E-01 -.133E-01 0.705E+01
   0.135E+02 -.967E+00 -.918E+03   -.136E+02 0.979E+00 0.909E+03   0.318E-01 -.817E-02 0.705E+01
   0.107E+02 0.143E+02 0.942E+03   -.108E+02 -.143E+02 -.933E+03   0.241E-01 -.122E-01 -.712E+01
   0.288E+02 0.247E+02 0.957E+03   -.289E+02 -.247E+02 -.948E+03   0.794E-01 -.105E-01 -.714E+01
   0.227E+02 0.217E+02 -.911E+03   -.227E+02 -.216E+02 0.903E+03   0.111E-01 -.244E-01 0.704E+01
   0.259E+02 0.288E+02 -.911E+03   -.260E+02 -.288E+02 0.902E+03   0.530E-01 -.271E-01 0.704E+01
   0.211E+02 0.113E+02 0.952E+03   -.212E+02 -.112E+02 -.943E+03   0.262E-01 -.704E-02 -.713E+01
   0.468E+02 0.135E+01 0.975E+03   -.470E+02 -.137E+01 -.966E+03   0.962E-01 0.106E-01 -.718E+01
   0.376E+02 0.108E+01 -.903E+03   -.376E+02 -.108E+01 0.895E+03   -.230E-01 0.502E-02 0.703E+01
   0.704E+02 0.318E+02 -.885E+03   -.704E+02 -.317E+02 0.877E+03   0.434E-02 -.418E-01 0.700E+01
   0.217E+02 -.102E+02 0.952E+03   -.218E+02 0.101E+02 -.944E+03   0.330E-01 0.158E-01 -.713E+01
   0.305E+02 -.247E+02 0.959E+03   -.306E+02 0.246E+02 -.950E+03   0.109E+00 0.149E-01 -.714E+01
   0.240E+02 -.215E+02 -.911E+03   -.240E+02 0.215E+02 0.902E+03   0.187E-01 0.273E-01 0.704E+01
   0.738E+02 -.293E+02 -.883E+03   -.738E+02 0.292E+02 0.875E+03   0.167E-01 0.551E-01 0.699E+01
   0.113E+02 -.148E+02 0.942E+03   -.114E+02 0.148E+02 -.934E+03   0.323E-01 0.865E-02 -.712E+01
   0.132E+02 -.123E+02 0.942E+03   -.133E+02 0.123E+02 -.933E+03   0.455E-01 -.104E-01 -.711E+01
   0.996E+01 -.113E+02 -.918E+03   -.999E+01 0.112E+02 0.910E+03   0.223E-01 0.545E-02 0.705E+01
   0.278E+02 -.304E+02 -.910E+03   -.279E+02 0.304E+02 0.901E+03   0.735E-01 0.219E-01 0.704E+01
   0.113E+02 -.104E+01 0.943E+03   -.114E+02 0.106E+01 -.934E+03   0.373E-01 -.139E-01 -.711E+01
   0.857E+01 0.192E+02 0.949E+03   -.862E+01 -.193E+02 -.940E+03   0.311E-01 0.393E-01 -.711E+01
   0.175E+02 0.214E+02 -.913E+03   -.175E+02 -.214E+02 0.904E+03   0.421E-01 0.634E-02 0.704E+01
   0.901E+01 -.181E+01 -.913E+03   -.904E+01 0.184E+01 0.905E+03   0.247E-01 -.191E-01 0.705E+01
   0.208E+02 0.301E+02 0.955E+03   -.209E+02 -.302E+02 -.947E+03   0.796E-01 0.262E-01 -.712E+01
   0.250E+02 0.556E+02 0.995E+03   -.253E+02 -.558E+02 -.986E+03   0.174E+00 0.137E+00 -.708E+01
   0.597E+02 0.698E+02 -.878E+03   -.600E+02 -.697E+02 0.870E+03   0.193E+00 -.815E-01 0.700E+01
   0.218E+02 0.653E+02 -.893E+03   -.219E+02 -.655E+02 0.885E+03   0.647E-01 0.122E+00 0.704E+01
   0.520E+02 0.323E+02 0.100E+04   -.524E+02 -.323E+02 -.992E+03   0.250E+00 0.148E-01 -.724E+01
   0.490E+02 0.439E+01 0.107E+04   -.496E+02 -.452E+01 -.106E+04   0.355E+00 0.863E-01 -.737E+01
   0.150E+03 0.678E+01 -.785E+03   -.150E+03 -.679E+01 0.778E+03   0.116E+00 0.802E-02 0.656E+01
   0.109E+03 0.136E+03 -.728E+03   -.111E+03 -.136E+03 0.720E+03   0.103E+01 -.970E-01 0.657E+01
   0.544E+02 -.295E+02 0.100E+04   -.549E+02 0.294E+02 -.995E+03   0.333E+00 0.219E-01 -.726E+01
   0.273E+02 -.571E+02 0.100E+04   -.277E+02 0.574E+02 -.993E+03   0.245E+00 -.175E+00 -.706E+01
   0.656E+02 -.726E+02 -.874E+03   -.660E+02 0.725E+02 0.865E+03   0.279E+00 0.961E-01 0.699E+01
   0.123E+03 -.131E+03 -.704E+03   -.126E+03 0.131E+03 0.697E+03   0.158E+01 0.210E+00 0.634E+01
   0.223E+02 -.319E+02 0.957E+03   -.224E+02 0.320E+02 -.949E+03   0.109E+00 -.493E-01 -.711E+01
   0.904E+01 -.220E+02 0.950E+03   -.910E+01 0.221E+02 -.942E+03   0.392E-01 -.848E-01 -.712E+01
   0.185E+02 -.244E+02 -.912E+03   -.186E+02 0.244E+02 0.904E+03   0.522E-01 -.346E-01 0.704E+01
   0.243E+02 -.713E+02 -.890E+03   -.244E+02 0.716E+02 0.882E+03   0.873E-01 -.201E+00 0.704E+01
   -.227E+00 -.142E+01 0.946E+03   0.225E+00 0.145E+01 -.938E+03   0.961E-03 -.228E-01 -.711E+01
   -.897E+01 0.191E+02 0.949E+03   0.902E+01 -.191E+02 -.940E+03   -.296E-01 0.395E-01 -.711E+01
   -.362E+00 0.311E+02 -.908E+03   0.360E+00 -.312E+02 0.900E+03   0.931E-03 0.560E-01 0.705E+01
   -.945E+01 -.177E+01 -.913E+03   0.948E+01 0.180E+01 0.905E+03   -.230E-01 -.198E-01 0.705E+01
   -.437E+00 0.440E+02 0.967E+03   0.435E+00 -.443E+02 -.959E+03   0.122E-02 0.194E+00 -.713E+01
   -.260E+02 0.549E+02 0.994E+03   0.262E+02 -.551E+02 -.986E+03   -.170E+00 0.145E+00 -.709E+01
   -.181E+01 0.139E+03 -.826E+03   0.180E+01 -.141E+03 0.817E+03   0.650E-03 0.921E+00 0.713E+01
   -.227E+02 0.644E+02 -.894E+03   0.228E+02 -.645E+02 0.885E+03   -.624E-01 0.122E+00 0.704E+01
   -.131E+01 0.563E+02 0.106E+04   0.129E+01 -.566E+02 -.105E+04   0.125E-01 0.202E+00 -.597E+01
   -.508E+02 0.423E+01 0.107E+04   0.513E+02 -.436E+01 -.106E+04   -.347E+00 0.870E-01 -.735E+01
   -.600E+01 0.230E+02 -.505E+03   0.598E+01 -.240E+02 0.499E+03   0.350E-01 0.604E+00 0.482E+01
   -.111E+03 0.133E+03 -.734E+03   0.112E+03 -.133E+03 0.726E+03   -.102E+01 -.704E-01 0.660E+01
   -.148E+01 -.517E+02 0.107E+04   0.146E+01 0.518E+02 -.106E+04   0.153E-01 -.817E-01 -.529E+01
   -.285E+02 -.563E+02 0.100E+04   0.288E+02 0.566E+02 -.991E+03   -.239E+00 -.183E+00 -.706E+01
   -.232E+01 -.154E+03 -.810E+03   0.231E+01 0.156E+03 0.801E+03   0.667E-02 -.144E+01 0.718E+01
   -.125E+03 -.128E+03 -.712E+03   0.127E+03 0.128E+03 0.705E+03   -.157E+01 0.188E+00 0.642E+01
[...]
   -.112E+02 0.118E+02 0.711E+03   0.113E+02 -.118E+02 -.715E+03   -.257E-01 -.113E-01 0.306E+01
   0.224E+00 0.909E+01 0.706E+03   -.223E+00 -.908E+01 -.710E+03   -.165E-02 -.123E-01 0.306E+01
   -.229E+02 0.115E+02 -.681E+03   0.229E+02 -.115E+02 0.685E+03   -.757E-02 -.174E-01 -.319E+01
   0.721E+00 0.567E+00 -.684E+03   -.717E+00 -.571E+00 0.688E+03   -.482E-02 0.488E-02 -.318E+01
   -.169E+02 0.543E+00 0.716E+03   0.169E+02 -.550E+00 -.720E+03   -.236E-01 0.726E-02 0.304E+01
   0.422E+00 0.675E+01 0.711E+03   -.419E+00 -.674E+01 -.715E+03   -.359E-02 -.667E-02 0.305E+01
   -.237E+02 -.105E+02 -.681E+03   0.237E+02 0.105E+02 0.685E+03   -.130E-01 0.277E-01 -.319E+01
   0.498E+00 -.125E+02 -.687E+03   -.495E+00 0.125E+02 0.691E+03   -.358E-02 0.227E-01 -.317E+01
   -.118E+02 -.117E+02 0.711E+03   0.118E+02 0.117E+02 -.715E+03   -.343E-01 0.144E-01 0.306E+01
   0.443E+00 -.609E+01 0.711E+03   -.440E+00 0.608E+01 -.715E+03   -.401E-02 0.149E-01 0.305E+01
   -.108E+02 -.142E+02 -.688E+03   0.109E+02 0.142E+02 0.692E+03   -.263E-01 0.132E-01 -.316E+01
   0.221E+00 -.709E+01 -.691E+03   -.220E+00 0.708E+01 0.695E+03   -.154E-02 0.412E-02 -.315E+01
   -.562E+01 -.656E+01 0.705E+03   0.564E+01 0.656E+01 -.709E+03   -.258E-01 -.289E-02 0.307E+01
   0.247E+00 -.939E+01 0.706E+03   -.245E+00 0.939E+01 -.710E+03   -.216E-02 0.886E-02 0.306E+01
   0.466E-01 0.910E+00 0.117E+02   0.273E-11 0.210E-11 0.218E-10   -.140E-01 -.819E+00 -.106E+02

 POSITION                                       TOTAL-FORCE (eV/Angst)
      6.12143     10.70919     14.10279        -0.037387      0.008114      0.063560
      8.38943      9.33976     13.66282         0.008501      0.050149      0.045881
      8.39418     12.03706     13.47256         0.008423     -0.045129      0.002304
     10.67333     10.69253     14.07734         0.033316      0.004705      0.062749
      0.00000      0.00000      9.00000        -0.005931      0.001676      0.574503
      2.11389      2.11389      9.00000        -0.011928      0.001277      0.574772
      0.00000      2.11389     11.11389        -0.005706      0.004256     -0.551173
      2.11389      0.00000     11.11389        -0.010272      0.002584     -0.550435
      0.00000      4.22777      9.00000        -0.007418      0.003991      0.576597
      2.11389      6.34166      9.00000        -0.023914      0.003744      0.583380
      0.00000      6.34166     11.11389        -0.002801      0.008243     -0.545695
      2.11389      4.22777     11.11389        -0.016110      0.008677     -0.545741
      0.00000      8.45554      9.00000        -0.007860      0.002612      0.581620
      2.11389     10.56943      9.00000        -0.029838     -0.003536      0.595662
      0.00000     10.56943     11.11389         0.008090     -0.001648     -0.539104
      2.11389      8.45554     11.11389         0.004648      0.017051     -0.518211
      0.00000     12.68331      9.00000        -0.009932     -0.005508      0.581706
      2.11389     14.79720      9.00000        -0.032853     -0.005122      0.584225
      0.00000     14.79720     11.11389        -0.005016     -0.009222     -0.544915
      2.11389     12.68331     11.11389         0.000974     -0.021570     -0.516084
      0.00000     16.91108      9.00000        -0.009931     -0.002825      0.576648
      2.11389     19.02497      9.00000        -0.014667      0.003552      0.574610
      0.00000     19.02497     11.11389        -0.006980     -0.001699     -0.550838
      2.11389     16.91108     11.11389        -0.022274     -0.006921     -0.544288
      4.22777      0.00000      9.00000        -0.012334      0.004377      0.574400
      6.34166      2.11389      9.00000        -0.010591     -0.012096      0.574688
      4.22777      2.11389     11.11389        -0.013824     -0.001728     -0.548134
      6.34166      0.00000     11.11389        -0.008259      0.005888     -0.548744
      4.22777      4.22777      9.00000        -0.026307     -0.009390      0.575036
      6.34166      6.34166      9.00000        -0.065130     -0.051433      0.555384
      4.22777      6.34166     11.11389        -0.055523      0.030035     -0.515710
      6.34166      4.22777     11.11389        -0.022936     -0.037251     -0.541706
      4.22777      8.45554      9.00000        -0.074973     -0.003296      0.607724
      6.34166     10.56943      9.00000        -0.134543     -0.031722      0.576998
      4.22777     10.56943     11.11389        -0.014854     -0.001247     -0.329756
      6.34166      8.45554     11.11389        -0.384871      0.068668     -0.338162
      4.22777     12.68331      9.00000        -0.098567     -0.008953      0.611127
      6.34166     14.79720      9.00000        -0.092064      0.067787      0.540343
      4.22777     14.79720     11.11389        -0.079077     -0.035749     -0.506163
      6.34166     12.68331     11.11389        -0.609312     -0.094712     -0.302294
      4.22777     16.91108      9.00000        -0.036021      0.017262      0.573710
      6.34166     19.02497      9.00000        -0.013349      0.026278      0.574567
      4.22777     19.02497     11.11389        -0.017111      0.010470     -0.547054
      6.34166     16.91108     11.11389        -0.030631      0.061166     -0.537554
      8.45554      0.00000      9.00000        -0.000314      0.007058      0.574618
     10.56943      2.11389      9.00000         0.010063     -0.012165      0.574605
      8.45554      2.11389     11.11389        -0.000307     -0.016282     -0.547593
     10.56943      0.00000     11.11389         0.007710      0.006090     -0.548783
      8.45554      4.22777      9.00000        -0.000379     -0.057281      0.575627
     10.56943      6.34166      9.00000         0.063625     -0.054084      0.556425
      8.45554      6.34166     11.11389         0.000044     -0.324682     -0.569771
     10.56943      4.22777     11.11389         0.022131     -0.036890     -0.541511
      8.45554      8.45554      9.00000        -0.004943     -0.049198      0.260578
     10.56943     10.56943      9.00000         0.132289     -0.031965      0.570447
      8.45554     10.56943     11.11389         0.015652     -0.290803     -0.670218
     10.56943      8.45554     11.11389         0.366466      0.063244     -0.325244
      8.45554     12.68331      9.00000        -0.005998      0.014313      0.084869
     10.56943     14.79720      9.00000         0.089882      0.070600      0.539908
      8.45554     14.79720     11.11389        -0.002272      0.509609     -0.589125
     10.56943     12.68331     11.11389         0.579645     -0.092473     -0.297553
[...]
     19.02497      6.34166     11.11389        -0.000951     -0.006465      0.405974
     16.91108      6.34166      9.00000        -0.008501     -0.003789     -0.437610
     19.02497      4.22777      9.00000        -0.000551     -0.003995     -0.434874
     16.91108      8.45554     11.11389        -0.003951     -0.005310      0.399162
     19.02497     10.56943     11.11389        -0.001566      0.001612      0.402447
     16.91108     10.56943      9.00000        -0.007965      0.002377     -0.442155
     19.02497      8.45554      9.00000        -0.001198     -0.002263     -0.438057
     16.91108     12.68331     11.11389        -0.005868      0.008762      0.398651
     19.02497     14.79720     11.11389        -0.001175      0.007330      0.405487
     16.91108     14.79720      9.00000        -0.011360      0.004803     -0.437634
     19.02497     12.68331      9.00000        -0.001335      0.004962     -0.438086
     16.91108     16.91108     11.11389        -0.009022      0.004093      0.406645
     19.02497     19.02497     11.11389        -0.000514      0.001292      0.409706
     16.91108     19.02497      9.00000        -0.008615     -0.001033     -0.433908
     19.02497     16.91108      9.00000        -0.000714      0.002852     -0.434880
    total drift:                                0.001525      0.002417     -0.533637

  FREE ENERGIE OF THE ION-ELECTRON SYSTEM (eV)
  free  energy   TOTEN  =     -1435.86837666 eV

  energy  without entropy=    -1435.86837666  energy(sigma->0) =    -1435.86837666