 vasp.6.3.0 20Jan22 (build Apr  1 2022 16:44:48) complex
 executed on        HPECrayEX_GCC date 2023.01.09  20:26:06

 INCAR:
   SYSTEM = MgO-rocksalt
   ISMEAR = 0
   SIGMA = 0.05
   EDIFF = 1E-6
   ALGO = ALL
   ISTART = 0
   IBRION = -1
   NSW = 0
   ISYM = 2
   DIPOL = 0.5 0.5 0.5
   IDIPOL = 3
   LDIPOL = .TRUE.
   GGA = PS
   IVDW = 12
   VDW_A1 = 0.4466
   VDW_S8 = 2.9491
   VDW_A2 = 6.1742
   ENCUT = 520
   PREC = Accurate
   LASPH = .TRUE.
   LREAL = Auto
   ISPIN = 1
   NELM = 200
   NELMIN = 8
   NCORE = 4
   KPAR = 2
   LWAVE = .FALSE.
   LCHARG = .FALSE.

 POTCAR:    PAW_PBE Cu 22Jun2005
 POTCAR:    PAW_PBE Mg_pv 13Apr2007
 POTCAR:    PAW_PBE O 08Apr2002
 POTCAR:    PAW_PBE Cu 22Jun2005
   VRHFIN =Cu: d10 p1

   TITEL  = PAW_PBE Cu 22Jun2005
   POMASS =   63.546; ZVAL   =   11.000    mass and valenz
   ENMAX  =  295.446; ENMIN  =  221.585 eV

   TITEL  = PAW_PBE Mg_pv 13Apr2007
   POMASS =   24.305; ZVAL   =    8.000    mass and valenz
   ENMAX  =  403.929; ENMIN  =  302.947 eV

   TITEL  = PAW_PBE O 08Apr2002
   POMASS =   16.000; ZVAL   =    6.000    mass and valenz
   ENMAX  =  400.000; ENMIN  =  300.000 eV

 Optimization of the real space projectors (new method)

 maximal supplied QI-value         = 16.25
 optimisation between [QCUT,QGAM] = [ 11.54, 23.24] = [ 37.28,151.24] Ry
 Optimized for a Real-space Cutoff    1.53 Angstroem

   l    n(q)    QCUT    max X(q) W(low)/X(q) W(high)/X(q)  e(spline)
   2     10    11.539     4.610    0.96E-04    0.13E-03    0.19E-06
   2     10    11.539     8.522    0.16E-03    0.21E-03    0.28E-06
   0     11    11.539    51.609    0.45E-04    0.31E-04    0.11E-06
   0     11    11.539    27.747    0.39E-04    0.29E-04    0.10E-06
   1     10    11.539    20.408    0.70E-05    0.38E-04    0.18E-06
   1     10    11.539    13.425    0.66E-05    0.34E-04    0.17E-06
 Optimization of the real space projectors (new method)

[...]

   l    n(q)    QCUT    max X(q) W(low)/X(q) W(high)/X(q)  e(spline)
   1      8    11.527     2.974    0.44E-04    0.56E-04    0.12E-06
   1      8    11.527     4.279    0.12E-03    0.12E-03    0.26E-06
   0      9    11.527    16.381    0.46E-04    0.64E-04    0.78E-07
   0      9    11.527     5.611    0.26E-04    0.43E-04    0.55E-07
   2      8    11.527     4.652    0.22E-03    0.72E-04    0.47E-07
 Optimization of the real space projectors (new method)

 maximal supplied QI-value         = 24.76
 optimisation between [QCUT,QGAM] = [ 11.64, 23.27] = [ 37.91,151.63] Ry
 Optimized for a Real-space Cutoff    1.14 Angstroem

   l    n(q)    QCUT    max X(q) W(low)/X(q) W(high)/X(q)  e(spline)
   0      8    11.635    20.381    0.10E-03    0.33E-03    0.24E-06
   0      8    11.635    15.268    0.11E-03    0.35E-03    0.26E-06
   1      7    11.635     5.964    0.24E-03    0.31E-03    0.30E-06
   1      7    11.635     5.382    0.22E-03    0.25E-03    0.26E-06
|               ----> ADVICE to this user running VASP <----                  |
|     You enforced a specific xc type in the INCAR file but a different       |
|     type was found in the POTCAR file.                                      |
|     I HOPE YOU KNOW WHAT YOU ARE DOING!                                     |

  PAW_PBE Cu 22Jun2005                  :
  PAW_PBE Mg_pv 13Apr2007               :
  PAW_PBE O 08Apr2002                   :

 POSCAR: Cu Mg  O
  positions in direct lattice
  velocities in cartesian coordinates
 exchange correlation table for  LEXCH =       14
   RHO(1)=    0.500       N(1)  =     2000
   RHO(2)=  100.500       N(2)  =     4000

 ion  position               nearest neighbor table
   1  0.400  0.421  0.593- 153 2.05   2 2.27  55 2.60
   2  0.401  0.506  0.657-   1 2.27   4 2.38   3 2.40
   3  0.401  0.614  0.691-   4 2.27   2 2.40
   4  0.400  0.594  0.590- 157 1.94   3 2.27   2 2.38
   5  0.000  0.000  0.407- 107 2.11 108 2.11 123 2.11 188 2.11 105 2.11
   6  0.100  0.100  0.407- 107 2.11 108 2.11 112 2.11 127 2.11 106 2.11
   7  0.000  0.100  0.503- 105 2.11 106 2.11 109 2.11 186 2.11 107 2.11
   8  0.100  0.000  0.503- 105 2.11 106 2.11 122 2.11 125 2.11 108 2.11
   9  0.000  0.200  0.407- 111 2.11 107 2.11 112 2.11 192 2.11 109 2.11
  10  0.100  0.300  0.407- 112 2.11 111 2.11 116 2.11 131 2.11 110 2.11
  11  0.000  0.300  0.503- 109 2.11 110 2.11 113 2.11 190 2.11 111 2.11
  12  0.100  0.200  0.503- 110 2.11 109 2.11 106 2.11 129 2.11 112 2.11
  13  0.000  0.400  0.407- 111 2.11 115 2.11 116 2.11 196 2.11 113 2.11
  14  0.100  0.500  0.407- 115 2.11 116 2.11 120 2.11 135 2.11 114 2.11
  15  0.000  0.500  0.503- 113 2.11 114 2.11 117 2.11 194 2.11 115 2.11
  16  0.100  0.400  0.503- 110 2.11 113 2.11 114 2.11 133 2.11 116 2.11
  17  0.000  0.600  0.407- 115 2.11 119 2.11 120 2.11 200 2.11 117 2.11
  18  0.100  0.700  0.407- 124 2.11 120 2.11 119 2.11 139 2.11 118 2.11
  19  0.000  0.700  0.503- 121 2.11 118 2.11 117 2.11 198 2.11 119 2.11
  20  0.100  0.600  0.503- 114 2.11 117 2.11 118 2.11 137 2.11 120 2.11
  21  0.000  0.800  0.407- 119 2.11 123 2.11 124 2.11 204 2.11 121 2.11
  22  0.100  0.900  0.407- 108 2.11 123 2.11 124 2.11 143 2.11 122 2.11
  23  0.000  0.900  0.503- 105 2.11 121 2.11 122 2.11 202 2.11 123 2.11
  24  0.100  0.800  0.503- 118 2.11 121 2.11 122 2.11 141 2.11 124 2.11
  25  0.200  0.000  0.407- 128 2.11 127 2.11 108 2.11 143 2.11 125 2.11
  26  0.300  0.100  0.407- 127 2.11 128 2.11 132 2.11 147 2.11 126 2.11
  27  0.200  0.100  0.503- 126 2.11 125 2.11 106 2.11 129 2.11 127 2.11
  28  0.300  0.000  0.503- 125 2.11 126 2.11 142 2.11 145 2.11 128 2.11
  29  0.200  0.200  0.407- 131 2.11 132 2.11 112 2.11 127 2.11 129 2.11
  30  0.300  0.300  0.407- 131 2.11 132 2.11 136 2.11 151 2.11 130 2.11
  31  0.200  0.300  0.503- 129 2.11 130 2.11 110 2.11 133 2.11 131 2.11
  32  0.300  0.200  0.503- 129 2.11 130 2.11 126 2.11 149 2.11 132 2.11
  33  0.200  0.400  0.407- 136 2.11 131 2.11 135 2.11 116 2.11 133 2.11
  34  0.300  0.500  0.407- 135 2.11 136 2.11 140 2.11 155 2.11 134 2.11
  35  0.200  0.500  0.503- 134 2.11 133 2.11 114 2.11 137 2.11 135 2.11
  36  0.300  0.400  0.503- 133 2.11 130 2.11 134 2.11 153 2.11 136 2.11
  37  0.200  0.600  0.407- 140 2.11 135 2.11 139 2.11 120 2.11 137 2.11
  38  0.300  0.700  0.407- 139 2.11 144 2.11 140 2.11 159 2.11 138 2.11
  39  0.200  0.700  0.503- 138 2.11 141 2.11 118 2.11 137 2.11 139 2.11
  40  0.300  0.600  0.503- 137 2.11 134 2.11 138 2.11 157 2.11 140 2.11
  41  0.200  0.800  0.407- 139 2.11 144 2.11 143 2.11 124 2.11 141 2.11
  42  0.300  0.900  0.407- 143 2.11 128 2.11 144 2.11 163 2.11 142 2.11
  43  0.200  0.900  0.503- 142 2.11 125 2.11 141 2.11 122 2.11 143 2.11
  44  0.300  0.800  0.503- 138 2.11 141 2.11 142 2.11 161 2.11 144 2.11
  45  0.400  0.000  0.407- 128 2.11 147 2.11 148 2.11 163 2.11 145 2.11
  46  0.500  0.100  0.407- 147 2.11 148 2.11 152 2.11 167 2.11 146 2.11
  47  0.400  0.100  0.503- 126 2.11 145 2.11 146 2.11 149 2.11 147 2.11
  48  0.500  0.000  0.503- 145 2.11 146 2.11 162 2.11 165 2.11 148 2.11
  49  0.400  0.200  0.407- 151 2.11 147 2.11 132 2.11 152 2.11 149 2.11
  50  0.500  0.300  0.407- 152 2.11 151 2.11 156 2.11 171 2.11 150 2.11
  51  0.400  0.300  0.503- 149 2.11 130 2.11 150 2.11 153 2.11 151 2.11
  52  0.500  0.200  0.503- 150 2.11 149 2.11 146 2.11 169 2.11 152 2.11
  53  0.400  0.400  0.407- 136 2.11 151 2.11 155 2.11 156 2.11 153 2.11
  54  0.500  0.500  0.407- 155 2.11 156 2.11 160 2.11 175 2.11 154 2.11
  55  0.400  0.500  0.503- 134 2.11 153 2.11 154 2.11 157 2.11 155 2.11   1 2.60
  56  0.500  0.400  0.503- 150 2.11 153 2.11 154 2.11 173 2.11 156 2.11
  57  0.400  0.600  0.407- 140 2.11 155 2.11 159 2.11 160 2.11 157 2.11
  58  0.500  0.700  0.407- 164 2.11 160 2.11 159 2.11 179 2.11 158 2.11
  59  0.400  0.700  0.503- 161 2.11 157 2.11 158 2.11 138 2.11 159 2.11
  60  0.500  0.600  0.503- 154 2.11 157 2.11 158 2.11 177 2.11 160 2.11
[...]
 190  0.900  0.300  0.503-  92 2.11  91 2.11  11 2.11  96 2.11  90 2.11
 191  0.800  0.300  0.407-  70 2.11  89 2.11  90 2.11  93 2.11  91 2.11
 192  0.900  0.200  0.407-  90 2.11  86 2.11  89 2.11   9 2.11  92 2.11
 193  0.800  0.400  0.503-  76 2.11  91 2.11  95 2.11  96 2.11  93 2.11
 194  0.900  0.500  0.503-  15 2.11  95 2.11  96 2.11 100 2.11  94 2.11
 195  0.800  0.500  0.407-  74 2.11  93 2.11  94 2.11  97 2.11  95 2.11
 196  0.900  0.400  0.407-  13 2.11  90 2.11  93 2.11  94 2.11  96 2.11
 197  0.800  0.600  0.503-  80 2.11  95 2.11  99 2.11 100 2.11  97 2.11
 198  0.900  0.700  0.503- 104 2.11  99 2.11 100 2.11  19 2.11  98 2.11
 199  0.800  0.700  0.407-  78 2.11 101 2.11  98 2.11  97 2.11  99 2.11
 200  0.900  0.600  0.407-  17 2.11  94 2.11  97 2.11  98 2.11 100 2.11
 201  0.800  0.800  0.503-  84 2.11  99 2.11 103 2.11 104 2.11 101 2.11
 202  0.900  0.900  0.503-  23 2.11  88 2.11 103 2.11 104 2.11 102 2.11
 203  0.800  0.900  0.407-  82 2.11  85 2.11 101 2.11 102 2.11 103 2.11
 204  0.900  0.800  0.407-  98 2.11  21 2.11 101 2.11 102 2.11 104 2.11

  LATTYP: Found a simple tetragonal cell.
 ALAT       =    21.1388521970
 C/A-ratio  =     1.0461251639

  Lattice vectors:

 A1 = (  21.1388521970,   0.0000000000,   0.0000000000)
 A2 = (   0.0000000000,  21.1388521970,   0.0000000000)
 A3 = (   0.0000000000,   0.0000000000,  22.1138852197)

Analysis of symmetry for initial positions (statically):
 Subroutine PRICEL returns:
 Original cell was already a primitive cell.

 Routine SETGRP: Setting up the symmetry group for a
 simple tetragonal supercell.

 Subroutine GETGRP returns: Found  1 space group operations
 (whereof  1 operations were pure point group operations)
 out of a pool of 16 trial point group operations.

The static configuration has the point symmetry C_1 .

Analysis of symmetry for dynamics (positions and initial velocities):
 Subroutine PRICEL returns:
 Original cell was already a primitive cell.

[...]

The dynamic configuration has the point symmetry C_1 .

Analysis of constrained symmetry for selective dynamics:
 Subroutine PRICEL returns:
 Original cell was already a primitive cell.

 Routine SETGRP: Setting up the symmetry group for a
 simple tetragonal supercell.

 Subroutine GETGRP returns: Found  1 space group operations
 (whereof  1 operations were pure point group operations)
 out of a pool of 16 trial point group operations.

The constrained configuration has the point symmetry C_1 .

 Subroutine INISYM returns: Found  1 space group operations
 (whereof  1 operations are pure point group operations),
 and found     1 'primitive' translations

                                     Primitive cell

  volume of cell :    9881.6133

  direct lattice vectors                    reciprocal lattice vectors
    21.138852197  0.000000000  0.000000000     0.047306258  0.000000000  0.000000000
     0.000000000 21.138852197  0.000000000     0.000000000  0.047306258  0.000000000
     0.000000000  0.000000000 22.113885220     0.000000000  0.000000000  0.045220457

  length of vectors
    21.138852197 21.138852197 22.113885220     0.047306258  0.047306258  0.045220457

  position of ions in fractional coordinates (direct lattice)
     0.400229282  0.421328702  0.592894010
     0.400626265  0.505728649  0.656597495
[...]
|           WW  WW  A    A  R   R   N   NN  II  N   NN  G    G                |
|           W    W  A    A  R    R  N    N  II  N    N   GGGG   !!!           |
|     Specifying the vdW parameters                                           |
|     VDW_A1 = 0.447                                                          |
|     VDW_A2 = 6.174                                                          |
|     VDW_S8 = 2.949                                                          |
|     in the INCAR file will overwrite the defaults for pbesol. Please        |
|     make sure that is what you intended.                                    |

         DFTD3 V3.0 Rev 1
 IVDW         = 12
 DF pbesol
 parameters
 VDW_S6       =    1.0000
 VDW_S8       =    2.9491
 VDW_A1       =    0.4466
 VDW_A2       =    6.1742
 k1-k3        =   16.0000    1.3333   -4.0000
 VDW_RADIUS   =   50.2022 A
 VDW_CNRADIUS =   21.1671 A
 Edisp (eV)  -23.66349

 E6    (eV) :    -8.4987
 E8    (eV) :   -15.1648
 % E8        : 64.09

  FORCE on cell =-STRESS in cart. coord.  units (eV):
  Direction    XX          YY          ZZ          XY          YZ          ZX
  Alpha Z  1394.80054  1394.80054  1394.80054
  Ewald  481518.80809483945.56047************     3.30592   512.32742     8.74192
  Hartree511409.91528513431.64111************     2.74291   417.75076     6.62675
  E(xc)   -7750.00200 -7749.54612 -7767.31405     0.00070     0.12613     0.00261
  Local  ************************************    -6.03962  -927.40293   -15.26207
  n-local -8890.77394 -8890.14051 -9011.02204     0.00109     0.06534    -0.00618
  augment  3594.55009  3588.20063  3524.12901    -0.00735    -1.69261    -0.05224
  Kinetic 22998.85546 22992.27690 23253.05188    -0.00268    -1.44475    -0.07366
  Fock        0.00000     0.00000     0.00000     0.00000     0.00000     0.00000
  vdW       -24.78544   -24.80485    -5.01036    -0.00004    -0.00943    -0.00011
  Total    -219.59412  -220.94102   -15.03664     0.00093    -0.28008    -0.02298
  in kB     -35.60438   -35.82276    -2.43800     0.00015    -0.04541    -0.00373

 VOLUME and BASIS-vectors are now :
  energy-cutoff  :      520.00
  volume of cell :     9881.61
      direct lattice vectors                 reciprocal lattice vectors
    21.138852197  0.000000000  0.000000000     0.047306258  0.000000000  0.000000000
     0.000000000 21.138852197  0.000000000     0.000000000  0.047306258  0.000000000
     0.000000000  0.000000000 22.113885220     0.000000000  0.000000000  0.045220457

  length of vectors
    21.138852197 21.138852197 22.113885220     0.047306258  0.047306258  0.045220457

 FORCES acting on ions:
    Electron-Ion                     Ewald-Force                    Non-Local-Force
   0.145E+01 0.463E+03 -.201E+04   -.141E+01 -.456E+03 0.201E+04   -.413E-01 -.709E+01 -.663E+01
   -.175E+01 0.260E+03 -.217E+04   0.169E+01 -.262E+03 0.216E+04   0.518E-01 0.187E+01 0.723E+01
   -.277E+01 -.420E+03 -.212E+04   0.270E+01 0.413E+03 0.211E+04   0.691E-01 0.668E+01 0.118E+02
   0.286E+01 -.306E+03 -.175E+04   -.282E+01 0.306E+03 0.176E+04   -.503E-01 0.364E+00 -.618E+01
   0.744E+01 -.228E+01 0.937E+03   -.746E+01 0.229E+01 -.928E+03   0.149E-01 -.594E-02 -.771E+01
   0.138E+02 0.747E+01 0.940E+03   -.138E+02 -.748E+01 -.932E+03   0.311E-01 0.740E-02 -.771E+01
   0.982E+01 0.630E+01 -.919E+03   -.984E+01 -.629E+01 0.911E+03   0.134E-01 -.558E-02 0.764E+01
   0.159E+02 -.428E+01 -.917E+03   -.160E+02 0.429E+01 0.909E+03   0.179E-01 -.807E-02 0.764E+01
   0.105E+02 0.110E+02 0.939E+03   -.105E+02 -.110E+02 -.931E+03   0.261E-01 0.273E-02 -.771E+01
   0.281E+02 0.202E+02 0.951E+03   -.282E+02 -.203E+02 -.943E+03   0.983E-01 0.186E-01 -.774E+01
   0.198E+02 0.167E+02 -.914E+03   -.198E+02 -.167E+02 0.906E+03   0.158E-01 -.290E-02 0.763E+01
   0.257E+02 0.221E+02 -.913E+03   -.257E+02 -.221E+02 0.905E+03   0.437E-01 -.499E-02 0.763E+01
   0.188E+02 0.100E+02 0.946E+03   -.189E+02 -.100E+02 -.938E+03   0.438E-01 0.708E-02 -.772E+01
   0.436E+02 0.414E+01 0.964E+03   -.438E+02 -.416E+01 -.956E+03   0.148E+00 0.141E-01 -.776E+01
   0.305E+02 0.365E+01 -.909E+03   -.306E+02 -.366E+01 0.901E+03   0.143E-01 0.703E-02 0.763E+01
   0.589E+02 0.237E+02 -.898E+03   -.590E+02 -.237E+02 0.890E+03   0.290E-01 -.385E-03 0.760E+01
   0.204E+02 -.594E+01 0.948E+03   -.205E+02 0.593E+01 -.940E+03   0.542E-01 0.397E-02 -.772E+01
   0.332E+02 -.189E+02 0.956E+03   -.334E+02 0.189E+02 -.948E+03   0.129E+00 -.166E-01 -.774E+01
   0.238E+02 -.153E+02 -.912E+03   -.239E+02 0.153E+02 0.904E+03   0.257E-01 0.576E-02 0.763E+01
   0.666E+02 -.144E+02 -.893E+03   -.667E+02 0.144E+02 0.885E+03   0.645E-01 0.182E-01 0.760E+01
   0.125E+02 -.128E+02 0.941E+03   -.126E+02 0.128E+02 -.933E+03   0.338E-01 -.782E-02 -.771E+01
   0.160E+02 -.130E+02 0.942E+03   -.160E+02 0.130E+02 -.934E+03   0.371E-01 -.235E-01 -.771E+01
   0.116E+02 -.114E+02 -.918E+03   -.116E+02 0.114E+02 0.910E+03   0.164E-01 -.431E-02 0.764E+01
   0.332E+02 -.271E+02 -.908E+03   -.333E+02 0.271E+02 0.900E+03   0.563E-01 -.470E-02 0.763E+01
   0.137E+02 -.439E+01 0.943E+03   -.138E+02 0.441E+01 -.935E+03   0.253E-01 -.124E-01 -.772E+01
   0.102E+02 0.154E+02 0.949E+03   -.102E+02 -.155E+02 -.940E+03   0.235E-01 0.656E-01 -.773E+01
   0.197E+02 0.157E+02 -.913E+03   -.198E+02 -.157E+02 0.905E+03   0.239E-01 0.192E-01 0.763E+01
   0.118E+02 -.866E+01 -.910E+03   -.118E+02 0.867E+01 0.902E+03   0.111E-01 -.641E-02 0.763E+01
   0.227E+02 0.257E+02 0.952E+03   -.228E+02 -.257E+02 -.944E+03   0.805E-01 0.653E-01 -.773E+01
   0.309E+02 0.526E+02 0.992E+03   -.312E+02 -.530E+02 -.984E+03   0.214E+00 0.257E+00 -.772E+01
   0.624E+02 0.559E+02 -.888E+03   -.627E+02 -.559E+02 0.880E+03   0.196E+00 -.296E-01 0.758E+01
   0.267E+02 0.610E+02 -.895E+03   -.268E+02 -.612E+02 0.887E+03   0.312E-01 0.164E+00 0.761E+01
   0.539E+02 0.279E+02 0.987E+03   -.543E+02 -.279E+02 -.979E+03   0.357E+00 0.599E-01 -.787E+01
   0.605E+02 0.107E+02 0.106E+04   -.612E+02 -.108E+02 -.105E+04   0.470E+00 0.875E-01 -.793E+01
   0.129E+03 0.134E+02 -.844E+03   -.129E+03 -.135E+02 0.837E+03   0.187E+00 0.295E-01 0.750E+01
   0.158E+03 0.108E+03 -.748E+03   -.160E+03 -.107E+03 0.741E+03   0.153E+01 -.386E-01 0.670E+01
   0.600E+02 -.181E+02 0.995E+03   -.605E+02 0.181E+02 -.987E+03   0.457E+00 -.188E-01 -.788E+01
   0.385E+02 -.528E+02 0.101E+04   -.389E+02 0.532E+02 -.100E+04   0.298E+00 -.311E+00 -.773E+01
   0.819E+02 -.570E+02 -.871E+03   -.822E+02 0.570E+02 0.863E+03   0.256E+00 0.212E-01 0.757E+01
   0.186E+03 -.721E+02 -.705E+03   -.189E+03 0.720E+02 0.698E+03   0.228E+01 0.521E-01 0.694E+01
   0.285E+02 -.310E+02 0.960E+03   -.286E+02 0.311E+02 -.952E+03   0.104E+00 -.932E-01 -.773E+01
   0.124E+02 -.263E+02 0.954E+03   -.124E+02 0.264E+02 -.946E+03   0.251E-01 -.108E+00 -.774E+01
   0.248E+02 -.284E+02 -.908E+03   -.248E+02 0.284E+02 0.900E+03   0.212E-01 -.423E-01 0.763E+01
   0.388E+02 -.816E+02 -.875E+03   -.387E+02 0.819E+02 0.867E+03   -.128E-02 -.241E+00 0.757E+01
   0.453E-01 -.620E+01 0.948E+03   -.449E-01 0.622E+01 -.940E+03   -.312E-03 -.142E-01 -.772E+01
   -.101E+02 0.154E+02 0.949E+03   0.102E+02 -.155E+02 -.941E+03   -.241E-01 0.653E-01 -.773E+01
   0.639E-01 0.261E+02 -.907E+03   -.634E-01 -.262E+02 0.899E+03   -.402E-03 0.550E-01 0.763E+01
   -.117E+02 -.869E+01 -.910E+03   0.117E+02 0.870E+01 0.902E+03   -.116E-01 -.631E-02 0.763E+01
   0.734E-01 0.422E+02 0.967E+03   -.727E-01 -.426E+02 -.959E+03   -.574E-03 0.295E+00 -.779E+01
   -.307E+02 0.528E+02 0.993E+03   0.310E+02 -.531E+02 -.985E+03   -.215E+00 0.256E+00 -.773E+01
   0.338E+00 0.159E+03 -.811E+03   -.335E+00 -.161E+03 0.803E+03   -.217E-02 0.158E+01 0.745E+01
   -.266E+02 0.611E+02 -.894E+03   0.266E+02 -.613E+02 0.887E+03   -.323E-01 0.162E+00 0.761E+01
   0.237E+00 0.550E+02 0.107E+04   -.235E+00 -.555E+02 -.106E+04   -.190E-02 0.374E+00 -.591E+01
   -.603E+02 0.108E+02 0.106E+04   0.609E+02 -.109E+02 -.105E+04   -.473E+00 0.871E-01 -.794E+01
   0.128E+01 0.259E+02 -.513E+03   -.127E+01 -.271E+02 0.509E+03   -.787E-02 0.991E+00 0.387E+01
   -.158E+03 0.108E+03 -.747E+03   0.160E+03 -.108E+03 0.740E+03   -.153E+01 -.430E-01 0.668E+01
   0.296E+00 -.378E+02 0.109E+04   -.293E+00 0.380E+02 -.108E+04   -.247E-02 -.215E+00 -.504E+01
   -.383E+02 -.530E+02 0.101E+04   0.387E+02 0.534E+02 -.100E+04   -.300E+00 -.310E+00 -.774E+01
   0.621E+00 -.187E+03 -.741E+03   -.616E+00 0.190E+03 0.734E+03   -.422E-02 -.222E+01 0.687E+01
   -.186E+03 -.725E+02 -.703E+03   0.189E+03 0.724E+02 0.696E+03   -.228E+01 0.536E-01 0.691E+01
[...]
   -.110E+02 0.982E+01 0.708E+03   0.110E+02 -.982E+01 -.712E+03   -.284E-01 0.700E-02 0.352E+01
   -.348E-01 0.694E+01 0.705E+03   0.344E-01 -.694E+01 -.709E+03   0.442E-03 0.979E-03 0.353E+01
   -.201E+02 0.992E+01 -.685E+03   0.201E+02 -.992E+01 0.689E+03   -.173E-01 0.185E-02 -.367E+01
   -.101E+00 0.216E+01 -.686E+03   0.100E+00 -.216E+01 0.690E+03   0.888E-03 0.691E-02 -.366E+01
   -.161E+02 0.201E+01 0.713E+03   0.161E+02 -.201E+01 -.717E+03   -.367E-01 0.966E-02 0.351E+01
   -.612E-01 0.621E+01 0.708E+03   0.606E-01 -.621E+01 -.712E+03   0.744E-03 0.576E-02 0.353E+01
   -.223E+02 -.577E+01 -.683E+03   0.223E+02 0.576E+01 0.687E+03   -.236E-01 0.112E-01 -.367E+01
   -.855E-01 -.906E+01 -.687E+03   0.850E-01 0.906E+01 0.691E+03   0.712E-03 0.486E-02 -.365E+01
   -.128E+02 -.891E+01 0.710E+03   0.129E+02 0.891E+01 -.714E+03   -.373E-01 -.491E-02 0.352E+01
   -.701E-01 -.360E+01 0.709E+03   0.695E-01 0.360E+01 -.713E+03   0.783E-03 0.493E-02 0.353E+01
   -.128E+02 -.123E+02 -.688E+03   0.128E+02 0.123E+02 0.692E+03   -.219E-01 -.335E-02 -.365E+01
   -.444E-01 -.707E+01 -.690E+03   0.441E-01 0.708E+01 0.695E+03   0.394E-03 -.463E-02 -.364E+01
   -.686E+01 -.675E+01 0.705E+03   0.687E+01 0.676E+01 -.709E+03   -.216E-01 -.121E-01 0.353E+01
   -.463E-01 -.805E+01 0.706E+03   0.459E-01 0.805E+01 -.710E+03   0.500E-03 -.592E-02 0.353E+01
   -.853E-01 -.243E+01 -.186E+01   0.165E-11 0.682E-12 0.364E-11   0.792E-01 0.243E+01 0.141E+01

 POSITION                                       TOTAL-FORCE (eV/Angst)
      8.46039      8.90641     13.11119        -0.003337      0.138888     -0.230132
      8.46878     10.69052     14.51992        -0.004831      0.139347     -0.236032
      8.47353     12.97033     15.28534        -0.002068     -0.200185     -0.280718
      8.46080     12.56080     13.05418        -0.003228     -0.100380     -0.109228
      0.00000      0.00000      9.00000        -0.004041      0.001639      0.475755
      2.11389      2.11389      9.00000        -0.008466     -0.002045      0.476730
      0.00000      2.11389     11.11389        -0.003429      0.001587     -0.451027
      2.11389      0.00000     11.11389        -0.004794      0.002141     -0.449781
      0.00000      4.22777      9.00000        -0.006754     -0.000669      0.477318
      2.11389      6.34166      9.00000        -0.024796     -0.004524      0.484392
      0.00000      6.34166     11.11389        -0.003162      0.001183     -0.446258
      2.11389      4.22777     11.11389        -0.010304      0.001954     -0.443940
      0.00000      8.45554      9.00000        -0.011216     -0.001797      0.480240
      2.11389     10.56943      9.00000        -0.037614     -0.004076      0.490828
      0.00000     10.56943     11.11389        -0.001771     -0.002007     -0.442451
      2.11389      8.45554     11.11389        -0.000153      0.001736     -0.425875
      0.00000     12.68331      9.00000        -0.013729     -0.001331      0.480453
      2.11389     14.79720      9.00000        -0.032568      0.004248      0.484939
      0.00000     14.79720     11.11389        -0.005583     -0.001924     -0.446034
      2.11389     12.68331     11.11389        -0.007934     -0.006431     -0.425064
      0.00000     16.91108      9.00000        -0.008793      0.002121      0.477394
      2.11389     19.02497      9.00000        -0.010096      0.006411      0.476868
      0.00000     19.02497     11.11389        -0.004201      0.001149     -0.450849
      2.11389     16.91108     11.11389        -0.013033      0.000588     -0.442743
      4.22777      0.00000      9.00000        -0.007006      0.003239      0.477751
      6.34166      2.11389      9.00000        -0.006667     -0.016807      0.480340
      4.22777      2.11389     11.11389        -0.006260     -0.003956     -0.444863
      6.34166      0.00000     11.11389        -0.002897      0.001374     -0.444699
      4.22777      4.22777      9.00000        -0.022201     -0.017875      0.479834
      6.34166      6.34166      9.00000        -0.069181     -0.077830      0.468603
      4.22777      6.34166     11.11389        -0.039426      0.017496     -0.401698
      6.34166      4.22777     11.11389        -0.006382     -0.034840     -0.418579
      4.22777      8.45554      9.00000        -0.085328     -0.013733      0.515851
      6.34166     10.56943      9.00000        -0.154155     -0.028494      0.492347
      4.22777     10.56943     11.11389        -0.020480     -0.009438     -0.337267
      6.34166      8.45554     11.11389        -0.572346      0.039489     -0.225619
      4.22777     12.68331      9.00000        -0.107602      0.002314      0.518947
      6.34166     14.79720      9.00000        -0.096339      0.098466      0.464394
      4.22777     14.79720     11.11389        -0.051274     -0.014201     -0.392168
      6.34166     12.68331     11.11389        -0.847298     -0.027116     -0.343829
      4.22777     16.91108      9.00000        -0.028556      0.025426      0.480998
      6.34166     19.02497      9.00000        -0.006850      0.027247      0.483525
      4.22777     19.02497     11.11389        -0.005286      0.009413     -0.442896
      6.34166     16.91108     11.11389         0.007934      0.045891     -0.393176
      8.45554      0.00000      9.00000         0.000124      0.003752      0.479548
     10.56943      2.11389      9.00000         0.006879     -0.016741      0.480370
      8.45554      2.11389     11.11389         0.000144     -0.010737     -0.438983
     10.56943      0.00000     11.11389         0.003101      0.001346     -0.444690
      8.45554      4.22777      9.00000         0.000198     -0.070884      0.492820
     10.56943      6.34166      9.00000         0.069624     -0.077529      0.468895
      8.45554      6.34166     11.11389         0.000724     -0.508598     -0.380148
     10.56943      4.22777     11.11389         0.006742     -0.034390     -0.418417
      8.45554      8.45554      9.00000         0.000631     -0.076643      0.098461
     10.56943     10.56943      9.00000         0.154904     -0.028369      0.493164
      8.45554     10.56943     11.11389         0.001002     -0.124901     -0.162172
     10.56943      8.45554     11.11389         0.576116      0.040140     -0.224396
      8.45554     12.68331      9.00000         0.000771      0.039893     -0.069999
     10.56943     14.79720      9.00000         0.096884      0.098134      0.465020
      8.45554     14.79720     11.11389         0.001333      0.775084     -0.266914
     10.56943     12.68331     11.11389         0.852761     -0.027022     -0.343246
[...]
     19.02497      6.34166     11.11389         0.000210     -0.000572      0.380302
     16.91108      6.34166      9.00000        -0.007847      0.001984     -0.411351
     19.02497      4.22777      9.00000         0.000152      0.000325     -0.408908
     16.91108      8.45554     11.11389        -0.004798      0.000494      0.374381
     19.02497     10.56943     11.11389         0.000271      0.001876      0.377922
     16.91108     10.56943      9.00000        -0.010132      0.002607     -0.413826
     19.02497      8.45554      9.00000         0.000232      0.001594     -0.410885
     16.91108     12.68331     11.11389        -0.006572      0.003030      0.374175
     19.02497     14.79720     11.11389         0.000220      0.001311      0.380188
     16.91108     14.79720      9.00000        -0.010249     -0.001413     -0.411461
     19.02497     12.68331      9.00000         0.000239      0.001296     -0.410891
     16.91108     16.91108     11.11389        -0.006008     -0.000957      0.380394
     19.02497     19.02497     11.11389         0.000132     -0.001288      0.383602
     16.91108     19.02497      9.00000        -0.005866     -0.003327     -0.408559
     19.02497     16.91108      9.00000         0.000161     -0.001666     -0.408943
    total drift:                               -0.006076      0.000971     -0.452690

  FREE ENERGIE OF THE ION-ELECTRON SYSTEM (eV)
  free  energy   TOTEN  =     -1221.83127872 eV

  energy  without entropy=    -1221.83127872  energy(sigma->0) =    -1221.83127872