 vasp.6.3.0 20Jan22 (build Apr  1 2022 16:44:48) complex
 executed on        HPECrayEX_GCC date 2023.01.09  20:40:51

 INCAR:
   SYSTEM = MgO-rocksalt
   ISMEAR = 0
   SIGMA = 0.05
   EDIFF = 1E-6
   ALGO = ALL
   ISTART = 0
   IBRION = -1
   NSW = 0
   ISYM = 2
   DIPOL = 0.5 0.5 0.5
   IDIPOL = 3
   LDIPOL = .TRUE.
   GGA = RE
   ENCUT = 520
   PREC = Accurate
   LASPH = .TRUE.
   LREAL = Auto
   ISPIN = 1
   NELM = 200
   NELMIN = 8
   NCORE = 4
   KPAR = 2
   LWAVE = .FALSE.
   LCHARG = .FALSE.

 POTCAR:    PAW_PBE Cu 22Jun2005
 POTCAR:    PAW_PBE Mg_pv 13Apr2007
 POTCAR:    PAW_PBE O 08Apr2002
 POTCAR:    PAW_PBE Cu 22Jun2005
   VRHFIN =Cu: d10 p1

   TITEL  = PAW_PBE Cu 22Jun2005
   POMASS =   63.546; ZVAL   =   11.000    mass and valenz
   ENMAX  =  295.446; ENMIN  =  221.585 eV

   TITEL  = PAW_PBE Mg_pv 13Apr2007
   POMASS =   24.305; ZVAL   =    8.000    mass and valenz
   ENMAX  =  403.929; ENMIN  =  302.947 eV

   TITEL  = PAW_PBE O 08Apr2002
   POMASS =   16.000; ZVAL   =    6.000    mass and valenz
   ENMAX  =  400.000; ENMIN  =  300.000 eV

 Optimization of the real space projectors (new method)

 maximal supplied QI-value         = 16.25
 optimisation between [QCUT,QGAM] = [ 11.54, 23.24] = [ 37.28,151.24] Ry
 Optimized for a Real-space Cutoff    1.53 Angstroem

   l    n(q)    QCUT    max X(q) W(low)/X(q) W(high)/X(q)  e(spline)
   2     10    11.539     4.610    0.96E-04    0.13E-03    0.19E-06
   2     10    11.539     8.522    0.16E-03    0.21E-03    0.28E-06
   0     11    11.539    51.609    0.45E-04    0.31E-04    0.11E-06
   0     11    11.539    27.747    0.39E-04    0.29E-04    0.10E-06
   1     10    11.539    20.408    0.70E-05    0.38E-04    0.18E-06
   1     10    11.539    13.425    0.66E-05    0.34E-04    0.17E-06
 Optimization of the real space projectors (new method)

[...]

   l    n(q)    QCUT    max X(q) W(low)/X(q) W(high)/X(q)  e(spline)
   1      8    11.527     2.974    0.44E-04    0.56E-04    0.12E-06
   1      8    11.527     4.279    0.12E-03    0.12E-03    0.26E-06
   0      9    11.527    16.381    0.46E-04    0.64E-04    0.78E-07
   0      9    11.527     5.611    0.26E-04    0.43E-04    0.55E-07
   2      8    11.527     4.652    0.22E-03    0.72E-04    0.47E-07
 Optimization of the real space projectors (new method)

 maximal supplied QI-value         = 24.76
 optimisation between [QCUT,QGAM] = [ 11.64, 23.27] = [ 37.91,151.63] Ry
 Optimized for a Real-space Cutoff    1.14 Angstroem

   l    n(q)    QCUT    max X(q) W(low)/X(q) W(high)/X(q)  e(spline)
   0      8    11.635    20.381    0.10E-03    0.33E-03    0.24E-06
   0      8    11.635    15.268    0.11E-03    0.35E-03    0.26E-06
   1      7    11.635     5.964    0.24E-03    0.31E-03    0.30E-06
   1      7    11.635     5.382    0.22E-03    0.25E-03    0.26E-06
|               ----> ADVICE to this user running VASP <----                  |
|     You enforced a specific xc type in the INCAR file but a different       |
|     type was found in the POTCAR file.                                      |
|     I HOPE YOU KNOW WHAT YOU ARE DOING!                                     |

  PAW_PBE Cu 22Jun2005                  :
  PAW_PBE Mg_pv 13Apr2007               :
  PAW_PBE O 08Apr2002                   :

 POSCAR: Cu Mg  O
  positions in direct lattice
  velocities in cartesian coordinates
 exchange correlation table for  LEXCH =       40
   RHO(1)=    0.500       N(1)  =     2000
   RHO(2)=  100.500       N(2)  =     4000

 ion  position               nearest neighbor table
   1  0.400  0.421  0.593- 153 2.05   2 2.27  55 2.60
   2  0.401  0.506  0.657-   1 2.27   4 2.38   3 2.40
   3  0.401  0.614  0.691-   4 2.27   2 2.40
   4  0.400  0.594  0.590- 157 1.94   3 2.27   2 2.38
   5  0.000  0.000  0.407- 107 2.11 108 2.11 123 2.11 188 2.11 105 2.11
   6  0.100  0.100  0.407- 107 2.11 108 2.11 112 2.11 127 2.11 106 2.11
   7  0.000  0.100  0.503- 105 2.11 106 2.11 109 2.11 186 2.11 107 2.11
   8  0.100  0.000  0.503- 105 2.11 106 2.11 122 2.11 125 2.11 108 2.11
   9  0.000  0.200  0.407- 111 2.11 107 2.11 112 2.11 192 2.11 109 2.11
  10  0.100  0.300  0.407- 112 2.11 111 2.11 116 2.11 131 2.11 110 2.11
  11  0.000  0.300  0.503- 109 2.11 110 2.11 113 2.11 190 2.11 111 2.11
  12  0.100  0.200  0.503- 110 2.11 109 2.11 106 2.11 129 2.11 112 2.11
  13  0.000  0.400  0.407- 111 2.11 115 2.11 116 2.11 196 2.11 113 2.11
  14  0.100  0.500  0.407- 115 2.11 116 2.11 120 2.11 135 2.11 114 2.11
  15  0.000  0.500  0.503- 113 2.11 114 2.11 117 2.11 194 2.11 115 2.11
  16  0.100  0.400  0.503- 110 2.11 113 2.11 114 2.11 133 2.11 116 2.11
  17  0.000  0.600  0.407- 115 2.11 119 2.11 120 2.11 200 2.11 117 2.11
  18  0.100  0.700  0.407- 124 2.11 120 2.11 119 2.11 139 2.11 118 2.11
  19  0.000  0.700  0.503- 121 2.11 118 2.11 117 2.11 198 2.11 119 2.11
  20  0.100  0.600  0.503- 114 2.11 117 2.11 118 2.11 137 2.11 120 2.11
  21  0.000  0.800  0.407- 119 2.11 123 2.11 124 2.11 204 2.11 121 2.11
  22  0.100  0.900  0.407- 108 2.11 123 2.11 124 2.11 143 2.11 122 2.11
  23  0.000  0.900  0.503- 105 2.11 121 2.11 122 2.11 202 2.11 123 2.11
  24  0.100  0.800  0.503- 118 2.11 121 2.11 122 2.11 141 2.11 124 2.11
  25  0.200  0.000  0.407- 128 2.11 127 2.11 108 2.11 143 2.11 125 2.11
  26  0.300  0.100  0.407- 127 2.11 128 2.11 132 2.11 147 2.11 126 2.11
  27  0.200  0.100  0.503- 126 2.11 125 2.11 106 2.11 129 2.11 127 2.11
  28  0.300  0.000  0.503- 125 2.11 126 2.11 142 2.11 145 2.11 128 2.11
  29  0.200  0.200  0.407- 131 2.11 132 2.11 112 2.11 127 2.11 129 2.11
  30  0.300  0.300  0.407- 131 2.11 132 2.11 136 2.11 151 2.11 130 2.11
  31  0.200  0.300  0.503- 129 2.11 130 2.11 110 2.11 133 2.11 131 2.11
  32  0.300  0.200  0.503- 129 2.11 130 2.11 126 2.11 149 2.11 132 2.11
  33  0.200  0.400  0.407- 136 2.11 131 2.11 135 2.11 116 2.11 133 2.11
  34  0.300  0.500  0.407- 135 2.11 136 2.11 140 2.11 155 2.11 134 2.11
  35  0.200  0.500  0.503- 134 2.11 133 2.11 114 2.11 137 2.11 135 2.11
  36  0.300  0.400  0.503- 133 2.11 130 2.11 134 2.11 153 2.11 136 2.11
  37  0.200  0.600  0.407- 140 2.11 135 2.11 139 2.11 120 2.11 137 2.11
  38  0.300  0.700  0.407- 139 2.11 144 2.11 140 2.11 159 2.11 138 2.11
  39  0.200  0.700  0.503- 138 2.11 141 2.11 118 2.11 137 2.11 139 2.11
  40  0.300  0.600  0.503- 137 2.11 134 2.11 138 2.11 157 2.11 140 2.11
  41  0.200  0.800  0.407- 139 2.11 144 2.11 143 2.11 124 2.11 141 2.11
  42  0.300  0.900  0.407- 143 2.11 128 2.11 144 2.11 163 2.11 142 2.11
  43  0.200  0.900  0.503- 142 2.11 125 2.11 141 2.11 122 2.11 143 2.11
  44  0.300  0.800  0.503- 138 2.11 141 2.11 142 2.11 161 2.11 144 2.11
  45  0.400  0.000  0.407- 128 2.11 147 2.11 148 2.11 163 2.11 145 2.11
  46  0.500  0.100  0.407- 147 2.11 148 2.11 152 2.11 167 2.11 146 2.11
  47  0.400  0.100  0.503- 126 2.11 145 2.11 146 2.11 149 2.11 147 2.11
  48  0.500  0.000  0.503- 145 2.11 146 2.11 162 2.11 165 2.11 148 2.11
  49  0.400  0.200  0.407- 151 2.11 147 2.11 132 2.11 152 2.11 149 2.11
  50  0.500  0.300  0.407- 152 2.11 151 2.11 156 2.11 171 2.11 150 2.11
  51  0.400  0.300  0.503- 149 2.11 130 2.11 150 2.11 153 2.11 151 2.11
  52  0.500  0.200  0.503- 150 2.11 149 2.11 146 2.11 169 2.11 152 2.11
  53  0.400  0.400  0.407- 136 2.11 151 2.11 155 2.11 156 2.11 153 2.11
  54  0.500  0.500  0.407- 155 2.11 156 2.11 160 2.11 175 2.11 154 2.11
  55  0.400  0.500  0.503- 134 2.11 153 2.11 154 2.11 157 2.11 155 2.11   1 2.60
  56  0.500  0.400  0.503- 150 2.11 153 2.11 154 2.11 173 2.11 156 2.11
  57  0.400  0.600  0.407- 140 2.11 155 2.11 159 2.11 160 2.11 157 2.11
  58  0.500  0.700  0.407- 164 2.11 160 2.11 159 2.11 179 2.11 158 2.11
  59  0.400  0.700  0.503- 161 2.11 157 2.11 158 2.11 138 2.11 159 2.11
  60  0.500  0.600  0.503- 154 2.11 157 2.11 158 2.11 177 2.11 160 2.11
[...]
 190  0.900  0.300  0.503-  92 2.11  91 2.11  11 2.11  96 2.11  90 2.11
 191  0.800  0.300  0.407-  70 2.11  89 2.11  90 2.11  93 2.11  91 2.11
 192  0.900  0.200  0.407-  90 2.11  86 2.11  89 2.11   9 2.11  92 2.11
 193  0.800  0.400  0.503-  76 2.11  91 2.11  95 2.11  96 2.11  93 2.11
 194  0.900  0.500  0.503-  15 2.11  95 2.11  96 2.11 100 2.11  94 2.11
 195  0.800  0.500  0.407-  74 2.11  93 2.11  94 2.11  97 2.11  95 2.11
 196  0.900  0.400  0.407-  13 2.11  90 2.11  93 2.11  94 2.11  96 2.11
 197  0.800  0.600  0.503-  80 2.11  95 2.11  99 2.11 100 2.11  97 2.11
 198  0.900  0.700  0.503- 104 2.11  99 2.11 100 2.11  19 2.11  98 2.11
 199  0.800  0.700  0.407-  78 2.11 101 2.11  98 2.11  97 2.11  99 2.11
 200  0.900  0.600  0.407-  17 2.11  94 2.11  97 2.11  98 2.11 100 2.11
 201  0.800  0.800  0.503-  84 2.11  99 2.11 103 2.11 104 2.11 101 2.11
 202  0.900  0.900  0.503-  23 2.11  88 2.11 103 2.11 104 2.11 102 2.11
 203  0.800  0.900  0.407-  82 2.11  85 2.11 101 2.11 102 2.11 103 2.11
 204  0.900  0.800  0.407-  98 2.11  21 2.11 101 2.11 102 2.11 104 2.11

  LATTYP: Found a simple tetragonal cell.
 ALAT       =    21.1388521970
 C/A-ratio  =     1.0461251639

  Lattice vectors:

 A1 = (  21.1388521970,   0.0000000000,   0.0000000000)
 A2 = (   0.0000000000,  21.1388521970,   0.0000000000)
 A3 = (   0.0000000000,   0.0000000000,  22.1138852197)

Analysis of symmetry for initial positions (statically):
 Subroutine PRICEL returns:
 Original cell was already a primitive cell.

 Routine SETGRP: Setting up the symmetry group for a
 simple tetragonal supercell.

 Subroutine GETGRP returns: Found  1 space group operations
 (whereof  1 operations were pure point group operations)
 out of a pool of 16 trial point group operations.

The static configuration has the point symmetry C_1 .

Analysis of symmetry for dynamics (positions and initial velocities):
 Subroutine PRICEL returns:
 Original cell was already a primitive cell.

[...]

The dynamic configuration has the point symmetry C_1 .

Analysis of constrained symmetry for selective dynamics:
 Subroutine PRICEL returns:
 Original cell was already a primitive cell.

 Routine SETGRP: Setting up the symmetry group for a
 simple tetragonal supercell.

 Subroutine GETGRP returns: Found  1 space group operations
 (whereof  1 operations were pure point group operations)
 out of a pool of 16 trial point group operations.

The constrained configuration has the point symmetry C_1 .

 Subroutine INISYM returns: Found  1 space group operations
 (whereof  1 operations are pure point group operations),
 and found     1 'primitive' translations

                                     Primitive cell

  volume of cell :    9881.6133

  direct lattice vectors                    reciprocal lattice vectors
    21.138852197  0.000000000  0.000000000     0.047306258  0.000000000  0.000000000
     0.000000000 21.138852197  0.000000000     0.000000000  0.047306258  0.000000000
     0.000000000  0.000000000 22.113885220     0.000000000  0.000000000  0.045220457

  length of vectors
    21.138852197 21.138852197 22.113885220     0.047306258  0.047306258  0.045220457

  position of ions in fractional coordinates (direct lattice)
     0.400229282  0.421328702  0.592894010
     0.400626265  0.505728649  0.656597495
     0.400850837  0.613577871  0.691210184
     0.400248991  0.594204282  0.590315895
[...]
     52     -42.9543      2.00000
     53     -42.9529      2.00000
     54     -42.9523      2.00000
     55     -42.9513      2.00000
     56     -42.9491      2.00000
     57     -42.9476      2.00000
     58     -42.9467      2.00000
     59     -42.9454      2.00000
     60     -42.9452      2.00000
[...]
    946       6.3419      0.00000
    947       6.3715      0.00000
    948       6.3858      0.00000
    949       6.4486      0.00000
    950       6.5167      0.00000
    951       6.5799      0.00000
    952       6.6461      0.00000
    953       6.7431      0.00000
    954       6.7914      0.00000
    955       6.7960      0.00000
    956       6.8726      0.00000
    957       6.9159      0.00000
    958       6.9761      0.00000
    959       7.0365      0.00000
    960       7.0831      0.00000

 soft charge-density along one line, spin component           1
         0         1         2         3         4         5         6         7         8         9
 total charge-density along one line

------------------------ aborting loop because EDIFF is reached ----------------------------------------

  FORCE on cell =-STRESS in cart. coord.  units (eV):
  Direction    XX          YY          ZZ          XY          YZ          ZX
  Alpha Z  1394.80054  1394.80054  1394.80054
  Ewald  481518.80809483945.56047************     3.30592   512.32742     8.74192
  Hartree511486.14517513508.23666************     2.74470   417.85894     6.63084
  E(xc)   -7934.06117 -7932.47263 -7981.27124     0.00268     0.44466     0.00891
  Local  ************************************    -6.04038  -927.34239   -15.26351
  n-local -8798.20546 -8797.68382 -8920.61042     0.00081     0.00655    -0.00753
  augment  3659.62952  3653.47236  3591.43166    -0.00704    -1.63028    -0.05041
  Kinetic 23067.80324 23061.31181 23299.72178    -0.00259    -1.42016    -0.07263
  Fock        0.00000     0.00000     0.00000     0.00000     0.00000     0.00000
  Total    -100.85924  -100.40045    42.03116     0.00412     0.24475    -0.01242
  in kB     -16.35304   -16.27865     6.81482     0.00067     0.03968    -0.00201

 VOLUME and BASIS-vectors are now :
  energy-cutoff  :      520.00
  volume of cell :     9881.61
      direct lattice vectors                 reciprocal lattice vectors
    21.138852197  0.000000000  0.000000000     0.047306258  0.000000000  0.000000000
     0.000000000 21.138852197  0.000000000     0.000000000  0.047306258  0.000000000
     0.000000000  0.000000000 22.113885220     0.000000000  0.000000000  0.045220457

  length of vectors
    21.138852197 21.138852197 22.113885220     0.047306258  0.047306258  0.045220457

 FORCES acting on ions:
    Electron-Ion                     Ewald-Force                    Non-Local-Force
   0.145E+01 0.463E+03 -.201E+04   -.141E+01 -.456E+03 0.201E+04   -.416E-01 -.699E+01 -.697E+01
   -.175E+01 0.260E+03 -.217E+04   0.169E+01 -.262E+03 0.216E+04   0.534E-01 0.208E+01 0.709E+01
   -.277E+01 -.420E+03 -.212E+04   0.270E+01 0.413E+03 0.211E+04   0.701E-01 0.640E+01 0.116E+02
   0.286E+01 -.306E+03 -.175E+04   -.282E+01 0.306E+03 0.176E+04   -.499E-01 0.245E+00 -.617E+01
   0.744E+01 -.228E+01 0.936E+03   -.746E+01 0.229E+01 -.928E+03   0.154E-01 -.567E-02 -.755E+01
   0.138E+02 0.747E+01 0.940E+03   -.138E+02 -.748E+01 -.932E+03   0.324E-01 0.899E-02 -.755E+01
   0.982E+01 0.630E+01 -.918E+03   -.984E+01 -.629E+01 0.911E+03   0.141E-01 -.450E-02 0.747E+01
   0.159E+02 -.428E+01 -.916E+03   -.160E+02 0.429E+01 0.909E+03   0.185E-01 -.758E-02 0.747E+01
   0.105E+02 0.110E+02 0.939E+03   -.105E+02 -.110E+02 -.931E+03   0.273E-01 0.423E-02 -.755E+01
   0.281E+02 0.202E+02 0.951E+03   -.282E+02 -.203E+02 -.943E+03   0.102E+00 0.209E-01 -.758E+01
   0.198E+02 0.167E+02 -.914E+03   -.198E+02 -.167E+02 0.906E+03   0.180E-01 -.152E-02 0.747E+01
   0.257E+02 0.221E+02 -.913E+03   -.257E+02 -.221E+02 0.905E+03   0.465E-01 -.238E-02 0.746E+01
   0.188E+02 0.100E+02 0.946E+03   -.189E+02 -.100E+02 -.938E+03   0.462E-01 0.791E-02 -.756E+01
   0.436E+02 0.414E+01 0.964E+03   -.438E+02 -.416E+01 -.956E+03   0.154E+00 0.139E-01 -.760E+01
   0.305E+02 0.365E+01 -.909E+03   -.306E+02 -.366E+01 0.901E+03   0.183E-01 0.679E-02 0.746E+01
   0.589E+02 0.237E+02 -.898E+03   -.590E+02 -.237E+02 0.890E+03   0.366E-01 0.176E-02 0.744E+01
   0.204E+02 -.594E+01 0.948E+03   -.205E+02 0.593E+01 -.940E+03   0.567E-01 0.278E-02 -.756E+01
   0.332E+02 -.189E+02 0.956E+03   -.334E+02 0.189E+02 -.948E+03   0.132E+00 -.193E-01 -.758E+01
   0.238E+02 -.153E+02 -.911E+03   -.239E+02 0.153E+02 0.904E+03   0.281E-01 0.413E-02 0.747E+01
   0.666E+02 -.144E+02 -.893E+03   -.667E+02 0.144E+02 0.885E+03   0.738E-01 0.158E-01 0.744E+01
   0.125E+02 -.128E+02 0.941E+03   -.126E+02 0.128E+02 -.933E+03   0.349E-01 -.924E-02 -.755E+01
   0.160E+02 -.130E+02 0.942E+03   -.160E+02 0.130E+02 -.934E+03   0.382E-01 -.246E-01 -.755E+01
   0.116E+02 -.114E+02 -.917E+03   -.116E+02 0.114E+02 0.910E+03   0.168E-01 -.489E-02 0.747E+01
   0.332E+02 -.271E+02 -.908E+03   -.333E+02 0.271E+02 0.900E+03   0.587E-01 -.750E-02 0.746E+01
   0.137E+02 -.439E+01 0.943E+03   -.138E+02 0.441E+01 -.935E+03   0.263E-01 -.119E-01 -.756E+01
   0.102E+02 0.154E+02 0.948E+03   -.102E+02 -.155E+02 -.940E+03   0.245E-01 0.690E-01 -.757E+01
   0.197E+02 0.157E+02 -.912E+03   -.198E+02 -.157E+02 0.905E+03   0.254E-01 0.224E-01 0.746E+01
   0.118E+02 -.866E+01 -.910E+03   -.118E+02 0.867E+01 0.902E+03   0.115E-01 -.540E-02 0.746E+01
   0.226E+02 0.256E+02 0.952E+03   -.228E+02 -.257E+02 -.944E+03   0.832E-01 0.690E-01 -.757E+01
   0.309E+02 0.526E+02 0.992E+03   -.312E+02 -.530E+02 -.984E+03   0.219E+00 0.265E+00 -.757E+01
   0.624E+02 0.559E+02 -.887E+03   -.627E+02 -.559E+02 0.880E+03   0.206E+00 -.228E-01 0.741E+01
   0.267E+02 0.610E+02 -.894E+03   -.268E+02 -.612E+02 0.887E+03   0.345E-01 0.175E+00 0.744E+01
   0.539E+02 0.279E+02 0.987E+03   -.543E+02 -.279E+02 -.979E+03   0.366E+00 0.630E-01 -.771E+01
   0.605E+02 0.107E+02 0.106E+04   -.612E+02 -.108E+02 -.105E+04   0.478E+00 0.873E-01 -.778E+01
   0.129E+03 0.134E+02 -.844E+03   -.129E+03 -.135E+02 0.837E+03   0.209E+00 0.307E-01 0.735E+01
   0.158E+03 0.107E+03 -.748E+03   -.160E+03 -.107E+03 0.741E+03   0.161E+01 -.149E-01 0.665E+01
   0.600E+02 -.181E+02 0.995E+03   -.605E+02 0.181E+02 -.987E+03   0.466E+00 -.225E-01 -.772E+01
   0.385E+02 -.528E+02 0.101E+04   -.389E+02 0.532E+02 -.100E+04   0.303E+00 -.320E+00 -.758E+01
   0.818E+02 -.570E+02 -.871E+03   -.822E+02 0.570E+02 0.863E+03   0.267E+00 0.121E-01 0.741E+01
   0.186E+03 -.721E+02 -.705E+03   -.189E+03 0.720E+02 0.698E+03   0.237E+01 0.344E-01 0.690E+01
   0.285E+02 -.310E+02 0.960E+03   -.286E+02 0.311E+02 -.952E+03   0.106E+00 -.968E-01 -.757E+01
   0.124E+02 -.263E+02 0.954E+03   -.124E+02 0.264E+02 -.946E+03   0.256E-01 -.110E+00 -.758E+01
   0.248E+02 -.284E+02 -.908E+03   -.248E+02 0.284E+02 0.900E+03   0.222E-01 -.447E-01 0.746E+01
   0.387E+02 -.816E+02 -.875E+03   -.387E+02 0.819E+02 0.867E+03   0.137E-02 -.254E+00 0.741E+01
   0.453E-01 -.620E+01 0.948E+03   -.449E-01 0.622E+01 -.940E+03   -.320E-03 -.132E-01 -.756E+01
   -.101E+02 0.154E+02 0.948E+03   0.102E+02 -.155E+02 -.941E+03   -.250E-01 0.687E-01 -.757E+01
   0.639E-01 0.261E+02 -.907E+03   -.634E-01 -.262E+02 0.899E+03   -.422E-03 0.613E-01 0.746E+01
   -.117E+02 -.869E+01 -.910E+03   0.117E+02 0.870E+01 0.902E+03   -.120E-01 -.528E-02 0.746E+01
   0.734E-01 0.422E+02 0.967E+03   -.727E-01 -.426E+02 -.959E+03   -.585E-03 0.305E+00 -.763E+01
   -.307E+02 0.528E+02 0.992E+03   0.310E+02 -.531E+02 -.985E+03   -.220E+00 0.264E+00 -.757E+01
   0.338E+00 0.159E+03 -.811E+03   -.335E+00 -.161E+03 0.803E+03   -.214E-02 0.165E+01 0.736E+01
   -.266E+02 0.611E+02 -.894E+03   0.266E+02 -.613E+02 0.887E+03   -.356E-01 0.173E+00 0.744E+01
   0.237E+00 0.550E+02 0.106E+04   -.235E+00 -.555E+02 -.106E+04   -.191E-02 0.380E+00 -.573E+01
   -.603E+02 0.108E+02 0.106E+04   0.609E+02 -.109E+02 -.105E+04   -.480E+00 0.869E-01 -.779E+01
   0.128E+01 0.260E+02 -.513E+03   -.127E+01 -.271E+02 0.509E+03   -.765E-02 0.991E+00 0.390E+01
   -.158E+03 0.108E+03 -.747E+03   0.160E+03 -.108E+03 0.740E+03   -.161E+01 -.192E-01 0.663E+01
   0.296E+00 -.378E+02 0.109E+04   -.293E+00 0.380E+02 -.108E+04   -.248E-02 -.224E+00 -.485E+01
   -.383E+02 -.529E+02 0.101E+04   0.387E+02 0.534E+02 -.100E+04   -.305E+00 -.319E+00 -.758E+01
   0.621E+00 -.187E+03 -.741E+03   -.616E+00 0.190E+03 0.734E+03   -.419E-02 -.231E+01 0.682E+01
   -.186E+03 -.725E+02 -.703E+03   0.189E+03 0.724E+02 0.696E+03   -.237E+01 0.357E-01 0.688E+01
[...]
   -.110E+02 0.981E+01 0.708E+03   0.110E+02 -.982E+01 -.712E+03   -.301E-01 0.853E-02 0.341E+01
   -.348E-01 0.694E+01 0.704E+03   0.344E-01 -.694E+01 -.709E+03   0.446E-03 0.236E-02 0.342E+01
   -.201E+02 0.992E+01 -.684E+03   0.201E+02 -.992E+01 0.689E+03   -.198E-01 0.292E-02 -.357E+01
   -.101E+00 0.216E+01 -.686E+03   0.100E+00 -.216E+01 0.690E+03   0.893E-03 0.661E-02 -.355E+01
   -.161E+02 0.201E+01 0.713E+03   0.161E+02 -.201E+01 -.717E+03   -.393E-01 0.934E-02 0.340E+01
   -.611E-01 0.621E+01 0.708E+03   0.606E-01 -.621E+01 -.712E+03   0.746E-03 0.643E-02 0.342E+01
   -.223E+02 -.577E+01 -.683E+03   0.223E+02 0.576E+01 0.687E+03   -.262E-01 0.953E-02 -.357E+01
   -.855E-01 -.906E+01 -.687E+03   0.850E-01 0.906E+01 0.691E+03   0.722E-03 0.327E-02 -.355E+01
   -.128E+02 -.891E+01 0.710E+03   0.129E+02 0.891E+01 -.714E+03   -.389E-01 -.673E-02 0.341E+01
   -.701E-01 -.360E+01 0.709E+03   0.695E-01 0.360E+01 -.713E+03   0.792E-03 0.375E-02 0.342E+01
   -.128E+02 -.123E+02 -.687E+03   0.128E+02 0.123E+02 0.692E+03   -.229E-01 -.501E-02 -.355E+01
   -.444E-01 -.707E+01 -.690E+03   0.441E-01 0.708E+01 0.695E+03   0.402E-03 -.512E-02 -.353E+01
   -.686E+01 -.675E+01 0.705E+03   0.687E+01 0.676E+01 -.709E+03   -.220E-01 -.127E-01 0.342E+01
   -.463E-01 -.805E+01 0.706E+03   0.459E-01 0.805E+01 -.710E+03   0.506E-03 -.715E-02 0.342E+01
   -.846E-01 -.235E+01 -.148E+01   0.165E-11 0.682E-12 0.364E-11   0.812E-01 0.236E+01 0.845E+00

 POSITION                                       TOTAL-FORCE (eV/Angst)
      8.46039      8.90641     13.11119        -0.004839     -0.163637      0.186337
      8.46878     10.69052     14.51992        -0.001777     -0.073349      0.236130
      8.47353     12.97033     15.28534         0.002994      0.170713      0.292741
      8.46080     12.56080     13.05418        -0.006089      0.060423      0.067355
      0.00000      0.00000      9.00000        -0.004218      0.001552      0.250968
      2.11389      2.11389      9.00000        -0.008929     -0.002577      0.251892
      0.00000      2.11389     11.11389        -0.003683      0.001223     -0.226199
      2.11389      0.00000     11.11389        -0.005102      0.002021     -0.224905
      0.00000      4.22777      9.00000        -0.007173     -0.001178      0.252441
      2.11389      6.34166      9.00000        -0.026421     -0.005567      0.258901
      0.00000      6.34166     11.11389        -0.004136      0.000599     -0.221479
      2.11389      4.22777     11.11389        -0.011640      0.000696     -0.219255
      0.00000      8.45554      9.00000        -0.012166     -0.002137      0.255208
      2.11389     10.56943      9.00000        -0.040849     -0.004133      0.264279
      0.00000     10.56943     11.11389        -0.003712     -0.001992     -0.217777
      2.11389      8.45554     11.11389        -0.005791      0.000077     -0.202815
      0.00000     12.68331      9.00000        -0.014739     -0.000929      0.255376
      2.11389     14.79720      9.00000        -0.034344      0.005439      0.259190
      0.00000     14.79720     11.11389        -0.006725     -0.001253     -0.221236
      2.11389     12.68331     11.11389        -0.014767     -0.004956     -0.202530
      0.00000     16.91108      9.00000        -0.009204      0.002604      0.252534
      2.11389     19.02497      9.00000        -0.010546      0.006817      0.252020
      0.00000     19.02497     11.11389        -0.004422      0.001377     -0.226007
      2.11389     16.91108     11.11389        -0.014637      0.002098     -0.218089
      4.22777      0.00000      9.00000        -0.007375      0.003121      0.252933
      6.34166      2.11389      9.00000        -0.007117     -0.018168      0.255117
      4.22777      2.11389     11.11389        -0.007049     -0.005312     -0.220042
      6.34166      0.00000     11.11389        -0.003185      0.001271     -0.219746
      4.22777      4.22777      9.00000        -0.023617     -0.019692      0.254051
      6.34166      6.34166      9.00000        -0.073654     -0.084146      0.238504
      4.22777      6.34166     11.11389        -0.047566      0.010821     -0.182158
      6.34166      4.22777     11.11389        -0.009829     -0.042614     -0.197627
      4.22777      8.45554      9.00000        -0.091988     -0.016220      0.286013
      6.34166     10.56943      9.00000        -0.162903     -0.029549      0.254841
      4.22777     10.56943     11.11389        -0.041204     -0.011346     -0.128954
      6.34166      8.45554     11.11389        -0.612079      0.021938     -0.052419
      4.22777     12.68331      9.00000        -0.114892      0.004636      0.287671
      6.34166     14.79720      9.00000        -0.101420      0.105556      0.233317
      4.22777     14.79720     11.11389        -0.062124     -0.005942     -0.175749
      6.34166     12.68331     11.11389        -0.892576     -0.015830     -0.181061
      4.22777     16.91108      9.00000        -0.030108      0.027496      0.254913
      6.34166     19.02497      9.00000        -0.007256      0.028516      0.258131
      4.22777     19.02497     11.11389        -0.006208      0.010914     -0.218132
      6.34166     16.91108     11.11389         0.002995      0.056888     -0.175934
      8.45554      0.00000      9.00000         0.000112      0.003559      0.254527
     10.56943      2.11389      9.00000         0.007302     -0.018089      0.255138
      8.45554      2.11389     11.11389         0.000118     -0.013870     -0.214735
     10.56943      0.00000     11.11389         0.003380      0.001241     -0.219732
      8.45554      4.22777      9.00000         0.000185     -0.075991      0.265183
     10.56943      6.34166      9.00000         0.074072     -0.083860      0.238783
      8.45554      6.34166     11.11389         0.000665     -0.542010     -0.186995
     10.56943      4.22777     11.11389         0.010158     -0.042164     -0.197485
      8.45554      8.45554      9.00000         0.000596     -0.083364     -0.141903
     10.56943     10.56943      9.00000         0.163592     -0.029430      0.255583
      8.45554     10.56943     11.11389         0.000702     -0.117006     -0.077184
     10.56943      8.45554     11.11389         0.615998      0.022443     -0.051534
      8.45554     12.68331      9.00000         0.000727      0.046398     -0.315227
     10.56943     14.79720      9.00000         0.101935      0.105240      0.233929
      8.45554     14.79720     11.11389         0.001221      0.821230     -0.094545
     10.56943     12.68331     11.11389         0.898293     -0.015660     -0.181169
[...]
     19.02497      6.34166     11.11389         0.000197     -0.000230      0.644076
     16.91108      6.34166      9.00000        -0.008327      0.002391     -0.675483
     19.02497      4.22777      9.00000         0.000140      0.000675     -0.673093
     16.91108      8.45554     11.11389        -0.005491      0.000780      0.638125
     19.02497     10.56943     11.11389         0.000262      0.001800      0.641615
     16.91108     10.56943      9.00000        -0.010857      0.002538     -0.677875
     19.02497      8.45554      9.00000         0.000224      0.001776     -0.675051
     16.91108     12.68331     11.11389        -0.007261      0.002610      0.637862
     19.02497     14.79720     11.11389         0.000217      0.000880      0.643874
     16.91108     14.79720      9.00000        -0.010711     -0.001915     -0.675588
     19.02497     12.68331      9.00000         0.000236      0.000995     -0.675054
     16.91108     16.91108     11.11389        -0.006295     -0.001410      0.644073
     19.02497     19.02497     11.11389         0.000126     -0.001433      0.647368
     16.91108     19.02497      9.00000        -0.006026     -0.003512     -0.672769
     19.02497     16.91108      9.00000         0.000156     -0.002006     -0.673144
    total drift:                               -0.003401      0.002467     -0.635740

  FREE ENERGIE OF THE ION-ELECTRON SYSTEM (eV)
  free  energy   TOTEN  =     -1094.28900997 eV

  energy  without entropy=    -1094.28900997  energy(sigma->0) =    -1094.28900997