 vasp.6.3.0 20Jan22 (build Apr  1 2022 16:44:48) complex
 executed on        HPECrayEX_GCC date 2023.01.10  02:22:08

 INCAR:
   SYSTEM = MgO-rocksalt
   ISMEAR = 0
   SIGMA = 0.05
   EDIFF = 1E-6
   ALGO = ALL
   ISTART = 0
   IBRION = -1
   NSW = 0
   ISYM = 2
   DIPOL = 0.5 0.5 0.5
   IDIPOL = 3
   LDIPOL = .TRUE.
   LHFCALC = .TRUE.
   GGA = PE
   IVDW = 13
   VDW_S8 = 1.2007
   VDW_A1 = 0.4009
   VDW_A2 = 5.0293
   ENCUT = 520
   PREC = Accurate
   LASPH = .TRUE.
   LREAL = Auto
   ISPIN = 1
   NELM = 200
   NELMIN = 8
   NCORE = 4
   KPAR = 2
   LWAVE = .FALSE.
   LCHARG = .FALSE.

 POTCAR:    PAW_PBE Au 04Oct2007
 POTCAR:    PAW_PBE Mg_pv 13Apr2007
 POTCAR:    PAW_PBE O 08Apr2002
|           W    W    AA    RRRRR   N    N  II  N    N   GGGG   !!!           |
|           W    W   A  A   R    R  NN   N  II  NN   N  G    G  !!!           |
|           W    W  A    A  R    R  N N  N  II  N N  N  G       !!!           |
|           W WW W  AAAAAA  RRRRR   N  N N  II  N  N N  G  GGG   !            |
|           WW  WW  A    A  R   R   N   NN  II  N   NN  G    G                |
|           W    W  A    A  R    R  N    N  II  N    N   GGGG   !!!           |
|     You have selected ISYM=2 for a HF type calculation. This will           |
|     symmetrize the charge density but not the exchange potential. I         |
|     suggest to use ISYM=3 instead. This uses symmetry to obtain the         |
|     orbitals at all k-points in the Brillouin zone, but does not apply      |
|     symmetry to the Hartree potential directly. The resultant charge        |
|     might have lower symmetry than the crystal but, at least, Hartree       |
|     and exchange are fully compatible.                                      |

   TITEL  = PAW_PBE Au 04Oct2007
   POMASS =  196.966; ZVAL   =   11.000    mass and valenz
   ENMAX  =  229.943; ENMIN  =  172.457 eV

   TITEL  = PAW_PBE Mg_pv 13Apr2007
   POMASS =   24.305; ZVAL   =    8.000    mass and valenz
   ENMAX  =  403.929; ENMIN  =  302.947 eV

   TITEL  = PAW_PBE O 08Apr2002
   POMASS =   16.000; ZVAL   =    6.000    mass and valenz
   ENMAX  =  400.000; ENMIN  =  300.000 eV

 Optimization of the real space projectors (new method)

 maximal supplied QI-value         = 15.12
 optimisation between [QCUT,QGAM] = [ 11.64, 23.28] = [ 37.95,151.78] Ry
 Optimized for a Real-space Cutoff    1.49 Angstroem

   l    n(q)    QCUT    max X(q) W(low)/X(q) W(high)/X(q)  e(spline)
   2      9    11.641    60.898    0.24E-03    0.10E-03    0.19E-06
   2      9    11.641    58.894    0.25E-03    0.10E-03    0.19E-06
   0     10    11.641   109.617    0.73E-04    0.33E-04    0.11E-06
   0     10    11.641    75.026    0.71E-04    0.32E-04    0.11E-06
   1     10    11.641    16.344    0.27E-04    0.97E-04    0.16E-06
   1     10    11.641    10.160    0.23E-04    0.77E-04    0.13E-06
 Optimization of the real space projectors (new method)

[...]

   l    n(q)    QCUT    max X(q) W(low)/X(q) W(high)/X(q)  e(spline)
   1      8    11.527     2.974    0.44E-04    0.56E-04    0.12E-06
   1      8    11.527     4.279    0.12E-03    0.12E-03    0.26E-06
   0      9    11.527    16.381    0.46E-04    0.64E-04    0.78E-07
   0      9    11.527     5.611    0.26E-04    0.43E-04    0.55E-07
   2      8    11.527     4.652    0.22E-03    0.72E-04    0.47E-07
 Optimization of the real space projectors (new method)

 maximal supplied QI-value         = 24.76
 optimisation between [QCUT,QGAM] = [ 11.64, 23.27] = [ 37.91,151.63] Ry
 Optimized for a Real-space Cutoff    1.14 Angstroem

   l    n(q)    QCUT    max X(q) W(low)/X(q) W(high)/X(q)  e(spline)
   0      8    11.635    20.381    0.10E-03    0.33E-03    0.24E-06
   0      8    11.635    15.268    0.11E-03    0.35E-03    0.26E-06
   1      7    11.635     5.964    0.24E-03    0.31E-03    0.30E-06
   1      7    11.635     5.382    0.22E-03    0.25E-03    0.26E-06
  PAW_PBE Au 04Oct2007                  :
  PAW_PBE Mg_pv 13Apr2007               :
  PAW_PBE O 08Apr2002                   :

 POSCAR: Au Mg  O
  positions in direct lattice
  velocities in cartesian coordinates
|           W    W    AA    RRRRR   N    N  II  N    N   GGGG   !!!           |
|           W    W   A  A   R    R  NN   N  II  NN   N  G    G  !!!           |
|           W    W  A    A  R    R  N N  N  II  N N  N  G       !!!           |
|           W WW W  AAAAAA  RRRRR   N  N N  II  N  N N  G  GGG   !            |
|           WW  WW  A    A  R   R   N   NN  II  N   NN  G    G                |
|           W    W  A    A  R    R  N    N  II  N    N   GGGG   !!!           |
|     Specifying the vdW parameters                                           |
|     VDW_S8 = 1.201                                                          |
|     VDW_A1 = 0.401                                                          |
|     VDW_A2 = 5.029                                                          |
|     in the INCAR file will overwrite the defaults for pbe0. Please make     |
|     sure that is what you intended.                                         |

 ion  position               nearest neighbor table
   1  0.400  0.425  0.603- 153 2.29   2 2.53  55 2.73
   2  0.400  0.510  0.684-   1 2.53   3 2.68   4 2.74
   3  0.400  0.633  0.713-   4 2.57   2 2.68
   4  0.400  0.605  0.600- 157 2.16   3 2.57   2 2.74  59 2.95  40 3.02  60 3.02
   5  0.000  0.000  0.407- 107 2.11 108 2.11 123 2.11 188 2.11 105 2.11
   6  0.100  0.100  0.407- 107 2.11 108 2.11 112 2.11 127 2.11 106 2.11
   7  0.000  0.100  0.503- 105 2.11 106 2.11 109 2.11 186 2.11 107 2.11
   8  0.100  0.000  0.503- 105 2.11 106 2.11 122 2.11 125 2.11 108 2.11
   9  0.000  0.200  0.407- 111 2.11 107 2.11 112 2.11 192 2.11 109 2.11
  10  0.100  0.300  0.407- 112 2.11 111 2.11 116 2.11 131 2.11 110 2.11
  11  0.000  0.300  0.503- 109 2.11 110 2.11 113 2.11 190 2.11 111 2.11
  12  0.100  0.200  0.503- 110 2.11 109 2.11 106 2.11 129 2.11 112 2.11
  13  0.000  0.400  0.407- 111 2.11 115 2.11 116 2.11 196 2.11 113 2.11
  14  0.100  0.500  0.407- 115 2.11 116 2.11 120 2.11 135 2.11 114 2.11
  15  0.000  0.500  0.503- 113 2.11 114 2.11 117 2.11 194 2.11 115 2.11
  16  0.100  0.400  0.503- 110 2.11 113 2.11 114 2.11 133 2.11 116 2.11
  17  0.000  0.600  0.407- 115 2.11 119 2.11 120 2.11 200 2.11 117 2.11
  18  0.100  0.700  0.407- 124 2.11 120 2.11 119 2.11 139 2.11 118 2.11
  19  0.000  0.700  0.503- 121 2.11 118 2.11 117 2.11 198 2.11 119 2.11
  20  0.100  0.600  0.503- 114 2.11 117 2.11 118 2.11 137 2.11 120 2.11
  21  0.000  0.800  0.407- 119 2.11 123 2.11 124 2.11 204 2.11 121 2.11
  22  0.100  0.900  0.407- 108 2.11 123 2.11 124 2.11 143 2.11 122 2.11
  23  0.000  0.900  0.503- 105 2.11 121 2.11 122 2.11 202 2.11 123 2.11
  24  0.100  0.800  0.503- 118 2.11 121 2.11 122 2.11 141 2.11 124 2.11
  25  0.200  0.000  0.407- 128 2.11 127 2.11 108 2.11 143 2.11 125 2.11
  26  0.300  0.100  0.407- 127 2.11 128 2.11 132 2.11 147 2.11 126 2.11
  27  0.200  0.100  0.503- 126 2.11 125 2.11 106 2.11 129 2.11 127 2.11
  28  0.300  0.000  0.503- 125 2.11 126 2.11 142 2.11 145 2.11 128 2.11
  29  0.200  0.200  0.407- 131 2.11 132 2.11 112 2.11 127 2.11 129 2.11
  30  0.300  0.300  0.407- 131 2.11 132 2.11 136 2.11 151 2.11 130 2.11
  31  0.200  0.300  0.503- 129 2.11 130 2.11 110 2.11 133 2.11 131 2.11
  32  0.300  0.200  0.503- 129 2.11 130 2.11 126 2.11 149 2.11 132 2.11
  33  0.200  0.400  0.407- 136 2.11 131 2.11 135 2.11 116 2.11 133 2.11
  34  0.300  0.500  0.407- 135 2.11 136 2.11 140 2.11 155 2.11 134 2.11
  35  0.200  0.500  0.503- 134 2.11 133 2.11 114 2.11 137 2.11 135 2.11
  36  0.300  0.400  0.503- 133 2.11 130 2.11 134 2.11 153 2.11 136 2.11
  37  0.200  0.600  0.407- 140 2.11 135 2.11 139 2.11 120 2.11 137 2.11
  38  0.300  0.700  0.407- 139 2.11 144 2.11 140 2.11 159 2.11 138 2.11
  39  0.200  0.700  0.503- 138 2.11 141 2.11 118 2.11 137 2.11 139 2.11
  40  0.300  0.600  0.503- 137 2.11 134 2.11 138 2.11 157 2.11 140 2.11   4 3.02
  41  0.200  0.800  0.407- 139 2.11 144 2.11 143 2.11 124 2.11 141 2.11
  42  0.300  0.900  0.407- 143 2.11 128 2.11 144 2.11 163 2.11 142 2.11
  43  0.200  0.900  0.503- 142 2.11 125 2.11 141 2.11 122 2.11 143 2.11
  44  0.300  0.800  0.503- 138 2.11 141 2.11 142 2.11 161 2.11 144 2.11
  45  0.400  0.000  0.407- 128 2.11 147 2.11 148 2.11 163 2.11 145 2.11
  46  0.500  0.100  0.407- 147 2.11 148 2.11 152 2.11 167 2.11 146 2.11
  47  0.400  0.100  0.503- 126 2.11 145 2.11 146 2.11 149 2.11 147 2.11
  48  0.500  0.000  0.503- 145 2.11 146 2.11 162 2.11 165 2.11 148 2.11
  49  0.400  0.200  0.407- 151 2.11 147 2.11 132 2.11 152 2.11 149 2.11
  50  0.500  0.300  0.407- 152 2.11 151 2.11 156 2.11 171 2.11 150 2.11
  51  0.400  0.300  0.503- 149 2.11 130 2.11 150 2.11 153 2.11 151 2.11
  52  0.500  0.200  0.503- 150 2.11 149 2.11 146 2.11 169 2.11 152 2.11
  53  0.400  0.400  0.407- 136 2.11 151 2.11 155 2.11 156 2.11 153 2.11
  54  0.500  0.500  0.407- 155 2.11 156 2.11 160 2.11 175 2.11 154 2.11
  55  0.400  0.500  0.503- 134 2.11 153 2.11 154 2.11 157 2.11 155 2.11   1 2.73
  56  0.500  0.400  0.503- 150 2.11 153 2.11 154 2.11 173 2.11 156 2.11
  57  0.400  0.600  0.407- 140 2.11 155 2.11 159 2.11 160 2.11 157 2.11
  58  0.500  0.700  0.407- 164 2.11 160 2.11 159 2.11 179 2.11 158 2.11
  59  0.400  0.700  0.503- 161 2.11 157 2.11 158 2.11 138 2.11 159 2.11   4 2.95
  60  0.500  0.600  0.503- 154 2.11 157 2.11 158 2.11 177 2.11 160 2.11   4 3.02
[...]
 190  0.900  0.300  0.503-  92 2.11  91 2.11  11 2.11  96 2.11  90 2.11
 191  0.800  0.300  0.407-  70 2.11  89 2.11  90 2.11  93 2.11  91 2.11
 192  0.900  0.200  0.407-  90 2.11  86 2.11  89 2.11   9 2.11  92 2.11
 193  0.800  0.400  0.503-  76 2.11  91 2.11  95 2.11  96 2.11  93 2.11
 194  0.900  0.500  0.503-  15 2.11  95 2.11  96 2.11 100 2.11  94 2.11
 195  0.800  0.500  0.407-  74 2.11  93 2.11  94 2.11  97 2.11  95 2.11
 196  0.900  0.400  0.407-  13 2.11  90 2.11  93 2.11  94 2.11  96 2.11
 197  0.800  0.600  0.503-  80 2.11  95 2.11  99 2.11 100 2.11  97 2.11
 198  0.900  0.700  0.503- 104 2.11  99 2.11 100 2.11  19 2.11  98 2.11
 199  0.800  0.700  0.407-  78 2.11 101 2.11  98 2.11  97 2.11  99 2.11
 200  0.900  0.600  0.407-  17 2.11  94 2.11  97 2.11  98 2.11 100 2.11
 201  0.800  0.800  0.503-  84 2.11  99 2.11 103 2.11 104 2.11 101 2.11
 202  0.900  0.900  0.503-  23 2.11  88 2.11 103 2.11 104 2.11 102 2.11
 203  0.800  0.900  0.407-  82 2.11  85 2.11 101 2.11 102 2.11 103 2.11
 204  0.900  0.800  0.407-  98 2.11  21 2.11 101 2.11 102 2.11 104 2.11

  LATTYP: Found a simple tetragonal cell.
 ALAT       =    21.1388521970
 C/A-ratio  =     1.0461251639

  Lattice vectors:

 A1 = (  21.1388521970,   0.0000000000,   0.0000000000)
 A2 = (   0.0000000000,  21.1388521970,   0.0000000000)
 A3 = (   0.0000000000,   0.0000000000,  22.1138852197)

Analysis of symmetry for initial positions (statically):
 Subroutine PRICEL returns:
 Original cell was already a primitive cell.

 Routine SETGRP: Setting up the symmetry group for a
 simple tetragonal supercell.

 Subroutine GETGRP returns: Found  1 space group operations
 (whereof  1 operations were pure point group operations)
 out of a pool of 16 trial point group operations.

[...]
     22     -47.2012      2.00000
     23     -47.2006      2.00000
     24     -47.1880      2.00000
     25     -47.1866      2.00000
     26     -47.1707      2.00000
     27     -47.1557      2.00000
     28     -47.1486      2.00000
     29     -47.1480      2.00000
     30     -47.1480      2.00000
     31     -47.1476      2.00000
     32     -47.1293      2.00000
     33     -47.1287      2.00000
     34     -47.1277      2.00000
     35     -47.1232      2.00000
     36     -47.1230      2.00000
     37     -47.1229      2.00000
     38     -47.1134      2.00000
     39     -47.1076      2.00000
     40     -47.1069      2.00000
     41     -47.0966      2.00000
     42     -47.0965      2.00000
     43     -47.0950      2.00000
     44     -47.0945      2.00000
     45     -47.0875      2.00000
     46     -47.0874      2.00000
     47     -47.0767      2.00000
     48     -47.0550      2.00000
     49     -47.0545      2.00000
     50     -47.0493      2.00000
     51     -47.0487      2.00000
     52     -47.0439      2.00000
     53     -47.0434      2.00000
     54     -47.0421      2.00000
     55     -47.0418      2.00000
     56     -47.0390      2.00000
     57     -47.0371      2.00000
     58     -47.0362      2.00000
     59     -47.0351      2.00000
     60     -47.0342      2.00000
[...]
   1010       7.3515      0.00000
   1011       7.5644      0.00000
   1012       7.5661      0.00000
   1013       7.6359      0.00000
   1014       7.6812      0.00000
   1015       7.6925      0.00000
   1016       7.7611      0.00000
   1017       7.8366      0.00000
   1018       7.9151      0.00000
   1019       7.9226      0.00000
   1020       7.9964      0.00000
   1021       8.1698      0.00000
   1022       8.2242      0.00000
   1023       8.2751      0.00000
   1024       8.3561      0.00000

 soft charge-density along one line, spin component           1
         0         1         2         3         4         5         6         7         8         9
 total charge-density along one line

------------------------ aborting loop because EDIFF is reached ----------------------------------------

 VOLUME and BASIS-vectors are now :
  energy-cutoff  :      520.00
  volume of cell :     9881.61
      direct lattice vectors                 reciprocal lattice vectors
    21.138852197  0.000000000  0.000000000     0.047306258  0.000000000  0.000000000
     0.000000000 21.138852197  0.000000000     0.000000000  0.047306258  0.000000000
     0.000000000  0.000000000 22.113885220     0.000000000  0.000000000  0.045220457

  length of vectors
    21.138852197 21.138852197 22.113885220     0.047306258  0.047306258  0.045220457

 FORCES acting on ions:
    Electron-Ion                     Ewald-Force                    Non-Local-Force
   0.616E-01 0.370E+03 -.196E+04   -.629E-01 -.366E+03 0.197E+04   0.213E-02 -.412E+01 -.469E+01
   0.196E+00 0.208E+03 -.198E+04   -.196E+00 -.211E+03 0.198E+04   0.828E-03 0.248E+01 0.460E+01
   -.395E+00 -.355E+03 -.186E+04   0.386E+00 0.351E+03 0.185E+04   0.744E-02 0.442E+01 0.653E+01
   0.139E+00 -.226E+03 -.180E+04   -.137E+00 0.227E+03 0.180E+04   -.120E-02 -.108E+01 -.267E+01
   0.728E+01 -.275E+01 0.937E+03   -.731E+01 0.276E+01 -.929E+03   0.150E-01 -.700E-02 -.712E+01
   0.131E+02 0.619E+01 0.940E+03   -.131E+02 -.620E+01 -.932E+03   0.312E-01 0.947E-02 -.713E+01
   0.949E+01 0.529E+01 -.919E+03   -.951E+01 -.529E+01 0.910E+03   0.126E-01 -.357E-02 0.704E+01
   0.158E+02 -.519E+01 -.916E+03   -.158E+02 0.521E+01 0.908E+03   0.179E-01 -.934E-02 0.703E+01
   0.977E+01 0.993E+01 0.939E+03   -.981E+01 -.994E+01 -.931E+03   0.261E-01 0.742E-02 -.713E+01
   0.254E+02 0.186E+02 0.951E+03   -.256E+02 -.186E+02 -.942E+03   0.986E-01 0.291E-01 -.715E+01
   0.184E+02 0.158E+02 -.914E+03   -.185E+02 -.158E+02 0.906E+03   0.187E-01 0.230E-02 0.703E+01
   0.240E+02 0.201E+02 -.913E+03   -.240E+02 -.201E+02 0.904E+03   0.419E-01 0.282E-02 0.702E+01
   0.172E+02 0.972E+01 0.946E+03   -.173E+02 -.974E+01 -.937E+03   0.496E-01 0.121E-01 -.714E+01
   0.394E+02 0.476E+01 0.962E+03   -.396E+02 -.479E+01 -.954E+03   0.165E+00 0.177E-01 -.717E+01
   0.286E+02 0.429E+01 -.908E+03   -.286E+02 -.430E+01 0.900E+03   0.249E-01 0.837E-02 0.702E+01
   0.538E+02 0.225E+02 -.898E+03   -.538E+02 -.225E+02 0.889E+03   0.518E-01 0.967E-02 0.699E+01
   0.191E+02 -.486E+01 0.948E+03   -.192E+02 0.486E+01 -.939E+03   0.622E-01 0.115E-02 -.714E+01
   0.313E+02 -.168E+02 0.956E+03   -.315E+02 0.168E+02 -.948E+03   0.137E+00 -.271E-01 -.715E+01
   0.231E+02 -.140E+02 -.911E+03   -.232E+02 0.140E+02 0.902E+03   0.315E-01 0.764E-03 0.703E+01
   0.622E+02 -.117E+02 -.892E+03   -.623E+02 0.117E+02 0.884E+03   0.973E-01 0.123E-01 0.699E+01
   0.122E+02 -.120E+02 0.942E+03   -.122E+02 0.121E+02 -.933E+03   0.359E-01 -.137E-01 -.713E+01
   0.157E+02 -.127E+02 0.943E+03   -.157E+02 0.128E+02 -.934E+03   0.389E-01 -.291E-01 -.713E+01
   0.116E+02 -.114E+02 -.917E+03   -.117E+02 0.114E+02 0.909E+03   0.162E-01 -.785E-02 0.703E+01
   0.329E+02 -.257E+02 -.907E+03   -.330E+02 0.258E+02 0.898E+03   0.588E-01 -.154E-01 0.702E+01
   0.133E+02 -.528E+01 0.944E+03   -.134E+02 0.530E+01 -.935E+03   0.266E-01 -.151E-01 -.713E+01
   0.951E+01 0.126E+02 0.949E+03   -.955E+01 -.127E+02 -.940E+03   0.244E-01 0.650E-01 -.714E+01
   0.188E+02 0.132E+02 -.912E+03   -.188E+02 -.132E+02 0.904E+03   0.243E-01 0.198E-01 0.702E+01
   0.117E+02 -.106E+02 -.909E+03   -.117E+02 0.106E+02 0.901E+03   0.114E-01 -.897E-02 0.702E+01
   0.206E+02 0.226E+02 0.952E+03   -.207E+02 -.227E+02 -.943E+03   0.800E-01 0.719E-01 -.714E+01
   0.265E+02 0.457E+02 0.987E+03   -.268E+02 -.462E+02 -.978E+03   0.214E+00 0.271E+00 -.716E+01
   0.559E+02 0.506E+02 -.888E+03   -.561E+02 -.506E+02 0.880E+03   0.182E+00 0.165E-02 0.696E+01
   0.240E+02 0.539E+02 -.895E+03   -.241E+02 -.542E+02 0.886E+03   0.360E-01 0.159E+00 0.699E+01
   0.470E+02 0.254E+02 0.983E+03   -.475E+02 -.255E+02 -.974E+03   0.348E+00 0.795E-01 -.726E+01
   0.505E+02 0.115E+02 0.104E+04   -.512E+02 -.117E+02 -.103E+04   0.491E+00 0.122E+00 -.730E+01
   0.113E+03 0.144E+02 -.847E+03   -.113E+03 -.145E+02 0.839E+03   0.259E+00 0.422E-01 0.689E+01
   0.128E+03 0.927E+02 -.765E+03   -.130E+03 -.928E+02 0.757E+03   0.141E+01 0.634E-01 0.638E+01
   0.535E+02 -.141E+02 0.991E+03   -.541E+02 0.141E+02 -.983E+03   0.477E+00 -.280E-01 -.727E+01
   0.351E+02 -.449E+02 0.101E+04   -.355E+02 0.454E+02 -.100E+04   0.317E+00 -.350E+00 -.715E+01
   0.779E+02 -.504E+02 -.869E+03   -.783E+02 0.504E+02 0.860E+03   0.267E+00 -.167E-01 0.696E+01
   0.155E+03 -.489E+02 -.722E+03   -.159E+03 0.489E+02 0.714E+03   0.236E+01 -.139E-01 0.657E+01
   0.274E+02 -.286E+02 0.961E+03   -.275E+02 0.288E+02 -.952E+03   0.109E+00 -.108E+00 -.715E+01
   0.121E+02 -.255E+02 0.955E+03   -.121E+02 0.257E+02 -.947E+03   0.270E-01 -.116E+00 -.715E+01
   0.250E+02 -.284E+02 -.907E+03   -.250E+02 0.285E+02 0.898E+03   0.229E-01 -.487E-01 0.702E+01
   0.386E+02 -.776E+02 -.870E+03   -.386E+02 0.779E+02 0.862E+03   0.449E-02 -.263E+00 0.695E+01
   -.176E-02 -.744E+01 0.949E+03   0.172E-02 0.747E+01 -.940E+03   0.250E-04 -.180E-01 -.714E+01
   -.952E+01 0.126E+02 0.949E+03   0.955E+01 -.127E+02 -.940E+03   -.244E-01 0.650E-01 -.714E+01
   -.408E-02 0.219E+02 -.907E+03   0.401E-02 -.220E+02 0.898E+03   0.447E-04 0.575E-01 0.702E+01
   -.117E+02 -.106E+02 -.909E+03   0.117E+02 0.106E+02 0.901E+03   -.114E-01 -.896E-02 0.702E+01
   -.584E-02 0.364E+02 0.965E+03   0.574E-02 -.368E+02 -.956E+03   0.652E-04 0.293E+00 -.719E+01
   -.265E+02 0.457E+02 0.987E+03   0.268E+02 -.461E+02 -.978E+03   -.214E+00 0.271E+00 -.716E+01
   -.365E-01 0.133E+03 -.821E+03   0.361E-01 -.135E+03 0.813E+03   0.259E-03 0.144E+01 0.695E+01
   -.240E+02 0.539E+02 -.895E+03   0.241E+02 -.542E+02 0.886E+03   -.359E-01 0.159E+00 0.699E+01
   -.203E-01 0.474E+02 0.105E+04   0.198E-01 -.480E+02 -.104E+04   0.323E-03 0.400E+00 -.549E+01
   -.505E+02 0.115E+02 0.104E+04   0.512E+02 -.117E+02 -.103E+04   -.491E+00 0.122E+00 -.730E+01
   -.979E-01 0.195E+02 -.584E+03   0.971E-01 -.212E+02 0.579E+03   0.755E-03 0.130E+01 0.459E+01
   -.128E+03 0.927E+02 -.765E+03   0.130E+03 -.928E+02 0.757E+03   -.141E+01 0.638E-01 0.638E+01
   -.162E-01 -.272E+02 0.107E+04   0.157E-01 0.276E+02 -.106E+04   0.340E-03 -.253E+00 -.432E+01
   -.351E+02 -.448E+02 0.101E+04   0.355E+02 0.454E+02 -.100E+04   -.317E+00 -.350E+00 -.715E+01
   -.276E-01 -.162E+03 -.735E+03   0.275E-01 0.166E+03 0.727E+03   0.641E-04 -.226E+01 0.613E+01
   -.155E+03 -.488E+02 -.722E+03   0.159E+03 0.488E+02 0.715E+03   -.236E+01 -.143E-01 0.657E+01
[...]
   -.101E+02 0.914E+01 0.708E+03   0.101E+02 -.915E+01 -.712E+03   -.320E-01 0.139E-01 0.304E+01
   0.210E-02 0.632E+01 0.704E+03   -.206E-02 -.632E+01 -.708E+03   -.451E-04 0.520E-02 0.305E+01
   -.185E+02 0.966E+01 -.684E+03   0.185E+02 -.967E+01 0.688E+03   -.236E-01 0.770E-02 -.321E+01
   0.473E-02 0.256E+01 -.686E+03   -.466E-02 -.257E+01 0.690E+03   -.788E-04 0.775E-02 -.320E+01
   -.147E+02 0.235E+01 0.712E+03   0.147E+02 -.236E+01 -.716E+03   -.461E-01 0.110E-01 0.303E+01
   0.348E-02 0.607E+01 0.708E+03   -.342E-02 -.608E+01 -.712E+03   -.726E-04 0.100E-01 0.304E+01
   -.210E+02 -.474E+01 -.682E+03   0.210E+02 0.474E+01 0.687E+03   -.317E-01 0.706E-02 -.321E+01
   0.252E-02 -.831E+01 -.687E+03   -.247E-02 0.831E+01 0.691E+03   -.527E-04 0.782E-04 -.319E+01
   -.121E+02 -.802E+01 0.710E+03   0.121E+02 0.803E+01 -.714E+03   -.430E-01 -.116E-01 0.304E+01
   0.292E-02 -.297E+01 0.709E+03   -.287E-02 0.296E+01 -.713E+03   -.619E-04 0.205E-02 0.304E+01
   -.126E+02 -.117E+02 -.687E+03   0.126E+02 0.117E+02 0.691E+03   -.243E-01 -.957E-02 -.319E+01
   0.110E-02 -.709E+01 -.690E+03   -.107E-02 0.710E+01 0.694E+03   -.297E-04 -.754E-02 -.317E+01
   -.669E+01 -.666E+01 0.705E+03   0.671E+01 0.667E+01 -.709E+03   -.221E-01 -.157E-01 0.305E+01
   0.138E-02 -.762E+01 0.706E+03   -.135E-02 0.763E+01 -.710E+03   -.340E-04 -.109E-01 0.305E+01
   -.811E-03 -.396E+01 0.777E+00   0.958E-12 0.122E-11 0.209E-10   0.775E-03 0.332E+01 -.642E+00

 POSITION                                       TOTAL-FORCE (eV/Angst)
      8.45451      8.98915     13.34135         0.000863     -0.023563     -0.037051
      8.45464     10.77395     15.12987         0.000211     -0.071602     -0.057832
      8.45667     13.37210     15.77041        -0.000951      0.076333      0.002119
      8.45496     12.78393     13.26751         0.001511     -0.023994     -0.118982
      0.00000      0.00000      9.00000        -0.004816      0.002270      0.588475
      2.11389      2.11389      9.00000        -0.010002     -0.003033      0.589546
      0.00000      2.11389     11.11389        -0.003857      0.001222     -0.553621
      2.11389      0.00000     11.11389        -0.005682      0.002944     -0.551875
      0.00000      4.22777      9.00000        -0.008043     -0.002320      0.590230
      2.11389      6.34166      9.00000        -0.029885     -0.009046      0.597074
      0.00000      6.34166     11.11389        -0.004993     -0.000447     -0.547596
      2.11389      4.22777     11.11389        -0.012097     -0.000484     -0.544913
      0.00000      8.45554      9.00000        -0.015101     -0.003844      0.593492
      2.11389     10.56943      9.00000        -0.050457     -0.006050      0.603904
      0.00000     10.56943     11.11389        -0.006188     -0.002808     -0.542654
      2.11389      8.45554     11.11389        -0.010279     -0.002202     -0.524228
      0.00000     12.68331      9.00000        -0.018790     -0.000500      0.593631
      2.11389     14.79720      9.00000        -0.041819      0.008849      0.597569
      0.00000     14.79720     11.11389        -0.008808     -0.000407     -0.546911
      2.11389     12.68331     11.11389        -0.023079     -0.004758     -0.523430
      0.00000     16.91108      9.00000        -0.011095      0.004461      0.590184
      2.11389     19.02497      9.00000        -0.012492      0.009343      0.589795
      0.00000     19.02497     11.11389        -0.004973      0.002520     -0.553178
      2.11389     16.91108     11.11389        -0.016956      0.004610     -0.542790
      4.22777      0.00000      9.00000        -0.008610      0.004666      0.590809
      6.34166      2.11389      9.00000        -0.008177     -0.019733      0.593381
      4.22777      2.11389     11.11389        -0.007669     -0.005266     -0.545755
      6.34166      0.00000     11.11389        -0.003608      0.002539     -0.545198
      4.22777      4.22777      9.00000        -0.025947     -0.023139      0.593067
      6.34166      6.34166      9.00000        -0.079643     -0.094770      0.584465
      4.22777      6.34166     11.11389        -0.044651      0.006523     -0.500376
      6.34166      4.22777     11.11389        -0.010558     -0.040780     -0.517735
      4.22777      8.45554      9.00000        -0.101885     -0.024308      0.625455
      6.34166     10.56943      9.00000        -0.184838     -0.046951      0.597639
      4.22777     10.56943     11.11389        -0.050856     -0.016057     -0.438161
      6.34166      8.45554     11.11389        -0.547730      0.010113     -0.307211
      4.22777     12.68331      9.00000        -0.137435      0.007457      0.626940
      6.34166     14.79720      9.00000        -0.117688      0.127910      0.572214
      4.22777     14.79720     11.11389        -0.068215      0.000239     -0.490506
      6.34166     12.68331     11.11389        -0.934426     -0.017448     -0.445556
      4.22777     16.91108      9.00000        -0.035496      0.034829      0.593992
      6.34166     19.02497      9.00000        -0.008764      0.035054      0.597039
      4.22777     19.02497     11.11389        -0.007134      0.013774     -0.542838
      6.34166     16.91108     11.11389         0.005813      0.062863     -0.487544
      8.45554      0.00000      9.00000        -0.000005      0.005607      0.593042
     10.56943      2.11389      9.00000         0.008163     -0.019750      0.593381
      8.45554      2.11389     11.11389        -0.000012     -0.014504     -0.538840
     10.56943      0.00000     11.11389         0.003597      0.002533     -0.545201
      8.45554      4.22777      9.00000        -0.000023     -0.084643      0.605330
     10.56943      6.34166      9.00000         0.079599     -0.094816      0.584417
      8.45554      6.34166     11.11389        -0.000090     -0.508622     -0.470476
     10.56943      4.22777     11.11389         0.010523     -0.040850     -0.517779
      8.45554      8.45554      9.00000        -0.000119     -0.101604      0.183493
     10.56943     10.56943      9.00000         0.184749     -0.046945      0.597509
      8.45554     10.56943     11.11389        -0.000017     -0.198619     -0.301283
     10.56943      8.45554     11.11389         0.547112      0.010107     -0.307173
      8.45554     12.68331      9.00000        -0.000129      0.067467     -0.104667
     10.56943     14.79720      9.00000         0.117670      0.127973      0.572239
      8.45554     14.79720     11.11389         0.000044      0.956628     -0.398850
     10.56943     12.68331     11.11389         0.933889     -0.017264     -0.445149
[...]
     19.02497      6.34166     11.11389        -0.000019      0.000932      0.377066
     16.91108      6.34166      9.00000        -0.010607      0.004614     -0.419517
     19.02497      4.22777      9.00000        -0.000013      0.001733     -0.416826
     16.91108      8.45554     11.11389        -0.008075      0.002575      0.369746
     19.02497     10.56943     11.11389        -0.000024      0.002597      0.373757
     16.91108     10.56943      9.00000        -0.015294      0.003658     -0.422203
     19.02497      8.45554      9.00000        -0.000024      0.003314     -0.419173
     16.91108     12.68331     11.11389        -0.010783      0.002340      0.369239
     19.02497     14.79720     11.11389        -0.000014      0.000017      0.376610
     16.91108     14.79720      9.00000        -0.014266     -0.003807     -0.419639
     19.02497     12.68331      9.00000        -0.000017      0.000705     -0.419175
     16.91108     16.91108     11.11389        -0.008137     -0.003205      0.376963
     19.02497     19.02497     11.11389        -0.000008     -0.002504      0.381197
     16.91108     19.02497      9.00000        -0.007313     -0.005164     -0.416509
     19.02497     16.91108      9.00000        -0.000010     -0.003578     -0.416941
    total drift:                               -0.000396     -0.003006     -0.539925

  FREE ENERGIE OF THE ION-ELECTRON SYSTEM (eV)
  free  energy   TOTEN  =     -1447.98189576 eV

  energy  without entropy=    -1447.98189576  energy(sigma->0) =    -1447.98189576