 vasp.6.4.0 14Feb23 (build Mar 22 2023 21:21:37) complex

 executed on           IFC15_impi date 2023.05.05  20:35:56

 INCAR:
   SYSTEM = MgO-rocksalt
   ISMEAR = 0
   SIGMA = 0.05
   EDIFF = 1E-6
   ALGO = ALL
   ISTART = 0
   IBRION = -1
   NSW = 0
   ISYM = 2
   DIPOL = 0.5 0.5 0.5
   IDIPOL = 3
   LDIPOL = .TRUE.
   GGA = MK
   PARAM1 = 0.1234
   PARAM2 = 1.0
   LUSE_VDW = .TRUE.
   AGGAC = 0.0
   ENCUT = 520
   PREC = Accurate
   LASPH = .TRUE.
   LREAL = Auto
   ISPIN = 1
   NELM = 200
   NELMIN = 8
   NCORE = 4
   KPAR = 2
   LWAVE = .FALSE.
   LCHARG = .FALSE.

 POTCAR:    PAW_PBE Au 04Oct2007
 POTCAR:    PAW_PBE Mg_pv 13Apr2007
 POTCAR:    PAW_PBE O 08Apr2002
|               ----> ADVICE to this user running VASP <----                  |
|     You have switched on vdW-DFT.                                           |
|     This routine was written and supplied by Jiri Klimes. We recommend      |
|     that you carefully read and cite the following publications:            |
|       J. Klimes, D.R. Bowler, A. Michelides                                 |
|          J. Phys.: Cond Matt. 22 022201 (2010)                              |
|       J. Klimes, D.R. Bowler, A. Michelides                                 |
|          Phys. Rev. B. 83, 195131 (2011)                                    |
|     and references therein.                                                 |

   TITEL  = PAW_PBE Au 04Oct2007
   POMASS =  196.966; ZVAL   =   11.000    mass and valenz
   ENMAX  =  229.943; ENMIN  =  172.457 eV

   TITEL  = PAW_PBE Mg_pv 13Apr2007
   POMASS =   24.305; ZVAL   =    8.000    mass and valenz
   ENMAX  =  403.929; ENMIN  =  302.947 eV

   TITEL  = PAW_PBE O 08Apr2002
   POMASS =   16.000; ZVAL   =    6.000    mass and valenz
   ENMAX  =  400.000; ENMIN  =  300.000 eV

 Optimization of the real space projectors (new method)

 maximal supplied QI-value         = 15.12
 optimisation between [QCUT,QGAM] = [ 11.64, 23.28] = [ 37.95,151.78] Ry
 Optimized for a Real-space Cutoff    1.49 Angstroem

   l    n(q)    QCUT    max X(q) W(low)/X(q) W(high)/X(q)  e(spline)
   2      9    11.641    60.898    0.24E-03    0.10E-03    0.19E-06
   2      9    11.641    58.894    0.25E-03    0.10E-03    0.19E-06
   0     10    11.641   109.617    0.73E-04    0.33E-04    0.11E-06
   0     10    11.641    75.026    0.71E-04    0.32E-04    0.11E-06
   1     10    11.641    16.344    0.27E-04    0.97E-04    0.16E-06
   1     10    11.641    10.160    0.23E-04    0.77E-04    0.13E-06
 Optimization of the real space projectors (new method)

[...]

   l    n(q)    QCUT    max X(q) W(low)/X(q) W(high)/X(q)  e(spline)
   1      8    11.527     2.974    0.44E-04    0.56E-04    0.12E-06
   1      8    11.527     4.279    0.12E-03    0.12E-03    0.26E-06
   0      9    11.527    16.381    0.46E-04    0.64E-04    0.78E-07
   0      9    11.527     5.611    0.26E-04    0.43E-04    0.55E-07
   2      8    11.527     4.652    0.22E-03    0.72E-04    0.47E-07
 Optimization of the real space projectors (new method)

 maximal supplied QI-value         = 24.76
 optimisation between [QCUT,QGAM] = [ 11.64, 23.27] = [ 37.91,151.63] Ry
 Optimized for a Real-space Cutoff    1.14 Angstroem

   l    n(q)    QCUT    max X(q) W(low)/X(q) W(high)/X(q)  e(spline)
   0      8    11.635    20.381    0.10E-03    0.33E-03    0.24E-06
   0      8    11.635    15.268    0.11E-03    0.35E-03    0.26E-06
   1      7    11.635     5.964    0.24E-03    0.31E-03    0.30E-06
   1      7    11.635     5.382    0.22E-03    0.25E-03    0.26E-06
|               ----> ADVICE to this user running VASP <----                  |
|     You enforced a specific xc type in the INCAR file but a different       |
|     type was found in the POTCAR file.                                      |
|     I HOPE YOU KNOW WHAT YOU ARE DOING!                                     |

  PAW_PBE Au 04Oct2007                  :
  PAW_PBE Mg_pv 13Apr2007               :
  PAW_PBE O 08Apr2002                   :

 POSCAR: Mg  O
  positions in direct lattice
  velocities in cartesian coordinates
 exchange correlation table for  LEXCH =       43
   RHO(1)=    0.500       N(1)  =     2000
   RHO(2)=  100.500       N(2)  =     4000

 ion  position               nearest neighbor table
   1  0.525  0.447  0.604-   9 2.67   5 2.69   6 2.74  10 2.79   2 2.83
   2  0.392  0.462  0.611-  10 2.68   6 2.70   7 2.71   3 2.74  11 2.75   1 2.83
   3  0.263  0.476  0.611-   8 2.71   4 2.74   2 2.74  12 2.74  11 2.75   7 2.76
   4  0.142  0.488  0.581- 230 2.54  12 2.68   3 2.74   8 2.75  51 2.76
   5  0.597  0.552  0.599-   1 2.69  13 2.70   6 2.73  14 2.76
   6  0.469  0.564  0.610-   7 2.70   2 2.70   5 2.73   1 2.74  14 2.75  15 2.77
   7  0.342  0.580  0.615-  16 2.70   6 2.70   2 2.71   8 2.75   3 2.76  15 2.77
   8  0.223  0.590  0.580- 253 2.44   3 2.71  16 2.73   7 2.75   4 2.75  56 2.95
   9  0.567  0.328  0.608-  17 2.66   1 2.67  10 2.67  18 2.84
  10  0.441  0.345  0.606-   9 2.67  11 2.67   2 2.68  18 2.72   1 2.79  19 2.83
  11  0.316  0.357  0.606-  10 2.67  19 2.71  12 2.72   2 2.75   3 2.75  20 2.78
  12  0.189  0.372  0.596-  20 2.66   4 2.68  11 2.72   3 2.74
  13  0.664  0.657  0.580- 294 2.61  14 2.66   5 2.70  96 2.83  95 2.91
  14  0.542  0.671  0.600-  15 2.63  13 2.66   6 2.75   5 2.76
  15  0.420  0.685  0.613-  14 2.63  16 2.66   7 2.77   6 2.77
  16  0.306  0.688  0.576- 254 2.29  15 2.66   7 2.70   8 2.73  56 2.97  75 3.04
  17  0.590  0.216  0.572- 285 2.19  18 2.62   9 2.66  87 2.86  68 2.93
  18  0.483  0.224  0.615-  17 2.62  19 2.63  10 2.72   9 2.84
  19  0.361  0.238  0.599-  18 2.63  20 2.71  11 2.71  10 2.83
  20  0.235  0.255  0.591-  12 2.66  19 2.71  11 2.78  47 2.95
  21  0.000  0.000  0.430- 223 2.11 224 2.11 304 2.11 239 2.12 321 2.12 221 2.13
  22  0.100  0.100  0.430- 243 2.11 228 2.11 223 2.11 224 2.12 322 2.12 222 2.13
  23  1.000  0.100  0.500- 223 2.11 222 2.11 302 2.11 225 2.11 221 2.11
  24  0.100  0.000  0.500- 224 2.11 222 2.11 221 2.11 238 2.11 241 2.11
  25  0.000  0.200  0.430- 228 2.11 308 2.11 223 2.11 227 2.12 325 2.12 225 2.13
  26  0.100  0.300  0.430- 247 2.10 228 2.11 227 2.12 326 2.12 232 2.13 226 2.13
  27  1.000  0.300  0.500- 306 2.11 227 2.11 226 2.11 225 2.11 229 2.12
  28  0.100  0.200  0.500- 225 2.11 228 2.11 226 2.11 222 2.11 245 2.11
  29  1.000  0.400  0.430- 232 2.11 227 2.11 312 2.11 231 2.12 329 2.12 229 2.13
  30  0.100  0.500  0.429- 232 2.10 251 2.10 231 2.11 330 2.11 236 2.12 230 2.19
  31  0.998  0.500  0.500- 310 2.08 231 2.11 229 2.11 230 2.12 233 2.12
  32  0.100  0.398  0.500- 226 2.09 229 2.11 232 2.11 249 2.12 230 2.16
  33  1.000  0.600  0.430- 316 2.11 231 2.11 235 2.11 333 2.12 236 2.12 233 2.14
  34  0.099  0.700  0.430- 235 2.10 240 2.11 334 2.12 255 2.12 236 2.12 234 2.14
  35  0.999  0.701  0.500- 314 2.10 235 2.11 237 2.11 234 2.11 233 2.12
  36  0.098  0.601  0.500- 233 2.08 234 2.10 236 2.10 253 2.12 230 2.13
  37  1.000  0.800  0.430- 239 2.11 320 2.11 240 2.12 337 2.12 235 2.12 237 2.13
  38  0.100  0.900  0.430- 224 2.11 239 2.11 259 2.11 338 2.12 240 2.12 238 2.13
  39  1.000  0.900  0.500- 239 2.10 221 2.11 318 2.11 238 2.11 237 2.12
  40  0.099  0.801  0.500- 238 2.10 237 2.10 240 2.11 257 2.12 234 2.12
  41  0.200  0.000  0.430- 243 2.11 244 2.11 224 2.11 259 2.12 341 2.12 241 2.13
  42  0.300  0.100  0.430- 248 2.10 243 2.12 263 2.12 244 2.12 342 2.12 242 2.13
  43  0.200  0.100  0.500- 241 2.11 245 2.11 243 2.11 242 2.11 222 2.12
  44  0.300  0.000  0.500- 242 2.10 258 2.10 244 2.11 261 2.12 241 2.12
  45  0.200  0.200  0.430- 248 2.10 247 2.10 243 2.12 228 2.12 345 2.12 245 2.15
  46  0.300  0.300  0.430- 246 2.08 267 2.11 252 2.12 248 2.12 346 2.12 247 2.13
  47  0.200  0.300  0.501- 249 2.11 246 2.12 245 2.13 226 2.13 247 2.14  20 2.95
  48  0.300  0.200  0.501- 265 2.10 246 2.12 242 2.12 245 2.13 248 2.14
  49  0.200  0.399  0.429- 249 2.08 252 2.11 247 2.11 349 2.11 232 2.13 251 2.14
  50  0.301  0.499  0.430- 271 2.10 252 2.10 250 2.10 350 2.11 256 2.14 251 2.14
  51  0.202  0.498  0.500- 250 2.07 249 2.08 251 2.09 253 2.19 230 2.20   4 2.76
  52  0.301  0.399  0.501- 246 2.10 269 2.10 250 2.12 249 2.14 252 2.14
  53  0.200  0.600  0.429- 256 2.10 251 2.10 353 2.10 255 2.11 236 2.11 253 2.16
  54  0.300  0.700  0.429- 354 2.10 275 2.10 256 2.11 260 2.11 255 2.12 254 2.14
  55  0.198  0.702  0.500- 234 2.08 257 2.08 255 2.09 254 2.13 253 2.13
  56  0.302  0.598  0.500- 273 2.06 250 2.07 256 2.10 253 2.20 254 2.22   8 2.95  16 2.97
  57  0.200  0.801  0.430- 259 2.10 260 2.11 240 2.11 357 2.12 255 2.13 257 2.13
  58  0.300  0.901  0.430- 244 2.10 279 2.11 358 2.11 259 2.12 260 2.12 258 2.13
  59  0.200  0.901  0.500- 241 2.10 259 2.11 238 2.11 257 2.11 258 2.12
  60  0.300  0.803  0.499- 258 2.07 260 2.10 277 2.11 254 2.12 257 2.13
[...]
 406  0.900  0.300  0.359- 208 2.11 207 2.11 127 2.11 212 2.11 206 2.11 106 2.12
 407  0.800  0.300  0.289- 186 2.11 205 2.11 206 2.11 209 2.11 207 2.11
 408  0.900  0.200  0.289- 206 2.11 202 2.11 205 2.11 125 2.11 208 2.11
 409  0.800  0.400  0.359- 192 2.11 207 2.11 211 2.11 212 2.11 209 2.11 109 2.12
 410  0.900  0.500  0.359- 131 2.11 211 2.11 212 2.11 216 2.11 210 2.11 110 2.12
 411  0.800  0.500  0.289- 190 2.11 209 2.11 210 2.11 213 2.11 211 2.11
 412  0.900  0.400  0.289- 129 2.11 206 2.11 209 2.11 210 2.11 212 2.11
 413  0.800  0.600  0.359- 196 2.11 211 2.11 215 2.11 216 2.11 213 2.11 113 2.12
 414  0.900  0.700  0.359- 220 2.11 215 2.11 216 2.11 135 2.11 214 2.11 114 2.12
 415  0.800  0.700  0.289- 194 2.11 217 2.11 214 2.11 213 2.11 215 2.11
 416  0.900  0.600  0.289- 133 2.11 210 2.11 213 2.11 214 2.11 216 2.11
 417  0.800  0.800  0.359- 200 2.11 215 2.11 219 2.11 220 2.11 217 2.11 117 2.12
 418  0.900  0.900  0.359- 139 2.11 204 2.11 219 2.11 220 2.11 218 2.11 118 2.12
 419  0.800  0.900  0.289- 198 2.11 201 2.11 217 2.11 218 2.11 219 2.11
 420  0.900  0.800  0.289- 214 2.11 137 2.11 217 2.11 218 2.11 220 2.11

  LATTYP: Found a simple tetragonal cell.
 ALAT       =    21.1388521970
 C/A-ratio  =     1.4191877459

  Lattice vectors:

 A1 = (  21.1388521970,   0.0000000000,   0.0000000000)
 A2 = (   0.0000000000,  21.1388521970,   0.0000000000)
 A3 = (   0.0000000000,   0.0000000000,  30.0000000000)

Analysis of symmetry for initial positions (statically):
 Subroutine PRICEL returns:
 Original cell was already a primitive cell.

 Routine SETGRP: Setting up the symmetry group for a
 simple tetragonal supercell.

 Subroutine GETGRP returns: Found  1 space group operations
 (whereof  1 operations were pure point group operations)
 out of a pool of 16 trial point group operations.

The static configuration has the point symmetry C_1 .

Analysis of symmetry for dynamics (positions and initial velocities):
 Subroutine PRICEL returns:
 Original cell was already a primitive cell.

[...]

The dynamic configuration has the point symmetry C_1 .

Analysis of constrained symmetry for selective dynamics:
 Subroutine PRICEL returns:
 Original cell was already a primitive cell.

 Routine SETGRP: Setting up the symmetry group for a
 simple tetragonal supercell.

 Subroutine GETGRP returns: Found  1 space group operations
[...]
  329                  fftbas_plan_mpi                      18.601183                513   8
  330                    dfftw_execute                        11.845277             1539   9
  331                    map_forward                           6.409439             1026   9
  332                      map_gather                            1.414324            513  10
  333                      m_alltoallv_z                         0.962921            513  10
  334                      map_scatter                           2.218718            513  10
  335            rpromu                                5.364839                      135   5
  336              crrexp_mul_wave                       2.830007                 215460   6
  337              rpromu_gemm                           1.856519                  56700   6
  338              m_sumb_d                              0.079309                    513   6
  339          m_sumb_d                              0.092610                         10   4
  340        m_sumb_d                              0.003329                            7   3
  341        fft3d_mpi                             1.709310                           71   3
  342          fftbrc_mpi                            1.622037                         71   4
  343            fftbas_plan_mpi                       1.621709                       71   5
  344              dfftw_execute                         0.453907                    213   6
  345              map_forward                           0.600014                     70   6
  346                map_gather                            0.101669                   35   7
  347                m_alltoallv_z                         0.442704                   35   7
  348                map_scatter                           0.054635                   35   7
  349              map_backward                          0.513401                     72   6
  350                map_gather                            0.056251                   36   7
  351                m_alltoallv_z                         0.335107                   36   7
  352                map_scatter                           0.120975                   36   7
  353        ggaall_grid                           0.521144                            1   3
  354        forhar                                2.986969                            1   3
  355          m_sumb_d                              0.000756                          1   4
  356        strehar                               0.041130                            1   3
  357          m_sumb_d                              0.007917                          1   4
  358        m_bcast_d                             0.045823                            2   3
  359      potlok                               14.165095                              1   2
  360        fft3d_mpi                             1.568264                           73   3
  361          fftbrc_mpi                            1.476403                         73   4
  362            fftbas_plan_mpi                       1.476085                       73   5
  363              dfftw_execute                         0.471629                    219   6
  364              map_forward                           0.421556                     74   6
  365                map_gather                            0.103860                   38   7
  366                m_alltoallv_z                         0.252804                   38   7
  367                map_scatter                           0.063789                   38   7
  368              map_backward                          0.526585                     72   6
  369                map_gather                            0.056264                   36   7
  370                m_alltoallv_z                         0.348262                   36   7
  371                map_scatter                           0.121046                   36   7
  372        ggaall_grid                           0.521120                            1   3
  373        m_sumb_d                              0.002631                            8   3
  374        fewald                                0.001404                            2   3
  375          rsp                                   0.001296                          2   4
  376          rcp                                   0.000094                          2   4
  377        pothar                                0.006050                            1   3
  378          m_sumb_d                              0.002275                          1   4
  379        m_bcast_d                             0.011533                            1   3
  380      potlok_metagga                        0.000001                              1   2
  381      set_dd_magatom                        0.000001                              1   2
  382      set_dd_paw                            1.096578                              1   2
  383        set_rsgf_all                          0.000002                            1   3
  384        m_sumb_d                              0.792114                            8   3

 Flat profile

 edwav                                 887.538676          50
 potlok                                626.823705          52
 lincom                                347.597903         157
 dfftw_execute                         328.177115       51024
 orth1                                 187.810800        7284
 eddav                                 118.269302           5
 wfinit                                 91.344532           1
 m_sumb_d                               86.286381       29044
 m_alltoallv_z                          64.823976       17111
 map_scatter                            61.367247       17111
 m_alltoall_d                           56.545069       56117
 ggemm                                  53.489858        1250
 map_gather                             48.401818       17111
 fftwav_mpi                             44.086447        9166
 choleski                               34.101326          51
 eccp                                   33.337065        5985
 map_forward                            32.131111       22252
 ggaall_grid                            28.073708          53
 eddiag                                 25.276130          26
 total_time                             21.110429           1
 crrexp_mul_work_add                    20.047349     1003800
 m_bcast_z                              19.033320        2880
 racc0                                  18.897982        2390
 set_dd_paw                             16.147699          53
 crrexp_mul_wave                        15.841240     1195320
 vhamil                                 15.130449        2447
 rpro1                                  14.475864        2105
 pw_charge                              13.485829        2448
 force_and_stress                       11.936133           1
 fftbas_plan_mpi                        11.530596       17008
 lapack                                  7.151675         965
 redis_pw                                5.714944        8562
 w1_dscal                                5.656477        1425
 fft3d_mpi                               5.240779       17008
 fftext_mpi                              4.762013        3872
 setdij_                                 4.370721          79
 augmentation_charge                     4.299311          51
 rspher_all                              3.704487          14
 phaser                                  3.304598          43
 forloc                                  2.998963           1
 forhar                                  2.986213           1
 rpromu_gemm                             2.705006       81900
 stufak                                  1.824224           1
 orthch                                  1.253269          51
 m_bcast_d                               0.991103        1986
 kinhamil                                0.984638        2447
 overl                                   0.938648        3172
 rpromu                                  0.866726         195
 w1_copy                                 0.854189        2895
 elmin_all                               0.535947           1
 soft_charge                             0.428985          51
 redis_proj                              0.378278        8131
 setup_precond                           0.265277         285
 apply_precond                           0.236903         680
 depsum                                  0.219340          51
 pothar                                  0.193275          52
 inisym                                  0.181270           1
 map_backward                            0.169848       11764
 overl1                                  0.128639         965
 fft_gq                                  0.090866          51
 rsp                                     0.079767         105
 set_charge                              0.059734          51
 fftbas_mpi                              0.055022       13038
 strnlr                                  0.054258           1
 densta                                  0.038330          62
 strehar                                 0.033213           1
 strkin                                  0.033161           1
 strelo                                  0.027277           1
 hamiltmu                                0.022669         965
 hamilt_local                            0.022448        1482
 newband                                 0.020121         970
 fornlr                                  0.020066           1
 fftbrc_mpi                              0.015814        3970
 rpro_isp                                0.011866          13
 fewald                                  0.011773         105
 raccmu_                                 0.011330         965
 rcp                                     0.006077         105
 w1_projall                              0.004582         680
 brgrid                                  0.002855           1
 truncate_high_frequency_w1              0.001470        1250
 fordep                                  0.000733           1
 redis_pw_all                            0.000608          50
 crpa_reader                             0.000307           1
 redis_pw_over_bands                     0.000261          51
 posmap                                  0.000258           2
 set_rsgf_all                            0.000108          53
 proall                                  0.000072           1
 potlok_metagga                          0.000060          52
 vectorpot                               0.000025           1
 rotate_active_occupied_orbital          0.000020           1
 set_dd_magatom                          0.000013           2
 shift_bands_between_low_high            0.000008           1
  summed up times    3397.08997821808

 Accumulative profile

 total_time                           3397.089978           1
 elmin_all                            3178.051108           1
 edwav                                1758.069016          50
 potlok                                743.045389          52
 fft3d_mpi                             551.913326       17008
 fftbas_plan_mpi                       546.601710       17008
 fftbas_mpi                            460.155945       13038
 eddav                                 400.816128           5
 fftwav_mpi                            377.488498        9166
 lincom                                347.597903         157
 dfftw_execute                         328.177115       51024
 orthch                                206.414792          51
 orth1                                 187.810800        7284
 map_forward                           143.079400       22252
 fftext_mpi                            131.573287        3872
 set_charge                            126.229794          51
 soft_charge                           119.858575          51
 wfinit                                109.829323           1
 eddiag                                101.788964          26
 fftbrc_mpi                             86.516601        3970
 m_sumb_d                               86.286381       29044
 kinhamil                               83.317711        2447
 m_alltoallv_z                          64.823976       17111
 map_backward                           63.814599       11764
 force_and_stress                       62.665375           1
 map_scatter                            61.367247       17111
 set_dd_paw                             60.369673          53
 hamilt_local                           59.665233        1482
 m_alltoall_d                           56.545069       56117
 hamiltmu                               54.841978         965
 ggemm                                  53.489858        1250
 redis_pw                               50.162156        8562
 map_gather                             48.401818       17111
 racc0                                  39.996596        2390
 rpro_isp                               38.249933          13
 choleski                               34.101326          51
 eccp                                   33.650027        5985
 strnlr                                 29.741223           1
 ggaall_grid                            28.073708          53
 rpro1                                  26.914022        2105
 crrexp_mul_work_add                    20.047349     1003800
 m_bcast_z                              19.033320        2880
 raccmu_                                16.013935         965
 crrexp_mul_wave                        15.841240     1195320
 vhamil                                 15.130449        2447
 newband                                14.801621         970
 pw_charge                              13.485829        2448
 redis_proj                             12.476135        8131
 fornlr                                  9.938772           1
 w1_projall                              8.659201         680
 redis_pw_over_bands                     8.080380          51
 redis_pw_all                            8.080120          50
 rpromu                                  7.776436         195
 lapack                                  7.151675         965
 augmentation_charge                     5.755289          51
 w1_dscal                                5.656477        1425
 setdij_                                 4.853432          79
 rspher_all                              3.704487          14
 phaser                                  3.304598          43
 proall                                  3.103349           1
 forloc                                  3.002498           1
 forhar                                  2.986969           1
 rpromu_gemm                             2.705006       81900
 stufak                                  1.824224           1
 fft_gq                                  1.217304          51
 m_bcast_d                               0.991103        1986
 overl                                   0.938648        3172
 w1_copy                                 0.854189        2895
 depsum                                  0.556195          51
 fordep                                  0.357569           1
 densta                                  0.322043          62
 setup_precond                           0.281592         285
 pothar                                  0.268687          52
 apply_precond                           0.236903         680
 inisym                                  0.181528           1
 fewald                                  0.144532         105
 overl1                                  0.128639         965
 rsp                                     0.079767         105
 strehar                                 0.041130           1
 strkin                                  0.039638           1
 strelo                                  0.027518           1
 rcp                                     0.006077         105
 brgrid                                  0.002855           1
 truncate_high_frequency_w1              0.001470        1250
 crpa_reader                             0.000307           1
 posmap                                  0.000258           2
 set_rsgf_all                            0.000108          53
 potlok_metagga                          0.000060          52
 vectorpot                               0.000025           1
 rotate_active_occupied_orbital          0.000020           1
 set_dd_magatom                          0.000013           2
 shift_bands_between_low_high            0.000008           1

Profiling took   2.552876  0.843020  0.006510  0.006226 seconds
Profiling took   2.121518 seconds