 vasp.6.3.0 20Jan22 (build Apr  1 2022 16:44:48) complex
 executed on        HPECrayEX_GCC date 2022.08.15  19:01:56

 INCAR:
   SYSTEM = MgO-rocksalt
   ISMEAR = 0
   SIGMA = 0.05
   EDIFF = 1E-6
   ALGO = ALL
   ISTART = 0
   IBRION = -1
   NSW = 0
   ISYM = 2
   DIPOL = 0.5 0.5 0.5
   IDIPOL = 3
   LDIPOL = .TRUE.
   GGA = PE
   IVDW = 212
   LVDWEXPANSION = .TRUE.
   ENCUT = 520
   PREC = Accurate
   LASPH = .TRUE.
   LREAL = Auto
   ISPIN = 1
   NELM = 200
   NELMIN = 8
   NCORE = 4
   KPAR = 2
   LWAVE = .FALSE.
   LCHARG = .FALSE.

 POTCAR:    PAW_PBE Au 04Oct2007
 POTCAR:    PAW_PBE Mg_pv 13Apr2007
 POTCAR:    PAW_PBE O 08Apr2002
 POTCAR:    PAW_PBE Au 04Oct2007
   VRHFIN =Au: s1d10

   TITEL  = PAW_PBE Au 04Oct2007
   POMASS =  196.966; ZVAL   =   11.000    mass and valenz
   ENMAX  =  229.943; ENMIN  =  172.457 eV

   TITEL  = PAW_PBE Mg_pv 13Apr2007
   POMASS =   24.305; ZVAL   =    8.000    mass and valenz
   ENMAX  =  403.929; ENMIN  =  302.947 eV

   TITEL  = PAW_PBE O 08Apr2002
   POMASS =   16.000; ZVAL   =    6.000    mass and valenz
   ENMAX  =  400.000; ENMIN  =  300.000 eV

 Optimization of the real space projectors (new method)

 maximal supplied QI-value         = 15.12
 optimisation between [QCUT,QGAM] = [ 11.64, 23.28] = [ 37.95,151.78] Ry
 Optimized for a Real-space Cutoff    1.49 Angstroem

   l    n(q)    QCUT    max X(q) W(low)/X(q) W(high)/X(q)  e(spline)
   2      9    11.641    60.898    0.24E-03    0.10E-03    0.19E-06
   2      9    11.641    58.894    0.25E-03    0.10E-03    0.19E-06
   0     10    11.641   109.617    0.73E-04    0.33E-04    0.11E-06
   0     10    11.641    75.026    0.71E-04    0.32E-04    0.11E-06
   1     10    11.641    16.344    0.27E-04    0.97E-04    0.16E-06
   1     10    11.641    10.160    0.23E-04    0.77E-04    0.13E-06
 Optimization of the real space projectors (new method)

[...]

   l    n(q)    QCUT    max X(q) W(low)/X(q) W(high)/X(q)  e(spline)
   1      8    11.527     2.974    0.44E-04    0.56E-04    0.12E-06
   1      8    11.527     4.279    0.12E-03    0.12E-03    0.26E-06
   0      9    11.527    16.381    0.46E-04    0.64E-04    0.78E-07
   0      9    11.527     5.611    0.26E-04    0.43E-04    0.55E-07
   2      8    11.527     4.652    0.22E-03    0.72E-04    0.47E-07
 Optimization of the real space projectors (new method)

 maximal supplied QI-value         = 24.76
 optimisation between [QCUT,QGAM] = [ 11.64, 23.27] = [ 37.91,151.63] Ry
 Optimized for a Real-space Cutoff    1.14 Angstroem

   l    n(q)    QCUT    max X(q) W(low)/X(q) W(high)/X(q)  e(spline)
   0      8    11.635    20.381    0.10E-03    0.33E-03    0.24E-06
   0      8    11.635    15.268    0.11E-03    0.35E-03    0.26E-06
   1      7    11.635     5.964    0.24E-03    0.31E-03    0.30E-06
   1      7    11.635     5.382    0.22E-03    0.25E-03    0.26E-06
  PAW_PBE Au 04Oct2007                  :
  PAW_PBE Mg_pv 13Apr2007               :
  PAW_PBE O 08Apr2002                   :

 POSCAR: Au Mg  O
  positions in direct lattice
 exchange correlation table for  LEXCH =        8
   RHO(1)=    0.500       N(1)  =     2000
   RHO(2)=  100.500       N(2)  =     4000

 ion  position               nearest neighbor table
   1  0.500  0.500  0.713-   2 2.50
   2  0.500  0.500  0.600- 152 2.15   1 2.50  54 3.02  58 3.02  73 3.02  53 3.02
   3  0.000  0.000  0.407- 105 2.11 106 2.11 121 2.11 186 2.11 103 2.11
   4  0.100  0.100  0.407- 105 2.11 106 2.11 110 2.11 125 2.11 104 2.11
   5  0.000  0.100  0.503- 103 2.11 104 2.11 107 2.11 184 2.11 105 2.11
   6  0.100  0.000  0.503- 103 2.11 104 2.11 120 2.11 123 2.11 106 2.11
   7  0.000  0.200  0.407- 109 2.11 105 2.11 110 2.11 190 2.11 107 2.11
   8  0.100  0.300  0.407- 110 2.11 109 2.11 114 2.11 129 2.11 108 2.11
   9  0.000  0.300  0.503- 107 2.11 108 2.11 111 2.11 188 2.11 109 2.11
  10  0.100  0.200  0.503- 108 2.11 107 2.11 104 2.11 127 2.11 110 2.11
  11  0.000  0.400  0.407- 109 2.11 113 2.11 114 2.11 194 2.11 111 2.11
  12  0.100  0.500  0.407- 113 2.11 114 2.11 118 2.11 133 2.11 112 2.11
  13  0.000  0.500  0.503- 111 2.11 112 2.11 115 2.11 192 2.11 113 2.11
  14  0.100  0.400  0.503- 108 2.11 111 2.11 112 2.11 131 2.11 114 2.11
  15  0.000  0.600  0.407- 113 2.11 117 2.11 118 2.11 198 2.11 115 2.11
  16  0.100  0.700  0.407- 122 2.11 118 2.11 117 2.11 137 2.11 116 2.11
  17  0.000  0.700  0.503- 119 2.11 116 2.11 115 2.11 196 2.11 117 2.11
  18  0.100  0.600  0.503- 112 2.11 115 2.11 116 2.11 135 2.11 118 2.11
  19  0.000  0.800  0.407- 117 2.11 121 2.11 122 2.11 202 2.11 119 2.11
  20  0.100  0.900  0.407- 106 2.11 121 2.11 122 2.11 141 2.11 120 2.11
  21  0.000  0.900  0.503- 103 2.11 119 2.11 120 2.11 200 2.11 121 2.11
  22  0.100  0.800  0.503- 116 2.11 119 2.11 120 2.11 139 2.11 122 2.11
  23  0.200  0.000  0.407- 126 2.11 125 2.11 106 2.11 141 2.11 123 2.11
  24  0.300  0.100  0.407- 125 2.11 126 2.11 130 2.11 145 2.11 124 2.11
  25  0.200  0.100  0.503- 124 2.11 123 2.11 104 2.11 127 2.11 125 2.11
  26  0.300  0.000  0.503- 123 2.11 124 2.11 140 2.11 143 2.11 126 2.11
  27  0.200  0.200  0.407- 129 2.11 130 2.11 110 2.11 125 2.11 127 2.11
  28  0.300  0.300  0.407- 129 2.11 130 2.11 134 2.11 149 2.11 128 2.11
  29  0.200  0.300  0.503- 127 2.11 128 2.11 108 2.11 131 2.11 129 2.11
  30  0.300  0.200  0.503- 127 2.11 128 2.11 124 2.11 147 2.11 130 2.11
  31  0.200  0.400  0.407- 134 2.11 129 2.11 133 2.11 114 2.11 131 2.11
  32  0.300  0.500  0.407- 133 2.11 134 2.11 138 2.11 153 2.11 132 2.11
  33  0.200  0.500  0.503- 132 2.11 131 2.11 112 2.11 135 2.11 133 2.11
  34  0.300  0.400  0.503- 131 2.11 128 2.11 132 2.11 151 2.11 134 2.11
  35  0.200  0.600  0.407- 138 2.11 133 2.11 137 2.11 118 2.11 135 2.11
  36  0.300  0.700  0.407- 137 2.11 142 2.11 138 2.11 157 2.11 136 2.11
  37  0.200  0.700  0.503- 136 2.11 139 2.11 116 2.11 135 2.11 137 2.11
  38  0.300  0.600  0.503- 135 2.11 132 2.11 136 2.11 155 2.11 138 2.11
  39  0.200  0.800  0.407- 137 2.11 142 2.11 141 2.11 122 2.11 139 2.11
  40  0.300  0.900  0.407- 141 2.11 126 2.11 142 2.11 161 2.11 140 2.11
  41  0.200  0.900  0.503- 140 2.11 123 2.11 139 2.11 120 2.11 141 2.11
  42  0.300  0.800  0.503- 136 2.11 139 2.11 140 2.11 159 2.11 142 2.11
  43  0.400  0.000  0.407- 126 2.11 145 2.11 146 2.11 161 2.11 143 2.11
  44  0.500  0.100  0.407- 145 2.11 146 2.11 150 2.11 165 2.11 144 2.11
  45  0.400  0.100  0.503- 124 2.11 143 2.11 144 2.11 147 2.11 145 2.11
  46  0.500  0.000  0.503- 143 2.11 144 2.11 160 2.11 163 2.11 146 2.11
  47  0.400  0.200  0.407- 149 2.11 145 2.11 130 2.11 150 2.11 147 2.11
  48  0.500  0.300  0.407- 150 2.11 149 2.11 154 2.11 169 2.11 148 2.11
  49  0.400  0.300  0.503- 147 2.11 128 2.11 148 2.11 151 2.11 149 2.11
  50  0.500  0.200  0.503- 148 2.11 147 2.11 144 2.11 167 2.11 150 2.11
  51  0.400  0.400  0.407- 134 2.11 149 2.11 153 2.11 154 2.11 151 2.11
  52  0.500  0.500  0.407- 153 2.11 154 2.11 158 2.11 173 2.11 152 2.11
  53  0.400  0.500  0.503- 132 2.11 151 2.11 152 2.11 155 2.11 153 2.11   2 3.02
  54  0.500  0.400  0.503- 148 2.11 151 2.11 152 2.11 171 2.11 154 2.11   2 3.02
  55  0.400  0.600  0.407- 138 2.11 153 2.11 157 2.11 158 2.11 155 2.11
  56  0.500  0.700  0.407- 162 2.11 158 2.11 157 2.11 177 2.11 156 2.11
  57  0.400  0.700  0.503- 159 2.11 155 2.11 156 2.11 136 2.11 157 2.11
  58  0.500  0.600  0.503- 152 2.11 155 2.11 156 2.11 175 2.11 158 2.11   2 3.02
  59  0.400  0.800  0.407- 157 2.11 142 2.11 161 2.11 162 2.11 159 2.11
  60  0.500  0.900  0.407- 146 2.11 161 2.11 162 2.11 181 2.11 160 2.11
[...]
 188  0.900  0.300  0.503-  90 2.11  89 2.11   9 2.11  94 2.11  88 2.11
 189  0.800  0.300  0.407-  68 2.11  87 2.11  88 2.11  91 2.11  89 2.11
 190  0.900  0.200  0.407-  88 2.11  84 2.11  87 2.11   7 2.11  90 2.11
 191  0.800  0.400  0.503-  74 2.11  89 2.11  93 2.11  94 2.11  91 2.11
 192  0.900  0.500  0.503-  13 2.11  93 2.11  94 2.11  98 2.11  92 2.11
 193  0.800  0.500  0.407-  72 2.11  91 2.11  92 2.11  95 2.11  93 2.11
 194  0.900  0.400  0.407-  11 2.11  88 2.11  91 2.11  92 2.11  94 2.11
 195  0.800  0.600  0.503-  78 2.11  93 2.11  97 2.11  98 2.11  95 2.11
 196  0.900  0.700  0.503- 102 2.11  97 2.11  98 2.11  17 2.11  96 2.11
 197  0.800  0.700  0.407-  76 2.11  99 2.11  96 2.11  95 2.11  97 2.11
 198  0.900  0.600  0.407-  15 2.11  92 2.11  95 2.11  96 2.11  98 2.11
 199  0.800  0.800  0.503-  82 2.11  97 2.11 101 2.11 102 2.11  99 2.11
 200  0.900  0.900  0.503-  21 2.11  86 2.11 101 2.11 102 2.11 100 2.11
 201  0.800  0.900  0.407-  80 2.11  83 2.11  99 2.11 100 2.11 101 2.11
 202  0.900  0.800  0.407-  96 2.11  19 2.11  99 2.11 100 2.11 102 2.11

  LATTYP: Found a simple tetragonal cell.
 ALAT       =    21.1388521970
 C/A-ratio  =     1.0461251639

  Lattice vectors:

 A1 = (  21.1388521970,   0.0000000000,   0.0000000000)
 A2 = (   0.0000000000,  21.1388521970,   0.0000000000)
 A3 = (   0.0000000000,   0.0000000000,  22.1138852197)

Analysis of symmetry for initial positions (statically):
 Subroutine PRICEL returns:
 Original cell was already a primitive cell.

 Routine SETGRP: Setting up the symmetry group for a
 simple tetragonal supercell.

 Subroutine GETGRP returns: Found  8 space group operations
 (whereof  8 operations were pure point group operations)
 out of a pool of 16 trial point group operations.

The static configuration has the point symmetry C_4v.

Analysis of symmetry for dynamics (positions and initial velocities):
 Subroutine PRICEL returns:
 Original cell was already a primitive cell.

 Routine SETGRP: Setting up the symmetry group for a
 simple tetragonal supercell.

 Subroutine GETGRP returns: Found  8 space group operations
 (whereof  8 operations were pure point group operations)
 out of a pool of 16 trial point group operations.

The dynamic configuration has the point symmetry C_4v.

 Subroutine INISYM returns: Found  8 space group operations
 (whereof  8 operations are pure point group operations),
 and found     1 'primitive' translations

                                     Primitive cell

  volume of cell :    9881.6133

  direct lattice vectors                    reciprocal lattice vectors
    21.138852197  0.000000000  0.000000000     0.047306258  0.000000000  0.000000000
     0.000000000 21.138852197  0.000000000     0.000000000  0.047306258  0.000000000
     0.000000000  0.000000000 22.113885220     0.000000000  0.000000000  0.045220457

  length of vectors
    21.138852197 21.138852197 22.113885220     0.047306258  0.047306258  0.045220457

  position of ions in fractional coordinates (direct lattice)
     0.500000000  0.500000000  0.712728728
     0.500000000  0.500000000  0.599827943
     0.000000000  0.000000000  0.406984115
     0.100000000  0.100000000  0.406984115
     0.000000000  0.100000000  0.502574971
     0.100000000  0.000000000  0.502574971
     0.000000000  0.200000000  0.406984115
     0.100000000  0.300000000  0.406984115
     0.000000000  0.300000000  0.502574971
     0.100000000  0.200000000  0.502574971
     0.000000000  0.400000000  0.406984115
     0.100000000  0.500000000  0.406984115
     0.000000000  0.500000000  0.502574971
     0.100000000  0.400000000  0.502574971
[...]
   O         167.578          4.744         17.699          4.745         17.714          3.278
   O         168.129          4.746         17.728          4.747         17.738          3.283
   O         168.911          4.750         17.769          4.753         17.800          3.291
   O         168.924          4.750         17.770          4.753         17.796          3.291
   O         168.083          4.746         17.725          4.748         17.741          3.282
   O         168.285          4.747         17.736          4.748         17.748          3.284
   O         168.895          4.750         17.768          4.752         17.791          3.290
   O         168.895          4.750         17.768          4.752         17.791          3.290

  vdW correction parametrized for the method pbe

  IVDW = 212
  VDW_RADIUS =    50.000 A
  VDW_SR =     0.820
  VDW_D =     6.000
  SCSRAD =   120.000 A
  LVDWSCS = T
  LSCSGRAD = T
  LSCALER0 = T
  ITIM = -1
  Edisp (eV):   -9.55214

  FORCE on cell =-STRESS in cart. coord.  units (eV):
  Direction    XX          YY          ZZ          XY          YZ          ZX
  Alpha Z  1365.75682  1365.75682  1365.75682
  Ewald  476775.31038476775.31038************    -0.00000     0.00000    -0.00000
  Hartree505366.69706505366.69706************    -0.00000    -0.00000    -0.00000
  E(xc)   -7748.57898 -7748.57898 -7778.71215    -0.00000    -0.00000     0.00000
  Local  ************************************    -0.00000    -0.00000     0.00000
  n-local -8753.68318 -8753.70133 -8889.97036    -0.00059     0.00001    -0.00001
  augment  3418.89045  3418.89045  3356.49035     0.00000    -0.00000     0.00000
  Kinetic 22990.96011 22991.01522 23231.03578    -0.00525    -0.00000    -0.00000
  Fock        0.00000     0.00000     0.00000     0.00000     0.00000     0.00000
  vdW        -9.83741    -9.89005    -2.77415     0.01836     0.00001     0.00000
  Total    -159.06379  -159.06379    15.62651     0.00000     0.00000    -0.00000
  in kB     -25.79016   -25.79016     2.53364     0.00000     0.00000    -0.00000

 VOLUME and BASIS-vectors are now :
  energy-cutoff  :      520.00
  volume of cell :     9881.61
      direct lattice vectors                 reciprocal lattice vectors
    21.138852197  0.000000000  0.000000000     0.047306258  0.000000000  0.000000000
     0.000000000 21.138852197  0.000000000     0.000000000  0.047306258  0.000000000
     0.000000000  0.000000000 22.113885220     0.000000000  0.000000000  0.045220457

  length of vectors
    21.138852197 21.138852197 22.113885220     0.047306258  0.047306258  0.045220457

 FORCES acting on ions:
    Electron-Ion                     Ewald-Force                    Non-Local-Force
   -.546E-13 0.436E-12 -.180E+04   -.395E-13 0.888E-15 0.179E+04   0.000E+00 0.000E+00 0.822E+01
   0.109E-12 -.237E-11 -.193E+04   -.413E-13 0.453E-13 0.194E+04   0.132E-22 0.000E+00 -.350E+01
   0.108E-12 0.259E-12 0.930E+03   0.764E-13 0.213E-12 -.923E+03   0.000E+00 -.529E-22 -.742E+01
   0.367E+01 0.367E+01 0.931E+03   -.368E+01 -.368E+01 -.924E+03   0.915E-02 0.915E-02 -.743E+01
   0.120E-12 0.390E+01 -.922E+03   0.103E-12 -.391E+01 0.915E+03   -.265E-22 0.405E-02 0.737E+01
   0.390E+01 0.547E-12 -.922E+03   -.391E+01 0.107E-12 0.915E+03   0.405E-02 -.265E-22 0.737E+01
   0.100E-12 0.536E+01 0.932E+03   0.153E-10 -.538E+01 -.924E+03   0.000E+00 0.103E-01 -.743E+01
   0.722E+01 0.676E+01 0.935E+03   -.727E+01 -.678E+01 -.927E+03   0.336E-01 0.153E-01 -.743E+01
   0.112E-12 0.706E+01 -.920E+03   0.181E-11 -.707E+01 0.913E+03   -.265E-22 0.617E-02 0.736E+01
   0.674E+01 0.802E+01 -.921E+03   -.676E+01 -.803E+01 0.913E+03   0.128E-01 0.884E-02 0.736E+01
   0.102E-12 0.363E+01 0.934E+03   -.174E-10 -.364E+01 -.927E+03   -.529E-22 0.635E-02 -.743E+01
   0.103E+02 -.122E-11 0.937E+03   -.103E+02 0.228E-12 -.929E+03   0.547E-01 -.132E-22 -.744E+01
   0.126E-12 -.368E-12 -.919E+03   0.120E-12 0.126E-12 0.911E+03   0.000E+00 0.000E+00 0.736E+01
   0.136E+02 0.598E+01 -.917E+03   -.137E+02 -.598E+01 0.909E+03   0.264E-01 0.499E-02 0.736E+01
   0.998E-13 -.363E+01 0.934E+03   0.116E-11 0.364E+01 -.927E+03   0.000E+00 -.635E-02 -.743E+01
   0.722E+01 -.676E+01 0.935E+03   -.727E+01 0.678E+01 -.927E+03   0.336E-01 -.153E-01 -.743E+01
   0.118E-12 -.706E+01 -.920E+03   -.785E-12 0.707E+01 0.913E+03   0.000E+00 -.617E-02 0.736E+01
   0.136E+02 -.598E+01 -.917E+03   -.137E+02 0.598E+01 0.909E+03   0.264E-01 -.499E-02 0.736E+01
   0.108E-12 -.536E+01 0.932E+03   0.853E-12 0.538E+01 -.924E+03   0.331E-23 -.103E-01 -.743E+01
   0.367E+01 -.367E+01 0.931E+03   -.368E+01 0.368E+01 -.924E+03   0.915E-02 -.915E-02 -.743E+01
   0.118E-12 -.390E+01 -.922E+03   -.867E-12 0.391E+01 0.915E+03   0.265E-22 -.405E-02 0.737E+01
   0.674E+01 -.802E+01 -.921E+03   -.676E+01 0.803E+01 0.913E+03   0.128E-01 -.884E-02 0.736E+01
   0.536E+01 0.846E-12 0.932E+03   -.538E+01 0.101E-12 -.924E+03   0.103E-01 0.000E+00 -.743E+01
   0.676E+01 0.722E+01 0.935E+03   -.678E+01 -.727E+01 -.927E+03   0.153E-01 0.336E-01 -.743E+01
   0.802E+01 0.674E+01 -.921E+03   -.803E+01 -.676E+01 0.913E+03   0.884E-02 0.128E-01 0.736E+01
   0.706E+01 0.316E-12 -.920E+03   -.707E+01 0.941E-13 0.913E+03   0.617E-02 0.000E+00 0.736E+01
   0.910E+01 0.910E+01 0.935E+03   -.914E+01 -.914E+01 -.927E+03   0.338E-01 0.338E-01 -.743E+01
   0.173E+02 0.173E+02 0.947E+03   -.174E+02 -.174E+02 -.939E+03   0.110E+00 0.110E+00 -.746E+01
   0.205E+02 0.152E+02 -.914E+03   -.205E+02 -.153E+02 0.906E+03   0.545E-01 0.161E-01 0.735E+01
   0.152E+02 0.205E+02 -.914E+03   -.153E+02 -.205E+02 0.906E+03   0.161E-01 0.545E-01 0.735E+01
   0.187E+02 0.735E+01 0.943E+03   -.189E+02 -.738E+01 -.935E+03   0.135E+00 0.243E-01 -.746E+01
   0.307E+02 -.133E-11 0.963E+03   -.313E+02 0.218E-12 -.955E+03   0.484E+00 0.529E-22 -.760E+01
   0.350E+02 -.202E-11 -.907E+03   -.351E+02 0.107E-13 0.899E+03   0.783E-01 -.397E-22 0.733E+01
   0.517E+02 0.265E+02 -.889E+03   -.520E+02 -.265E+02 0.882E+03   0.272E+00 0.712E-02 0.729E+01
   0.187E+02 -.735E+01 0.943E+03   -.189E+02 0.738E+01 -.935E+03   0.135E+00 -.243E-01 -.746E+01
   0.173E+02 -.173E+02 0.947E+03   -.174E+02 0.174E+02 -.939E+03   0.110E+00 -.110E+00 -.746E+01
   0.205E+02 -.152E+02 -.914E+03   -.205E+02 0.153E+02 0.906E+03   0.545E-01 -.161E-01 0.735E+01
   0.517E+02 -.265E+02 -.889E+03   -.520E+02 0.265E+02 0.882E+03   0.272E+00 -.712E-02 0.729E+01
   0.910E+01 -.910E+01 0.935E+03   -.914E+01 0.914E+01 -.927E+03   0.338E-01 -.338E-01 -.743E+01
   0.676E+01 -.722E+01 0.935E+03   -.678E+01 0.727E+01 -.927E+03   0.153E-01 -.336E-01 -.743E+01
   0.802E+01 -.674E+01 -.921E+03   -.803E+01 0.676E+01 0.913E+03   0.884E-02 -.128E-01 0.736E+01
   0.152E+02 -.205E+02 -.914E+03   -.153E+02 0.205E+02 0.906E+03   0.161E-01 -.545E-01 0.735E+01
   0.363E+01 0.180E-12 0.934E+03   -.364E+01 0.449E-13 -.927E+03   0.635E-02 0.000E+00 -.743E+01
   -.248E-12 0.103E+02 0.937E+03   0.387E-11 -.103E+02 -.929E+03   0.265E-22 0.547E-01 -.744E+01
   0.598E+01 0.136E+02 -.917E+03   -.598E+01 -.137E+02 0.909E+03   0.499E-02 0.264E-01 0.736E+01
   -.253E-12 -.570E-12 -.919E+03   0.622E-14 0.933E-13 0.911E+03   0.265E-22 0.000E+00 0.736E+01
   0.735E+01 0.187E+02 0.943E+03   -.738E+01 -.189E+02 -.935E+03   0.243E-01 0.135E+00 -.746E+01
   -.248E-12 0.307E+02 0.963E+03   -.579E-11 -.313E+02 -.955E+03   -.529E-22 0.484E+00 -.760E+01
   0.265E+02 0.517E+02 -.889E+03   -.265E+02 -.520E+02 0.882E+03   0.712E-02 0.272E+00 0.729E+01
   -.248E-12 0.350E+02 -.907E+03   -.193E-10 -.351E+02 0.899E+03   0.000E+00 0.783E-01 0.733E+01
   0.234E+02 0.234E+02 0.980E+03   -.239E+02 -.239E+02 -.972E+03   0.333E+00 0.333E+00 -.747E+01
   -.273E-12 0.146E-11 0.101E+04   -.104E-12 0.214E-12 -.101E+04   0.000E+00 0.132E-22 -.427E+01
   0.112E+03 0.144E-10 -.785E+03   -.116E+03 0.933E-14 0.778E+03   0.247E+01 0.106E-21 0.666E+01
   -.242E-12 0.112E+03 -.785E+03   0.215E-10 -.116E+03 0.778E+03   0.000E+00 0.247E+01 0.666E+01
   0.234E+02 -.234E+02 0.980E+03   -.239E+02 0.239E+02 -.972E+03   0.333E+00 -.333E+00 -.747E+01
   -.248E-12 -.307E+02 0.963E+03   -.183E-10 0.313E+02 -.955E+03   -.106E-21 -.484E+00 -.760E+01
   0.265E+02 -.517E+02 -.889E+03   -.265E+02 0.520E+02 0.882E+03   0.712E-02 -.272E+00 0.729E+01
   -.242E-12 -.112E+03 -.785E+03   0.183E-10 0.116E+03 0.778E+03   0.106E-21 -.247E+01 0.666E+01
   0.735E+01 -.187E+02 0.943E+03   -.738E+01 0.189E+02 -.935E+03   0.243E-01 -.135E+00 -.746E+01
   -.246E-12 -.103E+02 0.937E+03   0.203E-10 0.103E+02 -.929E+03   0.265E-22 -.547E-01 -.744E+01
[...]
   -.103E+02 0.784E+01 0.706E+03   0.103E+02 -.788E+01 -.710E+03   -.730E-01 0.510E-01 0.350E+01
   -.382E+01 0.471E+01 0.701E+03   0.383E+01 -.472E+01 -.705E+03   -.189E-01 0.190E-01 0.351E+01
   -.226E+02 0.852E+01 -.684E+03   0.227E+02 -.853E+01 0.688E+03   -.745E-01 0.164E-01 -.368E+01
   -.114E+02 -.487E-11 -.689E+03   0.115E+02 0.103E-10 0.693E+03   -.301E-01 0.000E+00 -.363E+01
   -.158E+02 0.376E-11 0.710E+03   0.159E+02 -.169E-11 -.715E+03   -.117E+00 0.000E+00 0.347E+01
   -.702E+01 0.334E+01 0.704E+03   0.705E+01 -.335E+01 -.708E+03   -.385E-01 0.133E-01 0.350E+01
   -.226E+02 -.852E+01 -.684E+03   0.227E+02 0.853E+01 0.688E+03   -.745E-01 -.164E-01 -.368E+01
   -.759E+01 -.664E+01 -.691E+03   0.761E+01 0.665E+01 0.695E+03   -.213E-01 -.127E-01 -.362E+01
   -.103E+02 -.784E+01 0.706E+03   0.103E+02 0.788E+01 -.710E+03   -.730E-01 -.510E-01 0.350E+01
   -.702E+01 -.334E+01 0.704E+03   0.705E+01 0.335E+01 -.708E+03   -.385E-01 -.133E-01 0.350E+01
   -.938E+01 -.938E+01 -.690E+03   0.940E+01 0.940E+01 0.694E+03   -.314E-01 -.314E-01 -.362E+01
   -.345E+01 -.345E+01 -.693E+03   0.346E+01 0.346E+01 0.697E+03   -.841E-02 -.841E-02 -.360E+01
   -.471E+01 -.382E+01 0.701E+03   0.472E+01 0.383E+01 -.705E+03   -.190E-01 -.189E-01 0.351E+01
   -.382E+01 -.471E+01 0.701E+03   0.383E+01 0.472E+01 -.705E+03   -.189E-01 -.190E-01 0.351E+01
   0.129E-10 -.135E-10 -.311E+01   0.888E-12 0.512E-12 0.174E-10   -.659E-15 0.271E-15 0.252E+01

 POSITION                                       TOTAL-FORCE (eV/Angst)
     10.56943     10.56943     15.76120         0.000000     -0.000000      0.069725
     10.56943     10.56943     13.26453         0.000000     -0.000000     -0.049292
      0.00000      0.00000      9.00000         0.000000     -0.000000      0.339403
      2.11389      2.11389      9.00000        -0.002504     -0.002504      0.339793
      0.00000      2.11389     11.11389         0.000000     -0.001099     -0.320876
      2.11389      0.00000     11.11389        -0.001099     -0.000000     -0.320876
      0.00000      4.22777      9.00000         0.000000     -0.002862      0.340156
      2.11389      6.34166      9.00000        -0.008810     -0.004259      0.341814
      0.00000      6.34166     11.11389         0.000000     -0.001641     -0.318368
      2.11389      4.22777     11.11389        -0.003250     -0.002395     -0.318813
      0.00000      8.45554      9.00000         0.000000     -0.001768      0.341616
      2.11389     10.56943      9.00000        -0.014273     -0.000000      0.343486
      0.00000     10.56943     11.11389         0.000000     -0.000000     -0.316582
      2.11389      8.45554     11.11389        -0.006102     -0.001290     -0.314297
      0.00000     12.68331      9.00000         0.000000      0.001768      0.341616
      2.11389     14.79720      9.00000        -0.008810      0.004259      0.341814
      0.00000     14.79720     11.11389         0.000000      0.001641     -0.318368
      2.11389     12.68331     11.11389        -0.006102      0.001290     -0.314297
      0.00000     16.91108      9.00000         0.000000      0.002862      0.340156
      2.11389     19.02497      9.00000        -0.002504      0.002504      0.339793
      0.00000     19.02497     11.11389         0.000000      0.001099     -0.320876
      2.11389     16.91108     11.11389        -0.003250      0.002395     -0.318813
      4.22777      0.00000      9.00000        -0.002862     -0.000000      0.340156
      6.34166      2.11389      9.00000        -0.004259     -0.008810      0.341814
      4.22777      2.11389     11.11389        -0.002395     -0.003250     -0.318813
      6.34166      0.00000     11.11389        -0.001641     -0.000000     -0.318368
      4.22777      4.22777      9.00000        -0.009272     -0.009272      0.341523
      6.34166      6.34166      9.00000        -0.031107     -0.031107      0.345746
      4.22777      6.34166     11.11389        -0.013159     -0.004256     -0.309683
      6.34166      4.22777     11.11389        -0.004256     -0.013159     -0.309683
      4.22777      8.45554      9.00000        -0.035184     -0.006952      0.348697
      6.34166     10.56943      9.00000        -0.119706     -0.000000      0.373838
      4.22777     10.56943     11.11389        -0.016118     -0.000000     -0.298821
      6.34166      8.45554     11.11389        -0.061586      0.001051     -0.264040
      4.22777     12.68331      9.00000        -0.035184      0.006952      0.348697
      6.34166     14.79720      9.00000        -0.031107      0.031107      0.345746
      4.22777     14.79720     11.11389        -0.013159      0.004256     -0.309683
      6.34166     12.68331     11.11389        -0.061586     -0.001051     -0.264040
      4.22777     16.91108      9.00000        -0.009272      0.009272      0.341523
      6.34166     19.02497      9.00000        -0.004259      0.008810      0.341814
      4.22777     19.02497     11.11389        -0.002395      0.003250     -0.318813
      6.34166     16.91108     11.11389        -0.004256      0.013159     -0.309683
      8.45554      0.00000      9.00000        -0.001768     -0.000000      0.341616
     10.56943      2.11389      9.00000         0.000000     -0.014273      0.343486
      8.45554      2.11389     11.11389        -0.001290     -0.006102     -0.314297
     10.56943      0.00000     11.11389         0.000000     -0.000000     -0.316582
      8.45554      4.22777      9.00000        -0.006952     -0.035184      0.348697
     10.56943      6.34166      9.00000         0.000000     -0.119706      0.373838
      8.45554      6.34166     11.11389         0.001051     -0.061586     -0.264040
     10.56943      4.22777     11.11389         0.000000     -0.016118     -0.298821
      8.45554      8.45554      9.00000        -0.110445     -0.110445      0.322056
     10.56943     10.56943      9.00000         0.000000     -0.000000     -0.331806
      8.45554     10.56943     11.11389        -0.861868     -0.000000     -0.160021
     10.56943      8.45554     11.11389         0.000000     -0.861868     -0.160021
      8.45554     12.68331      9.00000        -0.110445      0.110445      0.322056
     10.56943     14.79720      9.00000         0.000000      0.119706      0.373838
      8.45554     14.79720     11.11389         0.001051      0.061586     -0.264040
     10.56943     12.68331     11.11389         0.000000      0.861868     -0.160021
      8.45554     16.91108      9.00000        -0.006952      0.035184      0.348697
     10.56943     19.02497      9.00000         0.000000      0.014273      0.343486
[...]
     19.02497      6.34166     11.11389        -0.005958      0.003548      0.502458
     16.91108      6.34166      9.00000        -0.020264      0.014164     -0.531046
     19.02497      4.22777      9.00000        -0.005185      0.005202     -0.527472
     16.91108      8.45554     11.11389        -0.021368      0.005011      0.486945
     19.02497     10.56943     11.11389        -0.008553     -0.000000      0.498451
     16.91108     10.56943      9.00000        -0.032858     -0.000000     -0.537323
     19.02497      8.45554      9.00000        -0.010677      0.003705     -0.529880
     16.91108     12.68331     11.11389        -0.021368     -0.005011      0.486945
     19.02497     14.79720     11.11389        -0.005958     -0.003548      0.502458
     16.91108     14.79720      9.00000        -0.020264     -0.014164     -0.531046
     19.02497     12.68331      9.00000        -0.010677     -0.003705     -0.529880
     16.91108     16.91108     11.11389        -0.008638     -0.008638      0.501837
     19.02497     19.02497     11.11389        -0.002319     -0.002319      0.506831
     16.91108     19.02497      9.00000        -0.005202     -0.005185     -0.527472
     19.02497     16.91108      9.00000        -0.005185     -0.005202     -0.527472
    total drift:                                0.000000     -0.000000     -0.597719

  FREE ENERGIE OF THE ION-ELECTRON SYSTEM (eV)
  free  energy   TOTEN  =     -1151.67539656 eV

  energy  without entropy=    -1151.67539656  energy(sigma->0) =    -1151.67539656