 vasp.6.4.0 14Feb23 (build Mar 22 2023 21:21:37) complex

 executed on           IFC15_impi date 2023.05.05  20:33:30

 INCAR:
   SYSTEM = MgO-rocksalt
   ISMEAR = 0
   SIGMA = 0.05
   EDIFF = 1E-6
   ALGO = ALL
   ISTART = 0
   IBRION = -1
   NSW = 0
   ISYM = 2
   DIPOL = 0.5 0.5 0.5
   IDIPOL = 3
   LDIPOL = .TRUE.
   GGA = RE
   LUSE_VDW = .TRUE.
   AGGAC = 0.0
   ENCUT = 520
   PREC = Accurate
   LASPH = .TRUE.
   LREAL = Auto
   ISPIN = 1
   NELM = 200
   NELMIN = 8
   NCORE = 4
   KPAR = 2
   LWAVE = .FALSE.
   LCHARG = .FALSE.

 POTCAR:    PAW_PBE Au 04Oct2007
 POTCAR:    PAW_PBE Mg_pv 13Apr2007
 POTCAR:    PAW_PBE O 08Apr2002
|               ----> ADVICE to this user running VASP <----                  |
|     You have switched on vdW-DFT.                                           |
|     This routine was written and supplied by Jiri Klimes. We recommend      |
|     that you carefully read and cite the following publications:            |
|       J. Klimes, D.R. Bowler, A. Michelides                                 |
|          J. Phys.: Cond Matt. 22 022201 (2010)                              |
|       J. Klimes, D.R. Bowler, A. Michelides                                 |
|          Phys. Rev. B. 83, 195131 (2011)                                    |
|     and references therein.                                                 |

   TITEL  = PAW_PBE Au 04Oct2007
   POMASS =  196.966; ZVAL   =   11.000    mass and valenz
   ENMAX  =  229.943; ENMIN  =  172.457 eV

   TITEL  = PAW_PBE Mg_pv 13Apr2007
   POMASS =   24.305; ZVAL   =    8.000    mass and valenz
   ENMAX  =  403.929; ENMIN  =  302.947 eV

   TITEL  = PAW_PBE O 08Apr2002
   POMASS =   16.000; ZVAL   =    6.000    mass and valenz
   ENMAX  =  400.000; ENMIN  =  300.000 eV

 Optimization of the real space projectors (new method)

 maximal supplied QI-value         = 15.12
 optimisation between [QCUT,QGAM] = [ 11.64, 23.28] = [ 37.95,151.78] Ry
 Optimized for a Real-space Cutoff    1.49 Angstroem

   l    n(q)    QCUT    max X(q) W(low)/X(q) W(high)/X(q)  e(spline)
   2      9    11.641    60.898    0.24E-03    0.10E-03    0.19E-06
   2      9    11.641    58.894    0.25E-03    0.10E-03    0.19E-06
   0     10    11.641   109.617    0.73E-04    0.33E-04    0.11E-06
   0     10    11.641    75.026    0.71E-04    0.32E-04    0.11E-06
   1     10    11.641    16.344    0.27E-04    0.97E-04    0.16E-06
   1     10    11.641    10.160    0.23E-04    0.77E-04    0.13E-06
 Optimization of the real space projectors (new method)

[...]

   l    n(q)    QCUT    max X(q) W(low)/X(q) W(high)/X(q)  e(spline)
   1      8    11.527     2.974    0.44E-04    0.56E-04    0.12E-06
   1      8    11.527     4.279    0.12E-03    0.12E-03    0.26E-06
   0      9    11.527    16.381    0.46E-04    0.64E-04    0.78E-07
   0      9    11.527     5.611    0.26E-04    0.43E-04    0.55E-07
   2      8    11.527     4.652    0.22E-03    0.72E-04    0.47E-07
 Optimization of the real space projectors (new method)

 maximal supplied QI-value         = 24.76
 optimisation between [QCUT,QGAM] = [ 11.64, 23.27] = [ 37.91,151.63] Ry
 Optimized for a Real-space Cutoff    1.14 Angstroem

   l    n(q)    QCUT    max X(q) W(low)/X(q) W(high)/X(q)  e(spline)
   0      8    11.635    20.381    0.10E-03    0.33E-03    0.24E-06
   0      8    11.635    15.268    0.11E-03    0.35E-03    0.26E-06
   1      7    11.635     5.964    0.24E-03    0.31E-03    0.30E-06
   1      7    11.635     5.382    0.22E-03    0.25E-03    0.26E-06
|               ----> ADVICE to this user running VASP <----                  |
|     You enforced a specific xc type in the INCAR file but a different       |
|     type was found in the POTCAR file.                                      |
|     I HOPE YOU KNOW WHAT YOU ARE DOING!                                     |

  PAW_PBE Au 04Oct2007                  :
  PAW_PBE Mg_pv 13Apr2007               :
  PAW_PBE O 08Apr2002                   :

 POSCAR: Mg  O
  positions in direct lattice
  velocities in cartesian coordinates
 exchange correlation table for  LEXCH =       40
   RHO(1)=    0.500       N(1)  =     2000
   RHO(2)=  100.500       N(2)  =     4000

 ion  position               nearest neighbor table
   1  0.525  0.447  0.604-   9 2.67   5 2.69   6 2.74  10 2.79   2 2.83
   2  0.392  0.462  0.611-  10 2.68   6 2.70   7 2.71   3 2.74  11 2.75   1 2.83
   3  0.263  0.476  0.611-   8 2.71   4 2.74   2 2.74  12 2.74  11 2.75   7 2.76
   4  0.142  0.488  0.581- 230 2.54  12 2.68   3 2.74   8 2.75  51 2.76
   5  0.597  0.552  0.599-   1 2.69  13 2.70   6 2.73  14 2.76
   6  0.469  0.564  0.610-   7 2.70   2 2.70   5 2.73   1 2.74  14 2.75  15 2.77
   7  0.342  0.580  0.615-  16 2.70   6 2.70   2 2.71   8 2.75   3 2.76  15 2.77
   8  0.223  0.590  0.580- 253 2.44   3 2.71  16 2.73   7 2.75   4 2.75  56 2.95
   9  0.567  0.328  0.608-  17 2.66   1 2.67  10 2.67  18 2.84
  10  0.441  0.345  0.606-   9 2.67  11 2.67   2 2.68  18 2.72   1 2.79  19 2.83
  11  0.316  0.357  0.606-  10 2.67  19 2.71  12 2.72   2 2.75   3 2.75  20 2.78
  12  0.189  0.372  0.596-  20 2.66   4 2.68  11 2.72   3 2.74
  13  0.664  0.657  0.580- 294 2.61  14 2.66   5 2.70  96 2.83  95 2.91
  14  0.542  0.671  0.600-  15 2.63  13 2.66   6 2.75   5 2.76
  15  0.420  0.685  0.613-  14 2.63  16 2.66   7 2.77   6 2.77
  16  0.306  0.688  0.576- 254 2.29  15 2.66   7 2.70   8 2.73  56 2.97  75 3.04
  17  0.590  0.216  0.572- 285 2.19  18 2.62   9 2.66  87 2.86  68 2.93
  18  0.483  0.224  0.615-  17 2.62  19 2.63  10 2.72   9 2.84
  19  0.361  0.238  0.599-  18 2.63  20 2.71  11 2.71  10 2.83
  20  0.235  0.255  0.591-  12 2.66  19 2.71  11 2.78  47 2.95
  21  0.000  0.000  0.430- 223 2.11 224 2.11 304 2.11 239 2.12 321 2.12 221 2.13
  22  0.100  0.100  0.430- 243 2.11 228 2.11 223 2.11 224 2.12 322 2.12 222 2.13
  23  1.000  0.100  0.500- 223 2.11 222 2.11 302 2.11 225 2.11 221 2.11
  24  0.100  0.000  0.500- 224 2.11 222 2.11 221 2.11 238 2.11 241 2.11
  25  0.000  0.200  0.430- 228 2.11 308 2.11 223 2.11 227 2.12 325 2.12 225 2.13
  26  0.100  0.300  0.430- 247 2.10 228 2.11 227 2.12 326 2.12 232 2.13 226 2.13
  27  1.000  0.300  0.500- 306 2.11 227 2.11 226 2.11 225 2.11 229 2.12
  28  0.100  0.200  0.500- 225 2.11 228 2.11 226 2.11 222 2.11 245 2.11
  29  1.000  0.400  0.430- 232 2.11 227 2.11 312 2.11 231 2.12 329 2.12 229 2.13
  30  0.100  0.500  0.429- 232 2.10 251 2.10 231 2.11 330 2.11 236 2.12 230 2.19
  31  0.998  0.500  0.500- 310 2.08 231 2.11 229 2.11 230 2.12 233 2.12
  32  0.100  0.398  0.500- 226 2.09 229 2.11 232 2.11 249 2.12 230 2.16
  33  1.000  0.600  0.430- 316 2.11 231 2.11 235 2.11 333 2.12 236 2.12 233 2.14
  34  0.099  0.700  0.430- 235 2.10 240 2.11 334 2.12 255 2.12 236 2.12 234 2.14
  35  0.999  0.701  0.500- 314 2.10 235 2.11 237 2.11 234 2.11 233 2.12
  36  0.098  0.601  0.500- 233 2.08 234 2.10 236 2.10 253 2.12 230 2.13
  37  1.000  0.800  0.430- 239 2.11 320 2.11 240 2.12 337 2.12 235 2.12 237 2.13
  38  0.100  0.900  0.430- 224 2.11 239 2.11 259 2.11 338 2.12 240 2.12 238 2.13
  39  1.000  0.900  0.500- 239 2.10 221 2.11 318 2.11 238 2.11 237 2.12
  40  0.099  0.801  0.500- 238 2.10 237 2.10 240 2.11 257 2.12 234 2.12
  41  0.200  0.000  0.430- 243 2.11 244 2.11 224 2.11 259 2.12 341 2.12 241 2.13
  42  0.300  0.100  0.430- 248 2.10 243 2.12 263 2.12 244 2.12 342 2.12 242 2.13
  43  0.200  0.100  0.500- 241 2.11 245 2.11 243 2.11 242 2.11 222 2.12
  44  0.300  0.000  0.500- 242 2.10 258 2.10 244 2.11 261 2.12 241 2.12
  45  0.200  0.200  0.430- 248 2.10 247 2.10 243 2.12 228 2.12 345 2.12 245 2.15
  46  0.300  0.300  0.430- 246 2.08 267 2.11 252 2.12 248 2.12 346 2.12 247 2.13
  47  0.200  0.300  0.501- 249 2.11 246 2.12 245 2.13 226 2.13 247 2.14  20 2.95
  48  0.300  0.200  0.501- 265 2.10 246 2.12 242 2.12 245 2.13 248 2.14
  49  0.200  0.399  0.429- 249 2.08 252 2.11 247 2.11 349 2.11 232 2.13 251 2.14
  50  0.301  0.499  0.430- 271 2.10 252 2.10 250 2.10 350 2.11 256 2.14 251 2.14
  51  0.202  0.498  0.500- 250 2.07 249 2.08 251 2.09 253 2.19 230 2.20   4 2.76
  52  0.301  0.399  0.501- 246 2.10 269 2.10 250 2.12 249 2.14 252 2.14
  53  0.200  0.600  0.429- 256 2.10 251 2.10 353 2.10 255 2.11 236 2.11 253 2.16
  54  0.300  0.700  0.429- 354 2.10 275 2.10 256 2.11 260 2.11 255 2.12 254 2.14
  55  0.198  0.702  0.500- 234 2.08 257 2.08 255 2.09 254 2.13 253 2.13
  56  0.302  0.598  0.500- 273 2.06 250 2.07 256 2.10 253 2.20 254 2.22   8 2.95  16 2.97
  57  0.200  0.801  0.430- 259 2.10 260 2.11 240 2.11 357 2.12 255 2.13 257 2.13
  58  0.300  0.901  0.430- 244 2.10 279 2.11 358 2.11 259 2.12 260 2.12 258 2.13
  59  0.200  0.901  0.500- 241 2.10 259 2.11 238 2.11 257 2.11 258 2.12
  60  0.300  0.803  0.499- 258 2.07 260 2.10 277 2.11 254 2.12 257 2.13
[...]
 406  0.900  0.300  0.359- 208 2.11 207 2.11 127 2.11 212 2.11 206 2.11 106 2.12
 407  0.800  0.300  0.289- 186 2.11 205 2.11 206 2.11 209 2.11 207 2.11
 408  0.900  0.200  0.289- 206 2.11 202 2.11 205 2.11 125 2.11 208 2.11
 409  0.800  0.400  0.359- 192 2.11 207 2.11 211 2.11 212 2.11 209 2.11 109 2.12
 410  0.900  0.500  0.359- 131 2.11 211 2.11 212 2.11 216 2.11 210 2.11 110 2.12
 411  0.800  0.500  0.289- 190 2.11 209 2.11 210 2.11 213 2.11 211 2.11
 412  0.900  0.400  0.289- 129 2.11 206 2.11 209 2.11 210 2.11 212 2.11
 413  0.800  0.600  0.359- 196 2.11 211 2.11 215 2.11 216 2.11 213 2.11 113 2.12
 414  0.900  0.700  0.359- 220 2.11 215 2.11 216 2.11 135 2.11 214 2.11 114 2.12
 415  0.800  0.700  0.289- 194 2.11 217 2.11 214 2.11 213 2.11 215 2.11
 416  0.900  0.600  0.289- 133 2.11 210 2.11 213 2.11 214 2.11 216 2.11
 417  0.800  0.800  0.359- 200 2.11 215 2.11 219 2.11 220 2.11 217 2.11 117 2.12
 418  0.900  0.900  0.359- 139 2.11 204 2.11 219 2.11 220 2.11 218 2.11 118 2.12
 419  0.800  0.900  0.289- 198 2.11 201 2.11 217 2.11 218 2.11 219 2.11
 420  0.900  0.800  0.289- 214 2.11 137 2.11 217 2.11 218 2.11 220 2.11

  LATTYP: Found a simple tetragonal cell.
 ALAT       =    21.1388521970
 C/A-ratio  =     1.4191877459

  Lattice vectors:

 A1 = (  21.1388521970,   0.0000000000,   0.0000000000)
 A2 = (   0.0000000000,  21.1388521970,   0.0000000000)
 A3 = (   0.0000000000,   0.0000000000,  30.0000000000)

Analysis of symmetry for initial positions (statically):
 Subroutine PRICEL returns:
 Original cell was already a primitive cell.

 Routine SETGRP: Setting up the symmetry group for a
 simple tetragonal supercell.

 Subroutine GETGRP returns: Found  1 space group operations
 (whereof  1 operations were pure point group operations)
 out of a pool of 16 trial point group operations.

The static configuration has the point symmetry C_1 .

Analysis of symmetry for dynamics (positions and initial velocities):
 Subroutine PRICEL returns:
 Original cell was already a primitive cell.

[...]

The dynamic configuration has the point symmetry C_1 .

Analysis of constrained symmetry for selective dynamics:
 Subroutine PRICEL returns:
 Original cell was already a primitive cell.

 Routine SETGRP: Setting up the symmetry group for a
 simple tetragonal supercell.

 Subroutine GETGRP returns: Found  1 space group operations
 (whereof  1 operations were pure point group operations)
[...]
  329                  fftbas_plan_mpi                      18.576727                513   8
  330                    dfftw_execute                        11.852762             1539   9
  331                    map_forward                           6.389078             1026   9
  332                      map_gather                            1.400228            513  10
  333                      m_alltoallv_z                         0.975525            513  10
  334                      map_scatter                           2.212138            513  10
  335            rpromu                                5.419264                      135   5
  336              crrexp_mul_wave                       2.880008                 215460   6
  337              rpromu_gemm                           1.859815                  56700   6
  338              m_sumb_d                              0.074597                    513   6
  339          m_sumb_d                              0.004530                         10   4
  340        m_sumb_d                              0.001676                            7   3
  341        fft3d_mpi                             1.514846                           71   3
  342          fftbrc_mpi                            1.426769                         71   4
  343            fftbas_plan_mpi                       1.426505                       71   5
  344              dfftw_execute                         0.453487                    213   6
  345              map_forward                           0.390951                     70   6
  346                map_gather                            0.099583                   35   7
  347                m_alltoallv_z                         0.234189                   35   7
  348                map_scatter                           0.055996                   35   7
  349              map_backward                          0.529428                     72   6
  350                map_gather                            0.056797                   36   7
  351                m_alltoallv_z                         0.350239                   36   7
  352                map_scatter                           0.121377                   36   7
  353        ggaall_grid                           0.382934                            1   3
  354        forhar                                2.979752                            1   3
  355          m_sumb_d                              0.000191                          1   4
  356        strehar                               0.033421                            1   3
  357          m_sumb_d                              0.000496                          1   4
  358        m_bcast_d                             0.000362                            2   3
  359      potlok                               14.001807                              1   2
  360        fft3d_mpi                             1.566442                           73   3
  361          fftbrc_mpi                            1.474082                         73   4
  362            fftbas_plan_mpi                       1.473834                       73   5
  363              dfftw_execute                         0.470047                    219   6
  364              map_forward                           0.435693                     74   6
  365                map_gather                            0.105196                   38   7
  366                m_alltoallv_z                         0.265104                   38   7
  367                map_scatter                           0.064176                   38   7
  368              map_backward                          0.512058                     72   6
  369                map_gather                            0.056869                   36   7
  370                m_alltoallv_z                         0.333146                   36   7
  371                map_scatter                           0.121044                   36   7
  372        ggaall_grid                           0.383065                            1   3
  373        m_sumb_d                              0.007506                            8   3
  374        fewald                                0.001393                            2   3
  375          rsp                                   0.001283                          2   4
  376          rcp                                   0.000094                          2   4
  377        pothar                                0.004388                            1   3
  378          m_sumb_d                              0.000686                          1   4
  379        m_bcast_d                             0.011641                            1   3
  380      potlok_metagga                        0.000001                              1   2
  381      set_dd_magatom                        0.000001                              1   2
  382      set_dd_paw                            1.118360                              1   2
  383        set_rsgf_all                          0.000001                            1   3
  384        m_sumb_d                              0.831585                            8   3

 Flat profile

 edwav                                 879.727643          50
 potlok                                626.343418          52
 lincom                                344.999583         157
 dfftw_execute                         327.915553       51015
 orth1                                 186.506130        7281
 eddav                                 115.787963           5
 wfinit                                 91.267715           1
 m_sumb_d                               83.770202       29036
 m_alltoallv_z                          62.194045       17108
 map_scatter                            61.390001       17108
 m_alltoall_d                           55.723019       56110
 ggemm                                  53.235638        1249
 map_gather                             48.429168       17108
 fftwav_mpi                             44.153360        9164
 choleski                               33.887881          51
 eccp                                   33.169353        5985
 map_forward                            32.340541       22248
 eddiag                                 24.802665          26
 total_time                             20.960708           1
 ggaall_grid                            20.721006          53
 crrexp_mul_work_add                    20.127168     1003380
 racc0                                  19.138477        2389
 m_bcast_z                              18.855387        2879
 crrexp_mul_wave                        15.964282     1194900
 vhamil                                 15.520413        2446
 set_dd_paw                             15.174998          53
 rpro1                                  14.536094        2104
 pw_charge                              13.603279        2448
 force_and_stress                       12.241503           1
 fftbas_plan_mpi                        11.474743       17005
 lapack                                  7.126465         964
 redis_pw                                5.732158        8559
 w1_dscal                                5.711025        1425
 fft3d_mpi                               5.243632       17005
 fftext_mpi                              4.761597        3871
 augmentation_charge                     4.368067          51
 setdij_                                 4.355105          79
 rspher_all                              3.672307          14
 phaser                                  3.310255          43
 forloc                                  2.995020           1
 forhar                                  2.979561           1
 rpromu_gemm                             2.709046       81900
 stufak                                  1.798854           1
 orthch                                  1.190606          51
 kinhamil                                1.008452        2446
 overl                                   0.942908        3170
 m_bcast_d                               0.914462        1984
 rpromu                                  0.873488         195
 w1_copy                                 0.850286        2892
 elmin_all                               0.718784           1
 soft_charge                             0.421606          51
 redis_proj                              0.376267        8127
 setup_precond                           0.267505         285
 apply_precond                           0.235976         679
 depsum                                  0.223954          51
 pothar                                  0.193263          52
 inisym                                  0.180267           1
 map_backward                            0.168858       11762
 overl1                                  0.127542         964
 fft_gq                                  0.090735          51
 rsp                                     0.080038         105
 set_charge                              0.057699          51
 fftbas_mpi                              0.053939       13035
 strnlr                                  0.053576           1
 densta                                  0.038638          62
 strehar                                 0.032925           1
 strkin                                  0.032809           1
 strelo                                  0.027040           1
 hamiltmu                                0.022285         964
 hamilt_local                            0.022088        1482
 fornlr                                  0.020269           1
 newband                                 0.020157         969
 fftbrc_mpi                              0.015538        3970
 fewald                                  0.011861         105
 rpro_isp                                0.011773          13
 raccmu_                                 0.010938         964
 rcp                                     0.006368         105
 w1_projall                              0.004373         679
 brgrid                                  0.002819           1
 truncate_high_frequency_w1              0.001298        1249
 fordep                                  0.001036           1
 redis_pw_all                            0.000684          50
 redis_pw_over_bands                     0.000340          51
 crpa_reader                             0.000255           1
 posmap                                  0.000253           2
 proall                                  0.000129           1
 set_rsgf_all                            0.000108          53
 set_dd_magatom                          0.000079           2
 potlok_metagga                          0.000059          52
 vectorpot                               0.000027           1
 rotate_active_occupied_orbital          0.000019           1
 shift_bands_between_low_high            0.000008           1
  summed up times    3368.03941512108

 Accumulative profile

 total_time                           3368.039415           1
 elmin_all                            3149.643063           1
 edwav                                1745.705903          50
 potlok                                734.322686          52
 fft3d_mpi                             549.226017       17005
 fftbas_plan_mpi                       543.912909       17005
 fftbas_mpi                            459.120105       13035
 eddav                                 398.366711           5
 fftwav_mpi                            376.499070        9164
 lincom                                344.999583         157
 dfftw_execute                         327.915553       51015
 orthch                                205.388285          51
 orth1                                 186.506130        7281
 map_forward                           141.996871       22248
 fftext_mpi                            131.594475        3871
 set_charge                            125.205201          51
 soft_charge                           119.219785          51
 wfinit                                109.559250           1
 eddiag                                101.225096          26
 fftbrc_mpi                             84.862281        3970
 m_sumb_d                               83.770202       29036
 kinhamil                               83.285484        2446
 force_and_stress                       62.596938           1
 map_backward                           62.525742       11762
 m_alltoallv_z                          62.194045       17108
 map_scatter                            61.390001       17108
 hamilt_local                           59.711037        1482
 set_dd_paw                             56.833926          53
 m_alltoall_d                           55.723019       56110
 hamiltmu                               55.328648         964
 ggemm                                  53.235638        1249
 redis_pw                               48.629488        8559
 map_gather                             48.429168       17108
 racc0                                  39.795285        2389
 rpro_isp                               38.357672          13
 choleski                               33.887881          51
 eccp                                   33.782547        5985
 strnlr                                 29.707812           1
 rpro1                                  26.876435        2104
 ggaall_grid                            20.721006          53
 crrexp_mul_work_add                    20.127168     1003380
 m_bcast_z                              18.855387        2879
 raccmu_                                16.189415         964
 crrexp_mul_wave                        15.964282     1194900
 vhamil                                 15.520413        2446
 newband                                14.808934         969
 pw_charge                              13.603279        2448
 redis_proj                             13.201956        8127
 fornlr                                  9.952292           1
 w1_projall                              8.747326         679
 redis_pw_over_bands                     8.055744          51
 redis_pw_all                            8.055405          50
 rpromu                                  7.839813         195
 lapack                                  7.126465         964
 w1_dscal                                5.711025        1425
 augmentation_charge                     5.564319          51
 setdij_                                 4.938666          79
 rspher_all                              3.672307          14
 phaser                                  3.310255          43
 proall                                  3.102471           1
 forloc                                  2.996594           1
 forhar                                  2.979752           1
 rpromu_gemm                             2.709046       81900
 stufak                                  1.798854           1
 fft_gq                                  1.184773          51
 overl                                   0.942908        3170
 m_bcast_d                               0.914462        1984
 w1_copy                                 0.850286        2892
 fordep                                  0.367338           1
 depsum                                  0.363398          51
 setup_precond                           0.279833         285
 pothar                                  0.261389          52
 apply_precond                           0.235976         679
 densta                                  0.209713          62
 inisym                                  0.180520           1
 fewald                                  0.148581         105
 overl1                                  0.127542         964
 rsp                                     0.080038         105
 strkin                                  0.033702           1
 strehar                                 0.033421           1
 strelo                                  0.027590           1
 rcp                                     0.006368         105
 brgrid                                  0.002819           1
 truncate_high_frequency_w1              0.001298        1249
 crpa_reader                             0.000255           1
 posmap                                  0.000253           2
 set_rsgf_all                            0.000108          53
 set_dd_magatom                          0.000079           2
 potlok_metagga                          0.000059          52
 vectorpot                               0.000027           1
 rotate_active_occupied_orbital          0.000019           1
 shift_bands_between_low_high            0.000008           1

Profiling took   2.534172  0.839551  0.006452  0.006257 seconds
Profiling took   2.134663 seconds