 vasp.6.3.0 20Jan22 (build Apr  1 2022 16:44:48) complex
 executed on        HPECrayEX_GCC date 2022.12.11  05:45:17

 INCAR:
   SYSTEM = MgO-rocksalt
   ISMEAR = 0
   SIGMA = 0.05
   EDIFF = 1E-6
   ALGO = ALL
   ISTART = 0
   IBRION = -1
   NSW = 0
   ISYM = 2
   DIPOL = 0.5 0.5 0.5
   IDIPOL = 3
   LDIPOL = .TRUE.
   GGA = PS
   ENCUT = 520
   PREC = Accurate
   LASPH = .TRUE.
   LREAL = Auto
   ISPIN = 1
   NELM = 200
   NELMIN = 8
   NCORE = 4
   KPAR = 2
   LWAVE = .FALSE.
   LCHARG = .FALSE.

 POTCAR:    PAW_PBE Ag 02Apr2005
 POTCAR:    PAW_PBE Mg_pv 13Apr2007
 POTCAR:    PAW_PBE O 08Apr2002
 POTCAR:    PAW_PBE Ag 02Apr2005
   VRHFIN =Ag : s1 d10

   TITEL  = PAW_PBE Ag 02Apr2005
   POMASS =  107.868; ZVAL   =   11.000    mass and valenz
   ENMAX  =  249.844; ENMIN  =  187.383 eV

   TITEL  = PAW_PBE Mg_pv 13Apr2007
   POMASS =   24.305; ZVAL   =    8.000    mass and valenz
   ENMAX  =  403.929; ENMIN  =  302.947 eV

   TITEL  = PAW_PBE O 08Apr2002
   POMASS =   16.000; ZVAL   =    6.000    mass and valenz
   ENMAX  =  400.000; ENMIN  =  300.000 eV

 Optimization of the real space projectors (new method)

 maximal supplied QI-value         = 15.12
 optimisation between [QCUT,QGAM] = [ 11.64, 23.28] = [ 37.95,151.78] Ry
 Optimized for a Real-space Cutoff    1.45 Angstroem

   l    n(q)    QCUT    max X(q) W(low)/X(q) W(high)/X(q)  e(spline)
   2      9    11.641    53.897    0.22E-03    0.42E-04    0.28E-06
   2      9    11.641    52.416    0.23E-03    0.44E-04    0.29E-06
   0     10    11.641   122.045    0.51E-04    0.25E-04    0.16E-06
   0     10    11.641    73.629    0.49E-04    0.24E-04    0.16E-06
   1     10    11.641    15.255    0.99E-04    0.55E-04    0.11E-06
   1     10    11.641     9.562    0.81E-04    0.47E-04    0.95E-07
 Optimization of the real space projectors (new method)

[...]

   l    n(q)    QCUT    max X(q) W(low)/X(q) W(high)/X(q)  e(spline)
   1      8    11.527     2.974    0.44E-04    0.56E-04    0.12E-06
   1      8    11.527     4.279    0.12E-03    0.12E-03    0.26E-06
   0      9    11.527    16.381    0.46E-04    0.64E-04    0.78E-07
   0      9    11.527     5.611    0.26E-04    0.43E-04    0.55E-07
   2      8    11.527     4.652    0.22E-03    0.72E-04    0.47E-07
 Optimization of the real space projectors (new method)

 maximal supplied QI-value         = 24.76
 optimisation between [QCUT,QGAM] = [ 11.64, 23.27] = [ 37.91,151.63] Ry
 Optimized for a Real-space Cutoff    1.14 Angstroem

   l    n(q)    QCUT    max X(q) W(low)/X(q) W(high)/X(q)  e(spline)
   0      8    11.635    20.381    0.10E-03    0.33E-03    0.24E-06
   0      8    11.635    15.268    0.11E-03    0.35E-03    0.26E-06
   1      7    11.635     5.964    0.24E-03    0.31E-03    0.30E-06
   1      7    11.635     5.382    0.22E-03    0.25E-03    0.26E-06
|               ----> ADVICE to this user running VASP <----                  |
|     You enforced a specific xc type in the INCAR file but a different       |
|     type was found in the POTCAR file.                                      |
|     I HOPE YOU KNOW WHAT YOU ARE DOING!                                     |

  PAW_PBE Ag 02Apr2005                  :
  PAW_PBE Mg_pv 13Apr2007               :
  PAW_PBE O 08Apr2002                   :

 POSCAR: Ag Mg  O
  positions in direct lattice
 exchange correlation table for  LEXCH =       14
   RHO(1)=    0.500       N(1)  =     2000
   RHO(2)=  100.500       N(2)  =     4000

 ion  position               nearest neighbor table
   1  0.543  0.557  0.623-   2 2.59  58 2.97
   2  0.457  0.643  0.623-   1 2.59  58 2.97
   3  0.000  0.000  0.407- 105 2.11 106 2.11 121 2.11 186 2.11 103 2.11
   4  0.100  0.100  0.407- 105 2.11 106 2.11 110 2.11 125 2.11 104 2.11
   5  0.000  0.100  0.503- 103 2.11 104 2.11 107 2.11 184 2.11 105 2.11
   6  0.100  0.000  0.503- 103 2.11 104 2.11 120 2.11 123 2.11 106 2.11
   7  0.000  0.200  0.407- 109 2.11 105 2.11 110 2.11 190 2.11 107 2.11
   8  0.100  0.300  0.407- 110 2.11 109 2.11 114 2.11 129 2.11 108 2.11
   9  0.000  0.300  0.503- 107 2.11 108 2.11 111 2.11 188 2.11 109 2.11
  10  0.100  0.200  0.503- 108 2.11 107 2.11 104 2.11 127 2.11 110 2.11
  11  0.000  0.400  0.407- 109 2.11 113 2.11 114 2.11 194 2.11 111 2.11
  12  0.100  0.500  0.407- 113 2.11 114 2.11 118 2.11 133 2.11 112 2.11
  13  0.000  0.500  0.503- 111 2.11 112 2.11 115 2.11 192 2.11 113 2.11
  14  0.100  0.400  0.503- 108 2.11 111 2.11 112 2.11 131 2.11 114 2.11
  15  0.000  0.600  0.407- 113 2.11 117 2.11 118 2.11 198 2.11 115 2.11
  16  0.100  0.700  0.407- 122 2.11 118 2.11 117 2.11 137 2.11 116 2.11
  17  0.000  0.700  0.503- 119 2.11 116 2.11 115 2.11 196 2.11 117 2.11
  18  0.100  0.600  0.503- 112 2.11 115 2.11 116 2.11 135 2.11 118 2.11
  19  0.000  0.800  0.407- 117 2.11 121 2.11 122 2.11 202 2.11 119 2.11
  20  0.100  0.900  0.407- 106 2.11 121 2.11 122 2.11 141 2.11 120 2.11
  21  0.000  0.900  0.503- 103 2.11 119 2.11 120 2.11 200 2.11 121 2.11
  22  0.100  0.800  0.503- 116 2.11 119 2.11 120 2.11 139 2.11 122 2.11
  23  0.200  0.000  0.407- 126 2.11 125 2.11 106 2.11 141 2.11 123 2.11
  24  0.300  0.100  0.407- 125 2.11 126 2.11 130 2.11 145 2.11 124 2.11
  25  0.200  0.100  0.503- 124 2.11 123 2.11 104 2.11 127 2.11 125 2.11
  26  0.300  0.000  0.503- 123 2.11 124 2.11 140 2.11 143 2.11 126 2.11
  27  0.200  0.200  0.407- 129 2.11 130 2.11 110 2.11 125 2.11 127 2.11
  28  0.300  0.300  0.407- 129 2.11 130 2.11 134 2.11 149 2.11 128 2.11
  29  0.200  0.300  0.503- 127 2.11 128 2.11 108 2.11 131 2.11 129 2.11
  30  0.300  0.200  0.503- 127 2.11 128 2.11 124 2.11 147 2.11 130 2.11
  31  0.200  0.400  0.407- 134 2.11 129 2.11 133 2.11 114 2.11 131 2.11
  32  0.300  0.500  0.407- 133 2.11 134 2.11 138 2.11 153 2.11 132 2.11
  33  0.200  0.500  0.503- 132 2.11 131 2.11 112 2.11 135 2.11 133 2.11
  34  0.300  0.400  0.503- 131 2.11 128 2.11 132 2.11 151 2.11 134 2.11
  35  0.200  0.600  0.407- 138 2.11 133 2.11 137 2.11 118 2.11 135 2.11
  36  0.300  0.700  0.407- 137 2.11 142 2.11 138 2.11 157 2.11 136 2.11
  37  0.200  0.700  0.503- 136 2.11 139 2.11 116 2.11 135 2.11 137 2.11
  38  0.300  0.600  0.503- 135 2.11 132 2.11 136 2.11 155 2.11 138 2.11
  39  0.200  0.800  0.407- 137 2.11 142 2.11 141 2.11 122 2.11 139 2.11
  40  0.300  0.900  0.407- 141 2.11 126 2.11 142 2.11 161 2.11 140 2.11
  41  0.200  0.900  0.503- 140 2.11 123 2.11 139 2.11 120 2.11 141 2.11
  42  0.300  0.800  0.503- 136 2.11 139 2.11 140 2.11 159 2.11 142 2.11
  43  0.400  0.000  0.407- 126 2.11 145 2.11 146 2.11 161 2.11 143 2.11
  44  0.500  0.100  0.407- 145 2.11 146 2.11 150 2.11 165 2.11 144 2.11
  45  0.400  0.100  0.503- 124 2.11 143 2.11 144 2.11 147 2.11 145 2.11
  46  0.500  0.000  0.503- 143 2.11 144 2.11 160 2.11 163 2.11 146 2.11
  47  0.400  0.200  0.407- 149 2.11 145 2.11 130 2.11 150 2.11 147 2.11
  48  0.500  0.300  0.407- 150 2.11 149 2.11 154 2.11 169 2.11 148 2.11
  49  0.400  0.300  0.503- 147 2.11 128 2.11 148 2.11 151 2.11 149 2.11
  50  0.500  0.200  0.503- 148 2.11 147 2.11 144 2.11 167 2.11 150 2.11
  51  0.400  0.400  0.407- 134 2.11 149 2.11 153 2.11 154 2.11 151 2.11
  52  0.500  0.500  0.407- 153 2.11 154 2.11 158 2.11 173 2.11 152 2.11
  53  0.400  0.500  0.503- 132 2.11 151 2.11 152 2.11 155 2.11 153 2.11
  54  0.500  0.400  0.503- 148 2.11 151 2.11 152 2.11 171 2.11 154 2.11
  55  0.400  0.600  0.407- 138 2.11 153 2.11 157 2.11 158 2.11 155 2.11
  56  0.500  0.700  0.407- 162 2.11 158 2.11 157 2.11 177 2.11 156 2.11
  57  0.400  0.700  0.503- 159 2.11 155 2.11 156 2.11 136 2.11 157 2.11
  58  0.500  0.600  0.503- 152 2.11 155 2.11 156 2.11 175 2.11 158 2.11   2 2.97   1 2.97
  59  0.400  0.800  0.407- 157 2.11 142 2.11 161 2.11 162 2.11 159 2.11
  60  0.500  0.900  0.407- 146 2.11 161 2.11 162 2.11 181 2.11 160 2.11
[...]
 188  0.900  0.300  0.503-  90 2.11  89 2.11   9 2.11  94 2.11  88 2.11
 189  0.800  0.300  0.407-  68 2.11  87 2.11  88 2.11  91 2.11  89 2.11
 190  0.900  0.200  0.407-  88 2.11  84 2.11  87 2.11   7 2.11  90 2.11
 191  0.800  0.400  0.503-  74 2.11  89 2.11  93 2.11  94 2.11  91 2.11
 192  0.900  0.500  0.503-  13 2.11  93 2.11  94 2.11  98 2.11  92 2.11
 193  0.800  0.500  0.407-  72 2.11  91 2.11  92 2.11  95 2.11  93 2.11
 194  0.900  0.400  0.407-  11 2.11  88 2.11  91 2.11  92 2.11  94 2.11
 195  0.800  0.600  0.503-  78 2.11  93 2.11  97 2.11  98 2.11  95 2.11
 196  0.900  0.700  0.503- 102 2.11  97 2.11  98 2.11  17 2.11  96 2.11
 197  0.800  0.700  0.407-  76 2.11  99 2.11  96 2.11  95 2.11  97 2.11
 198  0.900  0.600  0.407-  15 2.11  92 2.11  95 2.11  96 2.11  98 2.11
 199  0.800  0.800  0.503-  82 2.11  97 2.11 101 2.11 102 2.11  99 2.11
 200  0.900  0.900  0.503-  21 2.11  86 2.11 101 2.11 102 2.11 100 2.11
 201  0.800  0.900  0.407-  80 2.11  83 2.11  99 2.11 100 2.11 101 2.11
 202  0.900  0.800  0.407-  96 2.11  19 2.11  99 2.11 100 2.11 102 2.11

  LATTYP: Found a simple tetragonal cell.
 ALAT       =    21.1388521970
 C/A-ratio  =     1.0461251639

  Lattice vectors:

 A1 = (  21.1388521970,   0.0000000000,   0.0000000000)
 A2 = (   0.0000000000,  21.1388521970,   0.0000000000)
 A3 = (   0.0000000000,   0.0000000000,  22.1138852197)

Analysis of symmetry for initial positions (statically):
 Subroutine PRICEL returns:
 Original cell was already a primitive cell.

 Routine SETGRP: Setting up the symmetry group for a
 simple tetragonal supercell.

 Subroutine GETGRP returns: Found  4 space group operations
 (whereof  1 operations were pure point group operations)
 out of a pool of 16 trial point group operations.

The static configuration has the point symmetry C_1 .
 The point group associated with its full space group is C_2v.

Analysis of symmetry for dynamics (positions and initial velocities):
 Subroutine PRICEL returns:
 Original cell was already a primitive cell.

 Routine SETGRP: Setting up the symmetry group for a
 simple tetragonal supercell.

 Subroutine GETGRP returns: Found  4 space group operations
 (whereof  1 operations were pure point group operations)
 out of a pool of 16 trial point group operations.

The dynamic configuration has the point symmetry C_1 .
 The point group associated with its full space group is C_2v.

 Subroutine INISYM returns: Found  4 space group operations
 (whereof  1 operations are pure point group operations),
 and found     1 'primitive' translations

                                     Primitive cell

  volume of cell :    9881.6133

  direct lattice vectors                    reciprocal lattice vectors
    21.138852197  0.000000000  0.000000000     0.047306258  0.000000000  0.000000000
     0.000000000 21.138852197  0.000000000     0.000000000  0.047306258  0.000000000
     0.000000000  0.000000000 22.113885220     0.000000000  0.000000000  0.045220457

  length of vectors
    21.138852197 21.138852197 22.113885220     0.047306258  0.047306258  0.045220457

  position of ions in fractional coordinates (direct lattice)
     0.543264150  0.556735814  0.623371474
     0.456735850  0.643264114  0.623371474
     0.000000000  0.000000000  0.406984115
     0.100000000  0.100000000  0.406984115
     0.000000000  0.100000000  0.502574971
     0.100000000  0.000000000  0.502574971
[...]
     52     -42.8139      2.00000
     53     -42.8136      2.00000
     54     -42.8134      2.00000
     55     -42.8133      2.00000
     56     -42.8121      2.00000
     57     -42.8117      2.00000
     58     -42.8116      2.00000
     59     -42.8112      2.00000
     60     -42.8106      2.00000
[...]
    882       5.0964      0.00000
    883       5.1614      0.00000
    884       5.2348      0.00000
    885       5.2924      0.00000
    886       5.2949      0.00000
    887       5.3785      0.00000
    888       5.4189      0.00000
    889       5.5050      0.00000
    890       5.5292      0.00000
    891       5.5490      0.00000
    892       5.5673      0.00000
    893       5.6040      0.00000
    894       5.6151      0.00000
    895       5.6206      0.00000
    896       5.6432      0.00000

 soft charge-density along one line, spin component           1
         0         1         2         3         4         5         6         7         8         9
 total charge-density along one line

------------------------ aborting loop because EDIFF is reached ----------------------------------------

  FORCE on cell =-STRESS in cart. coord.  units (eV):
  Direction    XX          YY          ZZ          XY          YZ          ZX
  Alpha Z  1357.53553  1357.53553  1357.53553
  Ewald  479540.84319479540.84319************  -342.47633     0.00001    -0.00001
  Hartree508143.62348508143.62348************  -247.36166     0.00000    -0.00002
  E(xc)   -7611.12114 -7611.12114 -7629.12214    -0.17005    -0.00000     0.00000
  Local  ************************************   584.35691    -0.00001     0.00003
  n-local -8820.86201 -8820.86202 -8939.83623     0.91515    -0.00000    -0.00000
  augment  3400.48368  3400.48368  3340.45568     1.30888     0.00000     0.00000
  Kinetic 22903.94287 22903.94290 23173.08181     3.28228    -0.00000    -0.00002
  Fock        0.00000     0.00000     0.00000     0.00000     0.00000     0.00000
  Total    -197.57810  -197.57810    -8.68412    -0.14483     0.00000     0.00000
  in kB     -32.03476   -32.03476    -1.40802    -0.02348     0.00000     0.00000

 VOLUME and BASIS-vectors are now :
  energy-cutoff  :      520.00
  volume of cell :     9881.61
      direct lattice vectors                 reciprocal lattice vectors
    21.138852197  0.000000000  0.000000000     0.047306258  0.000000000  0.000000000
     0.000000000 21.138852197  0.000000000     0.000000000  0.047306258  0.000000000
     0.000000000  0.000000000 22.113885220     0.000000000  0.000000000  0.045220457

  length of vectors
    21.138852197 21.138852197 22.113885220     0.047306258  0.047306258  0.045220457

 FORCES acting on ions:
    Electron-Ion                     Ewald-Force                    Non-Local-Force
   -.189E+03 0.189E+03 -.207E+04   0.184E+03 -.184E+03 0.206E+04   0.504E+01 -.504E+01 0.338E+00
   0.189E+03 -.189E+03 -.207E+04   -.184E+03 0.184E+03 0.206E+04   -.504E+01 0.504E+01 0.338E+00
   0.204E+00 -.345E+01 0.932E+03   -.207E+00 0.346E+01 -.923E+03   0.283E-02 -.284E-02 -.769E+01
   0.345E+01 -.204E+00 0.932E+03   -.346E+01 0.207E+00 -.923E+03   0.284E-02 -.283E-02 -.769E+01
   -.147E-07 -.187E-03 -.923E+03   0.103E-06 -.158E-05 0.915E+03   0.000E+00 0.000E+00 0.766E+01
   0.531E+01 -.531E+01 -.922E+03   -.532E+01 0.532E+01 0.914E+03   0.636E-02 -.636E-02 0.766E+01
   -.204E+00 0.345E+01 0.932E+03   0.207E+00 -.346E+01 -.923E+03   -.283E-02 0.284E-02 -.769E+01
   0.523E+01 0.671E+01 0.933E+03   -.523E+01 -.671E+01 -.925E+03   0.138E-02 0.465E-02 -.769E+01
   -.570E+00 0.716E+01 -.922E+03   0.579E+00 -.717E+01 0.914E+03   -.702E-02 0.359E-02 0.766E+01
   0.470E+01 0.470E+01 -.923E+03   -.470E+01 -.470E+01 0.915E+03   -.525E-03 -.525E-03 0.766E+01
   -.470E+00 0.613E+01 0.934E+03   0.479E+00 -.613E+01 -.926E+03   -.715E-02 0.492E-02 -.769E+01
   0.101E+02 0.518E+01 0.938E+03   -.102E+02 -.519E+01 -.930E+03   0.116E-01 0.815E-02 -.769E+01
   -.546E+00 0.501E+01 -.920E+03   0.555E+00 -.501E+01 0.912E+03   -.665E-02 0.231E-02 0.766E+01
   0.104E+02 0.967E+01 -.920E+03   -.104E+02 -.968E+01 0.912E+03   -.179E-02 0.552E-02 0.766E+01
   0.238E-06 -.190E-03 0.936E+03   -.147E-06 0.154E-05 -.928E+03   0.000E+00 0.000E+00 -.769E+01
   0.110E+02 -.464E+01 0.938E+03   -.110E+02 0.464E+01 -.930E+03   0.279E-01 -.130E-02 -.769E+01
   0.546E+00 -.501E+01 -.920E+03   -.555E+00 0.501E+01 0.912E+03   0.665E-02 -.231E-02 0.766E+01
   0.174E+02 0.747E+00 -.917E+03   -.174E+02 -.755E+00 0.909E+03   0.154E-01 0.599E-02 0.766E+01
   0.470E+00 -.613E+01 0.934E+03   -.479E+00 0.613E+01 -.926E+03   0.715E-02 -.492E-02 -.769E+01
   0.606E+01 -.704E+01 0.934E+03   -.607E+01 0.705E+01 -.926E+03   0.121E-01 -.865E-02 -.769E+01
   0.570E+00 -.716E+01 -.922E+03   -.579E+00 0.717E+01 0.914E+03   0.702E-02 -.359E-02 0.766E+01
   0.123E+02 -.980E+01 -.919E+03   -.124E+02 0.981E+01 0.911E+03   0.207E-01 -.462E-02 0.766E+01
   0.704E+01 -.606E+01 0.934E+03   -.705E+01 0.607E+01 -.926E+03   0.865E-02 -.121E-01 -.769E+01
   0.613E+01 -.471E+00 0.934E+03   -.613E+01 0.479E+00 -.926E+03   0.492E-02 -.715E-02 -.769E+01
   0.716E+01 -.570E+00 -.922E+03   -.717E+01 0.579E+00 0.914E+03   0.359E-02 -.702E-02 0.766E+01
   0.980E+01 -.123E+02 -.919E+03   -.981E+01 0.124E+02 0.911E+03   0.462E-02 -.207E-01 0.766E+01
   0.671E+01 0.523E+01 0.933E+03   -.671E+01 -.523E+01 -.925E+03   0.465E-02 0.138E-02 -.769E+01
   0.116E+02 0.148E+02 0.940E+03   -.116E+02 -.148E+02 -.932E+03   0.153E-01 0.191E-01 -.770E+01
   0.132E+02 0.132E+02 -.919E+03   -.132E+02 -.132E+02 0.911E+03   0.251E-02 0.251E-02 0.766E+01
   0.967E+01 0.104E+02 -.920E+03   -.968E+01 -.104E+02 0.912E+03   0.552E-02 -.179E-02 0.766E+01
   0.148E+02 0.116E+02 0.940E+03   -.148E+02 -.116E+02 -.932E+03   0.191E-01 0.153E-01 -.770E+01
   0.285E+02 0.160E+02 0.961E+03   -.286E+02 -.160E+02 -.953E+03   0.983E-01 0.487E-01 -.772E+01
   0.330E+02 0.140E+02 -.910E+03   -.330E+02 -.140E+02 0.902E+03   0.146E-01 0.179E-01 0.765E+01
   0.317E+02 0.317E+02 -.905E+03   -.317E+02 -.317E+02 0.897E+03   0.172E-01 0.172E-01 0.764E+01
   0.239E+02 0.113E+01 0.948E+03   -.240E+02 -.114E+01 -.940E+03   0.615E-01 0.135E-01 -.770E+01
   0.303E+02 -.142E+02 0.965E+03   -.304E+02 0.142E+02 -.957E+03   0.593E-01 -.261E-01 -.765E+01
   0.370E+02 -.119E+02 -.908E+03   -.371E+02 0.119E+02 0.900E+03   0.685E-01 0.380E-02 0.766E+01
   0.778E+02 0.816E+01 -.871E+03   -.781E+02 -.823E+01 0.863E+03   0.190E+00 0.564E-01 0.764E+01
   0.162E+02 -.119E+02 0.942E+03   -.163E+02 0.119E+02 -.934E+03   0.328E-01 -.183E-01 -.769E+01
   0.119E+02 -.162E+02 0.942E+03   -.119E+02 0.163E+02 -.934E+03   0.183E-01 -.328E-01 -.769E+01
   0.148E+02 -.148E+02 -.918E+03   -.148E+02 0.148E+02 0.910E+03   0.174E-01 -.174E-01 0.766E+01
   0.365E+02 -.365E+02 -.899E+03   -.366E+02 0.366E+02 0.891E+03   0.540E-01 -.540E-01 0.766E+01
   0.464E+01 -.110E+02 0.938E+03   -.464E+01 0.110E+02 -.930E+03   0.130E-02 -.279E-01 -.769E+01
   0.234E-06 -.184E-03 0.936E+03   -.140E-06 -.411E-05 -.928E+03   0.000E+00 0.000E+00 -.769E+01
   0.501E+01 -.546E+00 -.920E+03   -.501E+01 0.555E+00 0.912E+03   0.231E-02 -.665E-02 0.766E+01
   -.747E+00 -.174E+02 -.917E+03   0.755E+00 0.174E+02 0.909E+03   -.599E-02 -.154E-01 0.766E+01
   0.518E+01 0.101E+02 0.938E+03   -.519E+01 -.102E+02 -.930E+03   0.815E-02 0.116E-01 -.769E+01
   0.113E+01 0.239E+02 0.948E+03   -.114E+01 -.240E+02 -.940E+03   0.135E-01 0.615E-01 -.770E+01
   0.140E+02 0.330E+02 -.910E+03   -.140E+02 -.330E+02 0.902E+03   0.179E-01 0.146E-01 0.765E+01
   0.747E+00 0.174E+02 -.917E+03   -.755E+00 -.174E+02 0.909E+03   0.599E-02 0.154E-01 0.766E+01
   0.160E+02 0.285E+02 0.961E+03   -.160E+02 -.286E+02 -.953E+03   0.487E-01 0.983E-01 -.772E+01
   0.306E+01 0.302E+02 0.100E+04   -.301E+01 -.303E+02 -.994E+03   -.370E-01 0.805E-01 -.744E+01
   0.691E+02 0.691E+02 -.838E+03   -.694E+02 -.694E+02 0.830E+03   0.209E+00 0.209E+00 0.745E+01
   0.816E+01 0.778E+02 -.871E+03   -.823E+01 -.781E+02 0.863E+03   0.564E-01 0.190E+00 0.764E+01
   0.302E+02 0.306E+01 0.100E+04   -.303E+02 -.301E+01 -.994E+03   0.805E-01 -.370E-01 -.744E+01
   -.306E+01 -.302E+02 0.100E+04   0.301E+01 0.303E+02 -.994E+03   0.370E-01 -.805E-01 -.744E+01
   0.754E+02 -.755E+02 -.795E+03   -.756E+02 0.756E+02 0.788E+03   0.729E-01 -.729E-01 0.712E+01
   -.208E-04 -.242E-03 -.667E+03   0.210E-04 0.517E-04 0.662E+03   0.000E+00 0.000E+00 0.475E+01
   0.142E+02 -.303E+02 0.965E+03   -.142E+02 0.304E+02 -.957E+03   0.261E-01 -.593E-01 -.765E+01
   -.113E+01 -.239E+02 0.948E+03   0.114E+01 0.240E+02 -.940E+03   -.135E-01 -.615E-01 -.770E+01
[...]
   -.793E+01 0.792E+01 0.704E+03   0.794E+01 -.794E+01 -.708E+03   -.191E-01 0.191E-01 0.356E+01
   -.316E+01 0.316E+01 0.701E+03   0.316E+01 -.316E+01 -.705E+03   -.705E-02 0.705E-02 0.356E+01
   -.189E+02 0.133E+02 -.686E+03   0.189E+02 -.134E+02 0.690E+03   -.359E-01 0.227E-01 -.360E+01
   -.122E+02 0.463E+01 -.689E+03   0.123E+02 -.463E+01 0.693E+03   -.194E-01 -.257E-03 -.361E+01
   -.165E+02 0.572E+01 0.712E+03   0.166E+02 -.573E+01 -.716E+03   -.516E-01 0.743E-02 0.357E+01
   -.651E+01 0.558E+01 0.704E+03   0.652E+01 -.559E+01 -.708E+03   -.189E-01 0.986E-02 0.356E+01
   -.306E+02 -.184E+01 -.681E+03   0.306E+02 0.186E+01 0.685E+03   -.383E-01 -.254E-01 -.363E+01
   -.110E+02 -.527E+01 -.690E+03   0.110E+02 0.528E+01 0.694E+03   -.645E-02 -.966E-02 -.361E+01
   -.154E+02 -.664E+01 0.710E+03   0.155E+02 0.665E+01 -.714E+03   -.272E-01 -.233E-01 0.355E+01
   -.874E+01 -.324E+00 0.706E+03   0.875E+01 0.328E+00 -.710E+03   -.173E-01 -.696E-02 0.356E+01
   -.163E+02 -.125E+02 -.688E+03   0.163E+02 0.126E+02 0.692E+03   -.855E-02 -.114E-01 -.362E+01
   -.510E+01 -.636E+01 -.693E+03   0.510E+01 0.636E+01 0.697E+03   0.854E-03 -.317E-02 -.360E+01
   -.730E+01 -.730E+01 0.703E+03   0.730E+01 0.730E+01 -.707E+03   -.885E-02 -.885E-02 0.356E+01
   -.568E+01 -.557E+01 0.703E+03   0.568E+01 0.557E+01 -.707E+03   -.399E-02 -.859E-02 0.356E+01
   -.148E-04 -.110E+00 0.811E+01   0.753E-12 0.270E-12 0.830E-11   -.631E-15 -.231E-15 -.855E+01

 POSITION                                       TOTAL-FORCE (eV/Angst)
     11.48398     11.76876     13.78517        -0.159554      0.159554     -0.102067
      9.65487     13.59787     13.78517         0.159554     -0.159554     -0.102067
      0.00000      0.00000      9.00000        -0.000776      0.000791      0.442571
      2.11389      2.11389      9.00000        -0.000791      0.000776      0.442571
      0.00000      2.11389     11.11389        -0.000000      0.000000     -0.435468
      2.11389      0.00000     11.11389        -0.001749      0.001749     -0.435319
      0.00000      4.22777      9.00000         0.000776     -0.000791      0.442571
      2.11389      6.34166      9.00000        -0.000377     -0.001285      0.443075
      0.00000      6.34166     11.11389         0.001912     -0.000990     -0.434990
      2.11389      4.22777     11.11389         0.000166      0.000166     -0.435042
      0.00000      8.45554      9.00000         0.001893     -0.001406      0.442879
      2.11389     10.56943      9.00000        -0.003223     -0.002342      0.443503
      0.00000     10.56943     11.11389         0.001776     -0.000651     -0.434039
      2.11389      8.45554     11.11389         0.000649     -0.001473     -0.433392
      0.00000     12.68331      9.00000        -0.000000      0.000000      0.443110
      2.11389     14.79720      9.00000        -0.007316      0.000393      0.443322
      0.00000     14.79720     11.11389        -0.001776      0.000651     -0.434039
      2.11389     12.68331     11.11389        -0.003802     -0.001806     -0.432821
      0.00000     16.91108      9.00000        -0.001893      0.001406      0.442879
      2.11389     19.02497      9.00000        -0.003321      0.002447      0.442438
      0.00000     19.02497     11.11389        -0.001912      0.000990     -0.434990
      2.11389     16.91108     11.11389        -0.005562      0.001367     -0.434397
      4.22777      0.00000      9.00000        -0.002447      0.003321      0.442438
      6.34166      2.11389      9.00000        -0.001406      0.001893      0.442879
      4.22777      2.11389     11.11389        -0.000990      0.001912     -0.434990
      6.34166      0.00000     11.11389        -0.001367      0.005562     -0.434397
      4.22777      4.22777      9.00000        -0.001285     -0.000377      0.443075
      6.34166      6.34166      9.00000        -0.004250     -0.005214      0.444745
      4.22777      6.34166     11.11389        -0.000505     -0.000505     -0.432663
      6.34166      4.22777     11.11389        -0.001473      0.000649     -0.433392
      4.22777      8.45554      9.00000        -0.005214     -0.004250      0.444745
      6.34166     10.56943      9.00000        -0.027887     -0.015574      0.449033
      4.22777     10.56943     11.11389        -0.002666     -0.004974     -0.427521
      6.34166      8.45554     11.11389        -0.003036     -0.003036     -0.420489
      4.22777     12.68331      9.00000        -0.016903     -0.004189      0.444886
      6.34166     14.79720      9.00000        -0.016864      0.008651      0.429828
      4.22777     14.79720     11.11389        -0.020530     -0.001196     -0.430509
      6.34166     12.68331     11.11389        -0.063046     -0.015271     -0.404335
      4.22777     16.91108      9.00000        -0.009238      0.005548      0.441874
      6.34166     19.02497      9.00000        -0.005548      0.009238      0.441874
      4.22777     19.02497     11.11389        -0.004803      0.004803     -0.434666
      6.34166     16.91108     11.11389        -0.014200      0.014200     -0.430706
      8.45554      0.00000      9.00000        -0.000393      0.007316      0.443322
     10.56943      2.11389      9.00000        -0.000000      0.000000      0.443110
      8.45554      2.11389     11.11389        -0.000651      0.001776     -0.434039
     10.56943      0.00000     11.11389         0.001806      0.003802     -0.432821
      8.45554      4.22777      9.00000        -0.002342     -0.003223      0.443503
     10.56943      6.34166      9.00000        -0.004189     -0.016903      0.444886
      8.45554      6.34166     11.11389        -0.004974     -0.002666     -0.427521
     10.56943      4.22777     11.11389        -0.001806     -0.003802     -0.432821
      8.45554      8.45554      9.00000        -0.015574     -0.027887      0.449033
     10.56943     10.56943      9.00000         0.014805     -0.021977      0.365802
      8.45554     10.56943     11.11389        -0.037408     -0.037408     -0.279602
     10.56943      8.45554     11.11389        -0.015271     -0.063046     -0.404335
      8.45554     12.68331      9.00000        -0.021977      0.014805      0.365802
     10.56943     14.79720      9.00000        -0.014805      0.021977      0.365802
      8.45554     14.79720     11.11389        -0.067385      0.067385     -0.478817
     10.56943     12.68331     11.11389        -0.000000      0.000000     -0.085493
      8.45554     16.91108      9.00000        -0.008651      0.016864      0.429828
     10.56943     19.02497      9.00000         0.004189      0.016903      0.444886
[...]
     19.02497      6.34166     11.11389        -0.003560      0.002734      0.402291
     16.91108      6.34166      9.00000        -0.005332      0.005332     -0.409880
     19.02497      4.22777      9.00000        -0.001962      0.001962     -0.410126
     16.91108      8.45554     11.11389        -0.010396      0.006631      0.401366
     19.02497     10.56943     11.11389        -0.005495     -0.000038      0.400613
     16.91108     10.56943      9.00000        -0.015191      0.002288     -0.407660
     19.02497      8.45554      9.00000        -0.005285      0.002800     -0.410215
     16.91108     12.68331     11.11389        -0.011568     -0.007157      0.394975
     19.02497     14.79720     11.11389        -0.001865     -0.002691      0.399674
     16.91108     14.79720      9.00000        -0.008272     -0.006706     -0.413481
     19.02497     12.68331      9.00000        -0.004931     -0.001905     -0.411031
     16.91108     16.91108     11.11389        -0.002652     -0.003321      0.396854
     19.02497     19.02497     11.11389         0.000204     -0.000913      0.401515
     16.91108     19.02497      9.00000        -0.002535     -0.002535     -0.411416
     19.02497     16.91108      9.00000        -0.001171     -0.002442     -0.411065
    total drift:                               -0.000015     -0.109717     -0.443224

  FREE ENERGIE OF THE ION-ELECTRON SYSTEM (eV)
  free  energy   TOTEN  =     -1190.85832556 eV

  energy  without entropy=    -1190.85832556  energy(sigma->0) =    -1190.85832556