 vasp.6.3.0 20Jan22 (build Apr  1 2022 16:44:48) complex
 executed on        HPECrayEX_GCC date 2023.01.16  04:27:11

 INCAR:
   SYSTEM = MgO-rocksalt
   ISMEAR = 0
   SIGMA = 0.05
   EDIFF = 1E-6
   ALGO = ALL
   ISTART = 0
   IBRION = -1
   NSW = 0
   ISYM = 2
   DIPOL = 0.5 0.5 0.5
   IDIPOL = 3
   LDIPOL = .TRUE.
   LHFCALC = .TRUE.
   HFSCREEN = 0.2
   GGA = PE
   ENCUT = 520
   PREC = Accurate
   LASPH = .TRUE.
   LREAL = Auto
   ISPIN = 1
   NELM = 200
   NELMIN = 8
   NCORE = 4
   KPAR = 2
   LWAVE = .FALSE.
   LCHARG = .FALSE.

 POTCAR:    PAW_PBE Ag 02Apr2005
 POTCAR:    PAW_PBE Mg_pv 13Apr2007
 POTCAR:    PAW_PBE O 08Apr2002
|           W    W    AA    RRRRR   N    N  II  N    N   GGGG   !!!           |
|           W    W   A  A   R    R  NN   N  II  NN   N  G    G  !!!           |
|           W    W  A    A  R    R  N N  N  II  N N  N  G       !!!           |
|           W WW W  AAAAAA  RRRRR   N  N N  II  N  N N  G  GGG   !            |
|           WW  WW  A    A  R   R   N   NN  II  N   NN  G    G                |
|           W    W  A    A  R    R  N    N  II  N    N   GGGG   !!!           |
|     You have selected ISYM=2 for a HF type calculation. This will           |
|     symmetrize the charge density but not the exchange potential. I         |
|     suggest to use ISYM=3 instead. This uses symmetry to obtain the         |
|     orbitals at all k-points in the Brillouin zone, but does not apply      |
|     symmetry to the Hartree potential directly. The resultant charge        |
|     might have lower symmetry than the crystal but, at least, Hartree       |
|     and exchange are fully compatible.                                      |

   TITEL  = PAW_PBE Ag 02Apr2005
   POMASS =  107.868; ZVAL   =   11.000    mass and valenz
   ENMAX  =  249.844; ENMIN  =  187.383 eV

   TITEL  = PAW_PBE Mg_pv 13Apr2007
   POMASS =   24.305; ZVAL   =    8.000    mass and valenz
   ENMAX  =  403.929; ENMIN  =  302.947 eV

   TITEL  = PAW_PBE O 08Apr2002
   POMASS =   16.000; ZVAL   =    6.000    mass and valenz
   ENMAX  =  400.000; ENMIN  =  300.000 eV

 Optimization of the real space projectors (new method)

 maximal supplied QI-value         = 15.12
 optimisation between [QCUT,QGAM] = [ 11.64, 23.28] = [ 37.95,151.78] Ry
 Optimized for a Real-space Cutoff    1.45 Angstroem

   l    n(q)    QCUT    max X(q) W(low)/X(q) W(high)/X(q)  e(spline)
   2      9    11.641    53.897    0.22E-03    0.42E-04    0.28E-06
   2      9    11.641    52.416    0.23E-03    0.44E-04    0.29E-06
   0     10    11.641   122.045    0.51E-04    0.25E-04    0.16E-06
   0     10    11.641    73.629    0.49E-04    0.24E-04    0.16E-06
   1     10    11.641    15.255    0.99E-04    0.55E-04    0.11E-06
   1     10    11.641     9.562    0.81E-04    0.47E-04    0.95E-07
 Optimization of the real space projectors (new method)

[...]

   l    n(q)    QCUT    max X(q) W(low)/X(q) W(high)/X(q)  e(spline)
   1      8    11.527     2.974    0.44E-04    0.56E-04    0.12E-06
   1      8    11.527     4.279    0.12E-03    0.12E-03    0.26E-06
   0      9    11.527    16.381    0.46E-04    0.64E-04    0.78E-07
   0      9    11.527     5.611    0.26E-04    0.43E-04    0.55E-07
   2      8    11.527     4.652    0.22E-03    0.72E-04    0.47E-07
 Optimization of the real space projectors (new method)

 maximal supplied QI-value         = 24.76
 optimisation between [QCUT,QGAM] = [ 11.64, 23.27] = [ 37.91,151.63] Ry
 Optimized for a Real-space Cutoff    1.14 Angstroem

   l    n(q)    QCUT    max X(q) W(low)/X(q) W(high)/X(q)  e(spline)
   0      8    11.635    20.381    0.10E-03    0.33E-03    0.24E-06
   0      8    11.635    15.268    0.11E-03    0.35E-03    0.26E-06
   1      7    11.635     5.964    0.24E-03    0.31E-03    0.30E-06
   1      7    11.635     5.382    0.22E-03    0.25E-03    0.26E-06
  PAW_PBE Ag 02Apr2005                  :
  PAW_PBE Mg_pv 13Apr2007               :
  PAW_PBE O 08Apr2002                   :

 POSCAR: Ag Mg  O
  positions in direct lattice
  velocities in cartesian coordinates
 exchange correlation table for  LEXCH =        8
   RHO(1)=    0.500       N(1)  =     2000
   RHO(2)=  100.500       N(2)  =     4000

 ion  position               nearest neighbor table
   1  0.286  0.505  0.630-   2 2.73   3 2.73
   2  0.398  0.441  0.622-   3 2.68   4 2.73   1 2.73 153 2.78  55 2.91
   3  0.398  0.568  0.615- 157 2.59   2 2.68   1 2.73   4 2.73  55 2.88
   4  0.510  0.505  0.629-   2 2.73   3 2.73
   5  0.000  0.000  0.407- 107 2.11 108 2.11 123 2.11 188 2.11 105 2.11
   6  0.100  0.100  0.407- 107 2.11 108 2.11 112 2.11 127 2.11 106 2.11
   7  0.000  0.100  0.503- 105 2.11 106 2.11 109 2.11 186 2.11 107 2.11
   8  0.100  0.000  0.503- 105 2.11 106 2.11 122 2.11 125 2.11 108 2.11
   9  0.000  0.200  0.407- 111 2.11 107 2.11 112 2.11 192 2.11 109 2.11
  10  0.100  0.300  0.407- 112 2.11 111 2.11 116 2.11 131 2.11 110 2.11
  11  0.000  0.300  0.503- 109 2.11 110 2.11 113 2.11 190 2.11 111 2.11
  12  0.100  0.200  0.503- 110 2.11 109 2.11 106 2.11 129 2.11 112 2.11
  13  0.000  0.400  0.407- 111 2.11 115 2.11 116 2.11 196 2.11 113 2.11
  14  0.100  0.500  0.407- 115 2.11 116 2.11 120 2.11 135 2.11 114 2.11
  15  0.000  0.500  0.503- 113 2.11 114 2.11 117 2.11 194 2.11 115 2.11
  16  0.100  0.400  0.503- 110 2.11 113 2.11 114 2.11 133 2.11 116 2.11
  17  0.000  0.600  0.407- 115 2.11 119 2.11 120 2.11 200 2.11 117 2.11
  18  0.100  0.700  0.407- 124 2.11 120 2.11 119 2.11 139 2.11 118 2.11
  19  0.000  0.700  0.503- 121 2.11 118 2.11 117 2.11 198 2.11 119 2.11
  20  0.100  0.600  0.503- 114 2.11 117 2.11 118 2.11 137 2.11 120 2.11
  21  0.000  0.800  0.407- 119 2.11 123 2.11 124 2.11 204 2.11 121 2.11
  22  0.100  0.900  0.407- 108 2.11 123 2.11 124 2.11 143 2.11 122 2.11
  23  0.000  0.900  0.503- 105 2.11 121 2.11 122 2.11 202 2.11 123 2.11
  24  0.100  0.800  0.503- 118 2.11 121 2.11 122 2.11 141 2.11 124 2.11
  25  0.200  0.000  0.407- 128 2.11 127 2.11 108 2.11 143 2.11 125 2.11
  26  0.300  0.100  0.407- 127 2.11 128 2.11 132 2.11 147 2.11 126 2.11
  27  0.200  0.100  0.503- 126 2.11 125 2.11 106 2.11 129 2.11 127 2.11
  28  0.300  0.000  0.503- 125 2.11 126 2.11 142 2.11 145 2.11 128 2.11
  29  0.200  0.200  0.407- 131 2.11 132 2.11 112 2.11 127 2.11 129 2.11
  30  0.300  0.300  0.407- 131 2.11 132 2.11 136 2.11 151 2.11 130 2.11
  31  0.200  0.300  0.503- 129 2.11 130 2.11 110 2.11 133 2.11 131 2.11
  32  0.300  0.200  0.503- 129 2.11 130 2.11 126 2.11 149 2.11 132 2.11
  33  0.200  0.400  0.407- 136 2.11 131 2.11 135 2.11 116 2.11 133 2.11
  34  0.300  0.500  0.407- 135 2.11 136 2.11 140 2.11 155 2.11 134 2.11
  35  0.200  0.500  0.503- 134 2.11 133 2.11 114 2.11 137 2.11 135 2.11
  36  0.300  0.400  0.503- 133 2.11 130 2.11 134 2.11 153 2.11 136 2.11
  37  0.200  0.600  0.407- 140 2.11 135 2.11 139 2.11 120 2.11 137 2.11
  38  0.300  0.700  0.407- 139 2.11 144 2.11 140 2.11 159 2.11 138 2.11
  39  0.200  0.700  0.503- 138 2.11 141 2.11 118 2.11 137 2.11 139 2.11
  40  0.300  0.600  0.503- 137 2.11 134 2.11 138 2.11 157 2.11 140 2.11
  41  0.200  0.800  0.407- 139 2.11 144 2.11 143 2.11 124 2.11 141 2.11
  42  0.300  0.900  0.407- 143 2.11 128 2.11 144 2.11 163 2.11 142 2.11
  43  0.200  0.900  0.503- 142 2.11 125 2.11 141 2.11 122 2.11 143 2.11
  44  0.300  0.800  0.503- 138 2.11 141 2.11 142 2.11 161 2.11 144 2.11
  45  0.400  0.000  0.407- 128 2.11 147 2.11 148 2.11 163 2.11 145 2.11
  46  0.500  0.100  0.407- 147 2.11 148 2.11 152 2.11 167 2.11 146 2.11
  47  0.400  0.100  0.503- 126 2.11 145 2.11 146 2.11 149 2.11 147 2.11
  48  0.500  0.000  0.503- 145 2.11 146 2.11 162 2.11 165 2.11 148 2.11
  49  0.400  0.200  0.407- 151 2.11 147 2.11 132 2.11 152 2.11 149 2.11
  50  0.500  0.300  0.407- 152 2.11 151 2.11 156 2.11 171 2.11 150 2.11
  51  0.400  0.300  0.503- 149 2.11 130 2.11 150 2.11 153 2.11 151 2.11
  52  0.500  0.200  0.503- 150 2.11 149 2.11 146 2.11 169 2.11 152 2.11
  53  0.400  0.400  0.407- 136 2.11 151 2.11 155 2.11 156 2.11 153 2.11
  54  0.500  0.500  0.407- 155 2.11 156 2.11 160 2.11 175 2.11 154 2.11
  55  0.400  0.500  0.503- 134 2.11 153 2.11 154 2.11 157 2.11 155 2.11   3 2.88   2 2.91
  56  0.500  0.400  0.503- 150 2.11 153 2.11 154 2.11 173 2.11 156 2.11
  57  0.400  0.600  0.407- 140 2.11 155 2.11 159 2.11 160 2.11 157 2.11
  58  0.500  0.700  0.407- 164 2.11 160 2.11 159 2.11 179 2.11 158 2.11
  59  0.400  0.700  0.503- 161 2.11 157 2.11 158 2.11 138 2.11 159 2.11
  60  0.500  0.600  0.503- 154 2.11 157 2.11 158 2.11 177 2.11 160 2.11
[...]
 190  0.900  0.300  0.503-  92 2.11  91 2.11  11 2.11  96 2.11  90 2.11
 191  0.800  0.300  0.407-  70 2.11  89 2.11  90 2.11  93 2.11  91 2.11
 192  0.900  0.200  0.407-  90 2.11  86 2.11  89 2.11   9 2.11  92 2.11
 193  0.800  0.400  0.503-  76 2.11  91 2.11  95 2.11  96 2.11  93 2.11
 194  0.900  0.500  0.503-  15 2.11  95 2.11  96 2.11 100 2.11  94 2.11
 195  0.800  0.500  0.407-  74 2.11  93 2.11  94 2.11  97 2.11  95 2.11
 196  0.900  0.400  0.407-  13 2.11  90 2.11  93 2.11  94 2.11  96 2.11
 197  0.800  0.600  0.503-  80 2.11  95 2.11  99 2.11 100 2.11  97 2.11
 198  0.900  0.700  0.503- 104 2.11  99 2.11 100 2.11  19 2.11  98 2.11
 199  0.800  0.700  0.407-  78 2.11 101 2.11  98 2.11  97 2.11  99 2.11
 200  0.900  0.600  0.407-  17 2.11  94 2.11  97 2.11  98 2.11 100 2.11
 201  0.800  0.800  0.503-  84 2.11  99 2.11 103 2.11 104 2.11 101 2.11
 202  0.900  0.900  0.503-  23 2.11  88 2.11 103 2.11 104 2.11 102 2.11
 203  0.800  0.900  0.407-  82 2.11  85 2.11 101 2.11 102 2.11 103 2.11
 204  0.900  0.800  0.407-  98 2.11  21 2.11 101 2.11 102 2.11 104 2.11

  LATTYP: Found a simple tetragonal cell.
 ALAT       =    21.1388521970
 C/A-ratio  =     1.0461251639

  Lattice vectors:

 A1 = (  21.1388521970,   0.0000000000,   0.0000000000)
 A2 = (   0.0000000000,  21.1388521970,   0.0000000000)
 A3 = (   0.0000000000,   0.0000000000,  22.1138852197)

Analysis of symmetry for initial positions (statically):
 Subroutine PRICEL returns:
 Original cell was already a primitive cell.

 Routine SETGRP: Setting up the symmetry group for a
 simple tetragonal supercell.

 Subroutine GETGRP returns: Found  1 space group operations
 (whereof  1 operations were pure point group operations)
 out of a pool of 16 trial point group operations.

The static configuration has the point symmetry C_1 .

Analysis of symmetry for dynamics (positions and initial velocities):
 Subroutine PRICEL returns:
 Original cell was already a primitive cell.

[...]

The dynamic configuration has the point symmetry C_1 .

Analysis of constrained symmetry for selective dynamics:
 Subroutine PRICEL returns:
 Original cell was already a primitive cell.

 Routine SETGRP: Setting up the symmetry group for a
 simple tetragonal supercell.

 Subroutine GETGRP returns: Found  1 space group operations
 (whereof  1 operations were pure point group operations)
 out of a pool of 16 trial point group operations.

The constrained configuration has the point symmetry C_1 .

 Subroutine INISYM returns: Found  1 space group operations
 (whereof  1 operations are pure point group operations),
 and found     1 'primitive' translations

[...]
     22     -46.6453      2.00000
     23     -46.6391      2.00000
     24     -46.6368      2.00000
     25     -46.6284      2.00000
     26     -46.6278      2.00000
     27     -46.6196      2.00000
     28     -46.6169      2.00000
     29     -46.6153      2.00000
     30     -46.6124      2.00000
     31     -46.6075      2.00000
     32     -46.6056      2.00000
     33     -46.6037      2.00000
     34     -46.6027      2.00000
     35     -46.6014      2.00000
     36     -46.5996      2.00000
     37     -46.5984      2.00000
     38     -46.5963      2.00000
     39     -46.5946      2.00000
     40     -46.5932      2.00000
     41     -46.5923      2.00000
     42     -46.5918      2.00000
     43     -46.5914      2.00000
     44     -46.5906      2.00000
     45     -46.5895      2.00000
     46     -46.5889      2.00000
     47     -46.5869      2.00000
     48     -46.5868      2.00000
     49     -46.5846      2.00000
     50     -46.5836      2.00000
     51     -46.5830      2.00000
     52     -46.5814      2.00000
     53     -46.5810      2.00000
     54     -46.5800      2.00000
     55     -46.5799      2.00000
     56     -46.5797      2.00000
     57     -46.5786      2.00000
     58     -46.5766      2.00000
     59     -46.5752      2.00000
     60     -46.5748      2.00000
[...]
   1010       7.2810      0.00000
   1011       7.2967      0.00000
   1012       7.3518      0.00000
   1013       7.4985      0.00000
   1014       7.5274      0.00000
   1015       7.5553      0.00000
   1016       7.6772      0.00000
   1017       7.7039      0.00000
   1018       7.7347      0.00000
   1019       7.8092      0.00000
   1020       7.9578      0.00000
   1021       7.9919      0.00000
   1022       8.0302      0.00000
   1023       8.0746      0.00000
   1024       8.1081      0.00000

 soft charge-density along one line, spin component           1
         0         1         2         3         4         5         6         7         8         9
 total charge-density along one line

------------------------ aborting loop because EDIFF is reached ----------------------------------------

 VOLUME and BASIS-vectors are now :
  energy-cutoff  :      520.00
  volume of cell :     9881.61
      direct lattice vectors                 reciprocal lattice vectors
    21.138852197  0.000000000  0.000000000     0.047306258  0.000000000  0.000000000
     0.000000000 21.138852197  0.000000000     0.000000000  0.047306258  0.000000000
     0.000000000  0.000000000 22.113885220     0.000000000  0.000000000  0.045220457

  length of vectors
    21.138852197 21.138852197 22.113885220     0.047306258  0.047306258  0.045220457

 FORCES acting on ions:
    Electron-Ion                     Ewald-Force                    Non-Local-Force
   0.480E+03 -.318E+01 -.207E+04   -.474E+03 0.321E+01 0.207E+04   -.608E+01 -.329E-01 0.416E-01
   0.199E+01 0.478E+03 -.206E+04   -.191E+01 -.471E+03 0.206E+04   -.695E-01 -.711E+01 0.528E-01
   -.109E+01 -.473E+03 -.205E+04   0.107E+01 0.466E+03 0.205E+04   0.323E-01 0.669E+01 -.209E+00
   -.481E+03 -.534E+00 -.207E+04   0.475E+03 0.553E+00 0.207E+04   0.618E+01 -.330E-01 -.682E-01
   0.656E+01 -.442E+00 0.937E+03   -.659E+01 0.445E+00 -.929E+03   0.154E-01 -.182E-02 -.718E+01
   0.126E+02 0.111E+02 0.941E+03   -.127E+02 -.111E+02 -.933E+03   0.322E-01 -.570E-03 -.718E+01
   0.948E+01 0.103E+02 -.919E+03   -.951E+01 -.103E+02 0.910E+03   0.163E-01 -.925E-02 0.713E+01
   0.134E+02 -.781E+00 -.918E+03   -.134E+02 0.786E+00 0.909E+03   0.278E-01 -.285E-02 0.713E+01
   0.107E+02 0.145E+02 0.942E+03   -.108E+02 -.145E+02 -.933E+03   0.214E-01 -.898E-02 -.719E+01
   0.290E+02 0.252E+02 0.957E+03   -.291E+02 -.251E+02 -.949E+03   0.708E-01 -.664E-02 -.721E+01
   0.229E+02 0.221E+02 -.911E+03   -.229E+02 -.221E+02 0.903E+03   0.122E-01 -.214E-01 0.712E+01
   0.259E+02 0.293E+02 -.911E+03   -.260E+02 -.292E+02 0.902E+03   0.484E-01 -.203E-01 0.712E+01
   0.213E+02 0.114E+02 0.952E+03   -.213E+02 -.114E+02 -.944E+03   0.257E-01 -.720E-02 -.720E+01
   0.473E+02 0.111E+01 0.976E+03   -.474E+02 -.112E+01 -.967E+03   0.882E-01 0.415E-02 -.724E+01
   0.382E+02 0.890E+00 -.903E+03   -.382E+02 -.892E+00 0.895E+03   -.143E-01 0.126E-02 0.711E+01
   0.719E+02 0.329E+02 -.884E+03   -.719E+02 -.328E+02 0.876E+03   0.274E-01 -.358E-01 0.708E+01
   0.218E+02 -.105E+02 0.953E+03   -.218E+02 0.105E+02 -.944E+03   0.287E-01 0.102E-01 -.720E+01
   0.303E+02 -.251E+02 0.959E+03   -.304E+02 0.251E+02 -.950E+03   0.847E-01 0.829E-02 -.721E+01
   0.239E+02 -.220E+02 -.911E+03   -.240E+02 0.220E+02 0.902E+03   0.145E-01 0.225E-01 0.712E+01
   0.747E+02 -.309E+02 -.882E+03   -.748E+02 0.308E+02 0.874E+03   0.322E-01 0.395E-01 0.708E+01
   0.112E+02 -.150E+02 0.942E+03   -.112E+02 0.150E+02 -.934E+03   0.250E-01 0.781E-02 -.719E+01
   0.130E+02 -.122E+02 0.942E+03   -.131E+02 0.123E+02 -.933E+03   0.361E-01 -.523E-02 -.718E+01
   0.982E+01 -.113E+02 -.918E+03   -.985E+01 0.112E+02 0.910E+03   0.179E-01 0.696E-02 0.713E+01
   0.274E+02 -.306E+02 -.910E+03   -.275E+02 0.306E+02 0.902E+03   0.572E-01 0.194E-01 0.712E+01
   0.112E+02 -.838E+00 0.942E+03   -.112E+02 0.846E+00 -.934E+03   0.318E-01 -.579E-02 -.718E+01
   0.854E+01 0.195E+02 0.949E+03   -.858E+01 -.196E+02 -.940E+03   0.276E-01 0.368E-01 -.718E+01
   0.174E+02 0.217E+02 -.913E+03   -.174E+02 -.218E+02 0.904E+03   0.394E-01 0.101E-01 0.713E+01
   0.894E+01 -.145E+01 -.913E+03   -.897E+01 0.146E+01 0.905E+03   0.221E-01 -.828E-02 0.713E+01
   0.207E+02 0.305E+02 0.956E+03   -.208E+02 -.305E+02 -.947E+03   0.677E-01 0.268E-01 -.719E+01
   0.247E+02 0.559E+02 0.995E+03   -.249E+02 -.561E+02 -.987E+03   0.132E+00 0.115E+00 -.715E+01
   0.597E+02 0.712E+02 -.877E+03   -.599E+02 -.712E+02 0.869E+03   0.170E+00 -.471E-01 0.709E+01
   0.217E+02 0.657E+02 -.893E+03   -.218E+02 -.658E+02 0.885E+03   0.637E-01 0.109E+00 0.713E+01
   0.519E+02 0.328E+02 0.100E+04   -.522E+02 -.328E+02 -.994E+03   0.205E+00 0.130E-01 -.727E+01
   0.471E+02 0.348E+01 0.107E+04   -.476E+02 -.354E+01 -.106E+04   0.288E+00 0.392E-01 -.725E+01
   0.154E+03 0.590E+01 -.776E+03   -.154E+03 -.590E+01 0.768E+03   0.237E+00 0.141E-02 0.667E+01
   0.103E+03 0.138E+03 -.726E+03   -.105E+03 -.138E+03 0.718E+03   0.796E+00 0.336E-01 0.666E+01
   0.538E+02 -.306E+02 0.101E+04   -.542E+02 0.306E+02 -.996E+03   0.243E+00 0.331E-02 -.727E+01
   0.264E+02 -.571E+02 0.100E+04   -.267E+02 0.573E+02 -.992E+03   0.163E+00 -.131E+00 -.713E+01
   0.643E+02 -.736E+02 -.874E+03   -.646E+02 0.735E+02 0.865E+03   0.211E+00 0.532E-01 0.708E+01
   0.113E+03 -.135E+03 -.707E+03   -.115E+03 0.135E+03 0.699E+03   0.106E+01 0.251E-01 0.647E+01
   0.219E+02 -.320E+02 0.957E+03   -.220E+02 0.320E+02 -.949E+03   0.816E-01 -.373E-01 -.719E+01
   0.890E+01 -.217E+02 0.950E+03   -.895E+01 0.218E+02 -.941E+03   0.318E-01 -.570E-01 -.719E+01
   0.182E+02 -.241E+02 -.912E+03   -.183E+02 0.242E+02 0.904E+03   0.444E-01 -.211E-01 0.713E+01
   0.236E+02 -.705E+02 -.891E+03   -.237E+02 0.707E+02 0.882E+03   0.772E-01 -.145E+00 0.713E+01
   -.178E+00 -.113E+01 0.946E+03   0.176E+00 0.115E+01 -.938E+03   0.100E-02 -.104E-01 -.718E+01
   -.886E+01 0.194E+02 0.949E+03   0.889E+01 -.194E+02 -.940E+03   -.258E-01 0.372E-01 -.718E+01
   -.283E+00 0.315E+02 -.908E+03   0.281E+00 -.316E+02 0.900E+03   0.104E-02 0.591E-01 0.713E+01
   -.928E+01 -.142E+01 -.913E+03   0.931E+01 0.143E+01 0.905E+03   -.204E-01 -.876E-02 0.713E+01
   -.334E+00 0.443E+02 0.968E+03   0.332E+00 -.445E+02 -.959E+03   0.145E-02 0.148E+00 -.718E+01
   -.255E+02 0.553E+02 0.995E+03   0.256E+02 -.555E+02 -.986E+03   -.126E+00 0.124E+00 -.715E+01
   -.132E+01 0.139E+03 -.826E+03   0.132E+01 -.140E+03 0.818E+03   -.111E-03 0.705E+00 0.726E+01
   -.224E+02 0.650E+02 -.894E+03   0.225E+02 -.651E+02 0.885E+03   -.610E-01 0.108E+00 0.713E+01
   -.929E+00 0.558E+02 0.106E+04   0.910E+00 -.560E+02 -.105E+04   0.125E-01 0.156E+00 -.636E+01
   -.485E+02 0.336E+01 0.107E+04   0.489E+02 -.342E+01 -.106E+04   -.278E+00 0.393E-01 -.720E+01
   -.348E+01 0.173E+02 -.519E+03   0.345E+01 -.177E+02 0.512E+03   0.321E-01 0.283E+00 0.548E+01
   -.105E+03 0.137E+03 -.730E+03   0.106E+03 -.137E+03 0.722E+03   -.770E+00 0.757E-01 0.666E+01
   -.104E+01 -.522E+02 0.107E+04   0.102E+01 0.523E+02 -.106E+04   0.134E-01 -.105E+00 -.606E+01
   -.273E+02 -.564E+02 0.999E+03   0.275E+02 0.567E+02 -.991E+03   -.157E+00 -.140E+00 -.714E+01
   -.166E+01 -.149E+03 -.814E+03   0.165E+01 0.151E+03 0.805E+03   0.393E-02 -.950E+00 0.731E+01
   -.115E+03 -.133E+03 -.712E+03   0.116E+03 0.133E+03 0.705E+03   -.103E+01 -.146E-01 0.651E+01
[...]
   -.114E+02 0.121E+02 0.711E+03   0.114E+02 -.121E+02 -.715E+03   -.252E-01 -.851E-02 0.313E+01
   0.178E+00 0.927E+01 0.706E+03   -.177E+00 -.926E+01 -.710E+03   -.196E-02 -.909E-02 0.313E+01
   -.236E+02 0.118E+02 -.681E+03   0.236E+02 -.118E+02 0.685E+03   -.116E-01 -.156E-01 -.324E+01
   0.590E+00 0.464E+00 -.684E+03   -.586E+00 -.466E+00 0.688E+03   -.546E-02 0.137E-02 -.323E+01
   -.172E+02 0.445E+00 0.717E+03   0.173E+02 -.447E+00 -.721E+03   -.240E-01 0.267E-02 0.311E+01
   0.339E+00 0.683E+01 0.711E+03   -.336E+00 -.683E+01 -.715E+03   -.416E-02 -.683E-02 0.312E+01
   -.242E+02 -.110E+02 -.681E+03   0.242E+02 0.110E+02 0.685E+03   -.136E-01 0.190E-01 -.324E+01
   0.403E+00 -.128E+02 -.687E+03   -.400E+00 0.128E+02 0.691E+03   -.388E-02 0.182E-01 -.322E+01
   -.118E+02 -.119E+02 0.712E+03   0.119E+02 0.119E+02 -.716E+03   -.289E-01 0.970E-02 0.313E+01
   0.357E+00 -.630E+01 0.712E+03   -.353E+00 0.629E+01 -.716E+03   -.442E-02 0.962E-02 0.312E+01
   -.108E+02 -.144E+02 -.688E+03   0.109E+02 0.144E+02 0.692E+03   -.218E-01 0.116E-01 -.322E+01
   0.177E+00 -.711E+01 -.691E+03   -.175E+00 0.711E+01 0.695E+03   -.163E-02 0.554E-02 -.321E+01
   -.560E+01 -.658E+01 0.705E+03   0.562E+01 0.658E+01 -.709E+03   -.211E-01 -.125E-03 0.314E+01
   0.197E+00 -.952E+01 0.706E+03   -.195E+00 0.951E+01 -.710E+03   -.229E-02 0.798E-02 0.313E+01
   0.397E-01 0.603E+00 0.111E+02   0.171E-11 0.114E-12 0.637E-11   -.206E-01 -.568E+00 -.104E+02

 POSITION                                       TOTAL-FORCE (eV/Angst)
      6.03778     10.68115     13.92861        -0.131971     -0.003968      0.119173
      8.40302      9.32878     13.74873         0.002472     -0.098510      0.112004
      8.40867     12.00204     13.60841         0.009529      0.106296      0.093125
     10.77601     10.66514     13.90267         0.136944     -0.007206      0.114863
      0.00000      0.00000      9.00000        -0.004862      0.000609      0.564894
      2.11389      2.11389      9.00000        -0.010260      0.000092      0.564839
      0.00000      2.11389     11.11389        -0.005037      0.002943     -0.546743
      2.11389      0.00000     11.11389        -0.008885      0.000912     -0.546554
      0.00000      4.22777      9.00000        -0.006496      0.002924      0.566470
      2.11389      6.34166      9.00000        -0.021332      0.002309      0.571674
      0.00000      6.34166     11.11389        -0.003188      0.007200     -0.541410
      2.11389      4.22777     11.11389        -0.014640      0.006504     -0.542143
      0.00000      8.45554      9.00000        -0.007710      0.002600      0.570834
      2.11389     10.56943      9.00000        -0.027336     -0.001347      0.580783
      0.00000     10.56943     11.11389         0.004982     -0.000363     -0.534792
      2.11389      8.45554     11.11389        -0.004535      0.014584     -0.515667
      0.00000     12.68331      9.00000        -0.008636     -0.003489      0.571104
      2.11389     14.79720      9.00000        -0.025481     -0.002738      0.572531
      0.00000     14.79720     11.11389        -0.003784     -0.007487     -0.540689
      2.11389     12.68331     11.11389        -0.006309     -0.015761     -0.513441
      0.00000     16.91108      9.00000        -0.007574     -0.002490      0.566696
      2.11389     19.02497      9.00000        -0.011487      0.001824      0.564842
      0.00000     19.02497     11.11389        -0.005521     -0.002155     -0.546414
      2.11389     16.91108     11.11389        -0.017192     -0.006164     -0.540995
      4.22777      0.00000      9.00000        -0.010350      0.001829      0.564118
      6.34166      2.11389      9.00000        -0.009267     -0.011262      0.563444
      4.22777      2.11389     11.11389        -0.012785     -0.002962     -0.545094
      6.34166      0.00000     11.11389        -0.007338      0.002530     -0.545879
      4.22777      4.22777      9.00000        -0.022110     -0.009206      0.564106
      6.34166      6.34166      9.00000        -0.048095     -0.041453      0.545319
      4.22777      6.34166     11.11389        -0.048606      0.018395     -0.514548
      6.34166      4.22777     11.11389        -0.022578     -0.034353     -0.544064
      4.22777      8.45554      9.00000        -0.061456     -0.003272      0.581826
      6.34166     10.56943      9.00000        -0.103093     -0.013979      0.513779
      4.22777     10.56943     11.11389        -0.113027     -0.002375     -0.450386
      6.34166      8.45554     11.11389        -0.306310     -0.009424     -0.408565
      4.22777     12.68331      9.00000        -0.071902     -0.002062      0.582940
      6.34166     14.79720      9.00000        -0.059831      0.048657      0.537903
      4.22777     14.79720     11.11389        -0.059026     -0.021459     -0.505820
      6.34166     12.68331     11.11389        -0.413660      0.002244     -0.391262
      4.22777     16.91108      9.00000        -0.026654      0.012813      0.563907
      6.34166     19.02497      9.00000        -0.010690      0.017562      0.563495
      4.22777     19.02497     11.11389        -0.014384      0.006323     -0.544253
      6.34166     16.91108     11.11389        -0.027314      0.045524     -0.541729
      8.45554      0.00000      9.00000        -0.000323      0.003197      0.563771
     10.56943      2.11389      9.00000         0.008688     -0.011405      0.563425
      8.45554      2.11389     11.11389        -0.000321     -0.017606     -0.545979
     10.56943      0.00000     11.11389         0.006782      0.002680     -0.545880
      8.45554      4.22777      9.00000        -0.000450     -0.043551      0.560693
     10.56943      6.34166      9.00000         0.046317     -0.044312      0.546520
      8.45554      6.34166     11.11389         0.000840     -0.256140     -0.610428
     10.56943      4.22777     11.11389         0.021678     -0.033888     -0.543722
      8.45554      8.45554      9.00000        -0.004610     -0.042745      0.339070
     10.56943     10.56943      9.00000         0.099876     -0.014048      0.502796
      8.45554     10.56943     11.11389         0.003489     -0.129209     -0.616601
     10.56943      8.45554     11.11389         0.285308     -0.023847     -0.396678
      8.45554     12.68331      9.00000        -0.004917      0.028722      0.261942
     10.56943     14.79720      9.00000         0.057665      0.051448      0.537941
      8.45554     14.79720     11.11389        -0.000636      0.349067     -0.641046
     10.56943     12.68331     11.11389         0.388909      0.015460     -0.387707
[...]
     19.02497      6.34166     11.11389        -0.001118     -0.005608      0.421126
     16.91108      6.34166      9.00000        -0.008296     -0.002739     -0.446623
     19.02497      4.22777      9.00000        -0.000631     -0.002941     -0.444462
     16.91108      8.45554     11.11389        -0.004149     -0.004974      0.414669
     19.02497     10.56943     11.11389        -0.001774      0.000476      0.417623
     16.91108     10.56943      9.00000        -0.008267      0.000898     -0.450375
     19.02497      8.45554      9.00000        -0.001355     -0.002264     -0.447319
     16.91108     12.68331     11.11389        -0.004829      0.006138      0.414119
     19.02497     14.79720     11.11389        -0.001259      0.005989      0.420665
     16.91108     14.79720      9.00000        -0.009534      0.003173     -0.446814
     19.02497     12.68331      9.00000        -0.001440      0.003244     -0.447419
     16.91108     16.91108     11.11389        -0.007154      0.003804      0.422022
     19.02497     19.02497     11.11389        -0.000530      0.001850      0.424723
     16.91108     19.02497      9.00000        -0.006905      0.000001     -0.443641
     19.02497     16.91108      9.00000        -0.000740      0.002652     -0.444564
    total drift:                               -0.000317     -0.006218     -0.644456

  FREE ENERGIE OF THE ION-ELECTRON SYSTEM (eV)
  free  energy   TOTEN  =     -1370.86690971 eV

  energy  without entropy=    -1370.86690971  energy(sigma->0) =    -1370.86690971