 vasp.6.4.1 05Apr23 (build May 06 2023 19:47:20) complex

 executed on             LinuxIFC date 2023.07.05  07:36:55

 INCAR:
   SYSTEM = MgO-rocksalt
   ISMEAR = 0
   SIGMA = 0.05
   EDIFF = 1E-6
   ALGO = ALL
   ISTART = 0
   IBRION = -1
   NSW = 0
   ISYM = 2
   DIPOL = 0.5 0.5 0.5
   IDIPOL = 3
   LDIPOL = .TRUE.
   LHFCALC = .TRUE.
   GGA = PE
   IVDW = 11
   VDW_S6 = 1.0
   VDW_SR = 1.287
   VDW_S8 = 0.928
   ENCUT = 520
   PREC = Accurate
   LASPH = .TRUE.
   LREAL = Auto
   ISPIN = 1
   NELM = 200
   NELMIN = 8
   NCORE = 16
   KPAR = 1
   LWAVE = .FALSE.
   LCHARG = .FALSE.

 POTCAR:    PAW_PBE Cu 22Jun2005
 POTCAR:    PAW_PBE Mg_pv 13Apr2007
 POTCAR:    PAW_PBE O 08Apr2002
|           W    W    AA    RRRRR   N    N  II  N    N   GGGG   !!!           |
|           W    W   A  A   R    R  NN   N  II  NN   N  G    G  !!!           |
|           W    W  A    A  R    R  N N  N  II  N N  N  G       !!!           |
|           W WW W  AAAAAA  RRRRR   N  N N  II  N  N N  G  GGG   !            |
|           WW  WW  A    A  R   R   N   NN  II  N   NN  G    G                |
|           W    W  A    A  R    R  N    N  II  N    N   GGGG   !!!           |
|     You have selected ISYM=2 for a HF type calculation. This will           |
|     symmetrize the charge density but not the exchange potential. I         |
|     suggest to use ISYM=3 instead. This uses symmetry to obtain the         |
|     orbitals at all k-points in the Brillouin zone, but does not apply      |
|     symmetry to the Hartree potential directly. The resultant charge        |
|     might have lower symmetry than the crystal but, at least, Hartree       |
|     and exchange are fully compatible.                                      |

   TITEL  = PAW_PBE Cu 22Jun2005
   POMASS =   63.546; ZVAL   =   11.000    mass and valenz
   ENMAX  =  295.446; ENMIN  =  221.585 eV

   TITEL  = PAW_PBE Mg_pv 13Apr2007
   POMASS =   24.305; ZVAL   =    8.000    mass and valenz
   ENMAX  =  403.929; ENMIN  =  302.947 eV

   TITEL  = PAW_PBE O 08Apr2002
   POMASS =   16.000; ZVAL   =    6.000    mass and valenz
   ENMAX  =  400.000; ENMIN  =  300.000 eV

 Optimization of the real space projectors (new method)

 maximal supplied QI-value         = 16.25
 optimisation between [QCUT,QGAM] = [ 11.54, 23.24] = [ 37.28,151.24] Ry
 Optimized for a Real-space Cutoff    1.53 Angstroem

   l    n(q)    QCUT    max X(q) W(low)/X(q) W(high)/X(q)  e(spline)
   2     10    11.539     4.610    0.96E-04    0.13E-03    0.19E-06
   2     10    11.539     8.522    0.16E-03    0.21E-03    0.28E-06
   0     11    11.539    51.609    0.45E-04    0.31E-04    0.11E-06
   0     11    11.539    27.747    0.39E-04    0.29E-04    0.10E-06
   1     10    11.539    20.408    0.70E-05    0.38E-04    0.18E-06
   1     10    11.539    13.425    0.66E-05    0.34E-04    0.17E-06
 Optimization of the real space projectors (new method)

[...]

   l    n(q)    QCUT    max X(q) W(low)/X(q) W(high)/X(q)  e(spline)
   1      8    11.527     2.974    0.44E-04    0.56E-04    0.12E-06
   1      8    11.527     4.279    0.12E-03    0.12E-03    0.26E-06
   0      9    11.527    16.381    0.46E-04    0.64E-04    0.78E-07
   0      9    11.527     5.611    0.26E-04    0.43E-04    0.55E-07
   2      8    11.527     4.652    0.22E-03    0.72E-04    0.47E-07
 Optimization of the real space projectors (new method)

 maximal supplied QI-value         = 24.76
 optimisation between [QCUT,QGAM] = [ 11.64, 23.27] = [ 37.91,151.63] Ry
 Optimized for a Real-space Cutoff    1.14 Angstroem

   l    n(q)    QCUT    max X(q) W(low)/X(q) W(high)/X(q)  e(spline)
   0      8    11.635    20.381    0.10E-03    0.33E-03    0.24E-06
   0      8    11.635    15.268    0.11E-03    0.35E-03    0.26E-06
   1      7    11.635     5.964    0.24E-03    0.31E-03    0.30E-06
   1      7    11.635     5.382    0.22E-03    0.25E-03    0.26E-06
  PAW_PBE Cu 22Jun2005                  :
  PAW_PBE Mg_pv 13Apr2007               :
  PAW_PBE O 08Apr2002                   :

 POSCAR: Cu Mg  O
  positions in direct lattice
 exchange correlation table for  LEXCH =        8
   RHO(1)=    0.500       N(1)  =     2000
   RHO(2)=  100.500       N(2)  =     4000

 ion  position               nearest neighbor table
   1  0.538  0.562  0.615-   2 2.24
   2  0.462  0.638  0.615-   1 2.24
   3  0.000  0.000  0.407- 105 2.11 106 2.11 121 2.11 186 2.11 103 2.11
   4  0.100  0.100  0.407- 105 2.11 106 2.11 110 2.11 125 2.11 104 2.11
   5  0.000  0.100  0.503- 103 2.11 104 2.11 107 2.11 184 2.11 105 2.11
   6  0.100  0.000  0.503- 103 2.11 104 2.11 120 2.11 123 2.11 106 2.11
   7  0.000  0.200  0.407- 109 2.11 105 2.11 110 2.11 190 2.11 107 2.11
   8  0.100  0.300  0.407- 110 2.11 109 2.11 114 2.11 129 2.11 108 2.11
   9  0.000  0.300  0.503- 107 2.11 108 2.11 111 2.11 188 2.11 109 2.11
  10  0.100  0.200  0.503- 108 2.11 107 2.11 104 2.11 127 2.11 110 2.11
  11  0.000  0.400  0.407- 109 2.11 113 2.11 114 2.11 194 2.11 111 2.11
  12  0.100  0.500  0.407- 113 2.11 114 2.11 118 2.11 133 2.11 112 2.11
  13  0.000  0.500  0.503- 111 2.11 112 2.11 115 2.11 192 2.11 113 2.11
  14  0.100  0.400  0.503- 108 2.11 111 2.11 112 2.11 131 2.11 114 2.11
  15  0.000  0.600  0.407- 113 2.11 117 2.11 118 2.11 198 2.11 115 2.11
  16  0.100  0.700  0.407- 122 2.11 118 2.11 117 2.11 137 2.11 116 2.11
  17  0.000  0.700  0.503- 119 2.11 116 2.11 115 2.11 196 2.11 117 2.11
  18  0.100  0.600  0.503- 112 2.11 115 2.11 116 2.11 135 2.11 118 2.11
  19  0.000  0.800  0.407- 117 2.11 121 2.11 122 2.11 202 2.11 119 2.11
  20  0.100  0.900  0.407- 106 2.11 121 2.11 122 2.11 141 2.11 120 2.11
  21  0.000  0.900  0.503- 103 2.11 119 2.11 120 2.11 200 2.11 121 2.11
  22  0.100  0.800  0.503- 116 2.11 119 2.11 120 2.11 139 2.11 122 2.11
  23  0.200  0.000  0.407- 126 2.11 125 2.11 106 2.11 141 2.11 123 2.11
  24  0.300  0.100  0.407- 125 2.11 126 2.11 130 2.11 145 2.11 124 2.11
  25  0.200  0.100  0.503- 124 2.11 123 2.11 104 2.11 127 2.11 125 2.11
  26  0.300  0.000  0.503- 123 2.11 124 2.11 140 2.11 143 2.11 126 2.11
  27  0.200  0.200  0.407- 129 2.11 130 2.11 110 2.11 125 2.11 127 2.11
  28  0.300  0.300  0.407- 129 2.11 130 2.11 134 2.11 149 2.11 128 2.11
  29  0.200  0.300  0.503- 127 2.11 128 2.11 108 2.11 131 2.11 129 2.11
  30  0.300  0.200  0.503- 127 2.11 128 2.11 124 2.11 147 2.11 130 2.11
  31  0.200  0.400  0.407- 134 2.11 129 2.11 133 2.11 114 2.11 131 2.11
  32  0.300  0.500  0.407- 133 2.11 134 2.11 138 2.11 153 2.11 132 2.11
  33  0.200  0.500  0.503- 132 2.11 131 2.11 112 2.11 135 2.11 133 2.11
  34  0.300  0.400  0.503- 131 2.11 128 2.11 132 2.11 151 2.11 134 2.11
  35  0.200  0.600  0.407- 138 2.11 133 2.11 137 2.11 118 2.11 135 2.11
  36  0.300  0.700  0.407- 137 2.11 142 2.11 138 2.11 157 2.11 136 2.11
  37  0.200  0.700  0.503- 136 2.11 139 2.11 116 2.11 135 2.11 137 2.11
  38  0.300  0.600  0.503- 135 2.11 132 2.11 136 2.11 155 2.11 138 2.11
  39  0.200  0.800  0.407- 137 2.11 142 2.11 141 2.11 122 2.11 139 2.11
  40  0.300  0.900  0.407- 141 2.11 126 2.11 142 2.11 161 2.11 140 2.11
  41  0.200  0.900  0.503- 140 2.11 123 2.11 139 2.11 120 2.11 141 2.11
  42  0.300  0.800  0.503- 136 2.11 139 2.11 140 2.11 159 2.11 142 2.11
  43  0.400  0.000  0.407- 126 2.11 145 2.11 146 2.11 161 2.11 143 2.11
  44  0.500  0.100  0.407- 145 2.11 146 2.11 150 2.11 165 2.11 144 2.11
  45  0.400  0.100  0.503- 124 2.11 143 2.11 144 2.11 147 2.11 145 2.11
  46  0.500  0.000  0.503- 143 2.11 144 2.11 160 2.11 163 2.11 146 2.11
  47  0.400  0.200  0.407- 149 2.11 145 2.11 130 2.11 150 2.11 147 2.11
  48  0.500  0.300  0.407- 150 2.11 149 2.11 154 2.11 169 2.11 148 2.11
  49  0.400  0.300  0.503- 147 2.11 128 2.11 148 2.11 151 2.11 149 2.11
  50  0.500  0.200  0.503- 148 2.11 147 2.11 144 2.11 167 2.11 150 2.11
  51  0.400  0.400  0.407- 134 2.11 149 2.11 153 2.11 154 2.11 151 2.11
  52  0.500  0.500  0.407- 153 2.11 154 2.11 158 2.11 173 2.11 152 2.11
  53  0.400  0.500  0.503- 132 2.11 151 2.11 152 2.11 155 2.11 153 2.11
  54  0.500  0.400  0.503- 148 2.11 151 2.11 152 2.11 171 2.11 154 2.11
  55  0.400  0.600  0.407- 138 2.11 153 2.11 157 2.11 158 2.11 155 2.11
  56  0.500  0.700  0.407- 162 2.11 158 2.11 157 2.11 177 2.11 156 2.11
  57  0.400  0.700  0.503- 159 2.11 155 2.11 156 2.11 136 2.11 157 2.11
  58  0.500  0.600  0.503- 152 2.11 155 2.11 156 2.11 175 2.11 158 2.11
  59  0.400  0.800  0.407- 157 2.11 142 2.11 161 2.11 162 2.11 159 2.11
  60  0.500  0.900  0.407- 146 2.11 161 2.11 162 2.11 181 2.11 160 2.11
[...]
 188  0.900  0.300  0.503-  90 2.11  89 2.11   9 2.11  94 2.11  88 2.11
 189  0.800  0.300  0.407-  68 2.11  87 2.11  88 2.11  91 2.11  89 2.11
 190  0.900  0.200  0.407-  88 2.11  84 2.11  87 2.11   7 2.11  90 2.11
 191  0.800  0.400  0.503-  74 2.11  89 2.11  93 2.11  94 2.11  91 2.11
 192  0.900  0.500  0.503-  13 2.11  93 2.11  94 2.11  98 2.11  92 2.11
 193  0.800  0.500  0.407-  72 2.11  91 2.11  92 2.11  95 2.11  93 2.11
 194  0.900  0.400  0.407-  11 2.11  88 2.11  91 2.11  92 2.11  94 2.11
 195  0.800  0.600  0.503-  78 2.11  93 2.11  97 2.11  98 2.11  95 2.11
 196  0.900  0.700  0.503- 102 2.11  97 2.11  98 2.11  17 2.11  96 2.11
 197  0.800  0.700  0.407-  76 2.11  99 2.11  96 2.11  95 2.11  97 2.11
 198  0.900  0.600  0.407-  15 2.11  92 2.11  95 2.11  96 2.11  98 2.11
 199  0.800  0.800  0.503-  82 2.11  97 2.11 101 2.11 102 2.11  99 2.11
 200  0.900  0.900  0.503-  21 2.11  86 2.11 101 2.11 102 2.11 100 2.11
 201  0.800  0.900  0.407-  80 2.11  83 2.11  99 2.11 100 2.11 101 2.11
 202  0.900  0.800  0.407-  96 2.11  19 2.11  99 2.11 100 2.11 102 2.11

  LATTYP: Found a simple tetragonal cell.
 ALAT       =    21.1388521970
 C/A-ratio  =     1.0461251639

  Lattice vectors:

 A1 = (  21.1388521970,   0.0000000000,   0.0000000000)
 A2 = (   0.0000000000,  21.1388521970,   0.0000000000)
 A3 = (   0.0000000000,   0.0000000000,  22.1138852197)

Analysis of symmetry for initial positions (statically):
 Subroutine PRICEL returns:
 Original cell was already a primitive cell.

 Routine SETGRP: Setting up the symmetry group for a
 simple tetragonal supercell.

 Subroutine GETGRP returns: Found  4 space group operations
 (whereof  1 operations were pure point group operations)
 out of a pool of 16 trial point group operations.

The static configuration has the point symmetry C_1 .
 The point group associated with its full space group is C_2v.

Analysis of symmetry for dynamics (positions and initial velocities):
 Subroutine PRICEL returns:
 Original cell was already a primitive cell.

 Routine SETGRP: Setting up the symmetry group for a
 simple tetragonal supercell.

 Subroutine GETGRP returns: Found  4 space group operations
 (whereof  1 operations were pure point group operations)
 out of a pool of 16 trial point group operations.

The dynamic configuration has the point symmetry C_1 .
 The point group associated with its full space group is C_2v.

 Subroutine INISYM returns: Found  4 space group operations
 (whereof  1 operations are pure point group operations),
 and found     1 'primitive' translations

                                     Primitive cell

  volume of cell :    9881.6133

[...]
     60     -46.9912      2.00000
[...]
    850       4.9316      0.00000
    851       4.9552      0.00000
    852       4.9660      0.00000
    853       4.9881      0.00000
    854       5.0096      0.00000
    855       5.0373      0.00000
    856       5.0593      0.00000
    857       5.1079      0.00000
    858       5.1308      0.00000
    859       5.1580      0.00000
    860       5.1840      0.00000
    861       5.2961      0.00000
    862       5.3745      0.00000
    863       5.3946      0.00000
    864       5.4168      0.00000

 soft charge-density along one line, spin component           1
         0         1         2         3         4         5         6         7         8         9
 total charge-density along one line

------------------------ aborting loop because EDIFF is reached ----------------------------------------

|           W    W    AA    RRRRR   N    N  II  N    N   GGGG   !!!           |
|           W    W   A  A   R    R  NN   N  II  NN   N  G    G  !!!           |
|           W    W  A    A  R    R  N N  N  II  N N  N  G       !!!           |
|           W WW W  AAAAAA  RRRRR   N  N N  II  N  N N  G  GGG   !            |
|           WW  WW  A    A  R   R   N   NN  II  N   NN  G    G                |
|           W    W  A    A  R    R  N    N  II  N    N   GGGG   !!!           |
|     Specifying the vdW parameters                                           |
|     VDW_S8 = 0.928                                                          |
|     VDW_SR = 1.287                                                          |
|     in the INCAR file will overwrite the defaults for pbe0. Please make     |
|     sure that is what you intended.                                         |

         DFTD3 V3.0 Rev 1
 IVDW         = 11
 DF pbe0
 parameters
 VDW_S6       =    1.0000
 VDW_S8       =    0.9280
 VDW_SR       =    1.2870
 rs18     =    1.0000
 alpha6   =   14.0000
 alpha8   =   16.0000
 k1-k3    =   16.0000    1.3333   -4.0000
 VDW_RADIUS   =   50.2022 A
 VDW_CNRADIUS =   21.1671 A
 Edisp (eV)  -20.54909

 E6    (eV) :    -6.3906
 E8    (eV) :   -14.1585
 % E8        : 68.90

 VOLUME and BASIS-vectors are now :
  energy-cutoff  :      520.00
  volume of cell :     9881.61
      direct lattice vectors                 reciprocal lattice vectors
    21.138852197  0.000000000  0.000000000     0.047306258  0.000000000  0.000000000
     0.000000000 21.138852197  0.000000000     0.000000000  0.047306258  0.000000000
     0.000000000  0.000000000 22.113885220     0.000000000  0.000000000  0.045220457

  length of vectors
    21.138852197 21.138852197 22.113885220     0.047306258  0.047306258  0.045220457

 FORCES acting on ions:
    Electron-Ion                     Ewald-Force                    Non-Local-Force
   -.255E+03 0.255E+03 -.212E+04   0.246E+03 -.246E+03 0.212E+04   0.921E+01 -.921E+01 -.401E+00
   0.255E+03 -.255E+03 -.212E+04   -.246E+03 0.246E+03 0.212E+04   -.921E+01 0.921E+01 -.401E+00
   0.158E+00 -.352E+01 0.932E+03   -.162E+00 0.353E+01 -.923E+03   0.303E-02 -.251E-02 -.709E+01
   0.352E+01 -.158E+00 0.932E+03   -.353E+01 0.162E+00 -.923E+03   0.251E-02 -.303E-02 -.709E+01
   0.136E-07 -.185E-03 -.924E+03   0.784E-07 -.160E-05 0.915E+03   0.149E-21 -.147E-21 0.707E+01
   0.530E+01 -.530E+01 -.923E+03   -.531E+01 0.531E+01 0.915E+03   0.657E-02 -.657E-02 0.707E+01
   -.158E+00 0.352E+01 0.932E+03   0.162E+00 -.353E+01 -.923E+03   -.303E-02 0.251E-02 -.709E+01
   0.549E+01 0.692E+01 0.934E+03   -.549E+01 -.692E+01 -.925E+03   0.713E-04 0.368E-02 -.710E+01
   -.435E+00 0.725E+01 -.923E+03   0.446E+00 -.725E+01 0.914E+03   -.776E-02 0.338E-02 0.707E+01
   0.484E+01 0.483E+01 -.923E+03   -.483E+01 -.483E+01 0.915E+03   -.108E-02 -.108E-02 0.707E+01
   -.367E+00 0.628E+01 0.935E+03   0.378E+00 -.628E+01 -.926E+03   -.744E-02 0.439E-02 -.709E+01
   0.107E+02 0.528E+01 0.938E+03   -.107E+02 -.529E+01 -.930E+03   0.793E-02 0.768E-02 -.710E+01
   -.419E+00 0.508E+01 -.921E+03   0.430E+00 -.508E+01 0.912E+03   -.751E-02 0.219E-02 0.706E+01
   0.109E+02 0.984E+01 -.920E+03   -.109E+02 -.985E+01 0.912E+03   -.367E-02 0.533E-02 0.706E+01
   0.212E-06 -.188E-03 0.937E+03   -.118E-06 0.158E-05 -.928E+03   0.158E-20 0.738E-21 -.710E+01
   0.114E+02 -.486E+01 0.939E+03   -.114E+02 0.486E+01 -.930E+03   0.230E-01 -.507E-03 -.710E+01
   0.419E+00 -.508E+01 -.921E+03   -.430E+00 0.508E+01 0.912E+03   0.751E-02 -.219E-02 0.706E+01
   0.178E+02 0.579E+00 -.918E+03   -.178E+02 -.589E+00 0.909E+03   0.157E-01 0.688E-02 0.706E+01
   0.367E+00 -.628E+01 0.935E+03   -.378E+00 0.628E+01 -.926E+03   0.744E-02 -.439E-02 -.709E+01
   0.613E+01 -.719E+01 0.934E+03   -.615E+01 0.720E+01 -.926E+03   0.116E-01 -.782E-02 -.709E+01
   0.435E+00 -.725E+01 -.923E+03   -.446E+00 0.725E+01 0.914E+03   0.776E-02 -.338E-02 0.707E+01
   0.123E+02 -.995E+01 -.920E+03   -.124E+02 0.996E+01 0.912E+03   0.221E-01 -.456E-02 0.707E+01
   0.719E+01 -.613E+01 0.934E+03   -.720E+01 0.615E+01 -.926E+03   0.782E-02 -.116E-01 -.709E+01
   0.628E+01 -.367E+00 0.935E+03   -.628E+01 0.378E+00 -.926E+03   0.439E-02 -.744E-02 -.709E+01
   0.725E+01 -.435E+00 -.923E+03   -.725E+01 0.446E+00 0.914E+03   0.338E-02 -.776E-02 0.707E+01
   0.995E+01 -.123E+02 -.920E+03   -.996E+01 0.124E+02 0.912E+03   0.456E-02 -.221E-01 0.707E+01
   0.692E+01 0.549E+01 0.934E+03   -.692E+01 -.549E+01 -.925E+03   0.368E-02 0.713E-04 -.710E+01
   0.121E+02 0.156E+02 0.941E+03   -.121E+02 -.156E+02 -.932E+03   0.124E-01 0.139E-01 -.710E+01
   0.136E+02 0.136E+02 -.920E+03   -.136E+02 -.136E+02 0.912E+03   0.978E-03 0.978E-03 0.706E+01
   0.984E+01 0.109E+02 -.920E+03   -.985E+01 -.109E+02 0.912E+03   0.533E-02 -.367E-02 0.706E+01
   0.156E+02 0.121E+02 0.941E+03   -.156E+02 -.121E+02 -.932E+03   0.139E-01 0.124E-01 -.710E+01
   0.310E+02 0.170E+02 0.963E+03   -.311E+02 -.171E+02 -.954E+03   0.710E-01 0.377E-01 -.712E+01
   0.346E+02 0.142E+02 -.911E+03   -.346E+02 -.142E+02 0.902E+03   0.923E-02 0.203E-01 0.706E+01
   0.334E+02 0.334E+02 -.906E+03   -.334E+02 -.334E+02 0.898E+03   0.134E-01 0.134E-01 0.704E+01
   0.254E+02 0.913E+00 0.949E+03   -.254E+02 -.933E+00 -.940E+03   0.447E-01 0.136E-01 -.710E+01
   0.327E+02 -.156E+02 0.966E+03   -.327E+02 0.156E+02 -.958E+03   0.457E-01 -.149E-01 -.705E+01
   0.378E+02 -.126E+02 -.909E+03   -.379E+02 0.126E+02 0.901E+03   0.712E-01 0.470E-02 0.707E+01
   0.841E+02 0.683E+01 -.872E+03   -.843E+02 -.693E+01 0.864E+03   0.150E+00 0.668E-01 0.708E+01
   0.168E+02 -.123E+02 0.942E+03   -.168E+02 0.124E+02 -.934E+03   0.283E-01 -.145E-01 -.709E+01
   0.123E+02 -.168E+02 0.942E+03   -.124E+02 0.168E+02 -.934E+03   0.145E-01 -.283E-01 -.709E+01
   0.149E+02 -.149E+02 -.919E+03   -.149E+02 0.149E+02 0.911E+03   0.184E-01 -.184E-01 0.707E+01
   0.374E+02 -.374E+02 -.902E+03   -.375E+02 0.375E+02 0.893E+03   0.553E-01 -.553E-01 0.708E+01
   0.486E+01 -.114E+02 0.939E+03   -.486E+01 0.114E+02 -.930E+03   0.507E-03 -.230E-01 -.710E+01
   0.207E-06 -.182E-03 0.937E+03   -.110E-06 -.428E-05 -.928E+03   -.735E-21 -.158E-20 -.710E+01
   0.508E+01 -.419E+00 -.921E+03   -.508E+01 0.430E+00 0.912E+03   0.219E-02 -.751E-02 0.706E+01
   -.579E+00 -.178E+02 -.918E+03   0.589E+00 0.178E+02 0.909E+03   -.688E-02 -.157E-01 0.706E+01
   0.528E+01 0.107E+02 0.938E+03   -.529E+01 -.107E+02 -.930E+03   0.768E-02 0.793E-02 -.710E+01
   0.913E+00 0.254E+02 0.949E+03   -.933E+00 -.254E+02 -.940E+03   0.136E-01 0.447E-01 -.710E+01
   0.142E+02 0.346E+02 -.911E+03   -.142E+02 -.346E+02 0.902E+03   0.203E-01 0.923E-02 0.706E+01
   0.579E+00 0.178E+02 -.918E+03   -.589E+00 -.178E+02 0.909E+03   0.688E-02 0.157E-01 0.706E+01
   0.170E+02 0.310E+02 0.963E+03   -.171E+02 -.311E+02 -.954E+03   0.377E-01 0.710E-01 -.712E+01
   0.279E+01 0.347E+02 0.101E+04   -.275E+01 -.348E+02 -.100E+04   -.241E-01 0.535E-01 -.691E+01
   0.784E+02 0.784E+02 -.834E+03   -.787E+02 -.787E+02 0.826E+03   0.171E+00 0.171E+00 0.687E+01
   0.683E+01 0.841E+02 -.872E+03   -.693E+01 -.843E+02 0.864E+03   0.668E-01 0.150E+00 0.708E+01
   0.347E+02 0.278E+01 0.101E+04   -.348E+02 -.275E+01 -.100E+04   0.535E-01 -.241E-01 -.691E+01
   -.279E+01 -.347E+02 0.101E+04   0.275E+01 0.348E+02 -.100E+04   0.241E-01 -.535E-01 -.691E+01
   0.866E+02 -.866E+02 -.796E+03   -.868E+02 0.868E+02 0.787E+03   0.875E-01 -.875E-01 0.698E+01
   -.238E-04 -.259E-03 -.614E+03   0.242E-04 0.699E-04 0.610E+03   -.610E-22 0.594E-22 0.368E+01
   0.156E+02 -.327E+02 0.966E+03   -.156E+02 0.327E+02 -.958E+03   0.149E-01 -.457E-01 -.705E+01
   -.913E+00 -.254E+02 0.949E+03   0.933E+00 0.254E+02 -.940E+03   -.136E-01 -.447E-01 -.710E+01
[...]
   -.813E+01 0.813E+01 0.704E+03   0.814E+01 -.814E+01 -.708E+03   -.168E-01 0.168E-01 0.309E+01
   -.319E+01 0.319E+01 0.701E+03   0.320E+01 -.320E+01 -.705E+03   -.652E-02 0.652E-02 0.309E+01
   -.191E+02 0.136E+02 -.687E+03   0.191E+02 -.136E+02 0.691E+03   -.371E-01 0.226E-01 -.312E+01
   -.124E+02 0.480E+01 -.690E+03   0.124E+02 -.480E+01 0.694E+03   -.193E-01 -.943E-03 -.313E+01
   -.173E+02 0.613E+01 0.711E+03   0.173E+02 -.614E+01 -.715E+03   -.428E-01 0.344E-02 0.310E+01
   -.664E+01 0.574E+01 0.703E+03   0.666E+01 -.575E+01 -.707E+03   -.171E-01 0.781E-02 0.309E+01
   -.318E+02 -.145E+01 -.682E+03   0.318E+02 0.148E+01 0.686E+03   -.370E-01 -.291E-01 -.314E+01
   -.114E+02 -.530E+01 -.690E+03   0.114E+02 0.530E+01 0.694E+03   -.460E-02 -.990E-02 -.313E+01
   -.164E+02 -.686E+01 0.711E+03   0.164E+02 0.688E+01 -.715E+03   -.196E-01 -.194E-01 0.308E+01
   -.912E+01 -.257E+00 0.706E+03   0.914E+01 0.262E+00 -.710E+03   -.144E-01 -.655E-02 0.309E+01
   -.170E+02 -.129E+02 -.688E+03   0.170E+02 0.130E+02 0.692E+03   -.446E-02 -.895E-02 -.314E+01
   -.530E+01 -.650E+01 -.693E+03   0.530E+01 0.650E+01 0.697E+03   0.211E-02 -.219E-02 -.313E+01
   -.762E+01 -.762E+01 0.703E+03   0.763E+01 0.763E+01 -.707E+03   -.628E-02 -.628E-02 0.309E+01
   -.599E+01 -.573E+01 0.703E+03   0.599E+01 0.573E+01 -.707E+03   -.183E-02 -.712E-02 0.309E+01
   -.137E-04 -.110E+00 0.836E+01   0.436E-11 -.952E-12 -.580E-11   -.458E-16 -.477E-16 -.804E+01

 POSITION                                       TOTAL-FORCE (eV/Angst)
     11.36279     11.88995     13.59669         0.081480     -0.081480      0.022375
      9.77606     13.47667     13.59669        -0.081480      0.081480      0.022375
      0.00000      0.00000      9.00000        -0.000966      0.000800      0.551633
      2.11389      2.11389      9.00000        -0.000800      0.000966      0.551633
      0.00000      2.11389     11.11389         0.000000     -0.000000     -0.544488
      2.11389      0.00000     11.11389        -0.002075      0.002075     -0.544388
      0.00000      4.22777      9.00000         0.000966     -0.000800      0.551633
      2.11389      6.34166      9.00000         0.000014     -0.001125      0.552195
      0.00000      6.34166     11.11389         0.002457     -0.001056     -0.544010
      2.11389      4.22777     11.11389         0.000387      0.000387     -0.544006
      0.00000      8.45554      9.00000         0.002298     -0.001414      0.551824
      2.11389     10.56943      9.00000        -0.002423     -0.002517      0.552454
      0.00000     10.56943     11.11389         0.002324     -0.000688     -0.543133
      2.11389      8.45554     11.11389         0.001458     -0.001545     -0.542313
      0.00000     12.68331      9.00000         0.000000     -0.000000      0.552055
      2.11389     14.79720      9.00000        -0.006863      0.000127      0.551810
      0.00000     14.79720     11.11389        -0.002324      0.000688     -0.543133
      2.11389     12.68331     11.11389        -0.004144     -0.002358     -0.542070
      0.00000     16.91108      9.00000        -0.002298      0.001414      0.551824
      2.11389     19.02497      9.00000        -0.003652      0.002535      0.551238
      0.00000     19.02497     11.11389        -0.002457      0.001056     -0.544010
      2.11389     16.91108     11.11389        -0.006673      0.001448     -0.543787
      4.22777      0.00000      9.00000        -0.002535      0.003652      0.551238
      6.34166      2.11389      9.00000        -0.001414      0.002298      0.551824
      4.22777      2.11389     11.11389        -0.001056      0.002457     -0.544010
      6.34166      0.00000     11.11389        -0.001448      0.006673     -0.543787
      4.22777      4.22777      9.00000        -0.001125      0.000014      0.552195
      6.34166      6.34166      9.00000        -0.003755     -0.004098      0.554036
      4.22777      6.34166     11.11389         0.000069      0.000069     -0.541450
      6.34166      4.22777     11.11389        -0.001545      0.001458     -0.542313
      4.22777      8.45554      9.00000        -0.004098     -0.003755      0.554036
      6.34166     10.56943      9.00000        -0.021294     -0.012402      0.559539
      4.22777     10.56943     11.11389         0.000102     -0.005818     -0.536234
      6.34166      8.45554     11.11389         0.000104      0.000104     -0.527627
      4.22777     12.68331      9.00000        -0.013392     -0.004773      0.552689
      6.34166     14.79720      9.00000        -0.012508      0.004464      0.540122
      4.22777     14.79720     11.11389        -0.020434     -0.002295     -0.541806
      6.34166     12.68331     11.11389        -0.042754     -0.021900     -0.520193
      4.22777     16.91108      9.00000        -0.008903      0.004866      0.549730
      6.34166     19.02497      9.00000        -0.004866      0.008903      0.549730
      4.22777     19.02497     11.11389        -0.005640      0.005640     -0.544226
      6.34166     16.91108     11.11389        -0.014597      0.014597     -0.545561
      8.45554      0.00000      9.00000        -0.000127      0.006863      0.551810
     10.56943      2.11389      9.00000         0.000000     -0.000000      0.552055
      8.45554      2.11389     11.11389        -0.000688      0.002324     -0.543133
     10.56943      0.00000     11.11389         0.002358      0.004144     -0.542070
      8.45554      4.22777      9.00000        -0.002517     -0.002423      0.552454
     10.56943      6.34166      9.00000        -0.004773     -0.013392      0.552689
      8.45554      6.34166     11.11389        -0.005818      0.000102     -0.536234
     10.56943      4.22777     11.11389        -0.002358     -0.004144     -0.542070
      8.45554      8.45554      9.00000        -0.012402     -0.021294      0.559539
     10.56943     10.56943      9.00000         0.012309     -0.009881      0.498677
      8.45554     10.56943     11.11389        -0.005365     -0.005365     -0.363343
     10.56943      8.45554     11.11389        -0.021900     -0.042754     -0.520193
      8.45554     12.68331      9.00000        -0.009881      0.012309      0.498677
     10.56943     14.79720      9.00000        -0.012309      0.009881      0.498677
      8.45554     14.79720     11.11389        -0.096136      0.096136     -0.740572
     10.56943     12.68331     11.11389         0.000000     -0.000000     -0.421928
      8.45554     16.91108      9.00000        -0.004464      0.012508      0.540122
     10.56943     19.02497      9.00000         0.004773      0.013392      0.552689
[...]
     19.02497      6.34166     11.11389        -0.004305      0.003162      0.403479
     16.91108      6.34166      9.00000        -0.005639      0.005639     -0.409940
     19.02497      4.22777      9.00000        -0.002165      0.002165     -0.410868
     16.91108      8.45554     11.11389        -0.012688      0.007762      0.404306
     19.02497     10.56943     11.11389        -0.006524     -0.000274      0.402231
     16.91108     10.56943      9.00000        -0.014975      0.001309     -0.406663
     19.02497      8.45554      9.00000        -0.005735      0.002617     -0.410472
     16.91108     12.68331     11.11389        -0.013379     -0.009734      0.398777
     19.02497     14.79720     11.11389        -0.001629     -0.003313      0.400791
     16.91108     14.79720      9.00000        -0.007007     -0.006691     -0.413495
     19.02497     12.68331      9.00000        -0.004877     -0.002165     -0.411206
     16.91108     16.91108     11.11389        -0.001781     -0.003153      0.397638
     19.02497     19.02497     11.11389         0.000674     -0.000756      0.402344
     16.91108     19.02497      9.00000        -0.002125     -0.002125     -0.412327
     19.02497     16.91108      9.00000        -0.000620     -0.002389     -0.411859
    total drift:                               -0.000014     -0.109529     -0.524104

  FREE ENERGIE OF THE ION-ELECTRON SYSTEM (eV)
  free  energy   TOTEN  =     -1443.78648235 eV

  energy  without entropy=    -1443.78648235  energy(sigma->0) =    -1443.78648235