 vasp.6.3.0 20Jan22 (build Apr  1 2022 16:44:48) complex
 executed on        HPECrayEX_GCC date 2022.08.15  20:09:46

 INCAR:
   SYSTEM = MgO-rocksalt
   ISMEAR = 0
   SIGMA = 0.05
   EDIFF = 1E-6
   ALGO = ALL
   ISTART = 0
   IBRION = -1
   NSW = 0
   ISYM = 2
   DIPOL = 0.5 0.5 0.5
   IDIPOL = 3
   LDIPOL = .TRUE.
   GGA = ML
   LUSE_VDW = .TRUE.
   ZAB_VDW = -1.8867
   AGGAC = 0.0000
   ENCUT = 520
   PREC = Accurate
   LASPH = .TRUE.
   LREAL = Auto
   ISPIN = 1
   NELM = 200
   NELMIN = 8
   NCORE = 4
   KPAR = 2
   LWAVE = .FALSE.
   LCHARG = .FALSE.

 POTCAR:    PAW_PBE Au 04Oct2007
 POTCAR:    PAW_PBE Mg_pv 13Apr2007
 POTCAR:    PAW_PBE O 08Apr2002
|               ----> ADVICE to this user running VASP <----                  |
|     You have switched on vdW-DFT.                                           |
|     This routine was written and supplied by Jiri Klimes. We recommend      |
|     that you carefully read and cite the following publications:            |
|       J. Klimes, D.R. Bowler, A. Michelides                                 |
|          J. Phys.: Cond Matt. 22 022201 (2010)                              |
|       J. Klimes, D.R. Bowler, A. Michelides                                 |
|          Phys. Rev. B. 83, 195131 (2011)                                    |
|     and references therein.                                                 |

   TITEL  = PAW_PBE Au 04Oct2007
   POMASS =  196.966; ZVAL   =   11.000    mass and valenz
   ENMAX  =  229.943; ENMIN  =  172.457 eV

   TITEL  = PAW_PBE Mg_pv 13Apr2007
   POMASS =   24.305; ZVAL   =    8.000    mass and valenz
   ENMAX  =  403.929; ENMIN  =  302.947 eV

   TITEL  = PAW_PBE O 08Apr2002
   POMASS =   16.000; ZVAL   =    6.000    mass and valenz
   ENMAX  =  400.000; ENMIN  =  300.000 eV

 Optimization of the real space projectors (new method)

 maximal supplied QI-value         = 15.12
 optimisation between [QCUT,QGAM] = [ 11.64, 23.28] = [ 37.95,151.78] Ry
 Optimized for a Real-space Cutoff    1.49 Angstroem

   l    n(q)    QCUT    max X(q) W(low)/X(q) W(high)/X(q)  e(spline)
   2      9    11.641    60.898    0.24E-03    0.10E-03    0.19E-06
   2      9    11.641    58.894    0.25E-03    0.10E-03    0.19E-06
   0     10    11.641   109.617    0.73E-04    0.33E-04    0.11E-06
   0     10    11.641    75.026    0.71E-04    0.32E-04    0.11E-06
   1     10    11.641    16.344    0.27E-04    0.97E-04    0.16E-06
   1     10    11.641    10.160    0.23E-04    0.77E-04    0.13E-06
 Optimization of the real space projectors (new method)

[...]

   l    n(q)    QCUT    max X(q) W(low)/X(q) W(high)/X(q)  e(spline)
   1      8    11.527     2.974    0.44E-04    0.56E-04    0.12E-06
   1      8    11.527     4.279    0.12E-03    0.12E-03    0.26E-06
   0      9    11.527    16.381    0.46E-04    0.64E-04    0.78E-07
   0      9    11.527     5.611    0.26E-04    0.43E-04    0.55E-07
   2      8    11.527     4.652    0.22E-03    0.72E-04    0.47E-07
 Optimization of the real space projectors (new method)

 maximal supplied QI-value         = 24.76
 optimisation between [QCUT,QGAM] = [ 11.64, 23.27] = [ 37.91,151.63] Ry
 Optimized for a Real-space Cutoff    1.14 Angstroem

   l    n(q)    QCUT    max X(q) W(low)/X(q) W(high)/X(q)  e(spline)
   0      8    11.635    20.381    0.10E-03    0.33E-03    0.24E-06
   0      8    11.635    15.268    0.11E-03    0.35E-03    0.26E-06
   1      7    11.635     5.964    0.24E-03    0.31E-03    0.30E-06
   1      7    11.635     5.382    0.22E-03    0.25E-03    0.26E-06
|               ----> ADVICE to this user running VASP <----                  |
|     You enforced a specific xc type in the INCAR file but a different       |
|     type was found in the POTCAR file.                                      |
|     I HOPE YOU KNOW WHAT YOU ARE DOING!                                     |

  PAW_PBE Au 04Oct2007                  :
  PAW_PBE Mg_pv 13Apr2007               :
  PAW_PBE O 08Apr2002                   :

 POSCAR: Au Mg  O
  positions in direct lattice
 exchange correlation table for  LEXCH =       44
   RHO(1)=    0.500       N(1)  =     2000
   RHO(2)=  100.500       N(2)  =     4000

 ion  position               nearest neighbor table
   1  0.543  0.457  0.618-   2 2.55  54 2.97  73 2.97
   2  0.457  0.543  0.618-   1 2.55  53 2.97  58 2.97
   3  0.000  0.000  0.407- 105 2.11 106 2.11 121 2.11 186 2.11 103 2.11
   4  0.100  0.100  0.407- 105 2.11 106 2.11 110 2.11 125 2.11 104 2.11
   5  0.000  0.100  0.503- 103 2.11 104 2.11 107 2.11 184 2.11 105 2.11
   6  0.100  0.000  0.503- 103 2.11 104 2.11 120 2.11 123 2.11 106 2.11
   7  0.000  0.200  0.407- 109 2.11 105 2.11 110 2.11 190 2.11 107 2.11
   8  0.100  0.300  0.407- 110 2.11 109 2.11 114 2.11 129 2.11 108 2.11
   9  0.000  0.300  0.503- 107 2.11 108 2.11 111 2.11 188 2.11 109 2.11
  10  0.100  0.200  0.503- 108 2.11 107 2.11 104 2.11 127 2.11 110 2.11
  11  0.000  0.400  0.407- 109 2.11 113 2.11 114 2.11 194 2.11 111 2.11
  12  0.100  0.500  0.407- 113 2.11 114 2.11 118 2.11 133 2.11 112 2.11
  13  0.000  0.500  0.503- 111 2.11 112 2.11 115 2.11 192 2.11 113 2.11
  14  0.100  0.400  0.503- 108 2.11 111 2.11 112 2.11 131 2.11 114 2.11
  15  0.000  0.600  0.407- 113 2.11 117 2.11 118 2.11 198 2.11 115 2.11
  16  0.100  0.700  0.407- 122 2.11 118 2.11 117 2.11 137 2.11 116 2.11
  17  0.000  0.700  0.503- 119 2.11 116 2.11 115 2.11 196 2.11 117 2.11
  18  0.100  0.600  0.503- 112 2.11 115 2.11 116 2.11 135 2.11 118 2.11
  19  0.000  0.800  0.407- 117 2.11 121 2.11 122 2.11 202 2.11 119 2.11
  20  0.100  0.900  0.407- 106 2.11 121 2.11 122 2.11 141 2.11 120 2.11
  21  0.000  0.900  0.503- 103 2.11 119 2.11 120 2.11 200 2.11 121 2.11
  22  0.100  0.800  0.503- 116 2.11 119 2.11 120 2.11 139 2.11 122 2.11
  23  0.200  0.000  0.407- 126 2.11 125 2.11 106 2.11 141 2.11 123 2.11
  24  0.300  0.100  0.407- 125 2.11 126 2.11 130 2.11 145 2.11 124 2.11
  25  0.200  0.100  0.503- 124 2.11 123 2.11 104 2.11 127 2.11 125 2.11
  26  0.300  0.000  0.503- 123 2.11 124 2.11 140 2.11 143 2.11 126 2.11
  27  0.200  0.200  0.407- 129 2.11 130 2.11 110 2.11 125 2.11 127 2.11
  28  0.300  0.300  0.407- 129 2.11 130 2.11 134 2.11 149 2.11 128 2.11
  29  0.200  0.300  0.503- 127 2.11 128 2.11 108 2.11 131 2.11 129 2.11
  30  0.300  0.200  0.503- 127 2.11 128 2.11 124 2.11 147 2.11 130 2.11
  31  0.200  0.400  0.407- 134 2.11 129 2.11 133 2.11 114 2.11 131 2.11
  32  0.300  0.500  0.407- 133 2.11 134 2.11 138 2.11 153 2.11 132 2.11
  33  0.200  0.500  0.503- 132 2.11 131 2.11 112 2.11 135 2.11 133 2.11
  34  0.300  0.400  0.503- 131 2.11 128 2.11 132 2.11 151 2.11 134 2.11
  35  0.200  0.600  0.407- 138 2.11 133 2.11 137 2.11 118 2.11 135 2.11
  36  0.300  0.700  0.407- 137 2.11 142 2.11 138 2.11 157 2.11 136 2.11
  37  0.200  0.700  0.503- 136 2.11 139 2.11 116 2.11 135 2.11 137 2.11
  38  0.300  0.600  0.503- 135 2.11 132 2.11 136 2.11 155 2.11 138 2.11
  39  0.200  0.800  0.407- 137 2.11 142 2.11 141 2.11 122 2.11 139 2.11
  40  0.300  0.900  0.407- 141 2.11 126 2.11 142 2.11 161 2.11 140 2.11
  41  0.200  0.900  0.503- 140 2.11 123 2.11 139 2.11 120 2.11 141 2.11
  42  0.300  0.800  0.503- 136 2.11 139 2.11 140 2.11 159 2.11 142 2.11
  43  0.400  0.000  0.407- 126 2.11 145 2.11 146 2.11 161 2.11 143 2.11
  44  0.500  0.100  0.407- 145 2.11 146 2.11 150 2.11 165 2.11 144 2.11
  45  0.400  0.100  0.503- 124 2.11 143 2.11 144 2.11 147 2.11 145 2.11
  46  0.500  0.000  0.503- 143 2.11 144 2.11 160 2.11 163 2.11 146 2.11
  47  0.400  0.200  0.407- 149 2.11 145 2.11 130 2.11 150 2.11 147 2.11
  48  0.500  0.300  0.407- 150 2.11 149 2.11 154 2.11 169 2.11 148 2.11
  49  0.400  0.300  0.503- 147 2.11 128 2.11 148 2.11 151 2.11 149 2.11
  50  0.500  0.200  0.503- 148 2.11 147 2.11 144 2.11 167 2.11 150 2.11
  51  0.400  0.400  0.407- 134 2.11 149 2.11 153 2.11 154 2.11 151 2.11
  52  0.500  0.500  0.407- 153 2.11 154 2.11 158 2.11 173 2.11 152 2.11
  53  0.400  0.500  0.503- 132 2.11 151 2.11 152 2.11 155 2.11 153 2.11   2 2.97
  54  0.500  0.400  0.503- 148 2.11 151 2.11 152 2.11 171 2.11 154 2.11   1 2.97
  55  0.400  0.600  0.407- 138 2.11 153 2.11 157 2.11 158 2.11 155 2.11
  56  0.500  0.700  0.407- 162 2.11 158 2.11 157 2.11 177 2.11 156 2.11
  57  0.400  0.700  0.503- 159 2.11 155 2.11 156 2.11 136 2.11 157 2.11
  58  0.500  0.600  0.503- 152 2.11 155 2.11 156 2.11 175 2.11 158 2.11   2 2.97
  59  0.400  0.800  0.407- 157 2.11 142 2.11 161 2.11 162 2.11 159 2.11
  60  0.500  0.900  0.407- 146 2.11 161 2.11 162 2.11 181 2.11 160 2.11
[...]
 188  0.900  0.300  0.503-  90 2.11  89 2.11   9 2.11  94 2.11  88 2.11
 189  0.800  0.300  0.407-  68 2.11  87 2.11  88 2.11  91 2.11  89 2.11
 190  0.900  0.200  0.407-  88 2.11  84 2.11  87 2.11   7 2.11  90 2.11
 191  0.800  0.400  0.503-  74 2.11  89 2.11  93 2.11  94 2.11  91 2.11
 192  0.900  0.500  0.503-  13 2.11  93 2.11  94 2.11  98 2.11  92 2.11
 193  0.800  0.500  0.407-  72 2.11  91 2.11  92 2.11  95 2.11  93 2.11
 194  0.900  0.400  0.407-  11 2.11  88 2.11  91 2.11  92 2.11  94 2.11
 195  0.800  0.600  0.503-  78 2.11  93 2.11  97 2.11  98 2.11  95 2.11
 196  0.900  0.700  0.503- 102 2.11  97 2.11  98 2.11  17 2.11  96 2.11
 197  0.800  0.700  0.407-  76 2.11  99 2.11  96 2.11  95 2.11  97 2.11
 198  0.900  0.600  0.407-  15 2.11  92 2.11  95 2.11  96 2.11  98 2.11
 199  0.800  0.800  0.503-  82 2.11  97 2.11 101 2.11 102 2.11  99 2.11
 200  0.900  0.900  0.503-  21 2.11  86 2.11 101 2.11 102 2.11 100 2.11
 201  0.800  0.900  0.407-  80 2.11  83 2.11  99 2.11 100 2.11 101 2.11
 202  0.900  0.800  0.407-  96 2.11  19 2.11  99 2.11 100 2.11 102 2.11

  LATTYP: Found a simple tetragonal cell.
 ALAT       =    21.1388521970
 C/A-ratio  =     1.0461251639

  Lattice vectors:

 A1 = (  21.1388521970,   0.0000000000,   0.0000000000)
 A2 = (   0.0000000000,  21.1388521970,   0.0000000000)
 A3 = (   0.0000000000,   0.0000000000,  22.1138852197)

Analysis of symmetry for initial positions (statically):
 Subroutine PRICEL returns:
 Original cell was already a primitive cell.

 Routine SETGRP: Setting up the symmetry group for a
 simple tetragonal supercell.

 Subroutine GETGRP returns: Found  4 space group operations
 (whereof  4 operations were pure point group operations)
 out of a pool of 16 trial point group operations.

The static configuration has the point symmetry C_2v.

Analysis of symmetry for dynamics (positions and initial velocities):
 Subroutine PRICEL returns:
 Original cell was already a primitive cell.

 Routine SETGRP: Setting up the symmetry group for a
 simple tetragonal supercell.

 Subroutine GETGRP returns: Found  4 space group operations
 (whereof  4 operations were pure point group operations)
 out of a pool of 16 trial point group operations.

The dynamic configuration has the point symmetry C_2v.

 Subroutine INISYM returns: Found  4 space group operations
 (whereof  4 operations are pure point group operations),
 and found     1 'primitive' translations

                                     Primitive cell

  volume of cell :    9881.6133

  direct lattice vectors                    reciprocal lattice vectors
[...]
     52     -43.9782      2.00000
     53     -43.9779      2.00000
     54     -43.9776      2.00000
     55     -43.9773      2.00000
     56     -43.9768      2.00000
     57     -43.9760      2.00000
     58     -43.9758      2.00000
     59     -43.9752      2.00000
     60     -43.9751      2.00000
[...]
    882       4.0574      0.00000
    883       4.1553      0.00000
    884       4.1859      0.00000
    885       4.1908      0.00000
    886       4.2117      0.00000
    887       4.2227      0.00000
    888       4.2555      0.00000
    889       4.3765      0.00000
    890       4.5562      0.00000
    891       4.5724      0.00000
    892       4.8192      0.00000
    893       4.9139      0.00000
    894       4.9411      0.00000
    895       5.0045      0.00000
    896       5.0337      0.00000

 soft charge-density along one line, spin component           1
         0         1         2         3         4         5         6         7         8         9
 total charge-density along one line

------------------------ aborting loop because EDIFF is reached ----------------------------------------

  FORCE on cell =-STRESS in cart. coord.  units (eV):
  Direction    XX          YY          ZZ          XY          YZ          ZX
  Alpha Z  1365.75682  1365.75682  1365.75682
  Ewald  480014.30065480014.30065************  -325.75939     0.00000     0.00000
  Hartree508285.49255508285.49255************  -225.10495    -0.00000    -0.00000
  E(xc)   -8047.05988 -8047.05988 -8056.07848    -0.45795    -0.00000    -0.00000
  Local  ************************************   538.95374    -0.00000    -0.00000
  n-local -8838.25934 -8838.25938 -8937.18997     8.09728    -0.00000    -0.00000
  augment  3570.05161  3570.05161  3517.04567     0.80750    -0.00000    -0.00000
  Kinetic 23107.08189 23107.08187 23320.52782     2.83770    -0.00000    -0.00001
  Fock        0.00000     0.00000     0.00000     0.00000     0.00000     0.00000
  Total    -122.75175  -122.75175    41.33534    -0.62606     0.00000     0.00000
  in kB     -19.90263   -19.90263     6.70200    -0.10151     0.00000     0.00000

 VOLUME and BASIS-vectors are now :
  energy-cutoff  :      520.00
  volume of cell :     9881.61
      direct lattice vectors                 reciprocal lattice vectors
    21.138852197  0.000000000  0.000000000     0.047306258  0.000000000  0.000000000
     0.000000000 21.138852197  0.000000000     0.000000000  0.047306258  0.000000000
     0.000000000  0.000000000 22.113885220     0.000000000  0.000000000  0.045220457

  length of vectors
    21.138852197 21.138852197 22.113885220     0.047306258  0.047306258  0.045220457

 FORCES acting on ions:
    Electron-Ion                     Ewald-Force                    Non-Local-Force
   -.190E+03 0.190E+03 -.209E+04   0.187E+03 -.187E+03 0.210E+04   0.354E+01 -.354E+01 -.453E+00
   0.190E+03 -.190E+03 -.209E+04   -.187E+03 0.187E+03 0.210E+04   -.354E+01 0.354E+01 -.453E+00
   -.359E-10 0.637E-09 0.929E+03   0.977E-10 -.173E-08 -.923E+03   0.000E+00 0.000E+00 -.616E+01
   0.386E+01 0.386E+01 0.930E+03   -.386E+01 -.386E+01 -.924E+03   -.492E-02 -.492E-02 -.617E+01
   -.275E+00 0.423E+01 -.921E+03   0.291E+00 -.424E+01 0.915E+03   -.128E-01 0.289E-02 0.613E+01
   0.423E+01 -.275E+00 -.921E+03   -.424E+01 0.291E+00 0.915E+03   0.289E-02 -.128E-01 0.613E+01
   -.364E+00 0.589E+01 0.931E+03   0.393E+00 -.590E+01 -.925E+03   -.228E-01 0.679E-02 -.617E+01
   0.776E+01 0.754E+01 0.934E+03   -.774E+01 -.755E+01 -.927E+03   -.132E-01 0.118E-01 -.617E+01
   -.692E+00 0.772E+01 -.919E+03   0.730E+00 -.773E+01 0.913E+03   -.297E-01 0.390E-02 0.612E+01
   0.691E+01 0.857E+01 -.920E+03   -.689E+01 -.856E+01 0.914E+03   -.179E-01 -.119E-02 0.612E+01
   -.324E+00 0.401E+01 0.934E+03   0.350E+00 -.402E+01 -.928E+03   -.204E-01 0.380E-02 -.617E+01
   0.119E+02 0.418E+00 0.937E+03   -.120E+02 -.441E+00 -.931E+03   0.333E-01 0.182E-01 -.617E+01
   0.111E-09 -.954E-09 -.917E+03   -.299E-09 0.260E-08 0.911E+03   0.000E+00 0.000E+00 0.612E+01
   0.149E+02 0.710E+01 -.916E+03   -.149E+02 -.712E+01 0.910E+03   -.136E-01 0.164E-01 0.612E+01
   0.324E+00 -.401E+01 0.934E+03   -.350E+00 0.402E+01 -.928E+03   0.204E-01 -.380E-02 -.617E+01
   0.880E+01 -.757E+01 0.934E+03   -.887E+01 0.758E+01 -.928E+03   0.585E-01 -.792E-02 -.617E+01
   0.692E+00 -.772E+01 -.919E+03   -.730E+00 0.773E+01 0.913E+03   0.297E-01 -.390E-02 0.612E+01
   0.165E+02 -.627E+01 -.916E+03   -.166E+02 0.625E+01 0.909E+03   0.526E-01 0.115E-01 0.612E+01
   0.364E+00 -.589E+01 0.931E+03   -.393E+00 0.590E+01 -.925E+03   0.228E-01 -.679E-02 -.617E+01
   0.425E+01 -.425E+01 0.930E+03   -.427E+01 0.427E+01 -.924E+03   0.173E-01 -.173E-01 -.616E+01
   0.275E+00 -.423E+01 -.921E+03   -.291E+00 0.424E+01 0.915E+03   0.128E-01 -.289E-02 0.613E+01
   0.816E+01 -.912E+01 -.919E+03   -.821E+01 0.914E+01 0.913E+03   0.389E-01 -.139E-01 0.612E+01
   0.589E+01 -.364E+00 0.931E+03   -.590E+01 0.393E+00 -.925E+03   0.679E-02 -.228E-01 -.617E+01
   0.754E+01 0.776E+01 0.934E+03   -.755E+01 -.774E+01 -.927E+03   0.118E-01 -.132E-01 -.617E+01
   0.857E+01 0.691E+01 -.920E+03   -.856E+01 -.689E+01 0.914E+03   -.119E-02 -.179E-01 0.612E+01
   0.772E+01 -.692E+00 -.919E+03   -.773E+01 0.730E+00 0.913E+03   0.390E-02 -.297E-01 0.612E+01
   0.994E+01 0.994E+01 0.934E+03   -.993E+01 -.993E+01 -.928E+03   -.447E-03 -.447E-03 -.617E+01
   0.197E+02 0.197E+02 0.947E+03   -.197E+02 -.197E+02 -.941E+03   0.255E-01 0.255E-01 -.621E+01
   0.222E+02 0.170E+02 -.914E+03   -.222E+02 -.170E+02 0.907E+03   -.328E-01 0.101E-01 0.611E+01
   0.170E+02 0.222E+02 -.914E+03   -.170E+02 -.222E+02 0.907E+03   0.101E-01 -.328E-01 0.611E+01
   0.212E+02 0.904E+01 0.943E+03   -.212E+02 -.910E+01 -.937E+03   0.861E-02 0.493E-01 -.618E+01
   0.359E+02 0.224E+01 0.968E+03   -.361E+02 -.245E+01 -.962E+03   0.102E+00 0.152E+00 -.620E+01
   0.418E+02 0.242E+01 -.904E+03   -.418E+02 -.249E+01 0.898E+03   0.355E-01 0.583E-01 0.610E+01
   0.580E+02 0.332E+02 -.887E+03   -.579E+02 -.333E+02 0.881E+03   -.125E+00 0.884E-01 0.604E+01
   0.225E+02 -.789E+01 0.945E+03   -.227E+02 0.786E+01 -.939E+03   0.164E+00 0.199E-01 -.619E+01
   0.207E+02 -.207E+02 0.951E+03   -.209E+02 0.209E+02 -.945E+03   0.106E+00 -.106E+00 -.612E+01
   0.255E+02 -.181E+02 -.912E+03   -.256E+02 0.181E+02 0.906E+03   0.129E+00 -.113E-01 0.612E+01
   0.688E+02 -.307E+02 -.876E+03   -.696E+02 0.306E+02 0.870E+03   0.650E+00 0.101E+00 0.615E+01
   0.107E+02 -.107E+02 0.935E+03   -.108E+02 0.108E+02 -.929E+03   0.459E-01 -.459E-01 -.616E+01
   0.757E+01 -.880E+01 0.934E+03   -.758E+01 0.887E+01 -.928E+03   0.792E-02 -.585E-01 -.617E+01
   0.912E+01 -.816E+01 -.919E+03   -.914E+01 0.821E+01 0.913E+03   0.139E-01 -.389E-01 0.612E+01
   0.181E+02 -.255E+02 -.912E+03   -.181E+02 0.256E+02 0.906E+03   0.113E-01 -.129E+00 0.612E+01
   0.401E+01 -.324E+00 0.934E+03   -.402E+01 0.350E+00 -.928E+03   0.380E-02 -.204E-01 -.617E+01
   0.418E+00 0.119E+02 0.937E+03   -.441E+00 -.120E+02 -.931E+03   0.182E-01 0.333E-01 -.617E+01
   0.710E+01 0.149E+02 -.916E+03   -.712E+01 -.149E+02 0.910E+03   0.164E-01 -.136E-01 0.612E+01
   0.110E-09 0.288E-08 -.917E+03   -.299E-09 -.785E-08 0.911E+03   0.000E+00 0.000E+00 0.612E+01
   0.904E+01 0.212E+02 0.943E+03   -.910E+01 -.212E+02 -.937E+03   0.493E-01 0.861E-02 -.618E+01
   0.224E+01 0.359E+02 0.968E+03   -.245E+01 -.361E+02 -.962E+03   0.152E+00 0.102E+00 -.620E+01
   0.332E+02 0.580E+02 -.887E+03   -.333E+02 -.579E+02 0.881E+03   0.884E-01 -.125E+00 0.604E+01
   0.242E+01 0.418E+02 -.904E+03   -.249E+01 -.418E+02 0.898E+03   0.583E-01 0.355E-01 0.610E+01
   0.269E+02 0.269E+02 0.985E+03   -.271E+02 -.271E+02 -.978E+03   0.146E+00 0.146E+00 -.639E+01
   -.846E-09 -.694E-08 0.102E+04   0.229E-08 0.189E-07 -.102E+04   0.000E+00 0.000E+00 -.624E+01
   0.113E+03 0.253E+02 -.754E+03   -.113E+03 -.264E+02 0.749E+03   0.220E+00 0.814E+00 0.524E+01
   0.253E+02 0.113E+03 -.754E+03   -.264E+02 -.113E+03 0.749E+03   0.814E+00 0.220E+00 0.524E+01
   0.257E+02 -.257E+02 0.990E+03   -.256E+02 0.256E+02 -.985E+03   -.420E-01 0.420E-01 -.529E+01
   -.224E+01 -.359E+02 0.968E+03   0.245E+01 0.361E+02 -.962E+03   -.152E+00 -.102E+00 -.620E+01
   0.307E+02 -.688E+02 -.876E+03   -.306E+02 0.696E+02 0.870E+03   -.101E+00 -.650E+00 0.615E+01
   -.253E+02 -.113E+03 -.754E+03   0.264E+02 0.113E+03 0.749E+03   -.814E+00 -.220E+00 0.524E+01
   0.789E+01 -.225E+02 0.945E+03   -.786E+01 0.227E+02 -.939E+03   -.199E-01 -.164E+00 -.619E+01
   -.418E+00 -.119E+02 0.937E+03   0.441E+00 0.120E+02 -.931E+03   -.182E-01 -.333E-01 -.617E+01
[...]
   -.124E+02 0.910E+01 0.708E+03   0.125E+02 -.913E+01 -.712E+03   -.100E+00 0.458E-01 0.362E+01
   -.460E+01 0.535E+01 0.702E+03   0.463E+01 -.537E+01 -.706E+03   -.365E-01 0.227E-01 0.361E+01
   -.284E+02 0.916E+01 -.682E+03   0.284E+02 -.912E+01 0.687E+03   -.105E+00 -.458E-01 -.370E+01
   -.132E+02 -.545E+00 -.689E+03   0.132E+02 0.564E+00 0.693E+03   -.189E-01 -.268E-01 -.368E+01
   -.185E+02 -.817E+00 0.713E+03   0.186E+02 0.876E+00 -.717E+03   -.623E-01 -.805E-01 0.359E+01
   -.844E+01 0.356E+01 0.705E+03   0.848E+01 -.355E+01 -.709E+03   -.477E-01 -.910E-02 0.361E+01
   -.253E+02 -.107E+02 -.684E+03   0.253E+02 0.107E+02 0.688E+03   0.365E-02 -.492E-01 -.371E+01
   -.795E+01 -.733E+01 -.691E+03   0.794E+01 0.734E+01 0.695E+03   0.155E-01 -.759E-02 -.367E+01
   -.114E+02 -.889E+01 0.707E+03   0.114E+02 0.890E+01 -.711E+03   0.451E-02 -.145E-01 0.359E+01
   -.780E+01 -.395E+01 0.705E+03   0.780E+01 0.396E+01 -.709E+03   -.331E-02 -.234E-01 0.360E+01
   -.100E+02 -.100E+02 -.691E+03   0.100E+02 0.100E+02 0.695E+03   0.133E-01 0.133E-01 -.368E+01
   -.357E+01 -.357E+01 -.693E+03   0.356E+01 0.356E+01 0.698E+03   0.686E-02 0.686E-02 -.366E+01
   -.511E+01 -.400E+01 0.701E+03   0.511E+01 0.400E+01 -.706E+03   -.198E-02 0.108E-01 0.361E+01
   -.400E+01 -.511E+01 0.701E+03   0.400E+01 0.511E+01 -.706E+03   0.108E-01 -.198E-02 0.361E+01
   0.287E-06 0.120E-05 0.122E+02   0.186E-11 0.838E-12 0.231E-10   0.472E-15 0.260E-16 -.127E+02

 POSITION                                       TOTAL-FORCE (eV/Angst)
     11.47244      9.66642     13.67302         0.549735     -0.549735      0.366462
      9.66642     11.47244     13.67302        -0.549735      0.549735      0.366462
      0.00000      0.00000      9.00000         0.000000      0.000000      0.088612
      2.11389      2.11389      9.00000         0.001369      0.001369      0.089115
      0.00000      2.11389     11.11389         0.003501     -0.000810     -0.076527
      2.11389      0.00000     11.11389        -0.000810      0.003501     -0.076527
      0.00000      4.22777      9.00000         0.006145     -0.001926      0.088970
      2.11389      6.34166      9.00000         0.003484     -0.003183      0.090219
      0.00000      6.34166     11.11389         0.007936     -0.001067     -0.074841
      2.11389      4.22777     11.11389         0.004966      0.000490     -0.075071
      0.00000      8.45554      9.00000         0.005325     -0.001066      0.089774
      2.11389     10.56943      9.00000        -0.009135     -0.005402      0.090751
      0.00000     10.56943     11.11389         0.000000      0.000000     -0.073539
      2.11389      8.45554     11.11389         0.003904     -0.004572     -0.071591
      0.00000     12.68331      9.00000        -0.005325      0.001066      0.089774
      2.11389     14.79720      9.00000        -0.015672      0.002436      0.089296
      0.00000     14.79720     11.11389        -0.007936      0.001067     -0.074841
      2.11389     12.68331     11.11389        -0.013425     -0.003431     -0.072299
      0.00000     16.91108      9.00000        -0.006145      0.001926      0.088970
      2.11389     19.02497      9.00000        -0.004866      0.004866      0.088369
      0.00000     19.02497     11.11389        -0.003501      0.000810     -0.076527
      2.11389     16.91108     11.11389        -0.010496      0.004026     -0.075361
      4.22777      0.00000      9.00000        -0.001926      0.006145      0.088970
      6.34166      2.11389      9.00000        -0.003183      0.003484      0.090219
      4.22777      2.11389     11.11389         0.000490      0.004966     -0.075071
      6.34166      0.00000     11.11389        -0.001067      0.007936     -0.074841
      4.22777      4.22777      9.00000         0.000362      0.000362      0.091341
      6.34166      6.34166      9.00000        -0.005668     -0.005668      0.100854
      4.22777      6.34166     11.11389         0.009540     -0.001853     -0.068191
      6.34166      4.22777     11.11389        -0.001853      0.009540     -0.068191
      4.22777      8.45554      9.00000        -0.003254     -0.013868      0.093359
      6.34166     10.56943      9.00000        -0.032838     -0.049522      0.090417
      4.22777     10.56943     11.11389        -0.009569     -0.017917     -0.060670
      6.34166      8.45554     11.11389         0.041455     -0.018782     -0.029162
      4.22777     12.68331      9.00000        -0.042666     -0.005942      0.093976
      6.34166     14.79720      9.00000        -0.035756      0.035756      0.072241
      4.22777     14.79720     11.11389        -0.034623      0.004207     -0.070958
      6.34166     12.68331     11.11389        -0.205743     -0.034291     -0.061485
      4.22777     16.91108      9.00000        -0.013289      0.013289      0.086772
      6.34166     19.02497      9.00000        -0.002436      0.015672      0.089296
      4.22777     19.02497     11.11389        -0.004026      0.010496     -0.075361
      6.34166     16.91108     11.11389        -0.004207      0.034623     -0.070958
      8.45554      0.00000      9.00000        -0.001066      0.005325      0.089774
     10.56943      2.11389      9.00000        -0.005402     -0.009135      0.090751
      8.45554      2.11389     11.11389        -0.004572      0.003904     -0.071591
     10.56943      0.00000     11.11389         0.000000      0.000000     -0.073539
      8.45554      4.22777      9.00000        -0.013868     -0.003254      0.093359
     10.56943      6.34166      9.00000        -0.049522     -0.032838      0.090417
      8.45554      6.34166     11.11389        -0.018782      0.041455     -0.029162
     10.56943      4.22777     11.11389        -0.017917     -0.009569     -0.060670
      8.45554      8.45554      9.00000        -0.038713     -0.038713      0.139074
     10.56943     10.56943      9.00000         0.000000      0.000000      0.036980
      8.45554     10.56943     11.11389        -0.143753     -0.321262      0.027136
     10.56943      8.45554     11.11389        -0.321262     -0.143753      0.027136
      8.45554     12.68331      9.00000         0.016623     -0.016623     -0.132936
     10.56943     14.79720      9.00000         0.049522      0.032838      0.090417
      8.45554     14.79720     11.11389         0.034291      0.205743     -0.061485
     10.56943     12.68331     11.11389         0.321262      0.143753      0.027136
      8.45554     16.91108      9.00000         0.005942      0.042666      0.093976
     10.56943     19.02497      9.00000         0.005402      0.009135      0.090751
[...]
     19.02497      6.34166     11.11389        -0.013274      0.002342      0.466985
     16.91108      6.34166      9.00000        -0.028354      0.012973     -0.480553
     19.02497      4.22777      9.00000        -0.010340      0.006472     -0.482231
     16.91108      8.45554     11.11389        -0.031042     -0.012689      0.460577
     19.02497     10.56943     11.11389        -0.005483     -0.007586      0.464143
     16.91108     10.56943      9.00000        -0.018234     -0.022160     -0.488197
     19.02497      8.45554      9.00000        -0.013571     -0.002477     -0.483284
     16.91108     12.68331     11.11389         0.000457     -0.014244      0.456561
     19.02497     14.79720     11.11389         0.004359     -0.002156      0.466547
     16.91108     14.79720      9.00000         0.001077     -0.004272     -0.487088
     19.02497     12.68331      9.00000        -0.001011     -0.006686     -0.484841
     16.91108     16.91108     11.11389         0.003671      0.003671      0.465630
     19.02497     19.02497     11.11389         0.001919      0.001919      0.469362
     16.91108     19.02497      9.00000        -0.000605      0.003032     -0.483483
     19.02497     16.91108      9.00000         0.003032     -0.000605     -0.483483
    total drift:                                0.000000      0.000001     -0.511475

  FREE ENERGIE OF THE ION-ELECTRON SYSTEM (eV)
  free  energy   TOTEN  =      -749.99948913 eV

  energy  without entropy=     -749.99948913  energy(sigma->0) =     -749.99948913