 vasp.6.4.0 14Feb23 (build Jul 14 2023 13:46:40) complex

 executed on             LinuxIFC date 2023.07.30  04:36:42

 INCAR:
   SYSTEM = MgO-rocksalt
   ISMEAR = 0
   SIGMA = 0.05
   EDIFF = 1E-6
   ALGO = ALL
   ISTART = 0
   IBRION = -1
   NSW = 0
   ISYM = 2
   DIPOL = 0.5 0.5 0.5
   IDIPOL = 3
   LDIPOL = .TRUE.
   METAGGA = R2SCAN
   LUSE_VDW = .TRUE.
   BPARAM = 11.95
   CPARAM = 0.0093
   ENCUT = 520
   PREC = Accurate
   LASPH = .TRUE.
   LREAL = Auto
   ISPIN = 1
   NELM = 200
   NELMIN = 8
   NCORE = 16
   KPAR = 1
   LWAVE = .FALSE.
   LCHARG = .FALSE.

 POTCAR:    PAW_PBE Ag 02Apr2005
 POTCAR:    PAW_PBE Mg_pv 13Apr2007
 POTCAR:    PAW_PBE O 08Apr2002
|               ----> ADVICE to this user running VASP <----                  |
|     You have switched on vdW-DFT.                                           |
|     This routine was written and supplied by Jiri Klimes. We recommend      |
|     that you carefully read and cite the following publications:            |
|       J. Klimes, D.R. Bowler, A. Michelides                                 |
|          J. Phys.: Cond Matt. 22 022201 (2010)                              |
|       J. Klimes, D.R. Bowler, A. Michelides                                 |
|          Phys. Rev. B. 83, 195131 (2011)                                    |
|     and references therein.                                                 |

   TITEL  = PAW_PBE Ag 02Apr2005
   POMASS =  107.868; ZVAL   =   11.000    mass and valenz
   ENMAX  =  249.844; ENMIN  =  187.383 eV

   TITEL  = PAW_PBE Mg_pv 13Apr2007
   POMASS =   24.305; ZVAL   =    8.000    mass and valenz
   ENMAX  =  403.929; ENMIN  =  302.947 eV

   TITEL  = PAW_PBE O 08Apr2002
   POMASS =   16.000; ZVAL   =    6.000    mass and valenz
   ENMAX  =  400.000; ENMIN  =  300.000 eV

 Optimization of the real space projectors (new method)

 maximal supplied QI-value         = 15.12
 optimisation between [QCUT,QGAM] = [ 11.64, 23.28] = [ 37.95,151.78] Ry
 Optimized for a Real-space Cutoff    1.45 Angstroem

   l    n(q)    QCUT    max X(q) W(low)/X(q) W(high)/X(q)  e(spline)
   2      9    11.641    53.897    0.22E-03    0.42E-04    0.28E-06
   2      9    11.641    52.416    0.23E-03    0.44E-04    0.29E-06
   0     10    11.641   122.045    0.51E-04    0.25E-04    0.16E-06
   0     10    11.641    73.629    0.49E-04    0.24E-04    0.16E-06
   1     10    11.641    15.255    0.99E-04    0.55E-04    0.11E-06
   1     10    11.641     9.562    0.81E-04    0.47E-04    0.95E-07
 Optimization of the real space projectors (new method)

[...]

   l    n(q)    QCUT    max X(q) W(low)/X(q) W(high)/X(q)  e(spline)
   1      8    11.527     2.974    0.44E-04    0.56E-04    0.12E-06
   1      8    11.527     4.279    0.12E-03    0.12E-03    0.26E-06
   0      9    11.527    16.381    0.46E-04    0.64E-04    0.78E-07
   0      9    11.527     5.611    0.26E-04    0.43E-04    0.55E-07
   2      8    11.527     4.652    0.22E-03    0.72E-04    0.47E-07
 Optimization of the real space projectors (new method)

 maximal supplied QI-value         = 24.76
 optimisation between [QCUT,QGAM] = [ 11.64, 23.27] = [ 37.91,151.63] Ry
 Optimized for a Real-space Cutoff    1.14 Angstroem

   l    n(q)    QCUT    max X(q) W(low)/X(q) W(high)/X(q)  e(spline)
   0      8    11.635    20.381    0.10E-03    0.33E-03    0.24E-06
   0      8    11.635    15.268    0.11E-03    0.35E-03    0.26E-06
   1      7    11.635     5.964    0.24E-03    0.31E-03    0.30E-06
   1      7    11.635     5.382    0.22E-03    0.25E-03    0.26E-06
  PAW_PBE Ag 02Apr2005                  :
  PAW_PBE Mg_pv 13Apr2007               :
  PAW_PBE O 08Apr2002                   :

 POSCAR: Ag Mg  O
  positions in direct lattice

 METAGGA = R2SCAN                                      LMAXTAU =  6    LMIXTAU =  F

 ion  position               nearest neighbor table
   1  0.500  0.600  0.746-   2 2.56
   2  0.500  0.600  0.630-   1 2.56  58 2.81
   3  0.000  0.000  0.407- 105 2.11 106 2.11 121 2.11 186 2.11 103 2.11
   4  0.100  0.100  0.407- 105 2.11 106 2.11 110 2.11 125 2.11 104 2.11
   5  0.000  0.100  0.503- 103 2.11 104 2.11 107 2.11 184 2.11 105 2.11
   6  0.100  0.000  0.503- 103 2.11 104 2.11 120 2.11 123 2.11 106 2.11
   7  0.000  0.200  0.407- 109 2.11 105 2.11 110 2.11 190 2.11 107 2.11
   8  0.100  0.300  0.407- 110 2.11 109 2.11 114 2.11 129 2.11 108 2.11
   9  0.000  0.300  0.503- 107 2.11 108 2.11 111 2.11 188 2.11 109 2.11
  10  0.100  0.200  0.503- 108 2.11 107 2.11 104 2.11 127 2.11 110 2.11
  11  0.000  0.400  0.407- 109 2.11 113 2.11 114 2.11 194 2.11 111 2.11
  12  0.100  0.500  0.407- 113 2.11 114 2.11 118 2.11 133 2.11 112 2.11
  13  0.000  0.500  0.503- 111 2.11 112 2.11 115 2.11 192 2.11 113 2.11
  14  0.100  0.400  0.503- 108 2.11 111 2.11 112 2.11 131 2.11 114 2.11
  15  0.000  0.600  0.407- 113 2.11 117 2.11 118 2.11 198 2.11 115 2.11
  16  0.100  0.700  0.407- 122 2.11 118 2.11 117 2.11 137 2.11 116 2.11
  17  0.000  0.700  0.503- 119 2.11 116 2.11 115 2.11 196 2.11 117 2.11
  18  0.100  0.600  0.503- 112 2.11 115 2.11 116 2.11 135 2.11 118 2.11
  19  0.000  0.800  0.407- 117 2.11 121 2.11 122 2.11 202 2.11 119 2.11
  20  0.100  0.900  0.407- 106 2.11 121 2.11 122 2.11 141 2.11 120 2.11
  21  0.000  0.900  0.503- 103 2.11 119 2.11 120 2.11 200 2.11 121 2.11
  22  0.100  0.800  0.503- 116 2.11 119 2.11 120 2.11 139 2.11 122 2.11
  23  0.200  0.000  0.407- 126 2.11 125 2.11 106 2.11 141 2.11 123 2.11
  24  0.300  0.100  0.407- 125 2.11 126 2.11 130 2.11 145 2.11 124 2.11
  25  0.200  0.100  0.503- 124 2.11 123 2.11 104 2.11 127 2.11 125 2.11
  26  0.300  0.000  0.503- 123 2.11 124 2.11 140 2.11 143 2.11 126 2.11
  27  0.200  0.200  0.407- 129 2.11 130 2.11 110 2.11 125 2.11 127 2.11
  28  0.300  0.300  0.407- 129 2.11 130 2.11 134 2.11 149 2.11 128 2.11
  29  0.200  0.300  0.503- 127 2.11 128 2.11 108 2.11 131 2.11 129 2.11
  30  0.300  0.200  0.503- 127 2.11 128 2.11 124 2.11 147 2.11 130 2.11
  31  0.200  0.400  0.407- 134 2.11 129 2.11 133 2.11 114 2.11 131 2.11
  32  0.300  0.500  0.407- 133 2.11 134 2.11 138 2.11 153 2.11 132 2.11
  33  0.200  0.500  0.503- 132 2.11 131 2.11 112 2.11 135 2.11 133 2.11
  34  0.300  0.400  0.503- 131 2.11 128 2.11 132 2.11 151 2.11 134 2.11
  35  0.200  0.600  0.407- 138 2.11 133 2.11 137 2.11 118 2.11 135 2.11
  36  0.300  0.700  0.407- 137 2.11 142 2.11 138 2.11 157 2.11 136 2.11
  37  0.200  0.700  0.503- 136 2.11 139 2.11 116 2.11 135 2.11 137 2.11
  38  0.300  0.600  0.503- 135 2.11 132 2.11 136 2.11 155 2.11 138 2.11
  39  0.200  0.800  0.407- 137 2.11 142 2.11 141 2.11 122 2.11 139 2.11
  40  0.300  0.900  0.407- 141 2.11 126 2.11 142 2.11 161 2.11 140 2.11
  41  0.200  0.900  0.503- 140 2.11 123 2.11 139 2.11 120 2.11 141 2.11
  42  0.300  0.800  0.503- 136 2.11 139 2.11 140 2.11 159 2.11 142 2.11
  43  0.400  0.000  0.407- 126 2.11 145 2.11 146 2.11 161 2.11 143 2.11
  44  0.500  0.100  0.407- 145 2.11 146 2.11 150 2.11 165 2.11 144 2.11
  45  0.400  0.100  0.503- 124 2.11 143 2.11 144 2.11 147 2.11 145 2.11
  46  0.500  0.000  0.503- 143 2.11 144 2.11 160 2.11 163 2.11 146 2.11
  47  0.400  0.200  0.407- 149 2.11 145 2.11 130 2.11 150 2.11 147 2.11
  48  0.500  0.300  0.407- 150 2.11 149 2.11 154 2.11 169 2.11 148 2.11
  49  0.400  0.300  0.503- 147 2.11 128 2.11 148 2.11 151 2.11 149 2.11
  50  0.500  0.200  0.503- 148 2.11 147 2.11 144 2.11 167 2.11 150 2.11
  51  0.400  0.400  0.407- 134 2.11 149 2.11 153 2.11 154 2.11 151 2.11
  52  0.500  0.500  0.407- 153 2.11 154 2.11 158 2.11 173 2.11 152 2.11
  53  0.400  0.500  0.503- 132 2.11 151 2.11 152 2.11 155 2.11 153 2.11
  54  0.500  0.400  0.503- 148 2.11 151 2.11 152 2.11 171 2.11 154 2.11
  55  0.400  0.600  0.407- 138 2.11 153 2.11 157 2.11 158 2.11 155 2.11
  56  0.500  0.700  0.407- 162 2.11 158 2.11 157 2.11 177 2.11 156 2.11
  57  0.400  0.700  0.503- 159 2.11 155 2.11 156 2.11 136 2.11 157 2.11
  58  0.500  0.600  0.503- 152 2.11 155 2.11 156 2.11 175 2.11 158 2.11   2 2.81
  59  0.400  0.800  0.407- 157 2.11 142 2.11 161 2.11 162 2.11 159 2.11
  60  0.500  0.900  0.407- 146 2.11 161 2.11 162 2.11 181 2.11 160 2.11
[...]
 188  0.900  0.300  0.503-  90 2.11  89 2.11   9 2.11  94 2.11  88 2.11
 189  0.800  0.300  0.407-  68 2.11  87 2.11  88 2.11  91 2.11  89 2.11
 190  0.900  0.200  0.407-  88 2.11  84 2.11  87 2.11   7 2.11  90 2.11
 191  0.800  0.400  0.503-  74 2.11  89 2.11  93 2.11  94 2.11  91 2.11
 192  0.900  0.500  0.503-  13 2.11  93 2.11  94 2.11  98 2.11  92 2.11
 193  0.800  0.500  0.407-  72 2.11  91 2.11  92 2.11  95 2.11  93 2.11
 194  0.900  0.400  0.407-  11 2.11  88 2.11  91 2.11  92 2.11  94 2.11
 195  0.800  0.600  0.503-  78 2.11  93 2.11  97 2.11  98 2.11  95 2.11
 196  0.900  0.700  0.503- 102 2.11  97 2.11  98 2.11  17 2.11  96 2.11
 197  0.800  0.700  0.407-  76 2.11  99 2.11  96 2.11  95 2.11  97 2.11
 198  0.900  0.600  0.407-  15 2.11  92 2.11  95 2.11  96 2.11  98 2.11
 199  0.800  0.800  0.503-  82 2.11  97 2.11 101 2.11 102 2.11  99 2.11
 200  0.900  0.900  0.503-  21 2.11  86 2.11 101 2.11 102 2.11 100 2.11
 201  0.800  0.900  0.407-  80 2.11  83 2.11  99 2.11 100 2.11 101 2.11
 202  0.900  0.800  0.407-  96 2.11  19 2.11  99 2.11 100 2.11 102 2.11

  LATTYP: Found a simple tetragonal cell.
 ALAT       =    21.1388521970
 C/A-ratio  =     1.0461251639

  Lattice vectors:

 A1 = (  21.1388521970,   0.0000000000,   0.0000000000)
 A2 = (   0.0000000000,  21.1388521970,   0.0000000000)
 A3 = (   0.0000000000,   0.0000000000,  22.1138852197)

Analysis of symmetry for initial positions (statically):
 Subroutine PRICEL returns:
 Original cell was already a primitive cell.

 Routine SETGRP: Setting up the symmetry group for a
 simple tetragonal supercell.

 Subroutine GETGRP returns: Found  8 space group operations
 (whereof  2 operations were pure point group operations)
 out of a pool of 16 trial point group operations.

The static configuration has the point symmetry C_1h.
 The point group associated with its full space group is C_4v.

Analysis of symmetry for dynamics (positions and initial velocities):
 Subroutine PRICEL returns:
 Original cell was already a primitive cell.

 Routine SETGRP: Setting up the symmetry group for a
 simple tetragonal supercell.

 Subroutine GETGRP returns: Found  8 space group operations
 (whereof  2 operations were pure point group operations)
 out of a pool of 16 trial point group operations.

The dynamic configuration has the point symmetry C_1h.
 The point group associated with its full space group is C_4v.

 Subroutine INISYM returns: Found  8 space group operations
 (whereof  2 operations are pure point group operations),
 and found     1 'primitive' translations

                                     Primitive cell

  volume of cell :    9881.6133

  direct lattice vectors                    reciprocal lattice vectors
    21.138852197  0.000000000  0.000000000     0.047306258  0.000000000  0.000000000
     0.000000000 21.138852197  0.000000000     0.000000000  0.047306258  0.000000000
     0.000000000  0.000000000 22.113885220     0.000000000  0.000000000  0.045220457

  length of vectors
[...]
     52     -44.3726      2.00000
     53     -44.3726      2.00000
     54     -44.3720      2.00000
     55     -44.3717      2.00000
     56     -44.3708      2.00000
     57     -44.3707      2.00000
     58     -44.3707      2.00000
     59     -44.3705      2.00000
     60     -44.3699      2.00000
[...]
    850       4.7745      0.00000
    851       4.8156      0.00000
    852       4.8474      0.00000
    853       4.8612      0.00000
    854       4.8652      0.00000
    855       4.8659      0.00000
    856       4.8774      0.00000
    857       4.9008      0.00000
    858       5.0221      0.00000
    859       5.0778      0.00000
    860       5.1065      0.00000
    861       5.1140      0.00000
    862       5.1157      0.00000
    863       5.1251      0.00000
    864       5.3491      0.00000

 soft charge-density along one line, spin component           1
         0         1         2         3         4         5         6         7         8         9
 total charge-density along one line

------------------------ aborting loop because EDIFF is reached ----------------------------------------

  FORCE on cell =-STRESS in cart. coord.  units (eV):
  Direction    XX          YY          ZZ          XY          YZ          ZX
  Alpha Z  1357.53553  1357.53553  1357.53553
  Ewald  474351.88775474351.88775************     0.00000    -0.00002    -0.00001
  Hartree503263.97834503263.97830************     0.00000    -0.00001    -0.00000
  E(xc)   -8396.91286 -8396.91285 -8387.74599    -0.00000    -0.00000    -0.00000
  Local  ************************************    -0.00000     0.00003     0.00001
  n-local -8704.29123 -8704.29117 -8830.31318    -0.00000    -0.00000    -0.00000
  augment  3883.55167  3883.55084  3822.63594    -0.00000     0.00000    -0.00003
  Kinetic 23007.40982 23007.40976 23225.17822    -0.00000    -0.00000     0.00000
  Fock        0.00000     0.00000     0.00000     0.00000     0.00000     0.00000
  Total    -232.41042  -232.41042   -20.81452     0.00000    -0.00000     0.00000
  in kB     -37.68238   -37.68238    -3.37481     0.00000    -0.00000     0.00000

 VOLUME and BASIS-vectors are now :
  energy-cutoff  :      520.00
  volume of cell :     9881.61
      direct lattice vectors                 reciprocal lattice vectors
    21.138852197  0.000000000  0.000000000     0.047306258  0.000000000  0.000000000
     0.000000000 21.138852197  0.000000000     0.000000000  0.047306258  0.000000000
     0.000000000  0.000000000 22.113885220     0.000000000  0.000000000  0.045220457

  length of vectors
    21.138852197 21.138852197 22.113885220     0.047306258  0.047306258  0.045220457

 FORCES acting on ions:
    Electron-Ion                     Ewald-Force                    Non-Local-Force
   0.241E-03 0.137E-07 -.158E+04   -.699E-08 -.165E-07 0.157E+04   0.423E-22 0.270E-22 0.808E+01
   0.244E-03 0.689E-05 -.176E+04   -.266E-05 -.630E-05 0.177E+04   0.269E-21 -.153E-21 -.739E+01
   0.532E-04 -.296E+01 0.931E+03   -.928E-06 0.297E+01 -.923E+03   0.890E-21 -.258E-02 -.749E+01
   0.296E+01 -.318E-03 0.931E+03   -.297E+01 -.220E-05 -.923E+03   0.258E-02 0.247E-20 -.749E+01
   0.527E-04 -.318E-03 -.923E+03   -.101E-05 -.240E-05 0.915E+03   -.127E-20 0.151E-20 0.753E+01
   0.432E+01 -.432E+01 -.922E+03   -.432E+01 0.432E+01 0.914E+03   0.178E-02 -.178E-02 0.753E+01
   0.532E-04 0.296E+01 0.931E+03   -.928E-06 -.297E+01 -.923E+03   0.116E-20 0.258E-02 -.749E+01
   0.460E+01 0.574E+01 0.933E+03   -.460E+01 -.575E+01 -.925E+03   0.665E-02 0.636E-02 -.749E+01
   0.535E-04 0.624E+01 -.921E+03   -.166E-05 -.624E+01 0.913E+03   -.780E-21 0.207E-02 0.753E+01
   0.432E+01 0.432E+01 -.922E+03   -.432E+01 -.432E+01 0.914E+03   0.178E-02 0.178E-02 0.753E+01
   0.539E-04 0.519E+01 0.933E+03   -.171E-05 -.519E+01 -.925E+03   0.744E-23 0.453E-02 -.750E+01
   0.814E+01 0.401E+01 0.936E+03   -.817E+01 -.401E+01 -.928E+03   0.212E-01 0.470E-02 -.750E+01
   0.552E-04 0.430E+01 -.919E+03   -.312E-05 -.430E+01 0.911E+03   -.862E-21 0.132E-02 0.752E+01
   0.920E+01 0.819E+01 -.918E+03   -.921E+01 -.819E+01 0.911E+03   0.651E-02 0.290E-02 0.752E+01
   0.545E-04 -.323E-03 0.935E+03   -.233E-05 0.223E-05 -.927E+03   -.544E-21 0.165E-20 -.750E+01
   0.814E+01 -.401E+01 0.936E+03   -.817E+01 0.401E+01 -.928E+03   0.212E-01 -.470E-02 -.750E+01
   0.552E-04 -.430E+01 -.919E+03   -.312E-05 0.430E+01 0.911E+03   0.179E-20 -.132E-02 0.752E+01
   0.136E+02 -.324E-03 -.916E+03   -.136E+02 0.375E-05 0.908E+03   0.118E-01 -.306E-20 0.752E+01
   0.539E-04 -.519E+01 0.933E+03   -.171E-05 0.519E+01 -.925E+03   0.803E-21 -.453E-02 -.750E+01
   0.460E+01 -.574E+01 0.933E+03   -.460E+01 0.575E+01 -.925E+03   0.665E-02 -.636E-02 -.749E+01
   0.535E-04 -.624E+01 -.921E+03   -.166E-05 0.624E+01 0.913E+03   -.440E-21 -.207E-02 0.753E+01
   0.920E+01 -.819E+01 -.918E+03   -.921E+01 0.819E+01 0.911E+03   0.651E-02 -.290E-02 0.752E+01
   0.574E+01 -.460E+01 0.933E+03   -.575E+01 0.460E+01 -.925E+03   0.636E-02 -.665E-02 -.749E+01
   0.519E+01 -.316E-03 0.933E+03   -.519E+01 -.404E-05 -.925E+03   0.453E-02 -.191E-20 -.750E+01
   0.624E+01 -.317E-03 -.921E+03   -.624E+01 -.394E-05 0.913E+03   0.207E-02 0.391E-20 0.753E+01
   0.819E+01 -.920E+01 -.918E+03   -.819E+01 0.921E+01 0.911E+03   0.290E-02 -.651E-02 0.752E+01
   0.574E+01 0.459E+01 0.933E+03   -.575E+01 -.460E+01 -.925E+03   0.636E-02 0.665E-02 -.749E+01
   0.915E+01 0.119E+02 0.938E+03   -.917E+01 -.119E+02 -.930E+03   0.184E-01 0.276E-01 -.750E+01
   0.114E+02 0.114E+02 -.918E+03   -.114E+02 -.114E+02 0.910E+03   0.656E-02 0.656E-02 0.752E+01
   0.819E+01 0.920E+01 -.918E+03   -.819E+01 -.921E+01 0.911E+03   0.290E-02 0.651E-02 0.752E+01
   0.119E+02 0.915E+01 0.938E+03   -.119E+02 -.917E+01 -.930E+03   0.276E-01 0.184E-01 -.750E+01
   0.210E+02 0.109E+02 0.954E+03   -.211E+02 -.109E+02 -.946E+03   0.919E-01 0.514E-01 -.752E+01
   0.263E+02 0.100E+02 -.909E+03   -.263E+02 -.100E+02 0.901E+03   0.345E-01 0.417E-02 0.751E+01
   0.250E+02 0.250E+02 -.904E+03   -.250E+02 -.250E+02 0.896E+03   0.288E-01 0.288E-01 0.750E+01
   0.176E+02 -.325E-03 0.944E+03   -.177E+02 0.438E-05 -.936E+03   0.839E-01 0.155E-20 -.752E+01
   0.210E+02 -.109E+02 0.954E+03   -.211E+02 0.109E+02 -.946E+03   0.919E-01 -.514E-01 -.752E+01
   0.263E+02 -.100E+02 -.909E+03   -.263E+02 0.100E+02 0.901E+03   0.345E-01 -.417E-02 0.751E+01
   0.528E+02 -.337E-03 -.882E+03   -.531E+02 0.168E-04 0.874E+03   0.275E+00 -.901E-21 0.746E+01
   0.119E+02 -.915E+01 0.938E+03   -.119E+02 0.917E+01 -.930E+03   0.276E-01 -.184E-01 -.750E+01
   0.915E+01 -.119E+02 0.938E+03   -.917E+01 0.119E+02 -.930E+03   0.184E-01 -.276E-01 -.750E+01
   0.114E+02 -.114E+02 -.918E+03   -.114E+02 0.114E+02 0.910E+03   0.656E-02 -.656E-02 0.752E+01
   0.250E+02 -.250E+02 -.904E+03   -.250E+02 0.250E+02 0.896E+03   0.288E-01 -.288E-01 0.750E+01
   0.401E+01 -.814E+01 0.936E+03   -.401E+01 0.817E+01 -.928E+03   0.470E-02 -.212E-01 -.750E+01
   0.527E-04 -.315E-03 0.935E+03   0.943E-06 -.551E-05 -.927E+03   -.148E-20 -.306E-20 -.750E+01
   0.430E+01 -.313E-03 -.919E+03   -.430E+01 -.740E-05 0.911E+03   0.132E-02 0.648E-21 0.752E+01
   0.526E-04 -.136E+02 -.916E+03   0.158E-05 0.136E+02 0.908E+03   -.768E-21 -.118E-01 0.752E+01
   0.401E+01 0.814E+01 0.936E+03   -.401E+01 -.817E+01 -.928E+03   0.470E-02 0.212E-01 -.750E+01
   0.523E-04 0.176E+02 0.944E+03   0.185E-05 -.177E+02 -.936E+03   -.127E-20 0.839E-01 -.752E+01
   0.100E+02 0.263E+02 -.909E+03   -.100E+02 -.263E+02 0.901E+03   0.417E-02 0.345E-01 0.751E+01
   0.526E-04 0.136E+02 -.916E+03   0.158E-05 -.136E+02 0.908E+03   -.335E-21 0.118E-01 0.752E+01
   0.109E+02 0.210E+02 0.954E+03   -.109E+02 -.211E+02 -.946E+03   0.514E-01 0.919E-01 -.752E+01
   0.499E-04 0.214E+02 0.980E+03   0.565E-05 -.215E+02 -.972E+03   -.506E-21 0.554E-01 -.726E+01
   0.480E+02 0.480E+02 -.850E+03   -.483E+02 -.483E+02 0.842E+03   0.219E+00 0.219E+00 0.742E+01
   0.501E-04 0.528E+02 -.882E+03   0.710E-05 -.531E+02 0.874E+03   -.758E-21 0.275E+00 0.746E+01
   0.214E+02 -.334E-03 0.980E+03   -.215E+02 0.134E-04 -.972E+03   0.554E-01 -.269E-20 -.726E+01
   0.499E-04 -.214E+02 0.980E+03   0.565E-05 0.215E+02 -.972E+03   -.210E-21 -.554E-01 -.726E+01
   0.480E+02 -.480E+02 -.850E+03   -.483E+02 0.483E+02 0.842E+03   0.219E+00 -.219E+00 0.742E+01
   0.321E-04 -.406E-03 -.726E+03   0.355E-04 0.842E-04 0.719E+03   -.208E-22 -.688E-22 0.676E+01
   0.109E+02 -.210E+02 0.954E+03   -.109E+02 0.211E+02 -.946E+03   0.514E-01 -.919E-01 -.752E+01
   0.523E-04 -.176E+02 0.944E+03   0.185E-05 0.177E+02 -.936E+03   -.959E-21 -.839E-01 -.752E+01
[...]
   -.609E+01 0.609E+01 0.703E+03   0.610E+01 -.610E+01 -.707E+03   -.143E-01 0.143E-01 0.346E+01
   -.254E+01 0.253E+01 0.700E+03   0.254E+01 -.254E+01 -.704E+03   -.396E-02 0.396E-02 0.347E+01
   -.137E+02 0.102E+02 -.687E+03   0.137E+02 -.102E+02 0.691E+03   -.202E-01 0.161E-01 -.352E+01
   -.919E+01 0.411E+01 -.689E+03   0.920E+01 -.412E+01 0.693E+03   -.105E-01 0.365E-02 -.351E+01
   -.119E+02 0.473E+01 0.708E+03   0.119E+02 -.475E+01 -.712E+03   -.467E-01 0.230E-01 0.345E+01
   -.480E+01 0.460E+01 0.703E+03   0.481E+01 -.460E+01 -.706E+03   -.119E-01 0.947E-02 0.346E+01
   -.227E+02 -.157E-02 -.682E+03   0.227E+02 0.534E-05 0.686E+03   -.401E-01 -.100E-19 -.355E+01
   -.919E+01 -.412E+01 -.689E+03   0.920E+01 0.412E+01 0.693E+03   -.105E-01 -.365E-02 -.351E+01
   -.119E+02 -.473E+01 0.708E+03   0.119E+02 0.475E+01 -.712E+03   -.467E-01 -.230E-01 0.345E+01
   -.668E+01 -.156E-02 0.704E+03   0.669E+01 0.204E-05 -.708E+03   -.193E-01 0.898E-20 0.346E+01
   -.137E+02 -.102E+02 -.687E+03   0.137E+02 0.102E+02 0.691E+03   -.202E-01 -.161E-01 -.352E+01
   -.467E+01 -.561E+01 -.692E+03   0.467E+01 0.561E+01 0.696E+03   -.451E-02 -.473E-02 -.350E+01
   -.609E+01 -.609E+01 0.703E+03   0.610E+01 0.610E+01 -.707E+03   -.143E-01 -.143E-01 0.346E+01
   -.480E+01 -.460E+01 0.703E+03   0.481E+01 0.460E+01 -.706E+03   -.119E-01 -.947E-02 0.346E+01
   -.975E-02 -.190E+00 0.418E+01   0.462E-11 -.122E-11 -.239E-11   0.151E-15 0.132E-15 -.140E+01

 POSITION                                       TOTAL-FORCE (eV/Angst)
     10.56943     12.68331     16.48808         0.000000      0.000000     -0.183356
     10.56943     12.68331     13.92383         0.000000      0.000000      0.058785
      0.00000      0.00000      9.00000         0.000000      0.000721      0.512695
      2.11389      2.11389      9.00000        -0.000721      0.000000      0.512695
      0.00000      2.11389     11.11389         0.000000      0.000000     -0.483097
      2.11389      0.00000     11.11389        -0.000465      0.000465     -0.482572
      0.00000      4.22777      9.00000         0.000000     -0.000721      0.512695
      2.11389      6.34166      9.00000        -0.001835     -0.001789      0.513223
      0.00000      6.34166     11.11389         0.000000     -0.000578     -0.482245
      2.11389      4.22777     11.11389        -0.000465     -0.000465     -0.482572
      0.00000      8.45554      9.00000         0.000000     -0.001304      0.513467
      2.11389     10.56943      9.00000        -0.005689     -0.001393      0.514580
      0.00000     10.56943     11.11389         0.000000     -0.000393     -0.480638
      2.11389      8.45554     11.11389        -0.001561     -0.000815     -0.480278
      0.00000     12.68331      9.00000         0.000000      0.000000      0.513915
      2.11389     14.79720      9.00000        -0.005689      0.001393      0.514580
      0.00000     14.79720     11.11389         0.000000      0.000393     -0.480638
      2.11389     12.68331     11.11389        -0.002586      0.000000     -0.478326
      0.00000     16.91108      9.00000         0.000000      0.001304      0.513467
      2.11389     19.02497      9.00000        -0.001835      0.001789      0.513223
      0.00000     19.02497     11.11389         0.000000      0.000578     -0.482245
      2.11389     16.91108     11.11389        -0.001561      0.000815     -0.480278
      4.22777      0.00000      9.00000        -0.001789      0.001835      0.513223
      6.34166      2.11389      9.00000        -0.001304      0.000000      0.513467
      4.22777      2.11389     11.11389        -0.000578      0.000000     -0.482245
      6.34166      0.00000     11.11389        -0.000815      0.001561     -0.480278
      4.22777      4.22777      9.00000        -0.001789     -0.001835      0.513223
      6.34166      6.34166      9.00000        -0.005228     -0.007659      0.515102
      4.22777      6.34166     11.11389        -0.001625     -0.001625     -0.479762
      6.34166      4.22777     11.11389        -0.000815     -0.001561     -0.480278
      4.22777      8.45554      9.00000        -0.007659     -0.005228      0.515102
      6.34166     10.56943      9.00000        -0.026361     -0.016434      0.517226
      4.22777     10.56943     11.11389        -0.007991     -0.001129     -0.471630
      6.34166      8.45554     11.11389        -0.006280     -0.006280     -0.466730
      4.22777     12.68331      9.00000        -0.021529      0.000000      0.519137
      6.34166     14.79720      9.00000        -0.026361      0.016434      0.517226
      4.22777     14.79720     11.11389        -0.007991      0.001129     -0.471630
      6.34166     12.68331     11.11389        -0.077815      0.000000     -0.436375
      4.22777     16.91108      9.00000        -0.007659      0.005228      0.515102
      6.34166     19.02497      9.00000        -0.005228      0.007659      0.515102
      4.22777     19.02497     11.11389        -0.001625      0.001625     -0.479762
      6.34166     16.91108     11.11389        -0.006280      0.006280     -0.466730
      8.45554      0.00000      9.00000        -0.001393      0.005689      0.514580
     10.56943      2.11389      9.00000         0.000000      0.000000      0.513915
      8.45554      2.11389     11.11389        -0.000393      0.000000     -0.480638
     10.56943      0.00000     11.11389         0.000000      0.002586     -0.478326
      8.45554      4.22777      9.00000        -0.001393     -0.005689      0.514580
     10.56943      6.34166      9.00000         0.000000     -0.021529      0.519137
      8.45554      6.34166     11.11389        -0.001129     -0.007991     -0.471630
     10.56943      4.22777     11.11389         0.000000     -0.002586     -0.478326
      8.45554      8.45554      9.00000        -0.016434     -0.026361      0.517226
     10.56943     10.56943      9.00000         0.000000     -0.013356      0.444436
      8.45554     10.56943     11.11389        -0.060445     -0.060445     -0.409839
     10.56943      8.45554     11.11389         0.000000     -0.077815     -0.436375
      8.45554     12.68331      9.00000        -0.013356      0.000000      0.444436
     10.56943     14.79720      9.00000         0.000000      0.013356      0.444436
      8.45554     14.79720     11.11389        -0.060445      0.060445     -0.409839
     10.56943     12.68331     11.11389         0.000000      0.000000     -0.913405
      8.45554     16.91108      9.00000        -0.016434      0.026361      0.517226
     10.56943     19.02497      9.00000         0.000000      0.021529      0.519137
[...]
     19.02497      6.34166     11.11389        -0.001244      0.001304      0.320474
     16.91108      6.34166      9.00000        -0.003950      0.003950     -0.352387
     19.02497      4.22777      9.00000        -0.001091      0.001091     -0.351149
     16.91108      8.45554     11.11389        -0.005640      0.004492      0.315087
     19.02497     10.56943     11.11389        -0.002960      0.001023      0.317430
     16.91108     10.56943      9.00000        -0.012881      0.006327     -0.355120
     19.02497      8.45554      9.00000        -0.003276      0.002618     -0.352266
     16.91108     12.68331     11.11389        -0.011573      0.000000      0.308057
     19.02497     14.79720     11.11389        -0.002960     -0.001023      0.317430
     16.91108     14.79720      9.00000        -0.012881     -0.006327     -0.355120
     19.02497     12.68331      9.00000        -0.005346      0.000000     -0.353304
     16.91108     16.91108     11.11389        -0.005640     -0.004492      0.315087
     19.02497     19.02497     11.11389        -0.001244     -0.001304      0.320474
     16.91108     19.02497      9.00000        -0.003950     -0.003950     -0.352387
     19.02497     16.91108      9.00000        -0.003276     -0.002618     -0.352266
    total drift:                               -0.009753     -0.189504      2.777243

  FREE ENERGIE OF THE ION-ELECTRON SYSTEM (eV)
  free  energy   TOTEN  =     -1536.97146983 eV

  energy  without entropy=    -1536.97146983  energy(sigma->0) =    -1536.97146983