 vasp.6.3.0 20Jan22 (build Apr  1 2022 16:44:48) complex
 executed on        HPECrayEX_GCC date 2023.02.08  16:18:53

 INCAR:
   SYSTEM = MgO-rocksalt
   ISMEAR = 0
   SIGMA = 0.05
   EDIFF = 1E-6
   ALGO = ALL
   ISTART = 0
   IBRION = -1
   NSW = 0
   ISYM = 2
   DIPOL = 0.5 0.5 0.5
   IDIPOL = 3
   LDIPOL = .TRUE.
   METAGGA = SCAN
   LUSE_VDW = .TRUE.
   BPARAM = 15.7
   CPARAM = 0.0093
   ENCUT = 520
   PREC = Accurate
   LASPH = .TRUE.
   LREAL = Auto
   ISPIN = 1
   NELM = 200
   NELMIN = 8
   NCORE = 4
   KPAR = 2
   LWAVE = .FALSE.
   LCHARG = .FALSE.

 POTCAR:    PAW_PBE Au 04Oct2007
 POTCAR:    PAW_PBE Mg_pv 13Apr2007
 POTCAR:    PAW_PBE O 08Apr2002
|               ----> ADVICE to this user running VASP <----                  |
|     You have switched on vdW-DFT.                                           |
|     This routine was written and supplied by Jiri Klimes. We recommend      |
|     that you carefully read and cite the following publications:            |
|       J. Klimes, D.R. Bowler, A. Michelides                                 |
|          J. Phys.: Cond Matt. 22 022201 (2010)                              |
|       J. Klimes, D.R. Bowler, A. Michelides                                 |
|          Phys. Rev. B. 83, 195131 (2011)                                    |
|     and references therein.                                                 |

   TITEL  = PAW_PBE Au 04Oct2007
   POMASS =  196.966; ZVAL   =   11.000    mass and valenz
   ENMAX  =  229.943; ENMIN  =  172.457 eV

   TITEL  = PAW_PBE Mg_pv 13Apr2007
   POMASS =   24.305; ZVAL   =    8.000    mass and valenz
   ENMAX  =  403.929; ENMIN  =  302.947 eV

   TITEL  = PAW_PBE O 08Apr2002
   POMASS =   16.000; ZVAL   =    6.000    mass and valenz
   ENMAX  =  400.000; ENMIN  =  300.000 eV

 Optimization of the real space projectors (new method)

 maximal supplied QI-value         = 15.12
 optimisation between [QCUT,QGAM] = [ 11.64, 23.28] = [ 37.95,151.78] Ry
 Optimized for a Real-space Cutoff    1.49 Angstroem

   l    n(q)    QCUT    max X(q) W(low)/X(q) W(high)/X(q)  e(spline)
   2      9    11.641    60.898    0.24E-03    0.10E-03    0.19E-06
   2      9    11.641    58.894    0.25E-03    0.10E-03    0.19E-06
   0     10    11.641   109.617    0.73E-04    0.33E-04    0.11E-06
   0     10    11.641    75.026    0.71E-04    0.32E-04    0.11E-06
   1     10    11.641    16.344    0.27E-04    0.97E-04    0.16E-06
   1     10    11.641    10.160    0.23E-04    0.77E-04    0.13E-06
 Optimization of the real space projectors (new method)

[...]

   l    n(q)    QCUT    max X(q) W(low)/X(q) W(high)/X(q)  e(spline)
   1      8    11.527     2.974    0.44E-04    0.56E-04    0.12E-06
   1      8    11.527     4.279    0.12E-03    0.12E-03    0.26E-06
   0      9    11.527    16.381    0.46E-04    0.64E-04    0.78E-07
   0      9    11.527     5.611    0.26E-04    0.43E-04    0.55E-07
   2      8    11.527     4.652    0.22E-03    0.72E-04    0.47E-07
 Optimization of the real space projectors (new method)

 maximal supplied QI-value         = 24.76
 optimisation between [QCUT,QGAM] = [ 11.64, 23.27] = [ 37.91,151.63] Ry
 Optimized for a Real-space Cutoff    1.14 Angstroem

   l    n(q)    QCUT    max X(q) W(low)/X(q) W(high)/X(q)  e(spline)
   0      8    11.635    20.381    0.10E-03    0.33E-03    0.24E-06
   0      8    11.635    15.268    0.11E-03    0.35E-03    0.26E-06
   1      7    11.635     5.964    0.24E-03    0.31E-03    0.30E-06
   1      7    11.635     5.382    0.22E-03    0.25E-03    0.26E-06
  PAW_PBE Au 04Oct2007                  :
  PAW_PBE Mg_pv 13Apr2007               :
  PAW_PBE O 08Apr2002                   :

 POSCAR: Au Mg  O
  positions in direct lattice
  velocities in cartesian coordinates

 METAGGA = SCAN     LMAXTAU =  6    LMIXTAU =  F

 ion  position               nearest neighbor table
   1  0.404  0.596  0.665-   2 2.57   4 2.74
   2  0.332  0.668  0.602- 138 2.40   1 2.57  59 2.71  40 2.71
   3  0.568  0.432  0.602- 173 2.40   4 2.57  75 2.71  56 2.71
   4  0.496  0.504  0.665-   3 2.57   1 2.74
   5  0.000  0.000  0.407- 107 2.11 108 2.11 123 2.11 188 2.11 105 2.11
   6  0.100  0.100  0.407- 107 2.11 108 2.11 112 2.11 127 2.11 106 2.11
   7  0.000  0.100  0.503- 105 2.11 106 2.11 109 2.11 186 2.11 107 2.11
   8  0.100  0.000  0.503- 105 2.11 106 2.11 122 2.11 125 2.11 108 2.11
   9  0.000  0.200  0.407- 111 2.11 107 2.11 112 2.11 192 2.11 109 2.11
  10  0.100  0.300  0.407- 112 2.11 111 2.11 116 2.11 131 2.11 110 2.11
  11  0.000  0.300  0.503- 109 2.11 110 2.11 113 2.11 190 2.11 111 2.11
  12  0.100  0.200  0.503- 110 2.11 109 2.11 106 2.11 129 2.11 112 2.11
  13  0.000  0.400  0.407- 111 2.11 115 2.11 116 2.11 196 2.11 113 2.11
  14  0.100  0.500  0.407- 115 2.11 116 2.11 120 2.11 135 2.11 114 2.11
  15  0.000  0.500  0.503- 113 2.11 114 2.11 117 2.11 194 2.11 115 2.11
  16  0.100  0.400  0.503- 110 2.11 113 2.11 114 2.11 133 2.11 116 2.11
  17  0.000  0.600  0.407- 115 2.11 119 2.11 120 2.11 200 2.11 117 2.11
  18  0.100  0.700  0.407- 124 2.11 120 2.11 119 2.11 139 2.11 118 2.11
  19  0.000  0.700  0.503- 121 2.11 118 2.11 117 2.11 198 2.11 119 2.11
  20  0.100  0.600  0.503- 114 2.11 117 2.11 118 2.11 137 2.11 120 2.11
  21  0.000  0.800  0.407- 119 2.11 123 2.11 124 2.11 204 2.11 121 2.11
  22  0.100  0.900  0.407- 108 2.11 123 2.11 124 2.11 143 2.11 122 2.11
  23  0.000  0.900  0.503- 105 2.11 121 2.11 122 2.11 202 2.11 123 2.11
  24  0.100  0.800  0.503- 118 2.11 121 2.11 122 2.11 141 2.11 124 2.11
  25  0.200  0.000  0.407- 128 2.11 127 2.11 108 2.11 143 2.11 125 2.11
  26  0.300  0.100  0.407- 127 2.11 128 2.11 132 2.11 147 2.11 126 2.11
  27  0.200  0.100  0.503- 126 2.11 125 2.11 106 2.11 129 2.11 127 2.11
  28  0.300  0.000  0.503- 125 2.11 126 2.11 142 2.11 145 2.11 128 2.11
  29  0.200  0.200  0.407- 131 2.11 132 2.11 112 2.11 127 2.11 129 2.11
  30  0.300  0.300  0.407- 131 2.11 132 2.11 136 2.11 151 2.11 130 2.11
  31  0.200  0.300  0.503- 129 2.11 130 2.11 110 2.11 133 2.11 131 2.11
  32  0.300  0.200  0.503- 129 2.11 130 2.11 126 2.11 149 2.11 132 2.11
  33  0.200  0.400  0.407- 136 2.11 131 2.11 135 2.11 116 2.11 133 2.11
  34  0.300  0.500  0.407- 135 2.11 136 2.11 140 2.11 155 2.11 134 2.11
  35  0.200  0.500  0.503- 134 2.11 133 2.11 114 2.11 137 2.11 135 2.11
  36  0.300  0.400  0.503- 133 2.11 130 2.11 134 2.11 153 2.11 136 2.11
  37  0.200  0.600  0.407- 140 2.11 135 2.11 139 2.11 120 2.11 137 2.11
  38  0.300  0.700  0.407- 139 2.11 144 2.11 140 2.11 159 2.11 138 2.11
  39  0.200  0.700  0.503- 138 2.11 141 2.11 118 2.11 137 2.11 139 2.11
  40  0.300  0.600  0.503- 137 2.11 134 2.11 138 2.11 157 2.11 140 2.11   2 2.71
  41  0.200  0.800  0.407- 139 2.11 144 2.11 143 2.11 124 2.11 141 2.11
  42  0.300  0.900  0.407- 143 2.11 128 2.11 144 2.11 163 2.11 142 2.11
  43  0.200  0.900  0.503- 142 2.11 125 2.11 141 2.11 122 2.11 143 2.11
  44  0.300  0.800  0.503- 138 2.11 141 2.11 142 2.11 161 2.11 144 2.11
  45  0.400  0.000  0.407- 128 2.11 147 2.11 148 2.11 163 2.11 145 2.11
  46  0.500  0.100  0.407- 147 2.11 148 2.11 152 2.11 167 2.11 146 2.11
  47  0.400  0.100  0.503- 126 2.11 145 2.11 146 2.11 149 2.11 147 2.11
  48  0.500  0.000  0.503- 145 2.11 146 2.11 162 2.11 165 2.11 148 2.11
  49  0.400  0.200  0.407- 151 2.11 147 2.11 132 2.11 152 2.11 149 2.11
  50  0.500  0.300  0.407- 152 2.11 151 2.11 156 2.11 171 2.11 150 2.11
  51  0.400  0.300  0.503- 149 2.11 130 2.11 150 2.11 153 2.11 151 2.11
  52  0.500  0.200  0.503- 150 2.11 149 2.11 146 2.11 169 2.11 152 2.11
  53  0.400  0.400  0.407- 136 2.11 151 2.11 155 2.11 156 2.11 153 2.11
  54  0.500  0.500  0.407- 155 2.11 156 2.11 160 2.11 175 2.11 154 2.11
  55  0.400  0.500  0.503- 134 2.11 153 2.11 154 2.11 157 2.11 155 2.11
  56  0.500  0.400  0.503- 150 2.11 153 2.11 154 2.11 173 2.11 156 2.11   3 2.71
  57  0.400  0.600  0.407- 140 2.11 155 2.11 159 2.11 160 2.11 157 2.11
  58  0.500  0.700  0.407- 164 2.11 160 2.11 159 2.11 179 2.11 158 2.11
  59  0.400  0.700  0.503- 161 2.11 157 2.11 158 2.11 138 2.11 159 2.11   2 2.71
  60  0.500  0.600  0.503- 154 2.11 157 2.11 158 2.11 177 2.11 160 2.11
[...]
 190  0.900  0.300  0.503-  92 2.11  91 2.11  11 2.11  96 2.11  90 2.11
 191  0.800  0.300  0.407-  70 2.11  89 2.11  90 2.11  93 2.11  91 2.11
 192  0.900  0.200  0.407-  90 2.11  86 2.11  89 2.11   9 2.11  92 2.11
 193  0.800  0.400  0.503-  76 2.11  91 2.11  95 2.11  96 2.11  93 2.11
 194  0.900  0.500  0.503-  15 2.11  95 2.11  96 2.11 100 2.11  94 2.11
 195  0.800  0.500  0.407-  74 2.11  93 2.11  94 2.11  97 2.11  95 2.11
 196  0.900  0.400  0.407-  13 2.11  90 2.11  93 2.11  94 2.11  96 2.11
 197  0.800  0.600  0.503-  80 2.11  95 2.11  99 2.11 100 2.11  97 2.11
 198  0.900  0.700  0.503- 104 2.11  99 2.11 100 2.11  19 2.11  98 2.11
 199  0.800  0.700  0.407-  78 2.11 101 2.11  98 2.11  97 2.11  99 2.11
 200  0.900  0.600  0.407-  17 2.11  94 2.11  97 2.11  98 2.11 100 2.11
 201  0.800  0.800  0.503-  84 2.11  99 2.11 103 2.11 104 2.11 101 2.11
 202  0.900  0.900  0.503-  23 2.11  88 2.11 103 2.11 104 2.11 102 2.11
 203  0.800  0.900  0.407-  82 2.11  85 2.11 101 2.11 102 2.11 103 2.11
 204  0.900  0.800  0.407-  98 2.11  21 2.11 101 2.11 102 2.11 104 2.11

  LATTYP: Found a simple tetragonal cell.
 ALAT       =    21.1388521970
 C/A-ratio  =     1.0461251639

  Lattice vectors:

 A1 = (  21.1388521970,   0.0000000000,   0.0000000000)
 A2 = (   0.0000000000,  21.1388521970,   0.0000000000)
 A3 = (   0.0000000000,   0.0000000000,  22.1138852197)

Analysis of symmetry for initial positions (statically):
 Subroutine PRICEL returns:
 Original cell was already a primitive cell.

 Routine SETGRP: Setting up the symmetry group for a
 simple tetragonal supercell.

 Subroutine GETGRP returns: Found  2 space group operations
 (whereof  1 operations were pure point group operations)
 out of a pool of 16 trial point group operations.

The static configuration has the point symmetry C_1 .
 The point group associated with its full space group is C_1h.

Analysis of symmetry for dynamics (positions and initial velocities):
 Subroutine PRICEL returns:
 Original cell was already a primitive cell.

[...]

The dynamic configuration has the point symmetry C_1 .
 The point group associated with its full space group is C_1h.

Analysis of constrained symmetry for selective dynamics:
 Subroutine PRICEL returns:
 Original cell was already a primitive cell.

 Routine SETGRP: Setting up the symmetry group for a
 simple tetragonal supercell.

 Subroutine GETGRP returns: Found  2 space group operations
 (whereof  1 operations were pure point group operations)
 out of a pool of 16 trial point group operations.

The constrained configuration has the point symmetry C_1 .
 The point group associated with its full space group is C_1h.

 Subroutine INISYM returns: Found  2 space group operations
 (whereof  1 operations are pure point group operations),
 and found     1 'primitive' translations

                                     Primitive cell

  volume of cell :    9881.6133

  direct lattice vectors                    reciprocal lattice vectors
[...]
     52     -44.5405      2.00000
     53     -44.5346      2.00000
     54     -44.5313      2.00000
     55     -44.5305      2.00000
     56     -44.5305      2.00000
     57     -44.5304      2.00000
     58     -44.5304      2.00000
     59     -44.5287      2.00000
     60     -44.5286      2.00000
[...]
    946       6.3779      0.00000
    947       6.4284      0.00000
    948       6.4486      0.00000
    949       6.5888      0.00000
    950       6.6193      0.00000
    951       6.6955      0.00000
    952       6.6971      0.00000
    953       6.8063      0.00000
    954       6.8232      0.00000
    955       6.9281      0.00000
    956       6.9850      0.00000
    957       7.0540      0.00000
    958       7.1698      0.00000
    959       7.2172      0.00000
    960       7.2803      0.00000

 soft charge-density along one line, spin component           1
         0         1         2         3         4         5         6         7         8         9
 total charge-density along one line

------------------------ aborting loop because EDIFF is reached ----------------------------------------

  FORCE on cell =-STRESS in cart. coord.  units (eV):
  Direction    XX          YY          ZZ          XY          YZ          ZX
  Alpha Z  1417.83424  1417.83424  1417.83424
  Ewald  482423.15860482423.15974************ -1155.82133    -0.02915    -0.03097
  Hartree511755.67411511755.67451************  -909.97627    -0.01317    -0.01373
  E(xc)   -8487.12510 -8487.12510 -8479.39068    -0.41044     0.00007     0.00010
  Local  ************************************  2048.27851     0.04101     0.04318
  n-local -8712.92405 -8712.92391 -8835.06715    12.65973    -0.00304    -0.00206
  augment  3974.51002  3974.51002  3915.77001     0.22929     0.00117     0.00223
  Kinetic 23352.67576 23352.67568 23579.79163     8.08624    -0.00093    -0.00111
  Fock        0.00000     0.00000     0.00000     0.00000     0.00000     0.00000
  Total    -243.84956  -243.84956   -30.35814     3.04573    -0.00320    -0.00319
  in kB     -39.53709   -39.53709    -4.92218     0.49383    -0.00052    -0.00052

 VOLUME and BASIS-vectors are now :
  energy-cutoff  :      520.00
  volume of cell :     9881.61
      direct lattice vectors                 reciprocal lattice vectors
    21.138852197  0.000000000  0.000000000     0.047306258  0.000000000  0.000000000
     0.000000000 21.138852197  0.000000000     0.000000000  0.047306258  0.000000000
     0.000000000  0.000000000 22.113885220     0.000000000  0.000000000  0.045220457

  length of vectors
    21.138852197 21.138852197 22.113885220     0.047306258  0.047306258  0.045220457

 FORCES acting on ions:
    Electron-Ion                     Ewald-Force                    Non-Local-Force
   0.484E+02 -.484E+02 -.197E+04   -.510E+02 0.510E+02 0.197E+04   0.255E+01 -.255E+01 0.322E+01
   0.221E+03 -.221E+03 -.203E+04   -.218E+03 0.218E+03 0.203E+04   -.292E+01 0.292E+01 -.288E+01
   -.221E+03 0.221E+03 -.203E+04   0.218E+03 -.218E+03 0.203E+04   0.292E+01 -.292E+01 -.288E+01
   -.484E+02 0.484E+02 -.197E+04   0.510E+02 -.510E+02 0.197E+04   -.255E+01 0.255E+01 0.322E+01
   0.457E+01 -.457E+01 0.937E+03   -.461E+01 0.461E+01 -.929E+03   0.314E-01 -.314E-01 -.748E+01
   0.896E+01 0.203E+01 0.939E+03   -.895E+01 -.195E+01 -.930E+03   -.450E-02 -.585E-01 -.748E+01
   0.331E+01 0.331E+01 -.919E+03   -.328E+01 -.328E+01 0.911E+03   -.220E-01 -.220E-01 0.739E+01
   0.139E+02 -.104E+02 -.916E+03   -.139E+02 0.105E+02 0.908E+03   0.272E-01 -.105E+00 0.739E+01
   0.203E+01 0.896E+01 0.939E+03   -.195E+01 -.895E+01 -.930E+03   -.585E-01 -.450E-02 -.748E+01
   0.143E+02 0.155E+02 0.944E+03   -.142E+02 -.155E+02 -.936E+03   -.525E-01 0.847E-04 -.750E+01
   0.315E+01 0.155E+02 -.915E+03   -.302E+01 -.155E+02 0.907E+03   -.988E-01 -.179E-02 0.738E+01
   0.132E+02 0.132E+02 -.916E+03   -.132E+02 -.132E+02 0.908E+03   -.449E-01 -.449E-01 0.738E+01
   0.487E+01 0.110E+02 0.945E+03   -.477E+01 -.110E+02 -.937E+03   -.802E-01 0.193E-01 -.749E+01
   0.281E+02 0.111E+02 0.957E+03   -.281E+02 -.113E+02 -.949E+03   -.199E-02 0.124E+00 -.751E+01
   0.128E+02 0.788E+01 -.909E+03   -.128E+02 -.792E+01 0.901E+03   -.336E-01 0.287E-01 0.737E+01
   0.306E+02 0.233E+02 -.906E+03   -.304E+02 -.233E+02 0.898E+03   -.115E+00 0.440E-01 0.736E+01
   0.121E+02 -.242E+01 0.949E+03   -.122E+02 0.238E+01 -.941E+03   0.850E-01 0.331E-01 -.750E+01
   0.317E+02 -.129E+02 0.960E+03   -.323E+02 0.128E+02 -.952E+03   0.412E+00 0.493E-01 -.754E+01
   0.203E+02 -.128E+02 -.909E+03   -.205E+02 0.128E+02 0.901E+03   0.160E+00 0.225E-01 0.738E+01
   0.581E+02 0.283E+01 -.893E+03   -.583E+02 -.301E+01 0.885E+03   0.158E+00 0.137E+00 0.734E+01
   0.108E+02 -.130E+02 0.944E+03   -.110E+02 0.130E+02 -.936E+03   0.156E+00 -.168E-01 -.749E+01
   0.158E+02 -.158E+02 0.945E+03   -.159E+02 0.159E+02 -.937E+03   0.114E+00 -.114E+00 -.747E+01
   0.104E+02 -.139E+02 -.916E+03   -.105E+02 0.139E+02 0.908E+03   0.106E+00 -.272E-01 0.739E+01
   0.387E+02 -.287E+02 -.903E+03   -.391E+02 0.288E+02 0.896E+03   0.367E+00 -.297E-01 0.738E+01
   0.130E+02 -.108E+02 0.944E+03   -.130E+02 0.110E+02 -.936E+03   0.168E-01 -.155E+00 -.749E+01
   0.110E+02 0.487E+01 0.945E+03   -.110E+02 -.477E+01 -.937E+03   0.193E-01 -.802E-01 -.749E+01
   0.155E+02 0.315E+01 -.915E+03   -.155E+02 -.302E+01 0.907E+03   -.179E-02 -.988E-01 0.738E+01
   0.128E+02 -.203E+02 -.909E+03   -.128E+02 0.205E+02 0.901E+03   -.225E-01 -.159E+00 0.738E+01
   0.155E+02 0.143E+02 0.944E+03   -.155E+02 -.142E+02 -.936E+03   0.847E-04 -.525E-01 -.750E+01
   0.252E+02 0.322E+02 0.964E+03   -.253E+02 -.321E+02 -.955E+03   0.779E-01 -.392E-01 -.756E+01
   0.329E+02 0.329E+02 -.904E+03   -.328E+02 -.328E+02 0.897E+03   -.662E-01 -.662E-01 0.735E+01
   0.233E+02 0.306E+02 -.906E+03   -.233E+02 -.304E+02 0.898E+03   0.440E-01 -.115E+00 0.736E+01
   0.322E+02 0.252E+02 0.964E+03   -.321E+02 -.253E+02 -.955E+03   -.392E-01 0.779E-01 -.756E+01
   0.426E+02 0.277E+02 0.101E+04   -.426E+02 -.282E+02 -.100E+04   0.284E-02 0.362E+00 -.783E+01
   0.792E+02 0.416E+02 -.869E+03   -.788E+02 -.419E+02 0.862E+03   -.279E+00 0.311E+00 0.725E+01
   0.671E+02 0.671E+02 -.862E+03   -.669E+02 -.669E+02 0.854E+03   -.151E+00 -.151E+00 0.722E+01
   0.499E+02 0.284E+01 0.992E+03   -.501E+02 -.338E+01 -.984E+03   0.156E+00 0.394E+00 -.749E+01
   0.342E+02 -.342E+02 0.102E+04   -.339E+02 0.339E+02 -.102E+04   -.209E+00 0.209E+00 -.501E+01
   0.109E+03 -.431E+02 -.840E+03   -.112E+03 0.427E+02 0.832E+03   0.200E+01 0.230E+00 0.741E+01
   0.120E+03 0.624E+02 -.698E+03   -.120E+03 -.655E+02 0.692E+03   -.494E+00 0.209E+01 0.531E+01
   0.311E+02 -.311E+02 0.970E+03   -.315E+02 0.315E+02 -.962E+03   0.265E+00 -.265E+00 -.737E+01
   0.129E+02 -.317E+02 0.960E+03   -.128E+02 0.323E+02 -.952E+03   -.493E-01 -.411E+00 -.754E+01
   0.287E+02 -.387E+02 -.903E+03   -.288E+02 0.391E+02 0.896E+03   0.296E-01 -.367E+00 0.738E+01
   0.431E+02 -.109E+03 -.839E+03   -.428E+02 0.112E+03 0.832E+03   -.230E+00 -.200E+01 0.741E+01
   0.242E+01 -.121E+02 0.949E+03   -.238E+01 0.122E+02 -.941E+03   -.332E-01 -.849E-01 -.750E+01
   -.242E+01 0.121E+02 0.949E+03   0.238E+01 -.122E+02 -.941E+03   0.331E-01 0.850E-01 -.750E+01
   0.788E+01 0.128E+02 -.909E+03   -.792E+01 -.128E+02 0.901E+03   0.287E-01 -.336E-01 0.737E+01
   -.788E+01 -.129E+02 -.909E+03   0.792E+01 0.128E+02 0.901E+03   -.287E-01 0.338E-01 0.737E+01
   0.111E+02 0.281E+02 0.957E+03   -.113E+02 -.281E+02 -.949E+03   0.124E+00 -.199E-02 -.751E+01
   0.284E+01 0.499E+02 0.992E+03   -.338E+01 -.501E+02 -.984E+03   0.394E+00 0.156E+00 -.749E+01
   0.416E+02 0.792E+02 -.869E+03   -.419E+02 -.788E+02 0.862E+03   0.311E+00 -.279E+00 0.725E+01
   0.283E+01 0.581E+02 -.893E+03   -.301E+01 -.583E+02 0.885E+03   0.137E+00 0.158E+00 0.734E+01
   0.277E+02 0.426E+02 0.101E+04   -.282E+02 -.426E+02 -.100E+04   0.362E+00 0.284E-02 -.783E+01
   -.768E+01 0.770E+01 0.105E+04   0.734E+01 -.737E+01 -.104E+04   0.247E+00 -.247E+00 -.779E+01
   0.665E+02 0.665E+02 -.736E+03   -.667E+02 -.667E+02 0.730E+03   0.137E+00 0.137E+00 0.662E+01
   0.623E+02 0.120E+03 -.698E+03   -.655E+02 -.120E+03 0.692E+03   0.209E+01 -.494E+00 0.531E+01
   0.770E+01 -.767E+01 0.105E+04   -.737E+01 0.734E+01 -.104E+04   -.247E+00 0.247E+00 -.779E+01
   -.277E+02 -.426E+02 0.101E+04   0.282E+02 0.426E+02 -.100E+04   -.362E+00 -.288E-02 -.783E+01
   -.623E+02 -.120E+03 -.698E+03   0.655E+02 0.120E+03 0.692E+03   -.209E+01 0.494E+00 0.531E+01
   -.665E+02 -.665E+02 -.736E+03   0.667E+02 0.667E+02 0.730E+03   -.137E+00 -.137E+00 0.662E+01
[...]
   -.181E+02 0.142E+02 0.716E+03   0.182E+02 -.143E+02 -.720E+03   -.273E+00 0.121E+00 0.353E+01
   -.562E+01 0.799E+01 0.707E+03   0.569E+01 -.802E+01 -.710E+03   -.962E-01 0.495E-01 0.351E+01
   -.422E+02 0.143E+02 -.672E+03   0.424E+02 -.143E+02 0.676E+03   -.299E+00 -.103E+00 -.375E+01
   -.142E+02 0.197E+01 -.683E+03   0.143E+02 -.193E+01 0.687E+03   -.618E-01 -.523E-01 -.370E+01
   -.251E+02 0.366E-02 0.723E+03   0.252E+02 0.151E+00 -.727E+03   -.175E+00 -.204E+00 0.348E+01
   -.983E+01 0.738E+01 0.712E+03   0.992E+01 -.736E+01 -.716E+03   -.136E+00 -.167E-01 0.350E+01
   -.339E+02 -.138E+02 -.676E+03   0.339E+02 0.139E+02 0.680E+03   -.203E-02 -.152E+00 -.374E+01
   -.497E+01 -.108E+02 -.685E+03   0.491E+01 0.108E+02 0.689E+03   0.707E-01 -.118E-01 -.368E+01
   -.155E+02 -.121E+02 0.715E+03   0.154E+02 0.122E+02 -.718E+03   0.484E-01 -.465E-01 0.347E+01
   -.646E+01 -.420E+01 0.713E+03   0.645E+01 0.424E+01 -.716E+03   0.834E-02 -.417E-01 0.349E+01
   -.147E+02 -.156E+02 -.686E+03   0.147E+02 0.156E+02 0.690E+03   0.737E-01 0.268E-01 -.368E+01
   -.171E+01 -.840E+01 -.690E+03   0.166E+01 0.840E+01 0.694E+03   0.595E-01 0.763E-02 -.365E+01
   -.770E+01 -.769E+01 0.707E+03   0.767E+01 0.767E+01 -.711E+03   0.326E-01 0.326E-01 0.350E+01
   -.194E+01 -.909E+01 0.708E+03   0.188E+01 0.910E+01 -.712E+03   0.776E-01 -.668E-02 0.350E+01
   -.729E+00 0.725E+00 0.182E+02   0.199E-11 0.119E-11 0.146E-10   0.304E-02 0.304E-02 -.176E+02

 POSITION                                       TOTAL-FORCE (eV/Angst)
      8.54545     12.59441     14.71338        -0.174535      0.175529     -0.309360
      7.02105     14.11881     13.31306         0.309260     -0.310241     -0.058470
     12.00492      9.13494     13.31306        -0.310241      0.309260     -0.058470
     10.48052     10.65934     14.71338         0.175529     -0.174535     -0.309360
      0.00000      0.00000      9.00000        -0.010367      0.010347      0.595225
      2.11389      2.11389      9.00000         0.001413      0.018878      0.597283
      0.00000      2.11389     11.11389         0.005554      0.005554     -0.556724
      2.11389      0.00000     11.11389        -0.007451      0.026396     -0.554268
      0.00000      4.22777      9.00000         0.018878      0.001413      0.597283
      2.11389      6.34166      9.00000         0.017178      0.000497      0.602330
      0.00000      6.34166     11.11389         0.024783      0.000986     -0.553119
      2.11389      4.22777     11.11389         0.011968      0.011968     -0.554351
      0.00000      8.45554      9.00000         0.025390     -0.006155      0.599900
      2.11389     10.56943      9.00000        -0.000681     -0.040781      0.604269
      0.00000     10.56943     11.11389         0.008891     -0.007253     -0.546060
      2.11389      8.45554     11.11389         0.030445     -0.009059     -0.542444
      0.00000     12.68331      9.00000        -0.027276     -0.011515      0.601258
      2.11389     14.79720      9.00000        -0.126847     -0.017051      0.611910
      0.00000     14.79720     11.11389        -0.037444     -0.006628     -0.546589
      2.11389     12.68331     11.11389        -0.037075     -0.038679     -0.523474
      0.00000     16.91108      9.00000        -0.049624      0.005801      0.598202
      2.11389     19.02497      9.00000        -0.038428      0.038421      0.590831
      0.00000     19.02497     11.11389        -0.026425      0.007429     -0.554280
      2.11389     16.91108     11.11389        -0.089734      0.009278     -0.540116
      4.22777      0.00000      9.00000        -0.005785      0.049585      0.598195
      6.34166      2.11389      9.00000        -0.006155      0.025390      0.599900
      4.22777      2.11389     11.11389         0.000986      0.024783     -0.553119
      6.34166      0.00000     11.11389         0.006617      0.037409     -0.546599
      4.22777      4.22777      9.00000         0.000497      0.017178      0.602330
      6.34166      6.34166      9.00000        -0.023158      0.013879      0.621429
      4.22777      6.34166     11.11389         0.019632      0.019632     -0.540469
      6.34166      4.22777     11.11389        -0.009059      0.030445     -0.542444
      4.22777      8.45554      9.00000         0.013879     -0.023158      0.621429
      6.34166     10.56943      9.00000         0.002969     -0.108527      0.690234
      4.22777     10.56943     11.11389         0.088486     -0.062604     -0.474468
      6.34166      8.45554     11.11389         0.052303      0.052303     -0.471229
      4.22777     12.68331      9.00000        -0.060288     -0.141688      0.580961
      6.34166     14.79720      9.00000         0.079964     -0.079836     -0.139865
      4.22777     14.79720     11.11389        -0.588820     -0.079992     -0.483965
      6.34166     12.68331     11.11389        -0.008119     -1.026161     -0.495514
      4.22777     16.91108      9.00000        -0.098577      0.098604      0.547133
      6.34166     19.02497      9.00000         0.017042      0.126800      0.611910
      4.22777     19.02497     11.11389        -0.009275      0.089722     -0.540067
      6.34166     16.91108     11.11389         0.080061      0.588824     -0.483956
      8.45554      0.00000      9.00000         0.011482      0.027205      0.601270
     10.56943      2.11389      9.00000        -0.011515     -0.027276      0.601258
      8.45554      2.11389     11.11389        -0.007253      0.008891     -0.546060
     10.56943      0.00000     11.11389         0.007274     -0.008936     -0.546021
      8.45554      4.22777      9.00000        -0.040781     -0.000681      0.604269
     10.56943      6.34166      9.00000        -0.141688     -0.060288      0.580961
      8.45554      6.34166     11.11389        -0.062604      0.088486     -0.474468
     10.56943      4.22777     11.11389        -0.038679     -0.037075     -0.523474
      8.45554      8.45554      9.00000        -0.108527      0.002969      0.690234
     10.56943     10.56943      9.00000        -0.088615      0.088695      0.637686
      8.45554     10.56943     11.11389        -0.010369     -0.010369     -0.132490
     10.56943      8.45554     11.11389        -1.026161     -0.008119     -0.495514
      8.45554     12.68331      9.00000         0.088695     -0.088615      0.637686
     10.56943     14.79720      9.00000         0.108522     -0.002980      0.690314
      8.45554     14.79720     11.11389         1.026943      0.008312     -0.496388
     10.56943     12.68331     11.11389         0.010487      0.010487     -0.132189
[...]
     19.02497      6.34166     11.11389        -0.037977      0.005026      0.271211
     16.91108      6.34166      9.00000        -0.075237      0.032697     -0.307870
     19.02497      4.22777      9.00000        -0.026582      0.013626     -0.314629
     16.91108      8.45554     11.11389        -0.087011     -0.028423      0.252195
     19.02497     10.56943     11.11389        -0.017495     -0.014692      0.264861
     16.91108     10.56943      9.00000        -0.048026     -0.055507     -0.322136
     19.02497      8.45554      9.00000        -0.037710     -0.004768     -0.317275
     16.91108     12.68331     11.11389        -0.000917     -0.042789      0.252837
     19.02497     14.79720     11.11389         0.019902     -0.003166      0.269651
     16.91108     14.79720      9.00000         0.013433     -0.012867     -0.324625
     19.02497     12.68331      9.00000         0.002379     -0.011471     -0.320311
     16.91108     16.91108     11.11389         0.020595      0.007470      0.269497
     19.02497     19.02497     11.11389         0.016608      0.002133      0.276358
     16.91108     19.02497      9.00000         0.009007      0.009007     -0.317979
     19.02497     16.91108      9.00000         0.021521     -0.001806     -0.317427
    total drift:                               -0.725827      0.728362      0.552244

  FREE ENERGIE OF THE ION-ELECTRON SYSTEM (eV)
  free  energy   TOTEN  =     -1895.60480840 eV

  energy  without entropy=    -1895.60480840  energy(sigma->0) =    -1895.60480840