 vasp.6.3.0 20Jan22 (build Apr  1 2022 16:44:48) complex
 executed on        HPECrayEX_GCC date 2023.01.09  18:30:06

 INCAR:
   SYSTEM = MgO-rocksalt
   ISMEAR = 0
   SIGMA = 0.05
   EDIFF = 1E-6
   ALGO = ALL
   ISTART = 0
   IBRION = -1
   NSW = 0
   ISYM = 2
   DIPOL = 0.5 0.5 0.5
   IDIPOL = 3
   LDIPOL = .TRUE.
   GGA = RE
   IVDW = 21
   VDW_SR = 0.6
   ENCUT = 520
   PREC = Accurate
   LASPH = .TRUE.
   LREAL = Auto
   ISPIN = 1
   NELM = 200
   NELMIN = 8
   NCORE = 4
   KPAR = 2
   LWAVE = .FALSE.
   LCHARG = .FALSE.

 POTCAR:    PAW_PBE Au 04Oct2007
 POTCAR:    PAW_PBE Mg_pv 13Apr2007
 POTCAR:    PAW_PBE O 08Apr2002
 POTCAR:    PAW_PBE Au 04Oct2007
   VRHFIN =Au: s1d10

   TITEL  = PAW_PBE Au 04Oct2007
   POMASS =  196.966; ZVAL   =   11.000    mass and valenz
   ENMAX  =  229.943; ENMIN  =  172.457 eV

   TITEL  = PAW_PBE Mg_pv 13Apr2007
   POMASS =   24.305; ZVAL   =    8.000    mass and valenz
   ENMAX  =  403.929; ENMIN  =  302.947 eV

   TITEL  = PAW_PBE O 08Apr2002
   POMASS =   16.000; ZVAL   =    6.000    mass and valenz
   ENMAX  =  400.000; ENMIN  =  300.000 eV

 Optimization of the real space projectors (new method)

 maximal supplied QI-value         = 15.12
 optimisation between [QCUT,QGAM] = [ 11.64, 23.28] = [ 37.95,151.78] Ry
 Optimized for a Real-space Cutoff    1.49 Angstroem

   l    n(q)    QCUT    max X(q) W(low)/X(q) W(high)/X(q)  e(spline)
   2      9    11.641    60.898    0.24E-03    0.10E-03    0.19E-06
   2      9    11.641    58.894    0.25E-03    0.10E-03    0.19E-06
   0     10    11.641   109.617    0.73E-04    0.33E-04    0.11E-06
   0     10    11.641    75.026    0.71E-04    0.32E-04    0.11E-06
   1     10    11.641    16.344    0.27E-04    0.97E-04    0.16E-06
   1     10    11.641    10.160    0.23E-04    0.77E-04    0.13E-06
 Optimization of the real space projectors (new method)

[...]

   l    n(q)    QCUT    max X(q) W(low)/X(q) W(high)/X(q)  e(spline)
   1      8    11.527     2.974    0.44E-04    0.56E-04    0.12E-06
   1      8    11.527     4.279    0.12E-03    0.12E-03    0.26E-06
   0      9    11.527    16.381    0.46E-04    0.64E-04    0.78E-07
   0      9    11.527     5.611    0.26E-04    0.43E-04    0.55E-07
   2      8    11.527     4.652    0.22E-03    0.72E-04    0.47E-07
 Optimization of the real space projectors (new method)

 maximal supplied QI-value         = 24.76
 optimisation between [QCUT,QGAM] = [ 11.64, 23.27] = [ 37.91,151.63] Ry
 Optimized for a Real-space Cutoff    1.14 Angstroem

   l    n(q)    QCUT    max X(q) W(low)/X(q) W(high)/X(q)  e(spline)
   0      8    11.635    20.381    0.10E-03    0.33E-03    0.24E-06
   0      8    11.635    15.268    0.11E-03    0.35E-03    0.26E-06
   1      7    11.635     5.964    0.24E-03    0.31E-03    0.30E-06
   1      7    11.635     5.382    0.22E-03    0.25E-03    0.26E-06
|               ----> ADVICE to this user running VASP <----                  |
|     You enforced a specific xc type in the INCAR file but a different       |
|     type was found in the POTCAR file.                                      |
|     I HOPE YOU KNOW WHAT YOU ARE DOING!                                     |

  PAW_PBE Au 04Oct2007                  :
  PAW_PBE Mg_pv 13Apr2007               :
  PAW_PBE O 08Apr2002                   :

 POSCAR: Au Mg  O
  positions in direct lattice
  velocities in cartesian coordinates
 exchange correlation table for  LEXCH =       40
   RHO(1)=    0.500       N(1)  =     2000
   RHO(2)=  100.500       N(2)  =     4000

 ion  position               nearest neighbor table
   1  0.404  0.596  0.665-   2 2.57   4 2.74
   2  0.332  0.668  0.602- 138 2.40   1 2.57  59 2.71  40 2.71
   3  0.568  0.432  0.602- 173 2.40   4 2.57  75 2.71  56 2.71
   4  0.496  0.504  0.665-   3 2.57   1 2.74
   5  0.000  0.000  0.407- 107 2.11 108 2.11 123 2.11 188 2.11 105 2.11
   6  0.100  0.100  0.407- 107 2.11 108 2.11 112 2.11 127 2.11 106 2.11
   7  0.000  0.100  0.503- 105 2.11 106 2.11 109 2.11 186 2.11 107 2.11
   8  0.100  0.000  0.503- 105 2.11 106 2.11 122 2.11 125 2.11 108 2.11
   9  0.000  0.200  0.407- 111 2.11 107 2.11 112 2.11 192 2.11 109 2.11
  10  0.100  0.300  0.407- 112 2.11 111 2.11 116 2.11 131 2.11 110 2.11
  11  0.000  0.300  0.503- 109 2.11 110 2.11 113 2.11 190 2.11 111 2.11
  12  0.100  0.200  0.503- 110 2.11 109 2.11 106 2.11 129 2.11 112 2.11
  13  0.000  0.400  0.407- 111 2.11 115 2.11 116 2.11 196 2.11 113 2.11
  14  0.100  0.500  0.407- 115 2.11 116 2.11 120 2.11 135 2.11 114 2.11
  15  0.000  0.500  0.503- 113 2.11 114 2.11 117 2.11 194 2.11 115 2.11
  16  0.100  0.400  0.503- 110 2.11 113 2.11 114 2.11 133 2.11 116 2.11
  17  0.000  0.600  0.407- 115 2.11 119 2.11 120 2.11 200 2.11 117 2.11
  18  0.100  0.700  0.407- 124 2.11 120 2.11 119 2.11 139 2.11 118 2.11
  19  0.000  0.700  0.503- 121 2.11 118 2.11 117 2.11 198 2.11 119 2.11
  20  0.100  0.600  0.503- 114 2.11 117 2.11 118 2.11 137 2.11 120 2.11
  21  0.000  0.800  0.407- 119 2.11 123 2.11 124 2.11 204 2.11 121 2.11
  22  0.100  0.900  0.407- 108 2.11 123 2.11 124 2.11 143 2.11 122 2.11
  23  0.000  0.900  0.503- 105 2.11 121 2.11 122 2.11 202 2.11 123 2.11
  24  0.100  0.800  0.503- 118 2.11 121 2.11 122 2.11 141 2.11 124 2.11
  25  0.200  0.000  0.407- 128 2.11 127 2.11 108 2.11 143 2.11 125 2.11
  26  0.300  0.100  0.407- 127 2.11 128 2.11 132 2.11 147 2.11 126 2.11
  27  0.200  0.100  0.503- 126 2.11 125 2.11 106 2.11 129 2.11 127 2.11
  28  0.300  0.000  0.503- 125 2.11 126 2.11 142 2.11 145 2.11 128 2.11
  29  0.200  0.200  0.407- 131 2.11 132 2.11 112 2.11 127 2.11 129 2.11
  30  0.300  0.300  0.407- 131 2.11 132 2.11 136 2.11 151 2.11 130 2.11
  31  0.200  0.300  0.503- 129 2.11 130 2.11 110 2.11 133 2.11 131 2.11
  32  0.300  0.200  0.503- 129 2.11 130 2.11 126 2.11 149 2.11 132 2.11
  33  0.200  0.400  0.407- 136 2.11 131 2.11 135 2.11 116 2.11 133 2.11
  34  0.300  0.500  0.407- 135 2.11 136 2.11 140 2.11 155 2.11 134 2.11
  35  0.200  0.500  0.503- 134 2.11 133 2.11 114 2.11 137 2.11 135 2.11
  36  0.300  0.400  0.503- 133 2.11 130 2.11 134 2.11 153 2.11 136 2.11
  37  0.200  0.600  0.407- 140 2.11 135 2.11 139 2.11 120 2.11 137 2.11
  38  0.300  0.700  0.407- 139 2.11 144 2.11 140 2.11 159 2.11 138 2.11
  39  0.200  0.700  0.503- 138 2.11 141 2.11 118 2.11 137 2.11 139 2.11
  40  0.300  0.600  0.503- 137 2.11 134 2.11 138 2.11 157 2.11 140 2.11   2 2.71
  41  0.200  0.800  0.407- 139 2.11 144 2.11 143 2.11 124 2.11 141 2.11
  42  0.300  0.900  0.407- 143 2.11 128 2.11 144 2.11 163 2.11 142 2.11
  43  0.200  0.900  0.503- 142 2.11 125 2.11 141 2.11 122 2.11 143 2.11
  44  0.300  0.800  0.503- 138 2.11 141 2.11 142 2.11 161 2.11 144 2.11
  45  0.400  0.000  0.407- 128 2.11 147 2.11 148 2.11 163 2.11 145 2.11
  46  0.500  0.100  0.407- 147 2.11 148 2.11 152 2.11 167 2.11 146 2.11
  47  0.400  0.100  0.503- 126 2.11 145 2.11 146 2.11 149 2.11 147 2.11
  48  0.500  0.000  0.503- 145 2.11 146 2.11 162 2.11 165 2.11 148 2.11
  49  0.400  0.200  0.407- 151 2.11 147 2.11 132 2.11 152 2.11 149 2.11
  50  0.500  0.300  0.407- 152 2.11 151 2.11 156 2.11 171 2.11 150 2.11
  51  0.400  0.300  0.503- 149 2.11 130 2.11 150 2.11 153 2.11 151 2.11
  52  0.500  0.200  0.503- 150 2.11 149 2.11 146 2.11 169 2.11 152 2.11
  53  0.400  0.400  0.407- 136 2.11 151 2.11 155 2.11 156 2.11 153 2.11
  54  0.500  0.500  0.407- 155 2.11 156 2.11 160 2.11 175 2.11 154 2.11
  55  0.400  0.500  0.503- 134 2.11 153 2.11 154 2.11 157 2.11 155 2.11
  56  0.500  0.400  0.503- 150 2.11 153 2.11 154 2.11 173 2.11 156 2.11   3 2.71
  57  0.400  0.600  0.407- 140 2.11 155 2.11 159 2.11 160 2.11 157 2.11
  58  0.500  0.700  0.407- 164 2.11 160 2.11 159 2.11 179 2.11 158 2.11
  59  0.400  0.700  0.503- 161 2.11 157 2.11 158 2.11 138 2.11 159 2.11   2 2.71
  60  0.500  0.600  0.503- 154 2.11 157 2.11 158 2.11 177 2.11 160 2.11
[...]
 190  0.900  0.300  0.503-  92 2.11  91 2.11  11 2.11  96 2.11  90 2.11
 191  0.800  0.300  0.407-  70 2.11  89 2.11  90 2.11  93 2.11  91 2.11
 192  0.900  0.200  0.407-  90 2.11  86 2.11  89 2.11   9 2.11  92 2.11
 193  0.800  0.400  0.503-  76 2.11  91 2.11  95 2.11  96 2.11  93 2.11
 194  0.900  0.500  0.503-  15 2.11  95 2.11  96 2.11 100 2.11  94 2.11
 195  0.800  0.500  0.407-  74 2.11  93 2.11  94 2.11  97 2.11  95 2.11
 196  0.900  0.400  0.407-  13 2.11  90 2.11  93 2.11  94 2.11  96 2.11
 197  0.800  0.600  0.503-  80 2.11  95 2.11  99 2.11 100 2.11  97 2.11
 198  0.900  0.700  0.503- 104 2.11  99 2.11 100 2.11  19 2.11  98 2.11
 199  0.800  0.700  0.407-  78 2.11 101 2.11  98 2.11  97 2.11  99 2.11
 200  0.900  0.600  0.407-  17 2.11  94 2.11  97 2.11  98 2.11 100 2.11
 201  0.800  0.800  0.503-  84 2.11  99 2.11 103 2.11 104 2.11 101 2.11
 202  0.900  0.900  0.503-  23 2.11  88 2.11 103 2.11 104 2.11 102 2.11
 203  0.800  0.900  0.407-  82 2.11  85 2.11 101 2.11 102 2.11 103 2.11
 204  0.900  0.800  0.407-  98 2.11  21 2.11 101 2.11 102 2.11 104 2.11

  LATTYP: Found a simple tetragonal cell.
 ALAT       =    21.1388521970
 C/A-ratio  =     1.0461251639

  Lattice vectors:

 A1 = (  21.1388521970,   0.0000000000,   0.0000000000)
 A2 = (   0.0000000000,  21.1388521970,   0.0000000000)
 A3 = (   0.0000000000,   0.0000000000,  22.1138852197)

Analysis of symmetry for initial positions (statically):
 Subroutine PRICEL returns:
 Original cell was already a primitive cell.

 Routine SETGRP: Setting up the symmetry group for a
 simple tetragonal supercell.

 Subroutine GETGRP returns: Found  2 space group operations
 (whereof  1 operations were pure point group operations)
 out of a pool of 16 trial point group operations.

The static configuration has the point symmetry C_1 .
 The point group associated with its full space group is C_1h.

Analysis of symmetry for dynamics (positions and initial velocities):
 Subroutine PRICEL returns:
 Original cell was already a primitive cell.

[...]

The dynamic configuration has the point symmetry C_1 .
 The point group associated with its full space group is C_1h.

Analysis of constrained symmetry for selective dynamics:
 Subroutine PRICEL returns:
 Original cell was already a primitive cell.

 Routine SETGRP: Setting up the symmetry group for a
 simple tetragonal supercell.

 Subroutine GETGRP returns: Found  2 space group operations
 (whereof  1 operations were pure point group operations)
 out of a pool of 16 trial point group operations.

The constrained configuration has the point symmetry C_1 .
 The point group associated with its full space group is C_1h.

 Subroutine INISYM returns: Found  2 space group operations
 (whereof  1 operations are pure point group operations),
 and found     1 'primitive' translations

                                     Primitive cell

  volume of cell :    9881.6133

  direct lattice vectors                    reciprocal lattice vectors
    21.138852197  0.000000000  0.000000000     0.047306258  0.000000000  0.000000000
     0.000000000 21.138852197  0.000000000     0.000000000  0.047306258  0.000000000
     0.000000000  0.000000000 22.113885220     0.000000000  0.000000000  0.045220457

  length of vectors
    21.138852197 21.138852197 22.113885220     0.047306258  0.047306258  0.045220457

[...]
   O         167.867          4.745         17.714          3.28034359
   O         168.116          4.746         17.727          3.28277322
   O         166.156          4.737         17.623          3.26357936
   O         166.908          4.741         17.663          3.27095812
   O         168.269          4.747         17.735          3.28426325
   O         168.163          4.747         17.729          3.28323117
   O         166.975          4.741         17.667          3.27161356
   O         167.141          4.742         17.675          3.27324061
   O         168.204          4.747         17.732          3.28362734
   O         168.171          4.747         17.730          3.28331342

  vdW correction parametrized for the method         

  IVDW =  21
  VDW_RADIUS =    50.000 A
  VDW_IDAMPF =  0
  VDW_S6 =     1.000
  VDW_SR =     0.600
  VDW_D =    20.000
  LVDW_ONECELL = F F F
  LVDW_SAMETYPE T T T
  LVDW_EWALD = F

  Number of pair interactions contributing to vdW energy: 1118590
  Edisp (eV):  -68.78182

  FORCE on cell =-STRESS in cart. coord.  units (eV):
  Direction    XX          YY          ZZ          XY          YZ          ZX
  Alpha Z  1417.83424  1417.83424  1417.83424
  Ewald  482423.15860482423.15974************ -1155.82133    -0.02915    -0.03097
  Hartree511616.17740511616.17780************  -910.24445    -0.01304    -0.01361
  E(xc)   -7873.93383 -7873.93383 -7922.82439    -1.47535     0.00011     0.00011
  Local  ************************************  2048.88677     0.04094     0.04311
  n-local -8712.82141 -8712.82138 -8833.94634    11.17951    -0.00285    -0.00310
  augment  3547.30357  3547.30357  3489.30330     1.83488     0.00129     0.00130
  Kinetic 23320.11240 23320.11238 23562.01912     6.58310    -0.00035    -0.00016
  Fock        0.00000     0.00000     0.00000     0.00000     0.00000     0.00000
  vdW         3.36046     3.36045    15.45797     0.22772     0.00062     0.00059
  Total     -98.19549   -98.19549    58.23300     1.17085    -0.00259    -0.00259
  in kB     -15.92114   -15.92114     9.44174     0.18984    -0.00042    -0.00042

 VOLUME and BASIS-vectors are now :
  energy-cutoff  :      520.00
  volume of cell :     9881.61
      direct lattice vectors                 reciprocal lattice vectors
    21.138852197  0.000000000  0.000000000     0.047306258  0.000000000  0.000000000
     0.000000000 21.138852197  0.000000000     0.000000000  0.047306258  0.000000000
     0.000000000  0.000000000 22.113885220     0.000000000  0.000000000  0.045220457

  length of vectors
    21.138852197 21.138852197 22.113885220     0.047306258  0.047306258  0.045220457

 FORCES acting on ions:
    Electron-Ion                     Ewald-Force                    Non-Local-Force
   0.491E+02 -.492E+02 -.197E+04   -.510E+02 0.510E+02 0.197E+04   0.191E+01 -.191E+01 0.266E+01
   0.221E+03 -.221E+03 -.203E+04   -.218E+03 0.218E+03 0.203E+04   -.253E+01 0.253E+01 -.217E+01
   -.221E+03 0.221E+03 -.203E+04   0.218E+03 -.218E+03 0.203E+04   0.253E+01 -.253E+01 -.217E+01
   -.492E+02 0.492E+02 -.197E+04   0.510E+02 -.510E+02 0.197E+04   -.191E+01 0.191E+01 0.266E+01
   0.457E+01 -.457E+01 0.937E+03   -.461E+01 0.461E+01 -.929E+03   0.308E-01 -.308E-01 -.755E+01
   0.896E+01 0.203E+01 0.938E+03   -.895E+01 -.195E+01 -.930E+03   -.462E-02 -.581E-01 -.756E+01
   0.331E+01 0.331E+01 -.918E+03   -.328E+01 -.328E+01 0.911E+03   -.208E-01 -.208E-01 0.747E+01
   0.139E+02 -.104E+02 -.916E+03   -.139E+02 0.105E+02 0.908E+03   0.247E-01 -.987E-01 0.746E+01
   0.202E+01 0.896E+01 0.938E+03   -.195E+01 -.895E+01 -.930E+03   -.581E-01 -.462E-02 -.756E+01
   0.143E+02 0.155E+02 0.944E+03   -.142E+02 -.155E+02 -.936E+03   -.521E-01 0.664E-03 -.757E+01
   0.314E+01 0.155E+02 -.915E+03   -.302E+01 -.155E+02 0.907E+03   -.919E-01 -.706E-03 0.746E+01
   0.132E+02 0.132E+02 -.916E+03   -.132E+02 -.132E+02 0.908E+03   -.415E-01 -.415E-01 0.746E+01
   0.487E+01 0.110E+02 0.945E+03   -.477E+01 -.110E+02 -.937E+03   -.798E-01 0.199E-01 -.757E+01
   0.281E+02 0.111E+02 0.957E+03   -.281E+02 -.113E+02 -.949E+03   -.560E-02 0.122E+00 -.758E+01
   0.128E+02 0.788E+01 -.909E+03   -.128E+02 -.792E+01 0.901E+03   -.299E-01 0.266E-01 0.745E+01
   0.306E+02 0.233E+02 -.906E+03   -.304E+02 -.233E+02 0.898E+03   -.107E+00 0.438E-01 0.744E+01
   0.121E+02 -.242E+01 0.949E+03   -.122E+02 0.238E+01 -.941E+03   0.844E-01 0.314E-01 -.757E+01
   0.317E+02 -.129E+02 0.960E+03   -.323E+02 0.128E+02 -.952E+03   0.414E+00 0.468E-01 -.763E+01
   0.203E+02 -.128E+02 -.909E+03   -.205E+02 0.128E+02 0.901E+03   0.146E+00 0.197E-01 0.746E+01
   0.581E+02 0.285E+01 -.893E+03   -.583E+02 -.301E+01 0.885E+03   0.145E+00 0.121E+00 0.743E+01
   0.108E+02 -.130E+02 0.943E+03   -.110E+02 0.130E+02 -.936E+03   0.154E+00 -.159E-01 -.757E+01
   0.158E+02 -.158E+02 0.944E+03   -.159E+02 0.159E+02 -.937E+03   0.111E+00 -.111E+00 -.755E+01
   0.104E+02 -.139E+02 -.916E+03   -.105E+02 0.139E+02 0.908E+03   0.987E-01 -.247E-01 0.746E+01
   0.387E+02 -.287E+02 -.903E+03   -.391E+02 0.288E+02 0.896E+03   0.337E+00 -.243E-01 0.746E+01
   0.130E+02 -.109E+02 0.943E+03   -.130E+02 0.110E+02 -.936E+03   0.159E-01 -.153E+00 -.757E+01
   0.110E+02 0.487E+01 0.945E+03   -.110E+02 -.477E+01 -.937E+03   0.199E-01 -.798E-01 -.757E+01
   0.155E+02 0.314E+01 -.915E+03   -.155E+02 -.302E+01 0.907E+03   -.706E-03 -.919E-01 0.746E+01
   0.128E+02 -.203E+02 -.909E+03   -.128E+02 0.205E+02 0.901E+03   -.197E-01 -.146E+00 0.746E+01
   0.155E+02 0.143E+02 0.944E+03   -.155E+02 -.142E+02 -.936E+03   0.664E-03 -.521E-01 -.757E+01
   0.252E+02 0.322E+02 0.963E+03   -.253E+02 -.321E+02 -.955E+03   0.780E-01 -.400E-01 -.763E+01
   0.329E+02 0.329E+02 -.904E+03   -.328E+02 -.328E+02 0.897E+03   -.602E-01 -.602E-01 0.744E+01
   0.233E+02 0.306E+02 -.906E+03   -.233E+02 -.304E+02 0.898E+03   0.438E-01 -.107E+00 0.744E+01
   0.322E+02 0.252E+02 0.963E+03   -.321E+02 -.253E+02 -.955E+03   -.400E-01 0.780E-01 -.763E+01
   0.425E+02 0.277E+02 0.101E+04   -.426E+02 -.282E+02 -.100E+04   0.152E-01 0.367E+00 -.791E+01
   0.791E+02 0.416E+02 -.869E+03   -.788E+02 -.419E+02 0.862E+03   -.265E+00 0.293E+00 0.736E+01
   0.671E+02 0.671E+02 -.862E+03   -.669E+02 -.669E+02 0.854E+03   -.148E+00 -.148E+00 0.734E+01
   0.499E+02 0.288E+01 0.992E+03   -.501E+02 -.338E+01 -.984E+03   0.144E+00 0.378E+00 -.758E+01
   0.342E+02 -.342E+02 0.102E+04   -.339E+02 0.339E+02 -.102E+04   -.205E+00 0.205E+00 -.507E+01
   0.109E+03 -.430E+02 -.839E+03   -.112E+03 0.427E+02 0.832E+03   0.188E+01 0.208E+00 0.752E+01
   0.120E+03 0.626E+02 -.698E+03   -.120E+03 -.655E+02 0.692E+03   -.453E+00 0.190E+01 0.545E+01
   0.312E+02 -.312E+02 0.969E+03   -.315E+02 0.315E+02 -.962E+03   0.251E+00 -.252E+00 -.747E+01
   0.129E+02 -.318E+02 0.960E+03   -.128E+02 0.323E+02 -.952E+03   -.468E-01 -.414E+00 -.763E+01
   0.287E+02 -.387E+02 -.903E+03   -.288E+02 0.391E+02 0.896E+03   0.242E-01 -.337E+00 0.746E+01
   0.431E+02 -.109E+03 -.839E+03   -.428E+02 0.112E+03 0.832E+03   -.209E+00 -.188E+01 0.752E+01
   0.242E+01 -.121E+02 0.949E+03   -.238E+01 0.122E+02 -.941E+03   -.314E-01 -.843E-01 -.757E+01
   -.242E+01 0.121E+02 0.949E+03   0.238E+01 -.122E+02 -.941E+03   0.314E-01 0.844E-01 -.757E+01
   0.788E+01 0.128E+02 -.909E+03   -.792E+01 -.128E+02 0.901E+03   0.266E-01 -.299E-01 0.745E+01
   -.788E+01 -.129E+02 -.909E+03   0.792E+01 0.128E+02 0.901E+03   -.266E-01 0.301E-01 0.745E+01
   0.111E+02 0.281E+02 0.957E+03   -.113E+02 -.281E+02 -.949E+03   0.122E+00 -.560E-02 -.758E+01
   0.287E+01 0.499E+02 0.992E+03   -.338E+01 -.501E+02 -.984E+03   0.378E+00 0.144E+00 -.758E+01
   0.416E+02 0.792E+02 -.869E+03   -.419E+02 -.788E+02 0.862E+03   0.293E+00 -.265E+00 0.736E+01
   0.285E+01 0.581E+02 -.893E+03   -.301E+01 -.583E+02 0.885E+03   0.121E+00 0.145E+00 0.743E+01
   0.277E+02 0.425E+02 0.101E+04   -.282E+02 -.426E+02 -.100E+04   0.367E+00 0.152E-01 -.791E+01
   -.764E+01 0.767E+01 0.105E+04   0.734E+01 -.737E+01 -.104E+04   0.227E+00 -.227E+00 -.784E+01
   0.665E+02 0.665E+02 -.736E+03   -.667E+02 -.667E+02 0.730E+03   0.174E+00 0.174E+00 0.692E+01
   0.626E+02 0.120E+03 -.698E+03   -.655E+02 -.120E+03 0.692E+03   0.190E+01 -.453E+00 0.545E+01
   0.766E+01 -.764E+01 0.105E+04   -.737E+01 0.734E+01 -.104E+04   -.227E+00 0.227E+00 -.784E+01
   -.277E+02 -.425E+02 0.101E+04   0.282E+02 0.426E+02 -.100E+04   -.367E+00 -.152E-01 -.791E+01
   -.626E+02 -.120E+03 -.698E+03   0.655E+02 0.120E+03 0.692E+03   -.190E+01 0.453E+00 0.544E+01
   -.664E+02 -.664E+02 -.736E+03   0.667E+02 0.667E+02 0.730E+03   -.174E+00 -.174E+00 0.692E+01
[...]
   -.181E+02 0.142E+02 0.716E+03   0.182E+02 -.143E+02 -.720E+03   -.252E+00 0.114E+00 0.344E+01
   -.563E+01 0.800E+01 0.706E+03   0.569E+01 -.802E+01 -.710E+03   -.898E-01 0.463E-01 0.342E+01
   -.423E+02 0.143E+02 -.672E+03   0.424E+02 -.143E+02 0.676E+03   -.273E+00 -.933E-01 -.365E+01
   -.142E+02 0.197E+01 -.682E+03   0.143E+02 -.193E+01 0.687E+03   -.573E-01 -.471E-01 -.360E+01
   -.251E+02 -.525E-02 0.723E+03   0.252E+02 0.151E+00 -.727E+03   -.162E+00 -.191E+00 0.339E+01
   -.984E+01 0.738E+01 0.712E+03   0.992E+01 -.736E+01 -.716E+03   -.125E+00 -.147E-01 0.341E+01
   -.339E+02 -.138E+02 -.675E+03   0.339E+02 0.139E+02 0.680E+03   -.618E-02 -.142E+00 -.364E+01
   -.496E+01 -.108E+02 -.685E+03   0.491E+01 0.108E+02 0.689E+03   0.640E-01 -.127E-01 -.358E+01
   -.155E+02 -.121E+02 0.714E+03   0.154E+02 0.122E+02 -.718E+03   0.458E-01 -.434E-01 0.339E+01
   -.646E+01 -.420E+01 0.712E+03   0.645E+01 0.424E+01 -.716E+03   0.708E-02 -.397E-01 0.340E+01
   -.147E+02 -.156E+02 -.685E+03   0.147E+02 0.156E+02 0.690E+03   0.679E-01 0.242E-01 -.358E+01
   -.171E+01 -.840E+01 -.689E+03   0.166E+01 0.840E+01 0.694E+03   0.551E-01 0.690E-02 -.356E+01
   -.770E+01 -.769E+01 0.707E+03   0.767E+01 0.767E+01 -.711E+03   0.305E-01 0.305E-01 0.341E+01
   -.194E+01 -.909E+01 0.708E+03   0.188E+01 0.910E+01 -.712E+03   0.721E-01 -.646E-02 0.341E+01
   -.731E+00 0.729E+00 0.151E+02   0.199E-11 0.119E-11 0.146E-10   0.288E-02 0.288E-02 -.158E+02

 POSITION                                       TOTAL-FORCE (eV/Angst)
      8.54545     12.59441     14.71338         0.388516     -0.387687      0.125499
      7.02105     14.11881     13.31306        -0.073630      0.073162      0.012014
     12.00492      9.13494     13.31306         0.073162     -0.073630      0.012014
     10.48052     10.65934     14.71338        -0.387687      0.388516      0.125499
      0.00000      0.00000      9.00000        -0.008477      0.008452      0.305813
      2.11389      2.11389      9.00000         0.001137      0.015283      0.307641
      0.00000      2.11389     11.11389         0.005462      0.005462     -0.273873
      2.11389      0.00000     11.11389        -0.006868      0.025234     -0.271740
      0.00000      4.22777      9.00000         0.015283      0.001137      0.307641
      2.11389      6.34166      9.00000         0.013949      0.000466      0.312088
      0.00000      6.34166     11.11389         0.024149      0.000962     -0.270465
      2.11389      4.22777     11.11389         0.011703      0.011703     -0.271386
      0.00000      8.45554      9.00000         0.020297     -0.005050      0.309949
      2.11389     10.56943      9.00000        -0.000544     -0.033214      0.314111
      0.00000     10.56943     11.11389         0.009113     -0.006979     -0.264224
      2.11389      8.45554     11.11389         0.030362     -0.008597     -0.260674
      0.00000     12.68331      9.00000        -0.021771     -0.009301      0.311264
      2.11389     14.79720      9.00000        -0.101555     -0.013795      0.318547
      0.00000     14.79720     11.11389        -0.037233     -0.006328     -0.265336
      2.11389     12.68331     11.11389        -0.046385     -0.037968     -0.245902
      0.00000     16.91108      9.00000        -0.039599      0.004745      0.308350
      2.11389     19.02497      9.00000        -0.031177      0.031164      0.302091
      0.00000     19.02497     11.11389        -0.025261      0.006851     -0.271739
      2.11389     16.91108     11.11389        -0.091435      0.009652     -0.261801
      4.22777      0.00000      9.00000        -0.004756      0.039565      0.308352
      6.34166      2.11389      9.00000        -0.005050      0.020297      0.309949
      4.22777      2.11389     11.11389         0.000962      0.024149     -0.270465
      6.34166      0.00000     11.11389         0.006319      0.037183     -0.265334
      4.22777      4.22777      9.00000         0.000466      0.013949      0.312088
      6.34166      6.34166      9.00000        -0.017526      0.011747      0.329424
      4.22777      6.34166     11.11389         0.019474      0.019474     -0.258636
      6.34166      4.22777     11.11389        -0.008597      0.030362     -0.260674
      4.22777      8.45554      9.00000         0.011747     -0.017526      0.329424
      6.34166     10.56943      9.00000         0.000786     -0.087985      0.389567
      4.22777     10.56943     11.11389         0.078849     -0.075405     -0.203965
      6.34166      8.45554     11.11389         0.043868      0.043868     -0.198457
      4.22777     12.68331      9.00000        -0.053604     -0.120445      0.284939
      6.34166     14.79720      9.00000         0.067834     -0.067740     -0.263095
      4.22777     14.79720     11.11389        -0.567255     -0.069483     -0.230628
      6.34166     12.68331     11.11389        -0.025968     -0.951907     -0.275261
      4.22777     16.91108      9.00000        -0.085358      0.085375      0.259791
      6.34166     19.02497      9.00000         0.013792      0.101510      0.318558
      4.22777     19.02497     11.11389        -0.009645      0.091414     -0.261802
      6.34166     16.91108     11.11389         0.069530      0.567256     -0.230626
      8.45554      0.00000      9.00000         0.009291      0.021728      0.311269
     10.56943      2.11389      9.00000        -0.009301     -0.021771      0.311264
      8.45554      2.11389     11.11389        -0.006979      0.009113     -0.264224
     10.56943      0.00000     11.11389         0.006970     -0.009169     -0.264217
      8.45554      4.22777      9.00000        -0.033214     -0.000544      0.314111
     10.56943      6.34166      9.00000        -0.120445     -0.053604      0.284939
      8.45554      6.34166     11.11389        -0.075405      0.078849     -0.203965
     10.56943      4.22777     11.11389        -0.037968     -0.046385     -0.245902
      8.45554      8.45554      9.00000        -0.087985      0.000786      0.389567
     10.56943     10.56943      9.00000        -0.073087      0.073140      0.310770
      8.45554     10.56943     11.11389        -0.050702     -0.050702      0.082871
     10.56943      8.45554     11.11389        -0.951907     -0.025968     -0.275261
      8.45554     12.68331      9.00000         0.073140     -0.073087      0.310770
     10.56943     14.79720      9.00000         0.087989     -0.000795      0.389633
      8.45554     14.79720     11.11389         0.952934      0.026297     -0.276385
     10.56943     12.68331     11.11389         0.050803      0.050803      0.083127
[...]
     19.02497      6.34166     11.11389        -0.035179      0.004576      0.854422
     16.91108      6.34166      9.00000        -0.069074      0.031150     -0.888568
     19.02497      4.22777      9.00000        -0.025264      0.013036     -0.893885
     16.91108      8.45554     11.11389        -0.079221     -0.025869      0.839583
     19.02497     10.56943     11.11389        -0.017304     -0.012570      0.848176
     16.91108     10.56943      9.00000        -0.043308     -0.052201     -0.901505
     19.02497      8.45554      9.00000        -0.034940     -0.004149     -0.896496
     16.91108     12.68331     11.11389        -0.002103     -0.038230      0.836350
     19.02497     14.79720     11.11389         0.017606     -0.003989      0.853149
     16.91108     14.79720      9.00000         0.012029     -0.012719     -0.902042
     19.02497     12.68331      9.00000         0.001468     -0.011222     -0.898183
     16.91108     16.91108     11.11389         0.018175      0.006037      0.853284
     19.02497     19.02497     11.11389         0.015228      0.001705      0.859755
     16.91108     19.02497      9.00000         0.008394      0.008394     -0.897350
     19.02497     16.91108      9.00000         0.020049     -0.001852     -0.896680
    total drift:                               -0.728447      0.731791     -0.647868

  FREE ENERGIE OF THE ION-ELECTRON SYSTEM (eV)
  free  energy   TOTEN  =     -1161.70317932 eV

  energy  without entropy=    -1161.70317932  energy(sigma->0) =    -1161.70317932