 vasp.6.4.0 14Feb23 (build Mar 22 2023 21:21:37) complex

 executed on           IFC15_impi date 2023.05.05  17:52:14

 INCAR:
   SYSTEM = MgO-rocksalt
   ISMEAR = 0
   SIGMA = 0.05
   EDIFF = 1E-6
   ALGO = ALL
   ISTART = 0
   IBRION = -1
   NSW = 0
   ISYM = 2
   DIPOL = 0.5 0.5 0.5
   IDIPOL = 3
   LDIPOL = .TRUE.
   GGA = ML
   LUSE_VDW = .TRUE.
   ZAB_VDW = -1.8867
   AGGAC = 0.0000
   ENCUT = 520
   PREC = Accurate
   LASPH = .TRUE.
   LREAL = Auto
   ISPIN = 1
   NELM = 200
   NELMIN = 8
   NCORE = 4
   KPAR = 2
   LWAVE = .FALSE.
   LCHARG = .FALSE.

 POTCAR:    PAW_PBE Au 04Oct2007
 POTCAR:    PAW_PBE Mg_pv 13Apr2007
 POTCAR:    PAW_PBE O 08Apr2002
|               ----> ADVICE to this user running VASP <----                  |
|     You have switched on vdW-DFT.                                           |
|     This routine was written and supplied by Jiri Klimes. We recommend      |
|     that you carefully read and cite the following publications:            |
|       J. Klimes, D.R. Bowler, A. Michelides                                 |
|          J. Phys.: Cond Matt. 22 022201 (2010)                              |
|       J. Klimes, D.R. Bowler, A. Michelides                                 |
|          Phys. Rev. B. 83, 195131 (2011)                                    |
|     and references therein.                                                 |

   TITEL  = PAW_PBE Au 04Oct2007
   POMASS =  196.966; ZVAL   =   11.000    mass and valenz
   ENMAX  =  229.943; ENMIN  =  172.457 eV

   TITEL  = PAW_PBE Mg_pv 13Apr2007
   POMASS =   24.305; ZVAL   =    8.000    mass and valenz
   ENMAX  =  403.929; ENMIN  =  302.947 eV

   TITEL  = PAW_PBE O 08Apr2002
   POMASS =   16.000; ZVAL   =    6.000    mass and valenz
   ENMAX  =  400.000; ENMIN  =  300.000 eV

 Optimization of the real space projectors (new method)

 maximal supplied QI-value         = 15.12
 optimisation between [QCUT,QGAM] = [ 11.64, 23.28] = [ 37.95,151.78] Ry
 Optimized for a Real-space Cutoff    1.49 Angstroem

   l    n(q)    QCUT    max X(q) W(low)/X(q) W(high)/X(q)  e(spline)
   2      9    11.641    60.898    0.24E-03    0.10E-03    0.19E-06
   2      9    11.641    58.894    0.25E-03    0.10E-03    0.19E-06
   0     10    11.641   109.617    0.73E-04    0.33E-04    0.11E-06
   0     10    11.641    75.026    0.71E-04    0.32E-04    0.11E-06
   1     10    11.641    16.344    0.27E-04    0.97E-04    0.16E-06
   1     10    11.641    10.160    0.23E-04    0.77E-04    0.13E-06
 Optimization of the real space projectors (new method)

[...]

   l    n(q)    QCUT    max X(q) W(low)/X(q) W(high)/X(q)  e(spline)
   1      8    11.527     2.974    0.44E-04    0.56E-04    0.12E-06
   1      8    11.527     4.279    0.12E-03    0.12E-03    0.26E-06
   0      9    11.527    16.381    0.46E-04    0.64E-04    0.78E-07
   0      9    11.527     5.611    0.26E-04    0.43E-04    0.55E-07
   2      8    11.527     4.652    0.22E-03    0.72E-04    0.47E-07
 Optimization of the real space projectors (new method)

 maximal supplied QI-value         = 24.76
 optimisation between [QCUT,QGAM] = [ 11.64, 23.27] = [ 37.91,151.63] Ry
 Optimized for a Real-space Cutoff    1.14 Angstroem

   l    n(q)    QCUT    max X(q) W(low)/X(q) W(high)/X(q)  e(spline)
   0      8    11.635    20.381    0.10E-03    0.33E-03    0.24E-06
   0      8    11.635    15.268    0.11E-03    0.35E-03    0.26E-06
   1      7    11.635     5.964    0.24E-03    0.31E-03    0.30E-06
   1      7    11.635     5.382    0.22E-03    0.25E-03    0.26E-06
|               ----> ADVICE to this user running VASP <----                  |
|     You enforced a specific xc type in the INCAR file but a different       |
|     type was found in the POTCAR file.                                      |
|     I HOPE YOU KNOW WHAT YOU ARE DOING!                                     |

  PAW_PBE Au 04Oct2007                  :
  PAW_PBE Mg_pv 13Apr2007               :
  PAW_PBE O 08Apr2002                   :

 POSCAR: Mg  O
  positions in direct lattice
  velocities in cartesian coordinates
 exchange correlation table for  LEXCH =       44
   RHO(1)=    0.500       N(1)  =     2000
   RHO(2)=  100.500       N(2)  =     4000

 ion  position               nearest neighbor table
   1  0.431  0.227  0.583- 265 2.50   2 2.73   5 2.74  11 2.75  68 2.95  67 3.01
   2  0.559  0.237  0.590-   3 2.65   1 2.73  12 2.78  11 2.83   6 2.87   5 2.95  68 3.06
   3  0.683  0.252  0.593-   2 2.65   4 2.67  12 2.79   6 2.82  13 2.87   7 2.91  88 3.01
   4  0.809  0.260  0.596-   3 2.67   7 2.72  13 2.76 107 2.99
   5  0.476  0.348  0.587-   8 2.70   1 2.74  14 2.75  11 2.81   6 2.86  72 2.89   2 2.95
   6  0.610  0.363  0.590-   3 2.82   9 2.82   8 2.86   5 2.86   2 2.87  15 2.93   7 2.93  14 2.96
                            12 2.99  87 3.02
   7  0.748  0.373  0.593-   9 2.67   4 2.72  15 2.80  13 2.87   3 2.91   6 2.93  92 3.00
   8  0.524  0.467  0.585- 270 2.69   5 2.70  10 2.76  14 2.76  16 2.84   6 2.86  72 2.98   9 3.28

   9  0.678  0.478  0.587- 290 2.66   7 2.67  10 2.73  15 2.77   6 2.82  16 2.89   8 3.28
  10  0.595  0.576  0.580- 293 2.37  16 2.68   9 2.73   8 2.76  91 2.91
  11  0.480  0.269  0.662-  17 2.70   1 2.75   5 2.81  12 2.83   2 2.83  14 2.91
  12  0.613  0.277  0.669-  17 2.75  18 2.76   2 2.78   3 2.79  11 2.83  13 2.83   6 2.99  14 3.17
                            15 3.18
  13  0.745  0.297  0.672-  18 2.67   4 2.76  15 2.82  12 2.83   7 2.87   3 2.87
  14  0.525  0.399  0.664-   5 2.75  19 2.75  17 2.76   8 2.76  16 2.86  11 2.91   6 2.96  12 3.17
                            15 3.26
  15  0.679  0.413  0.667-   9 2.77  19 2.77  18 2.78   7 2.80  16 2.81  13 2.82   6 2.93  12 3.18
                            14 3.26
  16  0.595  0.515  0.658-  10 2.68  19 2.70  15 2.81   8 2.84  14 2.86   9 2.89
  17  0.533  0.318  0.736-  11 2.70  20 2.70  12 2.75  14 2.76  18 2.98  19 3.01
  18  0.673  0.333  0.741-  20 2.67  13 2.67  12 2.76  15 2.78  19 2.91  17 2.98
  19  0.595  0.446  0.734-  16 2.70  20 2.72  14 2.75  15 2.77  18 2.91  17 3.01
  20  0.595  0.368  0.806-  18 2.67  17 2.70  19 2.72
  21  0.000  1.000  0.430- 304 2.11 223 2.11 239 2.11 224 2.11 321 2.12 221 2.13
  22  0.100  0.100  0.430- 223 2.11 224 2.11 228 2.11 243 2.12 322 2.12 222 2.13
  23  0.000  0.100  0.500- 223 2.11 302 2.11 222 2.11 221 2.11 225 2.12
  24  0.100  1.000  0.500- 224 2.10 221 2.11 238 2.11 241 2.11 222 2.11
  25  1.000  0.200  0.430- 308 2.11 223 2.11 228 2.11 227 2.11 325 2.12 225 2.13
  26  0.100  0.300  0.430- 227 2.11 232 2.11 228 2.11 247 2.12 326 2.12 226 2.13
  27  0.000  0.300  0.500- 227 2.11 226 2.11 306 2.11 225 2.12 229 2.12
  28  0.100  0.200  0.500- 228 2.11 225 2.11 245 2.11 222 2.11 226 2.12
  29  1.000  0.400  0.430- 312 2.11 232 2.11 227 2.11 231 2.12 329 2.12 229 2.13
  30  0.100  0.500  0.430- 231 2.11 251 2.11 236 2.11 232 2.11 330 2.12 230 2.13
  31  0.000  0.500  0.500- 231 2.11 230 2.11 310 2.11 233 2.12 229 2.12
  32  0.100  0.400  0.500- 232 2.11 229 2.11 249 2.11 230 2.12 226 2.12
  33  0.000  0.600  0.430- 236 2.11 235 2.11 231 2.11 316 2.11 333 2.12 233 2.13
  34  0.100  0.700  0.430- 235 2.11 240 2.11 255 2.11 236 2.11 334 2.12 234 2.13
  35  0.000  0.700  0.500- 235 2.11 234 2.11 237 2.11 314 2.11 233 2.11
  36  0.100  0.600  0.500- 236 2.11 233 2.11 253 2.11 234 2.11 230 2.11
  37  0.000  0.800  0.430- 239 2.11 240 2.11 235 2.11 320 2.11 337 2.12 237 2.13
  38  0.100  0.900  0.430- 239 2.11 240 2.11 224 2.11 259 2.11 338 2.12 238 2.13
  39  0.000  0.900  0.500- 239 2.10 221 2.11 238 2.11 237 2.11 318 2.11
  40  0.100  0.800  0.500- 240 2.10 237 2.11 238 2.11 257 2.11 234 2.11
  41  0.200  1.000  0.430- 224 2.11 259 2.11 243 2.12 244 2.12 341 2.12 241 2.13
  42  0.300  0.100  0.430- 243 2.11 244 2.11 263 2.11 248 2.11 342 2.13 242 2.13
  43  0.200  0.100  0.500- 243 2.11 222 2.11 241 2.11 245 2.12 242 2.12
  44  0.300  1.000  0.500- 244 2.11 241 2.11 258 2.11 261 2.12 242 2.12
  45  0.200  0.200  0.430- 228 2.11 243 2.11 247 2.11 345 2.12 248 2.13 245 2.14
  46  0.300  0.300  0.430- 267 2.11 247 2.11 252 2.11 248 2.12 346 2.12 246 2.13
  47  0.200  0.300  0.500- 226 2.11 247 2.11 249 2.11 246 2.12 245 2.12
  48  0.298  0.200  0.500- 245 2.09 248 2.11 246 2.11 242 2.11 265 2.13
  49  0.200  0.400  0.430- 232 2.11 252 2.11 251 2.11 247 2.12 349 2.12 249 2.13
  50  0.300  0.500  0.430- 251 2.11 256 2.11 252 2.11 271 2.12 350 2.12 250 2.13
  51  0.200  0.500  0.500- 251 2.11 230 2.11 250 2.11 253 2.11 249 2.12
  52  0.299  0.400  0.500- 249 2.10 252 2.11 269 2.11 250 2.11 246 2.12
  53  0.200  0.600  0.430- 236 2.11 255 2.11 251 2.11 256 2.11 353 2.12 253 2.13
  54  0.300  0.700  0.430- 255 2.11 260 2.11 256 2.11 275 2.12 354 2.12 254 2.13
  55  0.200  0.700  0.500- 255 2.11 234 2.11 257 2.11 253 2.11 254 2.11
  56  0.299  0.600  0.500- 253 2.11 256 2.11 254 2.11 273 2.11 250 2.12
  57  0.200  0.800  0.430- 240 2.11 255 2.11 259 2.11 260 2.12 357 2.12 257 2.13
  58  0.300  0.900  0.430- 259 2.11 260 2.11 279 2.11 244 2.12 358 2.12 258 2.13
  59  0.200  0.900  0.500- 259 2.10 238 2.11 257 2.11 241 2.11 258 2.11
  60  0.300  0.800  0.500- 260 2.10 257 2.11 258 2.11 254 2.11 277 2.12
  61  0.400  1.000  0.430- 264 2.11 244 2.11 279 2.11 361 2.12 263 2.13 261 2.13
  62  0.500  0.100  0.430- 268 2.11 264 2.11 283 2.11 263 2.12 362 2.12 262 2.12
  63  0.400  0.098  0.500- 261 2.09 263 2.11 262 2.11 242 2.11 265 2.14
  64  0.500  1.000  0.500- 264 2.11 278 2.11 262 2.11 281 2.11 261 2.12
  65  0.400  0.200  0.429- 268 2.10 267 2.10 248 2.10 263 2.10 365 2.11
  66  0.500  0.300  0.429- 266 2.07 366 2.10 287 2.11 268 2.12 267 2.12 272 2.13
  67  0.399  0.302  0.500- 269 2.09 246 2.11 267 2.12 266 2.12 265 2.16   1 3.01
  68  0.501  0.199  0.500- 285 2.09 262 2.11 268 2.11 266 2.13 265 2.16   1 2.95   2 3.06
  69  0.400  0.400  0.430- 269 2.11 252 2.11 369 2.11 272 2.11 271 2.12 267 2.13
  70  0.500  0.500  0.429- 272 2.10 271 2.11 370 2.11 276 2.12 291 2.12 270 2.14
  71  0.399  0.500  0.500- 250 2.10 269 2.10 271 2.11 273 2.12 270 2.13
  72  0.500  0.399  0.500- 266 2.11 272 2.11 269 2.13 289 2.13 270 2.15   5 2.89   8 2.98
  73  0.400  0.600  0.430- 256 2.11 271 2.11 275 2.11 373 2.12 276 2.13 273 2.13
  74  0.500  0.700  0.430- 280 2.11 275 2.11 295 2.12 276 2.12 374 2.12 274 2.13
  75  0.399  0.701  0.500- 254 2.10 277 2.11 275 2.11 273 2.12 274 2.12
[...]
 406  0.900  0.300  0.359- 208 2.11 207 2.11 127 2.11 212 2.11 206 2.11 106 2.12
 407  0.800  0.300  0.289- 186 2.11 205 2.11 206 2.11 209 2.11 207 2.11
 408  0.900  0.200  0.289- 206 2.11 202 2.11 205 2.11 125 2.11 208 2.11
 409  0.800  0.400  0.359- 192 2.11 207 2.11 211 2.11 212 2.11 209 2.11 109 2.12
 410  0.900  0.500  0.359- 131 2.11 211 2.11 212 2.11 216 2.11 210 2.11 110 2.12
 411  0.800  0.500  0.289- 190 2.11 209 2.11 210 2.11 213 2.11 211 2.11
 412  0.900  0.400  0.289- 129 2.11 206 2.11 209 2.11 210 2.11 212 2.11
 413  0.800  0.600  0.359- 196 2.11 211 2.11 215 2.11 216 2.11 213 2.11 113 2.12
 414  0.900  0.700  0.359- 220 2.11 215 2.11 216 2.11 135 2.11 214 2.11 114 2.12
 415  0.800  0.700  0.289- 194 2.11 217 2.11 214 2.11 213 2.11 215 2.11
[...]
  329                  fftbas_plan_mpi                      19.566208                513   8
  330                    dfftw_execute                        12.606841             1539   9
  331                    map_forward                           6.593126             1026   9
  332                      map_gather                            1.451336            513  10
  333                      m_alltoallv_z                         0.978398            513  10
  334                      map_scatter                           2.297856            513  10
  335            rpromu                                5.707423                      135   5
  336              crrexp_mul_wave                       2.980472                 215460   6
  337              rpromu_gemm                           1.992402                  56700   6
  338              m_sumb_d                              0.078653                    513   6
  339          m_sumb_d                              0.000957                         10   4
  340        m_sumb_d                              0.001928                            7   3
  341        fft3d_mpi                             1.567517                           71   3
  342          fftbrc_mpi                            1.472075                         71   4
  343            fftbas_plan_mpi                       1.471800                       71   5
  344              dfftw_execute                         0.485289                    213   6
  345              map_forward                           0.432628                     70   6
  346                map_gather                            0.106556                   35   7
  347                m_alltoallv_z                         0.267387                   35   7
  348                map_scatter                           0.057459                   35   7
  349              map_backward                          0.495022                     72   6
  350                map_gather                            0.060754                   36   7
  351                m_alltoallv_z                         0.307904                   36   7
  352                map_scatter                           0.125295                   36   7
  353        ggaall_grid                           0.463211                            1   3
  354        forhar                                3.302735                            1   3
  355          m_sumb_d                              0.000204                          1   4
  356        strehar                               0.041270                            1   3
  357          m_sumb_d                              0.005715                          1   4
  358        m_bcast_d                             0.000386                            2   3
  359      potlok                               15.027270                              1   2
  360        fft3d_mpi                             1.602161                           73   3
  361          fftbrc_mpi                            1.501279                         73   4
  362            fftbas_plan_mpi                       1.501014                       73   5
  363              dfftw_execute                         0.501859                    219   6
  364              map_forward                           0.439071                     74   6
  365                map_gather                            0.108576                   38   7
  366                m_alltoallv_z                         0.261986                   38   7
  367                map_scatter                           0.067406                   38   7
  368              map_backward                          0.500710                     72   6
  369                map_gather                            0.060629                   36   7
  370                m_alltoallv_z                         0.312243                   36   7
  371                map_scatter                           0.126620                   36   7
  372        ggaall_grid                           0.465600                            1   3
  373        m_sumb_d                              0.001417                            8   3
  374        fewald                                0.001570                            2   3
  375          rsp                                   0.001374                          2   4
  376          rcp                                   0.000099                          2   4
  377        pothar                                0.006006                            1   3
  378          m_sumb_d                              0.002073                          1   4
  379        m_bcast_d                             0.011161                            1   3
  380      potlok_metagga                        0.000001                              1   2
  381      set_dd_magatom                        0.000001                              1   2
  382      set_dd_paw                            1.129986                              1   2
  383        set_rsgf_all                          0.000001                            1   3
  384        m_sumb_d                              0.812740                            8   3

 Flat profile

 edwav                                1012.329282          54
 potlok                                732.106930          56
 lincom                                403.025666         169
 dfftw_execute                         370.428196       54201
 orth1                                 215.355454        7623
 eddav                                 124.219172           5
 wfinit                                 98.986645           1
 m_sumb_d                               86.488451       30739
 map_scatter                            67.604875       18178
 m_alltoallv_z                          62.025994       18178
 ggemm                                  57.482685        1249
 map_gather                             53.494817       18178
 fftwav_mpi                             49.642771        9698
 m_alltoall_d                           45.670160       59986
 choleski                               39.540341          55
 eccp                                   38.316799        6441
 map_forward                            35.162760       23612
 ggaall_grid                            26.930743          57
 eddiag                                 25.121941          28
 crrexp_mul_work_add                    22.072112     1051260
 total_time                             21.917980           1
 racc0                                  20.277073        2503
 set_dd_paw                             18.042366          57
 crrexp_mul_wave                        17.223418     1242780
 vhamil                                 16.283310        2560
 rpro1                                  16.005167        2218
 pw_charge                              15.611742        2640
 fftbas_plan_mpi                        13.153665       18067
 force_and_stress                       12.953123           1
 m_bcast_z                              12.652277        2881
 lapack                                  7.738564         964
 w1_dscal                                6.860634        1539
 redis_pw                                6.289651        9025
 augmentation_charge                     6.212685          55
 fft3d_mpi                               6.111928       18067
 fftext_mpi                              5.368598        4099
 setdij_                                 4.891997          83
 rspher_all                              3.998582          14
 phaser                                  3.741111          45
 forloc                                  3.303852           1
 forhar                                  3.302531           1
 rpromu_gemm                             2.895856       81900
 stufak                                  1.974565           1
 orthch                                  1.269989          55
 overl                                   1.088517        3292
 kinhamil                                1.062908        2560
 m_bcast_d                               0.963022        1988
 rpromu                                  0.943960         195
 w1_copy                                 0.879253        2892
 elmin_all                               0.662823           1
 soft_charge                             0.501124          55
 redis_proj                              0.427006        8513
 setup_precond                           0.289377         285
 depsum                                  0.261334          55
 apply_precond                           0.241910         679
 pothar                                  0.219630          56
 inisym                                  0.198171           1
 map_backward                            0.193417       12522
 overl1                                  0.136957         964
 fft_gq                                  0.103213          55
 rsp                                     0.092050         113
 set_charge                              0.069272          55
 strnlr                                  0.058411           1
 fftbas_mpi                              0.058331       13797
 densta                                  0.045918          66
 strkin                                  0.036405           1
 strehar                                 0.035555           1
 strelo                                  0.029683           1
 hamilt_local                            0.026007        1596
 hamiltmu                                0.025381         964
 fornlr                                  0.021399           1
 newband                                 0.020834         969
 fftbrc_mpi                              0.018215        4270
 fewald                                  0.012449         113
 raccmu_                                 0.012205         964
 rpro_isp                                0.012024          13
 rcp                                     0.007037         113
 w1_projall                              0.005346         679
 brgrid                                  0.003098           1
 truncate_high_frequency_w1              0.001483        1249
 fordep                                  0.000889           1
 redis_pw_all                            0.000639          54
 crpa_reader                             0.000327           1
 posmap                                  0.000312           2
 redis_pw_over_bands                     0.000299          55
 set_rsgf_all                            0.000200          57
 proall                                  0.000082           1
 potlok_metagga                          0.000066          56
 vectorpot                               0.000027           1
 rotate_active_occupied_orbital          0.000022           1
 set_dd_magatom                          0.000013           2
 shift_bands_between_low_high            0.000009           1
  summed up times    3802.85307192802

 Accumulative profile

 total_time                           3802.853072           1
 elmin_all                            3576.372133           1
 edwav                                1999.564088          54
 potlok                                850.525260          56
 fft3d_mpi                             608.252199       18067
 fftbas_plan_mpi                       602.063725       18067
 fftbas_mpi                            513.400767       13797
 eddav                                 421.100487           5
 fftwav_mpi                            420.955964        9698
 lincom                                403.025666         169
 dfftw_execute                         370.428196       54201
 orthch                                238.730593          55
 orth1                                 215.355454        7623
 map_forward                           151.020577       23612
 fftext_mpi                            147.522218        4099
 set_charge                            143.332253          55
 soft_charge                           135.345479          55
 wfinit                                111.096641           1
 eddiag                                110.047589          28
 kinhamil                               92.379717        2560
 fftbrc_mpi                             88.739504        4270
 m_sumb_d                               86.488451       30739
 map_scatter                            67.604875       18178
 hamilt_local                           67.589072        1596
 map_backward                           67.461286       12522
 force_and_stress                       66.356476           1
 set_dd_paw                             64.596671          57
 m_alltoallv_z                          62.025994       18178
 hamiltmu                               57.861871         964
 ggemm                                  57.482685        1249
 map_gather                             53.494817       18178
 m_alltoall_d                           45.670160       59986
 racc0                                  42.913406        2503
 redis_pw                               42.539664        9025
 rpro_isp                               40.405014          13
 choleski                               39.540341          55
 eccp                                   38.542633        6441
 strnlr                                 31.407265           1
 rpro1                                  29.846271        2218
 ggaall_grid                            26.930743          57
 crrexp_mul_work_add                    22.072112     1051260
 crrexp_mul_wave                        17.223418     1242780
 raccmu_                                16.736528         964
 vhamil                                 16.283310        2560
 pw_charge                              15.611742        2640
 newband                                15.456014         969
 m_bcast_z                              12.652277        2881
 fornlr                                 10.488956           1
 redis_proj                              9.847153        8513
 w1_projall                              9.453921         679
 rpromu                                  8.264956         195
 redis_pw_over_bands                     8.102822          55
 redis_pw_all                            8.102523          54
 lapack                                  7.738564         964
 augmentation_charge                     7.518456          55
 w1_dscal                                6.860634        1539
 setdij_                                 5.304513          83
 rspher_all                              3.998582          14
 phaser                                  3.741111          45
 forloc                                  3.304110           1
 forhar                                  3.302735           1
 proall                                  3.271302           1
 rpromu_gemm                             2.895856       81900
 stufak                                  1.974565           1
 fft_gq                                  1.359826          55
 overl                                   1.088517        3292
 m_bcast_d                               0.963022        1988
 w1_copy                                 0.879253        2892
 depsum                                  0.399046          55
 fordep                                  0.374220           1
 setup_precond                           0.310906         285
 pothar                                  0.307991          56
 fewald                                  0.258701         113
 apply_precond                           0.241910         679
 inisym                                  0.198483           1
 densta                                  0.185425          66
 overl1                                  0.136957         964
 rsp                                     0.092050         113
 strkin                                  0.041869           1
 strehar                                 0.041270           1
 strelo                                  0.029871           1
 rcp                                     0.007037         113
 brgrid                                  0.003098           1
 truncate_high_frequency_w1              0.001483        1249
 crpa_reader                             0.000327           1
 posmap                                  0.000312           2
 set_rsgf_all                            0.000200          57
 potlok_metagga                          0.000066          56
 vectorpot                               0.000027           1
 rotate_active_occupied_orbital          0.000022           1
 set_dd_magatom                          0.000013           2
 shift_bands_between_low_high            0.000009           1

Profiling took   2.940995  0.948841  0.007132  0.006793 seconds
Profiling took   2.427594 seconds