 vasp.6.3.0 20Jan22 (build Apr  1 2022 16:44:48) complex
 executed on        HPECrayEX_GCC date 2023.01.09  21:38:12

 INCAR:
   SYSTEM = MgO-rocksalt
   ISMEAR = 0
   SIGMA = 0.05
   EDIFF = 1E-6
   ALGO = ALL
   ISTART = 0
   IBRION = -1
   NSW = 0
   ISYM = 2
   DIPOL = 0.5 0.5 0.5
   IDIPOL = 3
   LDIPOL = .TRUE.
   GGA = MK
   LUSE_VDW = .TRUE.
   PARAM1 = 0.1234
   PARAM2 = 0.711357
   ZAB_VDW = -1.8867
   AGGAC = 0.0
   ENCUT = 520
   PREC = Accurate
   LASPH = .TRUE.
   LREAL = Auto
   ISPIN = 1
   NELM = 200
   NELMIN = 8
   NCORE = 4
   KPAR = 2
   LWAVE = .FALSE.
   LCHARG = .FALSE.

 POTCAR:    PAW_PBE Cu 22Jun2005
 POTCAR:    PAW_PBE Mg_pv 13Apr2007
 POTCAR:    PAW_PBE O 08Apr2002
|               ----> ADVICE to this user running VASP <----                  |
|     You have switched on vdW-DFT.                                           |
|     This routine was written and supplied by Jiri Klimes. We recommend      |
|     that you carefully read and cite the following publications:            |
|       J. Klimes, D.R. Bowler, A. Michelides                                 |
|          J. Phys.: Cond Matt. 22 022201 (2010)                              |
|       J. Klimes, D.R. Bowler, A. Michelides                                 |
|          Phys. Rev. B. 83, 195131 (2011)                                    |
|     and references therein.                                                 |

   TITEL  = PAW_PBE Cu 22Jun2005
   POMASS =   63.546; ZVAL   =   11.000    mass and valenz
   ENMAX  =  295.446; ENMIN  =  221.585 eV

   TITEL  = PAW_PBE Mg_pv 13Apr2007
   POMASS =   24.305; ZVAL   =    8.000    mass and valenz
   ENMAX  =  403.929; ENMIN  =  302.947 eV

   TITEL  = PAW_PBE O 08Apr2002
   POMASS =   16.000; ZVAL   =    6.000    mass and valenz
   ENMAX  =  400.000; ENMIN  =  300.000 eV

 Optimization of the real space projectors (new method)

 maximal supplied QI-value         = 16.25
 optimisation between [QCUT,QGAM] = [ 11.54, 23.24] = [ 37.28,151.24] Ry
 Optimized for a Real-space Cutoff    1.53 Angstroem

   l    n(q)    QCUT    max X(q) W(low)/X(q) W(high)/X(q)  e(spline)
   2     10    11.539     4.610    0.96E-04    0.13E-03    0.19E-06
   2     10    11.539     8.522    0.16E-03    0.21E-03    0.28E-06
   0     11    11.539    51.609    0.45E-04    0.31E-04    0.11E-06
   0     11    11.539    27.747    0.39E-04    0.29E-04    0.10E-06
   1     10    11.539    20.408    0.70E-05    0.38E-04    0.18E-06
   1     10    11.539    13.425    0.66E-05    0.34E-04    0.17E-06
 Optimization of the real space projectors (new method)

[...]

   l    n(q)    QCUT    max X(q) W(low)/X(q) W(high)/X(q)  e(spline)
   1      8    11.527     2.974    0.44E-04    0.56E-04    0.12E-06
   1      8    11.527     4.279    0.12E-03    0.12E-03    0.26E-06
   0      9    11.527    16.381    0.46E-04    0.64E-04    0.78E-07
   0      9    11.527     5.611    0.26E-04    0.43E-04    0.55E-07
   2      8    11.527     4.652    0.22E-03    0.72E-04    0.47E-07
 Optimization of the real space projectors (new method)

 maximal supplied QI-value         = 24.76
 optimisation between [QCUT,QGAM] = [ 11.64, 23.27] = [ 37.91,151.63] Ry
 Optimized for a Real-space Cutoff    1.14 Angstroem

   l    n(q)    QCUT    max X(q) W(low)/X(q) W(high)/X(q)  e(spline)
   0      8    11.635    20.381    0.10E-03    0.33E-03    0.24E-06
   0      8    11.635    15.268    0.11E-03    0.35E-03    0.26E-06
   1      7    11.635     5.964    0.24E-03    0.31E-03    0.30E-06
   1      7    11.635     5.382    0.22E-03    0.25E-03    0.26E-06
|               ----> ADVICE to this user running VASP <----                  |
|     You enforced a specific xc type in the INCAR file but a different       |
|     type was found in the POTCAR file.                                      |
|     I HOPE YOU KNOW WHAT YOU ARE DOING!                                     |

  PAW_PBE Cu 22Jun2005                  :
  PAW_PBE Mg_pv 13Apr2007               :
  PAW_PBE O 08Apr2002                   :

 POSCAR: Cu Mg  O
  positions in direct lattice
  velocities in cartesian coordinates
 exchange correlation table for  LEXCH =       43
   RHO(1)=    0.500       N(1)  =     2000
   RHO(2)=  100.500       N(2)  =     4000

 ion  position               nearest neighbor table
   1  0.400  0.558  0.598- 157 2.29   3 2.35  55 2.43   4 2.47
   2  0.400  0.499  0.790-   3 2.25
   3  0.400  0.499  0.688-   2 2.25   1 2.35   4 2.35
   4  0.400  0.441  0.597- 153 2.26   3 2.35  55 2.43   1 2.47
   5  0.000  0.000  0.407- 107 2.11 108 2.11 123 2.11 188 2.11 105 2.11
   6  0.100  0.100  0.407- 107 2.11 108 2.11 112 2.11 127 2.11 106 2.11
   7  0.000  0.100  0.503- 105 2.11 106 2.11 109 2.11 186 2.11 107 2.11
   8  0.100  0.000  0.503- 105 2.11 106 2.11 122 2.11 125 2.11 108 2.11
   9  0.000  0.200  0.407- 111 2.11 107 2.11 112 2.11 192 2.11 109 2.11
  10  0.100  0.300  0.407- 112 2.11 111 2.11 116 2.11 131 2.11 110 2.11
  11  0.000  0.300  0.503- 109 2.11 110 2.11 113 2.11 190 2.11 111 2.11
  12  0.100  0.200  0.503- 110 2.11 109 2.11 106 2.11 129 2.11 112 2.11
  13  0.000  0.400  0.407- 111 2.11 115 2.11 116 2.11 196 2.11 113 2.11
  14  0.100  0.500  0.407- 115 2.11 116 2.11 120 2.11 135 2.11 114 2.11
  15  0.000  0.500  0.503- 113 2.11 114 2.11 117 2.11 194 2.11 115 2.11
  16  0.100  0.400  0.503- 110 2.11 113 2.11 114 2.11 133 2.11 116 2.11
  17  0.000  0.600  0.407- 115 2.11 119 2.11 120 2.11 200 2.11 117 2.11
  18  0.100  0.700  0.407- 124 2.11 120 2.11 119 2.11 139 2.11 118 2.11
  19  0.000  0.700  0.503- 121 2.11 118 2.11 117 2.11 198 2.11 119 2.11
  20  0.100  0.600  0.503- 114 2.11 117 2.11 118 2.11 137 2.11 120 2.11
  21  0.000  0.800  0.407- 119 2.11 123 2.11 124 2.11 204 2.11 121 2.11
  22  0.100  0.900  0.407- 108 2.11 123 2.11 124 2.11 143 2.11 122 2.11
  23  0.000  0.900  0.503- 105 2.11 121 2.11 122 2.11 202 2.11 123 2.11
  24  0.100  0.800  0.503- 118 2.11 121 2.11 122 2.11 141 2.11 124 2.11
  25  0.200  0.000  0.407- 128 2.11 127 2.11 108 2.11 143 2.11 125 2.11
  26  0.300  0.100  0.407- 127 2.11 128 2.11 132 2.11 147 2.11 126 2.11
  27  0.200  0.100  0.503- 126 2.11 125 2.11 106 2.11 129 2.11 127 2.11
  28  0.300  0.000  0.503- 125 2.11 126 2.11 142 2.11 145 2.11 128 2.11
  29  0.200  0.200  0.407- 131 2.11 132 2.11 112 2.11 127 2.11 129 2.11
  30  0.300  0.300  0.407- 131 2.11 132 2.11 136 2.11 151 2.11 130 2.11
  31  0.200  0.300  0.503- 129 2.11 130 2.11 110 2.11 133 2.11 131 2.11
  32  0.300  0.200  0.503- 129 2.11 130 2.11 126 2.11 149 2.11 132 2.11
  33  0.200  0.400  0.407- 136 2.11 131 2.11 135 2.11 116 2.11 133 2.11
  34  0.300  0.500  0.407- 135 2.11 136 2.11 140 2.11 155 2.11 134 2.11
  35  0.200  0.500  0.503- 134 2.11 133 2.11 114 2.11 137 2.11 135 2.11
  36  0.300  0.400  0.503- 133 2.11 130 2.11 134 2.11 153 2.11 136 2.11
  37  0.200  0.600  0.407- 140 2.11 135 2.11 139 2.11 120 2.11 137 2.11
  38  0.300  0.700  0.407- 139 2.11 144 2.11 140 2.11 159 2.11 138 2.11
  39  0.200  0.700  0.503- 138 2.11 141 2.11 118 2.11 137 2.11 139 2.11
  40  0.300  0.600  0.503- 137 2.11 134 2.11 138 2.11 157 2.11 140 2.11
  41  0.200  0.800  0.407- 139 2.11 144 2.11 143 2.11 124 2.11 141 2.11
  42  0.300  0.900  0.407- 143 2.11 128 2.11 144 2.11 163 2.11 142 2.11
  43  0.200  0.900  0.503- 142 2.11 125 2.11 141 2.11 122 2.11 143 2.11
  44  0.300  0.800  0.503- 138 2.11 141 2.11 142 2.11 161 2.11 144 2.11
  45  0.400  0.000  0.407- 128 2.11 147 2.11 148 2.11 163 2.11 145 2.11
  46  0.500  0.100  0.407- 147 2.11 148 2.11 152 2.11 167 2.11 146 2.11
  47  0.400  0.100  0.503- 126 2.11 145 2.11 146 2.11 149 2.11 147 2.11
  48  0.500  0.000  0.503- 145 2.11 146 2.11 162 2.11 165 2.11 148 2.11
  49  0.400  0.200  0.407- 151 2.11 147 2.11 132 2.11 152 2.11 149 2.11
  50  0.500  0.300  0.407- 152 2.11 151 2.11 156 2.11 171 2.11 150 2.11
  51  0.400  0.300  0.503- 149 2.11 130 2.11 150 2.11 153 2.11 151 2.11
  52  0.500  0.200  0.503- 150 2.11 149 2.11 146 2.11 169 2.11 152 2.11
  53  0.400  0.400  0.407- 136 2.11 151 2.11 155 2.11 156 2.11 153 2.11
  54  0.500  0.500  0.407- 155 2.11 156 2.11 160 2.11 175 2.11 154 2.11
  55  0.400  0.500  0.503- 134 2.11 153 2.11 154 2.11 157 2.11 155 2.11   4 2.43   1 2.43
  56  0.500  0.400  0.503- 150 2.11 153 2.11 154 2.11 173 2.11 156 2.11
  57  0.400  0.600  0.407- 140 2.11 155 2.11 159 2.11 160 2.11 157 2.11
  58  0.500  0.700  0.407- 164 2.11 160 2.11 159 2.11 179 2.11 158 2.11
  59  0.400  0.700  0.503- 161 2.11 157 2.11 158 2.11 138 2.11 159 2.11
  60  0.500  0.600  0.503- 154 2.11 157 2.11 158 2.11 177 2.11 160 2.11
[...]
 190  0.900  0.300  0.503-  92 2.11  91 2.11  11 2.11  96 2.11  90 2.11
 191  0.800  0.300  0.407-  70 2.11  89 2.11  90 2.11  93 2.11  91 2.11
 192  0.900  0.200  0.407-  90 2.11  86 2.11  89 2.11   9 2.11  92 2.11
 193  0.800  0.400  0.503-  76 2.11  91 2.11  95 2.11  96 2.11  93 2.11
 194  0.900  0.500  0.503-  15 2.11  95 2.11  96 2.11 100 2.11  94 2.11
 195  0.800  0.500  0.407-  74 2.11  93 2.11  94 2.11  97 2.11  95 2.11
 196  0.900  0.400  0.407-  13 2.11  90 2.11  93 2.11  94 2.11  96 2.11
 197  0.800  0.600  0.503-  80 2.11  95 2.11  99 2.11 100 2.11  97 2.11
 198  0.900  0.700  0.503- 104 2.11  99 2.11 100 2.11  19 2.11  98 2.11
 199  0.800  0.700  0.407-  78 2.11 101 2.11  98 2.11  97 2.11  99 2.11
 200  0.900  0.600  0.407-  17 2.11  94 2.11  97 2.11  98 2.11 100 2.11
 201  0.800  0.800  0.503-  84 2.11  99 2.11 103 2.11 104 2.11 101 2.11
 202  0.900  0.900  0.503-  23 2.11  88 2.11 103 2.11 104 2.11 102 2.11
 203  0.800  0.900  0.407-  82 2.11  85 2.11 101 2.11 102 2.11 103 2.11
 204  0.900  0.800  0.407-  98 2.11  21 2.11 101 2.11 102 2.11 104 2.11

  LATTYP: Found a simple tetragonal cell.
 ALAT       =    21.1388521970
 C/A-ratio  =     1.0461251639

  Lattice vectors:

 A1 = (  21.1388521970,   0.0000000000,   0.0000000000)
 A2 = (   0.0000000000,  21.1388521970,   0.0000000000)
 A3 = (   0.0000000000,   0.0000000000,  22.1138852197)

Analysis of symmetry for initial positions (statically):
 Subroutine PRICEL returns:
 Original cell was already a primitive cell.

 Routine SETGRP: Setting up the symmetry group for a
 simple tetragonal supercell.

 Subroutine GETGRP returns: Found  1 space group operations
 (whereof  1 operations were pure point group operations)
 out of a pool of 16 trial point group operations.

The static configuration has the point symmetry C_1 .

Analysis of symmetry for dynamics (positions and initial velocities):
 Subroutine PRICEL returns:
 Original cell was already a primitive cell.

[...]

The dynamic configuration has the point symmetry C_1 .

Analysis of constrained symmetry for selective dynamics:
 Subroutine PRICEL returns:
 Original cell was already a primitive cell.

 Routine SETGRP: Setting up the symmetry group for a
 simple tetragonal supercell.

 Subroutine GETGRP returns: Found  1 space group operations
 (whereof  1 operations were pure point group operations)
 out of a pool of 16 trial point group operations.

The constrained configuration has the point symmetry C_1 .

 Subroutine INISYM returns: Found  1 space group operations
 (whereof  1 operations are pure point group operations),
[...]
     52     -43.3952      2.00000
     53     -43.3947      2.00000
     54     -43.3943      2.00000
     55     -43.3940      2.00000
     56     -43.3938      2.00000
     57     -43.3934      2.00000
     58     -43.3931      2.00000
     59     -43.3923      2.00000
     60     -43.3910      2.00000
[...]
    946       5.6445      0.00000
    947       5.6790      0.00000
    948       5.7535      0.00000
    949       5.7538      0.00000
    950       5.8006      0.00000
    951       5.8211      0.00000
    952       5.8710      0.00000
    953       5.9178      0.00000
    954       5.9999      0.00000
    955       6.0448      0.00000
    956       6.1392      0.00000
    957       6.2342      0.00000
    958       6.2585      0.00000
    959       6.3511      0.00000
    960       6.4224      0.00000

 soft charge-density along one line, spin component           1
         0         1         2         3         4         5         6         7         8         9
 total charge-density along one line

------------------------ aborting loop because EDIFF is reached ----------------------------------------

  FORCE on cell =-STRESS in cart. coord.  units (eV):
  Direction    XX          YY          ZZ          XY          YZ          ZX
  Alpha Z  1394.80054  1394.80054  1394.80054
  Ewald  476789.57733478031.49515************     0.08233     1.75104    -2.53842
  Hartree506487.11774507455.66958************     0.06348     1.09024    -2.00002
  E(xc)   -7906.99042 -7906.56749 -7907.86086     0.00002     0.00253    -0.00102
  Local  ************************************    -0.14449    -2.83370     4.50615
  n-local -8917.63598 -8918.76304 -9030.44404     0.00013     0.00216    -0.00046
  augment  3676.32250  3669.07754  3606.07523    -0.00031    -0.01023     0.01481
  Kinetic 23054.00047 23046.31295 23277.17468    -0.00050    -0.01474     0.02931
  Fock        0.00000     0.00000     0.00000     0.00000     0.00000     0.00000
  Total    -182.12255  -183.62976     1.99252     0.00066    -0.01270     0.01035
  in kB     -29.52884   -29.77322     0.32306     0.00011    -0.00206     0.00168

 VOLUME and BASIS-vectors are now :
  energy-cutoff  :      520.00
  volume of cell :     9881.61
      direct lattice vectors                 reciprocal lattice vectors
    21.138852197  0.000000000  0.000000000     0.047306258  0.000000000  0.000000000
     0.000000000 21.138852197  0.000000000     0.000000000  0.047306258  0.000000000
     0.000000000  0.000000000 22.113885220     0.000000000  0.000000000  0.045220457

  length of vectors
    21.138852197 21.138852197 22.113885220     0.047306258  0.047306258  0.045220457

 FORCES acting on ions:
    Electron-Ion                     Ewald-Force                    Non-Local-Force
   -.593E+00 -.488E+03 -.187E+04   0.583E+00 0.479E+03 0.188E+04   0.128E-01 0.923E+01 -.492E+01
   -.801E-01 -.287E+00 -.154E+04   0.676E-01 0.246E+00 0.153E+04   0.124E-01 0.400E-01 0.109E+02
   0.131E+01 0.388E+01 -.186E+04   -.129E+01 -.384E+01 0.186E+04   -.158E-01 -.433E-01 0.475E+00
   -.532E+00 0.484E+03 -.187E+04   0.524E+00 -.475E+03 0.188E+04   0.116E-01 -.902E+01 -.493E+01
   0.647E+01 0.578E-01 0.935E+03   -.650E+01 -.582E-01 -.927E+03   0.233E-01 0.318E-03 -.717E+01
   0.127E+02 0.987E+01 0.938E+03   -.128E+02 -.990E+01 -.931E+03   0.515E-01 0.195E-01 -.717E+01
   0.929E+01 0.884E+01 -.917E+03   -.932E+01 -.884E+01 0.910E+03   0.265E-01 0.187E-02 0.707E+01
   0.135E+02 0.103E+00 -.916E+03   -.135E+02 -.103E+00 0.909E+03   0.365E-01 0.520E-03 0.707E+01
   0.102E+02 0.119E+02 0.938E+03   -.102E+02 -.120E+02 -.931E+03   0.411E-01 0.822E-02 -.718E+01
   0.270E+02 0.195E+02 0.950E+03   -.272E+02 -.195E+02 -.943E+03   0.134E+00 0.228E-01 -.720E+01
   0.197E+02 0.165E+02 -.912E+03   -.198E+02 -.165E+02 0.904E+03   0.432E-01 -.191E-02 0.707E+01
   0.251E+02 0.238E+02 -.910E+03   -.252E+02 -.238E+02 0.903E+03   0.856E-01 0.121E-01 0.707E+01
   0.180E+02 0.821E+01 0.945E+03   -.181E+02 -.821E+01 -.937E+03   0.635E-01 0.274E-02 -.719E+01
   0.401E+02 -.121E+00 0.961E+03   -.403E+02 0.122E+00 -.953E+03   0.161E+00 -.740E-03 -.721E+01
   0.287E+02 -.946E-01 -.907E+03   -.288E+02 0.949E-01 0.900E+03   0.416E-01 -.268E-03 0.706E+01
   0.573E+02 0.201E+02 -.894E+03   -.575E+02 -.201E+02 0.887E+03   0.120E+00 -.407E-02 0.704E+01
   0.180E+02 -.832E+01 0.945E+03   -.181E+02 0.832E+01 -.937E+03   0.630E-01 -.328E-02 -.719E+01
   0.269E+02 -.195E+02 0.950E+03   -.271E+02 0.196E+02 -.942E+03   0.132E+00 -.231E-01 -.720E+01
   0.196E+02 -.165E+02 -.912E+03   -.197E+02 0.165E+02 0.904E+03   0.426E-01 0.174E-02 0.707E+01
   0.571E+02 -.203E+02 -.894E+03   -.573E+02 0.203E+02 0.887E+03   0.119E+00 0.320E-02 0.704E+01
   0.101E+02 -.119E+02 0.938E+03   -.102E+02 0.119E+02 -.931E+03   0.405E-01 -.799E-02 -.718E+01
   0.127E+02 -.973E+01 0.938E+03   -.128E+02 0.975E+01 -.931E+03   0.509E-01 -.185E-01 -.717E+01
   0.925E+01 -.871E+01 -.918E+03   -.928E+01 0.871E+01 0.910E+03   0.262E-01 -.143E-02 0.707E+01
   0.249E+02 -.237E+02 -.910E+03   -.250E+02 0.237E+02 0.903E+03   0.841E-01 -.118E-01 0.707E+01
   0.115E+02 0.112E+00 0.940E+03   -.116E+02 -.114E+00 -.932E+03   0.431E-01 0.965E-03 -.718E+01
   0.920E+01 0.186E+02 0.946E+03   -.925E+01 -.187E+02 -.939E+03   0.403E-01 0.970E-01 -.718E+01
   0.182E+02 0.199E+02 -.911E+03   -.183E+02 -.200E+02 0.904E+03   0.532E-01 0.499E-01 0.707E+01
   0.947E+01 0.203E+00 -.911E+03   -.950E+01 -.204E+00 0.904E+03   0.258E-01 0.125E-02 0.707E+01
   0.213E+02 0.265E+02 0.951E+03   -.215E+02 -.266E+02 -.943E+03   0.117E+00 0.854E-01 -.718E+01
   0.281E+02 0.498E+02 0.988E+03   -.284E+02 -.501E+02 -.981E+03   0.249E+00 0.241E+00 -.709E+01
   0.592E+02 0.544E+02 -.883E+03   -.596E+02 -.545E+02 0.876E+03   0.310E+00 0.177E-01 0.704E+01
   0.244E+02 0.605E+02 -.891E+03   -.245E+02 -.609E+02 0.884E+03   0.824E-01 0.268E+00 0.706E+01
   0.508E+02 0.239E+02 0.984E+03   -.512E+02 -.239E+02 -.977E+03   0.369E+00 0.362E-01 -.726E+01
   0.560E+02 -.445E+00 0.105E+04   -.565E+02 0.454E+00 -.104E+04   0.384E+00 -.652E-02 -.727E+01
   0.121E+03 -.448E+00 -.843E+03   -.122E+03 0.449E+00 0.836E+03   0.243E+00 -.113E-02 0.697E+01
   0.142E+03 0.108E+03 -.750E+03   -.144E+03 -.108E+03 0.743E+03   0.160E+01 -.422E-01 0.683E+01
   0.505E+02 -.241E+02 0.984E+03   -.510E+02 0.242E+02 -.976E+03   0.363E+00 -.389E-01 -.726E+01
   0.278E+02 -.497E+02 0.988E+03   -.281E+02 0.500E+02 -.980E+03   0.244E+00 -.238E+00 -.709E+01
   0.586E+02 -.543E+02 -.883E+03   -.590E+02 0.543E+02 0.876E+03   0.302E+00 -.186E-01 0.704E+01
   0.140E+03 -.109E+03 -.752E+03   -.142E+03 0.109E+03 0.745E+03   0.155E+01 0.337E-01 0.684E+01
   0.212E+02 -.263E+02 0.951E+03   -.213E+02 0.264E+02 -.943E+03   0.115E+00 -.837E-01 -.718E+01
   0.914E+01 -.183E+02 0.946E+03   -.919E+01 0.184E+02 -.939E+03   0.397E-01 -.937E-01 -.718E+01
   0.181E+02 -.196E+02 -.911E+03   -.181E+02 0.197E+02 0.904E+03   0.525E-01 -.479E-01 0.707E+01
   0.241E+02 -.599E+02 -.892E+03   -.242E+02 0.603E+02 0.884E+03   0.810E-01 -.261E+00 0.706E+01
   -.221E-01 0.159E+00 0.943E+03   0.220E-01 -.161E+00 -.936E+03   0.945E-04 0.158E-02 -.718E+01
   -.924E+01 0.186E+02 0.946E+03   0.929E+01 -.187E+02 -.939E+03   -.401E-01 0.970E-01 -.718E+01
   -.377E-01 0.308E+02 -.906E+03   0.375E-01 -.310E+02 0.898E+03   0.128E-03 0.122E+00 0.707E+01
   -.951E+01 0.202E+00 -.911E+03   0.955E+01 -.204E+00 0.904E+03   -.256E-01 0.125E-02 0.707E+01
   -.458E-01 0.417E+02 0.964E+03   0.456E-01 -.421E+02 -.957E+03   0.143E-03 0.332E+00 -.721E+01
   -.282E+02 0.497E+02 0.988E+03   0.285E+02 -.500E+02 -.981E+03   -.249E+00 0.241E+00 -.709E+01
   -.207E+00 0.140E+03 -.820E+03   0.206E+00 -.142E+03 0.813E+03   0.434E-03 0.156E+01 0.719E+01
   -.245E+02 0.604E+02 -.891E+03   0.246E+02 -.608E+02 0.884E+03   -.821E-01 0.268E+00 0.706E+01
   -.150E+00 0.509E+02 0.106E+04   0.149E+00 -.511E+02 -.105E+04   0.863E-03 0.145E+00 -.535E+01
   -.561E+02 -.443E+00 0.105E+04   0.566E+02 0.452E+00 -.104E+04   -.384E+00 -.654E-02 -.727E+01
   -.937E+00 -.271E+01 -.455E+03   0.939E+00 0.279E+01 0.451E+03   0.189E-02 -.508E-01 0.233E+01
   -.142E+03 0.108E+03 -.751E+03   0.144E+03 -.108E+03 0.744E+03   -.160E+01 -.425E-01 0.684E+01
   -.147E+00 -.514E+02 0.105E+04   0.146E+00 0.516E+02 -.105E+04   0.811E-03 -.154E+00 -.540E+01
   -.279E+02 -.496E+02 0.987E+03   0.282E+02 0.499E+02 -.980E+03   -.244E+00 -.238E+00 -.709E+01
   -.200E+00 -.138E+03 -.822E+03   0.200E+00 0.140E+03 0.815E+03   0.436E-03 -.152E+01 0.719E+01
   -.140E+03 -.109E+03 -.753E+03   0.142E+03 0.109E+03 0.746E+03   -.155E+01 0.341E-01 0.685E+01
[...]
   -.106E+02 0.948E+01 0.708E+03   0.106E+02 -.949E+01 -.712E+03   -.494E-01 0.904E-02 0.359E+01
   0.214E-01 0.764E+01 0.704E+03   -.213E-01 -.764E+01 -.708E+03   -.141E-03 0.593E-02 0.360E+01
   -.194E+02 0.814E+01 -.683E+03   0.194E+02 -.813E+01 0.687E+03   -.445E-01 -.229E-02 -.379E+01
   0.564E-01 -.544E-01 -.685E+03   -.562E-01 0.546E-01 0.689E+03   -.285E-03 -.272E-03 -.378E+01
   -.147E+02 -.536E-01 0.712E+03   0.147E+02 0.539E-01 -.716E+03   -.558E-01 -.444E-03 0.359E+01
   0.363E-01 0.505E+01 0.708E+03   -.361E-01 -.505E+01 -.712E+03   -.229E-03 0.125E-02 0.359E+01
   -.194E+02 -.824E+01 -.683E+03   0.194E+02 0.824E+01 0.687E+03   -.442E-01 0.169E-02 -.379E+01
   0.398E-01 -.991E+01 -.688E+03   -.397E-01 0.991E+01 0.692E+03   -.215E-03 0.100E-02 -.376E+01
   -.106E+02 -.951E+01 0.708E+03   0.106E+02 0.951E+01 -.712E+03   -.488E-01 -.923E-02 0.359E+01
   0.361E-01 -.512E+01 0.708E+03   -.360E-01 0.512E+01 -.712E+03   -.226E-03 -.175E-02 0.359E+01
   -.995E+01 -.113E+02 -.688E+03   0.998E+01 0.113E+02 0.692E+03   -.349E-01 -.579E-02 -.376E+01
   0.199E-01 -.552E+01 -.691E+03   -.198E-01 0.552E+01 0.695E+03   -.122E-03 -.160E-02 -.375E+01
   -.552E+01 -.522E+01 0.704E+03   0.555E+01 0.522E+01 -.708E+03   -.302E-01 -.830E-02 0.360E+01
   0.212E-01 -.761E+01 0.704E+03   -.211E-01 0.761E+01 -.708E+03   -.142E-03 -.572E-02 0.360E+01
   0.899E-02 -.243E+00 0.569E+01   0.223E-11 0.853E-12 0.182E-11   -.237E-02 0.250E+00 -.605E+01

 POSITION                                       TOTAL-FORCE (eV/Angst)
      8.45129     11.78922     13.22011         0.002806     -0.000212     -0.003376
      8.44827     10.55171     17.46787        -0.000262     -0.001325     -0.002866
      8.44707     10.54754     15.21331         0.005160      0.003609      0.000744
      8.45116      9.32335     13.20450         0.003013      0.006910      0.005481
      0.00000      0.00000      9.00000        -0.006491     -0.000115      0.347635
      2.11389      2.11389      9.00000        -0.014426     -0.005611      0.347605
      0.00000      2.11389     11.11389        -0.007165     -0.000541     -0.309494
      2.11389      0.00000     11.11389        -0.010187     -0.000166     -0.308708
      0.00000      4.22777      9.00000        -0.011103     -0.002382      0.348788
      2.11389      6.34166      9.00000        -0.035751     -0.006489      0.351980
      0.00000      6.34166     11.11389        -0.011057      0.000751     -0.304261
      2.11389      4.22777     11.11389        -0.022633     -0.003344     -0.303338
      0.00000      8.45554      9.00000        -0.016957     -0.000680      0.351104
      2.11389     10.56943      9.00000        -0.044504      0.000183      0.355319
      0.00000     10.56943     11.11389        -0.010139      0.000046     -0.299861
      2.11389      8.45554     11.11389        -0.029193      0.002102     -0.287165
      0.00000     12.68331      9.00000        -0.016820      0.000770      0.351084
      2.11389     14.79720      9.00000        -0.035140      0.006507      0.351915
      0.00000     14.79720     11.11389        -0.010903     -0.000767     -0.304329
      2.11389     12.68331     11.11389        -0.028916     -0.001920     -0.287340
      0.00000     16.91108      9.00000        -0.010940      0.002257      0.348764
      2.11389     19.02497      9.00000        -0.014251      0.005263      0.347603
      0.00000     19.02497     11.11389        -0.007088      0.000356     -0.309533
      2.11389     16.91108     11.11389        -0.022224      0.003177     -0.303480
      4.22777      0.00000      9.00000        -0.012314     -0.000289      0.347854
      6.34166      2.11389      9.00000        -0.011858     -0.026028      0.348206
      4.22777      2.11389     11.11389        -0.014995     -0.013055     -0.304616
      6.34166      0.00000     11.11389        -0.007434     -0.000356     -0.305223
      4.22777      4.22777      9.00000        -0.033645     -0.024900      0.345236
      6.34166      6.34166      9.00000        -0.081756     -0.078022      0.310479
      4.22777      6.34166     11.11389        -0.080625     -0.003635     -0.280284
      6.34166      4.22777     11.11389        -0.024703     -0.070809     -0.292639
      4.22777      8.45554      9.00000        -0.095291     -0.008826      0.363137
      6.34166     10.56943      9.00000        -0.126252      0.002102      0.322536
      4.22777     10.56943     11.11389        -0.068823      0.000241     -0.230653
      6.34166      8.45554     11.11389        -0.551914      0.018226     -0.275705
      4.22777     12.68331      9.00000        -0.093712      0.009537      0.362850
      6.34166     14.79720      9.00000        -0.080069      0.076789      0.311647
      4.22777     14.79720     11.11389        -0.078836      0.003841     -0.280875
      6.34166     12.68331     11.11389        -0.532451     -0.017176     -0.273414
      4.22777     16.91108      9.00000        -0.033021      0.024311      0.345328
      6.34166     19.02497      9.00000        -0.011697      0.025085      0.348184
      4.22777     19.02497     11.11389        -0.014810      0.012465     -0.304724
      6.34166     16.91108     11.11389        -0.024296      0.068990     -0.293083
      8.45554      0.00000      9.00000        -0.000054     -0.000452      0.348329
     10.56943      2.11389      9.00000         0.011746     -0.026048      0.348205
      8.45554      2.11389     11.11389        -0.000066     -0.031159     -0.301340
     10.56943      0.00000     11.11389         0.007321     -0.000348     -0.305233
      8.45554      4.22777      9.00000        -0.000072     -0.085295      0.348133
     10.56943      6.34166      9.00000         0.081595     -0.078128      0.310452
      8.45554      6.34166     11.11389        -0.000171     -0.490823     -0.325383
     10.56943      4.22777     11.11389         0.024539     -0.070874     -0.292691
      8.45554      8.45554      9.00000        -0.000320     -0.024103     -0.065527
     10.56943     10.56943      9.00000         0.126069      0.002117      0.322829
      8.45554     10.56943     11.11389         0.003530      0.025089     -1.415530
     10.56943      8.45554     11.11389         0.549976      0.019109     -0.274680
      8.45554     12.68331      9.00000        -0.000296      0.025900     -0.054320
     10.56943     14.79720      9.00000         0.079904      0.076885      0.311605
      8.45554     14.79720     11.11389        -0.000170      0.476215     -0.323654
     10.56943     12.68331     11.11389         0.530690     -0.018009     -0.272537
[...]
     19.02497      6.34166     11.11389        -0.000087     -0.000353      0.362288
     16.91108      6.34166      9.00000        -0.013727      0.002527     -0.406546
     19.02497      4.22777      9.00000        -0.000077      0.001642     -0.405272
     16.91108      8.45554     11.11389        -0.012381     -0.000678      0.356539
     19.02497     10.56943     11.11389        -0.000108     -0.000113      0.359363
     16.91108     10.56943      9.00000        -0.015553     -0.000158     -0.408353
     19.02497      8.45554      9.00000        -0.000092      0.000339     -0.406809
     16.91108     12.68331     11.11389        -0.012293      0.000450      0.356607
     19.02497     14.79720     11.11389        -0.000094      0.000257      0.362353
     16.91108     14.79720      9.00000        -0.013562     -0.002638     -0.406529
     19.02497     12.68331      9.00000        -0.000102     -0.000546     -0.406805
     16.91108     16.91108     11.11389        -0.009692     -0.001639      0.363340
     19.02497     19.02497     11.11389        -0.000067     -0.000488      0.366343
     16.91108     19.02497      9.00000        -0.008370     -0.002332     -0.404755
     19.02497     16.91108      9.00000        -0.000070     -0.001633     -0.405266
    total drift:                                0.006614      0.006376     -0.354502

  FREE ENERGIE OF THE ION-ELECTRON SYSTEM (eV)
  free  energy   TOTEN  =      -793.75310463 eV

  energy  without entropy=     -793.75310463  energy(sigma->0) =     -793.75310463