 vasp.6.3.0 20Jan22 (build Apr  1 2022 16:44:48) complex
 executed on        HPECrayEX_GCC date 2022.08.15  21:31:52

 INCAR:
   SYSTEM = MgO-rocksalt
   ISMEAR = 0
   SIGMA = 0.05
   EDIFF = 1E-6
   ALGO = ALL
   ISTART = 0
   IBRION = -1
   NSW = 0
   ISYM = 2
   DIPOL = 0.5 0.5 0.5
   IDIPOL = 3
   LDIPOL = .TRUE.
   GGA = RE
   LUSE_VDW = .TRUE.
   AGGAC = 0.0
   ENCUT = 520
   PREC = Accurate
   LASPH = .TRUE.
   LREAL = Auto
   ISPIN = 1
   NELM = 200
   NELMIN = 8
   NCORE = 4
   KPAR = 2
   LWAVE = .FALSE.
   LCHARG = .FALSE.

 POTCAR:    PAW_PBE Ag 02Apr2005
 POTCAR:    PAW_PBE Mg_pv 13Apr2007
 POTCAR:    PAW_PBE O 08Apr2002
|               ----> ADVICE to this user running VASP <----                  |
|     You have switched on vdW-DFT.                                           |
|     This routine was written and supplied by Jiri Klimes. We recommend      |
|     that you carefully read and cite the following publications:            |
|       J. Klimes, D.R. Bowler, A. Michelides                                 |
|          J. Phys.: Cond Matt. 22 022201 (2010)                              |
|       J. Klimes, D.R. Bowler, A. Michelides                                 |
|          Phys. Rev. B. 83, 195131 (2011)                                    |
|     and references therein.                                                 |

   TITEL  = PAW_PBE Ag 02Apr2005
   POMASS =  107.868; ZVAL   =   11.000    mass and valenz
   ENMAX  =  249.844; ENMIN  =  187.383 eV

   TITEL  = PAW_PBE Mg_pv 13Apr2007
   POMASS =   24.305; ZVAL   =    8.000    mass and valenz
   ENMAX  =  403.929; ENMIN  =  302.947 eV

   TITEL  = PAW_PBE O 08Apr2002
   POMASS =   16.000; ZVAL   =    6.000    mass and valenz
   ENMAX  =  400.000; ENMIN  =  300.000 eV

 Optimization of the real space projectors (new method)

 maximal supplied QI-value         = 15.12
 optimisation between [QCUT,QGAM] = [ 11.64, 23.28] = [ 37.95,151.78] Ry
 Optimized for a Real-space Cutoff    1.45 Angstroem

   l    n(q)    QCUT    max X(q) W(low)/X(q) W(high)/X(q)  e(spline)
   2      9    11.641    53.897    0.22E-03    0.42E-04    0.28E-06
   2      9    11.641    52.416    0.23E-03    0.44E-04    0.29E-06
   0     10    11.641   122.045    0.51E-04    0.25E-04    0.16E-06
   0     10    11.641    73.629    0.49E-04    0.24E-04    0.16E-06
   1     10    11.641    15.255    0.99E-04    0.55E-04    0.11E-06
   1     10    11.641     9.562    0.81E-04    0.47E-04    0.95E-07
 Optimization of the real space projectors (new method)

[...]

   l    n(q)    QCUT    max X(q) W(low)/X(q) W(high)/X(q)  e(spline)
   1      8    11.527     2.974    0.44E-04    0.56E-04    0.12E-06
   1      8    11.527     4.279    0.12E-03    0.12E-03    0.26E-06
   0      9    11.527    16.381    0.46E-04    0.64E-04    0.78E-07
   0      9    11.527     5.611    0.26E-04    0.43E-04    0.55E-07
   2      8    11.527     4.652    0.22E-03    0.72E-04    0.47E-07
 Optimization of the real space projectors (new method)

 maximal supplied QI-value         = 24.76
 optimisation between [QCUT,QGAM] = [ 11.64, 23.27] = [ 37.91,151.63] Ry
 Optimized for a Real-space Cutoff    1.14 Angstroem

   l    n(q)    QCUT    max X(q) W(low)/X(q) W(high)/X(q)  e(spline)
   0      8    11.635    20.381    0.10E-03    0.33E-03    0.24E-06
   0      8    11.635    15.268    0.11E-03    0.35E-03    0.26E-06
   1      7    11.635     5.964    0.24E-03    0.31E-03    0.30E-06
   1      7    11.635     5.382    0.22E-03    0.25E-03    0.26E-06
|               ----> ADVICE to this user running VASP <----                  |
|     You enforced a specific xc type in the INCAR file but a different       |
|     type was found in the POTCAR file.                                      |
|     I HOPE YOU KNOW WHAT YOU ARE DOING!                                     |

  PAW_PBE Ag 02Apr2005                  :
  PAW_PBE Mg_pv 13Apr2007               :
  PAW_PBE O 08Apr2002                   :

 POSCAR: Ag Mg  O
  positions in direct lattice
 exchange correlation table for  LEXCH =       40
   RHO(1)=    0.500       N(1)  =     2000
   RHO(2)=  100.500       N(2)  =     4000

 ion  position               nearest neighbor table
   1  0.543  0.557  0.623-   2 2.59  58 2.97
   2  0.457  0.643  0.623-   1 2.59  58 2.97
   3  0.000  0.000  0.407- 105 2.11 106 2.11 121 2.11 186 2.11 103 2.11
   4  0.100  0.100  0.407- 105 2.11 106 2.11 110 2.11 125 2.11 104 2.11
   5  0.000  0.100  0.503- 103 2.11 104 2.11 107 2.11 184 2.11 105 2.11
   6  0.100  0.000  0.503- 103 2.11 104 2.11 120 2.11 123 2.11 106 2.11
   7  0.000  0.200  0.407- 109 2.11 105 2.11 110 2.11 190 2.11 107 2.11
   8  0.100  0.300  0.407- 110 2.11 109 2.11 114 2.11 129 2.11 108 2.11
   9  0.000  0.300  0.503- 107 2.11 108 2.11 111 2.11 188 2.11 109 2.11
  10  0.100  0.200  0.503- 108 2.11 107 2.11 104 2.11 127 2.11 110 2.11
  11  0.000  0.400  0.407- 109 2.11 113 2.11 114 2.11 194 2.11 111 2.11
  12  0.100  0.500  0.407- 113 2.11 114 2.11 118 2.11 133 2.11 112 2.11
  13  0.000  0.500  0.503- 111 2.11 112 2.11 115 2.11 192 2.11 113 2.11
  14  0.100  0.400  0.503- 108 2.11 111 2.11 112 2.11 131 2.11 114 2.11
  15  0.000  0.600  0.407- 113 2.11 117 2.11 118 2.11 198 2.11 115 2.11
  16  0.100  0.700  0.407- 122 2.11 118 2.11 117 2.11 137 2.11 116 2.11
  17  0.000  0.700  0.503- 119 2.11 116 2.11 115 2.11 196 2.11 117 2.11
  18  0.100  0.600  0.503- 112 2.11 115 2.11 116 2.11 135 2.11 118 2.11
  19  0.000  0.800  0.407- 117 2.11 121 2.11 122 2.11 202 2.11 119 2.11
  20  0.100  0.900  0.407- 106 2.11 121 2.11 122 2.11 141 2.11 120 2.11
  21  0.000  0.900  0.503- 103 2.11 119 2.11 120 2.11 200 2.11 121 2.11
  22  0.100  0.800  0.503- 116 2.11 119 2.11 120 2.11 139 2.11 122 2.11
  23  0.200  0.000  0.407- 126 2.11 125 2.11 106 2.11 141 2.11 123 2.11
  24  0.300  0.100  0.407- 125 2.11 126 2.11 130 2.11 145 2.11 124 2.11
  25  0.200  0.100  0.503- 124 2.11 123 2.11 104 2.11 127 2.11 125 2.11
  26  0.300  0.000  0.503- 123 2.11 124 2.11 140 2.11 143 2.11 126 2.11
  27  0.200  0.200  0.407- 129 2.11 130 2.11 110 2.11 125 2.11 127 2.11
  28  0.300  0.300  0.407- 129 2.11 130 2.11 134 2.11 149 2.11 128 2.11
  29  0.200  0.300  0.503- 127 2.11 128 2.11 108 2.11 131 2.11 129 2.11
  30  0.300  0.200  0.503- 127 2.11 128 2.11 124 2.11 147 2.11 130 2.11
  31  0.200  0.400  0.407- 134 2.11 129 2.11 133 2.11 114 2.11 131 2.11
  32  0.300  0.500  0.407- 133 2.11 134 2.11 138 2.11 153 2.11 132 2.11
  33  0.200  0.500  0.503- 132 2.11 131 2.11 112 2.11 135 2.11 133 2.11
  34  0.300  0.400  0.503- 131 2.11 128 2.11 132 2.11 151 2.11 134 2.11
  35  0.200  0.600  0.407- 138 2.11 133 2.11 137 2.11 118 2.11 135 2.11
  36  0.300  0.700  0.407- 137 2.11 142 2.11 138 2.11 157 2.11 136 2.11
  37  0.200  0.700  0.503- 136 2.11 139 2.11 116 2.11 135 2.11 137 2.11
  38  0.300  0.600  0.503- 135 2.11 132 2.11 136 2.11 155 2.11 138 2.11
  39  0.200  0.800  0.407- 137 2.11 142 2.11 141 2.11 122 2.11 139 2.11
  40  0.300  0.900  0.407- 141 2.11 126 2.11 142 2.11 161 2.11 140 2.11
  41  0.200  0.900  0.503- 140 2.11 123 2.11 139 2.11 120 2.11 141 2.11
  42  0.300  0.800  0.503- 136 2.11 139 2.11 140 2.11 159 2.11 142 2.11
  43  0.400  0.000  0.407- 126 2.11 145 2.11 146 2.11 161 2.11 143 2.11
  44  0.500  0.100  0.407- 145 2.11 146 2.11 150 2.11 165 2.11 144 2.11
  45  0.400  0.100  0.503- 124 2.11 143 2.11 144 2.11 147 2.11 145 2.11
  46  0.500  0.000  0.503- 143 2.11 144 2.11 160 2.11 163 2.11 146 2.11
  47  0.400  0.200  0.407- 149 2.11 145 2.11 130 2.11 150 2.11 147 2.11
  48  0.500  0.300  0.407- 150 2.11 149 2.11 154 2.11 169 2.11 148 2.11
  49  0.400  0.300  0.503- 147 2.11 128 2.11 148 2.11 151 2.11 149 2.11
  50  0.500  0.200  0.503- 148 2.11 147 2.11 144 2.11 167 2.11 150 2.11
  51  0.400  0.400  0.407- 134 2.11 149 2.11 153 2.11 154 2.11 151 2.11
  52  0.500  0.500  0.407- 153 2.11 154 2.11 158 2.11 173 2.11 152 2.11
  53  0.400  0.500  0.503- 132 2.11 151 2.11 152 2.11 155 2.11 153 2.11
  54  0.500  0.400  0.503- 148 2.11 151 2.11 152 2.11 171 2.11 154 2.11
  55  0.400  0.600  0.407- 138 2.11 153 2.11 157 2.11 158 2.11 155 2.11
  56  0.500  0.700  0.407- 162 2.11 158 2.11 157 2.11 177 2.11 156 2.11
  57  0.400  0.700  0.503- 159 2.11 155 2.11 156 2.11 136 2.11 157 2.11
  58  0.500  0.600  0.503- 152 2.11 155 2.11 156 2.11 175 2.11 158 2.11   2 2.97   1 2.97
  59  0.400  0.800  0.407- 157 2.11 142 2.11 161 2.11 162 2.11 159 2.11
  60  0.500  0.900  0.407- 146 2.11 161 2.11 162 2.11 181 2.11 160 2.11
[...]
 188  0.900  0.300  0.503-  90 2.11  89 2.11   9 2.11  94 2.11  88 2.11
 189  0.800  0.300  0.407-  68 2.11  87 2.11  88 2.11  91 2.11  89 2.11
 190  0.900  0.200  0.407-  88 2.11  84 2.11  87 2.11   7 2.11  90 2.11
 191  0.800  0.400  0.503-  74 2.11  89 2.11  93 2.11  94 2.11  91 2.11
 192  0.900  0.500  0.503-  13 2.11  93 2.11  94 2.11  98 2.11  92 2.11
 193  0.800  0.500  0.407-  72 2.11  91 2.11  92 2.11  95 2.11  93 2.11
 194  0.900  0.400  0.407-  11 2.11  88 2.11  91 2.11  92 2.11  94 2.11
 195  0.800  0.600  0.503-  78 2.11  93 2.11  97 2.11  98 2.11  95 2.11
 196  0.900  0.700  0.503- 102 2.11  97 2.11  98 2.11  17 2.11  96 2.11
 197  0.800  0.700  0.407-  76 2.11  99 2.11  96 2.11  95 2.11  97 2.11
 198  0.900  0.600  0.407-  15 2.11  92 2.11  95 2.11  96 2.11  98 2.11
 199  0.800  0.800  0.503-  82 2.11  97 2.11 101 2.11 102 2.11  99 2.11
 200  0.900  0.900  0.503-  21 2.11  86 2.11 101 2.11 102 2.11 100 2.11
 201  0.800  0.900  0.407-  80 2.11  83 2.11  99 2.11 100 2.11 101 2.11
 202  0.900  0.800  0.407-  96 2.11  19 2.11  99 2.11 100 2.11 102 2.11

  LATTYP: Found a simple tetragonal cell.
 ALAT       =    21.1388521970
 C/A-ratio  =     1.0461251639

  Lattice vectors:

 A1 = (  21.1388521970,   0.0000000000,   0.0000000000)
 A2 = (   0.0000000000,  21.1388521970,   0.0000000000)
 A3 = (   0.0000000000,   0.0000000000,  22.1138852197)

Analysis of symmetry for initial positions (statically):
 Subroutine PRICEL returns:
 Original cell was already a primitive cell.

 Routine SETGRP: Setting up the symmetry group for a
 simple tetragonal supercell.

 Subroutine GETGRP returns: Found  4 space group operations
 (whereof  1 operations were pure point group operations)
 out of a pool of 16 trial point group operations.

The static configuration has the point symmetry C_1 .
 The point group associated with its full space group is C_2v.

Analysis of symmetry for dynamics (positions and initial velocities):
 Subroutine PRICEL returns:
 Original cell was already a primitive cell.

 Routine SETGRP: Setting up the symmetry group for a
 simple tetragonal supercell.

 Subroutine GETGRP returns: Found  4 space group operations
 (whereof  1 operations were pure point group operations)
 out of a pool of 16 trial point group operations.

The dynamic configuration has the point symmetry C_1 .
 The point group associated with its full space group is C_2v.

 Subroutine INISYM returns: Found  4 space group operations
 (whereof  1 operations are pure point group operations),
 and found     1 'primitive' translations

                                     Primitive cell

  volume of cell :    9881.6133

[...]
     52     -43.5407      2.00000
     53     -43.5404      2.00000
     54     -43.5401      2.00000
     55     -43.5399      2.00000
     56     -43.5389      2.00000
     57     -43.5385      2.00000
     58     -43.5381      2.00000
     59     -43.5380      2.00000
     60     -43.5379      2.00000
[...]
    882       4.5607      0.00000
    883       4.5650      0.00000
    884       4.5700      0.00000
    885       4.6112      0.00000
    886       4.6511      0.00000
    887       4.6772      0.00000
    888       4.7443      0.00000
    889       4.9128      0.00000
    890       5.0892      0.00000
    891       5.1628      0.00000
    892       5.2801      0.00000
    893       5.3121      0.00000
    894       5.4090      0.00000
    895       5.4458      0.00000
    896       5.5170      0.00000

 soft charge-density along one line, spin component           1
         0         1         2         3         4         5         6         7         8         9
 total charge-density along one line

------------------------ aborting loop because EDIFF is reached ----------------------------------------

  FORCE on cell =-STRESS in cart. coord.  units (eV):
  Direction    XX          YY          ZZ          XY          YZ          ZX
  Alpha Z  1357.53553  1357.53553  1357.53553
  Ewald  479540.84319479540.84319************  -342.47633     0.00001    -0.00001
  Hartree508049.03748508049.03748************  -246.69113     0.00000    -0.00002
  E(xc)   -7975.21543 -7975.21543 -7992.46863    -0.34509    -0.00000     0.00000
  Local  ************************************   583.41192    -0.00001     0.00003
  n-local -8786.97902 -8786.97900 -8899.34434     0.81729     0.00000    -0.00000
  augment  3562.49063  3562.49063  3507.68277     1.32682    -0.00001     0.00000
  Kinetic 23031.99409 23031.99410 23244.87696     3.13089     0.00000     0.00000
  Fock        0.00000     0.00000     0.00000     0.00000     0.00000     0.00000
  Total    -119.30934  -119.30934    38.31395    -0.82563     0.00000     0.00000
  in kB     -19.34448   -19.34448     6.21212    -0.13386     0.00000     0.00000

 VOLUME and BASIS-vectors are now :
  energy-cutoff  :      520.00
  volume of cell :     9881.61
      direct lattice vectors                 reciprocal lattice vectors
    21.138852197  0.000000000  0.000000000     0.047306258  0.000000000  0.000000000
     0.000000000 21.138852197  0.000000000     0.000000000  0.047306258  0.000000000
     0.000000000  0.000000000 22.113885220     0.000000000  0.000000000  0.045220457

  length of vectors
    21.138852197 21.138852197 22.113885220     0.047306258  0.047306258  0.045220457

 FORCES acting on ions:
    Electron-Ion                     Ewald-Force                    Non-Local-Force
   -.188E+03 0.188E+03 -.206E+04   0.184E+03 -.184E+03 0.206E+04   0.453E+01 -.453E+01 -.560E-01
   0.188E+03 -.188E+03 -.206E+04   -.184E+03 0.184E+03 0.206E+04   -.453E+01 0.453E+01 -.560E-01
   0.204E+00 -.345E+01 0.930E+03   -.207E+00 0.346E+01 -.923E+03   0.247E-02 -.323E-02 -.681E+01
   0.345E+01 -.204E+00 0.930E+03   -.346E+01 0.207E+00 -.923E+03   0.323E-02 -.247E-02 -.681E+01
   -.119E-07 -.186E-03 -.922E+03   0.103E-06 -.158E-05 0.915E+03   0.000E+00 0.000E+00 0.677E+01
   0.531E+01 -.531E+01 -.921E+03   -.532E+01 0.532E+01 0.914E+03   0.646E-02 -.646E-02 0.677E+01
   -.204E+00 0.345E+01 0.930E+03   0.207E+00 -.346E+01 -.923E+03   -.247E-02 0.323E-02 -.681E+01
   0.523E+01 0.671E+01 0.932E+03   -.523E+01 -.671E+01 -.925E+03   0.280E-02 0.576E-02 -.681E+01
   -.571E+00 0.716E+01 -.921E+03   0.579E+00 -.717E+01 0.914E+03   -.620E-02 0.421E-02 0.677E+01
   0.470E+01 0.470E+01 -.922E+03   -.470E+01 -.470E+01 0.915E+03   0.365E-03 0.365E-03 0.677E+01
   -.472E+00 0.613E+01 0.933E+03   0.479E+00 -.613E+01 -.926E+03   -.612E-02 0.571E-02 -.681E+01
   0.101E+02 0.518E+01 0.937E+03   -.102E+02 -.519E+01 -.930E+03   0.137E-01 0.835E-02 -.681E+01
   -.547E+00 0.501E+01 -.919E+03   0.555E+00 -.501E+01 0.912E+03   -.590E-02 0.273E-02 0.677E+01
   0.104E+02 0.967E+01 -.919E+03   -.104E+02 -.968E+01 0.912E+03   0.146E-02 0.651E-02 0.676E+01
   0.240E-06 -.189E-03 0.935E+03   -.147E-06 0.154E-05 -.928E+03   0.000E+00 0.000E+00 -.681E+01
   0.110E+02 -.464E+01 0.937E+03   -.110E+02 0.464E+01 -.930E+03   0.266E-01 -.247E-02 -.681E+01
   0.547E+00 -.501E+01 -.919E+03   -.555E+00 0.501E+01 0.912E+03   0.590E-02 -.273E-02 0.677E+01
   0.173E+02 0.748E+00 -.916E+03   -.174E+02 -.755E+00 0.909E+03   0.203E-01 0.539E-02 0.676E+01
   0.472E+00 -.613E+01 0.933E+03   -.479E+00 0.613E+01 -.926E+03   0.612E-02 -.571E-02 -.681E+01
   0.606E+01 -.704E+01 0.933E+03   -.607E+01 0.705E+01 -.926E+03   0.121E-01 -.915E-02 -.681E+01
   0.571E+00 -.716E+01 -.921E+03   -.579E+00 0.717E+01 0.914E+03   0.620E-02 -.421E-02 0.677E+01
   0.123E+02 -.980E+01 -.918E+03   -.124E+02 0.981E+01 0.911E+03   0.217E-01 -.580E-02 0.677E+01
   0.704E+01 -.606E+01 0.933E+03   -.705E+01 0.607E+01 -.926E+03   0.915E-02 -.121E-01 -.681E+01
   0.613E+01 -.472E+00 0.933E+03   -.613E+01 0.479E+00 -.926E+03   0.571E-02 -.612E-02 -.681E+01
   0.716E+01 -.571E+00 -.921E+03   -.717E+01 0.579E+00 0.914E+03   0.421E-02 -.620E-02 0.677E+01
   0.980E+01 -.123E+02 -.918E+03   -.981E+01 0.124E+02 0.911E+03   0.580E-02 -.217E-01 0.677E+01
   0.671E+01 0.523E+01 0.932E+03   -.671E+01 -.523E+01 -.925E+03   0.576E-02 0.280E-02 -.681E+01
   0.116E+02 0.148E+02 0.939E+03   -.116E+02 -.148E+02 -.932E+03   0.168E-01 0.214E-01 -.681E+01
   0.132E+02 0.132E+02 -.918E+03   -.132E+02 -.132E+02 0.911E+03   0.536E-02 0.536E-02 0.676E+01
   0.967E+01 0.104E+02 -.919E+03   -.968E+01 -.104E+02 0.912E+03   0.651E-02 0.146E-02 0.676E+01
   0.148E+02 0.116E+02 0.939E+03   -.148E+02 -.116E+02 -.932E+03   0.214E-01 0.168E-01 -.681E+01
   0.285E+02 0.160E+02 0.960E+03   -.286E+02 -.160E+02 -.953E+03   0.895E-01 0.448E-01 -.683E+01
   0.330E+02 0.140E+02 -.909E+03   -.330E+02 -.140E+02 0.902E+03   0.274E-01 0.195E-01 0.675E+01
   0.316E+02 0.316E+02 -.904E+03   -.317E+02 -.317E+02 0.897E+03   0.272E-01 0.272E-01 0.674E+01
   0.239E+02 0.113E+01 0.947E+03   -.240E+02 -.114E+01 -.940E+03   0.588E-01 0.109E-01 -.681E+01
   0.303E+02 -.142E+02 0.964E+03   -.304E+02 0.142E+02 -.957E+03   0.608E-01 -.259E-01 -.677E+01
   0.370E+02 -.119E+02 -.906E+03   -.371E+02 0.119E+02 0.900E+03   0.735E-01 0.213E-04 0.676E+01
   0.778E+02 0.816E+01 -.870E+03   -.781E+02 -.823E+01 0.863E+03   0.205E+00 0.536E-01 0.677E+01
   0.162E+02 -.119E+02 0.941E+03   -.163E+02 0.119E+02 -.934E+03   0.327E-01 -.185E-01 -.680E+01
   0.119E+02 -.162E+02 0.941E+03   -.119E+02 0.163E+02 -.934E+03   0.185E-01 -.327E-01 -.680E+01
   0.148E+02 -.148E+02 -.917E+03   -.148E+02 0.148E+02 0.910E+03   0.189E-01 -.189E-01 0.677E+01
   0.365E+02 -.365E+02 -.898E+03   -.366E+02 0.366E+02 0.891E+03   0.590E-01 -.590E-01 0.677E+01
   0.464E+01 -.110E+02 0.937E+03   -.464E+01 0.110E+02 -.930E+03   0.247E-02 -.266E-01 -.681E+01
   0.236E-06 -.183E-03 0.935E+03   -.140E-06 -.411E-05 -.928E+03   0.000E+00 0.000E+00 -.681E+01
   0.501E+01 -.547E+00 -.919E+03   -.501E+01 0.555E+00 0.912E+03   0.273E-02 -.590E-02 0.677E+01
   -.748E+00 -.173E+02 -.916E+03   0.755E+00 0.174E+02 0.909E+03   -.539E-02 -.203E-01 0.676E+01
   0.518E+01 0.101E+02 0.937E+03   -.519E+01 -.102E+02 -.930E+03   0.835E-02 0.137E-01 -.681E+01
   0.113E+01 0.239E+02 0.947E+03   -.114E+01 -.240E+02 -.940E+03   0.109E-01 0.588E-01 -.681E+01
   0.140E+02 0.330E+02 -.909E+03   -.140E+02 -.330E+02 0.902E+03   0.195E-01 0.274E-01 0.675E+01
   0.748E+00 0.173E+02 -.916E+03   -.755E+00 -.174E+02 0.909E+03   0.539E-02 0.203E-01 0.676E+01
   0.160E+02 0.285E+02 0.960E+03   -.160E+02 -.286E+02 -.953E+03   0.448E-01 0.895E-01 -.683E+01
   0.305E+01 0.302E+02 0.100E+04   -.301E+01 -.303E+02 -.994E+03   -.290E-01 0.779E-01 -.659E+01
   0.691E+02 0.691E+02 -.837E+03   -.694E+02 -.694E+02 0.830E+03   0.221E+00 0.221E+00 0.666E+01
   0.816E+01 0.778E+02 -.870E+03   -.823E+01 -.781E+02 0.863E+03   0.536E-01 0.205E+00 0.677E+01
   0.302E+02 0.305E+01 0.100E+04   -.303E+02 -.301E+01 -.994E+03   0.779E-01 -.290E-01 -.659E+01
   -.305E+01 -.302E+02 0.100E+04   0.301E+01 0.303E+02 -.994E+03   0.290E-01 -.779E-01 -.659E+01
   0.753E+02 -.753E+02 -.795E+03   -.756E+02 0.756E+02 0.788E+03   0.167E+00 -.167E+00 0.662E+01
   -.206E-04 -.241E-03 -.667E+03   0.210E-04 0.517E-04 0.662E+03   0.000E+00 0.000E+00 0.488E+01
   0.142E+02 -.303E+02 0.964E+03   -.142E+02 0.304E+02 -.957E+03   0.259E-01 -.608E-01 -.677E+01
   -.113E+01 -.239E+02 0.947E+03   0.114E+01 0.240E+02 -.940E+03   -.109E-01 -.588E-01 -.681E+01
[...]
   -.793E+01 0.792E+01 0.704E+03   0.794E+01 -.794E+01 -.708E+03   -.194E-01 0.194E-01 0.358E+01
   -.316E+01 0.316E+01 0.700E+03   0.316E+01 -.316E+01 -.705E+03   -.714E-02 0.714E-02 0.358E+01
   -.189E+02 0.133E+02 -.686E+03   0.189E+02 -.134E+02 0.690E+03   -.386E-01 0.251E-01 -.363E+01
   -.122E+02 0.462E+01 -.689E+03   0.123E+02 -.463E+01 0.693E+03   -.208E-01 0.158E-02 -.363E+01
   -.165E+02 0.572E+01 0.711E+03   0.166E+02 -.573E+01 -.716E+03   -.493E-01 0.857E-02 0.359E+01
   -.651E+01 0.558E+01 0.703E+03   0.652E+01 -.559E+01 -.708E+03   -.188E-01 0.102E-01 0.358E+01
   -.306E+02 -.184E+01 -.681E+03   0.306E+02 0.186E+01 0.685E+03   -.478E-01 -.223E-01 -.364E+01
   -.110E+02 -.527E+01 -.690E+03   0.110E+02 0.528E+01 0.694E+03   -.945E-02 -.103E-01 -.363E+01
   -.154E+02 -.664E+01 0.710E+03   0.155E+02 0.665E+01 -.714E+03   -.309E-01 -.222E-01 0.358E+01
   -.873E+01 -.325E+00 0.705E+03   0.875E+01 0.328E+00 -.710E+03   -.190E-01 -.563E-02 0.358E+01
   -.163E+02 -.125E+02 -.688E+03   0.163E+02 0.126E+02 0.692E+03   -.141E-01 -.154E-01 -.364E+01
   -.510E+01 -.636E+01 -.692E+03   0.510E+01 0.636E+01 0.697E+03   -.937E-03 -.465E-02 -.363E+01
   -.730E+01 -.730E+01 0.703E+03   0.730E+01 0.730E+01 -.707E+03   -.107E-01 -.107E-01 0.358E+01
   -.567E+01 -.557E+01 0.703E+03   0.568E+01 0.557E+01 -.707E+03   -.610E-02 -.954E-02 0.358E+01
   -.149E-04 -.111E+00 0.655E+01   0.753E-12 0.270E-12 0.830E-11   -.114E-15 -.378E-15 -.754E+01

 POSITION                                       TOTAL-FORCE (eV/Angst)
     11.48398     11.76876     13.78517         0.252058     -0.252058      0.242507
      9.65487     13.59787     13.78517        -0.252058      0.252058      0.242507
      0.00000      0.00000      9.00000        -0.000680      0.000895      0.162490
      2.11389      2.11389      9.00000        -0.000895      0.000680      0.162490
      0.00000      2.11389     11.11389        -0.000000      0.000000     -0.158311
      2.11389      0.00000     11.11389        -0.001768      0.001768     -0.158107
      0.00000      4.22777      9.00000         0.000680     -0.000895      0.162490
      2.11389      6.34166      9.00000        -0.000759     -0.001593      0.162934
      0.00000      6.34166     11.11389         0.001694     -0.001149     -0.157752
      2.11389      4.22777     11.11389        -0.000069     -0.000069     -0.157852
      0.00000      8.45554      9.00000         0.001633     -0.001614      0.162776
      2.11389     10.56943      9.00000        -0.003777     -0.002414      0.163253
      0.00000     10.56943     11.11389         0.001588     -0.000760     -0.156620
      2.11389      8.45554     11.11389        -0.000194     -0.001732     -0.156011
      0.00000     12.68331      9.00000        -0.000000      0.000000      0.162998
      2.11389     14.79720      9.00000        -0.007057      0.000725      0.162942
      0.00000     14.79720     11.11389        -0.001588      0.000760     -0.156620
      2.11389     12.68331     11.11389        -0.005050     -0.001611     -0.155222
      0.00000     16.91108      9.00000        -0.001633      0.001614      0.162776
      2.11389     19.02497      9.00000        -0.003339      0.002589      0.162349
      0.00000     19.02497     11.11389        -0.001694      0.001149     -0.157752
      2.11389     16.91108     11.11389        -0.005785      0.001651     -0.156953
      4.22777      0.00000      9.00000        -0.002589      0.003339      0.162349
      6.34166      2.11389      9.00000        -0.001614      0.001633      0.162776
      4.22777      2.11389     11.11389        -0.001149      0.001694     -0.157752
      6.34166      0.00000     11.11389        -0.001651      0.005785     -0.156953
      4.22777      4.22777      9.00000        -0.001593     -0.000759      0.162934
      6.34166      6.34166      9.00000        -0.004709     -0.005864      0.164066
      4.22777      6.34166     11.11389        -0.001246     -0.001246     -0.155304
      6.34166      4.22777     11.11389        -0.001732     -0.000194     -0.156011
      4.22777      8.45554      9.00000        -0.005864     -0.004709      0.164066
      6.34166     10.56943      9.00000        -0.025661     -0.014301      0.164441
      4.22777     10.56943     11.11389        -0.006041     -0.005447     -0.149880
      6.34166      8.45554     11.11389        -0.005962     -0.005962     -0.143503
      4.22777     12.68331      9.00000        -0.016275     -0.003345      0.163072
      6.34166     14.79720      9.00000        -0.017718      0.008461      0.149093
      4.22777     14.79720     11.11389        -0.020886     -0.000045     -0.153690
      6.34166     12.68331     11.11389        -0.070556     -0.016849     -0.146819
      4.22777     16.91108      9.00000        -0.009216      0.005530      0.161256
      6.34166     19.02497      9.00000        -0.005530      0.009216      0.161256
      4.22777     19.02497     11.11389        -0.005160      0.005160     -0.157122
      6.34166     16.91108     11.11389        -0.016918      0.016918     -0.156112
      8.45554      0.00000      9.00000        -0.000725      0.007057      0.162942
     10.56943      2.11389      9.00000        -0.000000      0.000000      0.162998
      8.45554      2.11389     11.11389        -0.000760      0.001588     -0.156620
     10.56943      0.00000     11.11389         0.001611      0.005050     -0.155222
      8.45554      4.22777      9.00000        -0.002414     -0.003777      0.163253
     10.56943      6.34166      9.00000        -0.003345     -0.016275      0.163072
      8.45554      6.34166     11.11389        -0.005447     -0.006041     -0.149880
     10.56943      4.22777     11.11389        -0.001611     -0.005050     -0.155222
      8.45554      8.45554      9.00000        -0.014301     -0.025661      0.164441
     10.56943     10.56943      9.00000         0.011704     -0.021911      0.095227
      8.45554     10.56943     11.11389        -0.052903     -0.052903     -0.060352
     10.56943      8.45554     11.11389        -0.016849     -0.070556     -0.146819
      8.45554     12.68331      9.00000        -0.021911      0.011704      0.095227
     10.56943     14.79720      9.00000        -0.011704      0.021911      0.095227
      8.45554     14.79720     11.11389        -0.097344      0.097344     -0.284945
     10.56943     12.68331     11.11389        -0.000000      0.000000     -0.071038
      8.45554     16.91108      9.00000        -0.008461      0.017718      0.149093
     10.56943     19.02497      9.00000         0.003345      0.016275      0.163072
[...]
     19.02497      6.34166     11.11389        -0.003650      0.002966      0.546058
     16.91108      6.34166      9.00000        -0.005517      0.005517     -0.550679
     19.02497      4.22777      9.00000        -0.002012      0.002012     -0.551162
     16.91108      8.45554     11.11389        -0.011387      0.007471      0.545803
     19.02497     10.56943     11.11389        -0.005975      0.000485      0.544463
     16.91108     10.56943      9.00000        -0.014791      0.002698     -0.548273
     19.02497      8.45554      9.00000        -0.005320      0.002949     -0.551059
     16.91108     12.68331     11.11389        -0.014700     -0.006432      0.541364
     19.02497     14.79720     11.11389        -0.002766     -0.002914      0.543522
     16.91108     14.79720      9.00000        -0.009519     -0.006554     -0.552963
     19.02497     12.68331      9.00000        -0.005502     -0.001564     -0.551587
     16.91108     16.91108     11.11389        -0.004282     -0.004548      0.541148
     19.02497     19.02497     11.11389        -0.000293     -0.001351      0.545343
     16.91108     19.02497      9.00000        -0.003073     -0.003073     -0.552206
     19.02497     16.91108      9.00000        -0.001765     -0.002735     -0.551929
    total drift:                               -0.000015     -0.110686     -0.988235

  FREE ENERGIE OF THE ION-ELECTRON SYSTEM (eV)
  free  energy   TOTEN  =      -680.12626136 eV

  energy  without entropy=     -680.12626136  energy(sigma->0) =     -680.12626136