 vasp.6.3.0 20Jan22 (build Apr  1 2022 16:44:48) complex
 executed on        HPECrayEX_GCC date 2022.08.15  17:32:30

 INCAR:
   SYSTEM = MgO-rocksalt
   ISMEAR = 0
   SIGMA = 0.05
   EDIFF = 1E-6
   ALGO = ALL
   ISTART = 0
   IBRION = -1
   NSW = 0
   ISYM = 2
   DIPOL = 0.5 0.5 0.5
   IDIPOL = 3
   LDIPOL = .TRUE.
   GGA = PE
   IVDW = 13
   VDW_S8 = 0.9595
   VDW_A1 = 0.3857
   VDW_A2 = 4.8069
   ENCUT = 520
   PREC = Accurate
   LASPH = .TRUE.
   LREAL = Auto
   ISPIN = 1
   NELM = 200
   NELMIN = 8
   NCORE = 4
   KPAR = 2
   LWAVE = .FALSE.
   LCHARG = .FALSE.

 POTCAR:    PAW_PBE Ag 02Apr2005
 POTCAR:    PAW_PBE Mg_pv 13Apr2007
 POTCAR:    PAW_PBE O 08Apr2002
 POTCAR:    PAW_PBE Ag 02Apr2005
   VRHFIN =Ag : s1 d10

   TITEL  = PAW_PBE Ag 02Apr2005
   POMASS =  107.868; ZVAL   =   11.000    mass and valenz
   ENMAX  =  249.844; ENMIN  =  187.383 eV

   TITEL  = PAW_PBE Mg_pv 13Apr2007
   POMASS =   24.305; ZVAL   =    8.000    mass and valenz
   ENMAX  =  403.929; ENMIN  =  302.947 eV

   TITEL  = PAW_PBE O 08Apr2002
   POMASS =   16.000; ZVAL   =    6.000    mass and valenz
   ENMAX  =  400.000; ENMIN  =  300.000 eV

 Optimization of the real space projectors (new method)

 maximal supplied QI-value         = 15.12
 optimisation between [QCUT,QGAM] = [ 11.64, 23.28] = [ 37.95,151.78] Ry
 Optimized for a Real-space Cutoff    1.45 Angstroem

   l    n(q)    QCUT    max X(q) W(low)/X(q) W(high)/X(q)  e(spline)
   2      9    11.641    53.897    0.22E-03    0.42E-04    0.28E-06
   2      9    11.641    52.416    0.23E-03    0.44E-04    0.29E-06
   0     10    11.641   122.045    0.51E-04    0.25E-04    0.16E-06
   0     10    11.641    73.629    0.49E-04    0.24E-04    0.16E-06
   1     10    11.641    15.255    0.99E-04    0.55E-04    0.11E-06
   1     10    11.641     9.562    0.81E-04    0.47E-04    0.95E-07
 Optimization of the real space projectors (new method)

[...]

   l    n(q)    QCUT    max X(q) W(low)/X(q) W(high)/X(q)  e(spline)
   1      8    11.527     2.974    0.44E-04    0.56E-04    0.12E-06
   1      8    11.527     4.279    0.12E-03    0.12E-03    0.26E-06
   0      9    11.527    16.381    0.46E-04    0.64E-04    0.78E-07
   0      9    11.527     5.611    0.26E-04    0.43E-04    0.55E-07
   2      8    11.527     4.652    0.22E-03    0.72E-04    0.47E-07
 Optimization of the real space projectors (new method)

 maximal supplied QI-value         = 24.76
 optimisation between [QCUT,QGAM] = [ 11.64, 23.27] = [ 37.91,151.63] Ry
 Optimized for a Real-space Cutoff    1.14 Angstroem

   l    n(q)    QCUT    max X(q) W(low)/X(q) W(high)/X(q)  e(spline)
   0      8    11.635    20.381    0.10E-03    0.33E-03    0.24E-06
   0      8    11.635    15.268    0.11E-03    0.35E-03    0.26E-06
   1      7    11.635     5.964    0.24E-03    0.31E-03    0.30E-06
   1      7    11.635     5.382    0.22E-03    0.25E-03    0.26E-06
  PAW_PBE Ag 02Apr2005                  :
  PAW_PBE Mg_pv 13Apr2007               :
  PAW_PBE O 08Apr2002                   :

 POSCAR: Ag Mg  O
  positions in direct lattice
|           W    W    AA    RRRRR   N    N  II  N    N   GGGG   !!!           |
|           W    W   A  A   R    R  NN   N  II  NN   N  G    G  !!!           |
|           W    W  A    A  R    R  N N  N  II  N N  N  G       !!!           |
|           W WW W  AAAAAA  RRRRR   N  N N  II  N  N N  G  GGG   !            |
|           WW  WW  A    A  R   R   N   NN  II  N   NN  G    G                |
|           W    W  A    A  R    R  N    N  II  N    N   GGGG   !!!           |
|     Specifying the vdW parameters                                           |
|     VDW_S8 = 0.96                                                           |
|     VDW_A1 = 0.386                                                          |
|     VDW_A2 = 4.807                                                          |
|     in the INCAR file will overwrite the defaults for pbe. Please make      |
|     sure that is what you intended.                                         |

 ion  position               nearest neighbor table
   1  0.450  0.450  0.726-   2 2.56
   2  0.450  0.450  0.610-   1 2.56  53 2.81  54 2.81
   3  0.000  0.000  0.407- 105 2.11 106 2.11 121 2.11 186 2.11 103 2.11
   4  0.100  0.100  0.407- 105 2.11 106 2.11 110 2.11 125 2.11 104 2.11
   5  0.000  0.100  0.503- 103 2.11 104 2.11 107 2.11 184 2.11 105 2.11
   6  0.100  0.000  0.503- 103 2.11 104 2.11 120 2.11 123 2.11 106 2.11
   7  0.000  0.200  0.407- 109 2.11 105 2.11 110 2.11 190 2.11 107 2.11
   8  0.100  0.300  0.407- 110 2.11 109 2.11 114 2.11 129 2.11 108 2.11
   9  0.000  0.300  0.503- 107 2.11 108 2.11 111 2.11 188 2.11 109 2.11
  10  0.100  0.200  0.503- 108 2.11 107 2.11 104 2.11 127 2.11 110 2.11
  11  0.000  0.400  0.407- 109 2.11 113 2.11 114 2.11 194 2.11 111 2.11
  12  0.100  0.500  0.407- 113 2.11 114 2.11 118 2.11 133 2.11 112 2.11
  13  0.000  0.500  0.503- 111 2.11 112 2.11 115 2.11 192 2.11 113 2.11
  14  0.100  0.400  0.503- 108 2.11 111 2.11 112 2.11 131 2.11 114 2.11
  15  0.000  0.600  0.407- 113 2.11 117 2.11 118 2.11 198 2.11 115 2.11
  16  0.100  0.700  0.407- 122 2.11 118 2.11 117 2.11 137 2.11 116 2.11
  17  0.000  0.700  0.503- 119 2.11 116 2.11 115 2.11 196 2.11 117 2.11
  18  0.100  0.600  0.503- 112 2.11 115 2.11 116 2.11 135 2.11 118 2.11
  19  0.000  0.800  0.407- 117 2.11 121 2.11 122 2.11 202 2.11 119 2.11
  20  0.100  0.900  0.407- 106 2.11 121 2.11 122 2.11 141 2.11 120 2.11
  21  0.000  0.900  0.503- 103 2.11 119 2.11 120 2.11 200 2.11 121 2.11
  22  0.100  0.800  0.503- 116 2.11 119 2.11 120 2.11 139 2.11 122 2.11
  23  0.200  0.000  0.407- 126 2.11 125 2.11 106 2.11 141 2.11 123 2.11
  24  0.300  0.100  0.407- 125 2.11 126 2.11 130 2.11 145 2.11 124 2.11
  25  0.200  0.100  0.503- 124 2.11 123 2.11 104 2.11 127 2.11 125 2.11
  26  0.300  0.000  0.503- 123 2.11 124 2.11 140 2.11 143 2.11 126 2.11
  27  0.200  0.200  0.407- 129 2.11 130 2.11 110 2.11 125 2.11 127 2.11
  28  0.300  0.300  0.407- 129 2.11 130 2.11 134 2.11 149 2.11 128 2.11
  29  0.200  0.300  0.503- 127 2.11 128 2.11 108 2.11 131 2.11 129 2.11
  30  0.300  0.200  0.503- 127 2.11 128 2.11 124 2.11 147 2.11 130 2.11
  31  0.200  0.400  0.407- 134 2.11 129 2.11 133 2.11 114 2.11 131 2.11
  32  0.300  0.500  0.407- 133 2.11 134 2.11 138 2.11 153 2.11 132 2.11
  33  0.200  0.500  0.503- 132 2.11 131 2.11 112 2.11 135 2.11 133 2.11
  34  0.300  0.400  0.503- 131 2.11 128 2.11 132 2.11 151 2.11 134 2.11
  35  0.200  0.600  0.407- 138 2.11 133 2.11 137 2.11 118 2.11 135 2.11
  36  0.300  0.700  0.407- 137 2.11 142 2.11 138 2.11 157 2.11 136 2.11
  37  0.200  0.700  0.503- 136 2.11 139 2.11 116 2.11 135 2.11 137 2.11
  38  0.300  0.600  0.503- 135 2.11 132 2.11 136 2.11 155 2.11 138 2.11
  39  0.200  0.800  0.407- 137 2.11 142 2.11 141 2.11 122 2.11 139 2.11
  40  0.300  0.900  0.407- 141 2.11 126 2.11 142 2.11 161 2.11 140 2.11
  41  0.200  0.900  0.503- 140 2.11 123 2.11 139 2.11 120 2.11 141 2.11
  42  0.300  0.800  0.503- 136 2.11 139 2.11 140 2.11 159 2.11 142 2.11
  43  0.400  0.000  0.407- 126 2.11 145 2.11 146 2.11 161 2.11 143 2.11
  44  0.500  0.100  0.407- 145 2.11 146 2.11 150 2.11 165 2.11 144 2.11
  45  0.400  0.100  0.503- 124 2.11 143 2.11 144 2.11 147 2.11 145 2.11
  46  0.500  0.000  0.503- 143 2.11 144 2.11 160 2.11 163 2.11 146 2.11
  47  0.400  0.200  0.407- 149 2.11 145 2.11 130 2.11 150 2.11 147 2.11
  48  0.500  0.300  0.407- 150 2.11 149 2.11 154 2.11 169 2.11 148 2.11
  49  0.400  0.300  0.503- 147 2.11 128 2.11 148 2.11 151 2.11 149 2.11
  50  0.500  0.200  0.503- 148 2.11 147 2.11 144 2.11 167 2.11 150 2.11
  51  0.400  0.400  0.407- 134 2.11 149 2.11 153 2.11 154 2.11 151 2.11
  52  0.500  0.500  0.407- 153 2.11 154 2.11 158 2.11 173 2.11 152 2.11
  53  0.400  0.500  0.503- 132 2.11 151 2.11 152 2.11 155 2.11 153 2.11   2 2.81
  54  0.500  0.400  0.503- 148 2.11 151 2.11 152 2.11 171 2.11 154 2.11   2 2.81
  55  0.400  0.600  0.407- 138 2.11 153 2.11 157 2.11 158 2.11 155 2.11
  56  0.500  0.700  0.407- 162 2.11 158 2.11 157 2.11 177 2.11 156 2.11
  57  0.400  0.700  0.503- 159 2.11 155 2.11 156 2.11 136 2.11 157 2.11
  58  0.500  0.600  0.503- 152 2.11 155 2.11 156 2.11 175 2.11 158 2.11
  59  0.400  0.800  0.407- 157 2.11 142 2.11 161 2.11 162 2.11 159 2.11
  60  0.500  0.900  0.407- 146 2.11 161 2.11 162 2.11 181 2.11 160 2.11
[...]
 188  0.900  0.300  0.503-  90 2.11  89 2.11   9 2.11  94 2.11  88 2.11
 189  0.800  0.300  0.407-  68 2.11  87 2.11  88 2.11  91 2.11  89 2.11
 190  0.900  0.200  0.407-  88 2.11  84 2.11  87 2.11   7 2.11  90 2.11
 191  0.800  0.400  0.503-  74 2.11  89 2.11  93 2.11  94 2.11  91 2.11
 192  0.900  0.500  0.503-  13 2.11  93 2.11  94 2.11  98 2.11  92 2.11
 193  0.800  0.500  0.407-  72 2.11  91 2.11  92 2.11  95 2.11  93 2.11
 194  0.900  0.400  0.407-  11 2.11  88 2.11  91 2.11  92 2.11  94 2.11
 195  0.800  0.600  0.503-  78 2.11  93 2.11  97 2.11  98 2.11  95 2.11
 196  0.900  0.700  0.503- 102 2.11  97 2.11  98 2.11  17 2.11  96 2.11
 197  0.800  0.700  0.407-  76 2.11  99 2.11  96 2.11  95 2.11  97 2.11
 198  0.900  0.600  0.407-  15 2.11  92 2.11  95 2.11  96 2.11  98 2.11
 199  0.800  0.800  0.503-  82 2.11  97 2.11 101 2.11 102 2.11  99 2.11
 200  0.900  0.900  0.503-  21 2.11  86 2.11 101 2.11 102 2.11 100 2.11
 201  0.800  0.900  0.407-  80 2.11  83 2.11  99 2.11 100 2.11 101 2.11
 202  0.900  0.800  0.407-  96 2.11  19 2.11  99 2.11 100 2.11 102 2.11

  LATTYP: Found a simple tetragonal cell.
 ALAT       =    21.1388521970
 C/A-ratio  =     1.0461251639

  Lattice vectors:

 A1 = (  21.1388521970,   0.0000000000,   0.0000000000)
 A2 = (   0.0000000000,  21.1388521970,   0.0000000000)
 A3 = (   0.0000000000,   0.0000000000,  22.1138852197)

Analysis of symmetry for initial positions (statically):
 Subroutine PRICEL returns:
 Original cell was already a primitive cell.

 Routine SETGRP: Setting up the symmetry group for a
 simple tetragonal supercell.

 Subroutine GETGRP returns: Found  4 space group operations
 (whereof  2 operations were pure point group operations)
 out of a pool of 16 trial point group operations.

The static configuration has the point symmetry C_1h.
 The point group associated with its full space group is C_2v.

Analysis of symmetry for dynamics (positions and initial velocities):
 Subroutine PRICEL returns:
 Original cell was already a primitive cell.

 Routine SETGRP: Setting up the symmetry group for a
 simple tetragonal supercell.

 Subroutine GETGRP returns: Found  4 space group operations
 (whereof  2 operations were pure point group operations)
 out of a pool of 16 trial point group operations.

The dynamic configuration has the point symmetry C_1h.
 The point group associated with its full space group is C_2v.

 Subroutine INISYM returns: Found  4 space group operations
 (whereof  2 operations are pure point group operations),
 and found     1 'primitive' translations

                                     Primitive cell

  volume of cell :    9881.6133

  direct lattice vectors                    reciprocal lattice vectors
    21.138852197  0.000000000  0.000000000     0.047306258  0.000000000  0.000000000
[...]
     54     -43.0018      2.00000
     55     -43.0011      2.00000
     56     -43.0011      2.00000
     57     -43.0003      2.00000
     58     -43.0001      2.00000
     59     -42.9998      2.00000
     60     -42.9982      2.00000
[...]
    882       4.6851      0.00000
    883       4.7468      0.00000
    884       4.8549      0.00000
    885       4.8639      0.00000
    886       4.8942      0.00000
    887       4.9257      0.00000
    888       5.0415      0.00000
    889       5.2222      0.00000
    890       5.3449      0.00000
    891       5.4558      0.00000
    892       5.5336      0.00000
    893       5.5486      0.00000
    894       5.6016      0.00000
    895       5.6363      0.00000
    896       5.6703      0.00000

 soft charge-density along one line, spin component           1
         0         1         2         3         4         5         6         7         8         9
 total charge-density along one line

------------------------ aborting loop because EDIFF is reached ----------------------------------------

  FORCE on cell =-STRESS in cart. coord.  units (eV):
  Direction    XX          YY          ZZ          XY          YZ          ZX
  Alpha Z  1357.53553  1357.53553  1357.53553
  Ewald  475865.30748475865.30748************    -8.48416    -0.00001     0.00001
  Hartree504548.74618504548.74616************    -1.98887    -0.00000     0.00001
  E(xc)   -7765.35338 -7765.35337 -7796.18077     0.01244     0.00000    -0.00000
  Local  ************************************     9.12463     0.00001    -0.00001
  n-local -8780.25740 -8780.25739 -8903.79043    -0.50774     0.00000     0.00000
  augment  3467.74635  3467.74634  3408.44975     0.71355    -0.00000     0.00000
  Kinetic 22953.94222 22953.94221 23203.76203     0.37196    -0.00000    -0.00000
  Fock        0.00000     0.00000     0.00000     0.00000     0.00000     0.00000
  vdW       -23.13582   -23.13582    -8.13898     0.01072     0.00000    -0.00000
  Total    -173.19188  -173.19188    10.23793    -0.74747     0.00000    -0.00000
  in kB     -28.08085   -28.08085     1.65995    -0.12119     0.00000    -0.00000

 VOLUME and BASIS-vectors are now :
  energy-cutoff  :      520.00
  volume of cell :     9881.61
      direct lattice vectors                 reciprocal lattice vectors
    21.138852197  0.000000000  0.000000000     0.047306258  0.000000000  0.000000000
     0.000000000 21.138852197  0.000000000     0.000000000  0.047306258  0.000000000
     0.000000000  0.000000000 22.113885220     0.000000000  0.000000000  0.045220457

  length of vectors
    21.138852197 21.138852197 22.113885220     0.047306258  0.047306258  0.045220457

 FORCES acting on ions:
    Electron-Ion                     Ewald-Force                    Non-Local-Force
   0.311E-04 -.137E-03 -.170E+04   0.119E-07 -.862E-08 0.169E+04   0.000E+00 0.000E+00 0.757E+01
   0.275E-04 -.133E-03 -.187E+04   0.417E-05 -.431E-05 0.188E+04   0.000E+00 0.000E+00 -.596E+01
   0.167E+01 0.167E+01 0.931E+03   -.168E+01 -.168E+01 -.923E+03   0.375E-02 0.375E-02 -.742E+01
   0.586E+01 0.586E+01 0.933E+03   -.588E+01 -.588E+01 -.925E+03   0.155E-01 0.155E-01 -.742E+01
   0.274E+01 0.562E+01 -.922E+03   -.275E+01 -.563E+01 0.914E+03   0.761E-02 0.488E-02 0.738E+01
   0.562E+01 0.274E+01 -.922E+03   -.563E+01 -.275E+01 0.914E+03   0.488E-02 0.761E-02 0.738E+01
   0.297E+01 0.586E+01 0.933E+03   -.299E+01 -.587E+01 -.925E+03   0.146E-01 0.814E-02 -.742E+01
   0.118E+02 0.706E+01 0.938E+03   -.119E+02 -.708E+01 -.930E+03   0.561E-01 0.107E-01 -.743E+01
   0.568E+01 0.643E+01 -.919E+03   -.570E+01 -.644E+01 0.911E+03   0.144E-01 0.263E-02 0.737E+01
   0.119E+02 0.107E+02 -.918E+03   -.120E+02 -.108E+02 0.911E+03   0.283E-01 0.946E-02 0.737E+01
   0.474E+01 0.198E+01 0.935E+03   -.476E+01 -.198E+01 -.928E+03   0.190E-01 0.617E-03 -.742E+01
   0.144E+02 -.287E+01 0.940E+03   -.144E+02 0.289E+01 -.932E+03   0.561E-01 -.123E-01 -.743E+01
   0.692E+01 -.257E+01 -.918E+03   -.693E+01 0.257E+01 0.910E+03   0.522E-02 -.327E-02 0.737E+01
   0.224E+02 0.420E+01 -.913E+03   -.225E+02 -.420E+01 0.905E+03   0.410E-01 -.506E-02 0.736E+01
   0.401E+01 -.499E+01 0.934E+03   -.402E+01 0.500E+01 -.926E+03   0.566E-02 -.733E-02 -.742E+01
   0.851E+01 -.792E+01 0.935E+03   -.853E+01 0.794E+01 -.927E+03   0.152E-01 -.141E-01 -.742E+01
   0.406E+01 -.742E+01 -.920E+03   -.406E+01 0.743E+01 0.913E+03   -.223E-02 -.424E-02 0.738E+01
   0.178E+02 -.997E+01 -.915E+03   -.178E+02 0.999E+01 0.908E+03   0.127E-01 -.919E-02 0.737E+01
   0.213E+01 -.451E+01 0.931E+03   -.213E+01 0.452E+01 -.924E+03   -.193E-03 -.518E-02 -.742E+01
   0.451E+01 -.213E+01 0.931E+03   -.452E+01 0.213E+01 -.924E+03   0.518E-02 0.193E-03 -.742E+01
   0.207E+01 -.207E+01 -.922E+03   -.207E+01 0.207E+01 0.915E+03   -.400E-05 0.400E-05 0.738E+01
   0.770E+01 -.770E+01 -.920E+03   -.770E+01 0.770E+01 0.913E+03   0.285E-02 -.285E-02 0.738E+01
   0.586E+01 0.297E+01 0.933E+03   -.587E+01 -.299E+01 -.925E+03   0.814E-02 0.146E-01 -.742E+01
   0.706E+01 0.118E+02 0.938E+03   -.708E+01 -.119E+02 -.930E+03   0.107E-01 0.561E-01 -.743E+01
   0.107E+02 0.119E+02 -.918E+03   -.108E+02 -.120E+02 0.911E+03   0.946E-02 0.283E-01 0.737E+01
   0.643E+01 0.568E+01 -.919E+03   -.644E+01 -.570E+01 0.911E+03   0.263E-02 0.144E-01 0.737E+01
   0.122E+02 0.122E+02 0.939E+03   -.123E+02 -.123E+02 -.931E+03   0.465E-01 0.465E-01 -.742E+01
   0.200E+02 0.200E+02 0.958E+03   -.201E+02 -.201E+02 -.950E+03   0.134E+00 0.134E+00 -.742E+01
   0.310E+02 0.196E+02 -.906E+03   -.311E+02 -.196E+02 0.898E+03   0.118E+00 0.635E-02 0.736E+01
   0.196E+02 0.310E+02 -.906E+03   -.196E+02 -.311E+02 0.898E+03   0.635E-02 0.118E+00 0.736E+01
   0.236E+02 0.518E+01 0.950E+03   -.239E+02 -.518E+01 -.943E+03   0.196E+00 -.208E-03 -.748E+01
   0.284E+02 -.954E+01 0.971E+03   -.287E+02 0.970E+01 -.964E+03   0.203E+00 -.119E+00 -.748E+01
   0.436E+02 -.919E+01 -.898E+03   -.437E+02 0.922E+01 0.891E+03   0.853E-01 -.237E-01 0.734E+01
   0.728E+02 0.249E+02 -.856E+03   -.739E+02 -.248E+02 0.849E+03   0.810E+00 -.533E-01 0.731E+01
   0.185E+02 -.119E+02 0.945E+03   -.185E+02 0.119E+02 -.938E+03   0.648E-01 -.457E-01 -.744E+01
   0.119E+02 -.185E+02 0.945E+03   -.119E+02 0.185E+02 -.938E+03   0.457E-01 -.648E-01 -.744E+01
   0.184E+02 -.184E+02 -.913E+03   -.184E+02 0.184E+02 0.906E+03   0.137E-01 -.137E-01 0.736E+01
   0.411E+02 -.411E+02 -.885E+03   -.412E+02 0.412E+02 0.878E+03   0.759E-01 -.759E-01 0.731E+01
   0.792E+01 -.851E+01 0.935E+03   -.794E+01 0.853E+01 -.927E+03   0.141E-01 -.152E-01 -.742E+01
   0.499E+01 -.401E+01 0.934E+03   -.500E+01 0.402E+01 -.926E+03   0.733E-02 -.566E-02 -.742E+01
   0.742E+01 -.406E+01 -.920E+03   -.743E+01 0.406E+01 0.913E+03   0.424E-02 0.223E-02 0.738E+01
   0.997E+01 -.178E+02 -.915E+03   -.999E+01 0.178E+02 0.908E+03   0.919E-02 -.127E-01 0.737E+01
   0.198E+01 0.474E+01 0.935E+03   -.198E+01 -.476E+01 -.928E+03   0.617E-03 0.190E-01 -.742E+01
   -.287E+01 0.144E+02 0.940E+03   0.289E+01 -.144E+02 -.932E+03   -.123E-01 0.561E-01 -.743E+01
   0.420E+01 0.224E+02 -.913E+03   -.420E+01 -.225E+02 0.905E+03   -.506E-02 0.410E-01 0.736E+01
   -.257E+01 0.692E+01 -.918E+03   0.257E+01 -.693E+01 0.910E+03   -.327E-02 0.522E-02 0.737E+01
   0.518E+01 0.236E+02 0.950E+03   -.518E+01 -.239E+02 -.943E+03   -.208E-03 0.196E+00 -.748E+01
   -.954E+01 0.284E+02 0.971E+03   0.970E+01 -.287E+02 -.964E+03   -.119E+00 0.203E+00 -.748E+01
   0.249E+02 0.728E+02 -.856E+03   -.248E+02 -.739E+02 0.849E+03   -.533E-01 0.810E+00 0.731E+01
   -.919E+01 0.436E+02 -.898E+03   0.922E+01 -.437E+02 0.891E+03   -.237E-01 0.853E-01 0.734E+01
   0.154E+02 0.154E+02 0.996E+03   -.154E+02 -.154E+02 -.989E+03   0.186E-01 0.186E-01 -.658E+01
   -.154E+02 -.154E+02 0.996E+03   0.154E+02 0.154E+02 -.989E+03   -.186E-01 -.186E-01 -.658E+01
   0.681E+02 -.681E+02 -.748E+03   -.692E+02 0.692E+02 0.741E+03   0.682E+00 -.682E+00 0.643E+01
   -.681E+02 0.681E+02 -.748E+03   0.692E+02 -.692E+02 0.741E+03   -.682E+00 0.682E+00 0.643E+01
   0.954E+01 -.284E+02 0.971E+03   -.970E+01 0.287E+02 -.964E+03   0.119E+00 -.203E+00 -.748E+01
   -.518E+01 -.236E+02 0.950E+03   0.518E+01 0.239E+02 -.943E+03   0.208E-03 -.196E+00 -.748E+01
   0.919E+01 -.436E+02 -.898E+03   -.922E+01 0.437E+02 0.891E+03   0.237E-01 -.853E-01 0.734E+01
   -.249E+02 -.728E+02 -.856E+03   0.248E+02 0.739E+02 0.849E+03   0.533E-01 -.810E+00 0.731E+01
   0.287E+01 -.144E+02 0.940E+03   -.289E+01 0.144E+02 -.932E+03   0.123E-01 -.561E-01 -.743E+01
   -.198E+01 -.474E+01 0.935E+03   0.198E+01 0.476E+01 -.928E+03   -.617E-03 -.190E-01 -.742E+01
[...]
   -.890E+01 0.529E+01 0.705E+03   0.892E+01 -.531E+01 -.709E+03   -.281E-01 0.221E-01 0.352E+01
   -.224E+01 0.440E+01 0.701E+03   0.224E+01 -.440E+01 -.705E+03   -.152E-02 0.954E-02 0.352E+01
   -.168E+02 0.314E+01 -.686E+03   0.169E+02 -.315E+01 0.690E+03   -.288E-01 0.146E-01 -.362E+01
   -.519E+01 -.193E+01 -.690E+03   0.519E+01 0.193E+01 0.694E+03   -.112E-01 0.574E-03 -.359E+01
   -.108E+02 -.217E+01 0.706E+03   0.108E+02 0.217E+01 -.710E+03   -.513E-01 0.105E-02 0.351E+01
   -.356E+01 0.148E+01 0.703E+03   0.357E+01 -.148E+01 -.707E+03   -.101E-01 0.587E-02 0.352E+01
   -.133E+02 -.748E+01 -.688E+03   0.133E+02 0.749E+01 0.692E+03   -.368E-01 -.792E-02 -.361E+01
   -.304E+01 -.556E+01 -.692E+03   0.304E+01 0.557E+01 0.696E+03   -.113E-01 -.734E-02 -.359E+01
   -.637E+01 -.594E+01 0.703E+03   0.639E+01 0.595E+01 -.707E+03   -.327E-01 -.229E-01 0.352E+01
   -.301E+01 -.375E+01 0.702E+03   0.302E+01 0.375E+01 -.706E+03   -.158E-01 -.772E-02 0.352E+01
   -.576E+01 -.576E+01 -.692E+03   0.578E+01 0.578E+01 0.696E+03   -.160E-01 -.160E-01 -.359E+01
   -.155E+01 -.155E+01 -.693E+03   0.155E+01 0.155E+01 0.698E+03   -.373E-02 -.373E-02 -.358E+01
   -.338E+01 -.159E+01 0.700E+03   0.339E+01 0.160E+01 -.704E+03   -.909E-02 -.859E-02 0.353E+01
   -.160E+01 -.338E+01 0.700E+03   0.160E+01 0.339E+01 -.704E+03   -.859E-02 -.909E-02 0.353E+01
   -.301E-01 0.150E-01 0.389E+01   0.122E-11 0.185E-11 0.239E-10   0.265E-15 -.123E-15 -.448E+01

 POSITION                                       TOTAL-FORCE (eV/Angst)
      9.51248      9.51248     16.05027         0.000000     -0.000000      0.067437
      9.51248      9.51248     13.49036         0.000000     -0.000000     -0.069405
      0.00000      0.00000      9.00000        -0.001031     -0.001031      0.356809
      2.11389      2.11389      9.00000        -0.004290     -0.004290      0.357206
      0.00000      2.11389     11.11389        -0.002000     -0.001325     -0.346289
      2.11389      0.00000     11.11389        -0.001325     -0.002000     -0.346289
      0.00000      4.22777      9.00000        -0.003835     -0.002272      0.357589
      2.11389      6.34166      9.00000        -0.014654     -0.003076      0.359739
      0.00000      6.34166     11.11389        -0.003545     -0.000697     -0.344193
      2.11389      4.22777     11.11389        -0.007099     -0.002588     -0.343382
      0.00000      8.45554      9.00000        -0.004924     -0.000155      0.358669
      2.11389     10.56943      9.00000        -0.014613      0.003585      0.361218
      0.00000     10.56943     11.11389        -0.001043      0.000915     -0.343390
      2.11389      8.45554     11.11389        -0.008867      0.001592     -0.338399
      0.00000     12.68331      9.00000        -0.001491      0.002041      0.358275
      2.11389     14.79720      9.00000        -0.004028      0.003795      0.358625
      0.00000     14.79720     11.11389         0.000678      0.001111     -0.345284
      2.11389     12.68331     11.11389        -0.002413      0.002363     -0.340392
      0.00000     16.91108      9.00000         0.000047      0.001421      0.357161
      2.11389     19.02497      9.00000        -0.001421     -0.000047      0.357161
      0.00000     19.02497     11.11389         0.000005     -0.000005     -0.346852
      2.11389     16.91108     11.11389        -0.000643      0.000643     -0.345319
      4.22777      0.00000      9.00000        -0.002272     -0.003835      0.357589
      6.34166      2.11389      9.00000        -0.003076     -0.014654      0.359739
      4.22777      2.11389     11.11389        -0.002588     -0.007099     -0.343382
      6.34166      0.00000     11.11389        -0.000697     -0.003545     -0.344193
      4.22777      4.22777      9.00000        -0.013091     -0.013091      0.358009
      6.34166      6.34166      9.00000        -0.043339     -0.043339      0.351420
      4.22777      6.34166     11.11389        -0.027687     -0.001255     -0.330776
      6.34166      4.22777     11.11389        -0.001255     -0.027687     -0.330776
      4.22777      8.45554      9.00000        -0.048507      0.000267      0.369957
      6.34166     10.56943      9.00000        -0.055516      0.038254      0.366210
      4.22777     10.56943     11.11389        -0.017360      0.006366     -0.318485
      6.34166      8.45554     11.11389        -0.224418      0.026331     -0.262746
      4.22777     12.68331      9.00000        -0.017375      0.012616      0.363774
      6.34166     14.79720      9.00000        -0.012616      0.017375      0.363774
      4.22777     14.79720     11.11389        -0.002712      0.002712     -0.338288
      6.34166     12.68331     11.11389        -0.008320      0.008320     -0.294458
      4.22777     16.91108      9.00000        -0.003795      0.004028      0.358625
      6.34166     19.02497      9.00000        -0.002041      0.001491      0.358275
      4.22777     19.02497     11.11389        -0.001111     -0.000678     -0.345284
      6.34166     16.91108     11.11389        -0.002363      0.002413     -0.340392
      8.45554      0.00000      9.00000        -0.000155     -0.004924      0.358669
     10.56943      2.11389      9.00000         0.003585     -0.014613      0.361218
      8.45554      2.11389     11.11389         0.001592     -0.008867     -0.338399
     10.56943      0.00000     11.11389         0.000915     -0.001043     -0.343390
      8.45554      4.22777      9.00000         0.000267     -0.048507      0.369957
     10.56943      6.34166      9.00000         0.038254     -0.055516      0.366210
      8.45554      6.34166     11.11389         0.026331     -0.224418     -0.262746
     10.56943      4.22777     11.11389         0.006366     -0.017360     -0.318485
      8.45554      8.45554      9.00000        -0.002088     -0.002088      0.149166
     10.56943     10.56943      9.00000         0.002088      0.002088      0.149166
      8.45554     10.56943     11.11389        -0.419207      0.419207     -0.575105
     10.56943      8.45554     11.11389         0.419207     -0.419207     -0.575105
      8.45554     12.68331      9.00000        -0.038254      0.055516      0.366210
     10.56943     14.79720      9.00000        -0.000267      0.048507      0.369957
      8.45554     14.79720     11.11389        -0.006366      0.017360     -0.318485
     10.56943     12.68331     11.11389        -0.026331      0.224418     -0.262746
      8.45554     16.91108      9.00000        -0.003585      0.014613      0.361218
     10.56943     19.02497      9.00000         0.000155      0.004924      0.358669
[...]
     19.02497      6.34166     11.11389        -0.000553      0.001754      0.481583
     16.91108      6.34166      9.00000        -0.007779      0.006116     -0.498412
     19.02497      4.22777      9.00000        -0.000415      0.002626     -0.495988
     16.91108      8.45554     11.11389        -0.008250      0.004070      0.474987
     19.02497     10.56943     11.11389        -0.003148      0.000155      0.480593
     16.91108     10.56943      9.00000        -0.014264      0.000260     -0.499038
     19.02497      8.45554      9.00000        -0.002799      0.001627     -0.497025
     16.91108     12.68331     11.11389        -0.010323     -0.002243      0.477810
     19.02497     14.79720     11.11389        -0.003133     -0.002027      0.482946
     16.91108     14.79720      9.00000        -0.008993     -0.006299     -0.496317
     19.02497     12.68331      9.00000        -0.004351     -0.002143     -0.496459
     16.91108     16.91108     11.11389        -0.004391     -0.004391      0.483138
     19.02497     19.02497     11.11389        -0.001023     -0.001023      0.484665
     16.91108     19.02497      9.00000        -0.002490     -0.002358     -0.495385
     19.02497     16.91108      9.00000        -0.002358     -0.002490     -0.495385
    total drift:                               -0.030126      0.014991     -0.597477

  FREE ENERGIE OF THE ION-ELECTRON SYSTEM (eV)
  free  energy   TOTEN  =     -1160.04389587 eV

  energy  without entropy=    -1160.04389587  energy(sigma->0) =    -1160.04389587