 vasp.6.3.0 20Jan22 (build Apr  1 2022 16:44:48) complex
 executed on        HPECrayEX_GCC date 2022.10.18  02:11:41

 INCAR:
   SYSTEM = MgO-rocksalt
   ISMEAR = 0
   SIGMA = 0.05
   EDIFF = 1E-6
   ALGO = ALL
   ISTART = 0
   IBRION = -1
   NSW = 0
   ISYM = 2
   DIPOL = 0.5 0.5 0.5
   IDIPOL = 3
   LDIPOL = .TRUE.
   LHFCALC = .TRUE.
   GGA = B5
   AEXX = 0.2
   AGGAX = 0.72
   AGGAC = 0.81
   ALDAC = 0.19
   IVDW = 12
   VDW_S8 = 1.9889
   VDW_A1 = 0.3981
   VDW_A2 = 4.4211
   ENCUT = 520
   PREC = Accurate
   LASPH = .TRUE.
   LREAL = Auto
   ISPIN = 1
   NELM = 200
   NELMIN = 8
   NCORE = 4
   KPAR = 2
   LWAVE = .FALSE.
   LCHARG = .FALSE.

 POTCAR:    PAW_PBE Au 04Oct2007
 POTCAR:    PAW_PBE Mg_pv 13Apr2007
 POTCAR:    PAW_PBE O 08Apr2002
|           W    W    AA    RRRRR   N    N  II  N    N   GGGG   !!!           |
|           W    W   A  A   R    R  NN   N  II  NN   N  G    G  !!!           |
|           W    W  A    A  R    R  N N  N  II  N N  N  G       !!!           |
|           W WW W  AAAAAA  RRRRR   N  N N  II  N  N N  G  GGG   !            |
|           WW  WW  A    A  R   R   N   NN  II  N   NN  G    G                |
|           W    W  A    A  R    R  N    N  II  N    N   GGGG   !!!           |
|     You have selected ISYM=2 for a HF type calculation. This will           |
|     symmetrize the charge density but not the exchange potential. I         |
|     suggest to use ISYM=3 instead. This uses symmetry to obtain the         |
|     orbitals at all k-points in the Brillouin zone, but does not apply      |
|     symmetry to the Hartree potential directly. The resultant charge        |
|     might have lower symmetry than the crystal but, at least, Hartree       |
|     and exchange are fully compatible.                                      |

   TITEL  = PAW_PBE Au 04Oct2007
   POMASS =  196.966; ZVAL   =   11.000    mass and valenz
   ENMAX  =  229.943; ENMIN  =  172.457 eV

   TITEL  = PAW_PBE Mg_pv 13Apr2007
   POMASS =   24.305; ZVAL   =    8.000    mass and valenz
   ENMAX  =  403.929; ENMIN  =  302.947 eV

   TITEL  = PAW_PBE O 08Apr2002
   POMASS =   16.000; ZVAL   =    6.000    mass and valenz
   ENMAX  =  400.000; ENMIN  =  300.000 eV

 Optimization of the real space projectors (new method)

 maximal supplied QI-value         = 15.12
 optimisation between [QCUT,QGAM] = [ 11.64, 23.28] = [ 37.95,151.78] Ry
 Optimized for a Real-space Cutoff    1.49 Angstroem

   l    n(q)    QCUT    max X(q) W(low)/X(q) W(high)/X(q)  e(spline)
   2      9    11.641    60.898    0.24E-03    0.10E-03    0.19E-06
   2      9    11.641    58.894    0.25E-03    0.10E-03    0.19E-06
   0     10    11.641   109.617    0.73E-04    0.33E-04    0.11E-06
   0     10    11.641    75.026    0.71E-04    0.32E-04    0.11E-06
   1     10    11.641    16.344    0.27E-04    0.97E-04    0.16E-06
   1     10    11.641    10.160    0.23E-04    0.77E-04    0.13E-06
 Optimization of the real space projectors (new method)

[...]

   l    n(q)    QCUT    max X(q) W(low)/X(q) W(high)/X(q)  e(spline)
   1      8    11.527     2.974    0.44E-04    0.56E-04    0.12E-06
   1      8    11.527     4.279    0.12E-03    0.12E-03    0.26E-06
   0      9    11.527    16.381    0.46E-04    0.64E-04    0.78E-07
   0      9    11.527     5.611    0.26E-04    0.43E-04    0.55E-07
   2      8    11.527     4.652    0.22E-03    0.72E-04    0.47E-07
 Optimization of the real space projectors (new method)

 maximal supplied QI-value         = 24.76
 optimisation between [QCUT,QGAM] = [ 11.64, 23.27] = [ 37.91,151.63] Ry
 Optimized for a Real-space Cutoff    1.14 Angstroem

   l    n(q)    QCUT    max X(q) W(low)/X(q) W(high)/X(q)  e(spline)
   0      8    11.635    20.381    0.10E-03    0.33E-03    0.24E-06
   0      8    11.635    15.268    0.11E-03    0.35E-03    0.26E-06
   1      7    11.635     5.964    0.24E-03    0.31E-03    0.30E-06
   1      7    11.635     5.382    0.22E-03    0.25E-03    0.26E-06
|               ----> ADVICE to this user running VASP <----                  |
|     You enforced a specific xc type in the INCAR file but a different       |
|     type was found in the POTCAR file.                                      |
|     I HOPE YOU KNOW WHAT YOU ARE DOING!                                     |

  PAW_PBE Au 04Oct2007                  :
  PAW_PBE Mg_pv 13Apr2007               :
  PAW_PBE O 08Apr2002                   :

 POSCAR: Au Mg  O
  positions in direct lattice
 exchange correlation table for  LEXCH =       12
   RHO(1)=    0.500       N(1)  =     2000
   RHO(2)=  100.500       N(2)  =     4000

 ion  position               nearest neighbor table
   1  0.500  0.500  0.713-   2 2.50
   2  0.500  0.500  0.600- 152 2.15   1 2.50  54 3.02  58 3.02  73 3.02  53 3.02
   3  0.000  0.000  0.407- 105 2.11 106 2.11 121 2.11 186 2.11 103 2.11
   4  0.100  0.100  0.407- 105 2.11 106 2.11 110 2.11 125 2.11 104 2.11
   5  0.000  0.100  0.503- 103 2.11 104 2.11 107 2.11 184 2.11 105 2.11
   6  0.100  0.000  0.503- 103 2.11 104 2.11 120 2.11 123 2.11 106 2.11
   7  0.000  0.200  0.407- 109 2.11 105 2.11 110 2.11 190 2.11 107 2.11
   8  0.100  0.300  0.407- 110 2.11 109 2.11 114 2.11 129 2.11 108 2.11
   9  0.000  0.300  0.503- 107 2.11 108 2.11 111 2.11 188 2.11 109 2.11
  10  0.100  0.200  0.503- 108 2.11 107 2.11 104 2.11 127 2.11 110 2.11
  11  0.000  0.400  0.407- 109 2.11 113 2.11 114 2.11 194 2.11 111 2.11
  12  0.100  0.500  0.407- 113 2.11 114 2.11 118 2.11 133 2.11 112 2.11
  13  0.000  0.500  0.503- 111 2.11 112 2.11 115 2.11 192 2.11 113 2.11
  14  0.100  0.400  0.503- 108 2.11 111 2.11 112 2.11 131 2.11 114 2.11
  15  0.000  0.600  0.407- 113 2.11 117 2.11 118 2.11 198 2.11 115 2.11
  16  0.100  0.700  0.407- 122 2.11 118 2.11 117 2.11 137 2.11 116 2.11
  17  0.000  0.700  0.503- 119 2.11 116 2.11 115 2.11 196 2.11 117 2.11
  18  0.100  0.600  0.503- 112 2.11 115 2.11 116 2.11 135 2.11 118 2.11
  19  0.000  0.800  0.407- 117 2.11 121 2.11 122 2.11 202 2.11 119 2.11
  20  0.100  0.900  0.407- 106 2.11 121 2.11 122 2.11 141 2.11 120 2.11
  21  0.000  0.900  0.503- 103 2.11 119 2.11 120 2.11 200 2.11 121 2.11
  22  0.100  0.800  0.503- 116 2.11 119 2.11 120 2.11 139 2.11 122 2.11
  23  0.200  0.000  0.407- 126 2.11 125 2.11 106 2.11 141 2.11 123 2.11
  24  0.300  0.100  0.407- 125 2.11 126 2.11 130 2.11 145 2.11 124 2.11
  25  0.200  0.100  0.503- 124 2.11 123 2.11 104 2.11 127 2.11 125 2.11
  26  0.300  0.000  0.503- 123 2.11 124 2.11 140 2.11 143 2.11 126 2.11
  27  0.200  0.200  0.407- 129 2.11 130 2.11 110 2.11 125 2.11 127 2.11
  28  0.300  0.300  0.407- 129 2.11 130 2.11 134 2.11 149 2.11 128 2.11
  29  0.200  0.300  0.503- 127 2.11 128 2.11 108 2.11 131 2.11 129 2.11
  30  0.300  0.200  0.503- 127 2.11 128 2.11 124 2.11 147 2.11 130 2.11
  31  0.200  0.400  0.407- 134 2.11 129 2.11 133 2.11 114 2.11 131 2.11
  32  0.300  0.500  0.407- 133 2.11 134 2.11 138 2.11 153 2.11 132 2.11
  33  0.200  0.500  0.503- 132 2.11 131 2.11 112 2.11 135 2.11 133 2.11
  34  0.300  0.400  0.503- 131 2.11 128 2.11 132 2.11 151 2.11 134 2.11
  35  0.200  0.600  0.407- 138 2.11 133 2.11 137 2.11 118 2.11 135 2.11
  36  0.300  0.700  0.407- 137 2.11 142 2.11 138 2.11 157 2.11 136 2.11
  37  0.200  0.700  0.503- 136 2.11 139 2.11 116 2.11 135 2.11 137 2.11
  38  0.300  0.600  0.503- 135 2.11 132 2.11 136 2.11 155 2.11 138 2.11
  39  0.200  0.800  0.407- 137 2.11 142 2.11 141 2.11 122 2.11 139 2.11
  40  0.300  0.900  0.407- 141 2.11 126 2.11 142 2.11 161 2.11 140 2.11
  41  0.200  0.900  0.503- 140 2.11 123 2.11 139 2.11 120 2.11 141 2.11
  42  0.300  0.800  0.503- 136 2.11 139 2.11 140 2.11 159 2.11 142 2.11
  43  0.400  0.000  0.407- 126 2.11 145 2.11 146 2.11 161 2.11 143 2.11
  44  0.500  0.100  0.407- 145 2.11 146 2.11 150 2.11 165 2.11 144 2.11
  45  0.400  0.100  0.503- 124 2.11 143 2.11 144 2.11 147 2.11 145 2.11
  46  0.500  0.000  0.503- 143 2.11 144 2.11 160 2.11 163 2.11 146 2.11
  47  0.400  0.200  0.407- 149 2.11 145 2.11 130 2.11 150 2.11 147 2.11
  48  0.500  0.300  0.407- 150 2.11 149 2.11 154 2.11 169 2.11 148 2.11
  49  0.400  0.300  0.503- 147 2.11 128 2.11 148 2.11 151 2.11 149 2.11
  50  0.500  0.200  0.503- 148 2.11 147 2.11 144 2.11 167 2.11 150 2.11
  51  0.400  0.400  0.407- 134 2.11 149 2.11 153 2.11 154 2.11 151 2.11
  52  0.500  0.500  0.407- 153 2.11 154 2.11 158 2.11 173 2.11 152 2.11
  53  0.400  0.500  0.503- 132 2.11 151 2.11 152 2.11 155 2.11 153 2.11   2 3.02
  54  0.500  0.400  0.503- 148 2.11 151 2.11 152 2.11 171 2.11 154 2.11   2 3.02
  55  0.400  0.600  0.407- 138 2.11 153 2.11 157 2.11 158 2.11 155 2.11
  56  0.500  0.700  0.407- 162 2.11 158 2.11 157 2.11 177 2.11 156 2.11
  57  0.400  0.700  0.503- 159 2.11 155 2.11 156 2.11 136 2.11 157 2.11
  58  0.500  0.600  0.503- 152 2.11 155 2.11 156 2.11 175 2.11 158 2.11   2 3.02
  59  0.400  0.800  0.407- 157 2.11 142 2.11 161 2.11 162 2.11 159 2.11
  60  0.500  0.900  0.407- 146 2.11 161 2.11 162 2.11 181 2.11 160 2.11
[...]
 188  0.900  0.300  0.503-  90 2.11  89 2.11   9 2.11  94 2.11  88 2.11
 189  0.800  0.300  0.407-  68 2.11  87 2.11  88 2.11  91 2.11  89 2.11
 190  0.900  0.200  0.407-  88 2.11  84 2.11  87 2.11   7 2.11  90 2.11
 191  0.800  0.400  0.503-  74 2.11  89 2.11  93 2.11  94 2.11  91 2.11
 192  0.900  0.500  0.503-  13 2.11  93 2.11  94 2.11  98 2.11  92 2.11
 193  0.800  0.500  0.407-  72 2.11  91 2.11  92 2.11  95 2.11  93 2.11
 194  0.900  0.400  0.407-  11 2.11  88 2.11  91 2.11  92 2.11  94 2.11
 195  0.800  0.600  0.503-  78 2.11  93 2.11  97 2.11  98 2.11  95 2.11
 196  0.900  0.700  0.503- 102 2.11  97 2.11  98 2.11  17 2.11  96 2.11
 197  0.800  0.700  0.407-  76 2.11  99 2.11  96 2.11  95 2.11  97 2.11
 198  0.900  0.600  0.407-  15 2.11  92 2.11  95 2.11  96 2.11  98 2.11
 199  0.800  0.800  0.503-  82 2.11  97 2.11 101 2.11 102 2.11  99 2.11
 200  0.900  0.900  0.503-  21 2.11  86 2.11 101 2.11 102 2.11 100 2.11
 201  0.800  0.900  0.407-  80 2.11  83 2.11  99 2.11 100 2.11 101 2.11
 202  0.900  0.800  0.407-  96 2.11  19 2.11  99 2.11 100 2.11 102 2.11

  LATTYP: Found a simple tetragonal cell.
 ALAT       =    21.1388521970
 C/A-ratio  =     1.0461251639

  Lattice vectors:

 A1 = (  21.1388521970,   0.0000000000,   0.0000000000)
 A2 = (   0.0000000000,  21.1388521970,   0.0000000000)
 A3 = (   0.0000000000,   0.0000000000,  22.1138852197)

Analysis of symmetry for initial positions (statically):
 Subroutine PRICEL returns:
 Original cell was already a primitive cell.

 Routine SETGRP: Setting up the symmetry group for a
 simple tetragonal supercell.

 Subroutine GETGRP returns: Found  8 space group operations
 (whereof  8 operations were pure point group operations)
 out of a pool of 16 trial point group operations.

The static configuration has the point symmetry C_4v.

Analysis of symmetry for dynamics (positions and initial velocities):
 Subroutine PRICEL returns:
 Original cell was already a primitive cell.

 Routine SETGRP: Setting up the symmetry group for a
 simple tetragonal supercell.

 Subroutine GETGRP returns: Found  8 space group operations
 (whereof  8 operations were pure point group operations)
 out of a pool of 16 trial point group operations.

[...]
     40     -46.4230      2.00000
     41     -46.4226      2.00000
     42     -46.4226      2.00000
     43     -46.4222      2.00000
     44     -46.4122      2.00000
     45     -46.4120      2.00000
     46     -46.4120      2.00000
     47     -46.4119      2.00000
     48     -46.4110      2.00000
     49     -46.4109      2.00000
     50     -46.4109      2.00000
     51     -46.4108      2.00000
     52     -46.4007      2.00000
     53     -46.3998      2.00000
     54     -46.3998      2.00000
     55     -46.3987      2.00000
     56     -46.3949      2.00000
     57     -46.3946      2.00000
     58     -46.3927      2.00000
     59     -46.3926      2.00000
     60     -46.3926      2.00000
[...]
    946       6.5535      0.00000
    947       6.5797      0.00000
    948       6.6081      0.00000
    949       6.6594      0.00000
    950       6.6808      0.00000
    951       6.7347      0.00000
    952       6.7760      0.00000
    953       6.8689      0.00000
    954       6.9232      0.00000
    955       7.0212      0.00000
    956       7.0874      0.00000
    957       7.1533      0.00000
    958       7.2039      0.00000
    959       7.3211      0.00000
    960       7.4678      0.00000

 soft charge-density along one line, spin component           1
         0         1         2         3         4         5         6         7         8         9
 total charge-density along one line

------------------------ aborting loop because EDIFF is reached ----------------------------------------

 WARNING: Using user supplied parameters
     VDW_A1 = 0.398
     VDW_A2 = 4.421
     VDW_S8 = 1.989
     because the xc functional is not supported. Required parameters not
     defined in the INCAR file will be replaced with PBE defaults ones.

         DFTD3 V3.0 Rev 1
 IVDW         = 12
 DF unknown
 parameters
 VDW_S6       =    1.0000
 VDW_S8       =    1.9889
 VDW_A1       =    0.3981
 VDW_A2       =    4.4211
 k1-k3        =   16.0000    1.3333   -4.0000
 VDW_RADIUS   =   50.2022 A
 VDW_CNRADIUS =   21.1671 A
 Edisp (eV)  -61.11656

 E6    (eV) :   -20.8964
 E8    (eV) :   -40.2202
 % E8        : 65.81

 VOLUME and BASIS-vectors are now :
  energy-cutoff  :      520.00
  volume of cell :     9881.61
      direct lattice vectors                 reciprocal lattice vectors
    21.138852197  0.000000000  0.000000000     0.047306258  0.000000000  0.000000000
     0.000000000 21.138852197  0.000000000     0.000000000  0.047306258  0.000000000
     0.000000000  0.000000000 22.113885220     0.000000000  0.000000000  0.045220457

  length of vectors
    21.138852197 21.138852197 22.113885220     0.047306258  0.047306258  0.045220457

 FORCES acting on ions:
    Electron-Ion                     Ewald-Force                    Non-Local-Force
   -.716E-13 -.108E-11 -.180E+04   -.395E-13 0.888E-15 0.179E+04   -.662E-23 0.000E+00 0.844E+01
   0.737E-13 -.203E-11 -.193E+04   -.413E-13 0.453E-13 0.194E+04   0.000E+00 0.000E+00 -.373E+01
   0.121E-12 0.204E-12 0.930E+03   0.764E-13 0.213E-12 -.923E+03   0.000E+00 -.199E-22 -.671E+01
   0.367E+01 0.367E+01 0.931E+03   -.368E+01 -.368E+01 -.924E+03   0.882E-02 0.882E-02 -.671E+01
   0.112E-12 0.390E+01 -.922E+03   0.103E-12 -.391E+01 0.915E+03   0.331E-23 0.404E-02 0.666E+01
   0.390E+01 -.887E-13 -.922E+03   -.391E+01 0.107E-12 0.915E+03   0.404E-02 0.331E-23 0.666E+01
   0.133E-12 0.536E+01 0.932E+03   0.153E-10 -.538E+01 -.924E+03   0.000E+00 0.104E-01 -.671E+01
   0.722E+01 0.676E+01 0.935E+03   -.727E+01 -.678E+01 -.927E+03   0.310E-01 0.155E-01 -.672E+01
   0.102E-12 0.706E+01 -.920E+03   0.181E-11 -.707E+01 0.913E+03   0.000E+00 0.639E-02 0.665E+01
   0.674E+01 0.802E+01 -.921E+03   -.676E+01 -.803E+01 0.913E+03   0.118E-01 0.897E-02 0.665E+01
   0.125E-12 0.363E+01 0.935E+03   -.174E-10 -.364E+01 -.927E+03   0.000E+00 0.660E-02 -.672E+01
   0.103E+02 -.618E-12 0.937E+03   -.103E+02 0.228E-12 -.929E+03   0.512E-01 -.827E-23 -.673E+01
   0.121E-12 -.739E-12 -.919E+03   0.120E-12 0.126E-12 0.911E+03   0.000E+00 0.000E+00 0.665E+01
   0.136E+02 0.598E+01 -.917E+03   -.137E+02 -.598E+01 0.909E+03   0.262E-01 0.534E-02 0.664E+01
   0.134E-12 -.363E+01 0.935E+03   0.116E-11 0.364E+01 -.927E+03   0.662E-23 -.660E-02 -.672E+01
   0.722E+01 -.676E+01 0.935E+03   -.727E+01 0.678E+01 -.927E+03   0.310E-01 -.155E-01 -.672E+01
   0.101E-12 -.706E+01 -.920E+03   -.785E-12 0.707E+01 0.913E+03   -.662E-23 -.639E-02 0.665E+01
   0.136E+02 -.598E+01 -.917E+03   -.137E+02 0.598E+01 0.909E+03   0.262E-01 -.534E-02 0.664E+01
   0.131E-12 -.536E+01 0.932E+03   0.853E-12 0.538E+01 -.924E+03   0.000E+00 -.104E-01 -.671E+01
   0.367E+01 -.367E+01 0.931E+03   -.368E+01 0.368E+01 -.924E+03   0.882E-02 -.882E-02 -.671E+01
   0.101E-12 -.390E+01 -.922E+03   -.867E-12 0.391E+01 0.915E+03   0.496E-23 -.404E-02 0.666E+01
   0.674E+01 -.802E+01 -.921E+03   -.676E+01 0.803E+01 0.913E+03   0.118E-01 -.897E-02 0.665E+01
   0.536E+01 0.239E-12 0.932E+03   -.538E+01 0.101E-12 -.924E+03   0.104E-01 0.000E+00 -.671E+01
   0.676E+01 0.722E+01 0.935E+03   -.678E+01 -.727E+01 -.927E+03   0.155E-01 0.310E-01 -.672E+01
   0.802E+01 0.674E+01 -.921E+03   -.803E+01 -.676E+01 0.913E+03   0.897E-02 0.118E-01 0.665E+01
   0.706E+01 -.261E-12 -.920E+03   -.707E+01 0.941E-13 0.913E+03   0.639E-02 -.331E-23 0.665E+01
   0.910E+01 0.910E+01 0.935E+03   -.914E+01 -.914E+01 -.927E+03   0.319E-01 0.319E-01 -.672E+01
   0.173E+02 0.173E+02 0.947E+03   -.174E+02 -.174E+02 -.939E+03   0.102E+00 0.102E+00 -.674E+01
   0.205E+02 0.152E+02 -.914E+03   -.205E+02 -.153E+02 0.906E+03   0.510E-01 0.183E-01 0.664E+01
   0.152E+02 0.205E+02 -.914E+03   -.153E+02 -.205E+02 0.906E+03   0.183E-01 0.510E-01 0.664E+01
   0.187E+02 0.735E+01 0.943E+03   -.189E+02 -.738E+01 -.935E+03   0.122E+00 0.246E-01 -.674E+01
   0.307E+02 -.737E-12 0.963E+03   -.313E+02 0.218E-12 -.955E+03   0.426E+00 0.132E-22 -.684E+01
   0.350E+02 -.248E-11 -.907E+03   -.351E+02 0.107E-13 0.899E+03   0.857E-01 0.000E+00 0.662E+01
   0.517E+02 0.265E+02 -.889E+03   -.520E+02 -.265E+02 0.882E+03   0.260E+00 0.228E-01 0.658E+01
   0.187E+02 -.735E+01 0.943E+03   -.189E+02 0.738E+01 -.935E+03   0.122E+00 -.246E-01 -.674E+01
   0.173E+02 -.173E+02 0.947E+03   -.174E+02 0.174E+02 -.939E+03   0.102E+00 -.102E+00 -.674E+01
   0.205E+02 -.152E+02 -.914E+03   -.205E+02 0.153E+02 0.906E+03   0.510E-01 -.183E-01 0.664E+01
   0.517E+02 -.265E+02 -.889E+03   -.520E+02 0.265E+02 0.882E+03   0.260E+00 -.228E-01 0.658E+01
   0.910E+01 -.910E+01 0.935E+03   -.914E+01 0.914E+01 -.927E+03   0.319E-01 -.319E-01 -.672E+01
   0.676E+01 -.722E+01 0.935E+03   -.678E+01 0.727E+01 -.927E+03   0.155E-01 -.310E-01 -.672E+01
   0.802E+01 -.674E+01 -.921E+03   -.803E+01 0.676E+01 0.913E+03   0.897E-02 -.118E-01 0.665E+01
   0.152E+02 -.205E+02 -.914E+03   -.153E+02 0.205E+02 0.906E+03   0.183E-01 -.510E-01 0.664E+01
   0.363E+01 0.242E-12 0.935E+03   -.364E+01 0.449E-13 -.927E+03   0.660E-02 0.000E+00 -.672E+01
   -.221E-12 0.103E+02 0.937E+03   0.387E-11 -.103E+02 -.929E+03   0.662E-23 0.512E-01 -.673E+01
   0.598E+01 0.136E+02 -.917E+03   -.598E+01 -.137E+02 0.909E+03   0.534E-02 0.262E-01 0.664E+01
   -.203E-12 0.870E-12 -.919E+03   0.622E-14 0.933E-13 0.911E+03   0.207E-24 0.331E-23 0.665E+01
   0.735E+01 0.187E+02 0.943E+03   -.738E+01 -.189E+02 -.935E+03   0.246E-01 0.122E+00 -.674E+01
   -.221E-12 0.307E+02 0.963E+03   -.579E-11 -.313E+02 -.955E+03   0.000E+00 0.426E+00 -.684E+01
   0.265E+02 0.517E+02 -.889E+03   -.265E+02 -.520E+02 0.882E+03   0.228E-01 0.260E+00 0.658E+01
   -.187E-12 0.350E+02 -.907E+03   -.193E-10 -.351E+02 0.899E+03   0.000E+00 0.857E-01 0.662E+01
   0.234E+02 0.234E+02 0.980E+03   -.239E+02 -.239E+02 -.972E+03   0.310E+00 0.310E+00 -.673E+01
   -.251E-12 0.417E-11 0.101E+04   -.104E-12 0.214E-12 -.101E+04   0.000E+00 -.993E-23 -.395E+01
   0.112E+03 0.127E-10 -.785E+03   -.116E+03 0.933E-14 0.778E+03   0.240E+01 0.496E-23 0.630E+01
   -.201E-12 0.112E+03 -.785E+03   0.215E-10 -.116E+03 0.778E+03   -.331E-23 0.240E+01 0.630E+01
   0.234E+02 -.234E+02 0.980E+03   -.239E+02 0.239E+02 -.972E+03   0.310E+00 -.310E+00 -.673E+01
   -.231E-12 -.307E+02 0.963E+03   -.183E-10 0.313E+02 -.955E+03   0.662E-23 -.426E+00 -.684E+01
   0.265E+02 -.517E+02 -.889E+03   -.265E+02 0.520E+02 0.882E+03   0.228E-01 -.260E+00 0.658E+01
   -.210E-12 -.112E+03 -.785E+03   0.183E-10 0.116E+03 0.778E+03   -.827E-23 -.240E+01 0.630E+01
   0.735E+01 -.187E+02 0.943E+03   -.738E+01 0.189E+02 -.935E+03   0.246E-01 -.122E+00 -.674E+01
   -.227E-12 -.103E+02 0.937E+03   0.203E-10 0.103E+02 -.929E+03   -.620E-23 -.512E-01 -.673E+01
[...]
   -.103E+02 0.784E+01 0.706E+03   0.103E+02 -.788E+01 -.710E+03   -.658E-01 0.462E-01 0.315E+01
   -.382E+01 0.471E+01 0.701E+03   0.383E+01 -.472E+01 -.705E+03   -.170E-01 0.174E-01 0.316E+01
   -.226E+02 0.851E+01 -.684E+03   0.227E+02 -.853E+01 0.688E+03   -.705E-01 0.186E-01 -.331E+01
   -.114E+02 -.544E-11 -.689E+03   0.115E+02 0.103E-10 0.693E+03   -.280E-01 0.331E-22 -.327E+01
   -.158E+02 0.439E-11 0.711E+03   0.159E+02 -.169E-11 -.715E+03   -.110E+00 -.132E-22 0.313E+01
   -.702E+01 0.334E+01 0.704E+03   0.705E+01 -.335E+01 -.708E+03   -.360E-01 0.128E-01 0.315E+01
   -.226E+02 -.851E+01 -.684E+03   0.227E+02 0.853E+01 0.688E+03   -.705E-01 -.186E-01 -.331E+01
   -.759E+01 -.664E+01 -.691E+03   0.761E+01 0.665E+01 0.695E+03   -.194E-01 -.123E-01 -.326E+01
   -.103E+02 -.784E+01 0.706E+03   0.103E+02 0.788E+01 -.710E+03   -.658E-01 -.462E-01 0.315E+01
   -.702E+01 -.334E+01 0.704E+03   0.705E+01 0.335E+01 -.708E+03   -.360E-01 -.128E-01 0.315E+01
   -.938E+01 -.938E+01 -.690E+03   0.940E+01 0.940E+01 0.694E+03   -.275E-01 -.275E-01 -.326E+01
   -.345E+01 -.345E+01 -.693E+03   0.346E+01 0.346E+01 0.697E+03   -.740E-02 -.740E-02 -.324E+01
   -.471E+01 -.382E+01 0.701E+03   0.472E+01 0.383E+01 -.705E+03   -.174E-01 -.170E-01 0.316E+01
   -.382E+01 -.471E+01 0.701E+03   0.383E+01 0.472E+01 -.705E+03   -.170E-01 -.174E-01 0.316E+01
   0.143E-10 -.395E-10 -.423E+01   0.888E-12 0.512E-12 0.174E-10   -.420E-15 -.864E-15 0.387E+01

 POSITION                                       TOTAL-FORCE (eV/Angst)
     10.56943     10.56943     15.76120        -0.000000     -0.000000      0.324503
     10.56943     10.56943     13.26453        -0.000000     -0.000000     -0.256442
      0.00000      0.00000      9.00000        -0.000000     -0.000000      0.534743
      2.11389      2.11389      9.00000        -0.002745     -0.002745      0.535345
      0.00000      2.11389     11.11389        -0.000000     -0.001220     -0.511316
      2.11389      0.00000     11.11389        -0.001220     -0.000000     -0.511316
      0.00000      4.22777      9.00000        -0.000000     -0.003281      0.535711
      2.11389      6.34166      9.00000        -0.009250     -0.004880      0.537434
      0.00000      6.34166     11.11389        -0.000000     -0.001927     -0.508277
      2.11389      4.22777     11.11389        -0.003383     -0.002697     -0.508862
      0.00000      8.45554      9.00000        -0.000000     -0.002121      0.537324
      2.11389     10.56943      9.00000        -0.015100     -0.000000      0.539232
      0.00000     10.56943     11.11389        -0.000000     -0.000000     -0.506010
      2.11389      8.45554     11.11389        -0.006770     -0.001524     -0.503469
      0.00000     12.68331      9.00000        -0.000000      0.002121      0.537324
      2.11389     14.79720      9.00000        -0.009250      0.004880      0.537434
      0.00000     14.79720     11.11389        -0.000000      0.001927     -0.508277
      2.11389     12.68331     11.11389        -0.006770      0.001524     -0.503469
      0.00000     16.91108      9.00000        -0.000000      0.003281      0.535711
      2.11389     19.02497      9.00000        -0.002745      0.002745      0.535345
      0.00000     19.02497     11.11389        -0.000000      0.001220     -0.511316
      2.11389     16.91108     11.11389        -0.003383      0.002697     -0.508862
      4.22777      0.00000      9.00000        -0.003281     -0.000000      0.535711
      6.34166      2.11389      9.00000        -0.004880     -0.009250      0.537434
      4.22777      2.11389     11.11389        -0.002697     -0.003383     -0.508862
      6.34166      0.00000     11.11389        -0.001927     -0.000000     -0.508277
      4.22777      4.22777      9.00000        -0.009910     -0.009910      0.537048
      6.34166      6.34166      9.00000        -0.031860     -0.031860      0.542068
      4.22777      6.34166     11.11389        -0.013469     -0.004999     -0.498324
      6.34166      4.22777     11.11389        -0.004999     -0.013469     -0.498324
      4.22777      8.45554      9.00000        -0.035879     -0.007812      0.544454
      6.34166     10.56943      9.00000        -0.117001     -0.000000      0.569014
      4.22777     10.56943     11.11389        -0.017892     -0.000000     -0.486031
      6.34166      8.45554     11.11389        -0.053341      0.002252     -0.445898
      4.22777     12.68331      9.00000        -0.035879      0.007812      0.544454
      6.34166     14.79720      9.00000        -0.031860      0.031860      0.542068
      4.22777     14.79720     11.11389        -0.013469      0.004999     -0.498324
      6.34166     12.68331     11.11389        -0.053341     -0.002252     -0.445898
      4.22777     16.91108      9.00000        -0.009910      0.009910      0.537048
      6.34166     19.02497      9.00000        -0.004880      0.009250      0.537434
      4.22777     19.02497     11.11389        -0.002697      0.003383     -0.508862
      6.34166     16.91108     11.11389        -0.004999      0.013469     -0.498324
      8.45554      0.00000      9.00000        -0.002121     -0.000000      0.537324
     10.56943      2.11389      9.00000        -0.000000     -0.015100      0.539232
      8.45554      2.11389     11.11389        -0.001524     -0.006770     -0.503469
     10.56943      0.00000     11.11389        -0.000000     -0.000000     -0.506010
      8.45554      4.22777      9.00000        -0.007812     -0.035879      0.544454
     10.56943      6.34166      9.00000        -0.000000     -0.117001      0.569014
      8.45554      6.34166     11.11389         0.002252     -0.053341     -0.445898
     10.56943      4.22777     11.11389        -0.000000     -0.017892     -0.486031
      8.45554      8.45554      9.00000        -0.108018     -0.108018      0.528287
     10.56943     10.56943      9.00000        -0.000000     -0.000000     -0.116623
      8.45554     10.56943     11.11389        -0.914402     -0.000000     -0.427461
     10.56943      8.45554     11.11389        -0.000000     -0.914402     -0.427461
      8.45554     12.68331      9.00000        -0.108018      0.108018      0.528287
     10.56943     14.79720      9.00000        -0.000000      0.117001      0.569014
      8.45554     14.79720     11.11389         0.002252      0.053341     -0.445898
     10.56943     12.68331     11.11389        -0.000000      0.914402     -0.427461
      8.45554     16.91108      9.00000        -0.007812      0.035879      0.544454
     10.56943     19.02497      9.00000        -0.000000      0.015100      0.539232
[...]
     19.02497      6.34166     11.11389        -0.006335      0.004013      0.384460
     16.91108      6.34166      9.00000        -0.021286      0.014947     -0.418737
     19.02497      4.22777      9.00000        -0.005467      0.005611     -0.415371
     16.91108      8.45554     11.11389        -0.023474      0.006261      0.368306
     19.02497     10.56943     11.11389        -0.009217     -0.000000      0.380127
     16.91108     10.56943      9.00000        -0.035739     -0.000000     -0.424033
     19.02497      8.45554      9.00000        -0.011601      0.004131     -0.417720
     16.91108     12.68331     11.11389        -0.023474     -0.006261      0.368306
     19.02497     14.79720     11.11389        -0.006335     -0.004013      0.384460
     16.91108     14.79720      9.00000        -0.021286     -0.014947     -0.418737
     19.02497     12.68331      9.00000        -0.011601     -0.004131     -0.417720
     16.91108     16.91108     11.11389        -0.008967     -0.008967      0.383759
     19.02497     19.02497     11.11389        -0.002403     -0.002403      0.389275
     16.91108     19.02497      9.00000        -0.005611     -0.005467     -0.415371
     19.02497     16.91108      9.00000        -0.005467     -0.005611     -0.415371
    total drift:                                0.000000     -0.000000     -0.269035

  FREE ENERGIE OF THE ION-ELECTRON SYSTEM (eV)
  free  energy   TOTEN  =     -1394.56165912 eV

  energy  without entropy=    -1394.56165912  energy(sigma->0) =    -1394.56165912