 vasp.6.3.0 20Jan22 (build Apr  1 2022 16:44:48) complex
 executed on        HPECrayEX_GCC date 2023.01.09  16:00:30

 INCAR:
   SYSTEM = MgO-rocksalt
   ISMEAR = 0
   SIGMA = 0.05
   EDIFF = 1E-6
   ALGO = ALL
   ISTART = 0
   IBRION = -1
   NSW = 0
   ISYM = 2
   DIPOL = 0.5 0.5 0.5
   IDIPOL = 3
   LDIPOL = .TRUE.
   GGA = PE
   IVDW = 263
   ENCUT = 520
   PREC = Accurate
   LASPH = .TRUE.
   LREAL = Auto
   ISPIN = 1
   NELM = 200
   NELMIN = 8
   NCORE = 4
   KPAR = 2
   LWAVE = .FALSE.
   LCHARG = .FALSE.

 POTCAR:    PAW_PBE Cu 22Jun2005
 POTCAR:    PAW_PBE Mg_pv 13Apr2007
 POTCAR:    PAW_PBE O 08Apr2002
 POTCAR:    PAW_PBE Cu 22Jun2005
   VRHFIN =Cu: d10 p1

   TITEL  = PAW_PBE Cu 22Jun2005
   POMASS =   63.546; ZVAL   =   11.000    mass and valenz
   ENMAX  =  295.446; ENMIN  =  221.585 eV

   TITEL  = PAW_PBE Mg_pv 13Apr2007
   POMASS =   24.305; ZVAL   =    8.000    mass and valenz
   ENMAX  =  403.929; ENMIN  =  302.947 eV

   TITEL  = PAW_PBE O 08Apr2002
   POMASS =   16.000; ZVAL   =    6.000    mass and valenz
   ENMAX  =  400.000; ENMIN  =  300.000 eV

 Optimization of the real space projectors (new method)

 maximal supplied QI-value         = 16.25
 optimisation between [QCUT,QGAM] = [ 11.54, 23.24] = [ 37.28,151.24] Ry
 Optimized for a Real-space Cutoff    1.53 Angstroem

   l    n(q)    QCUT    max X(q) W(low)/X(q) W(high)/X(q)  e(spline)
   2     10    11.539     4.610    0.96E-04    0.13E-03    0.19E-06
   2     10    11.539     8.522    0.16E-03    0.21E-03    0.28E-06
   0     11    11.539    51.609    0.45E-04    0.31E-04    0.11E-06
   0     11    11.539    27.747    0.39E-04    0.29E-04    0.10E-06
   1     10    11.539    20.408    0.70E-05    0.38E-04    0.18E-06
   1     10    11.539    13.425    0.66E-05    0.34E-04    0.17E-06
 Optimization of the real space projectors (new method)

[...]

   l    n(q)    QCUT    max X(q) W(low)/X(q) W(high)/X(q)  e(spline)
   1      8    11.527     2.974    0.44E-04    0.56E-04    0.12E-06
   1      8    11.527     4.279    0.12E-03    0.12E-03    0.26E-06
   0      9    11.527    16.381    0.46E-04    0.64E-04    0.78E-07
   0      9    11.527     5.611    0.26E-04    0.43E-04    0.55E-07
   2      8    11.527     4.652    0.22E-03    0.72E-04    0.47E-07
 Optimization of the real space projectors (new method)

 maximal supplied QI-value         = 24.76
 optimisation between [QCUT,QGAM] = [ 11.64, 23.27] = [ 37.91,151.63] Ry
 Optimized for a Real-space Cutoff    1.14 Angstroem

   l    n(q)    QCUT    max X(q) W(low)/X(q) W(high)/X(q)  e(spline)
   0      8    11.635    20.381    0.10E-03    0.33E-03    0.24E-06
   0      8    11.635    15.268    0.11E-03    0.35E-03    0.26E-06
   1      7    11.635     5.964    0.24E-03    0.31E-03    0.30E-06
   1      7    11.635     5.382    0.22E-03    0.25E-03    0.26E-06
  PAW_PBE Cu 22Jun2005                  :
  PAW_PBE Mg_pv 13Apr2007               :
  PAW_PBE O 08Apr2002                   :

 POSCAR: Cu Mg  O
  positions in direct lattice
  velocities in cartesian coordinates
 exchange correlation table for  LEXCH =        8
   RHO(1)=    0.500       N(1)  =     2000
   RHO(2)=  100.500       N(2)  =     4000

 ion  position               nearest neighbor table
   1  0.400  0.421  0.593- 153 2.05   2 2.27  55 2.60
   2  0.401  0.506  0.657-   1 2.27   4 2.38   3 2.40
   3  0.401  0.614  0.691-   4 2.27   2 2.40
   4  0.400  0.594  0.590- 157 1.94   3 2.27   2 2.38
   5  0.000  0.000  0.407- 107 2.11 108 2.11 123 2.11 188 2.11 105 2.11
   6  0.100  0.100  0.407- 107 2.11 108 2.11 112 2.11 127 2.11 106 2.11
   7  0.000  0.100  0.503- 105 2.11 106 2.11 109 2.11 186 2.11 107 2.11
   8  0.100  0.000  0.503- 105 2.11 106 2.11 122 2.11 125 2.11 108 2.11
   9  0.000  0.200  0.407- 111 2.11 107 2.11 112 2.11 192 2.11 109 2.11
  10  0.100  0.300  0.407- 112 2.11 111 2.11 116 2.11 131 2.11 110 2.11
  11  0.000  0.300  0.503- 109 2.11 110 2.11 113 2.11 190 2.11 111 2.11
  12  0.100  0.200  0.503- 110 2.11 109 2.11 106 2.11 129 2.11 112 2.11
  13  0.000  0.400  0.407- 111 2.11 115 2.11 116 2.11 196 2.11 113 2.11
  14  0.100  0.500  0.407- 115 2.11 116 2.11 120 2.11 135 2.11 114 2.11
  15  0.000  0.500  0.503- 113 2.11 114 2.11 117 2.11 194 2.11 115 2.11
  16  0.100  0.400  0.503- 110 2.11 113 2.11 114 2.11 133 2.11 116 2.11
  17  0.000  0.600  0.407- 115 2.11 119 2.11 120 2.11 200 2.11 117 2.11
  18  0.100  0.700  0.407- 124 2.11 120 2.11 119 2.11 139 2.11 118 2.11
  19  0.000  0.700  0.503- 121 2.11 118 2.11 117 2.11 198 2.11 119 2.11
  20  0.100  0.600  0.503- 114 2.11 117 2.11 118 2.11 137 2.11 120 2.11
  21  0.000  0.800  0.407- 119 2.11 123 2.11 124 2.11 204 2.11 121 2.11
  22  0.100  0.900  0.407- 108 2.11 123 2.11 124 2.11 143 2.11 122 2.11
  23  0.000  0.900  0.503- 105 2.11 121 2.11 122 2.11 202 2.11 123 2.11
  24  0.100  0.800  0.503- 118 2.11 121 2.11 122 2.11 141 2.11 124 2.11
  25  0.200  0.000  0.407- 128 2.11 127 2.11 108 2.11 143 2.11 125 2.11
  26  0.300  0.100  0.407- 127 2.11 128 2.11 132 2.11 147 2.11 126 2.11
  27  0.200  0.100  0.503- 126 2.11 125 2.11 106 2.11 129 2.11 127 2.11
  28  0.300  0.000  0.503- 125 2.11 126 2.11 142 2.11 145 2.11 128 2.11
  29  0.200  0.200  0.407- 131 2.11 132 2.11 112 2.11 127 2.11 129 2.11
  30  0.300  0.300  0.407- 131 2.11 132 2.11 136 2.11 151 2.11 130 2.11
  31  0.200  0.300  0.503- 129 2.11 130 2.11 110 2.11 133 2.11 131 2.11
  32  0.300  0.200  0.503- 129 2.11 130 2.11 126 2.11 149 2.11 132 2.11
  33  0.200  0.400  0.407- 136 2.11 131 2.11 135 2.11 116 2.11 133 2.11
  34  0.300  0.500  0.407- 135 2.11 136 2.11 140 2.11 155 2.11 134 2.11
  35  0.200  0.500  0.503- 134 2.11 133 2.11 114 2.11 137 2.11 135 2.11
  36  0.300  0.400  0.503- 133 2.11 130 2.11 134 2.11 153 2.11 136 2.11
  37  0.200  0.600  0.407- 140 2.11 135 2.11 139 2.11 120 2.11 137 2.11
  38  0.300  0.700  0.407- 139 2.11 144 2.11 140 2.11 159 2.11 138 2.11
  39  0.200  0.700  0.503- 138 2.11 141 2.11 118 2.11 137 2.11 139 2.11
  40  0.300  0.600  0.503- 137 2.11 134 2.11 138 2.11 157 2.11 140 2.11
  41  0.200  0.800  0.407- 139 2.11 144 2.11 143 2.11 124 2.11 141 2.11
  42  0.300  0.900  0.407- 143 2.11 128 2.11 144 2.11 163 2.11 142 2.11
  43  0.200  0.900  0.503- 142 2.11 125 2.11 141 2.11 122 2.11 143 2.11
  44  0.300  0.800  0.503- 138 2.11 141 2.11 142 2.11 161 2.11 144 2.11
  45  0.400  0.000  0.407- 128 2.11 147 2.11 148 2.11 163 2.11 145 2.11
  46  0.500  0.100  0.407- 147 2.11 148 2.11 152 2.11 167 2.11 146 2.11
  47  0.400  0.100  0.503- 126 2.11 145 2.11 146 2.11 149 2.11 147 2.11
  48  0.500  0.000  0.503- 145 2.11 146 2.11 162 2.11 165 2.11 148 2.11
  49  0.400  0.200  0.407- 151 2.11 147 2.11 132 2.11 152 2.11 149 2.11
  50  0.500  0.300  0.407- 152 2.11 151 2.11 156 2.11 171 2.11 150 2.11
  51  0.400  0.300  0.503- 149 2.11 130 2.11 150 2.11 153 2.11 151 2.11
  52  0.500  0.200  0.503- 150 2.11 149 2.11 146 2.11 169 2.11 152 2.11
  53  0.400  0.400  0.407- 136 2.11 151 2.11 155 2.11 156 2.11 153 2.11
  54  0.500  0.500  0.407- 155 2.11 156 2.11 160 2.11 175 2.11 154 2.11
  55  0.400  0.500  0.503- 134 2.11 153 2.11 154 2.11 157 2.11 155 2.11   1 2.60
  56  0.500  0.400  0.503- 150 2.11 153 2.11 154 2.11 173 2.11 156 2.11
  57  0.400  0.600  0.407- 140 2.11 155 2.11 159 2.11 160 2.11 157 2.11
  58  0.500  0.700  0.407- 164 2.11 160 2.11 159 2.11 179 2.11 158 2.11
  59  0.400  0.700  0.503- 161 2.11 157 2.11 158 2.11 138 2.11 159 2.11
  60  0.500  0.600  0.503- 154 2.11 157 2.11 158 2.11 177 2.11 160 2.11
[...]
 190  0.900  0.300  0.503-  92 2.11  91 2.11  11 2.11  96 2.11  90 2.11
 191  0.800  0.300  0.407-  70 2.11  89 2.11  90 2.11  93 2.11  91 2.11
 192  0.900  0.200  0.407-  90 2.11  86 2.11  89 2.11   9 2.11  92 2.11
 193  0.800  0.400  0.503-  76 2.11  91 2.11  95 2.11  96 2.11  93 2.11
 194  0.900  0.500  0.503-  15 2.11  95 2.11  96 2.11 100 2.11  94 2.11
 195  0.800  0.500  0.407-  74 2.11  93 2.11  94 2.11  97 2.11  95 2.11
 196  0.900  0.400  0.407-  13 2.11  90 2.11  93 2.11  94 2.11  96 2.11
 197  0.800  0.600  0.503-  80 2.11  95 2.11  99 2.11 100 2.11  97 2.11
 198  0.900  0.700  0.503- 104 2.11  99 2.11 100 2.11  19 2.11  98 2.11
 199  0.800  0.700  0.407-  78 2.11 101 2.11  98 2.11  97 2.11  99 2.11
 200  0.900  0.600  0.407-  17 2.11  94 2.11  97 2.11  98 2.11 100 2.11
 201  0.800  0.800  0.503-  84 2.11  99 2.11 103 2.11 104 2.11 101 2.11
 202  0.900  0.900  0.503-  23 2.11  88 2.11 103 2.11 104 2.11 102 2.11
 203  0.800  0.900  0.407-  82 2.11  85 2.11 101 2.11 102 2.11 103 2.11
 204  0.900  0.800  0.407-  98 2.11  21 2.11 101 2.11 102 2.11 104 2.11

  LATTYP: Found a simple tetragonal cell.
 ALAT       =    21.1388521970
 C/A-ratio  =     1.0461251639

  Lattice vectors:

 A1 = (  21.1388521970,   0.0000000000,   0.0000000000)
 A2 = (   0.0000000000,  21.1388521970,   0.0000000000)
 A3 = (   0.0000000000,   0.0000000000,  22.1138852197)

Analysis of symmetry for initial positions (statically):
 Subroutine PRICEL returns:
 Original cell was already a primitive cell.

 Routine SETGRP: Setting up the symmetry group for a
 simple tetragonal supercell.

 Subroutine GETGRP returns: Found  1 space group operations
 (whereof  1 operations were pure point group operations)
 out of a pool of 16 trial point group operations.

The static configuration has the point symmetry C_1 .

Analysis of symmetry for dynamics (positions and initial velocities):
 Subroutine PRICEL returns:
 Original cell was already a primitive cell.

[...]

The dynamic configuration has the point symmetry C_1 .

Analysis of constrained symmetry for selective dynamics:
 Subroutine PRICEL returns:
 Original cell was already a primitive cell.

 Routine SETGRP: Setting up the symmetry group for a
 simple tetragonal supercell.

 Subroutine GETGRP returns: Found  1 space group operations
 (whereof  1 operations were pure point group operations)
 out of a pool of 16 trial point group operations.

The constrained configuration has the point symmetry C_1 .

 Subroutine INISYM returns: Found  1 space group operations
 (whereof  1 operations are pure point group operations),
 and found     1 'primitive' translations

                                     Primitive cell

  volume of cell :    9881.6133

  direct lattice vectors                    reciprocal lattice vectors
    21.138852197  0.000000000  0.000000000     0.047306258  0.000000000  0.000000000
     0.000000000 21.138852197  0.000000000     0.000000000  0.047306258  0.000000000
     0.000000000  0.000000000 22.113885220     0.000000000  0.000000000  0.045220457

  length of vectors
    21.138852197 21.138852197 22.113885220     0.047306258  0.047306258  0.045220457

  position of ions in fractional coordinates (direct lattice)
     0.400229282  0.421328702  0.592894010
     0.400626265  0.505728649  0.656597495
     0.400850837  0.613577871  0.691210184
     0.400248991  0.594204282  0.590315895
     0.000000000  0.000000000  0.406984115
     0.100000000  0.100000000  0.406984115
     0.000000000  0.100000000  0.502574971
     0.100000000  0.000000000  0.502574971
     0.000000000  0.200000000  0.406984115
     0.100000000  0.300000000  0.406984115
     0.000000000  0.300000000  0.502574971
[...]
   O          22.272          3.319          5.838          2.684          3.086          1.085
   O          22.273          3.319          5.838          2.682          3.081          1.085
   O          22.275          3.319          5.839          2.682          3.079          1.085
   O          22.276          3.319          5.839          2.683          3.083          1.085
   O          22.271          3.319          5.838          2.683          3.084          1.085
   O          22.270          3.319          5.838          2.682          3.079          1.085
   O          22.275          3.319          5.839          2.682          3.080          1.085
   O          22.275          3.319          5.839          2.682          3.080          1.085

  vdW correction parametrized for the method pbe

  IVDW = 263
  VDW_RADIUS =    50.000 A
  VDW_SR =     0.830
  VDW_D =     6.000
  SCSRAD =   120.000 A
  LVDWSCS = T
  LSCSGRAD = T
  LSCALER0 = T
  ITIM =  1
  Edisp (eV):  -41.77811

  FORCE on cell =-STRESS in cart. coord.  units (eV):
  Direction    XX          YY          ZZ          XY          YZ          ZX
  Alpha Z  1394.80054  1394.80054  1394.80054
  Ewald  481518.80809483945.56047************     3.30592   512.32742     8.74192
  Hartree511425.87095513446.98877************     2.74314   417.72722     6.62844
  E(xc)   -7907.00223 -7905.90528 -7936.81901     0.00188     0.31407     0.00657
  Local  ************************************    -6.03890  -927.22513   -15.26140
  n-local -8851.93503 -8851.33013 -8972.89333     0.00092     0.03177    -0.00681
  augment  3663.44796  3657.15625  3596.54842    -0.00731    -1.67490    -0.05124
  Kinetic 23046.47585 23039.96800 23288.12789    -0.00268    -1.43603    -0.07302
  Fock        0.00000     0.00000     0.00000     0.00000     0.00000     0.00000
  vdW       -59.33425   -59.45247   -21.58112    -0.00007    -0.02558    -0.00027
  Total    -206.41047  -206.68050    -2.75946     0.00290     0.03883    -0.01580
  in kB     -33.46682   -33.51060    -0.44741     0.00047     0.00630    -0.00256

 VOLUME and BASIS-vectors are now :
  energy-cutoff  :      520.00
  volume of cell :     9881.61
      direct lattice vectors                 reciprocal lattice vectors
    21.138852197  0.000000000  0.000000000     0.047306258  0.000000000  0.000000000
     0.000000000 21.138852197  0.000000000     0.000000000  0.047306258  0.000000000
     0.000000000  0.000000000 22.113885220     0.000000000  0.000000000  0.045220457

  length of vectors
    21.138852197 21.138852197 22.113885220     0.047306258  0.047306258  0.045220457

 FORCES acting on ions:
    Electron-Ion                     Ewald-Force                    Non-Local-Force
   0.145E+01 0.463E+03 -.201E+04   -.141E+01 -.456E+03 0.201E+04   -.405E-01 -.689E+01 -.682E+01
   -.174E+01 0.260E+03 -.217E+04   0.169E+01 -.262E+03 0.216E+04   0.520E-01 0.203E+01 0.699E+01
   -.277E+01 -.420E+03 -.212E+04   0.270E+01 0.413E+03 0.211E+04   0.676E-01 0.635E+01 0.114E+02
   0.286E+01 -.306E+03 -.175E+04   -.282E+01 0.306E+03 0.176E+04   -.486E-01 0.271E+00 -.613E+01
   0.744E+01 -.228E+01 0.936E+03   -.746E+01 0.229E+01 -.928E+03   0.150E-01 -.583E-02 -.743E+01
   0.138E+02 0.747E+01 0.940E+03   -.138E+02 -.748E+01 -.932E+03   0.313E-01 0.814E-02 -.744E+01
   0.982E+01 0.630E+01 -.918E+03   -.984E+01 -.629E+01 0.911E+03   0.135E-01 -.494E-02 0.736E+01
   0.159E+02 -.428E+01 -.916E+03   -.160E+02 0.429E+01 0.909E+03   0.179E-01 -.786E-02 0.736E+01
   0.105E+02 0.110E+02 0.939E+03   -.105E+02 -.110E+02 -.931E+03   0.264E-01 0.361E-02 -.744E+01
   0.281E+02 0.202E+02 0.951E+03   -.282E+02 -.203E+02 -.943E+03   0.989E-01 0.199E-01 -.746E+01
   0.198E+02 0.167E+02 -.914E+03   -.198E+02 -.167E+02 0.906E+03   0.167E-01 -.196E-02 0.735E+01
   0.257E+02 0.221E+02 -.913E+03   -.257E+02 -.221E+02 0.905E+03   0.445E-01 -.336E-02 0.735E+01
   0.188E+02 0.100E+02 0.946E+03   -.189E+02 -.100E+02 -.938E+03   0.446E-01 0.767E-02 -.745E+01
   0.436E+02 0.414E+01 0.963E+03   -.438E+02 -.416E+01 -.956E+03   0.149E+00 0.142E-01 -.748E+01
   0.305E+02 0.365E+01 -.908E+03   -.306E+02 -.366E+01 0.901E+03   0.166E-01 0.696E-02 0.735E+01
   0.589E+02 0.237E+02 -.898E+03   -.590E+02 -.237E+02 0.890E+03   0.332E-01 0.124E-02 0.732E+01
   0.204E+02 -.594E+01 0.947E+03   -.205E+02 0.593E+01 -.940E+03   0.552E-01 0.330E-02 -.745E+01
   0.332E+02 -.189E+02 0.956E+03   -.334E+02 0.189E+02 -.948E+03   0.129E+00 -.182E-01 -.747E+01
   0.238E+02 -.153E+02 -.911E+03   -.239E+02 0.153E+02 0.904E+03   0.269E-01 0.469E-02 0.735E+01
   0.666E+02 -.144E+02 -.893E+03   -.667E+02 0.144E+02 0.885E+03   0.704E-01 0.167E-01 0.732E+01
   0.125E+02 -.128E+02 0.941E+03   -.126E+02 0.128E+02 -.933E+03   0.341E-01 -.872E-02 -.744E+01
   0.160E+02 -.130E+02 0.942E+03   -.160E+02 0.130E+02 -.934E+03   0.373E-01 -.241E-01 -.744E+01
   0.116E+02 -.114E+02 -.917E+03   -.116E+02 0.114E+02 0.910E+03   0.164E-01 -.474E-02 0.736E+01
   0.332E+02 -.271E+02 -.908E+03   -.333E+02 0.271E+02 0.900E+03   0.571E-01 -.659E-02 0.735E+01
   0.137E+02 -.439E+01 0.943E+03   -.138E+02 0.441E+01 -.935E+03   0.256E-01 -.123E-01 -.744E+01
   0.102E+02 0.154E+02 0.948E+03   -.102E+02 -.155E+02 -.940E+03   0.238E-01 0.663E-01 -.745E+01
   0.197E+02 0.157E+02 -.912E+03   -.198E+02 -.157E+02 0.905E+03   0.243E-01 0.205E-01 0.735E+01
   0.118E+02 -.866E+01 -.910E+03   -.118E+02 0.867E+01 0.902E+03   0.111E-01 -.607E-02 0.735E+01
   0.227E+02 0.257E+02 0.952E+03   -.228E+02 -.257E+02 -.944E+03   0.808E-01 0.667E-01 -.745E+01
   0.309E+02 0.526E+02 0.992E+03   -.312E+02 -.530E+02 -.984E+03   0.214E+00 0.259E+00 -.745E+01
   0.624E+02 0.559E+02 -.887E+03   -.627E+02 -.559E+02 0.880E+03   0.199E+00 -.246E-01 0.730E+01
   0.267E+02 0.610E+02 -.894E+03   -.268E+02 -.612E+02 0.887E+03   0.331E-01 0.168E+00 0.733E+01
   0.539E+02 0.279E+02 0.987E+03   -.543E+02 -.279E+02 -.979E+03   0.357E+00 0.614E-01 -.759E+01
   0.605E+02 0.107E+02 0.106E+04   -.612E+02 -.108E+02 -.105E+04   0.472E+00 0.879E-01 -.766E+01
   0.129E+03 0.134E+02 -.844E+03   -.129E+03 -.135E+02 0.837E+03   0.197E+00 0.312E-01 0.723E+01
   0.158E+03 0.107E+03 -.748E+03   -.160E+03 -.107E+03 0.741E+03   0.158E+01 -.191E-01 0.653E+01
   0.600E+02 -.181E+02 0.995E+03   -.605E+02 0.181E+02 -.987E+03   0.457E+00 -.203E-01 -.760E+01
   0.385E+02 -.528E+02 0.101E+04   -.389E+02 0.532E+02 -.100E+04   0.299E+00 -.314E+00 -.746E+01
   0.819E+02 -.570E+02 -.871E+03   -.822E+02 0.570E+02 0.863E+03   0.260E+00 0.143E-01 0.729E+01
   0.186E+03 -.721E+02 -.705E+03   -.189E+03 0.720E+02 0.698E+03   0.234E+01 0.410E-01 0.677E+01
   0.285E+02 -.310E+02 0.960E+03   -.286E+02 0.311E+02 -.952E+03   0.104E+00 -.948E-01 -.746E+01
   0.124E+02 -.263E+02 0.954E+03   -.124E+02 0.264E+02 -.946E+03   0.253E-01 -.108E+00 -.746E+01
   0.248E+02 -.284E+02 -.908E+03   -.248E+02 0.284E+02 0.900E+03   0.215E-01 -.435E-01 0.735E+01
   0.388E+02 -.816E+02 -.875E+03   -.387E+02 0.819E+02 0.867E+03   0.919E-03 -.247E+00 0.729E+01
   0.453E-01 -.620E+01 0.948E+03   -.449E-01 0.622E+01 -.940E+03   -.319E-03 -.140E-01 -.745E+01
   -.101E+02 0.154E+02 0.948E+03   0.102E+02 -.155E+02 -.941E+03   -.243E-01 0.660E-01 -.745E+01
   0.639E-01 0.261E+02 -.907E+03   -.634E-01 -.262E+02 0.899E+03   -.408E-03 0.579E-01 0.735E+01
   -.117E+02 -.869E+01 -.910E+03   0.117E+02 0.870E+01 0.902E+03   -.116E-01 -.595E-02 0.735E+01
   0.734E-01 0.422E+02 0.967E+03   -.727E-01 -.426E+02 -.959E+03   -.581E-03 0.296E+00 -.751E+01
   -.307E+02 0.528E+02 0.992E+03   0.310E+02 -.531E+02 -.985E+03   -.216E+00 0.258E+00 -.745E+01
   0.338E+00 0.159E+03 -.811E+03   -.335E+00 -.161E+03 0.803E+03   -.212E-02 0.162E+01 0.723E+01
   -.266E+02 0.611E+02 -.894E+03   0.266E+02 -.613E+02 0.887E+03   -.342E-01 0.166E+00 0.733E+01
   0.237E+00 0.550E+02 0.106E+04   -.235E+00 -.555E+02 -.106E+04   -.189E-02 0.375E+00 -.564E+01
   -.603E+02 0.108E+02 0.106E+04   0.609E+02 -.109E+02 -.105E+04   -.474E+00 0.875E-01 -.766E+01
   0.128E+01 0.260E+02 -.513E+03   -.127E+01 -.271E+02 0.509E+03   -.750E-02 0.986E+00 0.385E+01
   -.158E+03 0.108E+03 -.747E+03   0.160E+03 -.108E+03 0.740E+03   -.158E+01 -.234E-01 0.651E+01
   0.296E+00 -.378E+02 0.109E+04   -.293E+00 0.380E+02 -.108E+04   -.245E-02 -.217E+00 -.477E+01
   -.383E+02 -.530E+02 0.101E+04   0.387E+02 0.534E+02 -.100E+04   -.301E+00 -.313E+00 -.746E+01
   0.621E+00 -.187E+03 -.741E+03   -.616E+00 0.190E+03 0.734E+03   -.413E-02 -.228E+01 0.669E+01
   -.186E+03 -.725E+02 -.703E+03   0.189E+03 0.724E+02 0.696E+03   -.234E+01 0.423E-01 0.675E+01
[...]
   -.110E+02 0.981E+01 0.708E+03   0.110E+02 -.982E+01 -.712E+03   -.290E-01 0.805E-02 0.349E+01
   -.348E-01 0.694E+01 0.705E+03   0.344E-01 -.694E+01 -.709E+03   0.443E-03 0.191E-02 0.350E+01
   -.201E+02 0.992E+01 -.685E+03   0.201E+02 -.992E+01 0.689E+03   -.186E-01 0.276E-02 -.364E+01
   -.101E+00 0.216E+01 -.686E+03   0.100E+00 -.216E+01 0.690E+03   0.887E-03 0.679E-02 -.363E+01
   -.161E+02 0.201E+01 0.713E+03   0.161E+02 -.201E+01 -.717E+03   -.380E-01 0.957E-02 0.349E+01
   -.611E-01 0.621E+01 0.708E+03   0.606E-01 -.621E+01 -.712E+03   0.742E-03 0.632E-02 0.350E+01
   -.223E+02 -.577E+01 -.683E+03   0.223E+02 0.576E+01 0.687E+03   -.251E-01 0.101E-01 -.365E+01
   -.855E-01 -.906E+01 -.687E+03   0.850E-01 0.906E+01 0.691E+03   0.717E-03 0.373E-02 -.362E+01
   -.128E+02 -.891E+01 0.710E+03   0.129E+02 0.891E+01 -.714E+03   -.380E-01 -.612E-02 0.349E+01
   -.701E-01 -.360E+01 0.709E+03   0.695E-01 0.360E+01 -.713E+03   0.786E-03 0.417E-02 0.350E+01
   -.128E+02 -.123E+02 -.687E+03   0.128E+02 0.123E+02 0.692E+03   -.224E-01 -.458E-02 -.362E+01
   -.444E-01 -.707E+01 -.690E+03   0.441E-01 0.708E+01 0.695E+03   0.399E-03 -.506E-02 -.361E+01
   -.686E+01 -.675E+01 0.705E+03   0.687E+01 0.676E+01 -.709E+03   -.216E-01 -.126E-01 0.350E+01
   -.463E-01 -.805E+01 0.706E+03   0.459E-01 0.805E+01 -.710E+03   0.503E-03 -.680E-02 0.350E+01
   -.837E-01 -.235E+01 -.171E+01   0.165E-11 0.682E-12 0.364E-11   0.796E-01 0.235E+01 0.110E+01

 POSITION                                       TOTAL-FORCE (eV/Angst)
      8.46039      8.90641     13.11119        -0.003783     -0.043018     -0.131491
      8.46878     10.69052     14.51992        -0.002617      0.002561     -0.039684
      8.47353     12.97033     15.28534         0.000458      0.022781      0.036528
      8.46080     12.56080     13.05418        -0.004568      0.006621     -0.157539
      0.00000      0.00000      9.00000        -0.004036      0.001533      0.450939
      2.11389      2.11389      9.00000        -0.008510     -0.002256      0.451434
      0.00000      2.11389     11.11389        -0.003538      0.001365     -0.426099
      2.11389      0.00000     11.11389        -0.004977      0.002251     -0.424902
      0.00000      4.22777      9.00000        -0.006705     -0.000796      0.452529
      2.11389      6.34166      9.00000        -0.026119     -0.005494      0.457685
      0.00000      6.34166     11.11389        -0.003917      0.000765     -0.421596
      2.11389      4.22777     11.11389        -0.011695      0.000499     -0.419427
      0.00000      8.45554      9.00000        -0.011580     -0.001981      0.455398
      2.11389     10.56943      9.00000        -0.041828     -0.004271      0.462252
      0.00000     10.56943     11.11389        -0.003493     -0.001919     -0.418133
      2.11389      8.45554     11.11389        -0.005317     -0.000406     -0.402628
      0.00000     12.68331      9.00000        -0.014042     -0.001150      0.455635
      2.11389     14.79720      9.00000        -0.034293      0.005313      0.458045
      0.00000     14.79720     11.11389        -0.006486     -0.001438     -0.421392
      2.11389     12.68331     11.11389        -0.014204     -0.004591     -0.402115
      0.00000     16.91108      9.00000        -0.008748      0.002307      0.452581
      2.11389     19.02497      9.00000        -0.010447      0.006889      0.451449
      0.00000     19.02497     11.11389        -0.004289      0.001296     -0.426003
      2.11389     16.91108     11.11389        -0.014899      0.001999     -0.418055
      4.22777      0.00000      9.00000        -0.007132      0.003369      0.452970
      6.34166      2.11389      9.00000        -0.007023     -0.018006      0.453983
      4.22777      2.11389     11.11389        -0.007135     -0.005426     -0.420154
      6.34166      0.00000     11.11389        -0.002932      0.001979     -0.420041
      4.22777      4.22777      9.00000        -0.022678     -0.018591      0.454522
      6.34166      6.34166      9.00000        -0.069278     -0.079230      0.444080
      4.22777      6.34166     11.11389        -0.039475      0.013679     -0.378943
      6.34166      4.22777     11.11389        -0.008723     -0.035910     -0.395258
      4.22777      8.45554      9.00000        -0.086295     -0.015073      0.492489
      6.34166     10.56943      9.00000        -0.151754     -0.028439      0.475337
      4.22777     10.56943     11.11389        -0.014948     -0.009900     -0.317348
      6.34166      8.45554     11.11389        -0.585507      0.036585     -0.209100
      4.22777     12.68331      9.00000        -0.108320      0.002822      0.494349
      6.34166     14.79720      9.00000        -0.098836      0.102618      0.435526
      4.22777     14.79720     11.11389        -0.051909     -0.008019     -0.370980
      6.34166     12.68331     11.11389        -0.862138     -0.033807     -0.329397
      4.22777     16.91108      9.00000        -0.028745      0.026192      0.455710
      6.34166     19.02497      9.00000        -0.007192      0.028132      0.457143
      4.22777     19.02497     11.11389        -0.005554      0.010342     -0.418166
      6.34166     16.91108     11.11389         0.003363      0.049599     -0.371536
      8.45554      0.00000      9.00000         0.000115      0.003994      0.454867
     10.56943      2.11389      9.00000         0.007213     -0.017945      0.454014
      8.45554      2.11389     11.11389         0.000118     -0.013656     -0.414875
     10.56943      0.00000     11.11389         0.003125      0.001948     -0.420037
      8.45554      4.22777      9.00000         0.000202     -0.072910      0.468023
     10.56943      6.34166      9.00000         0.069715     -0.078980      0.444397
      8.45554      6.34166     11.11389         0.000672     -0.506404     -0.353769
     10.56943      4.22777     11.11389         0.009084     -0.035392     -0.395098
      8.45554      8.45554      9.00000         0.000551     -0.081854      0.109523
     10.56943     10.56943      9.00000         0.152555     -0.028295      0.476230
      8.45554     10.56943     11.11389         0.000929     -0.113141     -0.185466
     10.56943      8.45554     11.11389         0.589441      0.037364     -0.207656
      8.45554     12.68331      9.00000         0.000684      0.035760     -0.060898
     10.56943     14.79720      9.00000         0.099376      0.102339      0.436212
      8.45554     14.79720     11.11389         0.001289      0.786354     -0.244356
     10.56943     12.68331     11.11389         0.868035     -0.033849     -0.328853
[...]
     19.02497      6.34166     11.11389         0.000198     -0.000385      0.442321
     16.91108      6.34166      9.00000        -0.007993      0.002339     -0.473413
     19.02497      4.22777      9.00000         0.000140      0.000527     -0.471265
     16.91108      8.45554     11.11389        -0.005335      0.000492      0.437323
     19.02497     10.56943     11.11389         0.000265      0.001848      0.439990
     16.91108     10.56943      9.00000        -0.010488      0.002593     -0.475903
     19.02497      8.45554      9.00000         0.000222      0.001810     -0.473379
     16.91108     12.68331     11.11389        -0.007144      0.002977      0.437005
     19.02497     14.79720     11.11389         0.000218      0.001084      0.442149
     16.91108     14.79720      9.00000        -0.010457     -0.001807     -0.473707
     19.02497     12.68331      9.00000         0.000235      0.001063     -0.473344
     16.91108     16.91108     11.11389        -0.006195     -0.001177      0.443040
     19.02497     19.02497     11.11389         0.000130     -0.001366      0.445600
     16.91108     19.02497      9.00000        -0.005882     -0.003518     -0.470803
     19.02497     16.91108      9.00000         0.000158     -0.001880     -0.471228
    total drift:                               -0.004086      0.001025     -0.611413

  FREE ENERGIE OF THE ION-ELECTRON SYSTEM (eV)
  free  energy   TOTEN  =     -1188.73122520 eV

  energy  without entropy=    -1188.73122520  energy(sigma->0) =    -1188.73122520