 vasp.6.3.0 20Jan22 (build Apr  1 2022 16:44:48) complex
 executed on        HPECrayEX_GCC date 2022.11.18  15:49:34

 INCAR:
   SYSTEM = MgO-rocksalt
   ISMEAR = 0
   SIGMA = 0.05
   EDIFF = 1E-6
   ALGO = ALL
   ISTART = 0
   IBRION = -1
   NSW = 0
   ISYM = 2
   DIPOL = 0.5 0.5 0.5
   IDIPOL = 3
   LDIPOL = .TRUE.
   METAGGA = SCAN
   LUSE_VDW = .TRUE.
   BPARAM = 15.7
   CPARAM = 0.0093
   ENCUT = 520
   PREC = Accurate
   LASPH = .TRUE.
   LREAL = Auto
   ISPIN = 1
   NELM = 200
   NELMIN = 8
   NCORE = 4
   KPAR = 2
   LWAVE = .FALSE.
   LCHARG = .FALSE.

 POTCAR:    PAW_PBE Cu 22Jun2005
 POTCAR:    PAW_PBE Mg_pv 13Apr2007
 POTCAR:    PAW_PBE O 08Apr2002
|               ----> ADVICE to this user running VASP <----                  |
|     You have switched on vdW-DFT.                                           |
|     This routine was written and supplied by Jiri Klimes. We recommend      |
|     that you carefully read and cite the following publications:            |
|       J. Klimes, D.R. Bowler, A. Michelides                                 |
|          J. Phys.: Cond Matt. 22 022201 (2010)                              |
|       J. Klimes, D.R. Bowler, A. Michelides                                 |
|          Phys. Rev. B. 83, 195131 (2011)                                    |
|     and references therein.                                                 |

   TITEL  = PAW_PBE Cu 22Jun2005
   POMASS =   63.546; ZVAL   =   11.000    mass and valenz
   ENMAX  =  295.446; ENMIN  =  221.585 eV

   TITEL  = PAW_PBE Mg_pv 13Apr2007
   POMASS =   24.305; ZVAL   =    8.000    mass and valenz
   ENMAX  =  403.929; ENMIN  =  302.947 eV

   TITEL  = PAW_PBE O 08Apr2002
   POMASS =   16.000; ZVAL   =    6.000    mass and valenz
   ENMAX  =  400.000; ENMIN  =  300.000 eV

 Optimization of the real space projectors (new method)

 maximal supplied QI-value         = 16.25
 optimisation between [QCUT,QGAM] = [ 11.54, 23.24] = [ 37.28,151.24] Ry
 Optimized for a Real-space Cutoff    1.53 Angstroem

   l    n(q)    QCUT    max X(q) W(low)/X(q) W(high)/X(q)  e(spline)
   2     10    11.539     4.610    0.96E-04    0.13E-03    0.19E-06
   2     10    11.539     8.522    0.16E-03    0.21E-03    0.28E-06
   0     11    11.539    51.609    0.45E-04    0.31E-04    0.11E-06
   0     11    11.539    27.747    0.39E-04    0.29E-04    0.10E-06
   1     10    11.539    20.408    0.70E-05    0.38E-04    0.18E-06
   1     10    11.539    13.425    0.66E-05    0.34E-04    0.17E-06
 Optimization of the real space projectors (new method)

[...]

   l    n(q)    QCUT    max X(q) W(low)/X(q) W(high)/X(q)  e(spline)
   1      8    11.527     2.974    0.44E-04    0.56E-04    0.12E-06
   1      8    11.527     4.279    0.12E-03    0.12E-03    0.26E-06
   0      9    11.527    16.381    0.46E-04    0.64E-04    0.78E-07
   0      9    11.527     5.611    0.26E-04    0.43E-04    0.55E-07
   2      8    11.527     4.652    0.22E-03    0.72E-04    0.47E-07
 Optimization of the real space projectors (new method)

 maximal supplied QI-value         = 24.76
 optimisation between [QCUT,QGAM] = [ 11.64, 23.27] = [ 37.91,151.63] Ry
 Optimized for a Real-space Cutoff    1.14 Angstroem

   l    n(q)    QCUT    max X(q) W(low)/X(q) W(high)/X(q)  e(spline)
   0      8    11.635    20.381    0.10E-03    0.33E-03    0.24E-06
   0      8    11.635    15.268    0.11E-03    0.35E-03    0.26E-06
   1      7    11.635     5.964    0.24E-03    0.31E-03    0.30E-06
   1      7    11.635     5.382    0.22E-03    0.25E-03    0.26E-06
  PAW_PBE Cu 22Jun2005                  :
  PAW_PBE Mg_pv 13Apr2007               :
  PAW_PBE O 08Apr2002                   :

 POSCAR: Cu Mg  O
  positions in direct lattice

 METAGGA = SCAN     LMAXTAU =  6    LMIXTAU =  F

 ion  position               nearest neighbor table
   1  0.487  0.413  0.634-   2 2.23
   2  0.413  0.487  0.634-   1 2.23
   3  0.000  0.000  0.407- 105 2.11 106 2.11 121 2.11 186 2.11 103 2.11
   4  0.100  0.100  0.407- 105 2.11 106 2.11 110 2.11 125 2.11 104 2.11
   5  0.000  0.100  0.503- 103 2.11 104 2.11 107 2.11 184 2.11 105 2.11
   6  0.100  0.000  0.503- 103 2.11 104 2.11 120 2.11 123 2.11 106 2.11
   7  0.000  0.200  0.407- 109 2.11 105 2.11 110 2.11 190 2.11 107 2.11
   8  0.100  0.300  0.407- 110 2.11 109 2.11 114 2.11 129 2.11 108 2.11
   9  0.000  0.300  0.503- 107 2.11 108 2.11 111 2.11 188 2.11 109 2.11
  10  0.100  0.200  0.503- 108 2.11 107 2.11 104 2.11 127 2.11 110 2.11
  11  0.000  0.400  0.407- 109 2.11 113 2.11 114 2.11 194 2.11 111 2.11
  12  0.100  0.500  0.407- 113 2.11 114 2.11 118 2.11 133 2.11 112 2.11
  13  0.000  0.500  0.503- 111 2.11 112 2.11 115 2.11 192 2.11 113 2.11
  14  0.100  0.400  0.503- 108 2.11 111 2.11 112 2.11 131 2.11 114 2.11
  15  0.000  0.600  0.407- 113 2.11 117 2.11 118 2.11 198 2.11 115 2.11
  16  0.100  0.700  0.407- 122 2.11 118 2.11 117 2.11 137 2.11 116 2.11
  17  0.000  0.700  0.503- 119 2.11 116 2.11 115 2.11 196 2.11 117 2.11
  18  0.100  0.600  0.503- 112 2.11 115 2.11 116 2.11 135 2.11 118 2.11
  19  0.000  0.800  0.407- 117 2.11 121 2.11 122 2.11 202 2.11 119 2.11
  20  0.100  0.900  0.407- 106 2.11 121 2.11 122 2.11 141 2.11 120 2.11
  21  0.000  0.900  0.503- 103 2.11 119 2.11 120 2.11 200 2.11 121 2.11
  22  0.100  0.800  0.503- 116 2.11 119 2.11 120 2.11 139 2.11 122 2.11
  23  0.200  0.000  0.407- 126 2.11 125 2.11 106 2.11 141 2.11 123 2.11
  24  0.300  0.100  0.407- 125 2.11 126 2.11 130 2.11 145 2.11 124 2.11
  25  0.200  0.100  0.503- 124 2.11 123 2.11 104 2.11 127 2.11 125 2.11
  26  0.300  0.000  0.503- 123 2.11 124 2.11 140 2.11 143 2.11 126 2.11
  27  0.200  0.200  0.407- 129 2.11 130 2.11 110 2.11 125 2.11 127 2.11
  28  0.300  0.300  0.407- 129 2.11 130 2.11 134 2.11 149 2.11 128 2.11
  29  0.200  0.300  0.503- 127 2.11 128 2.11 108 2.11 131 2.11 129 2.11
  30  0.300  0.200  0.503- 127 2.11 128 2.11 124 2.11 147 2.11 130 2.11
  31  0.200  0.400  0.407- 134 2.11 129 2.11 133 2.11 114 2.11 131 2.11
  32  0.300  0.500  0.407- 133 2.11 134 2.11 138 2.11 153 2.11 132 2.11
  33  0.200  0.500  0.503- 132 2.11 131 2.11 112 2.11 135 2.11 133 2.11
  34  0.300  0.400  0.503- 131 2.11 128 2.11 132 2.11 151 2.11 134 2.11
  35  0.200  0.600  0.407- 138 2.11 133 2.11 137 2.11 118 2.11 135 2.11
  36  0.300  0.700  0.407- 137 2.11 142 2.11 138 2.11 157 2.11 136 2.11
  37  0.200  0.700  0.503- 136 2.11 139 2.11 116 2.11 135 2.11 137 2.11
  38  0.300  0.600  0.503- 135 2.11 132 2.11 136 2.11 155 2.11 138 2.11
  39  0.200  0.800  0.407- 137 2.11 142 2.11 141 2.11 122 2.11 139 2.11
  40  0.300  0.900  0.407- 141 2.11 126 2.11 142 2.11 161 2.11 140 2.11
  41  0.200  0.900  0.503- 140 2.11 123 2.11 139 2.11 120 2.11 141 2.11
  42  0.300  0.800  0.503- 136 2.11 139 2.11 140 2.11 159 2.11 142 2.11
  43  0.400  0.000  0.407- 126 2.11 145 2.11 146 2.11 161 2.11 143 2.11
  44  0.500  0.100  0.407- 145 2.11 146 2.11 150 2.11 165 2.11 144 2.11
  45  0.400  0.100  0.503- 124 2.11 143 2.11 144 2.11 147 2.11 145 2.11
  46  0.500  0.000  0.503- 143 2.11 144 2.11 160 2.11 163 2.11 146 2.11
  47  0.400  0.200  0.407- 149 2.11 145 2.11 130 2.11 150 2.11 147 2.11
  48  0.500  0.300  0.407- 150 2.11 149 2.11 154 2.11 169 2.11 148 2.11
  49  0.400  0.300  0.503- 147 2.11 128 2.11 148 2.11 151 2.11 149 2.11
  50  0.500  0.200  0.503- 148 2.11 147 2.11 144 2.11 167 2.11 150 2.11
  51  0.400  0.400  0.407- 134 2.11 149 2.11 153 2.11 154 2.11 151 2.11
  52  0.500  0.500  0.407- 153 2.11 154 2.11 158 2.11 173 2.11 152 2.11
  53  0.400  0.500  0.503- 132 2.11 151 2.11 152 2.11 155 2.11 153 2.11
  54  0.500  0.400  0.503- 148 2.11 151 2.11 152 2.11 171 2.11 154 2.11
  55  0.400  0.600  0.407- 138 2.11 153 2.11 157 2.11 158 2.11 155 2.11
  56  0.500  0.700  0.407- 162 2.11 158 2.11 157 2.11 177 2.11 156 2.11
  57  0.400  0.700  0.503- 159 2.11 155 2.11 156 2.11 136 2.11 157 2.11
  58  0.500  0.600  0.503- 152 2.11 155 2.11 156 2.11 175 2.11 158 2.11
  59  0.400  0.800  0.407- 157 2.11 142 2.11 161 2.11 162 2.11 159 2.11
  60  0.500  0.900  0.407- 146 2.11 161 2.11 162 2.11 181 2.11 160 2.11
[...]
 188  0.900  0.300  0.503-  90 2.11  89 2.11   9 2.11  94 2.11  88 2.11
 189  0.800  0.300  0.407-  68 2.11  87 2.11  88 2.11  91 2.11  89 2.11
 190  0.900  0.200  0.407-  88 2.11  84 2.11  87 2.11   7 2.11  90 2.11
 191  0.800  0.400  0.503-  74 2.11  89 2.11  93 2.11  94 2.11  91 2.11
 192  0.900  0.500  0.503-  13 2.11  93 2.11  94 2.11  98 2.11  92 2.11
 193  0.800  0.500  0.407-  72 2.11  91 2.11  92 2.11  95 2.11  93 2.11
 194  0.900  0.400  0.407-  11 2.11  88 2.11  91 2.11  92 2.11  94 2.11
 195  0.800  0.600  0.503-  78 2.11  93 2.11  97 2.11  98 2.11  95 2.11
 196  0.900  0.700  0.503- 102 2.11  97 2.11  98 2.11  17 2.11  96 2.11
 197  0.800  0.700  0.407-  76 2.11  99 2.11  96 2.11  95 2.11  97 2.11
 198  0.900  0.600  0.407-  15 2.11  92 2.11  95 2.11  96 2.11  98 2.11
 199  0.800  0.800  0.503-  82 2.11  97 2.11 101 2.11 102 2.11  99 2.11
 200  0.900  0.900  0.503-  21 2.11  86 2.11 101 2.11 102 2.11 100 2.11
 201  0.800  0.900  0.407-  80 2.11  83 2.11  99 2.11 100 2.11 101 2.11
 202  0.900  0.800  0.407-  96 2.11  19 2.11  99 2.11 100 2.11 102 2.11

  LATTYP: Found a simple tetragonal cell.
 ALAT       =    21.1388521970
 C/A-ratio  =     1.0461251639

  Lattice vectors:

 A1 = (  21.1388521970,   0.0000000000,   0.0000000000)
 A2 = (   0.0000000000,  21.1388521970,   0.0000000000)
 A3 = (   0.0000000000,   0.0000000000,  22.1138852197)

Analysis of symmetry for initial positions (statically):
 Subroutine PRICEL returns:
 Original cell was already a primitive cell.

 Routine SETGRP: Setting up the symmetry group for a
 simple tetragonal supercell.

 Subroutine GETGRP returns: Found  4 space group operations
 (whereof  2 operations were pure point group operations)
 out of a pool of 16 trial point group operations.

The static configuration has the point symmetry C_1h.
 The point group associated with its full space group is C_2v.

Analysis of symmetry for dynamics (positions and initial velocities):
 Subroutine PRICEL returns:
 Original cell was already a primitive cell.

 Routine SETGRP: Setting up the symmetry group for a
 simple tetragonal supercell.

 Subroutine GETGRP returns: Found  4 space group operations
 (whereof  2 operations were pure point group operations)
 out of a pool of 16 trial point group operations.

The dynamic configuration has the point symmetry C_1h.
 The point group associated with its full space group is C_2v.

 Subroutine INISYM returns: Found  4 space group operations
 (whereof  2 operations are pure point group operations),
 and found     1 'primitive' translations

                                     Primitive cell

  volume of cell :    9881.6133

  direct lattice vectors                    reciprocal lattice vectors
    21.138852197  0.000000000  0.000000000     0.047306258  0.000000000  0.000000000
     0.000000000 21.138852197  0.000000000     0.000000000  0.047306258  0.000000000
     0.000000000  0.000000000 22.113885220     0.000000000  0.000000000  0.045220457

  length of vectors
    21.138852197 21.138852197 22.113885220     0.047306258  0.047306258  0.045220457

[...]
     52     -44.4583      2.00000
     53     -44.4582      2.00000
     54     -44.4574      2.00000
     55     -44.4573      2.00000
     56     -44.4571      2.00000
     57     -44.4556      2.00000
     58     -44.4549      2.00000
     59     -44.4542      2.00000
     60     -44.4542      2.00000
[...]
   1010       7.8554      0.00000
   1011       7.8560      0.00000
   1012       7.8737      0.00000
   1013       7.8797      0.00000
   1014       7.8909      0.00000
   1015       7.9016      0.00000
   1016       7.9124      0.00000
   1017       8.3123      0.00000
   1018       8.4094      0.00000
   1019       8.4268      0.00000
   1020       8.4548      0.00000
   1021       8.5918      0.00000
   1022       8.6138      0.00000
   1023       8.6637      0.00000
   1024       8.6875      0.00000

 soft charge-density along one line, spin component           1
         0         1         2         3         4         5         6         7         8         9
 total charge-density along one line

------------------------ aborting loop because EDIFF is reached ----------------------------------------

  FORCE on cell =-STRESS in cart. coord.  units (eV):
  Direction    XX          YY          ZZ          XY          YZ          ZX
  Alpha Z  1354.41543  1354.41543  1354.41543
  Ewald  478638.37410478638.37410************  -389.48255     0.00001    -0.00000
  Hartree507671.92192507671.92195************  -288.63090     0.00000    -0.00000
  E(xc)   -8414.85020 -8414.85017 -8407.09862    -0.12838    -0.00000     0.00000
  Local  ************************************   670.64693    -0.00001     0.00000
  n-local -8755.96228 -8755.96226 -8876.45938     1.77611     0.00002    -0.00004
  augment  3885.69664  3885.69944  3827.96134     3.21884    -0.00000     0.00004
  Kinetic 22914.02708 22914.02699 23147.43960     3.25952    -0.00000     0.00012
  Fock        0.00000     0.00000     0.00000     0.00000     0.00000     0.00000
  Total    -244.42667  -244.42667   -28.27945     0.65957     0.00000    -0.00000
  in kB     -39.63066   -39.63066    -4.58515     0.10694     0.00000    -0.00000

 VOLUME and BASIS-vectors are now :
  energy-cutoff  :      520.00
  volume of cell :     9881.61
      direct lattice vectors                 reciprocal lattice vectors
    21.138852197  0.000000000  0.000000000     0.047306258  0.000000000  0.000000000
     0.000000000 21.138852197  0.000000000     0.000000000  0.047306258  0.000000000
     0.000000000  0.000000000 22.113885220     0.000000000  0.000000000  0.045220457

  length of vectors
    21.138852197 21.138852197 22.113885220     0.047306258  0.047306258  0.045220457

 FORCES acting on ions:
    Electron-Ion                     Ewald-Force                    Non-Local-Force
   -.257E+03 0.257E+03 -.200E+04   0.246E+03 -.246E+03 0.200E+04   0.103E+02 -.103E+02 0.268E+00
   0.257E+03 -.257E+03 -.200E+04   -.246E+03 0.246E+03 0.200E+04   -.103E+02 0.103E+02 0.268E+00
   0.175E+01 0.175E+01 0.931E+03   -.174E+01 -.174E+01 -.923E+03   -.201E-02 -.201E-02 -.744E+01
   0.626E+01 0.626E+01 0.933E+03   -.626E+01 -.626E+01 -.925E+03   -.480E-02 -.480E-02 -.744E+01
   0.269E+01 0.599E+01 -.922E+03   -.268E+01 -.599E+01 0.914E+03   -.965E-02 -.104E-02 0.743E+01
   0.599E+01 0.269E+01 -.922E+03   -.599E+01 -.268E+01 0.914E+03   -.104E-02 -.965E-02 0.743E+01
   0.302E+01 0.636E+01 0.934E+03   -.300E+01 -.637E+01 -.926E+03   -.111E-01 0.174E-02 -.744E+01
   0.130E+02 0.799E+01 0.939E+03   -.130E+02 -.801E+01 -.931E+03   -.120E-01 0.953E-02 -.744E+01
   0.590E+01 0.710E+01 -.919E+03   -.588E+01 -.710E+01 0.911E+03   -.149E-01 0.414E-02 0.743E+01
   0.127E+02 0.117E+02 -.919E+03   -.127E+02 -.117E+02 0.911E+03   -.182E-01 -.777E-03 0.743E+01
   0.524E+01 0.229E+01 0.937E+03   -.524E+01 -.229E+01 -.929E+03   -.238E-02 0.465E-02 -.744E+01
   0.166E+02 -.279E+01 0.942E+03   -.166E+02 0.278E+01 -.934E+03   0.263E-01 0.117E-01 -.744E+01
   0.808E+01 -.262E+01 -.918E+03   -.810E+01 0.261E+01 0.910E+03   0.115E-01 0.416E-02 0.743E+01
   0.254E+02 0.555E+01 -.913E+03   -.254E+02 -.558E+01 0.905E+03   -.545E-02 0.198E-01 0.743E+01
   0.483E+01 -.543E+01 0.935E+03   -.485E+01 0.543E+01 -.927E+03   0.154E-01 -.451E-03 -.744E+01
   0.990E+01 -.892E+01 0.936E+03   -.993E+01 0.893E+01 -.928E+03   0.168E-01 -.783E-02 -.743E+01
   0.501E+01 -.814E+01 -.921E+03   -.503E+01 0.814E+01 0.913E+03   0.182E-01 -.321E-02 0.743E+01
   0.212E+02 -.111E+02 -.915E+03   -.213E+02 0.111E+02 0.907E+03   0.405E-01 0.326E-02 0.743E+01
   0.255E+01 -.497E+01 0.932E+03   -.256E+01 0.498E+01 -.924E+03   0.870E-02 -.396E-02 -.744E+01
   0.497E+01 -.255E+01 0.932E+03   -.498E+01 0.256E+01 -.924E+03   0.396E-02 -.870E-02 -.744E+01
   0.234E+01 -.234E+01 -.923E+03   -.234E+01 0.234E+01 0.915E+03   0.399E-02 -.399E-02 0.743E+01
   0.883E+01 -.883E+01 -.921E+03   -.884E+01 0.884E+01 0.913E+03   0.127E-01 -.127E-01 0.743E+01
   0.636E+01 0.302E+01 0.934E+03   -.637E+01 -.300E+01 -.926E+03   0.174E-02 -.111E-01 -.744E+01
   0.799E+01 0.130E+02 0.939E+03   -.801E+01 -.130E+02 -.931E+03   0.953E-02 -.120E-01 -.744E+01
   0.117E+02 0.127E+02 -.919E+03   -.117E+02 -.127E+02 0.911E+03   -.777E-03 -.182E-01 0.743E+01
   0.710E+01 0.590E+01 -.919E+03   -.710E+01 -.588E+01 0.911E+03   0.414E-02 -.149E-01 0.743E+01
   0.135E+02 0.135E+02 0.941E+03   -.135E+02 -.135E+02 -.933E+03   -.436E-02 -.436E-02 -.745E+01
   0.225E+02 0.225E+02 0.962E+03   -.225E+02 -.225E+02 -.954E+03   0.832E-02 0.832E-02 -.749E+01
   0.344E+02 0.225E+02 -.906E+03   -.343E+02 -.226E+02 0.898E+03   -.537E-01 0.200E-01 0.741E+01
   0.225E+02 0.344E+02 -.906E+03   -.226E+02 -.343E+02 0.898E+03   0.200E-01 -.537E-01 0.741E+01
   0.268E+02 0.674E+01 0.954E+03   -.268E+02 -.679E+01 -.946E+03   -.119E-01 0.391E-01 -.744E+01
   0.316E+02 -.915E+01 0.980E+03   -.316E+02 0.909E+01 -.972E+03   -.438E-01 0.431E-01 -.728E+01
   0.529E+02 -.841E+01 -.894E+03   -.531E+02 0.835E+01 0.886E+03   0.103E+00 0.463E-01 0.744E+01
   0.801E+02 0.335E+02 -.848E+03   -.798E+02 -.337E+02 0.840E+03   -.172E+00 0.173E+00 0.731E+01
   0.216E+02 -.134E+02 0.950E+03   -.217E+02 0.134E+02 -.942E+03   0.262E-01 -.641E-02 -.742E+01
   0.134E+02 -.216E+02 0.950E+03   -.134E+02 0.217E+02 -.942E+03   0.641E-02 -.262E-01 -.742E+01
   0.220E+02 -.220E+02 -.912E+03   -.220E+02 0.220E+02 0.904E+03   0.298E-01 -.298E-01 0.744E+01
   0.510E+02 -.510E+02 -.872E+03   -.511E+02 0.511E+02 0.864E+03   0.702E-01 -.702E-01 0.747E+01
   0.892E+01 -.990E+01 0.936E+03   -.893E+01 0.993E+01 -.928E+03   0.783E-02 -.168E-01 -.743E+01
   0.543E+01 -.483E+01 0.935E+03   -.543E+01 0.485E+01 -.927E+03   0.451E-03 -.154E-01 -.744E+01
   0.814E+01 -.501E+01 -.921E+03   -.814E+01 0.503E+01 0.913E+03   0.321E-02 -.182E-01 0.743E+01
   0.111E+02 -.212E+02 -.915E+03   -.111E+02 0.213E+02 0.907E+03   -.326E-02 -.405E-01 0.743E+01
   0.229E+01 0.524E+01 0.937E+03   -.229E+01 -.524E+01 -.929E+03   0.465E-02 -.238E-02 -.744E+01
   -.279E+01 0.166E+02 0.942E+03   0.278E+01 -.166E+02 -.934E+03   0.117E-01 0.263E-01 -.744E+01
   0.555E+01 0.254E+02 -.913E+03   -.558E+01 -.254E+02 0.905E+03   0.198E-01 -.545E-02 0.743E+01
   -.262E+01 0.808E+01 -.918E+03   0.261E+01 -.810E+01 0.910E+03   0.416E-02 0.115E-01 0.743E+01
   0.674E+01 0.268E+02 0.954E+03   -.679E+01 -.268E+02 -.946E+03   0.391E-01 -.119E-01 -.744E+01
   -.915E+01 0.316E+02 0.980E+03   0.909E+01 -.316E+02 -.972E+03   0.431E-01 -.438E-01 -.728E+01
   0.335E+02 0.801E+02 -.848E+03   -.337E+02 -.798E+02 0.840E+03   0.173E+00 -.172E+00 0.731E+01
   -.841E+01 0.529E+02 -.894E+03   0.835E+01 -.531E+02 0.886E+03   0.463E-01 0.103E+00 0.744E+01
   0.165E+02 0.165E+02 0.100E+04   -.165E+02 -.165E+02 -.996E+03   0.105E-01 0.105E-01 -.762E+01
   -.165E+02 -.165E+02 0.100E+04   0.165E+02 0.165E+02 -.996E+03   -.105E-01 -.105E-01 -.762E+01
   0.523E+02 -.523E+02 -.719E+03   -.518E+02 0.518E+02 0.713E+03   -.356E+00 0.356E+00 0.600E+01
   -.523E+02 0.523E+02 -.719E+03   0.518E+02 -.518E+02 0.713E+03   0.356E+00 -.356E+00 0.600E+01
   0.915E+01 -.316E+02 0.980E+03   -.909E+01 0.316E+02 -.972E+03   -.431E-01 0.438E-01 -.728E+01
   -.674E+01 -.268E+02 0.954E+03   0.679E+01 0.268E+02 -.946E+03   -.391E-01 0.119E-01 -.744E+01
   0.841E+01 -.529E+02 -.894E+03   -.835E+01 0.531E+02 0.886E+03   -.463E-01 -.103E+00 0.744E+01
   -.335E+02 -.801E+02 -.848E+03   0.337E+02 0.798E+02 0.840E+03   -.173E+00 0.172E+00 0.731E+01
   0.279E+01 -.166E+02 0.942E+03   -.278E+01 0.166E+02 -.934E+03   -.117E-01 -.263E-01 -.744E+01
   -.229E+01 -.524E+01 0.937E+03   0.229E+01 0.524E+01 -.929E+03   -.465E-02 0.238E-02 -.744E+01
[...]
   -.104E+02 0.582E+01 0.706E+03   0.104E+02 -.582E+01 -.710E+03   -.255E-01 0.191E-02 0.356E+01
   -.274E+01 0.482E+01 0.702E+03   0.275E+01 -.482E+01 -.706E+03   -.136E-01 0.436E-02 0.356E+01
   -.198E+02 0.294E+01 -.686E+03   0.198E+02 -.292E+01 0.690E+03   -.209E-01 -.223E-01 -.357E+01
   -.571E+01 -.227E+01 -.690E+03   0.571E+01 0.227E+01 0.694E+03   0.255E-02 -.732E-02 -.357E+01
   -.122E+02 -.274E+01 0.708E+03   0.122E+02 0.275E+01 -.712E+03   -.147E-02 -.219E-01 0.355E+01
   -.414E+01 0.153E+01 0.704E+03   0.414E+01 -.153E+01 -.708E+03   -.822E-02 -.386E-02 0.356E+01
   -.145E+02 -.851E+01 -.688E+03   0.145E+02 0.852E+01 0.692E+03   0.138E-01 -.106E-01 -.358E+01
   -.301E+01 -.601E+01 -.692E+03   0.300E+01 0.601E+01 0.696E+03   0.122E-01 -.114E-02 -.357E+01
   -.688E+01 -.649E+01 0.704E+03   0.687E+01 0.649E+01 -.707E+03   0.109E-01 0.152E-02 0.355E+01
   -.315E+01 -.414E+01 0.703E+03   0.315E+01 0.414E+01 -.707E+03   0.913E-02 -.472E-02 0.356E+01
   -.609E+01 -.609E+01 -.693E+03   0.609E+01 0.609E+01 0.696E+03   0.856E-02 0.856E-02 -.357E+01
   -.160E+01 -.160E+01 -.694E+03   0.160E+01 0.160E+01 0.698E+03   0.263E-02 0.263E-02 -.357E+01
   -.363E+01 -.160E+01 0.701E+03   0.363E+01 0.159E+01 -.705E+03   0.675E-03 0.739E-02 0.356E+01
   -.160E+01 -.363E+01 0.701E+03   0.159E+01 0.363E+01 -.705E+03   0.739E-02 0.675E-03 0.356E+01
   -.307E-01 0.151E-01 0.685E+01   0.144E-11 0.125E-11 0.114E-12   -.665E-15 -.665E-15 -.617E+01

 POSITION                                       TOTAL-FORCE (eV/Angst)
     10.29957      8.72540     14.01778        -0.223209      0.223209     -0.077550
      8.72540     10.29957     14.01778         0.223209     -0.223209     -0.077550
      0.00000      0.00000      9.00000         0.000683      0.000683      0.587616
      2.11389      2.11389      9.00000         0.001639      0.001639      0.588259
      0.00000      2.11389     11.11389         0.002519      0.000284     -0.581983
      2.11389      0.00000     11.11389         0.000284      0.002519     -0.581983
      0.00000      4.22777      9.00000         0.003613     -0.000552      0.587822
      2.11389      6.34166      9.00000         0.003713     -0.003135      0.588561
      0.00000      6.34166     11.11389         0.003825     -0.001170     -0.581345
      2.11389      4.22777     11.11389         0.004876      0.000465     -0.580694
      0.00000      8.45554      9.00000         0.000733     -0.001690      0.587753
      2.11389     10.56943      9.00000        -0.008536     -0.004037      0.588001
      0.00000     10.56943     11.11389        -0.002899     -0.001057     -0.581730
      2.11389      8.45554     11.11389         0.001396     -0.005866     -0.579918
      0.00000     12.68331      9.00000        -0.004990      0.000184      0.587449
      2.11389     14.79720      9.00000        -0.005599      0.002709      0.586282
      0.00000     14.79720     11.11389        -0.004733      0.000945     -0.582238
      2.11389     12.68331     11.11389        -0.010934     -0.000607     -0.583027
      0.00000     16.91108      9.00000        -0.002851      0.001322      0.587386
      2.11389     19.02497      9.00000        -0.001322      0.002851      0.587386
      0.00000     19.02497     11.11389        -0.001039      0.001039     -0.582300
      2.11389     16.91108     11.11389        -0.003427      0.003427     -0.582611
      4.22777      0.00000      9.00000        -0.000552      0.003613      0.587822
      6.34166      2.11389      9.00000        -0.003135      0.003713      0.588561
      4.22777      2.11389     11.11389         0.000465      0.004876     -0.580694
      6.34166      0.00000     11.11389        -0.001170      0.003825     -0.581345
      4.22777      4.22777      9.00000         0.001680      0.001680      0.591031
      6.34166      6.34166      9.00000        -0.001550     -0.001550      0.602876
      4.22777      6.34166     11.11389         0.015384     -0.003860     -0.573032
      6.34166      4.22777     11.11389        -0.003860      0.015384     -0.573032
      4.22777      8.45554      9.00000         0.002215     -0.014082      0.587499
      6.34166     10.56943      9.00000         0.015571     -0.015499      0.533196
      4.22777     10.56943     11.11389        -0.036606     -0.014605     -0.580185
      6.34166      8.45554     11.11389         0.064322     -0.043247     -0.508148
      4.22777     12.68331      9.00000        -0.009318      0.002966      0.581090
      6.34166     14.79720      9.00000        -0.002966      0.009318      0.581090
      4.22777     14.79720     11.11389        -0.008539      0.008539     -0.585295
      6.34166     12.68331     11.11389        -0.020471      0.020471     -0.602046
      4.22777     16.91108      9.00000        -0.002709      0.005599      0.586282
      6.34166     19.02497      9.00000        -0.000184      0.004990      0.587449
      4.22777     19.02497     11.11389        -0.000945      0.004733     -0.582238
      6.34166     16.91108     11.11389         0.000607      0.010934     -0.583027
      8.45554      0.00000      9.00000        -0.001690      0.000733      0.587753
     10.56943      2.11389      9.00000        -0.004037     -0.008536      0.588001
      8.45554      2.11389     11.11389        -0.005866      0.001396     -0.579918
     10.56943      0.00000     11.11389        -0.001057     -0.002899     -0.581730
      8.45554      4.22777      9.00000        -0.014082      0.002215      0.587499
     10.56943      6.34166      9.00000        -0.015499      0.015571      0.533196
      8.45554      6.34166     11.11389        -0.043247      0.064322     -0.508148
     10.56943      4.22777     11.11389        -0.014605     -0.036606     -0.580185
      8.45554      8.45554      9.00000        -0.000845     -0.000845      0.617350
     10.56943     10.56943      9.00000         0.000845      0.000845      0.617350
      8.45554     10.56943     11.11389         0.138425     -0.138425     -0.479576
     10.56943      8.45554     11.11389        -0.138425      0.138425     -0.479576
      8.45554     12.68331      9.00000         0.015499     -0.015571      0.533196
     10.56943     14.79720      9.00000         0.014082     -0.002215      0.587499
      8.45554     14.79720     11.11389         0.014605      0.036606     -0.580185
     10.56943     12.68331     11.11389         0.043247     -0.064322     -0.508148
      8.45554     16.91108      9.00000         0.004037      0.008536      0.588001
     10.56943     19.02497      9.00000         0.001690     -0.000733      0.587753
[...]
     19.02497      6.34166     11.11389        -0.004367      0.000141      0.299121
     16.91108      6.34166      9.00000        -0.007119      0.000533     -0.301235
     19.02497      4.22777      9.00000        -0.003790      0.001220     -0.302973
     16.91108      8.45554     11.11389        -0.006142     -0.006205      0.299370
     19.02497     10.56943     11.11389         0.000705     -0.002086      0.298465
     16.91108     10.56943      9.00000        -0.000479     -0.006046     -0.304171
     19.02497      8.45554      9.00000        -0.002299     -0.001068     -0.303189
     16.91108     12.68331     11.11389         0.003790     -0.003007      0.296698
     19.02497     14.79720     11.11389         0.003418     -0.000332      0.298557
     16.91108     14.79720      9.00000         0.003003      0.000397     -0.304637
     19.02497     12.68331      9.00000         0.002529     -0.001316     -0.303625
     16.91108     16.91108     11.11389         0.002361      0.002361      0.298192
     19.02497     19.02497     11.11389         0.000727      0.000727      0.298951
     16.91108     19.02497      9.00000         0.000192      0.002049     -0.303544
     19.02497     16.91108      9.00000         0.002049      0.000192     -0.303544
    total drift:                               -0.030722      0.015137      0.683511

  FREE ENERGIE OF THE ION-ELECTRON SYSTEM (eV)
  free  energy   TOTEN  =     -1650.45602276 eV

  energy  without entropy=    -1650.45602276  energy(sigma->0) =    -1650.45602276