 vasp.6.3.0 20Jan22 (build Apr  1 2022 16:44:48) complex
 executed on        HPECrayEX_GCC date 2022.10.13  16:59:41

 INCAR:
   SYSTEM = MgO-rocksalt
   ISMEAR = 0
   SIGMA = 0.05
   EDIFF = 1E-6
   ALGO = ALL
   ISTART = 0
   IBRION = -1
   NSW = 0
   ISYM = 2
   DIPOL = 0.5 0.5 0.5
   IDIPOL = 3
   LDIPOL = .TRUE.
   GGA = RE
   IVDW = 13
   VDW_S8 = 1.7468
   VDW_A1 = 0.5363
   VDW_A2 = 3.0726
   ENCUT = 520
   PREC = Accurate
   LASPH = .TRUE.
   LREAL = Auto
   ISPIN = 1
   NELM = 200
   NELMIN = 8
   NCORE = 4
   KPAR = 2
   LWAVE = .FALSE.
   LCHARG = .FALSE.

 POTCAR:    PAW_PBE Au 04Oct2007
 POTCAR:    PAW_PBE Mg_pv 13Apr2007
 POTCAR:    PAW_PBE O 08Apr2002
 POTCAR:    PAW_PBE Au 04Oct2007
   VRHFIN =Au: s1d10

   TITEL  = PAW_PBE Au 04Oct2007
   POMASS =  196.966; ZVAL   =   11.000    mass and valenz
   ENMAX  =  229.943; ENMIN  =  172.457 eV

   TITEL  = PAW_PBE Mg_pv 13Apr2007
   POMASS =   24.305; ZVAL   =    8.000    mass and valenz
   ENMAX  =  403.929; ENMIN  =  302.947 eV

   TITEL  = PAW_PBE O 08Apr2002
   POMASS =   16.000; ZVAL   =    6.000    mass and valenz
   ENMAX  =  400.000; ENMIN  =  300.000 eV

 Optimization of the real space projectors (new method)

 maximal supplied QI-value         = 15.12
 optimisation between [QCUT,QGAM] = [ 11.64, 23.28] = [ 37.95,151.78] Ry
 Optimized for a Real-space Cutoff    1.49 Angstroem

   l    n(q)    QCUT    max X(q) W(low)/X(q) W(high)/X(q)  e(spline)
   2      9    11.641    60.898    0.24E-03    0.10E-03    0.19E-06
   2      9    11.641    58.894    0.25E-03    0.10E-03    0.19E-06
   0     10    11.641   109.617    0.73E-04    0.33E-04    0.11E-06
   0     10    11.641    75.026    0.71E-04    0.32E-04    0.11E-06
   1     10    11.641    16.344    0.27E-04    0.97E-04    0.16E-06
   1     10    11.641    10.160    0.23E-04    0.77E-04    0.13E-06
 Optimization of the real space projectors (new method)

[...]

   l    n(q)    QCUT    max X(q) W(low)/X(q) W(high)/X(q)  e(spline)
   1      8    11.527     2.974    0.44E-04    0.56E-04    0.12E-06
   1      8    11.527     4.279    0.12E-03    0.12E-03    0.26E-06
   0      9    11.527    16.381    0.46E-04    0.64E-04    0.78E-07
   0      9    11.527     5.611    0.26E-04    0.43E-04    0.55E-07
   2      8    11.527     4.652    0.22E-03    0.72E-04    0.47E-07
 Optimization of the real space projectors (new method)

 maximal supplied QI-value         = 24.76
 optimisation between [QCUT,QGAM] = [ 11.64, 23.27] = [ 37.91,151.63] Ry
 Optimized for a Real-space Cutoff    1.14 Angstroem

   l    n(q)    QCUT    max X(q) W(low)/X(q) W(high)/X(q)  e(spline)
   0      8    11.635    20.381    0.10E-03    0.33E-03    0.24E-06
   0      8    11.635    15.268    0.11E-03    0.35E-03    0.26E-06
   1      7    11.635     5.964    0.24E-03    0.31E-03    0.30E-06
   1      7    11.635     5.382    0.22E-03    0.25E-03    0.26E-06
|               ----> ADVICE to this user running VASP <----                  |
|     You enforced a specific xc type in the INCAR file but a different       |
|     type was found in the POTCAR file.                                      |
|     I HOPE YOU KNOW WHAT YOU ARE DOING!                                     |

  PAW_PBE Au 04Oct2007                  :
  PAW_PBE Mg_pv 13Apr2007               :
  PAW_PBE O 08Apr2002                   :

 POSCAR: Au Mg  O
  positions in direct lattice
|           W    W    AA    RRRRR   N    N  II  N    N   GGGG   !!!           |
|           W    W   A  A   R    R  NN   N  II  NN   N  G    G  !!!           |
|           W    W  A    A  R    R  N N  N  II  N N  N  G       !!!           |
|           W WW W  AAAAAA  RRRRR   N  N N  II  N  N N  G  GGG   !            |
|           WW  WW  A    A  R   R   N   NN  II  N   NN  G    G                |
|           W    W  A    A  R    R  N    N  II  N    N   GGGG   !!!           |
|     Specifying the vdW parameters                                           |
|     VDW_S8 = 1.747                                                          |
|     VDW_A1 = 0.536                                                          |
|     VDW_A2 = 3.073                                                          |
|     in the INCAR file will overwrite the defaults for revpbe. Please        |
|     make sure that is what you intended.                                    |

 ion  position               nearest neighbor table
   1  0.450  0.450  0.719-   2 2.52
   2  0.450  0.450  0.605-   1 2.52  53 2.72 152 2.72 151 2.72  54 2.72
   3  0.000  0.000  0.407- 105 2.11 106 2.11 121 2.11 186 2.11 103 2.11
   4  0.100  0.100  0.407- 105 2.11 106 2.11 110 2.11 125 2.11 104 2.11
   5  0.000  0.100  0.503- 103 2.11 104 2.11 107 2.11 184 2.11 105 2.11
   6  0.100  0.000  0.503- 103 2.11 104 2.11 120 2.11 123 2.11 106 2.11
   7  0.000  0.200  0.407- 109 2.11 105 2.11 110 2.11 190 2.11 107 2.11
   8  0.100  0.300  0.407- 110 2.11 109 2.11 114 2.11 129 2.11 108 2.11
   9  0.000  0.300  0.503- 107 2.11 108 2.11 111 2.11 188 2.11 109 2.11
  10  0.100  0.200  0.503- 108 2.11 107 2.11 104 2.11 127 2.11 110 2.11
  11  0.000  0.400  0.407- 109 2.11 113 2.11 114 2.11 194 2.11 111 2.11
  12  0.100  0.500  0.407- 113 2.11 114 2.11 118 2.11 133 2.11 112 2.11
  13  0.000  0.500  0.503- 111 2.11 112 2.11 115 2.11 192 2.11 113 2.11
  14  0.100  0.400  0.503- 108 2.11 111 2.11 112 2.11 131 2.11 114 2.11
  15  0.000  0.600  0.407- 113 2.11 117 2.11 118 2.11 198 2.11 115 2.11
  16  0.100  0.700  0.407- 122 2.11 118 2.11 117 2.11 137 2.11 116 2.11
  17  0.000  0.700  0.503- 119 2.11 116 2.11 115 2.11 196 2.11 117 2.11
  18  0.100  0.600  0.503- 112 2.11 115 2.11 116 2.11 135 2.11 118 2.11
  19  0.000  0.800  0.407- 117 2.11 121 2.11 122 2.11 202 2.11 119 2.11
  20  0.100  0.900  0.407- 106 2.11 121 2.11 122 2.11 141 2.11 120 2.11
  21  0.000  0.900  0.503- 103 2.11 119 2.11 120 2.11 200 2.11 121 2.11
  22  0.100  0.800  0.503- 116 2.11 119 2.11 120 2.11 139 2.11 122 2.11
  23  0.200  0.000  0.407- 126 2.11 125 2.11 106 2.11 141 2.11 123 2.11
  24  0.300  0.100  0.407- 125 2.11 126 2.11 130 2.11 145 2.11 124 2.11
  25  0.200  0.100  0.503- 124 2.11 123 2.11 104 2.11 127 2.11 125 2.11
  26  0.300  0.000  0.503- 123 2.11 124 2.11 140 2.11 143 2.11 126 2.11
  27  0.200  0.200  0.407- 129 2.11 130 2.11 110 2.11 125 2.11 127 2.11
  28  0.300  0.300  0.407- 129 2.11 130 2.11 134 2.11 149 2.11 128 2.11
  29  0.200  0.300  0.503- 127 2.11 128 2.11 108 2.11 131 2.11 129 2.11
  30  0.300  0.200  0.503- 127 2.11 128 2.11 124 2.11 147 2.11 130 2.11
  31  0.200  0.400  0.407- 134 2.11 129 2.11 133 2.11 114 2.11 131 2.11
  32  0.300  0.500  0.407- 133 2.11 134 2.11 138 2.11 153 2.11 132 2.11
  33  0.200  0.500  0.503- 132 2.11 131 2.11 112 2.11 135 2.11 133 2.11
  34  0.300  0.400  0.503- 131 2.11 128 2.11 132 2.11 151 2.11 134 2.11
  35  0.200  0.600  0.407- 138 2.11 133 2.11 137 2.11 118 2.11 135 2.11
  36  0.300  0.700  0.407- 137 2.11 142 2.11 138 2.11 157 2.11 136 2.11
  37  0.200  0.700  0.503- 136 2.11 139 2.11 116 2.11 135 2.11 137 2.11
  38  0.300  0.600  0.503- 135 2.11 132 2.11 136 2.11 155 2.11 138 2.11
  39  0.200  0.800  0.407- 137 2.11 142 2.11 141 2.11 122 2.11 139 2.11
  40  0.300  0.900  0.407- 141 2.11 126 2.11 142 2.11 161 2.11 140 2.11
  41  0.200  0.900  0.503- 140 2.11 123 2.11 139 2.11 120 2.11 141 2.11
  42  0.300  0.800  0.503- 136 2.11 139 2.11 140 2.11 159 2.11 142 2.11
  43  0.400  0.000  0.407- 126 2.11 145 2.11 146 2.11 161 2.11 143 2.11
  44  0.500  0.100  0.407- 145 2.11 146 2.11 150 2.11 165 2.11 144 2.11
  45  0.400  0.100  0.503- 124 2.11 143 2.11 144 2.11 147 2.11 145 2.11
  46  0.500  0.000  0.503- 143 2.11 144 2.11 160 2.11 163 2.11 146 2.11
  47  0.400  0.200  0.407- 149 2.11 145 2.11 130 2.11 150 2.11 147 2.11
  48  0.500  0.300  0.407- 150 2.11 149 2.11 154 2.11 169 2.11 148 2.11
  49  0.400  0.300  0.503- 147 2.11 128 2.11 148 2.11 151 2.11 149 2.11
  50  0.500  0.200  0.503- 148 2.11 147 2.11 144 2.11 167 2.11 150 2.11
  51  0.400  0.400  0.407- 134 2.11 149 2.11 153 2.11 154 2.11 151 2.11
  52  0.500  0.500  0.407- 153 2.11 154 2.11 158 2.11 173 2.11 152 2.11
  53  0.400  0.500  0.503- 132 2.11 151 2.11 152 2.11 155 2.11 153 2.11   2 2.72
  54  0.500  0.400  0.503- 148 2.11 151 2.11 152 2.11 171 2.11 154 2.11   2 2.72
  55  0.400  0.600  0.407- 138 2.11 153 2.11 157 2.11 158 2.11 155 2.11
  56  0.500  0.700  0.407- 162 2.11 158 2.11 157 2.11 177 2.11 156 2.11
  57  0.400  0.700  0.503- 159 2.11 155 2.11 156 2.11 136 2.11 157 2.11
  58  0.500  0.600  0.503- 152 2.11 155 2.11 156 2.11 175 2.11 158 2.11
  59  0.400  0.800  0.407- 157 2.11 142 2.11 161 2.11 162 2.11 159 2.11
  60  0.500  0.900  0.407- 146 2.11 161 2.11 162 2.11 181 2.11 160 2.11
[...]
 188  0.900  0.300  0.503-  90 2.11  89 2.11   9 2.11  94 2.11  88 2.11
 189  0.800  0.300  0.407-  68 2.11  87 2.11  88 2.11  91 2.11  89 2.11
 190  0.900  0.200  0.407-  88 2.11  84 2.11  87 2.11   7 2.11  90 2.11
 191  0.800  0.400  0.503-  74 2.11  89 2.11  93 2.11  94 2.11  91 2.11
 192  0.900  0.500  0.503-  13 2.11  93 2.11  94 2.11  98 2.11  92 2.11
 193  0.800  0.500  0.407-  72 2.11  91 2.11  92 2.11  95 2.11  93 2.11
 194  0.900  0.400  0.407-  11 2.11  88 2.11  91 2.11  92 2.11  94 2.11
 195  0.800  0.600  0.503-  78 2.11  93 2.11  97 2.11  98 2.11  95 2.11
 196  0.900  0.700  0.503- 102 2.11  97 2.11  98 2.11  17 2.11  96 2.11
 197  0.800  0.700  0.407-  76 2.11  99 2.11  96 2.11  95 2.11  97 2.11
 198  0.900  0.600  0.407-  15 2.11  92 2.11  95 2.11  96 2.11  98 2.11
 199  0.800  0.800  0.503-  82 2.11  97 2.11 101 2.11 102 2.11  99 2.11
 200  0.900  0.900  0.503-  21 2.11  86 2.11 101 2.11 102 2.11 100 2.11
 201  0.800  0.900  0.407-  80 2.11  83 2.11  99 2.11 100 2.11 101 2.11
 202  0.900  0.800  0.407-  96 2.11  19 2.11  99 2.11 100 2.11 102 2.11

  LATTYP: Found a simple tetragonal cell.
 ALAT       =    21.1388521970
 C/A-ratio  =     1.0461251639

  Lattice vectors:

 A1 = (  21.1388521970,   0.0000000000,   0.0000000000)
 A2 = (   0.0000000000,  21.1388521970,   0.0000000000)
 A3 = (   0.0000000000,   0.0000000000,  22.1138852197)

Analysis of symmetry for initial positions (statically):
 Subroutine PRICEL returns:
 Original cell was already a primitive cell.

 Routine SETGRP: Setting up the symmetry group for a
 simple tetragonal supercell.

 Subroutine GETGRP returns: Found  4 space group operations
 (whereof  2 operations were pure point group operations)
 out of a pool of 16 trial point group operations.

The static configuration has the point symmetry C_1h.
 The point group associated with its full space group is C_2v.

Analysis of symmetry for dynamics (positions and initial velocities):
 Subroutine PRICEL returns:
 Original cell was already a primitive cell.

 Routine SETGRP: Setting up the symmetry group for a
 simple tetragonal supercell.

 Subroutine GETGRP returns: Found  4 space group operations
 (whereof  2 operations were pure point group operations)
 out of a pool of 16 trial point group operations.

The dynamic configuration has the point symmetry C_1h.
 The point group associated with its full space group is C_2v.

 Subroutine INISYM returns: Found  4 space group operations
[...]
     54     -42.9223      2.00000
     55     -42.9202      2.00000
     56     -42.9195      2.00000
     57     -42.9194      2.00000
     58     -42.9185      2.00000
     59     -42.9168      2.00000
     60     -42.9160      2.00000
[...]
    882       4.9087      0.00000
    883       4.9361      0.00000
    884       4.9542      0.00000
    885       4.9839      0.00000
    886       5.0642      0.00000
    887       5.1256      0.00000
    888       5.1849      0.00000
    889       5.5277      0.00000
    890       5.5968      0.00000
    891       5.6877      0.00000
    892       5.7150      0.00000
    893       5.7383      0.00000
    894       5.7895      0.00000
    895       5.8172      0.00000
    896       5.8420      0.00000

 soft charge-density along one line, spin component           1
         0         1         2         3         4         5         6         7         8         9
 total charge-density along one line

------------------------ aborting loop because EDIFF is reached ----------------------------------------

  FORCE on cell =-STRESS in cart. coord.  units (eV):
  Direction    XX          YY          ZZ          XY          YZ          ZX
  Alpha Z  1365.75682  1365.75682  1365.75682
  Ewald  476307.94337476307.94337************   -10.19852    -0.00001     0.00001
  Hartree504972.69750504972.69749************    -3.40586    -0.00000     0.00001
  E(xc)   -7774.98249 -7774.98249 -7823.21944     0.01790     0.00000    -0.00000
  Local  ************************************    12.28403     0.00001    -0.00002
  n-local -8705.80564 -8705.80563 -8842.25098    -1.76498     0.00000    -0.00000
  augment  3415.17508  3415.17508  3352.85689     1.11519    -0.00000     0.00000
  Kinetic 23012.49638 23012.49639 23247.96809     0.74687    -0.00000    -0.00000
  Fock        0.00000     0.00000     0.00000     0.00000     0.00000     0.00000
  vdW       -54.06961   -54.06961   -25.09424     0.04107     0.00000    -0.00000
  Total    -157.61462  -157.61462    16.00217    -1.16429     0.00000    -0.00000
  in kB     -25.55520   -25.55520     2.59455    -0.18877     0.00000    -0.00000

 VOLUME and BASIS-vectors are now :
  energy-cutoff  :      520.00
  volume of cell :     9881.61
      direct lattice vectors                 reciprocal lattice vectors
    21.138852197  0.000000000  0.000000000     0.047306258  0.000000000  0.000000000
     0.000000000 21.138852197  0.000000000     0.000000000  0.047306258  0.000000000
     0.000000000  0.000000000 22.113885220     0.000000000  0.000000000  0.045220457

  length of vectors
    21.138852197 21.138852197 22.113885220     0.047306258  0.047306258  0.045220457

 FORCES acting on ions:
    Electron-Ion                     Ewald-Force                    Non-Local-Force
   0.362E-04 -.159E-03 -.175E+04   0.163E-07 -.120E-07 0.174E+04   -.169E-20 -.847E-21 0.726E+01
   0.311E-04 -.152E-03 -.189E+04   0.539E-05 -.567E-05 0.190E+04   0.000E+00 0.000E+00 -.480E+01
   0.169E+01 0.169E+01 0.931E+03   -.170E+01 -.170E+01 -.923E+03   0.603E-02 0.603E-02 -.754E+01
   0.595E+01 0.595E+01 0.933E+03   -.598E+01 -.598E+01 -.925E+03   0.242E-01 0.242E-01 -.754E+01
   0.277E+01 0.568E+01 -.922E+03   -.278E+01 -.569E+01 0.914E+03   0.131E-01 0.787E-02 0.748E+01
   0.568E+01 0.277E+01 -.922E+03   -.569E+01 -.278E+01 0.914E+03   0.787E-02 0.131E-01 0.748E+01
   0.302E+01 0.595E+01 0.933E+03   -.305E+01 -.596E+01 -.925E+03   0.238E-01 0.120E-01 -.754E+01
   0.121E+02 0.721E+01 0.938E+03   -.122E+02 -.723E+01 -.930E+03   0.858E-01 0.138E-01 -.755E+01
   0.577E+01 0.652E+01 -.919E+03   -.580E+01 -.652E+01 0.911E+03   0.240E-01 0.386E-02 0.748E+01
   0.121E+02 0.109E+02 -.918E+03   -.122E+02 -.109E+02 0.911E+03   0.464E-01 0.149E-01 0.748E+01
   0.484E+01 0.201E+01 0.935E+03   -.488E+01 -.201E+01 -.928E+03   0.285E-01 0.157E-03 -.755E+01
   0.148E+02 -.293E+01 0.940E+03   -.149E+02 0.296E+01 -.932E+03   0.751E-01 -.201E-01 -.756E+01
   0.705E+01 -.260E+01 -.918E+03   -.706E+01 0.261E+01 0.910E+03   0.671E-02 -.562E-02 0.748E+01
   0.229E+02 0.429E+01 -.913E+03   -.230E+02 -.428E+01 0.905E+03   0.617E-01 -.980E-02 0.747E+01
   0.411E+01 -.507E+01 0.934E+03   -.411E+01 0.509E+01 -.927E+03   0.550E-02 -.109E-01 -.754E+01
   0.869E+01 -.807E+01 0.935E+03   -.871E+01 0.809E+01 -.927E+03   0.190E-01 -.196E-01 -.755E+01
   0.413E+01 -.751E+01 -.921E+03   -.412E+01 0.752E+01 0.913E+03   -.553E-02 -.652E-02 0.748E+01
   0.181E+02 -.101E+02 -.915E+03   -.181E+02 0.102E+02 0.908E+03   0.135E-01 -.152E-01 0.747E+01
   0.217E+01 -.458E+01 0.931E+03   -.217E+01 0.459E+01 -.924E+03   -.180E-02 -.721E-02 -.754E+01
   0.458E+01 -.217E+01 0.931E+03   -.459E+01 0.217E+01 -.924E+03   0.721E-02 0.180E-02 -.754E+01
   0.209E+01 -.209E+01 -.923E+03   -.209E+01 0.209E+01 0.915E+03   -.403E-03 0.403E-03 0.748E+01
   0.780E+01 -.780E+01 -.921E+03   -.781E+01 0.781E+01 0.913E+03   0.315E-02 -.315E-02 0.748E+01
   0.595E+01 0.302E+01 0.933E+03   -.596E+01 -.305E+01 -.925E+03   0.120E-01 0.238E-01 -.754E+01
   0.721E+01 0.121E+02 0.938E+03   -.723E+01 -.122E+02 -.930E+03   0.138E-01 0.858E-01 -.755E+01
   0.109E+02 0.121E+02 -.918E+03   -.109E+02 -.122E+02 0.911E+03   0.149E-01 0.464E-01 0.748E+01
   0.652E+01 0.577E+01 -.919E+03   -.652E+01 -.580E+01 0.911E+03   0.386E-02 0.240E-01 0.748E+01
   0.125E+02 0.125E+02 0.939E+03   -.126E+02 -.126E+02 -.932E+03   0.700E-01 0.700E-01 -.754E+01
   0.207E+02 0.207E+02 0.959E+03   -.210E+02 -.210E+02 -.951E+03   0.195E+00 0.195E+00 -.754E+01
   0.317E+02 0.201E+02 -.906E+03   -.320E+02 -.201E+02 0.898E+03   0.182E+00 0.525E-02 0.746E+01
   0.201E+02 0.317E+02 -.906E+03   -.201E+02 -.320E+02 0.898E+03   0.525E-02 0.182E+00 0.746E+01
   0.244E+02 0.537E+01 0.951E+03   -.248E+02 -.536E+01 -.943E+03   0.295E+00 -.103E-01 -.762E+01
   0.298E+02 -.993E+01 0.973E+03   -.301E+02 0.102E+02 -.965E+03   0.288E+00 -.191E+00 -.768E+01
   0.450E+02 -.944E+01 -.898E+03   -.451E+02 0.950E+01 0.891E+03   0.777E-01 -.420E-01 0.743E+01
   0.762E+02 0.262E+02 -.855E+03   -.777E+02 -.261E+02 0.848E+03   0.116E+01 -.134E+00 0.739E+01
   0.190E+02 -.122E+02 0.946E+03   -.191E+02 0.123E+02 -.938E+03   0.836E-01 -.647E-01 -.758E+01
   0.122E+02 -.190E+02 0.946E+03   -.123E+02 0.191E+02 -.938E+03   0.647E-01 -.836E-01 -.758E+01
   0.188E+02 -.188E+02 -.913E+03   -.188E+02 0.188E+02 0.906E+03   0.167E-01 -.167E-01 0.747E+01
   0.427E+02 -.427E+02 -.885E+03   -.428E+02 0.428E+02 0.877E+03   0.780E-01 -.780E-01 0.740E+01
   0.807E+01 -.869E+01 0.935E+03   -.809E+01 0.871E+01 -.927E+03   0.196E-01 -.190E-01 -.755E+01
   0.507E+01 -.411E+01 0.934E+03   -.509E+01 0.411E+01 -.927E+03   0.109E-01 -.550E-02 -.754E+01
   0.751E+01 -.413E+01 -.921E+03   -.752E+01 0.412E+01 0.913E+03   0.652E-02 0.553E-02 0.748E+01
   0.101E+02 -.181E+02 -.915E+03   -.102E+02 0.181E+02 0.908E+03   0.152E-01 -.135E-01 0.747E+01
   0.201E+01 0.484E+01 0.935E+03   -.201E+01 -.488E+01 -.928E+03   0.157E-03 0.285E-01 -.755E+01
   -.293E+01 0.148E+02 0.940E+03   0.296E+01 -.149E+02 -.932E+03   -.201E-01 0.751E-01 -.756E+01
   0.429E+01 0.229E+02 -.913E+03   -.428E+01 -.230E+02 0.905E+03   -.980E-02 0.617E-01 0.747E+01
   -.260E+01 0.705E+01 -.918E+03   0.261E+01 -.706E+01 0.910E+03   -.562E-02 0.671E-02 0.748E+01
   0.537E+01 0.244E+02 0.951E+03   -.536E+01 -.248E+02 -.943E+03   -.103E-01 0.295E+00 -.762E+01
   -.993E+01 0.298E+02 0.973E+03   0.102E+02 -.301E+02 -.965E+03   -.191E+00 0.288E+00 -.768E+01
   0.262E+02 0.762E+02 -.855E+03   -.261E+02 -.777E+02 0.848E+03   -.134E+00 0.116E+01 0.739E+01
   -.944E+01 0.450E+02 -.898E+03   0.950E+01 -.451E+02 0.891E+03   -.420E-01 0.777E-01 0.743E+01
   0.164E+02 0.164E+02 0.999E+03   -.164E+02 -.164E+02 -.993E+03   -.263E-02 -.263E-02 -.633E+01
   -.164E+02 -.164E+02 0.999E+03   0.164E+02 0.164E+02 -.993E+03   0.263E-02 0.263E-02 -.633E+01
   0.747E+02 -.747E+02 -.737E+03   -.762E+02 0.762E+02 0.731E+03   0.886E+00 -.886E+00 0.565E+01
   -.747E+02 0.747E+02 -.737E+03   0.762E+02 -.762E+02 0.731E+03   -.886E+00 0.886E+00 0.565E+01
   0.993E+01 -.298E+02 0.973E+03   -.102E+02 0.301E+02 -.965E+03   0.191E+00 -.288E+00 -.768E+01
   -.537E+01 -.244E+02 0.951E+03   0.536E+01 0.248E+02 -.943E+03   0.103E-01 -.295E+00 -.762E+01
   0.944E+01 -.450E+02 -.898E+03   -.950E+01 0.451E+02 0.891E+03   0.420E-01 -.777E-01 0.743E+01
   -.262E+02 -.762E+02 -.855E+03   0.261E+02 0.777E+02 0.848E+03   0.134E+00 -.116E+01 0.739E+01
   0.293E+01 -.148E+02 0.940E+03   -.296E+01 0.149E+02 -.932E+03   0.201E-01 -.751E-01 -.756E+01
   -.201E+01 -.484E+01 0.935E+03   0.201E+01 0.488E+01 -.928E+03   -.157E-03 -.285E-01 -.755E+01
[...]
   -.912E+01 0.540E+01 0.705E+03   0.915E+01 -.542E+01 -.709E+03   -.370E-01 0.321E-01 0.342E+01
   -.229E+01 0.446E+01 0.701E+03   0.229E+01 -.447E+01 -.705E+03   -.147E-03 0.137E-01 0.343E+01
   -.172E+02 0.319E+01 -.686E+03   0.172E+02 -.321E+01 0.691E+03   -.393E-01 0.248E-01 -.356E+01
   -.528E+01 -.196E+01 -.690E+03   0.529E+01 0.196E+01 0.694E+03   -.174E-01 0.171E-02 -.354E+01
   -.111E+02 -.222E+01 0.706E+03   0.111E+02 0.222E+01 -.711E+03   -.752E-01 0.610E-02 0.342E+01
   -.365E+01 0.150E+01 0.703E+03   0.366E+01 -.151E+01 -.707E+03   -.136E-01 0.937E-02 0.343E+01
   -.136E+02 -.762E+01 -.688E+03   0.136E+02 0.762E+01 0.692E+03   -.574E-01 -.997E-02 -.355E+01
   -.308E+01 -.563E+01 -.692E+03   0.309E+01 0.564E+01 0.696E+03   -.190E-01 -.113E-01 -.352E+01
   -.650E+01 -.604E+01 0.703E+03   0.653E+01 0.607E+01 -.707E+03   -.509E-01 -.346E-01 0.343E+01
   -.307E+01 -.381E+01 0.702E+03   0.309E+01 0.381E+01 -.706E+03   -.249E-01 -.107E-01 0.343E+01
   -.584E+01 -.584E+01 -.692E+03   0.586E+01 0.586E+01 0.696E+03   -.259E-01 -.259E-01 -.352E+01
   -.156E+01 -.156E+01 -.693E+03   0.157E+01 0.157E+01 0.698E+03   -.615E-02 -.615E-02 -.351E+01
   -.343E+01 -.162E+01 0.700E+03   0.344E+01 0.163E+01 -.704E+03   -.139E-01 -.141E-01 0.344E+01
   -.162E+01 -.343E+01 0.700E+03   0.163E+01 0.344E+01 -.704E+03   -.141E-01 -.139E-01 0.344E+01
   -.301E-01 0.150E-01 0.694E+01   0.746E-12 0.121E-11 0.955E-11   -.441E-15 0.226E-15 -.759E+01

 POSITION                                       TOTAL-FORCE (eV/Angst)
      9.51248      9.51248     15.90355         0.000000      0.000000      0.210216
      9.51248      9.51248     13.38478         0.000000      0.000000     -0.098734
      0.00000      0.00000      9.00000        -0.001657     -0.001657      0.316835
      2.11389      2.11389      9.00000        -0.006694     -0.006694      0.317204
      0.00000      2.11389     11.11389        -0.003449     -0.002157     -0.300059
      2.11389      0.00000     11.11389        -0.002157     -0.003449     -0.300059
      0.00000      4.22777      9.00000        -0.006273     -0.003341      0.317829
      2.11389      6.34166      9.00000        -0.022357     -0.003976      0.320612
      0.00000      6.34166     11.11389        -0.006007     -0.001032     -0.297276
      2.11389      4.22777     11.11389        -0.011794     -0.004157     -0.296185
      0.00000      8.45554      9.00000        -0.007343     -0.000007      0.319221
      2.11389     10.56943      9.00000        -0.019655      0.005856      0.322397
      0.00000     10.56943     11.11389        -0.001382      0.001581     -0.296193
      2.11389      8.45554     11.11389        -0.013572      0.003039     -0.289705
      0.00000     12.68331      9.00000        -0.001458      0.003037      0.318725
      2.11389     14.79720      9.00000        -0.004996      0.005226      0.319285
      0.00000     14.79720     11.11389         0.001555      0.001719     -0.298721
      2.11389     12.68331     11.11389        -0.002432      0.003923     -0.292214
      0.00000     16.91108      9.00000         0.000475      0.001972      0.317312
      2.11389     19.02497      9.00000        -0.001972     -0.000475      0.317312
      0.00000     19.02497     11.11389         0.000110     -0.000110     -0.300809
      2.11389     16.91108     11.11389        -0.000698      0.000698     -0.298777
      4.22777      0.00000      9.00000        -0.003341     -0.006273      0.317829
      6.34166      2.11389      9.00000        -0.003976     -0.022357      0.320612
      4.22777      2.11389     11.11389        -0.004157     -0.011794     -0.296185
      6.34166      0.00000     11.11389        -0.001032     -0.006007     -0.297276
      4.22777      4.22777      9.00000        -0.019684     -0.019684      0.317585
      6.34166      6.34166      9.00000        -0.063178     -0.063178      0.307796
      4.22777      6.34166     11.11389        -0.043312     -0.001113     -0.279954
      6.34166      4.22777     11.11389        -0.001113     -0.043312     -0.279954
      4.22777      8.45554      9.00000        -0.072567      0.003650      0.336174
      6.34166     10.56943      9.00000        -0.077227      0.060712      0.343738
      4.22777     10.56943     11.11389        -0.012692      0.011567     -0.264530
      6.34166      8.45554     11.11389        -0.311360      0.060228     -0.174974
      4.22777     12.68331      9.00000        -0.022002      0.017318      0.326732
      6.34166     14.79720      9.00000        -0.017318      0.022002      0.326732
      4.22777     14.79720     11.11389        -0.003251      0.003251     -0.289545
      6.34166     12.68331     11.11389        -0.001073      0.001073     -0.232089
      4.22777     16.91108      9.00000        -0.005226      0.004996      0.319285
      6.34166     19.02497      9.00000        -0.003037      0.001458      0.318725
      4.22777     19.02497     11.11389        -0.001719     -0.001555     -0.298721
      6.34166     16.91108     11.11389        -0.003923      0.002432     -0.292214
      8.45554      0.00000      9.00000        -0.000007     -0.007343      0.319221
     10.56943      2.11389      9.00000         0.005856     -0.019655      0.322397
      8.45554      2.11389     11.11389         0.003039     -0.013572     -0.289705
     10.56943      0.00000     11.11389         0.001581     -0.001382     -0.296193
      8.45554      4.22777      9.00000         0.003650     -0.072567      0.336174
     10.56943      6.34166      9.00000         0.060712     -0.077227      0.343738
      8.45554      6.34166     11.11389         0.060228     -0.311360     -0.174974
     10.56943      4.22777     11.11389         0.011567     -0.012692     -0.264530
      8.45554      8.45554      9.00000         0.009127      0.009127      0.018689
     10.56943     10.56943      9.00000        -0.009127     -0.009127      0.018689
      8.45554     10.56943     11.11389        -0.610209      0.610209     -0.517925
     10.56943      8.45554     11.11389         0.610209     -0.610209     -0.517925
      8.45554     12.68331      9.00000        -0.060712      0.077227      0.343738
     10.56943     14.79720      9.00000        -0.003650      0.072567      0.336174
      8.45554     14.79720     11.11389        -0.011567      0.012692     -0.264530
     10.56943     12.68331     11.11389        -0.060228      0.311360     -0.174974
      8.45554     16.91108      9.00000        -0.005856      0.019655      0.322397
     10.56943     19.02497      9.00000         0.000007      0.007343      0.319221
[...]
     19.02497      6.34166     11.11389        -0.000300      0.002711      0.490491
     16.91108      6.34166      9.00000        -0.010186      0.008860     -0.515587
     19.02497      4.22777      9.00000        -0.000024      0.003751     -0.512314
     16.91108      8.45554     11.11389        -0.011319      0.006897      0.481834
     19.02497     10.56943     11.11389        -0.004878      0.000478      0.489161
     16.91108     10.56943      9.00000        -0.020857      0.001661     -0.516264
     19.02497      8.45554      9.00000        -0.003767      0.002594     -0.513625
     16.91108     12.68331     11.11389        -0.016060     -0.002815      0.485454
     19.02497     14.79720     11.11389        -0.005242     -0.003114      0.492280
     16.91108     14.79720      9.00000        -0.014004     -0.009511     -0.512518
     19.02497     12.68331      9.00000        -0.006878     -0.002972     -0.512853
     16.91108     16.91108     11.11389        -0.007101     -0.007101      0.492588
     19.02497     19.02497     11.11389        -0.001684     -0.001684      0.494608
     16.91108     19.02497      9.00000        -0.003799     -0.003878     -0.511489
     19.02497     16.91108      9.00000        -0.003878     -0.003799     -0.511489
    total drift:                               -0.030137      0.014963     -0.655180

  FREE ENERGIE OF THE ION-ELECTRON SYSTEM (eV)
  free  energy   TOTEN  =     -1131.38089748 eV

  energy  without entropy=    -1131.38089748  energy(sigma->0) =    -1131.38089748