 vasp.6.3.0 20Jan22 (build Apr  1 2022 16:44:48) complex
 executed on        HPECrayEX_GCC date 2022.11.18  13:34:21

 INCAR:
   SYSTEM = MgO-rocksalt
   ISMEAR = 0
   SIGMA = 0.05
   EDIFF = 1E-6
   ALGO = ALL
   ISTART = 0
   IBRION = -1
   NSW = 0
   ISYM = 2
   DIPOL = 0.5 0.5 0.5
   IDIPOL = 3
   LDIPOL = .TRUE.
   GGA = ML
   LUSE_VDW = .TRUE.
   ZAB_VDW = -1.8867
   AGGAC = 0.0000
   ENCUT = 520
   PREC = Accurate
   LASPH = .TRUE.
   LREAL = Auto
   ISPIN = 1
   NELM = 200
   NELMIN = 8
   NCORE = 4
   KPAR = 2
   LWAVE = .FALSE.
   LCHARG = .FALSE.

 POTCAR:    PAW_PBE Cu 22Jun2005
 POTCAR:    PAW_PBE Mg_pv 13Apr2007
 POTCAR:    PAW_PBE O 08Apr2002
|               ----> ADVICE to this user running VASP <----                  |
|     You have switched on vdW-DFT.                                           |
|     This routine was written and supplied by Jiri Klimes. We recommend      |
|     that you carefully read and cite the following publications:            |
|       J. Klimes, D.R. Bowler, A. Michelides                                 |
|          J. Phys.: Cond Matt. 22 022201 (2010)                              |
|       J. Klimes, D.R. Bowler, A. Michelides                                 |
|          Phys. Rev. B. 83, 195131 (2011)                                    |
|     and references therein.                                                 |

   TITEL  = PAW_PBE Cu 22Jun2005
   POMASS =   63.546; ZVAL   =   11.000    mass and valenz
   ENMAX  =  295.446; ENMIN  =  221.585 eV

   TITEL  = PAW_PBE Mg_pv 13Apr2007
   POMASS =   24.305; ZVAL   =    8.000    mass and valenz
   ENMAX  =  403.929; ENMIN  =  302.947 eV

   TITEL  = PAW_PBE O 08Apr2002
   POMASS =   16.000; ZVAL   =    6.000    mass and valenz
   ENMAX  =  400.000; ENMIN  =  300.000 eV

 Optimization of the real space projectors (new method)

 maximal supplied QI-value         = 16.25
 optimisation between [QCUT,QGAM] = [ 11.54, 23.24] = [ 37.28,151.24] Ry
 Optimized for a Real-space Cutoff    1.53 Angstroem

   l    n(q)    QCUT    max X(q) W(low)/X(q) W(high)/X(q)  e(spline)
   2     10    11.539     4.610    0.96E-04    0.13E-03    0.19E-06
   2     10    11.539     8.522    0.16E-03    0.21E-03    0.28E-06
   0     11    11.539    51.609    0.45E-04    0.31E-04    0.11E-06
   0     11    11.539    27.747    0.39E-04    0.29E-04    0.10E-06
   1     10    11.539    20.408    0.70E-05    0.38E-04    0.18E-06
   1     10    11.539    13.425    0.66E-05    0.34E-04    0.17E-06
 Optimization of the real space projectors (new method)

[...]

   l    n(q)    QCUT    max X(q) W(low)/X(q) W(high)/X(q)  e(spline)
   1      8    11.527     2.974    0.44E-04    0.56E-04    0.12E-06
   1      8    11.527     4.279    0.12E-03    0.12E-03    0.26E-06
   0      9    11.527    16.381    0.46E-04    0.64E-04    0.78E-07
   0      9    11.527     5.611    0.26E-04    0.43E-04    0.55E-07
   2      8    11.527     4.652    0.22E-03    0.72E-04    0.47E-07
 Optimization of the real space projectors (new method)

 maximal supplied QI-value         = 24.76
 optimisation between [QCUT,QGAM] = [ 11.64, 23.27] = [ 37.91,151.63] Ry
 Optimized for a Real-space Cutoff    1.14 Angstroem

   l    n(q)    QCUT    max X(q) W(low)/X(q) W(high)/X(q)  e(spline)
   0      8    11.635    20.381    0.10E-03    0.33E-03    0.24E-06
   0      8    11.635    15.268    0.11E-03    0.35E-03    0.26E-06
   1      7    11.635     5.964    0.24E-03    0.31E-03    0.30E-06
   1      7    11.635     5.382    0.22E-03    0.25E-03    0.26E-06
|               ----> ADVICE to this user running VASP <----                  |
|     You enforced a specific xc type in the INCAR file but a different       |
|     type was found in the POTCAR file.                                      |
|     I HOPE YOU KNOW WHAT YOU ARE DOING!                                     |

  PAW_PBE Cu 22Jun2005                  :
  PAW_PBE Mg_pv 13Apr2007               :
  PAW_PBE O 08Apr2002                   :

 POSCAR: Cu Mg  O
  positions in direct lattice
 exchange correlation table for  LEXCH =       44
   RHO(1)=    0.500       N(1)  =     2000
   RHO(2)=  100.500       N(2)  =     4000

 ion  position               nearest neighbor table
   1  0.538  0.462  0.618-   2 2.25
   2  0.462  0.538  0.618-   1 2.25
   3  0.000  0.000  0.407- 105 2.11 106 2.11 121 2.11 186 2.11 103 2.11
   4  0.100  0.100  0.407- 105 2.11 106 2.11 110 2.11 125 2.11 104 2.11
   5  0.000  0.100  0.503- 103 2.11 104 2.11 107 2.11 184 2.11 105 2.11
   6  0.100  0.000  0.503- 103 2.11 104 2.11 120 2.11 123 2.11 106 2.11
   7  0.000  0.200  0.407- 109 2.11 105 2.11 110 2.11 190 2.11 107 2.11
   8  0.100  0.300  0.407- 110 2.11 109 2.11 114 2.11 129 2.11 108 2.11
   9  0.000  0.300  0.503- 107 2.11 108 2.11 111 2.11 188 2.11 109 2.11
  10  0.100  0.200  0.503- 108 2.11 107 2.11 104 2.11 127 2.11 110 2.11
  11  0.000  0.400  0.407- 109 2.11 113 2.11 114 2.11 194 2.11 111 2.11
  12  0.100  0.500  0.407- 113 2.11 114 2.11 118 2.11 133 2.11 112 2.11
  13  0.000  0.500  0.503- 111 2.11 112 2.11 115 2.11 192 2.11 113 2.11
  14  0.100  0.400  0.503- 108 2.11 111 2.11 112 2.11 131 2.11 114 2.11
  15  0.000  0.600  0.407- 113 2.11 117 2.11 118 2.11 198 2.11 115 2.11
  16  0.100  0.700  0.407- 122 2.11 118 2.11 117 2.11 137 2.11 116 2.11
  17  0.000  0.700  0.503- 119 2.11 116 2.11 115 2.11 196 2.11 117 2.11
  18  0.100  0.600  0.503- 112 2.11 115 2.11 116 2.11 135 2.11 118 2.11
  19  0.000  0.800  0.407- 117 2.11 121 2.11 122 2.11 202 2.11 119 2.11
  20  0.100  0.900  0.407- 106 2.11 121 2.11 122 2.11 141 2.11 120 2.11
  21  0.000  0.900  0.503- 103 2.11 119 2.11 120 2.11 200 2.11 121 2.11
  22  0.100  0.800  0.503- 116 2.11 119 2.11 120 2.11 139 2.11 122 2.11
  23  0.200  0.000  0.407- 126 2.11 125 2.11 106 2.11 141 2.11 123 2.11
  24  0.300  0.100  0.407- 125 2.11 126 2.11 130 2.11 145 2.11 124 2.11
  25  0.200  0.100  0.503- 124 2.11 123 2.11 104 2.11 127 2.11 125 2.11
  26  0.300  0.000  0.503- 123 2.11 124 2.11 140 2.11 143 2.11 126 2.11
  27  0.200  0.200  0.407- 129 2.11 130 2.11 110 2.11 125 2.11 127 2.11
  28  0.300  0.300  0.407- 129 2.11 130 2.11 134 2.11 149 2.11 128 2.11
  29  0.200  0.300  0.503- 127 2.11 128 2.11 108 2.11 131 2.11 129 2.11
  30  0.300  0.200  0.503- 127 2.11 128 2.11 124 2.11 147 2.11 130 2.11
  31  0.200  0.400  0.407- 134 2.11 129 2.11 133 2.11 114 2.11 131 2.11
  32  0.300  0.500  0.407- 133 2.11 134 2.11 138 2.11 153 2.11 132 2.11
  33  0.200  0.500  0.503- 132 2.11 131 2.11 112 2.11 135 2.11 133 2.11
  34  0.300  0.400  0.503- 131 2.11 128 2.11 132 2.11 151 2.11 134 2.11
  35  0.200  0.600  0.407- 138 2.11 133 2.11 137 2.11 118 2.11 135 2.11
  36  0.300  0.700  0.407- 137 2.11 142 2.11 138 2.11 157 2.11 136 2.11
  37  0.200  0.700  0.503- 136 2.11 139 2.11 116 2.11 135 2.11 137 2.11
  38  0.300  0.600  0.503- 135 2.11 132 2.11 136 2.11 155 2.11 138 2.11
  39  0.200  0.800  0.407- 137 2.11 142 2.11 141 2.11 122 2.11 139 2.11
  40  0.300  0.900  0.407- 141 2.11 126 2.11 142 2.11 161 2.11 140 2.11
  41  0.200  0.900  0.503- 140 2.11 123 2.11 139 2.11 120 2.11 141 2.11
  42  0.300  0.800  0.503- 136 2.11 139 2.11 140 2.11 159 2.11 142 2.11
  43  0.400  0.000  0.407- 126 2.11 145 2.11 146 2.11 161 2.11 143 2.11
  44  0.500  0.100  0.407- 145 2.11 146 2.11 150 2.11 165 2.11 144 2.11
  45  0.400  0.100  0.503- 124 2.11 143 2.11 144 2.11 147 2.11 145 2.11
  46  0.500  0.000  0.503- 143 2.11 144 2.11 160 2.11 163 2.11 146 2.11
  47  0.400  0.200  0.407- 149 2.11 145 2.11 130 2.11 150 2.11 147 2.11
  48  0.500  0.300  0.407- 150 2.11 149 2.11 154 2.11 169 2.11 148 2.11
  49  0.400  0.300  0.503- 147 2.11 128 2.11 148 2.11 151 2.11 149 2.11
  50  0.500  0.200  0.503- 148 2.11 147 2.11 144 2.11 167 2.11 150 2.11
  51  0.400  0.400  0.407- 134 2.11 149 2.11 153 2.11 154 2.11 151 2.11
  52  0.500  0.500  0.407- 153 2.11 154 2.11 158 2.11 173 2.11 152 2.11
  53  0.400  0.500  0.503- 132 2.11 151 2.11 152 2.11 155 2.11 153 2.11
  54  0.500  0.400  0.503- 148 2.11 151 2.11 152 2.11 171 2.11 154 2.11
  55  0.400  0.600  0.407- 138 2.11 153 2.11 157 2.11 158 2.11 155 2.11
  56  0.500  0.700  0.407- 162 2.11 158 2.11 157 2.11 177 2.11 156 2.11
  57  0.400  0.700  0.503- 159 2.11 155 2.11 156 2.11 136 2.11 157 2.11
  58  0.500  0.600  0.503- 152 2.11 155 2.11 156 2.11 175 2.11 158 2.11
  59  0.400  0.800  0.407- 157 2.11 142 2.11 161 2.11 162 2.11 159 2.11
  60  0.500  0.900  0.407- 146 2.11 161 2.11 162 2.11 181 2.11 160 2.11
[...]
 188  0.900  0.300  0.503-  90 2.11  89 2.11   9 2.11  94 2.11  88 2.11
 189  0.800  0.300  0.407-  68 2.11  87 2.11  88 2.11  91 2.11  89 2.11
 190  0.900  0.200  0.407-  88 2.11  84 2.11  87 2.11   7 2.11  90 2.11
 191  0.800  0.400  0.503-  74 2.11  89 2.11  93 2.11  94 2.11  91 2.11
 192  0.900  0.500  0.503-  13 2.11  93 2.11  94 2.11  98 2.11  92 2.11
 193  0.800  0.500  0.407-  72 2.11  91 2.11  92 2.11  95 2.11  93 2.11
 194  0.900  0.400  0.407-  11 2.11  88 2.11  91 2.11  92 2.11  94 2.11
 195  0.800  0.600  0.503-  78 2.11  93 2.11  97 2.11  98 2.11  95 2.11
 196  0.900  0.700  0.503- 102 2.11  97 2.11  98 2.11  17 2.11  96 2.11
 197  0.800  0.700  0.407-  76 2.11  99 2.11  96 2.11  95 2.11  97 2.11
 198  0.900  0.600  0.407-  15 2.11  92 2.11  95 2.11  96 2.11  98 2.11
 199  0.800  0.800  0.503-  82 2.11  97 2.11 101 2.11 102 2.11  99 2.11
 200  0.900  0.900  0.503-  21 2.11  86 2.11 101 2.11 102 2.11 100 2.11
 201  0.800  0.900  0.407-  80 2.11  83 2.11  99 2.11 100 2.11 101 2.11
 202  0.900  0.800  0.407-  96 2.11  19 2.11  99 2.11 100 2.11 102 2.11

  LATTYP: Found a simple tetragonal cell.
 ALAT       =    21.1388521970
 C/A-ratio  =     1.0461251639

  Lattice vectors:

 A1 = (  21.1388521970,   0.0000000000,   0.0000000000)
 A2 = (   0.0000000000,  21.1388521970,   0.0000000000)
 A3 = (   0.0000000000,   0.0000000000,  22.1138852197)

Analysis of symmetry for initial positions (statically):
 Subroutine PRICEL returns:
 Original cell was already a primitive cell.

 Routine SETGRP: Setting up the symmetry group for a
 simple tetragonal supercell.

 Subroutine GETGRP returns: Found  4 space group operations
 (whereof  4 operations were pure point group operations)
 out of a pool of 16 trial point group operations.

The static configuration has the point symmetry C_2v.

Analysis of symmetry for dynamics (positions and initial velocities):
 Subroutine PRICEL returns:
 Original cell was already a primitive cell.

 Routine SETGRP: Setting up the symmetry group for a
 simple tetragonal supercell.

 Subroutine GETGRP returns: Found  4 space group operations
 (whereof  4 operations were pure point group operations)
 out of a pool of 16 trial point group operations.

The dynamic configuration has the point symmetry C_2v.

 Subroutine INISYM returns: Found  4 space group operations
 (whereof  4 operations are pure point group operations),
 and found     1 'primitive' translations

                                     Primitive cell

  volume of cell :    9881.6133

  direct lattice vectors                    reciprocal lattice vectors
    21.138852197  0.000000000  0.000000000     0.047306258  0.000000000  0.000000000
[...]
     52     -43.9782      2.00000
     53     -43.9770      2.00000
     54     -43.9770      2.00000
     55     -43.9768      2.00000
     56     -43.9767      2.00000
     57     -43.9765      2.00000
     58     -43.9751      2.00000
     59     -43.9747      2.00000
     60     -43.9745      2.00000
[...]
   1010       6.7150      0.00000
   1011       6.7339      0.00000
   1012       6.7573      0.00000
   1013       6.7597      0.00000
   1014       6.9040      0.00000
   1015       6.9707      0.00000
   1016       6.9748      0.00000
   1017       7.1449      0.00000
   1018       7.2656      0.00000
   1019       7.3149      0.00000
   1020       7.3407      0.00000
   1021       7.3859      0.00000
   1022       7.4100      0.00000
   1023       7.5223      0.00000
   1024       7.7067      0.00000

 soft charge-density along one line, spin component           1
         0         1         2         3         4         5         6         7         8         9
 total charge-density along one line

------------------------ aborting loop because EDIFF is reached ----------------------------------------

  FORCE on cell =-STRESS in cart. coord.  units (eV):
  Direction    XX          YY          ZZ          XY          YZ          ZX
  Alpha Z  1354.41543  1354.41543  1354.41543
  Ewald  480118.83707480118.83707************  -374.58146     0.00000     0.00000
  Hartree508637.40397508637.40397************  -285.62319    -0.00000    -0.00000
  E(xc)   -8078.87376 -8078.87376 -8087.63856    -0.35256     0.00000    -0.00000
  Local  ************************************   653.95009    -0.00000    -0.00000
  n-local -8885.14729 -8885.14732 -8989.34054     2.02834    -0.00000    -0.00001
  augment  3624.42625  3624.42625  3572.53997     2.27614     0.00000     0.00000
  Kinetic 22980.66341 22980.66342 23193.72528     2.46439     0.00000     0.00000
  Fock        0.00000     0.00000     0.00000     0.00000     0.00000     0.00000
  Total    -123.79338  -123.79338    40.45541     0.16175     0.00000     0.00000
  in kB     -20.07152   -20.07152     6.55933     0.02623     0.00000     0.00000

 VOLUME and BASIS-vectors are now :
  energy-cutoff  :      520.00
  volume of cell :     9881.61
      direct lattice vectors                 reciprocal lattice vectors
    21.138852197  0.000000000  0.000000000     0.047306258  0.000000000  0.000000000
     0.000000000 21.138852197  0.000000000     0.000000000  0.047306258  0.000000000
     0.000000000  0.000000000 22.113885220     0.000000000  0.000000000  0.045220457

  length of vectors
    21.138852197 21.138852197 22.113885220     0.047306258  0.047306258  0.045220457

 FORCES acting on ions:
    Electron-Ion                     Ewald-Force                    Non-Local-Force
   -.249E+03 0.249E+03 -.210E+04   0.243E+03 -.243E+03 0.210E+04   0.640E+01 -.640E+01 -.168E+01
   0.249E+03 -.249E+03 -.210E+04   -.243E+03 0.243E+03 0.210E+04   -.640E+01 0.640E+01 -.168E+01
   -.489E-10 0.112E-08 0.929E+03   0.758E-10 -.173E-08 -.923E+03   0.000E+00 0.000E+00 -.616E+01
   0.392E+01 0.392E+01 0.930E+03   -.391E+01 -.391E+01 -.924E+03   -.301E-02 -.301E-02 -.616E+01
   -.214E+00 0.423E+01 -.921E+03   0.225E+00 -.424E+01 0.915E+03   -.886E-02 0.225E-02 0.613E+01
   0.423E+01 -.214E+00 -.921E+03   -.424E+01 0.225E+00 0.915E+03   0.225E-02 -.886E-02 0.613E+01
   -.286E+00 0.590E+01 0.931E+03   0.305E+00 -.591E+01 -.925E+03   -.151E-01 0.499E-02 -.616E+01
   0.790E+01 0.757E+01 0.934E+03   -.789E+01 -.758E+01 -.927E+03   -.789E-02 0.839E-02 -.616E+01
   -.538E+00 0.772E+01 -.919E+03   0.565E+00 -.773E+01 0.913E+03   -.207E-01 0.325E-02 0.613E+01
   0.704E+01 0.862E+01 -.920E+03   -.703E+01 -.862E+01 0.914E+03   -.121E-01 -.327E-03 0.613E+01
   -.254E+00 0.403E+01 0.934E+03   0.271E+00 -.403E+01 -.928E+03   -.137E-01 0.296E-02 -.616E+01
   0.120E+02 0.327E+00 0.937E+03   -.120E+02 -.343E+00 -.931E+03   0.225E-01 0.124E-01 -.617E+01
   0.150E-09 -.168E-08 -.918E+03   -.231E-09 0.260E-08 0.911E+03   0.000E+00 0.000E+00 0.613E+01
   0.151E+02 0.701E+01 -.916E+03   -.151E+02 -.703E+01 0.910E+03   -.739E-02 0.122E-01 0.613E+01
   0.254E+00 -.403E+01 0.934E+03   -.271E+00 0.403E+01 -.928E+03   0.137E-01 -.296E-02 -.616E+01
   0.873E+01 -.759E+01 0.934E+03   -.877E+01 0.760E+01 -.928E+03   0.385E-01 -.605E-02 -.616E+01
   0.538E+00 -.772E+01 -.919E+03   -.565E+00 0.773E+01 0.913E+03   0.207E-01 -.325E-02 0.613E+01
   0.163E+02 -.637E+01 -.916E+03   -.164E+02 0.636E+01 0.910E+03   0.390E-01 0.736E-02 0.613E+01
   0.286E+00 -.590E+01 0.931E+03   -.305E+00 0.591E+01 -.925E+03   0.151E-01 -.499E-02 -.616E+01
   0.422E+01 -.422E+01 0.930E+03   -.423E+01 0.423E+01 -.924E+03   0.118E-01 -.118E-01 -.616E+01
   0.214E+00 -.423E+01 -.921E+03   -.225E+00 0.424E+01 0.915E+03   0.886E-02 -.225E-02 0.613E+01
   0.802E+01 -.906E+01 -.920E+03   -.805E+01 0.907E+01 0.913E+03   0.273E-01 -.104E-01 0.613E+01
   0.590E+01 -.286E+00 0.931E+03   -.591E+01 0.305E+00 -.925E+03   0.499E-02 -.151E-01 -.616E+01
   0.757E+01 0.790E+01 0.934E+03   -.758E+01 -.789E+01 -.927E+03   0.839E-02 -.789E-02 -.616E+01
   0.862E+01 0.704E+01 -.920E+03   -.862E+01 -.703E+01 0.914E+03   -.327E-03 -.121E-01 0.613E+01
   0.772E+01 -.538E+00 -.919E+03   -.773E+01 0.565E+00 0.913E+03   0.325E-02 -.207E-01 0.613E+01
   0.101E+02 0.101E+02 0.934E+03   -.101E+02 -.101E+02 -.928E+03   0.759E-03 0.759E-03 -.617E+01
   0.200E+02 0.200E+02 0.948E+03   -.200E+02 -.200E+02 -.941E+03   0.210E-01 0.210E-01 -.619E+01
   0.225E+02 0.171E+02 -.914E+03   -.225E+02 -.171E+02 0.907E+03   -.204E-01 0.904E-02 0.612E+01
   0.171E+02 0.225E+02 -.914E+03   -.171E+02 -.225E+02 0.907E+03   0.904E-02 -.204E-01 0.612E+01
   0.215E+02 0.899E+01 0.944E+03   -.216E+02 -.903E+01 -.937E+03   0.103E-01 0.328E-01 -.617E+01
   0.367E+02 0.181E+01 0.968E+03   -.368E+02 -.193E+01 -.962E+03   0.887E-01 0.924E-01 -.618E+01
   0.418E+02 0.188E+01 -.905E+03   -.419E+02 -.194E+01 0.899E+03   0.372E-01 0.413E-01 0.612E+01
   0.596E+02 0.332E+02 -.886E+03   -.595E+02 -.333E+02 0.880E+03   -.674E-01 0.710E-01 0.607E+01
   0.226E+02 -.808E+01 0.945E+03   -.228E+02 0.807E+01 -.939E+03   0.103E+00 0.120E-01 -.617E+01
   0.209E+02 -.209E+02 0.950E+03   -.210E+02 0.210E+02 -.944E+03   0.675E-01 -.675E-01 -.613E+01
   0.251E+02 -.180E+02 -.912E+03   -.252E+02 0.180E+02 0.906E+03   0.910E-01 -.108E-01 0.613E+01
   0.682E+02 -.313E+02 -.878E+03   -.687E+02 0.313E+02 0.872E+03   0.441E+00 0.602E-01 0.616E+01
   0.107E+02 -.107E+02 0.935E+03   -.107E+02 0.107E+02 -.929E+03   0.304E-01 -.304E-01 -.616E+01
   0.759E+01 -.873E+01 0.934E+03   -.760E+01 0.877E+01 -.928E+03   0.605E-02 -.385E-01 -.616E+01
   0.906E+01 -.802E+01 -.920E+03   -.907E+01 0.805E+01 0.913E+03   0.104E-01 -.273E-01 0.613E+01
   0.180E+02 -.251E+02 -.912E+03   -.180E+02 0.252E+02 0.906E+03   0.108E-01 -.910E-01 0.613E+01
   0.403E+01 -.254E+00 0.934E+03   -.403E+01 0.271E+00 -.928E+03   0.296E-02 -.137E-01 -.616E+01
   0.327E+00 0.120E+02 0.937E+03   -.343E+00 -.120E+02 -.931E+03   0.124E-01 0.225E-01 -.617E+01
   0.701E+01 0.151E+02 -.916E+03   -.703E+01 -.151E+02 0.910E+03   0.122E-01 -.739E-02 0.613E+01
   0.150E-09 0.507E-08 -.918E+03   -.231E-09 -.785E-08 0.911E+03   0.000E+00 0.000E+00 0.613E+01
   0.899E+01 0.215E+02 0.944E+03   -.903E+01 -.216E+02 -.937E+03   0.328E-01 0.103E-01 -.617E+01
   0.181E+01 0.367E+02 0.968E+03   -.193E+01 -.368E+02 -.962E+03   0.924E-01 0.887E-01 -.618E+01
   0.332E+02 0.596E+02 -.886E+03   -.333E+02 -.595E+02 0.880E+03   0.710E-01 -.674E-01 0.607E+01
   0.188E+01 0.418E+02 -.905E+03   -.194E+01 -.419E+02 0.899E+03   0.413E-01 0.372E-01 0.612E+01
   0.276E+02 0.276E+02 0.986E+03   -.278E+02 -.278E+02 -.980E+03   0.111E+00 0.111E+00 -.631E+01
   -.121E-08 -.129E-07 0.103E+04   0.187E-08 0.201E-07 -.102E+04   0.000E+00 0.000E+00 -.600E+01
   0.121E+03 0.210E+02 -.752E+03   -.121E+03 -.218E+02 0.746E+03   0.396E+00 0.568E+00 0.565E+01
   0.210E+02 0.121E+03 -.752E+03   -.218E+02 -.121E+03 0.746E+03   0.568E+00 0.396E+00 0.565E+01
   0.267E+02 -.267E+02 0.991E+03   -.267E+02 0.267E+02 -.985E+03   -.686E-02 0.686E-02 -.562E+01
   -.181E+01 -.367E+02 0.968E+03   0.193E+01 0.368E+02 -.962E+03   -.924E-01 -.887E-01 -.618E+01
   0.313E+02 -.682E+02 -.878E+03   -.313E+02 0.687E+02 0.872E+03   -.602E-01 -.441E+00 0.616E+01
   -.210E+02 -.121E+03 -.752E+03   0.218E+02 0.121E+03 0.746E+03   -.568E+00 -.396E+00 0.565E+01
   0.808E+01 -.226E+02 0.945E+03   -.807E+01 0.228E+02 -.939E+03   -.120E-01 -.103E+00 -.617E+01
   -.327E+00 -.120E+02 0.937E+03   0.343E+00 0.120E+02 -.931E+03   -.124E-01 -.225E-01 -.617E+01
[...]
   -.124E+02 0.913E+01 0.708E+03   0.124E+02 -.915E+01 -.712E+03   -.655E-01 0.294E-01 0.362E+01
   -.455E+01 0.534E+01 0.702E+03   0.457E+01 -.535E+01 -.706E+03   -.246E-01 0.154E-01 0.362E+01
   -.281E+02 0.936E+01 -.683E+03   0.281E+02 -.934E+01 0.687E+03   -.759E-01 -.279E-01 -.367E+01
   -.132E+02 -.424E+00 -.689E+03   0.132E+02 0.437E+00 0.693E+03   -.149E-01 -.188E-01 -.367E+01
   -.187E+02 -.647E+00 0.713E+03   0.188E+02 0.683E+00 -.717E+03   -.423E-01 -.504E-01 0.361E+01
   -.842E+01 0.361E+01 0.705E+03   0.844E+01 -.361E+01 -.709E+03   -.326E-01 -.552E-02 0.362E+01
   -.257E+02 -.105E+02 -.684E+03   0.257E+02 0.106E+02 0.688E+03   -.219E-02 -.372E-01 -.369E+01
   -.810E+01 -.734E+01 -.691E+03   0.809E+01 0.735E+01 0.695E+03   0.985E-02 -.618E-02 -.366E+01
   -.116E+02 -.896E+01 0.707E+03   0.116E+02 0.897E+01 -.711E+03   0.126E-02 -.113E-01 0.360E+01
   -.791E+01 -.392E+01 0.705E+03   0.791E+01 0.393E+01 -.709E+03   -.275E-02 -.158E-01 0.361E+01
   -.102E+02 -.102E+02 -.691E+03   0.101E+02 0.101E+02 0.695E+03   0.813E-02 0.813E-02 -.367E+01
   -.361E+01 -.361E+01 -.693E+03   0.361E+01 0.361E+01 0.698E+03   0.448E-02 0.448E-02 -.366E+01
   -.515E+01 -.408E+01 0.701E+03   0.515E+01 0.408E+01 -.706E+03   -.191E-02 0.691E-02 0.361E+01
   -.408E+01 -.515E+01 0.701E+03   0.408E+01 0.515E+01 -.706E+03   0.691E-02 -.191E-02 0.361E+01
   0.145E-06 0.659E-06 0.100E+02   0.412E-12 0.838E-12 0.671E-11   -.213E-15 0.156E-14 -.106E+02

 POSITION                                       TOTAL-FORCE (eV/Angst)
     11.36317      9.77568     13.65917         0.249608     -0.249608      0.213037
      9.77568     11.36317     13.65917        -0.249608      0.249608      0.213037
      0.00000      0.00000      9.00000        -0.000000      0.000000      0.085914
      2.11389      2.11389      9.00000         0.000839      0.000839      0.086312
      0.00000      2.11389     11.11389         0.002429     -0.000621     -0.077640
      2.11389      0.00000     11.11389        -0.000621      0.002429     -0.077640
      0.00000      4.22777      9.00000         0.004095     -0.001409      0.086137
      2.11389      6.34166      9.00000         0.002089     -0.002272      0.087049
      0.00000      6.34166     11.11389         0.005579     -0.000903     -0.076566
      2.11389      4.22777     11.11389         0.003369      0.000215     -0.076570
      0.00000      8.45554      9.00000         0.003596     -0.000828      0.086578
      2.11389     10.56943      9.00000        -0.006152     -0.003693      0.087040
      0.00000     10.56943     11.11389        -0.000000      0.000000     -0.075796
      2.11389      8.45554     11.11389         0.002244     -0.003405     -0.074362
      0.00000     12.68331      9.00000        -0.003596      0.000828      0.086578
      2.11389     14.79720      9.00000        -0.010319      0.001847      0.085987
      0.00000     14.79720     11.11389        -0.005579      0.000903     -0.076566
      2.11389     12.68331     11.11389        -0.010037     -0.002204     -0.075165
      0.00000     16.91108      9.00000        -0.004095      0.001409      0.086137
      2.11389     19.02497      9.00000        -0.003317      0.003317      0.085639
      0.00000     19.02497     11.11389        -0.002429      0.000621     -0.077640
      2.11389     16.91108     11.11389        -0.007378      0.002965     -0.077043
      4.22777      0.00000      9.00000        -0.001409      0.004095      0.086137
      6.34166      2.11389      9.00000        -0.002272      0.002089      0.087049
      4.22777      2.11389     11.11389         0.000215      0.003369     -0.076570
      6.34166      0.00000     11.11389        -0.000903      0.005579     -0.076566
      4.22777      4.22777      9.00000        -0.000041     -0.000041      0.087919
      6.34166      6.34166      9.00000        -0.004895     -0.004895      0.094205
      4.22777      6.34166     11.11389         0.006109     -0.001827     -0.071434
      6.34166      4.22777     11.11389        -0.001827      0.006109     -0.071434
      4.22777      8.45554      9.00000        -0.003488     -0.009260      0.088765
      6.34166     10.56943      9.00000        -0.026941     -0.029907      0.084992
      4.22777     10.56943     11.11389        -0.009817     -0.012704     -0.068135
      6.34166      8.45554     11.11389         0.024248     -0.016297     -0.043418
      4.22777     12.68331      9.00000        -0.026596     -0.003585      0.087399
      6.34166     14.79720      9.00000        -0.022558      0.022558      0.072664
      4.22777     14.79720     11.11389        -0.024424      0.003681     -0.075191
      6.34166     12.68331     11.11389        -0.137351     -0.019638     -0.076590
      4.22777     16.91108      9.00000        -0.008774      0.008774      0.084124
      6.34166     19.02497      9.00000        -0.001847      0.010319      0.085987
      4.22777     19.02497     11.11389        -0.002965      0.007378     -0.077043
      6.34166     16.91108     11.11389        -0.003681      0.024424     -0.075191
      8.45554      0.00000      9.00000        -0.000828      0.003596      0.086578
     10.56943      2.11389      9.00000        -0.003693     -0.006152      0.087040
      8.45554      2.11389     11.11389        -0.003405      0.002244     -0.074362
     10.56943      0.00000     11.11389        -0.000000      0.000000     -0.075796
      8.45554      4.22777      9.00000        -0.009260     -0.003488      0.088765
     10.56943      6.34166      9.00000        -0.029907     -0.026941      0.084992
      8.45554      6.34166     11.11389        -0.016297      0.024248     -0.043418
     10.56943      4.22777     11.11389        -0.012704     -0.009817     -0.068135
      8.45554      8.45554      9.00000        -0.031403     -0.031403      0.114851
     10.56943     10.56943      9.00000        -0.000000      0.000000     -0.017181
      8.45554     10.56943     11.11389        -0.182319     -0.235103     -0.072097
     10.56943      8.45554     11.11389        -0.235103     -0.182319     -0.072097
      8.45554     12.68331      9.00000         0.002864     -0.002864     -0.051324
     10.56943     14.79720      9.00000         0.029907      0.026941      0.084992
      8.45554     14.79720     11.11389         0.019638      0.137351     -0.076590
     10.56943     12.68331     11.11389         0.235103      0.182319     -0.072097
      8.45554     16.91108      9.00000         0.003585      0.026596      0.087399
     10.56943     19.02497      9.00000         0.003693      0.006152      0.087040
[...]
     19.02497      6.34166     11.11389        -0.009476      0.002037      0.471033
     16.91108      6.34166      9.00000        -0.018996      0.008553     -0.478610
     19.02497      4.22777      9.00000        -0.006993      0.004453     -0.480867
     16.91108      8.45554     11.11389        -0.022845     -0.007542      0.468408
     19.02497     10.56943     11.11389        -0.004457     -0.005314      0.468915
     16.91108     10.56943      9.00000        -0.013473     -0.014008     -0.483470
     19.02497      8.45554      9.00000        -0.009438     -0.001434     -0.481219
     16.91108     12.68331     11.11389        -0.001405     -0.010938      0.463315
     19.02497     14.79720     11.11389         0.002705     -0.001807      0.470141
     16.91108     14.79720      9.00000         0.000009     -0.003502     -0.484239
     19.02497     12.68331      9.00000        -0.000950     -0.004569     -0.482595
     16.91108     16.91108     11.11389         0.002149      0.002149      0.469337
     19.02497     19.02497     11.11389         0.001214      0.001214      0.472175
     16.91108     19.02497      9.00000        -0.000618      0.001896     -0.481938
     19.02497     16.91108      9.00000         0.001896     -0.000618     -0.481938
    total drift:                                0.000000      0.000001     -0.536395

  FREE ENERGIE OF THE ION-ELECTRON SYSTEM (eV)
  free  energy   TOTEN  =      -749.77827743 eV

  energy  without entropy=     -749.77827743  energy(sigma->0) =     -749.77827743