 vasp.6.4.0 14Feb23 (build Jul 14 2023 13:46:40) complex

 executed on             LinuxIFC date 2023.07.30  06:17:36

 INCAR:
   SYSTEM = MgO-rocksalt
   ISMEAR = 0
   SIGMA = 0.05
   EDIFF = 1E-6
   ALGO = ALL
   ISTART = 0
   IBRION = -1
   NSW = 0
   ISYM = 2
   DIPOL = 0.5 0.5 0.5
   IDIPOL = 3
   LDIPOL = .TRUE.
   METAGGA = TPSS
   ENCUT = 520
   PREC = Accurate
   LASPH = .TRUE.
   LREAL = Auto
   ISPIN = 1
   NELM = 200
   NELMIN = 8
   NCORE = 16
   KPAR = 1
   LWAVE = .FALSE.
   LCHARG = .FALSE.

 POTCAR:    PAW_PBE Cu 22Jun2005
 POTCAR:    PAW_PBE Mg_pv 13Apr2007
 POTCAR:    PAW_PBE O 08Apr2002
 POTCAR:    PAW_PBE Cu 22Jun2005
   VRHFIN =Cu: d10 p1

   TITEL  = PAW_PBE Cu 22Jun2005
   POMASS =   63.546; ZVAL   =   11.000    mass and valenz
   ENMAX  =  295.446; ENMIN  =  221.585 eV

   TITEL  = PAW_PBE Mg_pv 13Apr2007
   POMASS =   24.305; ZVAL   =    8.000    mass and valenz
   ENMAX  =  403.929; ENMIN  =  302.947 eV

   TITEL  = PAW_PBE O 08Apr2002
   POMASS =   16.000; ZVAL   =    6.000    mass and valenz
   ENMAX  =  400.000; ENMIN  =  300.000 eV

 Optimization of the real space projectors (new method)

 maximal supplied QI-value         = 16.25
 optimisation between [QCUT,QGAM] = [ 11.54, 23.24] = [ 37.28,151.24] Ry
 Optimized for a Real-space Cutoff    1.53 Angstroem

   l    n(q)    QCUT    max X(q) W(low)/X(q) W(high)/X(q)  e(spline)
   2     10    11.539     4.610    0.96E-04    0.13E-03    0.19E-06
   2     10    11.539     8.522    0.16E-03    0.21E-03    0.28E-06
   0     11    11.539    51.609    0.45E-04    0.31E-04    0.11E-06
   0     11    11.539    27.747    0.39E-04    0.29E-04    0.10E-06
   1     10    11.539    20.408    0.70E-05    0.38E-04    0.18E-06
   1     10    11.539    13.425    0.66E-05    0.34E-04    0.17E-06
 Optimization of the real space projectors (new method)

[...]

   l    n(q)    QCUT    max X(q) W(low)/X(q) W(high)/X(q)  e(spline)
   1      8    11.527     2.974    0.44E-04    0.56E-04    0.12E-06
   1      8    11.527     4.279    0.12E-03    0.12E-03    0.26E-06
   0      9    11.527    16.381    0.46E-04    0.64E-04    0.78E-07
   0      9    11.527     5.611    0.26E-04    0.43E-04    0.55E-07
   2      8    11.527     4.652    0.22E-03    0.72E-04    0.47E-07
 Optimization of the real space projectors (new method)

 maximal supplied QI-value         = 24.76
 optimisation between [QCUT,QGAM] = [ 11.64, 23.27] = [ 37.91,151.63] Ry
 Optimized for a Real-space Cutoff    1.14 Angstroem

   l    n(q)    QCUT    max X(q) W(low)/X(q) W(high)/X(q)  e(spline)
   0      8    11.635    20.381    0.10E-03    0.33E-03    0.24E-06
   0      8    11.635    15.268    0.11E-03    0.35E-03    0.26E-06
   1      7    11.635     5.964    0.24E-03    0.31E-03    0.30E-06
   1      7    11.635     5.382    0.22E-03    0.25E-03    0.26E-06
  PAW_PBE Cu 22Jun2005                  :
  PAW_PBE Mg_pv 13Apr2007               :
  PAW_PBE O 08Apr2002                   :

 POSCAR: Cu Mg  O
  positions in direct lattice
  velocities in cartesian coordinates

 METAGGA = TPSS                                        LMAXTAU =  6    LMIXTAU =  F

 ion  position               nearest neighbor table
   1  0.400  0.421  0.593- 153 2.05   2 2.27  55 2.60
   2  0.401  0.506  0.657-   1 2.27   4 2.38   3 2.40
   3  0.401  0.614  0.691-   4 2.27   2 2.40
   4  0.400  0.594  0.590- 157 1.94   3 2.27   2 2.38
   5  0.000  0.000  0.407- 107 2.11 108 2.11 123 2.11 188 2.11 105 2.11
   6  0.100  0.100  0.407- 107 2.11 108 2.11 112 2.11 127 2.11 106 2.11
   7  0.000  0.100  0.503- 105 2.11 106 2.11 109 2.11 186 2.11 107 2.11
   8  0.100  0.000  0.503- 105 2.11 106 2.11 122 2.11 125 2.11 108 2.11
   9  0.000  0.200  0.407- 111 2.11 107 2.11 112 2.11 192 2.11 109 2.11
  10  0.100  0.300  0.407- 112 2.11 111 2.11 116 2.11 131 2.11 110 2.11
  11  0.000  0.300  0.503- 109 2.11 110 2.11 113 2.11 190 2.11 111 2.11
  12  0.100  0.200  0.503- 110 2.11 109 2.11 106 2.11 129 2.11 112 2.11
  13  0.000  0.400  0.407- 111 2.11 115 2.11 116 2.11 196 2.11 113 2.11
  14  0.100  0.500  0.407- 115 2.11 116 2.11 120 2.11 135 2.11 114 2.11
  15  0.000  0.500  0.503- 113 2.11 114 2.11 117 2.11 194 2.11 115 2.11
  16  0.100  0.400  0.503- 110 2.11 113 2.11 114 2.11 133 2.11 116 2.11
  17  0.000  0.600  0.407- 115 2.11 119 2.11 120 2.11 200 2.11 117 2.11
  18  0.100  0.700  0.407- 124 2.11 120 2.11 119 2.11 139 2.11 118 2.11
  19  0.000  0.700  0.503- 121 2.11 118 2.11 117 2.11 198 2.11 119 2.11
  20  0.100  0.600  0.503- 114 2.11 117 2.11 118 2.11 137 2.11 120 2.11
  21  0.000  0.800  0.407- 119 2.11 123 2.11 124 2.11 204 2.11 121 2.11
  22  0.100  0.900  0.407- 108 2.11 123 2.11 124 2.11 143 2.11 122 2.11
  23  0.000  0.900  0.503- 105 2.11 121 2.11 122 2.11 202 2.11 123 2.11
  24  0.100  0.800  0.503- 118 2.11 121 2.11 122 2.11 141 2.11 124 2.11
  25  0.200  0.000  0.407- 128 2.11 127 2.11 108 2.11 143 2.11 125 2.11
  26  0.300  0.100  0.407- 127 2.11 128 2.11 132 2.11 147 2.11 126 2.11
  27  0.200  0.100  0.503- 126 2.11 125 2.11 106 2.11 129 2.11 127 2.11
  28  0.300  0.000  0.503- 125 2.11 126 2.11 142 2.11 145 2.11 128 2.11
  29  0.200  0.200  0.407- 131 2.11 132 2.11 112 2.11 127 2.11 129 2.11
  30  0.300  0.300  0.407- 131 2.11 132 2.11 136 2.11 151 2.11 130 2.11
  31  0.200  0.300  0.503- 129 2.11 130 2.11 110 2.11 133 2.11 131 2.11
  32  0.300  0.200  0.503- 129 2.11 130 2.11 126 2.11 149 2.11 132 2.11
  33  0.200  0.400  0.407- 136 2.11 131 2.11 135 2.11 116 2.11 133 2.11
  34  0.300  0.500  0.407- 135 2.11 136 2.11 140 2.11 155 2.11 134 2.11
  35  0.200  0.500  0.503- 134 2.11 133 2.11 114 2.11 137 2.11 135 2.11
  36  0.300  0.400  0.503- 133 2.11 130 2.11 134 2.11 153 2.11 136 2.11
  37  0.200  0.600  0.407- 140 2.11 135 2.11 139 2.11 120 2.11 137 2.11
  38  0.300  0.700  0.407- 139 2.11 144 2.11 140 2.11 159 2.11 138 2.11
  39  0.200  0.700  0.503- 138 2.11 141 2.11 118 2.11 137 2.11 139 2.11
  40  0.300  0.600  0.503- 137 2.11 134 2.11 138 2.11 157 2.11 140 2.11
  41  0.200  0.800  0.407- 139 2.11 144 2.11 143 2.11 124 2.11 141 2.11
  42  0.300  0.900  0.407- 143 2.11 128 2.11 144 2.11 163 2.11 142 2.11
  43  0.200  0.900  0.503- 142 2.11 125 2.11 141 2.11 122 2.11 143 2.11
  44  0.300  0.800  0.503- 138 2.11 141 2.11 142 2.11 161 2.11 144 2.11
  45  0.400  0.000  0.407- 128 2.11 147 2.11 148 2.11 163 2.11 145 2.11
  46  0.500  0.100  0.407- 147 2.11 148 2.11 152 2.11 167 2.11 146 2.11
  47  0.400  0.100  0.503- 126 2.11 145 2.11 146 2.11 149 2.11 147 2.11
  48  0.500  0.000  0.503- 145 2.11 146 2.11 162 2.11 165 2.11 148 2.11
  49  0.400  0.200  0.407- 151 2.11 147 2.11 132 2.11 152 2.11 149 2.11
  50  0.500  0.300  0.407- 152 2.11 151 2.11 156 2.11 171 2.11 150 2.11
  51  0.400  0.300  0.503- 149 2.11 130 2.11 150 2.11 153 2.11 151 2.11
  52  0.500  0.200  0.503- 150 2.11 149 2.11 146 2.11 169 2.11 152 2.11
  53  0.400  0.400  0.407- 136 2.11 151 2.11 155 2.11 156 2.11 153 2.11
  54  0.500  0.500  0.407- 155 2.11 156 2.11 160 2.11 175 2.11 154 2.11
  55  0.400  0.500  0.503- 134 2.11 153 2.11 154 2.11 157 2.11 155 2.11   1 2.60
  56  0.500  0.400  0.503- 150 2.11 153 2.11 154 2.11 173 2.11 156 2.11
  57  0.400  0.600  0.407- 140 2.11 155 2.11 159 2.11 160 2.11 157 2.11
  58  0.500  0.700  0.407- 164 2.11 160 2.11 159 2.11 179 2.11 158 2.11
  59  0.400  0.700  0.503- 161 2.11 157 2.11 158 2.11 138 2.11 159 2.11
  60  0.500  0.600  0.503- 154 2.11 157 2.11 158 2.11 177 2.11 160 2.11
[...]
 190  0.900  0.300  0.503-  92 2.11  91 2.11  11 2.11  96 2.11  90 2.11
 191  0.800  0.300  0.407-  70 2.11  89 2.11  90 2.11  93 2.11  91 2.11
 192  0.900  0.200  0.407-  90 2.11  86 2.11  89 2.11   9 2.11  92 2.11
 193  0.800  0.400  0.503-  76 2.11  91 2.11  95 2.11  96 2.11  93 2.11
 194  0.900  0.500  0.503-  15 2.11  95 2.11  96 2.11 100 2.11  94 2.11
 195  0.800  0.500  0.407-  74 2.11  93 2.11  94 2.11  97 2.11  95 2.11
 196  0.900  0.400  0.407-  13 2.11  90 2.11  93 2.11  94 2.11  96 2.11
 197  0.800  0.600  0.503-  80 2.11  95 2.11  99 2.11 100 2.11  97 2.11
 198  0.900  0.700  0.503- 104 2.11  99 2.11 100 2.11  19 2.11  98 2.11
 199  0.800  0.700  0.407-  78 2.11 101 2.11  98 2.11  97 2.11  99 2.11
 200  0.900  0.600  0.407-  17 2.11  94 2.11  97 2.11  98 2.11 100 2.11
 201  0.800  0.800  0.503-  84 2.11  99 2.11 103 2.11 104 2.11 101 2.11
 202  0.900  0.900  0.503-  23 2.11  88 2.11 103 2.11 104 2.11 102 2.11
 203  0.800  0.900  0.407-  82 2.11  85 2.11 101 2.11 102 2.11 103 2.11
 204  0.900  0.800  0.407-  98 2.11  21 2.11 101 2.11 102 2.11 104 2.11

  LATTYP: Found a simple tetragonal cell.
 ALAT       =    21.1388521970
 C/A-ratio  =     1.0461251639

  Lattice vectors:

 A1 = (  21.1388521970,   0.0000000000,   0.0000000000)
 A2 = (   0.0000000000,  21.1388521970,   0.0000000000)
 A3 = (   0.0000000000,   0.0000000000,  22.1138852197)

Analysis of symmetry for initial positions (statically):
 Subroutine PRICEL returns:
 Original cell was already a primitive cell.

 Routine SETGRP: Setting up the symmetry group for a
 simple tetragonal supercell.

 Subroutine GETGRP returns: Found  1 space group operations
 (whereof  1 operations were pure point group operations)
 out of a pool of 16 trial point group operations.

The static configuration has the point symmetry C_1 .

Analysis of symmetry for dynamics (positions and initial velocities):
 Subroutine PRICEL returns:
 Original cell was already a primitive cell.

[...]

The dynamic configuration has the point symmetry C_1 .

Analysis of constrained symmetry for selective dynamics:
 Subroutine PRICEL returns:
 Original cell was already a primitive cell.

 Routine SETGRP: Setting up the symmetry group for a
 simple tetragonal supercell.

 Subroutine GETGRP returns: Found  1 space group operations
 (whereof  1 operations were pure point group operations)
 out of a pool of 16 trial point group operations.

The constrained configuration has the point symmetry C_1 .

 Subroutine INISYM returns: Found  1 space group operations
 (whereof  1 operations are pure point group operations),
 and found     1 'primitive' translations

                                     Primitive cell

  volume of cell :    9881.6133

  direct lattice vectors                    reciprocal lattice vectors
    21.138852197  0.000000000  0.000000000     0.047306258  0.000000000  0.000000000
     0.000000000 21.138852197  0.000000000     0.000000000  0.047306258  0.000000000
     0.000000000  0.000000000 22.113885220     0.000000000  0.000000000  0.045220457

  length of vectors
    21.138852197 21.138852197 22.113885220     0.047306258  0.047306258  0.045220457

  position of ions in fractional coordinates (direct lattice)
     0.400229282  0.421328702  0.592894010
     0.400626265  0.505728649  0.656597495
     0.400850837  0.613577871  0.691210184
     0.400248991  0.594204282  0.590315895
     0.000000000  0.000000000  0.406984115
     0.100000000  0.100000000  0.406984115
     0.000000000  0.100000000  0.502574971
     0.100000000  0.000000000  0.502574971
     0.000000000  0.200000000  0.406984115
     0.100000000  0.300000000  0.406984115
     0.000000000  0.300000000  0.502574971
     0.100000000  0.200000000  0.502574971
     0.000000000  0.400000000  0.406984115
[...]
     52   **********      2.00000
     53   **********      2.00000
     54   **********      2.00000
     55   **********      2.00000
     56   **********      2.00000
     57   **********      2.00000
     58   **********      2.00000
     59   **********      2.00000
     60   **********      2.00000
[...]
    882    1050.9588      0.00000
    883    1212.9108      0.00000
    884    1638.5203      0.00000
    885    1698.7361      0.00000
    886    1882.9566      0.00000
    887    2194.0840      0.00000
    888    2276.6539      0.00000
    889    2820.5317      0.00000
    890    3282.4817      0.00000
    891    3684.3243      0.00000
    892    8576.4486      0.00000
    893   10765.8301      0.00000
    894   12829.7314      0.00000
    895   13973.0022      0.00000
    896   24244.4948      0.00000

 soft charge-density along one line, spin component           1
         0         1         2         3         4         5         6         7         8         9
 total charge-density along one line

------------------------ aborting loop because EDIFF is reached ----------------------------------------

  FORCE on cell =-STRESS in cart. coord.  units (eV):
  Direction    XX          YY          ZZ          XY          YZ          ZX
  Alpha Z  1394.80054  1394.80054  1394.80054
  Ewald  481518.80809483945.56047************     3.30592   512.32742     8.74192
  Hartree336350.00687355614.33933************   149.33922    82.61208 -1431.93300
  E(xc)  ************************************ 69149.95224  2528.70559 11168.33805
  Local  ************************829165.62574  -113.05649  -460.29516  1539.81694
  n-local************************************************************************
  augment************************************326928.62905************************
  Kinetic 19050.92807 19380.49650 19374.52027    29.20299     5.06716  -286.34161
  Fock        0.00000     0.00000     0.00000     0.00000     0.00000     0.00000
  Total  ************************************************************************
  in kB  ************************************************************************

 VOLUME and BASIS-vectors are now :
  energy-cutoff  :      520.00
  volume of cell :     9881.61
      direct lattice vectors                 reciprocal lattice vectors
    21.138852197  0.000000000  0.000000000     0.047306258  0.000000000  0.000000000
     0.000000000 21.138852197  0.000000000     0.000000000  0.047306258  0.000000000
     0.000000000  0.000000000 22.113885220     0.000000000  0.000000000  0.045220457

  length of vectors
    21.138852197 21.138852197 22.113885220     0.047306258  0.047306258  0.045220457

 FORCES acting on ions:
    Electron-Ion                     Ewald-Force                    Non-Local-Force
   0.113E+03 0.391E+03 -.195E+04   -.141E+01 -.456E+03 0.201E+04   -.234E+10 -.662E+10 0.505E+09
   0.836E+02 0.275E+03 -.193E+04   0.169E+01 -.262E+03 0.216E+04   0.600E+09 -.196E+10 0.197E+10
   0.714E+02 -.290E+03 -.187E+04   0.270E+01 0.413E+03 0.211E+04   0.333E+10 0.642E+10 0.258E+09
   0.120E+03 -.202E+03 -.177E+04   -.282E+01 0.306E+03 0.176E+04   0.322E+10 -.339E+10 -.517E+10
   -.482E+02 -.266E+02 0.528E+03   -.746E+01 0.229E+01 -.928E+03   -.774E+06 0.329E+09 -.351E+10
   0.130E+03 0.702E+00 0.535E+03   -.138E+02 -.748E+01 -.932E+03   -.186E+09 -.460E+08 -.352E+10
   -.990E+02 0.316E+02 -.567E+03   -.984E+01 -.629E+01 0.911E+03   -.251E+08 -.152E+09 0.280E+10
   0.223E+03 -.655E+02 -.597E+03   -.160E+02 0.429E+01 0.909E+03   -.130E+09 0.120E+09 0.516E+10
   -.533E+02 0.325E+02 0.546E+03   -.105E+02 -.110E+02 -.931E+03   -.132E+09 -.210E+09 -.422E+10
   0.262E+03 0.735E+02 0.589E+03   -.282E+02 -.203E+02 -.943E+03   -.282E+08 -.101E+09 -.423E+10
   0.173E+02 0.463E+02 -.549E+03   -.198E+02 -.167E+02 0.906E+03   -.391E+08 -.279E+09 0.491E+10
   0.218E+03 0.932E+02 -.590E+03   -.257E+02 -.221E+02 0.905E+03   0.560E+08 0.220E+09 0.394E+10
   -.320E+01 0.272E+02 0.549E+03   -.189E+02 -.100E+02 -.938E+03   -.101E+09 -.296E+09 -.504E+10
   0.300E+03 0.149E+02 0.603E+03   -.438E+02 -.416E+01 -.956E+03   0.287E+09 0.351E+08 -.711E+10
   0.408E+02 0.143E+02 -.544E+03   -.306E+02 -.366E+01 0.901E+03   -.569E+08 -.716E+08 0.634E+10
   0.328E+03 0.447E+02 -.586E+03   -.590E+02 -.237E+02 0.890E+03   0.154E+09 -.629E+08 0.778E+10
   -.223E+01 -.646E+01 0.552E+03   -.205E+02 0.593E+01 -.940E+03   0.382E+08 0.180E+07 -.524E+10
   0.286E+03 -.345E+02 0.597E+03   -.334E+02 0.189E+02 -.948E+03   0.303E+09 -.212E+08 -.503E+10
   0.275E+02 -.248E+02 -.545E+03   -.239E+02 0.153E+02 0.904E+03   0.102E+09 0.274E+09 0.509E+10
   0.338E+03 -.150E+02 -.580E+03   -.667E+02 0.144E+02 0.885E+03   0.322E+09 -.223E+08 0.787E+10
   -.217E+02 -.294E+02 0.545E+03   -.126E+02 0.128E+02 -.933E+03   -.544E+07 0.975E+08 -.379E+10
   0.237E+03 -.543E+02 0.569E+03   -.160E+02 0.130E+02 -.934E+03   0.819E+08 0.214E+09 -.468E+10
   -.821E+01 -.562E+02 -.553E+03   -.116E+02 0.114E+02 0.910E+03   -.210E+08 0.197E+09 0.335E+10
   0.294E+03 -.577E+02 -.589E+03   -.333E+02 0.271E+02 0.900E+03   -.173E+09 -.916E+08 0.430E+10
   0.329E+03 -.125E+03 0.651E+03   -.138E+02 0.441E+01 -.935E+03   -.242E+09 0.248E+09 -.469E+10
   0.233E+03 0.332E+02 0.655E+03   -.102E+02 -.155E+02 -.940E+03   -.472E+09 -.223E+09 -.600E+10
   0.302E+03 0.852E+01 -.593E+03   -.198E+02 -.157E+02 0.905E+03   0.805E+08 -.276E+07 0.554E+10
   0.276E+03 -.225E+03 -.699E+03   -.118E+02 0.867E+01 0.902E+03   -.358E+09 0.698E+08 0.665E+10
   0.365E+03 0.161E+03 0.655E+03   -.228E+02 -.257E+02 -.944E+03   -.808E+08 -.278E+09 -.435E+10
   0.329E+03 0.160E+03 0.830E+03   -.312E+02 -.530E+02 -.984E+03   0.186E+08 -.133E+09 -.508E+10
   0.464E+03 0.141E+03 -.656E+03   -.627E+02 -.559E+02 0.880E+03   0.139E+09 0.158E+09 0.492E+10
   0.290E+03 0.278E+03 -.713E+03   -.268E+02 -.612E+02 0.887E+03   -.826E+08 -.350E+08 0.525E+10
   0.482E+03 0.634E+02 0.743E+03   -.543E+02 -.279E+02 -.979E+03   0.538E+09 0.114E+09 -.518E+10
   0.380E+03 0.369E+02 0.899E+03   -.612E+02 -.108E+02 -.105E+04   -.111E+09 0.261E+09 -.713E+10
   0.551E+03 0.276E+02 -.635E+03   -.129E+03 -.135E+02 0.837E+03   0.341E+09 -.286E+09 0.792E+10
   0.419E+03 0.136E+03 -.682E+03   -.160E+03 -.107E+03 0.741E+03   0.621E+09 0.199E+08 0.592E+10
   0.505E+03 -.194E+02 0.749E+03   -.605E+02 0.181E+02 -.987E+03   0.733E+08 -.131E+09 -.638E+10
   0.371E+03 -.787E+02 0.867E+03   -.389E+02 0.532E+02 -.100E+04   0.216E+09 -.290E+09 -.650E+10
   0.520E+03 -.726E+02 -.648E+03   -.822E+02 0.570E+02 0.863E+03   0.214E+09 0.461E+08 0.673E+10
   0.475E+03 -.531E+02 -.638E+03   -.189E+03 0.720E+02 0.698E+03   0.322E+10 0.624E+08 0.161E+11
   0.461E+03 -.770E+02 0.715E+03   -.286E+02 0.311E+02 -.952E+03   0.167E+09 0.526E+08 -.371E+10
   0.326E+03 -.160E+03 0.802E+03   -.124E+02 0.264E+02 -.946E+03   -.187E+09 0.254E+09 -.452E+10
   0.435E+03 -.109E+03 -.662E+03   -.248E+02 0.284E+02 0.900E+03   -.113E+09 0.332E+09 0.555E+10
   0.353E+03 -.133E+03 -.756E+03   -.387E+02 0.819E+02 0.867E+03   0.438E+09 -.116E+09 0.480E+10
   0.160E+03 -.239E+03 0.778E+03   -.449E-01 0.622E+01 -.940E+03   0.116E+09 0.281E+08 -.284E+10
   0.819E+01 0.102E+02 0.701E+03   0.102E+02 -.155E+02 -.941E+03   0.626E+09 -.784E+08 -.637E+10
   0.123E+03 0.273E+02 -.666E+03   -.634E-01 -.262E+02 0.899E+03   0.144E+09 0.206E+09 0.710E+10
   -.773E+01 -.226E+03 -.779E+03   0.117E+02 0.870E+01 0.902E+03   0.473E+09 0.264E+09 0.552E+10
   0.130E+03 0.273E+03 0.795E+03   -.727E-01 -.426E+02 -.959E+03   -.810E+08 0.464E+09 -.471E+10
   -.840E+02 0.152E+03 0.872E+03   0.310E+02 -.531E+02 -.985E+03   0.394E+08 0.199E+08 -.579E+10
   0.112E+03 0.243E+03 -.750E+03   -.335E+00 -.161E+03 0.803E+03   -.287E+09 -.458E+09 0.118E+11
   -.430E+02 0.255E+03 -.768E+03   0.266E+02 -.613E+02 0.887E+03   0.113E+09 -.138E+09 0.503E+10
   0.114E+03 0.108E+03 0.939E+03   -.235E+00 -.555E+02 -.106E+04   0.155E+09 0.411E+07 -.618E+10
   -.126E+03 0.418E+02 0.942E+03   0.609E+02 -.109E+02 -.105E+04   -.587E+08 0.148E+09 -.656E+10
   0.115E+03 0.740E+02 -.569E+03   -.127E+01 -.271E+02 0.509E+03   0.538E+08 -.849E+08 0.418E+10
   -.189E+03 0.141E+03 -.725E+03   0.160E+03 -.108E+03 0.740E+03   -.641E+09 0.712E+08 0.652E+10
   0.118E+03 -.268E+02 0.973E+03   -.293E+00 0.380E+02 -.108E+04   -.739E+08 -.643E+08 -.452E+10
   -.924E+02 -.689E+02 0.912E+03   0.387E+02 0.534E+02 -.100E+04   -.852E+08 -.249E+09 -.495E+10
   0.121E+03 -.182E+03 -.706E+03   -.616E+00 0.190E+03 0.734E+03   0.586E+08 -.443E+09 0.866E+10
   -.230E+03 -.457E+02 -.684E+03   0.189E+03 0.724E+02 0.696E+03   -.359E+10 0.401E+09 0.177E+11
[...]
   -.232E+03 0.240E+02 0.436E+03   0.110E+02 -.982E+01 -.712E+03   -.700E+09 -.432E+10 -.100E+11
   -.198E+03 0.296E+02 0.385E+03   0.344E-01 -.694E+01 -.709E+03   0.118E+10 0.596E+09 -.969E+10
   -.230E+03 0.262E+02 -.576E+03   0.201E+02 -.992E+01 0.689E+03   -.103E+10 -.354E+09 0.939E+10
   -.141E+03 0.126E+02 -.560E+03   0.100E+00 -.216E+01 0.690E+03   0.275E+09 0.113E+10 0.134E+11
   -.255E+03 0.179E+02 0.440E+03   0.161E+02 -.201E+01 -.717E+03   0.359E+10 0.270E+10 -.133E+11
   -.204E+03 0.178E+02 0.367E+03   0.606E-01 -.621E+01 -.712E+03   -.608E+09 0.282E+10 -.913E+10
   -.246E+03 0.289E+01 -.575E+03   0.223E+02 0.576E+01 0.687E+03   0.174E+10 -.237E+10 0.796E+10
   -.149E+03 -.129E+02 -.562E+03   0.850E-01 0.906E+01 0.691E+03   -.187E+10 -.151E+10 0.125E+11
   -.262E+03 -.101E+02 0.450E+03   0.129E+02 0.891E+01 -.714E+03   0.213E+10 -.140E+10 -.153E+11
   -.213E+03 -.746E+00 0.374E+03   0.695E-01 0.360E+01 -.713E+03   -.232E+10 0.423E+09 -.132E+11
   -.237E+03 -.201E+02 -.580E+03   0.128E+02 0.123E+02 0.692E+03   0.702E+09 -.260E+09 0.103E+11
   -.161E+03 -.191E+02 -.565E+03   0.441E-01 0.708E+01 0.695E+03   -.177E+10 0.220E+10 0.525E+10
   -.246E+03 -.257E+02 0.452E+03   0.687E+01 0.676E+01 -.709E+03   -.181E+10 0.280E+10 -.451E+10
   -.218E+03 -.161E+02 0.370E+03   0.459E-01 0.805E+01 -.710E+03   -.468E+09 -.517E+09 -.899E+10
   0.108E+04 0.129E+03 -.395E+04   0.164E-11 -.104E-11 -.762E-11   0.358E+10 0.217E+10 0.862E+11

 POSITION                                       TOTAL-FORCE (eV/Angst)
      8.46039      8.90641     13.11119   ******************************************
      8.46878     10.69052     14.51992   ******************************************
      8.47353     12.97033     15.28534   ******************************************
      8.46080     12.56080     13.05418   ******************************************
      0.00000      0.00000      9.00000   ******************************************
      2.11389      2.11389      9.00000   ******************************************
      0.00000      2.11389     11.11389   ******************************************
      2.11389      0.00000     11.11389   ******************************************
      0.00000      4.22777      9.00000   ******************************************
      2.11389      6.34166      9.00000   ******************************************
      0.00000      6.34166     11.11389   ******************************************
      2.11389      4.22777     11.11389   ******************************************
      0.00000      8.45554      9.00000   ******************************************
      2.11389     10.56943      9.00000   ******************************************
      0.00000     10.56943     11.11389   ******************************************
      2.11389      8.45554     11.11389   ******************************************
      0.00000     12.68331      9.00000   ******************************************
      2.11389     14.79720      9.00000   ******************************************
      0.00000     14.79720     11.11389   ******************************************
      2.11389     12.68331     11.11389   ******************************************
      0.00000     16.91108      9.00000   ******************************************
      2.11389     19.02497      9.00000   ******************************************
      0.00000     19.02497     11.11389   ******************************************
      2.11389     16.91108     11.11389   ******************************************
      4.22777      0.00000      9.00000   ******************************************
      6.34166      2.11389      9.00000   ******************************************
      4.22777      2.11389     11.11389   ******************************************
      6.34166      0.00000     11.11389   ******************************************
      4.22777      4.22777      9.00000   ******************************************
      6.34166      6.34166      9.00000   1060672.846236****************************
      4.22777      6.34166     11.11389   ******************************************
      6.34166      4.22777     11.11389   ******************************************
      4.22777      8.45554      9.00000   ******************************************
      6.34166     10.56943      9.00000   ******************************************
      4.22777     10.56943     11.11389   ******************************************
      6.34166      8.45554     11.11389   **************9261309.405959**************
      4.22777     12.68331      9.00000   ******************************************
      6.34166     14.79720      9.00000   ******************************************
      4.22777     14.79720     11.11389   ******************************************
      6.34166     12.68331     11.11389   ******************************************
      4.22777     16.91108      9.00000   ******************************************
      6.34166     19.02497      9.00000   ******************************************
      4.22777     19.02497     11.11389   ******************************************
      6.34166     16.91108     11.11389   ******************************************
      8.45554      0.00000      9.00000   ******************************************
     10.56943      2.11389      9.00000   ******************************************
      8.45554      2.11389     11.11389   ******************************************
     10.56943      0.00000     11.11389   ******************************************
      8.45554      4.22777      9.00000   ******************************************
     10.56943      6.34166      9.00000   **************9216417.395372**************
      8.45554      6.34166     11.11389   ******************************************
     10.56943      4.22777     11.11389   ******************************************
      8.45554      8.45554      9.00000   ******************************************
     10.56943     10.56943      9.00000   ******************************************
      8.45554     10.56943     11.11389   ******************************************
     10.56943      8.45554     11.11389   ******************************************
      8.45554     12.68331      9.00000   ******************************************
     10.56943     14.79720      9.00000   ******************************************
      8.45554     14.79720     11.11389   ******************************************
     10.56943     12.68331     11.11389   ******************************************
[...]
     19.02497      6.34166     11.11389   ******************************************
     16.91108      6.34166      9.00000   ******************************************
     19.02497      4.22777      9.00000   ******************************************
     16.91108      8.45554     11.11389   ******************************************
     19.02497     10.56943     11.11389   ******************************************
     16.91108     10.56943      9.00000   ******************************************
     19.02497      8.45554      9.00000   ******************************************
     16.91108     12.68331     11.11389   ******************************************
     19.02497     14.79720     11.11389   ******************************************
     16.91108     14.79720      9.00000   ******************************************
     19.02497     12.68331      9.00000   ******************************************
     16.91108     16.91108     11.11389   ******************************************
     19.02497     19.02497     11.11389   ******************************************
     16.91108     19.02497      9.00000   ******************************************
     19.02497     16.91108      9.00000   ******************************************
    total drift:                          ******************************************

  FREE ENERGIE OF THE ION-ELECTRON SYSTEM (eV)
  free  energy   TOTEN  =     -1797.78453410 eV

  energy  without entropy=    -1797.78453410  energy(sigma->0) =    -1797.78453410