 vasp.6.3.0 20Jan22 (build Apr  1 2022 16:44:48) complex
 executed on        HPECrayEX_GCC date 2022.10.30  00:33:19

 INCAR:
   SYSTEM = MgO-rocksalt
   ISMEAR = 0
   SIGMA = 0.05
   EDIFF = 1E-6
   ALGO = ALL
   ISTART = 0
   IBRION = -1
   NSW = 0
   ISYM = 2
   DIPOL = 0.5 0.5 0.5
   IDIPOL = 3
   LDIPOL = .TRUE.
   LHFCALC = .TRUE.
   GGA = PE
   IVDW = 12
   VDW_S8 = 1.2177
   VDW_A1 = 0.4145
   VDW_A2 = 4.8593
   ENCUT = 520
   PREC = Accurate
   LASPH = .TRUE.
   LREAL = Auto
   ISPIN = 1
   NELM = 200
   NELMIN = 8
   NCORE = 4
   KPAR = 2
   LWAVE = .FALSE.
   LCHARG = .FALSE.

 POTCAR:    PAW_PBE Au 04Oct2007
 POTCAR:    PAW_PBE Mg_pv 13Apr2007
 POTCAR:    PAW_PBE O 08Apr2002
|           W    W    AA    RRRRR   N    N  II  N    N   GGGG   !!!           |
|           W    W   A  A   R    R  NN   N  II  NN   N  G    G  !!!           |
|           W    W  A    A  R    R  N N  N  II  N N  N  G       !!!           |
|           W WW W  AAAAAA  RRRRR   N  N N  II  N  N N  G  GGG   !            |
|           WW  WW  A    A  R   R   N   NN  II  N   NN  G    G                |
|           W    W  A    A  R    R  N    N  II  N    N   GGGG   !!!           |
|     You have selected ISYM=2 for a HF type calculation. This will           |
|     symmetrize the charge density but not the exchange potential. I         |
|     suggest to use ISYM=3 instead. This uses symmetry to obtain the         |
|     orbitals at all k-points in the Brillouin zone, but does not apply      |
|     symmetry to the Hartree potential directly. The resultant charge        |
|     might have lower symmetry than the crystal but, at least, Hartree       |
|     and exchange are fully compatible.                                      |

   TITEL  = PAW_PBE Au 04Oct2007
   POMASS =  196.966; ZVAL   =   11.000    mass and valenz
   ENMAX  =  229.943; ENMIN  =  172.457 eV

   TITEL  = PAW_PBE Mg_pv 13Apr2007
   POMASS =   24.305; ZVAL   =    8.000    mass and valenz
   ENMAX  =  403.929; ENMIN  =  302.947 eV

   TITEL  = PAW_PBE O 08Apr2002
   POMASS =   16.000; ZVAL   =    6.000    mass and valenz
   ENMAX  =  400.000; ENMIN  =  300.000 eV

 Optimization of the real space projectors (new method)

 maximal supplied QI-value         = 15.12
 optimisation between [QCUT,QGAM] = [ 11.64, 23.28] = [ 37.95,151.78] Ry
 Optimized for a Real-space Cutoff    1.49 Angstroem

   l    n(q)    QCUT    max X(q) W(low)/X(q) W(high)/X(q)  e(spline)
   2      9    11.641    60.898    0.24E-03    0.10E-03    0.19E-06
   2      9    11.641    58.894    0.25E-03    0.10E-03    0.19E-06
   0     10    11.641   109.617    0.73E-04    0.33E-04    0.11E-06
   0     10    11.641    75.026    0.71E-04    0.32E-04    0.11E-06
   1     10    11.641    16.344    0.27E-04    0.97E-04    0.16E-06
   1     10    11.641    10.160    0.23E-04    0.77E-04    0.13E-06
 Optimization of the real space projectors (new method)

[...]

   l    n(q)    QCUT    max X(q) W(low)/X(q) W(high)/X(q)  e(spline)
   1      8    11.527     2.974    0.44E-04    0.56E-04    0.12E-06
   1      8    11.527     4.279    0.12E-03    0.12E-03    0.26E-06
   0      9    11.527    16.381    0.46E-04    0.64E-04    0.78E-07
   0      9    11.527     5.611    0.26E-04    0.43E-04    0.55E-07
   2      8    11.527     4.652    0.22E-03    0.72E-04    0.47E-07
 Optimization of the real space projectors (new method)

 maximal supplied QI-value         = 24.76
 optimisation between [QCUT,QGAM] = [ 11.64, 23.27] = [ 37.91,151.63] Ry
 Optimized for a Real-space Cutoff    1.14 Angstroem

   l    n(q)    QCUT    max X(q) W(low)/X(q) W(high)/X(q)  e(spline)
   0      8    11.635    20.381    0.10E-03    0.33E-03    0.24E-06
   0      8    11.635    15.268    0.11E-03    0.35E-03    0.26E-06
   1      7    11.635     5.964    0.24E-03    0.31E-03    0.30E-06
   1      7    11.635     5.382    0.22E-03    0.25E-03    0.26E-06
  PAW_PBE Au 04Oct2007                  :
  PAW_PBE Mg_pv 13Apr2007               :
  PAW_PBE O 08Apr2002                   :

 POSCAR: Au Mg  O
  positions in direct lattice
 exchange correlation table for  LEXCH =        8
   RHO(1)=    0.500       N(1)  =     2000
   RHO(2)=  100.500       N(2)  =     4000

 ion  position               nearest neighbor table
   1  0.543  0.557  0.621-   2 2.56  58 2.91
   2  0.457  0.643  0.621-   1 2.56  58 2.91
   3  0.000  0.000  0.407- 105 2.11 106 2.11 121 2.11 186 2.11 103 2.11
   4  0.100  0.100  0.407- 105 2.11 106 2.11 110 2.11 125 2.11 104 2.11
   5  0.000  0.100  0.503- 103 2.11 104 2.11 107 2.11 184 2.11 105 2.11
   6  0.100  0.000  0.503- 103 2.11 104 2.11 120 2.11 123 2.11 106 2.11
   7  0.000  0.200  0.407- 109 2.11 105 2.11 110 2.11 190 2.11 107 2.11
   8  0.100  0.300  0.407- 110 2.11 109 2.11 114 2.11 129 2.11 108 2.11
   9  0.000  0.300  0.503- 107 2.11 108 2.11 111 2.11 188 2.11 109 2.11
  10  0.100  0.200  0.503- 108 2.11 107 2.11 104 2.11 127 2.11 110 2.11
  11  0.000  0.400  0.407- 109 2.11 113 2.11 114 2.11 194 2.11 111 2.11
  12  0.100  0.500  0.407- 113 2.11 114 2.11 118 2.11 133 2.11 112 2.11
  13  0.000  0.500  0.503- 111 2.11 112 2.11 115 2.11 192 2.11 113 2.11
  14  0.100  0.400  0.503- 108 2.11 111 2.11 112 2.11 131 2.11 114 2.11
  15  0.000  0.600  0.407- 113 2.11 117 2.11 118 2.11 198 2.11 115 2.11
  16  0.100  0.700  0.407- 122 2.11 118 2.11 117 2.11 137 2.11 116 2.11
  17  0.000  0.700  0.503- 119 2.11 116 2.11 115 2.11 196 2.11 117 2.11
  18  0.100  0.600  0.503- 112 2.11 115 2.11 116 2.11 135 2.11 118 2.11
  19  0.000  0.800  0.407- 117 2.11 121 2.11 122 2.11 202 2.11 119 2.11
  20  0.100  0.900  0.407- 106 2.11 121 2.11 122 2.11 141 2.11 120 2.11
  21  0.000  0.900  0.503- 103 2.11 119 2.11 120 2.11 200 2.11 121 2.11
  22  0.100  0.800  0.503- 116 2.11 119 2.11 120 2.11 139 2.11 122 2.11
  23  0.200  0.000  0.407- 126 2.11 125 2.11 106 2.11 141 2.11 123 2.11
  24  0.300  0.100  0.407- 125 2.11 126 2.11 130 2.11 145 2.11 124 2.11
  25  0.200  0.100  0.503- 124 2.11 123 2.11 104 2.11 127 2.11 125 2.11
  26  0.300  0.000  0.503- 123 2.11 124 2.11 140 2.11 143 2.11 126 2.11
  27  0.200  0.200  0.407- 129 2.11 130 2.11 110 2.11 125 2.11 127 2.11
  28  0.300  0.300  0.407- 129 2.11 130 2.11 134 2.11 149 2.11 128 2.11
  29  0.200  0.300  0.503- 127 2.11 128 2.11 108 2.11 131 2.11 129 2.11
  30  0.300  0.200  0.503- 127 2.11 128 2.11 124 2.11 147 2.11 130 2.11
  31  0.200  0.400  0.407- 134 2.11 129 2.11 133 2.11 114 2.11 131 2.11
  32  0.300  0.500  0.407- 133 2.11 134 2.11 138 2.11 153 2.11 132 2.11
  33  0.200  0.500  0.503- 132 2.11 131 2.11 112 2.11 135 2.11 133 2.11
  34  0.300  0.400  0.503- 131 2.11 128 2.11 132 2.11 151 2.11 134 2.11
  35  0.200  0.600  0.407- 138 2.11 133 2.11 137 2.11 118 2.11 135 2.11
  36  0.300  0.700  0.407- 137 2.11 142 2.11 138 2.11 157 2.11 136 2.11
  37  0.200  0.700  0.503- 136 2.11 139 2.11 116 2.11 135 2.11 137 2.11
  38  0.300  0.600  0.503- 135 2.11 132 2.11 136 2.11 155 2.11 138 2.11
  39  0.200  0.800  0.407- 137 2.11 142 2.11 141 2.11 122 2.11 139 2.11
  40  0.300  0.900  0.407- 141 2.11 126 2.11 142 2.11 161 2.11 140 2.11
  41  0.200  0.900  0.503- 140 2.11 123 2.11 139 2.11 120 2.11 141 2.11
  42  0.300  0.800  0.503- 136 2.11 139 2.11 140 2.11 159 2.11 142 2.11
  43  0.400  0.000  0.407- 126 2.11 145 2.11 146 2.11 161 2.11 143 2.11
  44  0.500  0.100  0.407- 145 2.11 146 2.11 150 2.11 165 2.11 144 2.11
  45  0.400  0.100  0.503- 124 2.11 143 2.11 144 2.11 147 2.11 145 2.11
  46  0.500  0.000  0.503- 143 2.11 144 2.11 160 2.11 163 2.11 146 2.11
  47  0.400  0.200  0.407- 149 2.11 145 2.11 130 2.11 150 2.11 147 2.11
  48  0.500  0.300  0.407- 150 2.11 149 2.11 154 2.11 169 2.11 148 2.11
  49  0.400  0.300  0.503- 147 2.11 128 2.11 148 2.11 151 2.11 149 2.11
  50  0.500  0.200  0.503- 148 2.11 147 2.11 144 2.11 167 2.11 150 2.11
  51  0.400  0.400  0.407- 134 2.11 149 2.11 153 2.11 154 2.11 151 2.11
  52  0.500  0.500  0.407- 153 2.11 154 2.11 158 2.11 173 2.11 152 2.11
  53  0.400  0.500  0.503- 132 2.11 151 2.11 152 2.11 155 2.11 153 2.11
  54  0.500  0.400  0.503- 148 2.11 151 2.11 152 2.11 171 2.11 154 2.11
  55  0.400  0.600  0.407- 138 2.11 153 2.11 157 2.11 158 2.11 155 2.11
  56  0.500  0.700  0.407- 162 2.11 158 2.11 157 2.11 177 2.11 156 2.11
  57  0.400  0.700  0.503- 159 2.11 155 2.11 156 2.11 136 2.11 157 2.11
  58  0.500  0.600  0.503- 152 2.11 155 2.11 156 2.11 175 2.11 158 2.11   2 2.91   1 2.91
  59  0.400  0.800  0.407- 157 2.11 142 2.11 161 2.11 162 2.11 159 2.11
  60  0.500  0.900  0.407- 146 2.11 161 2.11 162 2.11 181 2.11 160 2.11
[...]
 188  0.900  0.300  0.503-  90 2.11  89 2.11   9 2.11  94 2.11  88 2.11
 189  0.800  0.300  0.407-  68 2.11  87 2.11  88 2.11  91 2.11  89 2.11
 190  0.900  0.200  0.407-  88 2.11  84 2.11  87 2.11   7 2.11  90 2.11
 191  0.800  0.400  0.503-  74 2.11  89 2.11  93 2.11  94 2.11  91 2.11
 192  0.900  0.500  0.503-  13 2.11  93 2.11  94 2.11  98 2.11  92 2.11
 193  0.800  0.500  0.407-  72 2.11  91 2.11  92 2.11  95 2.11  93 2.11
 194  0.900  0.400  0.407-  11 2.11  88 2.11  91 2.11  92 2.11  94 2.11
 195  0.800  0.600  0.503-  78 2.11  93 2.11  97 2.11  98 2.11  95 2.11
 196  0.900  0.700  0.503- 102 2.11  97 2.11  98 2.11  17 2.11  96 2.11
 197  0.800  0.700  0.407-  76 2.11  99 2.11  96 2.11  95 2.11  97 2.11
 198  0.900  0.600  0.407-  15 2.11  92 2.11  95 2.11  96 2.11  98 2.11
 199  0.800  0.800  0.503-  82 2.11  97 2.11 101 2.11 102 2.11  99 2.11
 200  0.900  0.900  0.503-  21 2.11  86 2.11 101 2.11 102 2.11 100 2.11
 201  0.800  0.900  0.407-  80 2.11  83 2.11  99 2.11 100 2.11 101 2.11
 202  0.900  0.800  0.407-  96 2.11  19 2.11  99 2.11 100 2.11 102 2.11

  LATTYP: Found a simple tetragonal cell.
 ALAT       =    21.1388521970
 C/A-ratio  =     1.0461251639

  Lattice vectors:

 A1 = (  21.1388521970,   0.0000000000,   0.0000000000)
 A2 = (   0.0000000000,  21.1388521970,   0.0000000000)
 A3 = (   0.0000000000,   0.0000000000,  22.1138852197)

Analysis of symmetry for initial positions (statically):
 Subroutine PRICEL returns:
 Original cell was already a primitive cell.

 Routine SETGRP: Setting up the symmetry group for a
 simple tetragonal supercell.

 Subroutine GETGRP returns: Found  4 space group operations
 (whereof  1 operations were pure point group operations)
 out of a pool of 16 trial point group operations.

The static configuration has the point symmetry C_1 .
 The point group associated with its full space group is C_2v.

Analysis of symmetry for dynamics (positions and initial velocities):
 Subroutine PRICEL returns:
 Original cell was already a primitive cell.

 Routine SETGRP: Setting up the symmetry group for a
 simple tetragonal supercell.

 Subroutine GETGRP returns: Found  4 space group operations
 (whereof  1 operations were pure point group operations)
 out of a pool of 16 trial point group operations.

The dynamic configuration has the point symmetry C_1 .
 The point group associated with its full space group is C_2v.

 Subroutine INISYM returns: Found  4 space group operations
 (whereof  1 operations are pure point group operations),
 and found     1 'primitive' translations

                                     Primitive cell

  volume of cell :    9881.6133

[...]
[...]
    946       6.6551      0.00000
    947       6.6810      0.00000
    948       6.7122      0.00000
    949       6.7437      0.00000
    950       6.7888      0.00000
    951       6.9037      0.00000
    952       6.9372      0.00000
    953       7.0448      0.00000
    954       7.1360      0.00000
    955       7.1991      0.00000
    956       7.2706      0.00000
    957       7.3003      0.00000
    958       7.4207      0.00000
    959       7.5233      0.00000
    960       7.6358      0.00000

 soft charge-density along one line, spin component           1
         0         1         2         3         4         5         6         7         8         9
 total charge-density along one line

------------------------ aborting loop because EDIFF is reached ----------------------------------------

|           W    W    AA    RRRRR   N    N  II  N    N   GGGG   !!!           |
|           W    W   A  A   R    R  NN   N  II  NN   N  G    G  !!!           |
|           W    W  A    A  R    R  N N  N  II  N N  N  G       !!!           |
|           W WW W  AAAAAA  RRRRR   N  N N  II  N  N N  G  GGG   !            |
|           WW  WW  A    A  R   R   N   NN  II  N   NN  G    G                |
|           W    W  A    A  R    R  N    N  II  N    N   GGGG   !!!           |
|     Specifying the vdW parameters                                           |
|     VDW_A1 = 0.414                                                          |
|     VDW_A2 = 4.859                                                          |
|     VDW_S8 = 1.218                                                          |
|     in the INCAR file will overwrite the defaults for pbe0. Please make     |
|     sure that is what you intended.                                         |

         DFTD3 V3.0 Rev 1
 IVDW         = 12
 DF pbe0
 parameters
 VDW_S6       =    1.0000
 VDW_S8       =    1.2177
 VDW_A1       =    0.4145
 VDW_A2       =    4.8593
 k1-k3        =   16.0000    1.3333   -4.0000
 VDW_RADIUS   =   50.2022 A
 VDW_CNRADIUS =   21.1671 A
 Edisp (eV)  -32.62615

 E6    (eV) :   -16.1127
 E8    (eV) :   -16.5134
 % E8        : 50.61

 VOLUME and BASIS-vectors are now :
  energy-cutoff  :      520.00
  volume of cell :     9881.61
      direct lattice vectors                 reciprocal lattice vectors
    21.138852197  0.000000000  0.000000000     0.047306258  0.000000000  0.000000000
     0.000000000 21.138852197  0.000000000     0.000000000  0.047306258  0.000000000
     0.000000000  0.000000000 22.113885220     0.000000000  0.000000000  0.045220457

  length of vectors
    21.138852197 21.138852197 22.113885220     0.047306258  0.047306258  0.045220457

 FORCES acting on ions:
    Electron-Ion                     Ewald-Force                    Non-Local-Force
   -.193E+03 0.193E+03 -.208E+04   0.188E+03 -.188E+03 0.208E+04   0.477E+01 -.477E+01 -.338E-01
   0.193E+03 -.193E+03 -.208E+04   -.188E+03 0.188E+03 0.208E+04   -.477E+01 0.477E+01 -.338E-01
   0.201E+00 -.347E+01 0.932E+03   -.205E+00 0.348E+01 -.923E+03   0.279E-02 -.300E-02 -.710E+01
   0.347E+01 -.201E+00 0.932E+03   -.348E+01 0.205E+00 -.923E+03   0.300E-02 -.279E-02 -.710E+01
   -.107E-07 -.185E-03 -.924E+03   0.101E-06 -.159E-05 0.915E+03   0.000E+00 0.000E+00 0.706E+01
   0.533E+01 -.533E+01 -.923E+03   -.533E+01 0.533E+01 0.914E+03   0.668E-02 -.668E-02 0.706E+01
   -.201E+00 0.347E+01 0.932E+03   0.205E+00 -.348E+01 -.923E+03   -.279E-02 0.300E-02 -.710E+01
   0.528E+01 0.676E+01 0.934E+03   -.528E+01 -.676E+01 -.925E+03   0.182E-02 0.502E-02 -.710E+01
   -.560E+00 0.719E+01 -.923E+03   0.571E+00 -.720E+01 0.914E+03   -.714E-02 0.382E-02 0.706E+01
   0.473E+01 0.473E+01 -.923E+03   -.473E+01 -.473E+01 0.915E+03   -.354E-03 -.354E-03 0.706E+01
   -.466E+00 0.617E+01 0.935E+03   0.476E+00 -.618E+01 -.926E+03   -.687E-02 0.516E-02 -.710E+01
   0.103E+02 0.522E+01 0.938E+03   -.103E+02 -.523E+01 -.930E+03   0.125E-01 0.816E-02 -.710E+01
   -.538E+00 0.503E+01 -.920E+03   0.548E+00 -.503E+01 0.912E+03   -.686E-02 0.240E-02 0.706E+01
   0.105E+02 0.972E+01 -.920E+03   -.105E+02 -.973E+01 0.912E+03   -.109E-02 0.576E-02 0.706E+01
   0.240E-06 -.188E-03 0.937E+03   -.146E-06 0.155E-05 -.928E+03   0.000E+00 0.000E+00 -.710E+01
   0.111E+02 -.469E+01 0.939E+03   -.112E+02 0.469E+01 -.930E+03   0.266E-01 -.153E-02 -.710E+01
   0.538E+00 -.503E+01 -.920E+03   -.548E+00 0.503E+01 0.912E+03   0.686E-02 -.240E-02 0.706E+01
   0.175E+02 0.738E+00 -.917E+03   -.175E+02 -.747E+00 0.909E+03   0.169E-01 0.633E-02 0.706E+01
   0.466E+00 -.617E+01 0.935E+03   -.476E+00 0.618E+01 -.926E+03   0.687E-02 -.516E-02 -.710E+01
   0.610E+01 -.709E+01 0.934E+03   -.612E+01 0.710E+01 -.926E+03   0.123E-01 -.885E-02 -.710E+01
   0.560E+00 -.719E+01 -.923E+03   -.571E+00 0.720E+01 0.914E+03   0.714E-02 -.382E-02 0.706E+01
   0.124E+02 -.985E+01 -.920E+03   -.124E+02 0.986E+01 0.911E+03   0.222E-01 -.505E-02 0.706E+01
   0.709E+01 -.610E+01 0.934E+03   -.710E+01 0.612E+01 -.926E+03   0.885E-02 -.123E-01 -.710E+01
   0.617E+01 -.466E+00 0.935E+03   -.618E+01 0.476E+00 -.926E+03   0.516E-02 -.687E-02 -.710E+01
   0.719E+01 -.560E+00 -.923E+03   -.720E+01 0.571E+00 0.914E+03   0.382E-02 -.714E-02 0.706E+01
   0.985E+01 -.124E+02 -.920E+03   -.986E+01 0.124E+02 0.911E+03   0.505E-02 -.222E-01 0.706E+01
   0.676E+01 0.528E+01 0.934E+03   -.676E+01 -.528E+01 -.925E+03   0.502E-02 0.182E-02 -.710E+01
   0.117E+02 0.149E+02 0.941E+03   -.117E+02 -.150E+02 -.932E+03   0.158E-01 0.197E-01 -.710E+01
   0.133E+02 0.133E+02 -.920E+03   -.133E+02 -.133E+02 0.911E+03   0.318E-02 0.318E-02 0.706E+01
   0.972E+01 0.105E+02 -.920E+03   -.973E+01 -.105E+02 0.912E+03   0.576E-02 -.109E-02 0.706E+01
   0.149E+02 0.117E+02 0.941E+03   -.150E+02 -.117E+02 -.932E+03   0.197E-01 0.158E-01 -.710E+01
   0.291E+02 0.163E+02 0.962E+03   -.292E+02 -.163E+02 -.953E+03   0.901E-01 0.461E-01 -.713E+01
   0.334E+02 0.141E+02 -.910E+03   -.334E+02 -.142E+02 0.902E+03   0.181E-01 0.188E-01 0.705E+01
   0.320E+02 0.320E+02 -.906E+03   -.321E+02 -.321E+02 0.898E+03   0.197E-01 0.197E-01 0.704E+01
   0.243E+02 0.113E+01 0.949E+03   -.244E+02 -.115E+01 -.940E+03   0.595E-01 0.124E-01 -.711E+01
   0.309E+02 -.145E+02 0.966E+03   -.310E+02 0.145E+02 -.957E+03   0.609E-01 -.249E-01 -.706E+01
   0.374E+02 -.120E+02 -.908E+03   -.375E+02 0.120E+02 0.900E+03   0.708E-01 0.383E-02 0.706E+01
   0.794E+02 0.823E+01 -.871E+03   -.797E+02 -.832E+01 0.863E+03   0.183E+00 0.585E-01 0.706E+01
   0.164E+02 -.120E+02 0.942E+03   -.165E+02 0.120E+02 -.934E+03   0.328E-01 -.178E-01 -.709E+01
   0.120E+02 -.164E+02 0.942E+03   -.120E+02 0.165E+02 -.934E+03   0.178E-01 -.328E-01 -.709E+01
   0.149E+02 -.149E+02 -.919E+03   -.149E+02 0.149E+02 0.910E+03   0.189E-01 -.189E-01 0.706E+01
   0.369E+02 -.369E+02 -.900E+03   -.370E+02 0.370E+02 0.892E+03   0.557E-01 -.557E-01 0.707E+01
   0.469E+01 -.111E+02 0.939E+03   -.469E+01 0.112E+02 -.930E+03   0.153E-02 -.266E-01 -.710E+01
   0.236E-06 -.182E-03 0.937E+03   -.139E-06 -.416E-05 -.928E+03   0.000E+00 0.000E+00 -.710E+01
   0.503E+01 -.538E+00 -.920E+03   -.503E+01 0.548E+00 0.912E+03   0.240E-02 -.686E-02 0.706E+01
   -.738E+00 -.175E+02 -.917E+03   0.747E+00 0.175E+02 0.909E+03   -.633E-02 -.169E-01 0.706E+01
   0.522E+01 0.103E+02 0.938E+03   -.523E+01 -.103E+02 -.930E+03   0.816E-02 0.125E-01 -.710E+01
   0.113E+01 0.243E+02 0.949E+03   -.115E+01 -.244E+02 -.940E+03   0.124E-01 0.595E-01 -.711E+01
   0.141E+02 0.334E+02 -.910E+03   -.142E+02 -.334E+02 0.902E+03   0.188E-01 0.181E-01 0.705E+01
   0.738E+00 0.175E+02 -.917E+03   -.747E+00 -.175E+02 0.909E+03   0.633E-02 0.169E-01 0.706E+01
   0.163E+02 0.291E+02 0.962E+03   -.163E+02 -.292E+02 -.953E+03   0.461E-01 0.901E-01 -.713E+01
   0.314E+01 0.312E+02 0.100E+04   -.309E+01 -.313E+02 -.995E+03   -.265E-01 0.759E-01 -.688E+01
   0.711E+02 0.711E+02 -.838E+03   -.714E+02 -.714E+02 0.830E+03   0.204E+00 0.204E+00 0.690E+01
   0.823E+01 0.794E+02 -.871E+03   -.832E+01 -.797E+02 0.863E+03   0.585E-01 0.183E+00 0.706E+01
   0.312E+02 0.314E+01 0.100E+04   -.313E+02 -.309E+01 -.995E+03   0.759E-01 -.265E-01 -.688E+01
   -.314E+01 -.312E+02 0.100E+04   0.309E+01 0.313E+02 -.995E+03   0.265E-01 -.759E-01 -.688E+01
   0.782E+02 -.782E+02 -.794E+03   -.784E+02 0.784E+02 0.786E+03   0.651E-01 -.651E-01 0.667E+01
   -.223E-04 -.243E-03 -.658E+03   0.225E-04 0.543E-04 0.653E+03   0.000E+00 0.000E+00 0.440E+01
   0.145E+02 -.309E+02 0.966E+03   -.145E+02 0.310E+02 -.957E+03   0.249E-01 -.609E-01 -.706E+01
   -.113E+01 -.243E+02 0.949E+03   0.115E+01 0.244E+02 -.940E+03   -.124E-01 -.595E-01 -.711E+01
[...]
   -.800E+01 0.800E+01 0.704E+03   0.801E+01 -.801E+01 -.708E+03   -.190E-01 0.190E-01 0.309E+01
   -.318E+01 0.317E+01 0.701E+03   0.318E+01 -.318E+01 -.705E+03   -.702E-02 0.702E-02 0.309E+01
   -.190E+02 0.134E+02 -.687E+03   0.191E+02 -.135E+02 0.691E+03   -.385E-01 0.238E-01 -.313E+01
   -.123E+02 0.466E+01 -.690E+03   0.123E+02 -.466E+01 0.694E+03   -.203E-01 -.212E-03 -.313E+01
   -.167E+02 0.581E+01 0.712E+03   0.168E+02 -.581E+01 -.716E+03   -.509E-01 0.807E-02 0.310E+01
   -.657E+01 0.563E+01 0.704E+03   0.658E+01 -.564E+01 -.708E+03   -.188E-01 0.951E-02 0.309E+01
   -.309E+02 -.183E+01 -.681E+03   0.310E+02 0.185E+01 0.685E+03   -.416E-01 -.256E-01 -.315E+01
   -.111E+02 -.530E+01 -.690E+03   0.111E+02 0.531E+01 0.694E+03   -.695E-02 -.966E-02 -.314E+01
   -.157E+02 -.671E+01 0.710E+03   0.157E+02 0.673E+01 -.714E+03   -.295E-01 -.228E-01 0.308E+01
   -.884E+01 -.322E+00 0.706E+03   0.885E+01 0.327E+00 -.710E+03   -.178E-01 -.613E-02 0.308E+01
   -.165E+02 -.126E+02 -.688E+03   0.165E+02 0.127E+02 0.692E+03   -.969E-02 -.123E-01 -.315E+01
   -.514E+01 -.639E+01 -.693E+03   0.514E+01 0.639E+01 0.697E+03   0.546E-03 -.344E-02 -.313E+01
   -.737E+01 -.737E+01 0.703E+03   0.738E+01 0.738E+01 -.707E+03   -.938E-02 -.938E-02 0.308E+01
   -.574E+01 -.561E+01 0.703E+03   0.574E+01 0.562E+01 -.707E+03   -.471E-02 -.878E-02 0.308E+01
   -.142E-04 -.110E+00 0.918E+01   0.189E-11 0.696E-12 -.557E-11   -.176E-15 -.104E-16 -.856E+01

 POSITION                                       TOTAL-FORCE (eV/Angst)
     11.47450     11.77823     13.73072        -0.095918      0.095918      0.029365
      9.66435     13.58839     13.73072         0.095918     -0.095918      0.029365
      0.00000      0.00000      9.00000        -0.000888      0.000967      0.604275
      2.11389      2.11389      9.00000        -0.000967      0.000888      0.604275
      0.00000      2.11389     11.11389        -0.000000     -0.000000     -0.595270
      2.11389      0.00000     11.11389        -0.002095      0.002095     -0.595066
      0.00000      4.22777      9.00000         0.000888     -0.000967      0.604275
      2.11389      6.34166      9.00000        -0.000523     -0.001566      0.604877
      0.00000      6.34166     11.11389         0.002252     -0.001183     -0.594643
      2.11389      4.22777     11.11389         0.000171      0.000171     -0.594643
      0.00000      8.45554      9.00000         0.002111     -0.001659      0.604535
      2.11389     10.56943      9.00000        -0.003741     -0.002635      0.605349
      0.00000     10.56943     11.11389         0.002116     -0.000728     -0.593364
      2.11389      8.45554     11.11389         0.000735     -0.001659     -0.592600
      0.00000     12.68331      9.00000        -0.000000     -0.000000      0.604787
      2.11389     14.79720      9.00000        -0.007893      0.000455      0.604751
      0.00000     14.79720     11.11389        -0.002116      0.000728     -0.593364
      2.11389     12.68331     11.11389        -0.004242     -0.002140     -0.591735
      0.00000     16.91108      9.00000        -0.002111      0.001659      0.604535
      2.11389     19.02497      9.00000        -0.003880      0.002841      0.603944
      0.00000     19.02497     11.11389        -0.002252      0.001183     -0.594643
      2.11389     16.91108     11.11389        -0.006592      0.001539     -0.593853
      4.22777      0.00000      9.00000        -0.002841      0.003880      0.603944
      6.34166      2.11389      9.00000        -0.001659      0.002111      0.604535
      4.22777      2.11389     11.11389        -0.001183      0.002252     -0.594643
      6.34166      0.00000     11.11389        -0.001539      0.006592     -0.593853
      4.22777      4.22777      9.00000        -0.001566     -0.000523      0.604877
      6.34166      6.34166      9.00000        -0.004805     -0.005842      0.606748
      4.22777      6.34166     11.11389        -0.000558     -0.000558     -0.591665
      6.34166      4.22777     11.11389        -0.001659      0.000735     -0.592600
      4.22777      8.45554      9.00000        -0.005842     -0.004805      0.606748
      6.34166     10.56943      9.00000        -0.026941     -0.015140      0.613331
      4.22777     10.56943     11.11389        -0.001772     -0.005002     -0.584655
      6.34166      8.45554     11.11389        -0.001480     -0.001480     -0.576338
      4.22777     12.68331      9.00000        -0.017523     -0.004268      0.606961
      6.34166     14.79720      9.00000        -0.016477      0.007893      0.595270
      4.22777     14.79720     11.11389        -0.019595     -0.002325     -0.589084
      6.34166     12.68331     11.11389        -0.054635     -0.017961     -0.559637
      4.22777     16.91108      9.00000        -0.010113      0.005805      0.603039
      6.34166     19.02497      9.00000        -0.005805      0.010113      0.603039
      4.22777     19.02497     11.11389        -0.005631      0.005631     -0.594129
      6.34166     16.91108     11.11389        -0.012378      0.012378     -0.590691
      8.45554      0.00000      9.00000        -0.000455      0.007893      0.604751
     10.56943      2.11389      9.00000        -0.000000     -0.000000      0.604787
      8.45554      2.11389     11.11389        -0.000728      0.002116     -0.593364
     10.56943      0.00000     11.11389         0.002140      0.004242     -0.591735
      8.45554      4.22777      9.00000        -0.002635     -0.003741      0.605349
     10.56943      6.34166      9.00000        -0.004268     -0.017523      0.606961
      8.45554      6.34166     11.11389        -0.005002     -0.001772     -0.584655
     10.56943      4.22777     11.11389        -0.002140     -0.004242     -0.591735
      8.45554      8.45554      9.00000        -0.015140     -0.026941      0.613331
     10.56943     10.56943      9.00000         0.014765     -0.017733      0.539240
      8.45554     10.56943     11.11389        -0.034087     -0.034087     -0.435711
     10.56943      8.45554     11.11389        -0.017961     -0.054635     -0.559637
      8.45554     12.68331      9.00000        -0.017733      0.014765      0.539240
     10.56943     14.79720      9.00000        -0.014765      0.017733      0.539240
      8.45554     14.79720     11.11389        -0.067335      0.067335     -0.677267
     10.56943     12.68331     11.11389        -0.000000     -0.000000     -0.288978
      8.45554     16.91108      9.00000        -0.007893      0.016477      0.595270
     10.56943     19.02497      9.00000         0.004268      0.017523      0.606961
[...]
     19.02497      6.34166     11.11389        -0.004397      0.003362      0.406369
     16.91108      6.34166      9.00000        -0.006378      0.006378     -0.415393
     19.02497      4.22777      9.00000        -0.002333      0.002333     -0.416015
     16.91108      8.45554     11.11389        -0.013258      0.008221      0.406071
     19.02497     10.56943     11.11389        -0.006902     -0.000030      0.404460
     16.91108     10.56943      9.00000        -0.017356      0.002691     -0.412895
     19.02497      8.45554      9.00000        -0.006290      0.003180     -0.415872
     16.91108     12.68331     11.11389        -0.015167     -0.008599      0.398794
     19.02497     14.79720     11.11389        -0.002440     -0.003248      0.403127
     16.91108     14.79720      9.00000        -0.010186     -0.007727     -0.419204
     19.02497     12.68331      9.00000        -0.005975     -0.002027     -0.416848
     16.91108     16.91108     11.11389        -0.003559     -0.004259      0.399878
     19.02497     19.02497     11.11389         0.000150     -0.001173      0.405287
     16.91108     19.02497      9.00000        -0.003162     -0.003162     -0.417543
     19.02497     16.91108      9.00000        -0.001583     -0.002943     -0.417131
    total drift:                               -0.000014     -0.109529     -0.521710

  FREE ENERGIE OF THE ION-ELECTRON SYSTEM (eV)
  free  energy   TOTEN  =     -1455.86805375 eV

  energy  without entropy=    -1455.86805375  energy(sigma->0) =    -1455.86805375