 vasp.6.3.0 20Jan22 (build Apr  1 2022 16:44:48) complex
 executed on        HPECrayEX_GCC date 2022.08.15  21:41:05

 INCAR:
   SYSTEM = MgO-rocksalt
   ISMEAR = 0
   SIGMA = 0.05
   EDIFF = 1E-6
   ALGO = ALL
   ISTART = 0
   IBRION = -1
   NSW = 0
   ISYM = 2
   DIPOL = 0.5 0.5 0.5
   IDIPOL = 3
   LDIPOL = .TRUE.
   GGA = ML
   LUSE_VDW = .TRUE.
   ZAB_VDW = -1.8867
   AGGAC = 0.0000
   ENCUT = 520
   PREC = Accurate
   LASPH = .TRUE.
   LREAL = Auto
   ISPIN = 1
   NELM = 200
   NELMIN = 8
   NCORE = 4
   KPAR = 2
   LWAVE = .FALSE.
   LCHARG = .FALSE.

 POTCAR:    PAW_PBE Ag 02Apr2005
 POTCAR:    PAW_PBE Mg_pv 13Apr2007
 POTCAR:    PAW_PBE O 08Apr2002
|               ----> ADVICE to this user running VASP <----                  |
|     You have switched on vdW-DFT.                                           |
|     This routine was written and supplied by Jiri Klimes. We recommend      |
|     that you carefully read and cite the following publications:            |
|       J. Klimes, D.R. Bowler, A. Michelides                                 |
|          J. Phys.: Cond Matt. 22 022201 (2010)                              |
|       J. Klimes, D.R. Bowler, A. Michelides                                 |
|          Phys. Rev. B. 83, 195131 (2011)                                    |
|     and references therein.                                                 |

   TITEL  = PAW_PBE Ag 02Apr2005
   POMASS =  107.868; ZVAL   =   11.000    mass and valenz
   ENMAX  =  249.844; ENMIN  =  187.383 eV

   TITEL  = PAW_PBE Mg_pv 13Apr2007
   POMASS =   24.305; ZVAL   =    8.000    mass and valenz
   ENMAX  =  403.929; ENMIN  =  302.947 eV

   TITEL  = PAW_PBE O 08Apr2002
   POMASS =   16.000; ZVAL   =    6.000    mass and valenz
   ENMAX  =  400.000; ENMIN  =  300.000 eV

 Optimization of the real space projectors (new method)

 maximal supplied QI-value         = 15.12
 optimisation between [QCUT,QGAM] = [ 11.64, 23.28] = [ 37.95,151.78] Ry
 Optimized for a Real-space Cutoff    1.45 Angstroem

   l    n(q)    QCUT    max X(q) W(low)/X(q) W(high)/X(q)  e(spline)
   2      9    11.641    53.897    0.22E-03    0.42E-04    0.28E-06
   2      9    11.641    52.416    0.23E-03    0.44E-04    0.29E-06
   0     10    11.641   122.045    0.51E-04    0.25E-04    0.16E-06
   0     10    11.641    73.629    0.49E-04    0.24E-04    0.16E-06
   1     10    11.641    15.255    0.99E-04    0.55E-04    0.11E-06
   1     10    11.641     9.562    0.81E-04    0.47E-04    0.95E-07
 Optimization of the real space projectors (new method)

[...]

   l    n(q)    QCUT    max X(q) W(low)/X(q) W(high)/X(q)  e(spline)
   1      8    11.527     2.974    0.44E-04    0.56E-04    0.12E-06
   1      8    11.527     4.279    0.12E-03    0.12E-03    0.26E-06
   0      9    11.527    16.381    0.46E-04    0.64E-04    0.78E-07
   0      9    11.527     5.611    0.26E-04    0.43E-04    0.55E-07
   2      8    11.527     4.652    0.22E-03    0.72E-04    0.47E-07
 Optimization of the real space projectors (new method)

 maximal supplied QI-value         = 24.76
 optimisation between [QCUT,QGAM] = [ 11.64, 23.27] = [ 37.91,151.63] Ry
 Optimized for a Real-space Cutoff    1.14 Angstroem

   l    n(q)    QCUT    max X(q) W(low)/X(q) W(high)/X(q)  e(spline)
   0      8    11.635    20.381    0.10E-03    0.33E-03    0.24E-06
   0      8    11.635    15.268    0.11E-03    0.35E-03    0.26E-06
   1      7    11.635     5.964    0.24E-03    0.31E-03    0.30E-06
   1      7    11.635     5.382    0.22E-03    0.25E-03    0.26E-06
|               ----> ADVICE to this user running VASP <----                  |
|     You enforced a specific xc type in the INCAR file but a different       |
|     type was found in the POTCAR file.                                      |
|     I HOPE YOU KNOW WHAT YOU ARE DOING!                                     |

  PAW_PBE Ag 02Apr2005                  :
  PAW_PBE Mg_pv 13Apr2007               :
  PAW_PBE O 08Apr2002                   :

 POSCAR: Ag Mg  O
  positions in direct lattice
 exchange correlation table for  LEXCH =       44
   RHO(1)=    0.500       N(1)  =     2000
   RHO(2)=  100.500       N(2)  =     4000

 ion  position               nearest neighbor table
   1  0.543  0.557  0.623-   2 2.59  58 2.97
   2  0.457  0.643  0.623-   1 2.59  58 2.97
   3  0.000  0.000  0.407- 105 2.11 106 2.11 121 2.11 186 2.11 103 2.11
   4  0.100  0.100  0.407- 105 2.11 106 2.11 110 2.11 125 2.11 104 2.11
   5  0.000  0.100  0.503- 103 2.11 104 2.11 107 2.11 184 2.11 105 2.11
   6  0.100  0.000  0.503- 103 2.11 104 2.11 120 2.11 123 2.11 106 2.11
   7  0.000  0.200  0.407- 109 2.11 105 2.11 110 2.11 190 2.11 107 2.11
   8  0.100  0.300  0.407- 110 2.11 109 2.11 114 2.11 129 2.11 108 2.11
   9  0.000  0.300  0.503- 107 2.11 108 2.11 111 2.11 188 2.11 109 2.11
  10  0.100  0.200  0.503- 108 2.11 107 2.11 104 2.11 127 2.11 110 2.11
  11  0.000  0.400  0.407- 109 2.11 113 2.11 114 2.11 194 2.11 111 2.11
  12  0.100  0.500  0.407- 113 2.11 114 2.11 118 2.11 133 2.11 112 2.11
  13  0.000  0.500  0.503- 111 2.11 112 2.11 115 2.11 192 2.11 113 2.11
  14  0.100  0.400  0.503- 108 2.11 111 2.11 112 2.11 131 2.11 114 2.11
  15  0.000  0.600  0.407- 113 2.11 117 2.11 118 2.11 198 2.11 115 2.11
  16  0.100  0.700  0.407- 122 2.11 118 2.11 117 2.11 137 2.11 116 2.11
  17  0.000  0.700  0.503- 119 2.11 116 2.11 115 2.11 196 2.11 117 2.11
  18  0.100  0.600  0.503- 112 2.11 115 2.11 116 2.11 135 2.11 118 2.11
  19  0.000  0.800  0.407- 117 2.11 121 2.11 122 2.11 202 2.11 119 2.11
  20  0.100  0.900  0.407- 106 2.11 121 2.11 122 2.11 141 2.11 120 2.11
  21  0.000  0.900  0.503- 103 2.11 119 2.11 120 2.11 200 2.11 121 2.11
  22  0.100  0.800  0.503- 116 2.11 119 2.11 120 2.11 139 2.11 122 2.11
  23  0.200  0.000  0.407- 126 2.11 125 2.11 106 2.11 141 2.11 123 2.11
  24  0.300  0.100  0.407- 125 2.11 126 2.11 130 2.11 145 2.11 124 2.11
  25  0.200  0.100  0.503- 124 2.11 123 2.11 104 2.11 127 2.11 125 2.11
  26  0.300  0.000  0.503- 123 2.11 124 2.11 140 2.11 143 2.11 126 2.11
  27  0.200  0.200  0.407- 129 2.11 130 2.11 110 2.11 125 2.11 127 2.11
  28  0.300  0.300  0.407- 129 2.11 130 2.11 134 2.11 149 2.11 128 2.11
  29  0.200  0.300  0.503- 127 2.11 128 2.11 108 2.11 131 2.11 129 2.11
  30  0.300  0.200  0.503- 127 2.11 128 2.11 124 2.11 147 2.11 130 2.11
  31  0.200  0.400  0.407- 134 2.11 129 2.11 133 2.11 114 2.11 131 2.11
  32  0.300  0.500  0.407- 133 2.11 134 2.11 138 2.11 153 2.11 132 2.11
  33  0.200  0.500  0.503- 132 2.11 131 2.11 112 2.11 135 2.11 133 2.11
  34  0.300  0.400  0.503- 131 2.11 128 2.11 132 2.11 151 2.11 134 2.11
  35  0.200  0.600  0.407- 138 2.11 133 2.11 137 2.11 118 2.11 135 2.11
  36  0.300  0.700  0.407- 137 2.11 142 2.11 138 2.11 157 2.11 136 2.11
  37  0.200  0.700  0.503- 136 2.11 139 2.11 116 2.11 135 2.11 137 2.11
  38  0.300  0.600  0.503- 135 2.11 132 2.11 136 2.11 155 2.11 138 2.11
  39  0.200  0.800  0.407- 137 2.11 142 2.11 141 2.11 122 2.11 139 2.11
  40  0.300  0.900  0.407- 141 2.11 126 2.11 142 2.11 161 2.11 140 2.11
  41  0.200  0.900  0.503- 140 2.11 123 2.11 139 2.11 120 2.11 141 2.11
  42  0.300  0.800  0.503- 136 2.11 139 2.11 140 2.11 159 2.11 142 2.11
  43  0.400  0.000  0.407- 126 2.11 145 2.11 146 2.11 161 2.11 143 2.11
  44  0.500  0.100  0.407- 145 2.11 146 2.11 150 2.11 165 2.11 144 2.11
  45  0.400  0.100  0.503- 124 2.11 143 2.11 144 2.11 147 2.11 145 2.11
  46  0.500  0.000  0.503- 143 2.11 144 2.11 160 2.11 163 2.11 146 2.11
  47  0.400  0.200  0.407- 149 2.11 145 2.11 130 2.11 150 2.11 147 2.11
  48  0.500  0.300  0.407- 150 2.11 149 2.11 154 2.11 169 2.11 148 2.11
  49  0.400  0.300  0.503- 147 2.11 128 2.11 148 2.11 151 2.11 149 2.11
  50  0.500  0.200  0.503- 148 2.11 147 2.11 144 2.11 167 2.11 150 2.11
  51  0.400  0.400  0.407- 134 2.11 149 2.11 153 2.11 154 2.11 151 2.11
  52  0.500  0.500  0.407- 153 2.11 154 2.11 158 2.11 173 2.11 152 2.11
  53  0.400  0.500  0.503- 132 2.11 151 2.11 152 2.11 155 2.11 153 2.11
  54  0.500  0.400  0.503- 148 2.11 151 2.11 152 2.11 171 2.11 154 2.11
  55  0.400  0.600  0.407- 138 2.11 153 2.11 157 2.11 158 2.11 155 2.11
  56  0.500  0.700  0.407- 162 2.11 158 2.11 157 2.11 177 2.11 156 2.11
  57  0.400  0.700  0.503- 159 2.11 155 2.11 156 2.11 136 2.11 157 2.11
  58  0.500  0.600  0.503- 152 2.11 155 2.11 156 2.11 175 2.11 158 2.11   2 2.97   1 2.97
  59  0.400  0.800  0.407- 157 2.11 142 2.11 161 2.11 162 2.11 159 2.11
  60  0.500  0.900  0.407- 146 2.11 161 2.11 162 2.11 181 2.11 160 2.11
[...]
 188  0.900  0.300  0.503-  90 2.11  89 2.11   9 2.11  94 2.11  88 2.11
 189  0.800  0.300  0.407-  68 2.11  87 2.11  88 2.11  91 2.11  89 2.11
 190  0.900  0.200  0.407-  88 2.11  84 2.11  87 2.11   7 2.11  90 2.11
 191  0.800  0.400  0.503-  74 2.11  89 2.11  93 2.11  94 2.11  91 2.11
 192  0.900  0.500  0.503-  13 2.11  93 2.11  94 2.11  98 2.11  92 2.11
 193  0.800  0.500  0.407-  72 2.11  91 2.11  92 2.11  95 2.11  93 2.11
 194  0.900  0.400  0.407-  11 2.11  88 2.11  91 2.11  92 2.11  94 2.11
 195  0.800  0.600  0.503-  78 2.11  93 2.11  97 2.11  98 2.11  95 2.11
 196  0.900  0.700  0.503- 102 2.11  97 2.11  98 2.11  17 2.11  96 2.11
 197  0.800  0.700  0.407-  76 2.11  99 2.11  96 2.11  95 2.11  97 2.11
 198  0.900  0.600  0.407-  15 2.11  92 2.11  95 2.11  96 2.11  98 2.11
 199  0.800  0.800  0.503-  82 2.11  97 2.11 101 2.11 102 2.11  99 2.11
 200  0.900  0.900  0.503-  21 2.11  86 2.11 101 2.11 102 2.11 100 2.11
 201  0.800  0.900  0.407-  80 2.11  83 2.11  99 2.11 100 2.11 101 2.11
 202  0.900  0.800  0.407-  96 2.11  19 2.11  99 2.11 100 2.11 102 2.11

  LATTYP: Found a simple tetragonal cell.
 ALAT       =    21.1388521970
 C/A-ratio  =     1.0461251639

  Lattice vectors:

 A1 = (  21.1388521970,   0.0000000000,   0.0000000000)
 A2 = (   0.0000000000,  21.1388521970,   0.0000000000)
 A3 = (   0.0000000000,   0.0000000000,  22.1138852197)

Analysis of symmetry for initial positions (statically):
 Subroutine PRICEL returns:
 Original cell was already a primitive cell.

 Routine SETGRP: Setting up the symmetry group for a
 simple tetragonal supercell.

 Subroutine GETGRP returns: Found  4 space group operations
 (whereof  1 operations were pure point group operations)
 out of a pool of 16 trial point group operations.

The static configuration has the point symmetry C_1 .
 The point group associated with its full space group is C_2v.

Analysis of symmetry for dynamics (positions and initial velocities):
 Subroutine PRICEL returns:
 Original cell was already a primitive cell.

 Routine SETGRP: Setting up the symmetry group for a
 simple tetragonal supercell.

 Subroutine GETGRP returns: Found  4 space group operations
 (whereof  1 operations were pure point group operations)
 out of a pool of 16 trial point group operations.

The dynamic configuration has the point symmetry C_1 .
 The point group associated with its full space group is C_2v.

 Subroutine INISYM returns: Found  4 space group operations
 (whereof  1 operations are pure point group operations),
 and found     1 'primitive' translations

                                     Primitive cell

  volume of cell :    9881.6133

[...]
     52     -43.9629      2.00000
     53     -43.9625      2.00000
     54     -43.9623      2.00000
     55     -43.9621      2.00000
     56     -43.9610      2.00000
     57     -43.9609      2.00000
     58     -43.9606      2.00000
     59     -43.9601      2.00000
     60     -43.9600      2.00000
[...]
    882       4.0464      0.00000
    883       4.1001      0.00000
    884       4.1696      0.00000
    885       4.1950      0.00000
    886       4.1999      0.00000
    887       4.2253      0.00000
    888       4.2356      0.00000
    889       4.2629      0.00000
    890       4.4365      0.00000
    891       4.6473      0.00000
    892       4.7514      0.00000
    893       4.8234      0.00000
    894       4.9585      0.00000
    895       5.0082      0.00000
    896       5.0772      0.00000

 soft charge-density along one line, spin component           1
         0         1         2         3         4         5         6         7         8         9
 total charge-density along one line

------------------------ aborting loop because EDIFF is reached ----------------------------------------

  FORCE on cell =-STRESS in cart. coord.  units (eV):
  Direction    XX          YY          ZZ          XY          YZ          ZX
  Alpha Z  1357.53553  1357.53553  1357.53553
  Ewald  479540.84319479540.84319************  -342.47633     0.00001    -0.00001
  Hartree507902.50383507902.50383************  -245.90157     0.00000    -0.00002
  E(xc)   -8064.60120 -8064.60120 -8073.49911    -0.20655    -0.00000     0.00000
  Local  ************************************   582.35002    -0.00001     0.00003
  n-local -8856.07883 -8856.07883 -8960.56090     0.76665    -0.00000     0.00000
  augment  3621.34753  3621.34753  3566.61618     1.41007     0.00001    -0.00000
  Kinetic 23073.35298 23073.35295 23284.43646     3.10791    -0.00000    -0.00000
  Fock        0.00000     0.00000     0.00000     0.00000     0.00000     0.00000
  Total    -123.36474  -123.36474    40.72661    -0.94981     0.00000     0.00000
  in kB     -20.00202   -20.00202     6.60330    -0.15400     0.00000     0.00000

 VOLUME and BASIS-vectors are now :
  energy-cutoff  :      520.00
  volume of cell :     9881.61
      direct lattice vectors                 reciprocal lattice vectors
    21.138852197  0.000000000  0.000000000     0.047306258  0.000000000  0.000000000
     0.000000000 21.138852197  0.000000000     0.000000000  0.047306258  0.000000000
     0.000000000  0.000000000 22.113885220     0.000000000  0.000000000  0.045220457

  length of vectors
    21.138852197 21.138852197 22.113885220     0.047306258  0.047306258  0.045220457

 FORCES acting on ions:
    Electron-Ion                     Ewald-Force                    Non-Local-Force
   -.187E+03 0.187E+03 -.206E+04   0.184E+03 -.184E+03 0.206E+04   0.410E+01 -.410E+01 -.212E+00
   0.187E+03 -.187E+03 -.206E+04   -.184E+03 0.184E+03 0.206E+04   -.410E+01 0.410E+01 -.212E+00
   0.204E+00 -.345E+01 0.930E+03   -.207E+00 0.346E+01 -.923E+03   0.229E-02 -.327E-02 -.616E+01
   0.345E+01 -.205E+00 0.930E+03   -.346E+01 0.207E+00 -.923E+03   0.327E-02 -.229E-02 -.616E+01
   -.125E-07 -.187E-03 -.921E+03   0.103E-06 -.158E-05 0.915E+03   0.000E+00 0.000E+00 0.613E+01
   0.531E+01 -.531E+01 -.921E+03   -.532E+01 0.532E+01 0.914E+03   0.619E-02 -.619E-02 0.613E+01
   -.204E+00 0.345E+01 0.930E+03   0.207E+00 -.346E+01 -.923E+03   -.229E-02 0.327E-02 -.616E+01
   0.523E+01 0.670E+01 0.932E+03   -.523E+01 -.671E+01 -.925E+03   0.329E-02 0.601E-02 -.616E+01
   -.571E+00 0.716E+01 -.920E+03   0.579E+00 -.717E+01 0.914E+03   -.568E-02 0.418E-02 0.613E+01
   0.470E+01 0.470E+01 -.921E+03   -.470E+01 -.470E+01 0.915E+03   0.598E-03 0.598E-03 0.613E+01
   -.472E+00 0.613E+01 0.932E+03   0.479E+00 -.613E+01 -.926E+03   -.569E-02 0.579E-02 -.616E+01
   0.101E+02 0.518E+01 0.936E+03   -.102E+02 -.519E+01 -.930E+03   0.148E-01 0.829E-02 -.616E+01
   -.548E+00 0.501E+01 -.918E+03   0.555E+00 -.501E+01 0.912E+03   -.538E-02 0.270E-02 0.613E+01
   0.104E+02 0.967E+01 -.918E+03   -.104E+02 -.968E+01 0.912E+03   0.221E-02 0.638E-02 0.613E+01
   0.240E-06 -.190E-03 0.934E+03   -.147E-06 0.154E-05 -.928E+03   0.000E+00 0.000E+00 -.616E+01
   0.110E+02 -.464E+01 0.936E+03   -.110E+02 0.464E+01 -.930E+03   0.270E-01 -.281E-02 -.616E+01
   0.548E+00 -.501E+01 -.918E+03   -.555E+00 0.501E+01 0.912E+03   0.538E-02 -.270E-02 0.613E+01
   0.173E+02 0.748E+00 -.915E+03   -.174E+02 -.755E+00 0.909E+03   0.201E-01 0.498E-02 0.613E+01
   0.472E+00 -.613E+01 0.932E+03   -.479E+00 0.613E+01 -.926E+03   0.569E-02 -.579E-02 -.616E+01
   0.606E+01 -.704E+01 0.932E+03   -.607E+01 0.705E+01 -.926E+03   0.120E-01 -.918E-02 -.616E+01
   0.571E+00 -.716E+01 -.920E+03   -.579E+00 0.717E+01 0.914E+03   0.568E-02 -.418E-02 0.613E+01
   0.123E+02 -.980E+01 -.917E+03   -.124E+02 0.981E+01 0.911E+03   0.208E-01 -.577E-02 0.613E+01
   0.704E+01 -.606E+01 0.932E+03   -.705E+01 0.607E+01 -.926E+03   0.918E-02 -.120E-01 -.616E+01
   0.613E+01 -.472E+00 0.932E+03   -.613E+01 0.479E+00 -.926E+03   0.579E-02 -.569E-02 -.616E+01
   0.716E+01 -.571E+00 -.920E+03   -.717E+01 0.579E+00 0.914E+03   0.418E-02 -.568E-02 0.613E+01
   0.980E+01 -.123E+02 -.917E+03   -.981E+01 0.124E+02 0.911E+03   0.577E-02 -.208E-01 0.613E+01
   0.671E+01 0.523E+01 0.932E+03   -.671E+01 -.523E+01 -.925E+03   0.601E-02 0.329E-02 -.616E+01
   0.116E+02 0.148E+02 0.938E+03   -.116E+02 -.148E+02 -.932E+03   0.174E-01 0.226E-01 -.617E+01
   0.132E+02 0.132E+02 -.917E+03   -.132E+02 -.132E+02 0.911E+03   0.582E-02 0.582E-02 0.613E+01
   0.967E+01 0.104E+02 -.918E+03   -.968E+01 -.104E+02 0.912E+03   0.638E-02 0.221E-02 0.613E+01
   0.148E+02 0.116E+02 0.938E+03   -.148E+02 -.116E+02 -.932E+03   0.226E-01 0.174E-01 -.617E+01
   0.285E+02 0.160E+02 0.959E+03   -.286E+02 -.160E+02 -.953E+03   0.913E-01 0.458E-01 -.618E+01
   0.330E+02 0.140E+02 -.908E+03   -.330E+02 -.140E+02 0.902E+03   0.303E-01 0.187E-01 0.612E+01
   0.316E+02 0.316E+02 -.904E+03   -.317E+02 -.317E+02 0.897E+03   0.293E-01 0.293E-01 0.611E+01
   0.239E+02 0.113E+01 0.946E+03   -.240E+02 -.114E+01 -.940E+03   0.602E-01 0.102E-01 -.617E+01
   0.303E+02 -.142E+02 0.963E+03   -.304E+02 0.142E+02 -.957E+03   0.657E-01 -.273E-01 -.612E+01
   0.370E+02 -.119E+02 -.906E+03   -.371E+02 0.119E+02 0.900E+03   0.739E-01 -.766E-03 0.612E+01
   0.778E+02 0.816E+01 -.869E+03   -.781E+02 -.823E+01 0.863E+03   0.215E+00 0.527E-01 0.613E+01
   0.162E+02 -.119E+02 0.940E+03   -.163E+02 0.119E+02 -.934E+03   0.338E-01 -.191E-01 -.616E+01
   0.119E+02 -.162E+02 0.940E+03   -.119E+02 0.163E+02 -.934E+03   0.191E-01 -.338E-01 -.616E+01
   0.148E+02 -.148E+02 -.916E+03   -.148E+02 0.148E+02 0.910E+03   0.183E-01 -.183E-01 0.613E+01
   0.365E+02 -.365E+02 -.898E+03   -.366E+02 0.366E+02 0.891E+03   0.604E-01 -.604E-01 0.613E+01
   0.464E+01 -.110E+02 0.936E+03   -.464E+01 0.110E+02 -.930E+03   0.281E-02 -.270E-01 -.616E+01
   0.236E-06 -.185E-03 0.934E+03   -.140E-06 -.411E-05 -.928E+03   0.000E+00 0.000E+00 -.616E+01
   0.501E+01 -.548E+00 -.918E+03   -.501E+01 0.555E+00 0.912E+03   0.270E-02 -.538E-02 0.613E+01
   -.748E+00 -.173E+02 -.915E+03   0.755E+00 0.174E+02 0.909E+03   -.498E-02 -.201E-01 0.613E+01
   0.518E+01 0.101E+02 0.936E+03   -.519E+01 -.102E+02 -.930E+03   0.829E-02 0.148E-01 -.616E+01
   0.113E+01 0.239E+02 0.946E+03   -.114E+01 -.240E+02 -.940E+03   0.102E-01 0.602E-01 -.617E+01
   0.140E+02 0.330E+02 -.908E+03   -.140E+02 -.330E+02 0.902E+03   0.187E-01 0.303E-01 0.612E+01
   0.748E+00 0.173E+02 -.915E+03   -.755E+00 -.174E+02 0.909E+03   0.498E-02 0.201E-01 0.613E+01
   0.160E+02 0.285E+02 0.959E+03   -.160E+02 -.286E+02 -.953E+03   0.458E-01 0.913E-01 -.618E+01
   0.304E+01 0.302E+02 0.100E+04   -.301E+01 -.303E+02 -.994E+03   -.254E-01 0.868E-01 -.595E+01
   0.691E+02 0.691E+02 -.836E+03   -.694E+02 -.694E+02 0.830E+03   0.229E+00 0.229E+00 0.604E+01
   0.816E+01 0.778E+02 -.869E+03   -.823E+01 -.781E+02 0.863E+03   0.527E-01 0.215E+00 0.613E+01
   0.302E+02 0.304E+01 0.100E+04   -.303E+02 -.301E+01 -.994E+03   0.868E-01 -.254E-01 -.595E+01
   -.304E+01 -.302E+02 0.100E+04   0.301E+01 0.303E+02 -.994E+03   0.254E-01 -.868E-01 -.595E+01
   0.753E+02 -.753E+02 -.794E+03   -.756E+02 0.756E+02 0.788E+03   0.222E+00 -.222E+00 0.605E+01
   -.205E-04 -.242E-03 -.667E+03   0.210E-04 0.517E-04 0.662E+03   0.000E+00 0.000E+00 0.475E+01
   0.142E+02 -.303E+02 0.963E+03   -.142E+02 0.304E+02 -.957E+03   0.273E-01 -.657E-01 -.612E+01
   -.113E+01 -.239E+02 0.946E+03   0.114E+01 0.240E+02 -.940E+03   -.102E-01 -.602E-01 -.617E+01
[...]
   -.793E+01 0.792E+01 0.704E+03   0.794E+01 -.794E+01 -.708E+03   -.196E-01 0.196E-01 0.362E+01
   -.316E+01 0.316E+01 0.701E+03   0.316E+01 -.316E+01 -.705E+03   -.704E-02 0.704E-02 0.362E+01
   -.189E+02 0.133E+02 -.686E+03   0.189E+02 -.134E+02 0.690E+03   -.384E-01 0.253E-01 -.366E+01
   -.122E+02 0.462E+01 -.689E+03   0.123E+02 -.463E+01 0.693E+03   -.205E-01 0.191E-02 -.366E+01
   -.165E+02 0.572E+01 0.711E+03   0.166E+02 -.573E+01 -.716E+03   -.502E-01 0.906E-02 0.363E+01
   -.651E+01 0.558E+01 0.703E+03   0.652E+01 -.559E+01 -.708E+03   -.186E-01 0.104E-01 0.362E+01
   -.306E+02 -.184E+01 -.681E+03   0.306E+02 0.186E+01 0.685E+03   -.481E-01 -.207E-01 -.368E+01
   -.110E+02 -.527E+01 -.690E+03   0.110E+02 0.528E+01 0.694E+03   -.100E-01 -.991E-02 -.367E+01
   -.154E+02 -.664E+01 0.710E+03   0.155E+02 0.665E+01 -.714E+03   -.329E-01 -.220E-01 0.361E+01
   -.873E+01 -.325E+00 0.706E+03   0.875E+01 0.328E+00 -.710E+03   -.195E-01 -.528E-02 0.361E+01
   -.163E+02 -.125E+02 -.688E+03   0.163E+02 0.126E+02 0.692E+03   -.155E-01 -.162E-01 -.367E+01
   -.510E+01 -.636E+01 -.692E+03   0.510E+01 0.636E+01 0.697E+03   -.146E-02 -.489E-02 -.366E+01
   -.730E+01 -.730E+01 0.703E+03   0.730E+01 0.730E+01 -.707E+03   -.113E-01 -.113E-01 0.361E+01
   -.567E+01 -.557E+01 0.703E+03   0.568E+01 0.557E+01 -.707E+03   -.683E-02 -.973E-02 0.361E+01
   -.148E-04 -.111E+00 0.625E+01   0.753E-12 0.270E-12 0.830E-11   0.677E-15 0.194E-14 -.676E+01

 POSITION                                       TOTAL-FORCE (eV/Angst)
     11.48398     11.76876     13.78517         0.322779     -0.322779      0.251058
      9.65487     13.59787     13.78517        -0.322779      0.322779      0.251058
      0.00000      0.00000      9.00000        -0.000640      0.000918      0.087154
      2.11389      2.11389      9.00000        -0.000918      0.000640      0.087154
      0.00000      2.11389     11.11389        -0.000000      0.000000     -0.079034
      2.11389      0.00000     11.11389        -0.001709      0.001709     -0.078801
      0.00000      4.22777      9.00000         0.000640     -0.000918      0.087154
      2.11389      6.34166      9.00000        -0.000910     -0.001687      0.087613
      0.00000      6.34166     11.11389         0.001570     -0.001155     -0.078455
      2.11389      4.22777     11.11389        -0.000137     -0.000137     -0.078578
      0.00000      8.45554      9.00000         0.001536     -0.001660      0.087500
      2.11389     10.56943      9.00000        -0.004110     -0.002420      0.088068
      0.00000     10.56943     11.11389         0.001461     -0.000761     -0.077268
      2.11389      8.45554     11.11389        -0.000416     -0.001716     -0.076712
      0.00000     12.68331      9.00000        -0.000000      0.000000      0.087774
      2.11389     14.79720      9.00000        -0.007236      0.000832      0.087805
      0.00000     14.79720     11.11389        -0.001461      0.000761     -0.077268
      2.11389     12.68331     11.11389        -0.005059     -0.001497     -0.075759
      0.00000     16.91108      9.00000        -0.001536      0.001660      0.087500
      2.11389     19.02497      9.00000        -0.003341      0.002619      0.087087
      0.00000     19.02497     11.11389        -0.001570      0.001155     -0.078455
      2.11389     16.91108     11.11389        -0.005574      0.001653     -0.077535
      4.22777      0.00000      9.00000        -0.002619      0.003341      0.087087
      6.34166      2.11389      9.00000        -0.001660      0.001536      0.087500
      4.22777      2.11389     11.11389        -0.001155      0.001570     -0.078455
      6.34166      0.00000     11.11389        -0.001653      0.005574     -0.077535
      4.22777      4.22777      9.00000        -0.001687     -0.000910      0.087613
      6.34166      6.34166      9.00000        -0.004976     -0.006311      0.088830
      4.22777      6.34166     11.11389        -0.001406     -0.001406     -0.076035
      6.34166      4.22777     11.11389        -0.001716     -0.000416     -0.076712
      4.22777      8.45554      9.00000        -0.006311     -0.004976      0.088830
      6.34166     10.56943      9.00000        -0.026364     -0.014658      0.089215
      4.22777     10.56943     11.11389        -0.006957     -0.005225     -0.070177
      6.34166      8.45554     11.11389        -0.006719     -0.006719     -0.063834
      4.22777     12.68331      9.00000        -0.016904     -0.003156      0.088151
      6.34166     14.79720      9.00000        -0.019474      0.009001      0.074583
      4.22777     14.79720     11.11389        -0.020961      0.000160     -0.073496
      6.34166     12.68331     11.11389        -0.072776     -0.016969     -0.065208
      4.22777     16.91108      9.00000        -0.009624      0.005763      0.086315
      6.34166     19.02497      9.00000        -0.005763      0.009624      0.086315
      4.22777     19.02497     11.11389        -0.005028      0.005028     -0.077614
      6.34166     16.91108     11.11389        -0.017235      0.017235     -0.074593
      8.45554      0.00000      9.00000        -0.000832      0.007236      0.087805
     10.56943      2.11389      9.00000        -0.000000      0.000000      0.087774
      8.45554      2.11389     11.11389        -0.000761      0.001461     -0.077268
     10.56943      0.00000     11.11389         0.001497      0.005059     -0.075759
      8.45554      4.22777      9.00000        -0.002420     -0.004110      0.088068
     10.56943      6.34166      9.00000        -0.003156     -0.016904      0.088151
      8.45554      6.34166     11.11389        -0.005225     -0.006957     -0.070177
     10.56943      4.22777     11.11389        -0.001497     -0.005059     -0.075759
      8.45554      8.45554      9.00000        -0.014658     -0.026364      0.089215
     10.56943     10.56943      9.00000         0.010341     -0.025612      0.017305
      8.45554     10.56943     11.11389        -0.061742     -0.061742      0.006410
     10.56943      8.45554     11.11389        -0.016969     -0.072776     -0.065208
      8.45554     12.68331      9.00000        -0.025612      0.010341      0.017305
     10.56943     14.79720      9.00000        -0.010341      0.025612      0.017305
      8.45554     14.79720     11.11389        -0.108781      0.108781     -0.201065
     10.56943     12.68331     11.11389        -0.000000      0.000000     -0.073000
      8.45554     16.91108      9.00000        -0.009001      0.019474      0.074583
     10.56943     19.02497      9.00000         0.003156      0.016904      0.088151
[...]
     19.02497      6.34166     11.11389        -0.003569      0.002934      0.471855
     16.91108      6.34166      9.00000        -0.005655      0.005655     -0.480630
     19.02497      4.22777      9.00000        -0.002007      0.002007     -0.480939
     16.91108      8.45554     11.11389        -0.011433      0.007602      0.470918
     19.02497     10.56943     11.11389        -0.005952      0.000586      0.470042
     16.91108     10.56943      9.00000        -0.015268      0.002893     -0.478270
     19.02497      8.45554      9.00000        -0.005346      0.003045     -0.480956
     16.91108     12.68331     11.11389        -0.014988     -0.006064      0.466088
     19.02497     14.79720     11.11389        -0.002949     -0.002843      0.469234
     16.91108     14.79720      9.00000        -0.010264     -0.006595     -0.482661
     19.02497     12.68331      9.00000        -0.005711     -0.001488     -0.481499
     16.91108     16.91108     11.11389        -0.004712     -0.004801      0.466844
     19.02497     19.02497     11.11389        -0.000439     -0.001421      0.471226
     16.91108     19.02497      9.00000        -0.003298     -0.003298     -0.482003
     19.02497     16.91108      9.00000        -0.002002     -0.002834     -0.481740
    total drift:                               -0.000015     -0.111349     -0.517789

  FREE ENERGIE OF THE ION-ELECTRON SYSTEM (eV)
  free  energy   TOTEN  =      -748.75046910 eV

  energy  without entropy=     -748.75046910  energy(sigma->0) =     -748.75046910