 vasp.6.3.0 20Jan22 (build Apr  1 2022 16:44:48) complex
 executed on        HPECrayEX_GCC date 2022.08.15  21:53:57

 INCAR:
   SYSTEM = MgO-rocksalt
   ISMEAR = 0
   SIGMA = 0.05
   EDIFF = 1E-6
   ALGO = ALL
   ISTART = 0
   IBRION = -1
   NSW = 0
   ISYM = 2
   DIPOL = 0.5 0.5 0.5
   IDIPOL = 3
   LDIPOL = .TRUE.
   METAGGA = SCAN
   LUSE_VDW = .TRUE.
   BPARAM = 15.7
   CPARAM = 0.0093
   ENCUT = 520
   PREC = Accurate
   LASPH = .TRUE.
   LREAL = Auto
   ISPIN = 1
   NELM = 200
   NELMIN = 8
   NCORE = 4
   KPAR = 2
   LWAVE = .FALSE.
   LCHARG = .FALSE.

 POTCAR:    PAW_PBE Ag 02Apr2005
 POTCAR:    PAW_PBE Mg_pv 13Apr2007
 POTCAR:    PAW_PBE O 08Apr2002
|               ----> ADVICE to this user running VASP <----                  |
|     You have switched on vdW-DFT.                                           |
|     This routine was written and supplied by Jiri Klimes. We recommend      |
|     that you carefully read and cite the following publications:            |
|       J. Klimes, D.R. Bowler, A. Michelides                                 |
|          J. Phys.: Cond Matt. 22 022201 (2010)                              |
|       J. Klimes, D.R. Bowler, A. Michelides                                 |
|          Phys. Rev. B. 83, 195131 (2011)                                    |
|     and references therein.                                                 |

   TITEL  = PAW_PBE Ag 02Apr2005
   POMASS =  107.868; ZVAL   =   11.000    mass and valenz
   ENMAX  =  249.844; ENMIN  =  187.383 eV

   TITEL  = PAW_PBE Mg_pv 13Apr2007
   POMASS =   24.305; ZVAL   =    8.000    mass and valenz
   ENMAX  =  403.929; ENMIN  =  302.947 eV

   TITEL  = PAW_PBE O 08Apr2002
   POMASS =   16.000; ZVAL   =    6.000    mass and valenz
   ENMAX  =  400.000; ENMIN  =  300.000 eV

 Optimization of the real space projectors (new method)

 maximal supplied QI-value         = 15.12
 optimisation between [QCUT,QGAM] = [ 11.64, 23.28] = [ 37.95,151.78] Ry
 Optimized for a Real-space Cutoff    1.45 Angstroem

   l    n(q)    QCUT    max X(q) W(low)/X(q) W(high)/X(q)  e(spline)
   2      9    11.641    53.897    0.22E-03    0.42E-04    0.28E-06
   2      9    11.641    52.416    0.23E-03    0.44E-04    0.29E-06
   0     10    11.641   122.045    0.51E-04    0.25E-04    0.16E-06
   0     10    11.641    73.629    0.49E-04    0.24E-04    0.16E-06
   1     10    11.641    15.255    0.99E-04    0.55E-04    0.11E-06
   1     10    11.641     9.562    0.81E-04    0.47E-04    0.95E-07
 Optimization of the real space projectors (new method)

[...]

   l    n(q)    QCUT    max X(q) W(low)/X(q) W(high)/X(q)  e(spline)
   1      8    11.527     2.974    0.44E-04    0.56E-04    0.12E-06
   1      8    11.527     4.279    0.12E-03    0.12E-03    0.26E-06
   0      9    11.527    16.381    0.46E-04    0.64E-04    0.78E-07
   0      9    11.527     5.611    0.26E-04    0.43E-04    0.55E-07
   2      8    11.527     4.652    0.22E-03    0.72E-04    0.47E-07
 Optimization of the real space projectors (new method)

 maximal supplied QI-value         = 24.76
 optimisation between [QCUT,QGAM] = [ 11.64, 23.27] = [ 37.91,151.63] Ry
 Optimized for a Real-space Cutoff    1.14 Angstroem

   l    n(q)    QCUT    max X(q) W(low)/X(q) W(high)/X(q)  e(spline)
   0      8    11.635    20.381    0.10E-03    0.33E-03    0.24E-06
   0      8    11.635    15.268    0.11E-03    0.35E-03    0.26E-06
   1      7    11.635     5.964    0.24E-03    0.31E-03    0.30E-06
   1      7    11.635     5.382    0.22E-03    0.25E-03    0.26E-06
  PAW_PBE Ag 02Apr2005                  :
  PAW_PBE Mg_pv 13Apr2007               :
  PAW_PBE O 08Apr2002                   :

 POSCAR: Ag Mg  O
  positions in direct lattice

 METAGGA = SCAN     LMAXTAU =  6    LMIXTAU =  F

 ion  position               nearest neighbor table
   1  0.662  0.500  0.618-   2 2.60 172 2.69  73 2.87
   2  0.538  0.500  0.618-   1 2.60 152 2.69  73 2.87
   3  0.000  0.000  0.407- 105 2.11 106 2.11 121 2.11 186 2.11 103 2.11
   4  0.100  0.100  0.407- 105 2.11 106 2.11 110 2.11 125 2.11 104 2.11
   5  0.000  0.100  0.503- 103 2.11 104 2.11 107 2.11 184 2.11 105 2.11
   6  0.100  0.000  0.503- 103 2.11 104 2.11 120 2.11 123 2.11 106 2.11
   7  0.000  0.200  0.407- 109 2.11 105 2.11 110 2.11 190 2.11 107 2.11
   8  0.100  0.300  0.407- 110 2.11 109 2.11 114 2.11 129 2.11 108 2.11
   9  0.000  0.300  0.503- 107 2.11 108 2.11 111 2.11 188 2.11 109 2.11
  10  0.100  0.200  0.503- 108 2.11 107 2.11 104 2.11 127 2.11 110 2.11
  11  0.000  0.400  0.407- 109 2.11 113 2.11 114 2.11 194 2.11 111 2.11
  12  0.100  0.500  0.407- 113 2.11 114 2.11 118 2.11 133 2.11 112 2.11
  13  0.000  0.500  0.503- 111 2.11 112 2.11 115 2.11 192 2.11 113 2.11
  14  0.100  0.400  0.503- 108 2.11 111 2.11 112 2.11 131 2.11 114 2.11
  15  0.000  0.600  0.407- 113 2.11 117 2.11 118 2.11 198 2.11 115 2.11
  16  0.100  0.700  0.407- 122 2.11 118 2.11 117 2.11 137 2.11 116 2.11
  17  0.000  0.700  0.503- 119 2.11 116 2.11 115 2.11 196 2.11 117 2.11
  18  0.100  0.600  0.503- 112 2.11 115 2.11 116 2.11 135 2.11 118 2.11
  19  0.000  0.800  0.407- 117 2.11 121 2.11 122 2.11 202 2.11 119 2.11
  20  0.100  0.900  0.407- 106 2.11 121 2.11 122 2.11 141 2.11 120 2.11
  21  0.000  0.900  0.503- 103 2.11 119 2.11 120 2.11 200 2.11 121 2.11
  22  0.100  0.800  0.503- 116 2.11 119 2.11 120 2.11 139 2.11 122 2.11
  23  0.200  0.000  0.407- 126 2.11 125 2.11 106 2.11 141 2.11 123 2.11
  24  0.300  0.100  0.407- 125 2.11 126 2.11 130 2.11 145 2.11 124 2.11
  25  0.200  0.100  0.503- 124 2.11 123 2.11 104 2.11 127 2.11 125 2.11
  26  0.300  0.000  0.503- 123 2.11 124 2.11 140 2.11 143 2.11 126 2.11
  27  0.200  0.200  0.407- 129 2.11 130 2.11 110 2.11 125 2.11 127 2.11
  28  0.300  0.300  0.407- 129 2.11 130 2.11 134 2.11 149 2.11 128 2.11
  29  0.200  0.300  0.503- 127 2.11 128 2.11 108 2.11 131 2.11 129 2.11
  30  0.300  0.200  0.503- 127 2.11 128 2.11 124 2.11 147 2.11 130 2.11
  31  0.200  0.400  0.407- 134 2.11 129 2.11 133 2.11 114 2.11 131 2.11
  32  0.300  0.500  0.407- 133 2.11 134 2.11 138 2.11 153 2.11 132 2.11
  33  0.200  0.500  0.503- 132 2.11 131 2.11 112 2.11 135 2.11 133 2.11
  34  0.300  0.400  0.503- 131 2.11 128 2.11 132 2.11 151 2.11 134 2.11
  35  0.200  0.600  0.407- 138 2.11 133 2.11 137 2.11 118 2.11 135 2.11
  36  0.300  0.700  0.407- 137 2.11 142 2.11 138 2.11 157 2.11 136 2.11
  37  0.200  0.700  0.503- 136 2.11 139 2.11 116 2.11 135 2.11 137 2.11
  38  0.300  0.600  0.503- 135 2.11 132 2.11 136 2.11 155 2.11 138 2.11
  39  0.200  0.800  0.407- 137 2.11 142 2.11 141 2.11 122 2.11 139 2.11
  40  0.300  0.900  0.407- 141 2.11 126 2.11 142 2.11 161 2.11 140 2.11
  41  0.200  0.900  0.503- 140 2.11 123 2.11 139 2.11 120 2.11 141 2.11
  42  0.300  0.800  0.503- 136 2.11 139 2.11 140 2.11 159 2.11 142 2.11
  43  0.400  0.000  0.407- 126 2.11 145 2.11 146 2.11 161 2.11 143 2.11
  44  0.500  0.100  0.407- 145 2.11 146 2.11 150 2.11 165 2.11 144 2.11
  45  0.400  0.100  0.503- 124 2.11 143 2.11 144 2.11 147 2.11 145 2.11
  46  0.500  0.000  0.503- 143 2.11 144 2.11 160 2.11 163 2.11 146 2.11
  47  0.400  0.200  0.407- 149 2.11 145 2.11 130 2.11 150 2.11 147 2.11
  48  0.500  0.300  0.407- 150 2.11 149 2.11 154 2.11 169 2.11 148 2.11
  49  0.400  0.300  0.503- 147 2.11 128 2.11 148 2.11 151 2.11 149 2.11
  50  0.500  0.200  0.503- 148 2.11 147 2.11 144 2.11 167 2.11 150 2.11
  51  0.400  0.400  0.407- 134 2.11 149 2.11 153 2.11 154 2.11 151 2.11
  52  0.500  0.500  0.407- 153 2.11 154 2.11 158 2.11 173 2.11 152 2.11
  53  0.400  0.500  0.503- 132 2.11 151 2.11 152 2.11 155 2.11 153 2.11
  54  0.500  0.400  0.503- 148 2.11 151 2.11 152 2.11 171 2.11 154 2.11
  55  0.400  0.600  0.407- 138 2.11 153 2.11 157 2.11 158 2.11 155 2.11
  56  0.500  0.700  0.407- 162 2.11 158 2.11 157 2.11 177 2.11 156 2.11
  57  0.400  0.700  0.503- 159 2.11 155 2.11 156 2.11 136 2.11 157 2.11
  58  0.500  0.600  0.503- 152 2.11 155 2.11 156 2.11 175 2.11 158 2.11
  59  0.400  0.800  0.407- 157 2.11 142 2.11 161 2.11 162 2.11 159 2.11
  60  0.500  0.900  0.407- 146 2.11 161 2.11 162 2.11 181 2.11 160 2.11
[...]
 188  0.900  0.300  0.503-  90 2.11  89 2.11   9 2.11  94 2.11  88 2.11
 189  0.800  0.300  0.407-  68 2.11  87 2.11  88 2.11  91 2.11  89 2.11
 190  0.900  0.200  0.407-  88 2.11  84 2.11  87 2.11   7 2.11  90 2.11
 191  0.800  0.400  0.503-  74 2.11  89 2.11  93 2.11  94 2.11  91 2.11
 192  0.900  0.500  0.503-  13 2.11  93 2.11  94 2.11  98 2.11  92 2.11
 193  0.800  0.500  0.407-  72 2.11  91 2.11  92 2.11  95 2.11  93 2.11
 194  0.900  0.400  0.407-  11 2.11  88 2.11  91 2.11  92 2.11  94 2.11
 195  0.800  0.600  0.503-  78 2.11  93 2.11  97 2.11  98 2.11  95 2.11
 196  0.900  0.700  0.503- 102 2.11  97 2.11  98 2.11  17 2.11  96 2.11
 197  0.800  0.700  0.407-  76 2.11  99 2.11  96 2.11  95 2.11  97 2.11
 198  0.900  0.600  0.407-  15 2.11  92 2.11  95 2.11  96 2.11  98 2.11
 199  0.800  0.800  0.503-  82 2.11  97 2.11 101 2.11 102 2.11  99 2.11
 200  0.900  0.900  0.503-  21 2.11  86 2.11 101 2.11 102 2.11 100 2.11
 201  0.800  0.900  0.407-  80 2.11  83 2.11  99 2.11 100 2.11 101 2.11
 202  0.900  0.800  0.407-  96 2.11  19 2.11  99 2.11 100 2.11 102 2.11

  LATTYP: Found a simple tetragonal cell.
 ALAT       =    21.1388521970
 C/A-ratio  =     1.0461251639

  Lattice vectors:

 A1 = (  21.1388521970,   0.0000000000,   0.0000000000)
 A2 = (   0.0000000000,  21.1388521970,   0.0000000000)
 A3 = (   0.0000000000,   0.0000000000,  22.1138852197)

Analysis of symmetry for initial positions (statically):
 Subroutine PRICEL returns:
 Original cell was already a primitive cell.

 Routine SETGRP: Setting up the symmetry group for a
 simple tetragonal supercell.

 Subroutine GETGRP returns: Found  4 space group operations
 (whereof  2 operations were pure point group operations)
 out of a pool of 16 trial point group operations.

The static configuration has the point symmetry C_1h.
 The point group associated with its full space group is C_2v.

Analysis of symmetry for dynamics (positions and initial velocities):
 Subroutine PRICEL returns:
 Original cell was already a primitive cell.

 Routine SETGRP: Setting up the symmetry group for a
 simple tetragonal supercell.

 Subroutine GETGRP returns: Found  4 space group operations
 (whereof  2 operations were pure point group operations)
 out of a pool of 16 trial point group operations.

The dynamic configuration has the point symmetry C_1h.
 The point group associated with its full space group is C_2v.

 Subroutine INISYM returns: Found  4 space group operations
 (whereof  2 operations are pure point group operations),
 and found     1 'primitive' translations

                                     Primitive cell

  volume of cell :    9881.6133

  direct lattice vectors                    reciprocal lattice vectors
    21.138852197  0.000000000  0.000000000     0.047306258  0.000000000  0.000000000
     0.000000000 21.138852197  0.000000000     0.000000000  0.047306258  0.000000000
     0.000000000  0.000000000 22.113885220     0.000000000  0.000000000  0.045220457

  length of vectors
    21.138852197 21.138852197 22.113885220     0.047306258  0.047306258  0.045220457

[...]
     52     -44.4846      2.00000
     53     -44.4842      2.00000
     54     -44.4810      2.00000
     55     -44.4809      2.00000
     56     -44.4806      2.00000
     57     -44.4805      2.00000
     58     -44.4802      2.00000
     59     -44.4799      2.00000
     60     -44.4785      2.00000
[...]
    882       5.4184      0.00000
    883       5.5208      0.00000
    884       5.5978      0.00000
    885       5.6971      0.00000
    886       5.7667      0.00000
    887       5.8740      0.00000
    888       5.9612      0.00000
    889       5.9940      0.00000
    890       6.0101      0.00000
    891       6.0364      0.00000
    892       6.0818      0.00000
    893       6.0892      0.00000
    894       6.1000      0.00000
    895       6.1005      0.00000
    896       6.1117      0.00000

 soft charge-density along one line, spin component           1
         0         1         2         3         4         5         6         7         8         9
 total charge-density along one line

------------------------ aborting loop because EDIFF is reached ----------------------------------------

  FORCE on cell =-STRESS in cart. coord.  units (eV):
  Direction    XX          YY          ZZ          XY          YZ          ZX
  Alpha Z  1357.53553  1357.53553  1357.53553
  Ewald  480348.85422479657.10670************    -0.00000     0.00000     0.00002
  Hartree509069.60873508557.95640************     0.00000    -0.00000     0.00001
  E(xc)   -8401.21843 -8401.59165 -8393.55296    -0.00000     0.00000     0.00001
  Local  ************************************     0.00000    -0.00000    -0.00003
  n-local -8728.65553 -8725.95983 -8850.31071     0.00004    -0.00000    -0.00004
  augment  3884.20516  3885.17614  3826.20964    -0.00000    -0.00000     0.00008
  Kinetic 23005.44404 23011.22257 23240.93109    -0.00009     0.00003     0.00006
  Fock        0.00000     0.00000     0.00000     0.00000     0.00000     0.00000
  Total    -243.71445  -242.96625   -28.75856     0.00000     0.00000     0.00000
  in kB     -39.51518   -39.39387    -4.66283     0.00000     0.00000     0.00000

 VOLUME and BASIS-vectors are now :
  energy-cutoff  :      520.00
  volume of cell :     9881.61
      direct lattice vectors                 reciprocal lattice vectors
    21.138852197  0.000000000  0.000000000     0.047306258  0.000000000  0.000000000
     0.000000000 21.138852197  0.000000000     0.000000000  0.047306258  0.000000000
     0.000000000  0.000000000 22.113885220     0.000000000  0.000000000  0.045220457

  length of vectors
    21.138852197 21.138852197 22.113885220     0.047306258  0.047306258  0.045220457

 FORCES acting on ions:
    Electron-Ion                     Ewald-Force                    Non-Local-Force
   -.265E+03 -.127E-05 -.210E+04   0.257E+03 0.115E-07 0.210E+04   0.829E+01 0.000E+00 -.430E+00
   0.265E+03 -.852E-06 -.210E+04   -.257E+03 0.115E-07 0.210E+04   -.829E+01 0.000E+00 -.430E+00
   -.329E+01 0.481E-06 0.931E+03   0.329E+01 0.838E-08 -.923E+03   0.406E-02 0.000E+00 -.745E+01
   -.183E-03 0.369E+01 0.931E+03   -.144E-05 -.371E+01 -.923E+03   0.000E+00 0.121E-01 -.745E+01
   -.479E+01 0.531E+01 -.923E+03   0.478E+01 -.532E+01 0.915E+03   0.600E-02 0.147E-01 0.742E+01
   -.183E-03 0.480E-06 -.923E+03   -.149E-05 0.885E-08 0.915E+03   0.000E+00 0.000E+00 0.742E+01
   -.555E+01 0.740E+01 0.934E+03   0.555E+01 -.743E+01 -.926E+03   -.111E-02 0.259E-01 -.745E+01
   -.182E-03 0.670E+01 0.934E+03   -.297E-05 -.673E+01 -.926E+03   0.339E-20 0.233E-01 -.745E+01
   -.116E+02 0.107E+02 -.919E+03   0.116E+02 -.108E+02 0.911E+03   -.154E-01 0.320E-01 0.742E+01
   -.182E-03 0.774E+01 -.922E+03   -.265E-05 -.777E+01 0.914E+03   0.000E+00 0.220E-01 0.742E+01
   -.110E+02 0.549E+01 0.939E+03   0.110E+02 -.552E+01 -.931E+03   -.356E-01 0.214E-01 -.745E+01
   -.180E-03 0.493E-06 0.937E+03   -.431E-05 -.903E-08 -.929E+03   0.000E+00 0.000E+00 -.745E+01
   -.186E+02 0.467E-06 -.916E+03   0.187E+02 -.159E-07 0.908E+03   -.585E-01 0.000E+00 0.742E+01
   -.179E-03 0.559E+01 -.919E+03   -.558E-05 -.561E+01 0.911E+03   -.339E-20 0.162E-01 0.742E+01
   -.110E+02 -.549E+01 0.939E+03   0.110E+02 0.552E+01 -.931E+03   -.356E-01 -.214E-01 -.745E+01
   -.182E-03 -.670E+01 0.934E+03   -.297E-05 0.673E+01 -.926E+03   0.339E-20 -.233E-01 -.745E+01
   -.116E+02 -.107E+02 -.919E+03   0.116E+02 0.108E+02 0.911E+03   -.154E-01 -.320E-01 0.742E+01
   -.179E-03 -.559E+01 -.919E+03   -.558E-05 0.561E+01 0.911E+03   -.339E-20 -.162E-01 0.742E+01
   -.555E+01 -.740E+01 0.934E+03   0.555E+01 0.743E+01 -.926E+03   -.111E-02 -.259E-01 -.745E+01
   -.183E-03 -.369E+01 0.931E+03   -.144E-05 0.371E+01 -.923E+03   0.000E+00 -.121E-01 -.745E+01
   -.479E+01 -.531E+01 -.923E+03   0.478E+01 0.532E+01 0.915E+03   0.600E-02 -.147E-01 0.742E+01
   -.182E-03 -.774E+01 -.922E+03   -.265E-05 0.777E+01 0.914E+03   0.000E+00 -.220E-01 0.742E+01
   0.329E+01 0.479E-06 0.931E+03   -.329E+01 0.838E-08 -.923E+03   -.406E-02 0.000E+00 -.745E+01
   0.656E+01 0.591E+01 0.933E+03   -.655E+01 -.593E+01 -.925E+03   -.720E-02 0.179E-01 -.745E+01
   0.478E+01 0.531E+01 -.923E+03   -.478E+01 -.532E+01 0.915E+03   -.600E-02 0.147E-01 0.742E+01
   0.672E+01 0.474E-06 -.922E+03   -.670E+01 0.147E-07 0.914E+03   -.108E-01 0.000E+00 0.742E+01
   0.555E+01 0.740E+01 0.934E+03   -.555E+01 -.743E+01 -.926E+03   0.111E-02 0.259E-01 -.745E+01
   0.155E+02 0.129E+02 0.941E+03   -.155E+02 -.129E+02 -.933E+03   0.182E-01 0.565E-01 -.745E+01
   0.116E+02 0.107E+02 -.919E+03   -.116E+02 -.108E+02 0.911E+03   0.154E-01 0.320E-01 0.742E+01
   0.135E+02 0.148E+02 -.919E+03   -.135E+02 -.149E+02 0.911E+03   -.146E-01 0.446E-01 0.742E+01
   0.110E+02 0.549E+01 0.939E+03   -.110E+02 -.552E+01 -.931E+03   0.356E-01 0.214E-01 -.745E+01
   0.253E+02 0.539E-06 0.950E+03   -.254E+02 -.204E-07 -.942E+03   0.120E+00 0.000E+00 -.745E+01
   0.186E+02 0.529E-06 -.916E+03   -.187E+02 -.159E-07 0.908E+03   0.585E-01 0.000E+00 0.742E+01
   0.371E+02 0.154E+02 -.907E+03   -.372E+02 -.155E+02 0.899E+03   0.118E+00 0.517E-01 0.742E+01
   0.110E+02 -.549E+01 0.939E+03   -.110E+02 0.552E+01 -.931E+03   0.356E-01 -.214E-01 -.745E+01
   0.155E+02 -.129E+02 0.941E+03   -.155E+02 0.129E+02 -.933E+03   0.182E-01 -.565E-01 -.745E+01
   0.116E+02 -.107E+02 -.919E+03   -.116E+02 0.108E+02 0.911E+03   0.154E-01 -.320E-01 0.742E+01
   0.371E+02 -.154E+02 -.907E+03   -.372E+02 0.155E+02 0.899E+03   0.118E+00 -.517E-01 0.742E+01
   0.555E+01 -.740E+01 0.934E+03   -.555E+01 0.743E+01 -.926E+03   0.111E-02 -.259E-01 -.745E+01
   0.656E+01 -.591E+01 0.933E+03   -.655E+01 0.593E+01 -.925E+03   -.720E-02 -.179E-01 -.745E+01
   0.478E+01 -.531E+01 -.923E+03   -.478E+01 0.532E+01 0.915E+03   -.600E-02 -.147E-01 0.742E+01
   0.135E+02 -.148E+02 -.919E+03   -.135E+02 0.149E+02 0.911E+03   -.146E-01 -.446E-01 0.742E+01
   0.575E+01 0.473E-06 0.934E+03   -.574E+01 0.157E-07 -.926E+03   -.880E-02 0.000E+00 -.745E+01
   0.455E+01 0.106E+02 0.937E+03   -.454E+01 -.106E+02 -.929E+03   -.734E-02 0.161E-01 -.746E+01
   0.899E+01 0.115E+02 -.920E+03   -.897E+01 -.115E+02 0.912E+03   -.155E-01 0.128E-01 0.742E+01
   0.457E+01 0.465E-06 -.920E+03   -.456E+01 0.273E-07 0.912E+03   -.843E-02 0.000E+00 0.741E+01
   0.111E+02 0.162E+02 0.941E+03   -.111E+02 -.162E+02 -.933E+03   -.110E-01 0.544E-01 -.746E+01
   0.140E+02 0.311E+02 0.962E+03   -.140E+02 -.313E+02 -.954E+03   -.199E-01 0.145E+00 -.751E+01
   0.324E+02 0.370E+02 -.903E+03   -.323E+02 -.372E+02 0.895E+03   -.553E-01 0.167E+00 0.740E+01
   0.114E+02 0.344E+02 -.911E+03   -.114E+02 -.344E+02 0.903E+03   -.240E-01 0.116E-01 0.740E+01
   0.299E+02 0.175E+02 0.965E+03   -.300E+02 -.176E+02 -.957E+03   0.621E-01 0.111E+00 -.738E+01
   0.298E+02 0.637E-06 0.101E+04   -.299E+02 -.697E-07 -.100E+04   0.547E-01 0.000E+00 -.662E+01
   0.880E+02 0.709E-06 -.859E+03   -.888E+02 -.104E-06 0.851E+03   0.654E+00 0.000E+00 0.751E+01
   0.639E+02 0.887E+02 -.817E+03   -.636E+02 -.897E+02 0.809E+03   -.233E+00 0.749E+00 0.717E+01
   0.299E+02 -.175E+02 0.965E+03   -.300E+02 0.176E+02 -.957E+03   0.621E-01 -.111E+00 -.738E+01
   0.140E+02 -.311E+02 0.962E+03   -.140E+02 0.313E+02 -.954E+03   -.199E-01 -.145E+00 -.751E+01
   0.324E+02 -.370E+02 -.903E+03   -.323E+02 0.372E+02 0.895E+03   -.553E-01 -.167E+00 0.740E+01
   0.639E+02 -.887E+02 -.817E+03   -.636E+02 0.897E+02 0.809E+03   -.233E+00 -.749E+00 0.717E+01
   0.111E+02 -.162E+02 0.941E+03   -.111E+02 0.162E+02 -.933E+03   -.110E-01 -.544E-01 -.746E+01
   0.455E+01 -.106E+02 0.937E+03   -.454E+01 0.106E+02 -.929E+03   -.734E-02 -.161E-01 -.746E+01
[...]
   -.143E+02 0.160E+02 0.715E+03   0.143E+02 -.161E+02 -.719E+03   -.350E-02 0.112E+00 0.355E+01
   -.740E+01 0.811E+01 0.704E+03   0.740E+01 -.814E+01 -.708E+03   -.656E-03 0.408E-01 0.354E+01
   -.478E+02 0.290E+02 -.661E+03   0.479E+02 -.292E+02 0.665E+03   -.145E+00 0.287E+00 -.358E+01
   -.336E+02 0.234E-05 -.679E+03   0.337E+02 -.263E-07 0.683E+03   -.123E+00 0.000E+00 -.359E+01
   -.269E+02 0.234E-05 0.732E+03   0.270E+02 -.302E-07 -.736E+03   -.218E+00 0.000E+00 0.374E+01
   -.166E+02 0.705E+01 0.712E+03   0.166E+02 -.709E+01 -.716E+03   -.767E-01 0.633E-01 0.357E+01
   -.478E+02 -.290E+02 -.661E+03   0.479E+02 0.292E+02 0.665E+03   -.145E+00 -.287E+00 -.358E+01
   -.176E+02 -.143E+02 -.687E+03   0.176E+02 0.144E+02 0.691E+03   -.358E-01 -.836E-01 -.360E+01
   -.143E+02 -.160E+02 0.715E+03   0.143E+02 0.161E+02 -.719E+03   -.350E-02 -.112E+00 0.355E+01
   -.166E+02 -.705E+01 0.712E+03   0.166E+02 0.709E+01 -.716E+03   -.767E-01 -.633E-01 0.357E+01
   -.120E+02 -.181E+02 -.688E+03   0.120E+02 0.181E+02 0.692E+03   0.292E-01 -.329E-01 -.362E+01
   -.620E+01 -.581E+01 -.693E+03   0.619E+01 0.582E+01 0.697E+03   0.114E-01 -.144E-01 -.359E+01
   -.524E+01 -.625E+01 0.703E+03   0.523E+01 0.626E+01 -.707E+03   0.115E-01 -.164E-01 0.354E+01
   -.740E+01 -.811E+01 0.704E+03   0.740E+01 0.814E+01 -.708E+03   -.656E-03 -.408E-01 0.354E+01
   -.109E+00 0.286E-03 0.938E+01   0.108E-11 0.102E-11 -.261E-11   -.350E-14 -.694E-17 -.863E+01

 POSITION                                       TOTAL-FORCE (eV/Angst)
     13.98395     10.56943     13.67330        -0.228416      0.000000     -0.157457
     11.38267     10.56943     13.67330         0.228416      0.000000     -0.157457
      0.00000      0.00000      9.00000        -0.001298      0.000000      0.589496
      2.11389      2.11389      9.00000         0.000000     -0.004000      0.589265
      0.00000      2.11389     11.11389        -0.001550     -0.003787     -0.575238
      2.11389      0.00000     11.11389         0.000000      0.000000     -0.575749
      0.00000      4.22777      9.00000         0.000498     -0.008607      0.589459
      2.11389      6.34166      9.00000         0.000000     -0.007871      0.589421
      0.00000      6.34166     11.11389         0.003899     -0.008716     -0.573947
      2.11389      4.22777     11.11389         0.000000     -0.005862     -0.575189
      0.00000      8.45554      9.00000         0.011635     -0.007438      0.589381
      2.11389     10.56943      9.00000         0.000000      0.000000      0.589590
      0.00000     10.56943     11.11389         0.014497      0.000000     -0.573152
      2.11389      8.45554     11.11389         0.000000     -0.004500     -0.574467
      0.00000     12.68331      9.00000         0.011635      0.007438      0.589381
      2.11389     14.79720      9.00000         0.000000      0.007871      0.589421
      0.00000     14.79720     11.11389         0.003899      0.008716     -0.573947
      2.11389     12.68331     11.11389         0.000000      0.004500     -0.574467
      0.00000     16.91108      9.00000         0.000498      0.008607      0.589459
      2.11389     19.02497      9.00000         0.000000      0.004000      0.589265
      0.00000     19.02497     11.11389        -0.001550      0.003787     -0.575238
      2.11389     16.91108     11.11389         0.000000      0.005862     -0.575189
      4.22777      0.00000      9.00000         0.001298      0.000000      0.589496
      6.34166      2.11389      9.00000         0.002330     -0.005795      0.590384
      4.22777      2.11389     11.11389         0.001550     -0.003787     -0.575238
      6.34166      0.00000     11.11389         0.002912      0.000000     -0.574802
      4.22777      4.22777      9.00000        -0.000498     -0.008607      0.589459
      6.34166      6.34166      9.00000        -0.006876     -0.019248      0.588131
      4.22777      6.34166     11.11389        -0.003899     -0.008716     -0.573947
      6.34166      4.22777     11.11389         0.003734     -0.011193     -0.572746
      4.22777      8.45554      9.00000        -0.011635     -0.007438      0.589381
      6.34166     10.56943      9.00000        -0.038668      0.000000      0.586661
      4.22777     10.56943     11.11389        -0.014497      0.000000     -0.573152
      6.34166      8.45554     11.11389        -0.031203     -0.014996     -0.570755
      4.22777     12.68331      9.00000        -0.011635      0.007438      0.589381
      6.34166     14.79720      9.00000        -0.006876      0.019248      0.588131
      4.22777     14.79720     11.11389        -0.003899      0.008716     -0.573947
      6.34166     12.68331     11.11389        -0.031203      0.014996     -0.570755
      4.22777     16.91108      9.00000        -0.000498      0.008607      0.589459
      6.34166     19.02497      9.00000         0.002330      0.005795      0.590384
      4.22777     19.02497     11.11389         0.001550      0.003787     -0.575238
      6.34166     16.91108     11.11389         0.003734      0.011193     -0.572746
      8.45554      0.00000      9.00000         0.002932      0.000000      0.590763
     10.56943      2.11389      9.00000         0.002524     -0.005295      0.592255
      8.45554      2.11389     11.11389         0.004330     -0.002888     -0.572558
     10.56943      0.00000     11.11389         0.002592      0.000000     -0.572492
      8.45554      4.22777      9.00000         0.003588     -0.017468      0.593769
     10.56943      6.34166      9.00000         0.007667     -0.045532      0.606865
      8.45554      6.34166     11.11389         0.016447     -0.041322     -0.558910
     10.56943      4.22777     11.11389         0.007793     -0.000899     -0.561725
      8.45554      8.45554      9.00000        -0.024895     -0.040751      0.562076
     10.56943     10.56943      9.00000        -0.013624      0.000000      0.333350
      8.45554     10.56943     11.11389        -0.215943      0.000000     -0.604606
     10.56943      8.45554     11.11389         0.092996     -0.245489     -0.468006
      8.45554     12.68331      9.00000        -0.024895      0.040751      0.562076
     10.56943     14.79720      9.00000         0.007667      0.045532      0.606865
      8.45554     14.79720     11.11389         0.016447      0.041322     -0.558910
     10.56943     12.68331     11.11389         0.092996      0.245489     -0.468006
      8.45554     16.91108      9.00000         0.003588      0.017468      0.593769
     10.56943     19.02497      9.00000         0.002524      0.005295      0.592255
[...]
     19.02497      6.34166     11.11389        -0.010377      0.023710      0.289849
     16.91108      6.34166      9.00000        -0.001460      0.032044     -0.306185
     19.02497      4.22777      9.00000        -0.000209      0.011344     -0.308195
     16.91108      8.45554     11.11389        -0.050887      0.086931      0.307909
     19.02497     10.56943     11.11389        -0.036671      0.000000      0.294553
     16.91108     10.56943      9.00000        -0.070421      0.000000     -0.253123
     19.02497      8.45554      9.00000        -0.022044      0.017603     -0.300737
     16.91108     12.68331     11.11389        -0.050887     -0.086931      0.307909
     19.02497     14.79720     11.11389        -0.010377     -0.023710      0.289849
     16.91108     14.79720      9.00000        -0.001460     -0.032044     -0.306185
     19.02497     12.68331      9.00000        -0.022044     -0.017603     -0.300737
     16.91108     16.91108     11.11389         0.007993     -0.009572      0.285771
     19.02497     19.02497     11.11389         0.003166     -0.004052      0.291651
     16.91108     19.02497      9.00000         0.003131     -0.004586     -0.309307
     19.02497     16.91108      9.00000        -0.000209     -0.011344     -0.308195
    total drift:                               -0.108978      0.000286      0.741184

  FREE ENERGIE OF THE ION-ELECTRON SYSTEM (eV)
  free  energy   TOTEN  =     -1684.76307301 eV

  energy  without entropy=    -1684.76307301  energy(sigma->0) =    -1684.76307301