 vasp.6.4.0 14Feb23 (build Jul 14 2023 13:46:40) complex

 executed on             LinuxIFC date 2023.07.30  08:31:33

 INCAR:
   SYSTEM = MgO-rocksalt
   ISMEAR = 0
   SIGMA = 0.05
   EDIFF = 1E-6
   ALGO = ALL
   ISTART = 0
   IBRION = -1
   NSW = 0
   ISYM = 2
   DIPOL = 0.5 0.5 0.5
   IDIPOL = 3
   LDIPOL = .TRUE.
   METAGGA = R2SCAN
   LUSE_VDW = .TRUE.
   BPARAM = 11.95
   CPARAM = 0.0093
   ENCUT = 520
   PREC = Accurate
   LASPH = .TRUE.
   LREAL = Auto
   ISPIN = 1
   NELM = 200
   NELMIN = 8
   NCORE = 16
   KPAR = 1
   LWAVE = .FALSE.
   LCHARG = .FALSE.

 POTCAR:    PAW_PBE Cu 22Jun2005
 POTCAR:    PAW_PBE Mg_pv 13Apr2007
 POTCAR:    PAW_PBE O 08Apr2002
|               ----> ADVICE to this user running VASP <----                  |
|     You have switched on vdW-DFT.                                           |
|     This routine was written and supplied by Jiri Klimes. We recommend      |
|     that you carefully read and cite the following publications:            |
|       J. Klimes, D.R. Bowler, A. Michelides                                 |
|          J. Phys.: Cond Matt. 22 022201 (2010)                              |
|       J. Klimes, D.R. Bowler, A. Michelides                                 |
|          Phys. Rev. B. 83, 195131 (2011)                                    |
|     and references therein.                                                 |

   TITEL  = PAW_PBE Cu 22Jun2005
   POMASS =   63.546; ZVAL   =   11.000    mass and valenz
   ENMAX  =  295.446; ENMIN  =  221.585 eV

   TITEL  = PAW_PBE Mg_pv 13Apr2007
   POMASS =   24.305; ZVAL   =    8.000    mass and valenz
   ENMAX  =  403.929; ENMIN  =  302.947 eV

   TITEL  = PAW_PBE O 08Apr2002
   POMASS =   16.000; ZVAL   =    6.000    mass and valenz
   ENMAX  =  400.000; ENMIN  =  300.000 eV

 Optimization of the real space projectors (new method)

 maximal supplied QI-value         = 16.25
 optimisation between [QCUT,QGAM] = [ 11.54, 23.24] = [ 37.28,151.24] Ry
 Optimized for a Real-space Cutoff    1.53 Angstroem

   l    n(q)    QCUT    max X(q) W(low)/X(q) W(high)/X(q)  e(spline)
   2     10    11.539     4.610    0.96E-04    0.13E-03    0.19E-06
   2     10    11.539     8.522    0.16E-03    0.21E-03    0.28E-06
   0     11    11.539    51.609    0.45E-04    0.31E-04    0.11E-06
   0     11    11.539    27.747    0.39E-04    0.29E-04    0.10E-06
   1     10    11.539    20.408    0.70E-05    0.38E-04    0.18E-06
   1     10    11.539    13.425    0.66E-05    0.34E-04    0.17E-06
 Optimization of the real space projectors (new method)

[...]

   l    n(q)    QCUT    max X(q) W(low)/X(q) W(high)/X(q)  e(spline)
   1      8    11.527     2.974    0.44E-04    0.56E-04    0.12E-06
   1      8    11.527     4.279    0.12E-03    0.12E-03    0.26E-06
   0      9    11.527    16.381    0.46E-04    0.64E-04    0.78E-07
   0      9    11.527     5.611    0.26E-04    0.43E-04    0.55E-07
   2      8    11.527     4.652    0.22E-03    0.72E-04    0.47E-07
 Optimization of the real space projectors (new method)

 maximal supplied QI-value         = 24.76
 optimisation between [QCUT,QGAM] = [ 11.64, 23.27] = [ 37.91,151.63] Ry
 Optimized for a Real-space Cutoff    1.14 Angstroem

   l    n(q)    QCUT    max X(q) W(low)/X(q) W(high)/X(q)  e(spline)
   0      8    11.635    20.381    0.10E-03    0.33E-03    0.24E-06
   0      8    11.635    15.268    0.11E-03    0.35E-03    0.26E-06
   1      7    11.635     5.964    0.24E-03    0.31E-03    0.30E-06
   1      7    11.635     5.382    0.22E-03    0.25E-03    0.26E-06
  PAW_PBE Cu 22Jun2005                  :
  PAW_PBE Mg_pv 13Apr2007               :
  PAW_PBE O 08Apr2002                   :

 POSCAR: Cu Mg  O
  positions in direct lattice
  velocities in cartesian coordinates

 METAGGA = R2SCAN                                      LMAXTAU =  6    LMIXTAU =  F

 ion  position               nearest neighbor table
   1  0.400  0.417  0.591- 153 1.98   4 2.26   3 2.42   2 2.42  55 2.62
   2  0.490  0.488  0.600- 154 2.19   4 2.37   1 2.42
   3  0.310  0.488  0.600- 134 2.19   4 2.37   1 2.42
   4  0.400  0.492  0.664-   1 2.26   2 2.37   3 2.37
   5  0.000  0.000  0.407- 107 2.11 108 2.11 123 2.11 188 2.11 105 2.11
   6  0.100  0.100  0.407- 107 2.11 108 2.11 112 2.11 127 2.11 106 2.11
   7  0.000  0.100  0.503- 105 2.11 106 2.11 109 2.11 186 2.11 107 2.11
   8  0.100  0.000  0.503- 105 2.11 106 2.11 122 2.11 125 2.11 108 2.11
   9  0.000  0.200  0.407- 111 2.11 107 2.11 112 2.11 192 2.11 109 2.11
  10  0.100  0.300  0.407- 112 2.11 111 2.11 116 2.11 131 2.11 110 2.11
  11  0.000  0.300  0.503- 109 2.11 110 2.11 113 2.11 190 2.11 111 2.11
  12  0.100  0.200  0.503- 110 2.11 109 2.11 106 2.11 129 2.11 112 2.11
  13  0.000  0.400  0.407- 111 2.11 115 2.11 116 2.11 196 2.11 113 2.11
  14  0.100  0.500  0.407- 115 2.11 116 2.11 120 2.11 135 2.11 114 2.11
  15  0.000  0.500  0.503- 113 2.11 114 2.11 117 2.11 194 2.11 115 2.11
  16  0.100  0.400  0.503- 110 2.11 113 2.11 114 2.11 133 2.11 116 2.11
  17  0.000  0.600  0.407- 115 2.11 119 2.11 120 2.11 200 2.11 117 2.11
  18  0.100  0.700  0.407- 124 2.11 120 2.11 119 2.11 139 2.11 118 2.11
  19  0.000  0.700  0.503- 121 2.11 118 2.11 117 2.11 198 2.11 119 2.11
  20  0.100  0.600  0.503- 114 2.11 117 2.11 118 2.11 137 2.11 120 2.11
  21  0.000  0.800  0.407- 119 2.11 123 2.11 124 2.11 204 2.11 121 2.11
  22  0.100  0.900  0.407- 108 2.11 123 2.11 124 2.11 143 2.11 122 2.11
  23  0.000  0.900  0.503- 105 2.11 121 2.11 122 2.11 202 2.11 123 2.11
  24  0.100  0.800  0.503- 118 2.11 121 2.11 122 2.11 141 2.11 124 2.11
  25  0.200  0.000  0.407- 128 2.11 127 2.11 108 2.11 143 2.11 125 2.11
  26  0.300  0.100  0.407- 127 2.11 128 2.11 132 2.11 147 2.11 126 2.11
  27  0.200  0.100  0.503- 126 2.11 125 2.11 106 2.11 129 2.11 127 2.11
  28  0.300  0.000  0.503- 125 2.11 126 2.11 142 2.11 145 2.11 128 2.11
  29  0.200  0.200  0.407- 131 2.11 132 2.11 112 2.11 127 2.11 129 2.11
  30  0.300  0.300  0.407- 131 2.11 132 2.11 136 2.11 151 2.11 130 2.11
  31  0.200  0.300  0.503- 129 2.11 130 2.11 110 2.11 133 2.11 131 2.11
  32  0.300  0.200  0.503- 129 2.11 130 2.11 126 2.11 149 2.11 132 2.11
  33  0.200  0.400  0.407- 136 2.11 131 2.11 135 2.11 116 2.11 133 2.11
  34  0.300  0.500  0.407- 135 2.11 136 2.11 140 2.11 155 2.11 134 2.11
  35  0.200  0.500  0.503- 134 2.11 133 2.11 114 2.11 137 2.11 135 2.11
  36  0.300  0.400  0.503- 133 2.11 130 2.11 134 2.11 153 2.11 136 2.11
  37  0.200  0.600  0.407- 140 2.11 135 2.11 139 2.11 120 2.11 137 2.11
  38  0.300  0.700  0.407- 139 2.11 144 2.11 140 2.11 159 2.11 138 2.11
  39  0.200  0.700  0.503- 138 2.11 141 2.11 118 2.11 137 2.11 139 2.11
  40  0.300  0.600  0.503- 137 2.11 134 2.11 138 2.11 157 2.11 140 2.11
  41  0.200  0.800  0.407- 139 2.11 144 2.11 143 2.11 124 2.11 141 2.11
  42  0.300  0.900  0.407- 143 2.11 128 2.11 144 2.11 163 2.11 142 2.11
  43  0.200  0.900  0.503- 142 2.11 125 2.11 141 2.11 122 2.11 143 2.11
  44  0.300  0.800  0.503- 138 2.11 141 2.11 142 2.11 161 2.11 144 2.11
  45  0.400  0.000  0.407- 128 2.11 147 2.11 148 2.11 163 2.11 145 2.11
  46  0.500  0.100  0.407- 147 2.11 148 2.11 152 2.11 167 2.11 146 2.11
  47  0.400  0.100  0.503- 126 2.11 145 2.11 146 2.11 149 2.11 147 2.11
  48  0.500  0.000  0.503- 145 2.11 146 2.11 162 2.11 165 2.11 148 2.11
  49  0.400  0.200  0.407- 151 2.11 147 2.11 132 2.11 152 2.11 149 2.11
  50  0.500  0.300  0.407- 152 2.11 151 2.11 156 2.11 171 2.11 150 2.11
  51  0.400  0.300  0.503- 149 2.11 130 2.11 150 2.11 153 2.11 151 2.11
  52  0.500  0.200  0.503- 150 2.11 149 2.11 146 2.11 169 2.11 152 2.11
  53  0.400  0.400  0.407- 136 2.11 151 2.11 155 2.11 156 2.11 153 2.11
  54  0.500  0.500  0.407- 155 2.11 156 2.11 160 2.11 175 2.11 154 2.11
  55  0.400  0.500  0.503- 134 2.11 153 2.11 154 2.11 157 2.11 155 2.11   1 2.62
  56  0.500  0.400  0.503- 150 2.11 153 2.11 154 2.11 173 2.11 156 2.11
  57  0.400  0.600  0.407- 140 2.11 155 2.11 159 2.11 160 2.11 157 2.11
  58  0.500  0.700  0.407- 164 2.11 160 2.11 159 2.11 179 2.11 158 2.11
  59  0.400  0.700  0.503- 161 2.11 157 2.11 158 2.11 138 2.11 159 2.11
  60  0.500  0.600  0.503- 154 2.11 157 2.11 158 2.11 177 2.11 160 2.11
[...]
 190  0.900  0.300  0.503-  92 2.11  91 2.11  11 2.11  96 2.11  90 2.11
 191  0.800  0.300  0.407-  70 2.11  89 2.11  90 2.11  93 2.11  91 2.11
 192  0.900  0.200  0.407-  90 2.11  86 2.11  89 2.11   9 2.11  92 2.11
 193  0.800  0.400  0.503-  76 2.11  91 2.11  95 2.11  96 2.11  93 2.11
 194  0.900  0.500  0.503-  15 2.11  95 2.11  96 2.11 100 2.11  94 2.11
 195  0.800  0.500  0.407-  74 2.11  93 2.11  94 2.11  97 2.11  95 2.11
 196  0.900  0.400  0.407-  13 2.11  90 2.11  93 2.11  94 2.11  96 2.11
 197  0.800  0.600  0.503-  80 2.11  95 2.11  99 2.11 100 2.11  97 2.11
 198  0.900  0.700  0.503- 104 2.11  99 2.11 100 2.11  19 2.11  98 2.11
 199  0.800  0.700  0.407-  78 2.11 101 2.11  98 2.11  97 2.11  99 2.11
 200  0.900  0.600  0.407-  17 2.11  94 2.11  97 2.11  98 2.11 100 2.11
 201  0.800  0.800  0.503-  84 2.11  99 2.11 103 2.11 104 2.11 101 2.11
 202  0.900  0.900  0.503-  23 2.11  88 2.11 103 2.11 104 2.11 102 2.11
 203  0.800  0.900  0.407-  82 2.11  85 2.11 101 2.11 102 2.11 103 2.11
 204  0.900  0.800  0.407-  98 2.11  21 2.11 101 2.11 102 2.11 104 2.11

  LATTYP: Found a simple tetragonal cell.
 ALAT       =    21.1388521970
 C/A-ratio  =     1.0461251639

  Lattice vectors:

 A1 = (  21.1388521970,   0.0000000000,   0.0000000000)
 A2 = (   0.0000000000,  21.1388521970,   0.0000000000)
 A3 = (   0.0000000000,   0.0000000000,  22.1138852197)

Analysis of symmetry for initial positions (statically):
 Subroutine PRICEL returns:
 Original cell was already a primitive cell.

 Routine SETGRP: Setting up the symmetry group for a
 simple tetragonal supercell.

 Subroutine GETGRP returns: Found  2 space group operations
 (whereof  1 operations were pure point group operations)
 out of a pool of 16 trial point group operations.

The static configuration has the point symmetry C_1 .
 The point group associated with its full space group is C_1h.

Analysis of symmetry for dynamics (positions and initial velocities):
 Subroutine PRICEL returns:
 Original cell was already a primitive cell.

[...]

The dynamic configuration has the point symmetry C_1 .
 The point group associated with its full space group is C_1h.

Analysis of constrained symmetry for selective dynamics:
 Subroutine PRICEL returns:
 Original cell was already a primitive cell.

 Routine SETGRP: Setting up the symmetry group for a
 simple tetragonal supercell.

 Subroutine GETGRP returns: Found  2 space group operations
 (whereof  1 operations were pure point group operations)
 out of a pool of 16 trial point group operations.

The constrained configuration has the point symmetry C_1 .
 The point group associated with its full space group is C_1h.

 Subroutine INISYM returns: Found  2 space group operations
 (whereof  1 operations are pure point group operations),
 and found     1 'primitive' translations

                                     Primitive cell

  volume of cell :    9881.6133

  direct lattice vectors                    reciprocal lattice vectors
[...]
     52     -44.4730      2.00000
     53     -44.4725      2.00000
     54     -44.4724      2.00000
     55     -44.4719      2.00000
     56     -44.4715      2.00000
     57     -44.4713      2.00000
     58     -44.4666      2.00000
     59     -44.4621      2.00000
     60     -44.4621      2.00000
[...]
    882       5.1795      0.00000
    883       5.2566      0.00000
    884       5.2984      0.00000
    885       5.3249      0.00000
    886       5.3920      0.00000
    887       5.5227      0.00000
    888       5.6099      0.00000
    889       5.6775      0.00000
    890       5.7319      0.00000
    891       5.7595      0.00000
    892       5.8908      0.00000
    893       5.9363      0.00000
    894       5.9660      0.00000
    895       6.0196      0.00000
    896       6.0332      0.00000

 soft charge-density along one line, spin component           1
         0         1         2         3         4         5         6         7         8         9
 total charge-density along one line

------------------------ aborting loop because EDIFF is reached ----------------------------------------

  FORCE on cell =-STRESS in cart. coord.  units (eV):
  Direction    XX          YY          ZZ          XY          YZ          ZX
  Alpha Z  1394.80054  1394.80054  1394.80054
  Ewald  487008.22575485627.98407************     0.00456   493.91026     0.00668
  Hartree516708.37239515509.33156************     0.00414   374.55068     0.00123
  E(xc)   -8554.35767 -8554.64854 -8545.29709     0.00003     0.05115     0.00007
  Local  ************************************    -0.00928  -862.40372    -0.00688
  n-local -8768.59822 -8772.07780 -8895.11554     0.00053    -0.23408     0.00037
  augment  4083.70600  4084.09503  4025.23592     0.00018    -3.01305    -0.00022
  Kinetic 23095.11842 23093.97761 23312.64742     0.00035    -3.05670    -0.00011
  Fock        0.00000     0.00000     0.00000     0.00000     0.00000     0.00000
  Total    -229.03106  -228.57147   -21.36235     0.00000    -0.19546     0.00000
  in kB     -37.13446   -37.05994    -3.46363     0.00000    -0.03169     0.00000

 VOLUME and BASIS-vectors are now :
  energy-cutoff  :      520.00
  volume of cell :     9881.61
      direct lattice vectors                 reciprocal lattice vectors
    21.138852197  0.000000000  0.000000000     0.047306258  0.000000000  0.000000000
     0.000000000 21.138852197  0.000000000     0.000000000  0.047306258  0.000000000
     0.000000000  0.000000000 22.113885220     0.000000000  0.000000000  0.045220457

  length of vectors
    21.138852197 21.138852197 22.113885220     0.047306258  0.047306258  0.045220457

 FORCES acting on ions:
    Electron-Ion                     Ewald-Force                    Non-Local-Force
   0.203E-01 0.600E+03 -.197E+04   -.580E-02 -.593E+03 0.198E+04   -.928E-19 -.687E+01 -.213E+01
   -.602E+03 -.173E+03 -.204E+04   0.595E+03 0.168E+03 0.205E+04   0.669E+01 0.477E+01 -.699E+01
   0.602E+03 -.173E+03 -.204E+04   -.595E+03 0.168E+03 0.205E+04   -.669E+01 0.477E+01 -.699E+01
   -.161E-01 -.265E+03 -.243E+04   0.277E-02 0.258E+03 0.242E+04   -.209E-19 0.667E+01 0.108E+02
   0.683E+01 0.257E+01 0.936E+03   -.683E+01 -.257E+01 -.928E+03   0.163E-01 0.518E-02 -.752E+01
   0.150E+02 0.152E+02 0.941E+03   -.151E+02 -.153E+02 -.933E+03   0.486E-01 0.330E-01 -.753E+01
   0.108E+02 0.133E+02 -.919E+03   -.109E+02 -.133E+02 0.911E+03   0.211E-01 0.127E-02 0.749E+01
   0.140E+02 0.454E+01 -.918E+03   -.140E+02 -.455E+01 0.910E+03   0.231E-01 0.101E-01 0.749E+01
   0.128E+02 0.160E+02 0.942E+03   -.129E+02 -.160E+02 -.934E+03   0.441E-01 0.132E-01 -.754E+01
   0.361E+02 0.255E+02 0.959E+03   -.363E+02 -.255E+02 -.951E+03   0.171E+00 0.427E-01 -.758E+01
   0.262E+02 0.207E+02 -.912E+03   -.262E+02 -.207E+02 0.904E+03   0.296E-01 -.757E-02 0.747E+01
   0.323E+02 0.330E+02 -.910E+03   -.324E+02 -.330E+02 0.902E+03   0.738E-01 0.106E-02 0.747E+01
   0.238E+02 0.841E+01 0.951E+03   -.239E+02 -.842E+01 -.943E+03   0.847E-01 0.614E-02 -.756E+01
   0.515E+02 -.622E+01 0.974E+03   -.519E+02 0.623E+01 -.965E+03   0.309E+00 -.557E-02 -.764E+01
   0.376E+02 -.453E+01 -.907E+03   -.376E+02 0.452E+01 0.899E+03   0.289E-01 0.444E-02 0.746E+01
   0.826E+02 0.251E+02 -.887E+03   -.827E+02 -.251E+02 0.879E+03   0.979E-01 -.127E-01 0.739E+01
   0.211E+02 -.134E+02 0.949E+03   -.211E+02 0.134E+02 -.941E+03   0.795E-01 -.105E-01 -.755E+01
   0.278E+02 -.260E+02 0.953E+03   -.279E+02 0.260E+02 -.945E+03   0.883E-01 -.601E-01 -.755E+01
   0.207E+02 -.217E+02 -.914E+03   -.207E+02 0.217E+02 0.906E+03   0.331E-01 0.279E-02 0.748E+01
   0.683E+02 -.363E+02 -.892E+03   -.685E+02 0.363E+02 0.885E+03   0.177E+00 0.221E-01 0.742E+01
   0.100E+02 -.135E+02 0.940E+03   -.100E+02 0.135E+02 -.932E+03   0.233E-01 -.140E-01 -.753E+01
   0.122E+02 -.855E+01 0.939E+03   -.123E+02 0.856E+01 -.931E+03   0.242E-01 -.101E-01 -.753E+01
   0.888E+01 -.777E+01 -.919E+03   -.888E+01 0.777E+01 0.911E+03   0.110E-01 -.808E-03 0.750E+01
   0.232E+02 -.261E+02 -.913E+03   -.233E+02 0.262E+02 0.906E+03   0.232E-01 -.204E-01 0.748E+01
   0.120E+02 0.515E+01 0.942E+03   -.121E+02 -.519E+01 -.933E+03   0.301E-01 0.299E-01 -.753E+01
   0.110E+02 0.289E+02 0.952E+03   -.111E+02 -.291E+02 -.943E+03   0.410E-01 0.140E+00 -.754E+01
   0.217E+02 0.305E+02 -.912E+03   -.217E+02 -.305E+02 0.904E+03   0.472E-01 0.516E-01 0.748E+01
   0.968E+01 0.905E+01 -.914E+03   -.969E+01 -.911E+01 0.906E+03   0.167E-01 0.413E-01 0.749E+01
   0.276E+02 0.372E+02 0.960E+03   -.277E+02 -.374E+02 -.952E+03   0.132E+00 0.131E+00 -.756E+01
   0.374E+02 0.673E+02 0.102E+04   -.378E+02 -.679E+02 -.101E+04   0.320E+00 0.473E+00 -.759E+01
   0.834E+02 0.800E+02 -.872E+03   -.838E+02 -.800E+02 0.864E+03   0.294E+00 0.476E-02 0.733E+01
   0.325E+02 0.871E+02 -.886E+03   -.326E+02 -.874E+02 0.878E+03   0.855E-01 0.250E+00 0.744E+01
   0.681E+02 0.278E+02 0.101E+04   -.688E+02 -.280E+02 -.100E+04   0.583E+00 0.129E+00 -.776E+01
   0.584E+02 -.240E+02 0.109E+04   -.591E+02 0.244E+02 -.108E+04   0.531E+00 -.279E+00 -.630E+01
   0.182E+03 -.295E+02 -.788E+03   -.184E+03 0.294E+02 0.781E+03   0.139E+01 0.105E+00 0.700E+01
   0.184E+03 0.160E+03 -.640E+03   -.187E+03 -.162E+03 0.634E+03   0.218E+01 0.992E+00 0.537E+01
   0.542E+02 -.416E+02 0.997E+03   -.546E+02 0.418E+02 -.989E+03   0.280E+00 -.206E+00 -.755E+01
   0.231E+02 -.585E+02 0.985E+03   -.231E+02 0.589E+02 -.977E+03   0.579E-01 -.325E+00 -.763E+01
   0.527E+02 -.687E+02 -.889E+03   -.527E+02 0.689E+02 0.881E+03   0.357E-01 -.149E+00 0.743E+01
   0.902E+02 -.176E+03 -.763E+03   -.903E+02 0.177E+03 0.755E+03   0.423E-01 -.135E+01 0.705E+01
   0.193E+02 -.283E+02 0.951E+03   -.193E+02 0.284E+02 -.943E+03   0.390E-01 -.808E-01 -.755E+01
   0.832E+01 -.148E+02 0.946E+03   -.832E+01 0.149E+02 -.938E+03   0.156E-01 -.203E-01 -.753E+01
   0.162E+02 -.161E+02 -.915E+03   -.162E+02 0.161E+02 0.907E+03   0.189E-01 -.225E-02 0.749E+01
   0.182E+02 -.562E+02 -.901E+03   -.182E+02 0.563E+02 0.893E+03   0.140E-01 -.509E-01 0.746E+01
   0.148E-01 0.732E+01 0.945E+03   -.217E-03 -.740E+01 -.937E+03   -.275E-18 0.590E-01 -.753E+01
   -.110E+02 0.289E+02 0.952E+03   0.111E+02 -.291E+02 -.943E+03   -.410E-01 0.140E+00 -.754E+01
   0.150E-01 0.470E+02 -.906E+03   -.391E-03 -.472E+02 0.898E+03   0.200E-18 0.144E+00 0.748E+01
   -.965E+01 0.905E+01 -.914E+03   0.969E+01 -.911E+01 0.906E+03   -.167E-01 0.413E-01 0.749E+01
   0.151E-01 0.590E+02 0.979E+03   -.499E-03 -.596E+02 -.970E+03   0.224E-18 0.452E+00 -.760E+01
   -.374E+02 0.673E+02 0.102E+04   0.378E+02 -.679E+02 -.101E+04   -.320E+00 0.473E+00 -.759E+01
   0.169E-01 0.207E+03 -.777E+03   -.193E-02 -.210E+03 0.769E+03   -.290E-18 0.223E+01 0.747E+01
   -.324E+02 0.871E+02 -.886E+03   0.326E+02 -.874E+02 0.878E+03   -.855E-01 0.250E+00 0.744E+01
   0.160E-01 0.519E+02 0.111E+04   -.142E-02 -.523E+02 -.110E+04   -.215E-18 0.289E+00 -.514E+01
   -.584E+02 -.240E+02 0.109E+04   0.591E+02 0.244E+02 -.108E+04   -.531E+00 -.279E+00 -.630E+01
   0.173E-01 -.151E+03 -.465E+03   -.165E-02 0.154E+03 0.460E+03   -.433E-18 -.214E+01 0.470E+01
   -.184E+03 0.160E+03 -.640E+03   0.187E+03 -.162E+03 0.634E+03   -.218E+01 0.992E+00 0.537E+01
   0.158E-01 -.757E+02 0.105E+04   -.116E-02 0.766E+02 -.105E+04   -.390E-18 -.664E+00 -.774E+01
   -.230E+02 -.585E+02 0.985E+03   0.231E+02 0.589E+02 -.977E+03   -.579E-01 -.325E+00 -.763E+01
   0.158E-01 -.124E+03 -.859E+03   -.126E-02 0.124E+03 0.851E+03   0.292E-18 -.190E+00 0.738E+01
   -.902E+02 -.176E+03 -.763E+03   0.902E+02 0.177E+03 0.755E+03   -.423E-01 -.135E+01 0.705E+01
[...]
   -.139E+02 0.118E+02 0.712E+03   0.140E+02 -.118E+02 -.716E+03   -.546E-01 0.157E-01 0.340E+01
   0.707E-01 0.101E+02 0.706E+03   0.250E-03 -.101E+02 -.710E+03   -.292E-18 0.941E-02 0.342E+01
   -.264E+02 0.872E+01 -.682E+03   0.264E+02 -.872E+01 0.686E+03   -.325E-01 -.216E-02 -.363E+01
   0.702E-01 -.249E+01 -.686E+03   0.726E-03 0.248E+01 0.690E+03   -.782E-19 0.360E-02 -.360E+01
   -.187E+02 -.257E+01 0.716E+03   0.188E+02 0.257E+01 -.720E+03   -.670E-01 -.109E-02 0.339E+01
   0.705E-01 0.498E+01 0.711E+03   0.461E-03 -.499E+01 -.715E+03   -.258E-18 0.433E-02 0.341E+01
   -.230E+02 -.135E+02 -.684E+03   0.231E+02 0.135E+02 0.688E+03   -.370E-01 0.510E-02 -.361E+01
   0.705E-01 -.129E+02 -.689E+03   0.440E-03 0.129E+02 0.693E+03   0.234E-18 0.947E-04 -.357E+01
   -.112E+02 -.125E+02 0.710E+03   0.113E+02 0.126E+02 -.714E+03   -.450E-01 -.249E-01 0.342E+01
   0.705E-01 -.803E+01 0.710E+03   0.431E-03 0.804E+01 -.714E+03   -.354E-18 -.740E-02 0.341E+01
   -.963E+01 -.128E+02 -.690E+03   0.971E+01 0.128E+02 0.694E+03   -.217E-01 -.977E-02 -.356E+01
   0.708E-01 -.496E+01 -.692E+03   0.195E-03 0.496E+01 0.696E+03   -.173E-18 -.105E-02 -.355E+01
   -.537E+01 -.469E+01 0.704E+03   0.545E+01 0.470E+01 -.708E+03   -.177E-01 -.498E-02 0.343E+01
   0.708E-01 -.866E+01 0.705E+03   0.219E-03 0.867E+01 -.709E+03   0.174E-18 -.105E-01 0.343E+01
   0.862E+01 -.958E+01 0.133E+02   0.355E-11 -.711E-14 -.966E-11   -.368E-14 0.959E+01 -.104E+02

 POSITION                                       TOTAL-FORCE (eV/Angst)
      8.45555      8.82382     13.06192        -0.000000      0.245373     -0.023558
     10.35658     10.31213     13.27893        -0.208449     -0.056722     -0.125550
      6.55462     10.31214     13.27893         0.208449     -0.056722     -0.125550
      8.45565     10.40011     14.68777        -0.000000     -0.118933     -0.323308
      0.00000      0.00000      9.00000        -0.004617     -0.001587      0.528970
      2.11389      2.11389      9.00000        -0.013814     -0.009486      0.531062
      0.00000      2.11389     11.11389        -0.005826     -0.000408     -0.471177
      2.11389      0.00000     11.11389        -0.006597     -0.002900     -0.471759
      0.00000      4.22777      9.00000        -0.012098     -0.003785      0.532539
      2.11389      6.34166      9.00000        -0.046452     -0.012120      0.544370
      0.00000      6.34166     11.11389        -0.006967      0.002661     -0.460138
      2.11389      4.22777     11.11389        -0.019537      0.000267     -0.458406
      0.00000      8.45554      9.00000        -0.023278     -0.001806      0.538885
      2.11389     10.56943      9.00000        -0.080909      0.001216      0.556173
      0.00000     10.56943     11.11389        -0.005650     -0.001422     -0.452689
      2.11389      8.45554     11.11389        -0.019034      0.006744     -0.409631
      0.00000     12.68331      9.00000        -0.021399      0.002955      0.537142
      2.11389     14.79720      9.00000        -0.025452      0.017751      0.534517
      0.00000     14.79720     11.11389        -0.008497     -0.000972     -0.465099
      2.11389     12.68331     11.11389        -0.043128     -0.008745     -0.428609
      0.00000     16.91108      9.00000        -0.006578      0.003962      0.530292
      2.11389     19.02497      9.00000        -0.006902      0.002607      0.530226
      0.00000     19.02497     11.11389        -0.003136      0.000040     -0.472952
      2.11389     16.91108     11.11389        -0.006489      0.004935     -0.466324
      4.22777      0.00000      9.00000        -0.008668     -0.008462      0.530765
      6.34166      2.11389      9.00000        -0.012300     -0.038403      0.533995
      4.22777      2.11389     11.11389        -0.013577     -0.013529     -0.464192
      6.34166      0.00000     11.11389        -0.004854     -0.011255     -0.468598
      4.22777      4.22777      9.00000        -0.038254     -0.037784      0.536621
      6.34166      6.34166      9.00000        -0.104599     -0.140769      0.520660
      4.22777      6.34166     11.11389        -0.066140      0.013993     -0.371329
      6.34166      4.22777     11.11389        -0.026423     -0.065442     -0.434269
      4.22777      8.45554      9.00000        -0.161490     -0.043232      0.566196
      6.34166     10.56943      9.00000        -0.152802      0.091450      0.218173
      4.22777     10.56943     11.11389        -0.465651     -0.038428     -0.334948
      6.34166      8.45554     11.11389        -0.778284     -0.435513     -0.148174
      4.22777     12.68331      9.00000        -0.086559      0.066368      0.521928
      6.34166     14.79720      9.00000        -0.015857      0.085561      0.552494
      4.22777     14.79720     11.11389        -0.007905      0.036292     -0.431079
      6.34166     12.68331     11.11389         0.006742      0.441491     -0.323148
      4.22777     16.91108      9.00000        -0.011176      0.021854      0.535410
      6.34166     19.02497      9.00000        -0.004465      0.005296      0.532340
      4.22777     19.02497     11.11389        -0.005369      0.000048     -0.469117
      6.34166     16.91108     11.11389        -0.003896      0.011125     -0.455376
      8.45554      0.00000      9.00000        -0.000000     -0.016034      0.531742
     10.56943      2.11389      9.00000         0.012300     -0.038403      0.533995
      8.45554      2.11389     11.11389        -0.000000     -0.037168     -0.459718
     10.56943      0.00000     11.11389         0.004854     -0.011255     -0.468598
      8.45554      4.22777      9.00000        -0.000000     -0.117307      0.542645
     10.56943      6.34166      9.00000         0.104599     -0.140769      0.520660
      8.45554      6.34166     11.11389        -0.000000     -0.731579     -0.502777
     10.56943      4.22777     11.11389         0.026423     -0.065442     -0.434269
      8.45554      8.45554      9.00000        -0.000000     -0.100535     -0.006809
     10.56943     10.56943      9.00000         0.152802      0.091450      0.218173
      8.45554     10.56943     11.11389        -0.000000      0.982322     -0.239324
     10.56943      8.45554     11.11389         0.778284     -0.435513     -0.148174
      8.45554     12.68331      9.00000        -0.000000      0.195132      0.547727
     10.56943     14.79720      9.00000         0.015857      0.085561      0.552494
      8.45554     14.79720     11.11389         0.000000      0.039500     -0.401528
     10.56943     12.68331     11.11389        -0.006742      0.441491     -0.323148
[...]
     19.02497      6.34166     11.11389        -0.000000     -0.001418      0.298340
     16.91108      6.34166      9.00000        -0.015224      0.004347     -0.369919
     19.02497      4.22777      9.00000        -0.000000      0.002515     -0.365180
     16.91108      8.45554     11.11389        -0.009530     -0.000556      0.285660
     19.02497     10.56943     11.11389         0.000000      0.000997      0.294246
     16.91108     10.56943      9.00000        -0.019040     -0.000414     -0.373850
     19.02497      8.45554      9.00000        -0.000000      0.001109     -0.369410
     16.91108     12.68331     11.11389        -0.010688      0.001267      0.290587
     19.02497     14.79720     11.11389         0.000000      0.000018      0.301543
     16.91108     14.79720      9.00000        -0.012534     -0.006919     -0.366649
     19.02497     12.68331      9.00000         0.000000     -0.002053     -0.367917
     16.91108     16.91108     11.11389        -0.005995     -0.002736      0.303912
     19.02497     19.02497     11.11389        -0.000000     -0.000303      0.307128
     16.91108     19.02497      9.00000        -0.004883     -0.001415     -0.363096
     19.02497     16.91108      9.00000        -0.000000     -0.002918     -0.363750
    total drift:                                8.618598      0.010475      2.887873

  FREE ENERGIE OF THE ION-ELECTRON SYSTEM (eV)
  free  energy   TOTEN  =     -1534.14282235 eV

  energy  without entropy=    -1534.14282235  energy(sigma->0) =    -1534.14282235