 vasp.6.3.0 20Jan22 (build Apr  1 2022 16:44:48) complex
 executed on        HPECrayEX_GCC date 2022.08.15  19:31:35

 INCAR:
   SYSTEM = MgO-rocksalt
   ISMEAR = 0
   SIGMA = 0.05
   EDIFF = 1E-6
   ALGO = ALL
   ISTART = 0
   IBRION = -1
   NSW = 0
   ISYM = 2
   DIPOL = 0.5 0.5 0.5
   IDIPOL = 3
   LDIPOL = .TRUE.
   GGA = RE
   IVDW = 12
   VDW_A1 = 0.5238
   VDW_S8 = 2.3550
   VDW_A2 = 3.5016
   ENCUT = 520
   PREC = Accurate
   LASPH = .TRUE.
   LREAL = Auto
   ISPIN = 1
   NELM = 200
   NELMIN = 8
   NCORE = 4
   KPAR = 2
   LWAVE = .FALSE.
   LCHARG = .FALSE.

 POTCAR:    PAW_PBE Au 04Oct2007
 POTCAR:    PAW_PBE Mg_pv 13Apr2007
 POTCAR:    PAW_PBE O 08Apr2002
 POTCAR:    PAW_PBE Au 04Oct2007
   VRHFIN =Au: s1d10

   TITEL  = PAW_PBE Au 04Oct2007
   POMASS =  196.966; ZVAL   =   11.000    mass and valenz
   ENMAX  =  229.943; ENMIN  =  172.457 eV

   TITEL  = PAW_PBE Mg_pv 13Apr2007
   POMASS =   24.305; ZVAL   =    8.000    mass and valenz
   ENMAX  =  403.929; ENMIN  =  302.947 eV

   TITEL  = PAW_PBE O 08Apr2002
   POMASS =   16.000; ZVAL   =    6.000    mass and valenz
   ENMAX  =  400.000; ENMIN  =  300.000 eV

 Optimization of the real space projectors (new method)

 maximal supplied QI-value         = 15.12
 optimisation between [QCUT,QGAM] = [ 11.64, 23.28] = [ 37.95,151.78] Ry
 Optimized for a Real-space Cutoff    1.49 Angstroem

   l    n(q)    QCUT    max X(q) W(low)/X(q) W(high)/X(q)  e(spline)
   2      9    11.641    60.898    0.24E-03    0.10E-03    0.19E-06
   2      9    11.641    58.894    0.25E-03    0.10E-03    0.19E-06
   0     10    11.641   109.617    0.73E-04    0.33E-04    0.11E-06
   0     10    11.641    75.026    0.71E-04    0.32E-04    0.11E-06
   1     10    11.641    16.344    0.27E-04    0.97E-04    0.16E-06
   1     10    11.641    10.160    0.23E-04    0.77E-04    0.13E-06
 Optimization of the real space projectors (new method)

[...]

   l    n(q)    QCUT    max X(q) W(low)/X(q) W(high)/X(q)  e(spline)
   1      8    11.527     2.974    0.44E-04    0.56E-04    0.12E-06
   1      8    11.527     4.279    0.12E-03    0.12E-03    0.26E-06
   0      9    11.527    16.381    0.46E-04    0.64E-04    0.78E-07
   0      9    11.527     5.611    0.26E-04    0.43E-04    0.55E-07
   2      8    11.527     4.652    0.22E-03    0.72E-04    0.47E-07
 Optimization of the real space projectors (new method)

 maximal supplied QI-value         = 24.76
 optimisation between [QCUT,QGAM] = [ 11.64, 23.27] = [ 37.91,151.63] Ry
 Optimized for a Real-space Cutoff    1.14 Angstroem

   l    n(q)    QCUT    max X(q) W(low)/X(q) W(high)/X(q)  e(spline)
   0      8    11.635    20.381    0.10E-03    0.33E-03    0.24E-06
   0      8    11.635    15.268    0.11E-03    0.35E-03    0.26E-06
   1      7    11.635     5.964    0.24E-03    0.31E-03    0.30E-06
   1      7    11.635     5.382    0.22E-03    0.25E-03    0.26E-06
|               ----> ADVICE to this user running VASP <----                  |
|     You enforced a specific xc type in the INCAR file but a different       |
|     type was found in the POTCAR file.                                      |
|     I HOPE YOU KNOW WHAT YOU ARE DOING!                                     |

  PAW_PBE Au 04Oct2007                  :
  PAW_PBE Mg_pv 13Apr2007               :
  PAW_PBE O 08Apr2002                   :

 POSCAR: Au Mg  O
  positions in direct lattice
 exchange correlation table for  LEXCH =       40
   RHO(1)=    0.500       N(1)  =     2000
   RHO(2)=  100.500       N(2)  =     4000

 ion  position               nearest neighbor table
   1  0.492  0.408  0.630-   2 2.53  54 2.82
   2  0.408  0.492  0.630-   1 2.53  53 2.82
   3  0.000  0.000  0.407- 105 2.11 106 2.11 121 2.11 186 2.11 103 2.11
   4  0.100  0.100  0.407- 105 2.11 106 2.11 110 2.11 125 2.11 104 2.11
   5  0.000  0.100  0.503- 103 2.11 104 2.11 107 2.11 184 2.11 105 2.11
   6  0.100  0.000  0.503- 103 2.11 104 2.11 120 2.11 123 2.11 106 2.11
   7  0.000  0.200  0.407- 109 2.11 105 2.11 110 2.11 190 2.11 107 2.11
   8  0.100  0.300  0.407- 110 2.11 109 2.11 114 2.11 129 2.11 108 2.11
   9  0.000  0.300  0.503- 107 2.11 108 2.11 111 2.11 188 2.11 109 2.11
  10  0.100  0.200  0.503- 108 2.11 107 2.11 104 2.11 127 2.11 110 2.11
  11  0.000  0.400  0.407- 109 2.11 113 2.11 114 2.11 194 2.11 111 2.11
  12  0.100  0.500  0.407- 113 2.11 114 2.11 118 2.11 133 2.11 112 2.11
  13  0.000  0.500  0.503- 111 2.11 112 2.11 115 2.11 192 2.11 113 2.11
  14  0.100  0.400  0.503- 108 2.11 111 2.11 112 2.11 131 2.11 114 2.11
  15  0.000  0.600  0.407- 113 2.11 117 2.11 118 2.11 198 2.11 115 2.11
  16  0.100  0.700  0.407- 122 2.11 118 2.11 117 2.11 137 2.11 116 2.11
  17  0.000  0.700  0.503- 119 2.11 116 2.11 115 2.11 196 2.11 117 2.11
  18  0.100  0.600  0.503- 112 2.11 115 2.11 116 2.11 135 2.11 118 2.11
  19  0.000  0.800  0.407- 117 2.11 121 2.11 122 2.11 202 2.11 119 2.11
  20  0.100  0.900  0.407- 106 2.11 121 2.11 122 2.11 141 2.11 120 2.11
  21  0.000  0.900  0.503- 103 2.11 119 2.11 120 2.11 200 2.11 121 2.11
  22  0.100  0.800  0.503- 116 2.11 119 2.11 120 2.11 139 2.11 122 2.11
  23  0.200  0.000  0.407- 126 2.11 125 2.11 106 2.11 141 2.11 123 2.11
  24  0.300  0.100  0.407- 125 2.11 126 2.11 130 2.11 145 2.11 124 2.11
  25  0.200  0.100  0.503- 124 2.11 123 2.11 104 2.11 127 2.11 125 2.11
  26  0.300  0.000  0.503- 123 2.11 124 2.11 140 2.11 143 2.11 126 2.11
  27  0.200  0.200  0.407- 129 2.11 130 2.11 110 2.11 125 2.11 127 2.11
  28  0.300  0.300  0.407- 129 2.11 130 2.11 134 2.11 149 2.11 128 2.11
  29  0.200  0.300  0.503- 127 2.11 128 2.11 108 2.11 131 2.11 129 2.11
  30  0.300  0.200  0.503- 127 2.11 128 2.11 124 2.11 147 2.11 130 2.11
  31  0.200  0.400  0.407- 134 2.11 129 2.11 133 2.11 114 2.11 131 2.11
  32  0.300  0.500  0.407- 133 2.11 134 2.11 138 2.11 153 2.11 132 2.11
  33  0.200  0.500  0.503- 132 2.11 131 2.11 112 2.11 135 2.11 133 2.11
  34  0.300  0.400  0.503- 131 2.11 128 2.11 132 2.11 151 2.11 134 2.11
  35  0.200  0.600  0.407- 138 2.11 133 2.11 137 2.11 118 2.11 135 2.11
  36  0.300  0.700  0.407- 137 2.11 142 2.11 138 2.11 157 2.11 136 2.11
  37  0.200  0.700  0.503- 136 2.11 139 2.11 116 2.11 135 2.11 137 2.11
  38  0.300  0.600  0.503- 135 2.11 132 2.11 136 2.11 155 2.11 138 2.11
  39  0.200  0.800  0.407- 137 2.11 142 2.11 141 2.11 122 2.11 139 2.11
  40  0.300  0.900  0.407- 141 2.11 126 2.11 142 2.11 161 2.11 140 2.11
  41  0.200  0.900  0.503- 140 2.11 123 2.11 139 2.11 120 2.11 141 2.11
  42  0.300  0.800  0.503- 136 2.11 139 2.11 140 2.11 159 2.11 142 2.11
  43  0.400  0.000  0.407- 126 2.11 145 2.11 146 2.11 161 2.11 143 2.11
  44  0.500  0.100  0.407- 145 2.11 146 2.11 150 2.11 165 2.11 144 2.11
  45  0.400  0.100  0.503- 124 2.11 143 2.11 144 2.11 147 2.11 145 2.11
  46  0.500  0.000  0.503- 143 2.11 144 2.11 160 2.11 163 2.11 146 2.11
  47  0.400  0.200  0.407- 149 2.11 145 2.11 130 2.11 150 2.11 147 2.11
  48  0.500  0.300  0.407- 150 2.11 149 2.11 154 2.11 169 2.11 148 2.11
  49  0.400  0.300  0.503- 147 2.11 128 2.11 148 2.11 151 2.11 149 2.11
  50  0.500  0.200  0.503- 148 2.11 147 2.11 144 2.11 167 2.11 150 2.11
  51  0.400  0.400  0.407- 134 2.11 149 2.11 153 2.11 154 2.11 151 2.11
  52  0.500  0.500  0.407- 153 2.11 154 2.11 158 2.11 173 2.11 152 2.11
  53  0.400  0.500  0.503- 132 2.11 151 2.11 152 2.11 155 2.11 153 2.11   2 2.82
  54  0.500  0.400  0.503- 148 2.11 151 2.11 152 2.11 171 2.11 154 2.11   1 2.82
  55  0.400  0.600  0.407- 138 2.11 153 2.11 157 2.11 158 2.11 155 2.11
  56  0.500  0.700  0.407- 162 2.11 158 2.11 157 2.11 177 2.11 156 2.11
  57  0.400  0.700  0.503- 159 2.11 155 2.11 156 2.11 136 2.11 157 2.11
  58  0.500  0.600  0.503- 152 2.11 155 2.11 156 2.11 175 2.11 158 2.11
  59  0.400  0.800  0.407- 157 2.11 142 2.11 161 2.11 162 2.11 159 2.11
  60  0.500  0.900  0.407- 146 2.11 161 2.11 162 2.11 181 2.11 160 2.11
[...]
 188  0.900  0.300  0.503-  90 2.11  89 2.11   9 2.11  94 2.11  88 2.11
 189  0.800  0.300  0.407-  68 2.11  87 2.11  88 2.11  91 2.11  89 2.11
 190  0.900  0.200  0.407-  88 2.11  84 2.11  87 2.11   7 2.11  90 2.11
 191  0.800  0.400  0.503-  74 2.11  89 2.11  93 2.11  94 2.11  91 2.11
 192  0.900  0.500  0.503-  13 2.11  93 2.11  94 2.11  98 2.11  92 2.11
 193  0.800  0.500  0.407-  72 2.11  91 2.11  92 2.11  95 2.11  93 2.11
 194  0.900  0.400  0.407-  11 2.11  88 2.11  91 2.11  92 2.11  94 2.11
 195  0.800  0.600  0.503-  78 2.11  93 2.11  97 2.11  98 2.11  95 2.11
 196  0.900  0.700  0.503- 102 2.11  97 2.11  98 2.11  17 2.11  96 2.11
 197  0.800  0.700  0.407-  76 2.11  99 2.11  96 2.11  95 2.11  97 2.11
 198  0.900  0.600  0.407-  15 2.11  92 2.11  95 2.11  96 2.11  98 2.11
 199  0.800  0.800  0.503-  82 2.11  97 2.11 101 2.11 102 2.11  99 2.11
 200  0.900  0.900  0.503-  21 2.11  86 2.11 101 2.11 102 2.11 100 2.11
 201  0.800  0.900  0.407-  80 2.11  83 2.11  99 2.11 100 2.11 101 2.11
 202  0.900  0.800  0.407-  96 2.11  19 2.11  99 2.11 100 2.11 102 2.11

  LATTYP: Found a simple tetragonal cell.
 ALAT       =    21.1388521970
 C/A-ratio  =     1.0461251639

  Lattice vectors:

 A1 = (  21.1388521970,   0.0000000000,   0.0000000000)
 A2 = (   0.0000000000,  21.1388521970,   0.0000000000)
 A3 = (   0.0000000000,   0.0000000000,  22.1138852197)

Analysis of symmetry for initial positions (statically):
 Subroutine PRICEL returns:
 Original cell was already a primitive cell.

 Routine SETGRP: Setting up the symmetry group for a
 simple tetragonal supercell.

 Subroutine GETGRP returns: Found  4 space group operations
 (whereof  2 operations were pure point group operations)
 out of a pool of 16 trial point group operations.

The static configuration has the point symmetry C_1h.
 The point group associated with its full space group is C_2v.

Analysis of symmetry for dynamics (positions and initial velocities):
 Subroutine PRICEL returns:
 Original cell was already a primitive cell.

 Routine SETGRP: Setting up the symmetry group for a
 simple tetragonal supercell.

 Subroutine GETGRP returns: Found  4 space group operations
 (whereof  2 operations were pure point group operations)
 out of a pool of 16 trial point group operations.

The dynamic configuration has the point symmetry C_1h.
 The point group associated with its full space group is C_2v.

 Subroutine INISYM returns: Found  4 space group operations
 (whereof  2 operations are pure point group operations),
 and found     1 'primitive' translations

                                     Primitive cell

  volume of cell :    9881.6133

  direct lattice vectors                    reciprocal lattice vectors
    21.138852197  0.000000000  0.000000000     0.047306258  0.000000000  0.000000000
     0.000000000 21.138852197  0.000000000     0.000000000  0.047306258  0.000000000
     0.000000000  0.000000000 22.113885220     0.000000000  0.000000000  0.045220457

  length of vectors
    21.138852197 21.138852197 22.113885220     0.047306258  0.047306258  0.045220457

  position of ions in fractional coordinates (direct lattice)
     0.492280992  0.407719014  0.629662437
     0.407718984  0.492281023  0.629662437
     0.000000000  0.000000000  0.406984115
     0.100000000  0.100000000  0.406984115
[...]
|           WW  WW  A    A  R   R   N   NN  II  N   NN  G    G                |
|           W    W  A    A  R    R  N    N  II  N    N   GGGG   !!!           |
|     Specifying the vdW parameters                                           |
|     VDW_A1 = 0.524                                                          |
|     VDW_A2 = 3.502                                                          |
|     VDW_S8 = 2.355                                                          |
|     in the INCAR file will overwrite the defaults for revpbe. Please        |
|     make sure that is what you intended.                                    |

         DFTD3 V3.0 Rev 1
 IVDW         = 12
 DF revpbe
 parameters
 VDW_S6       =    1.0000
 VDW_S8       =    2.3550
 VDW_A1       =    0.5238
 VDW_A2       =    3.5016
 k1-k3        =   16.0000    1.3333   -4.0000
 VDW_RADIUS   =   50.2022 A
 VDW_CNRADIUS =   21.1671 A
 Edisp (eV)  -64.83759

 E6    (eV) :   -20.4846
 E8    (eV) :   -44.3530
 % E8        : 68.41

  FORCE on cell =-STRESS in cart. coord.  units (eV):
  Direction    XX          YY          ZZ          XY          YZ          ZX
  Alpha Z  1365.75682  1365.75682  1365.75682
  Ewald  478966.19865478966.19865************  -341.35603     0.00001    -0.00001
  Hartree507604.55298507604.55299************  -229.70613     0.00001    -0.00000
  E(xc)   -7774.25746 -7774.25746 -7824.27025    -0.65374    -0.00000    -0.00000
  Local  ************************************   556.48421    -0.00001     0.00001
  n-local -8716.45727 -8716.45730 -8828.31769     7.89246    -0.00001    -0.00001
  augment  3414.23335  3414.23336  3355.61647     1.96560    -0.00000     0.00000
  Kinetic 23009.80013 23009.80015 23255.02889     5.21749     0.00000     0.00000
  Fock        0.00000     0.00000     0.00000     0.00000     0.00000     0.00000
  vdW       -66.57866   -66.57866   -21.74960     0.00351    -0.00000     0.00000
  Total    -170.27461  -170.27461    19.19400    -0.15265     0.00000     0.00000
  in kB     -27.60785   -27.60785     3.11206    -0.02475     0.00000     0.00000

 VOLUME and BASIS-vectors are now :
  energy-cutoff  :      520.00
  volume of cell :     9881.61
      direct lattice vectors                 reciprocal lattice vectors
    21.138852197  0.000000000  0.000000000     0.047306258  0.000000000  0.000000000
     0.000000000 21.138852197  0.000000000     0.000000000  0.047306258  0.000000000
     0.000000000  0.000000000 22.113885220     0.000000000  0.000000000  0.045220457

  length of vectors
    21.138852197 21.138852197 22.113885220     0.047306258  0.047306258  0.045220457

 FORCES acting on ions:
    Electron-Ion                     Ewald-Force                    Non-Local-Force
   -.195E+03 0.195E+03 -.203E+04   0.191E+03 -.191E+03 0.203E+04   0.462E+01 -.462E+01 0.480E+00
   0.195E+03 -.195E+03 -.203E+04   -.191E+03 0.191E+03 0.203E+04   -.462E+01 0.462E+01 0.480E+00
   0.174E+01 0.174E+01 0.931E+03   -.174E+01 -.174E+01 -.923E+03   -.212E-02 -.212E-02 -.752E+01
   0.628E+01 0.628E+01 0.933E+03   -.627E+01 -.627E+01 -.925E+03   -.397E-02 -.397E-02 -.753E+01
   0.263E+01 0.602E+01 -.922E+03   -.261E+01 -.602E+01 0.914E+03   -.113E-01 0.237E-03 0.750E+01
   0.601E+01 0.263E+01 -.922E+03   -.602E+01 -.261E+01 0.914E+03   0.237E-03 -.113E-01 0.750E+01
   0.297E+01 0.642E+01 0.933E+03   -.295E+01 -.643E+01 -.926E+03   -.144E-01 0.535E-02 -.752E+01
   0.131E+02 0.814E+01 0.939E+03   -.131E+02 -.817E+01 -.931E+03   -.107E-01 0.202E-01 -.753E+01
   0.582E+01 0.718E+01 -.919E+03   -.580E+01 -.719E+01 0.912E+03   -.163E-01 0.678E-02 0.749E+01
   0.127E+02 0.117E+02 -.919E+03   -.127E+02 -.117E+02 0.911E+03   -.199E-01 0.263E-02 0.749E+01
   0.529E+01 0.235E+01 0.936E+03   -.529E+01 -.236E+01 -.929E+03   0.194E-02 0.724E-02 -.753E+01
   0.169E+02 -.270E+01 0.942E+03   -.170E+02 0.268E+01 -.934E+03   0.701E-01 0.138E-01 -.754E+01
   0.827E+01 -.258E+01 -.918E+03   -.829E+01 0.257E+01 0.910E+03   0.166E-01 0.412E-02 0.749E+01
   0.256E+02 0.587E+01 -.913E+03   -.256E+02 -.591E+01 0.905E+03   0.511E-03 0.247E-01 0.749E+01
   0.500E+01 -.547E+01 0.935E+03   -.503E+01 0.548E+01 -.928E+03   0.264E-01 -.290E-02 -.753E+01
   0.102E+02 -.908E+01 0.936E+03   -.102E+02 0.910E+01 -.929E+03   0.307E-01 -.170E-01 -.752E+01
   0.522E+01 -.823E+01 -.921E+03   -.525E+01 0.824E+01 0.913E+03   0.233E-01 -.574E-02 0.750E+01
   0.219E+02 -.112E+02 -.915E+03   -.219E+02 0.112E+02 0.907E+03   0.554E-01 0.130E-02 0.749E+01
   0.264E+01 -.504E+01 0.932E+03   -.266E+01 0.505E+01 -.924E+03   0.133E-01 -.760E-02 -.752E+01
   0.504E+01 -.264E+01 0.932E+03   -.505E+01 0.266E+01 -.924E+03   0.760E-02 -.133E-01 -.752E+01
   0.239E+01 -.239E+01 -.923E+03   -.239E+01 0.239E+01 0.915E+03   0.540E-02 -.540E-02 0.750E+01
   0.903E+01 -.903E+01 -.921E+03   -.905E+01 0.905E+01 0.913E+03   0.174E-01 -.174E-01 0.750E+01
   0.642E+01 0.297E+01 0.933E+03   -.643E+01 -.295E+01 -.926E+03   0.535E-02 -.144E-01 -.752E+01
   0.814E+01 0.131E+02 0.939E+03   -.817E+01 -.131E+02 -.931E+03   0.202E-01 -.107E-01 -.753E+01
   0.117E+02 0.127E+02 -.919E+03   -.117E+02 -.127E+02 0.911E+03   0.263E-02 -.199E-01 0.749E+01
   0.718E+01 0.582E+01 -.919E+03   -.719E+01 -.580E+01 0.912E+03   0.678E-02 -.163E-01 0.749E+01
   0.136E+02 0.136E+02 0.940E+03   -.136E+02 -.136E+02 -.933E+03   0.107E-02 0.107E-02 -.754E+01
   0.229E+02 0.229E+02 0.962E+03   -.229E+02 -.229E+02 -.954E+03   0.376E-01 0.376E-01 -.761E+01
   0.345E+02 0.229E+02 -.906E+03   -.344E+02 -.229E+02 0.898E+03   -.630E-01 0.326E-01 0.748E+01
   0.229E+02 0.345E+02 -.906E+03   -.229E+02 -.344E+02 0.898E+03   0.326E-01 -.630E-01 0.748E+01
   0.272E+02 0.712E+01 0.954E+03   -.272E+02 -.722E+01 -.947E+03   0.186E-02 0.756E-01 -.754E+01
   0.324E+02 -.885E+01 0.981E+03   -.323E+02 0.876E+01 -.974E+03   -.592E-01 0.622E-01 -.723E+01
   0.546E+02 -.782E+01 -.893E+03   -.548E+02 0.775E+01 0.885E+03   0.184E+00 0.525E-01 0.749E+01
   0.809E+02 0.359E+02 -.848E+03   -.806E+02 -.362E+02 0.840E+03   -.228E+00 0.278E+00 0.740E+01
   0.222E+02 -.135E+02 0.950E+03   -.223E+02 0.136E+02 -.942E+03   0.669E-01 -.301E-01 -.752E+01
   0.135E+02 -.222E+02 0.950E+03   -.136E+02 0.223E+02 -.942E+03   0.301E-01 -.669E-01 -.752E+01
   0.226E+02 -.226E+02 -.912E+03   -.227E+02 0.227E+02 0.904E+03   0.420E-01 -.420E-01 0.750E+01
   0.532E+02 -.532E+02 -.869E+03   -.534E+02 0.534E+02 0.862E+03   0.152E+00 -.152E+00 0.755E+01
   0.908E+01 -.102E+02 0.936E+03   -.910E+01 0.102E+02 -.929E+03   0.170E-01 -.307E-01 -.752E+01
   0.547E+01 -.500E+01 0.935E+03   -.548E+01 0.503E+01 -.928E+03   0.290E-02 -.264E-01 -.753E+01
   0.823E+01 -.522E+01 -.921E+03   -.824E+01 0.525E+01 0.913E+03   0.574E-02 -.233E-01 0.750E+01
   0.112E+02 -.219E+02 -.915E+03   -.112E+02 0.219E+02 0.907E+03   -.130E-02 -.554E-01 0.749E+01
   0.235E+01 0.529E+01 0.936E+03   -.236E+01 -.529E+01 -.929E+03   0.724E-02 0.194E-02 -.753E+01
   -.270E+01 0.169E+02 0.942E+03   0.268E+01 -.170E+02 -.934E+03   0.138E-01 0.701E-01 -.754E+01
   0.587E+01 0.256E+02 -.913E+03   -.591E+01 -.256E+02 0.905E+03   0.247E-01 0.511E-03 0.749E+01
   -.258E+01 0.827E+01 -.918E+03   0.257E+01 -.829E+01 0.910E+03   0.412E-02 0.166E-01 0.749E+01
   0.712E+01 0.272E+02 0.954E+03   -.722E+01 -.272E+02 -.947E+03   0.756E-01 0.186E-02 -.754E+01
   -.885E+01 0.324E+02 0.981E+03   0.876E+01 -.323E+02 -.974E+03   0.622E-01 -.592E-01 -.723E+01
   0.359E+02 0.809E+02 -.848E+03   -.362E+02 -.806E+02 0.840E+03   0.278E+00 -.228E+00 0.740E+01
   -.782E+01 0.546E+02 -.893E+03   0.775E+01 -.548E+02 0.885E+03   0.525E-01 0.184E+00 0.749E+01
   0.170E+02 0.170E+02 0.101E+04   -.170E+02 -.170E+02 -.997E+03   0.227E-01 0.227E-01 -.781E+01
   -.170E+02 -.170E+02 0.101E+04   0.170E+02 0.170E+02 -.997E+03   -.227E-01 -.227E-01 -.781E+01
   0.492E+02 -.492E+02 -.709E+03   -.486E+02 0.486E+02 0.704E+03   -.459E+00 0.459E+00 0.502E+01
   -.492E+02 0.492E+02 -.709E+03   0.486E+02 -.486E+02 0.704E+03   0.459E+00 -.459E+00 0.502E+01
   0.885E+01 -.324E+02 0.981E+03   -.876E+01 0.323E+02 -.974E+03   -.622E-01 0.592E-01 -.723E+01
   -.712E+01 -.272E+02 0.954E+03   0.722E+01 0.272E+02 -.947E+03   -.756E-01 -.186E-02 -.754E+01
   0.782E+01 -.546E+02 -.893E+03   -.775E+01 0.548E+02 0.885E+03   -.525E-01 -.184E+00 0.749E+01
   -.359E+02 -.809E+02 -.848E+03   0.362E+02 0.806E+02 0.840E+03   -.278E+00 0.228E+00 0.740E+01
   0.270E+01 -.169E+02 0.942E+03   -.268E+01 0.170E+02 -.934E+03   -.138E-01 -.701E-01 -.754E+01
   -.235E+01 -.529E+01 0.936E+03   0.236E+01 0.529E+01 -.929E+03   -.724E-02 -.194E-02 -.753E+01
[...]
   -.107E+02 0.587E+01 0.706E+03   0.107E+02 -.588E+01 -.710E+03   -.462E-01 0.129E-01 0.346E+01
   -.285E+01 0.488E+01 0.702E+03   0.286E+01 -.489E+01 -.706E+03   -.199E-01 0.965E-02 0.346E+01
   -.202E+02 0.279E+01 -.686E+03   0.203E+02 -.277E+01 0.690E+03   -.371E-01 -.256E-01 -.350E+01
   -.574E+01 -.234E+01 -.690E+03   0.573E+01 0.234E+01 0.694E+03   0.390E-03 -.987E-02 -.350E+01
   -.123E+02 -.287E+01 0.708E+03   0.123E+02 0.290E+01 -.712E+03   -.164E-01 -.385E-01 0.345E+01
   -.424E+01 0.152E+01 0.704E+03   0.425E+01 -.152E+01 -.708E+03   -.150E-01 -.378E-02 0.346E+01
   -.145E+02 -.865E+01 -.688E+03   0.145E+02 0.866E+01 0.693E+03   0.107E-01 -.181E-01 -.350E+01
   -.293E+01 -.605E+01 -.692E+03   0.292E+01 0.606E+01 0.696E+03   0.136E-01 -.410E-02 -.349E+01
   -.690E+01 -.655E+01 0.703E+03   0.689E+01 0.655E+01 -.707E+03   0.986E-02 -.245E-02 0.345E+01
   -.313E+01 -.419E+01 0.703E+03   0.313E+01 0.420E+01 -.707E+03   0.859E-02 -.101E-01 0.345E+01
   -.608E+01 -.608E+01 -.692E+03   0.607E+01 0.607E+01 0.696E+03   0.845E-02 0.845E-02 -.349E+01
   -.159E+01 -.159E+01 -.694E+03   0.159E+01 0.159E+01 0.698E+03   0.271E-02 0.271E-02 -.349E+01
   -.366E+01 -.157E+01 0.700E+03   0.366E+01 0.156E+01 -.705E+03   -.136E-02 0.868E-02 0.346E+01
   -.157E+01 -.366E+01 0.700E+03   0.156E+01 0.366E+01 -.705E+03   0.868E-02 -.136E-02 0.346E+01
   -.308E-01 0.151E-01 0.111E+02   0.155E-11 0.117E-11 0.117E-10   0.312E-15 -.576E-15 -.118E+02

 POSITION                                       TOTAL-FORCE (eV/Angst)
     10.40626      8.61871     13.92428         0.148560     -0.148560     -0.037672
      8.61871     10.40626     13.92428        -0.148560      0.148560     -0.037672
      0.00000      0.00000      9.00000         0.000599      0.000599      0.355216
      2.11389      2.11389      9.00000         0.001248      0.001248      0.356027
      0.00000      2.11389     11.11389         0.003072      0.000029     -0.350039
      2.11389      0.00000     11.11389         0.000029      0.003072     -0.350039
      0.00000      4.22777      9.00000         0.003834     -0.001384      0.355559
      2.11389      6.34166      9.00000         0.002898     -0.005249      0.356732
      0.00000      6.34166     11.11389         0.004461     -0.001792     -0.348774
      2.11389      4.22777     11.11389         0.005774     -0.000119     -0.348074
      0.00000      8.45554      9.00000        -0.000562     -0.002083      0.355822
      2.11389     10.56943      9.00000        -0.017257     -0.004094      0.358722
      0.00000     10.56943     11.11389        -0.003910     -0.001254     -0.348710
      2.11389      8.45554     11.11389         0.001965     -0.006974     -0.344847
      0.00000     12.68331      9.00000        -0.006816      0.000826      0.355445
      2.11389     14.79720      9.00000        -0.008212      0.004724      0.354395
      0.00000     14.79720     11.11389        -0.006121      0.001569     -0.349793
      2.11389     12.68331     11.11389        -0.013406     -0.000536     -0.348172
      0.00000     16.91108      9.00000        -0.003569      0.002065      0.355014
      2.11389     19.02497      9.00000        -0.002065      0.003569      0.355014
      0.00000     19.02497     11.11389        -0.001438      0.001438     -0.350411
      2.11389     16.91108     11.11389        -0.004619      0.004619     -0.350109
      4.22777      0.00000      9.00000        -0.001384      0.003834      0.355559
      6.34166      2.11389      9.00000        -0.005249      0.002898      0.356732
      4.22777      2.11389     11.11389        -0.000119      0.005774     -0.348074
      6.34166      0.00000     11.11389        -0.001792      0.004461     -0.348774
      4.22777      4.22777      9.00000         0.000708      0.000708      0.359681
      6.34166      6.34166      9.00000        -0.004146     -0.004146      0.381477
      4.22777      6.34166     11.11389         0.022306     -0.004144     -0.337069
      6.34166      4.22777     11.11389        -0.004144      0.022306     -0.337069
      4.22777      8.45554      9.00000        -0.001334     -0.022927      0.359708
      6.34166     10.56943      9.00000         0.028220     -0.021956      0.293003
      4.22777     10.56943     11.11389        -0.050326     -0.017982     -0.328104
      6.34166      8.45554     11.11389         0.114202     -0.055274     -0.234073
      4.22777     12.68331      9.00000        -0.017915      0.009405      0.353216
      6.34166     14.79720      9.00000        -0.009405      0.017915      0.353216
      4.22777     14.79720     11.11389        -0.009819      0.009819     -0.349214
      6.34166     12.68331     11.11389        -0.022684      0.022684     -0.337792
      4.22777     16.91108      9.00000        -0.004724      0.008212      0.354395
      6.34166     19.02497      9.00000        -0.000826      0.006816      0.355445
      4.22777     19.02497     11.11389        -0.001569      0.006121     -0.349793
      6.34166     16.91108     11.11389         0.000536      0.013406     -0.348172
      8.45554      0.00000      9.00000        -0.002083     -0.000562      0.355822
     10.56943      2.11389      9.00000        -0.004094     -0.017257      0.358722
      8.45554      2.11389     11.11389        -0.006974      0.001965     -0.344847
     10.56943      0.00000     11.11389        -0.001254     -0.003910     -0.348710
      8.45554      4.22777      9.00000        -0.022927     -0.001334      0.359708
     10.56943      6.34166      9.00000        -0.021956      0.028220      0.293003
      8.45554      6.34166     11.11389        -0.055274      0.114202     -0.234073
     10.56943      4.22777     11.11389        -0.017982     -0.050326     -0.328104
      8.45554      8.45554      9.00000         0.004426      0.004426      0.431396
     10.56943     10.56943      9.00000        -0.004426     -0.004426      0.431396
      8.45554     10.56943     11.11389         0.162613     -0.162613     -0.242802
     10.56943      8.45554     11.11389        -0.162613      0.162613     -0.242802
      8.45554     12.68331      9.00000         0.021956     -0.028220      0.293003
     10.56943     14.79720      9.00000         0.022927      0.001334      0.359708
      8.45554     14.79720     11.11389         0.017982      0.050326     -0.328104
     10.56943     12.68331     11.11389         0.055274     -0.114202     -0.234073
      8.45554     16.91108      9.00000         0.004094      0.017257      0.358722
     10.56943     19.02497      9.00000         0.002083      0.000562      0.355822
[...]
     19.02497      6.34166     11.11389        -0.005912      0.000846      0.583705
     16.91108      6.34166      9.00000        -0.012930      0.003667     -0.589758
     19.02497      4.22777      9.00000        -0.005570      0.002787     -0.590146
     16.91108      8.45554     11.11389        -0.010890     -0.007071      0.581166
     19.02497     10.56943     11.11389        -0.000004     -0.002746      0.582844
     16.91108     10.56943      9.00000        -0.004743     -0.010747     -0.592742
     19.02497      8.45554      9.00000        -0.004245     -0.001020     -0.590635
     16.91108     12.68331     11.11389         0.002729     -0.005143      0.580938
     19.02497     14.79720     11.11389         0.003766     -0.001179      0.584051
     16.91108     14.79720      9.00000         0.002634     -0.000772     -0.591668
     19.02497     12.68331      9.00000         0.002342     -0.002867     -0.590873
     16.91108     16.91108     11.11389         0.002277      0.002277      0.583838
     19.02497     19.02497     11.11389         0.000731      0.000731      0.584988
     16.91108     19.02497      9.00000        -0.000420      0.002397     -0.590497
     19.02497     16.91108      9.00000         0.002397     -0.000420     -0.590497
    total drift:                               -0.030785      0.015133     -0.654862

  FREE ENERGIE OF THE ION-ELECTRON SYSTEM (eV)
  free  energy   TOTEN  =     -1153.81656089 eV

  energy  without entropy=    -1153.81656089  energy(sigma->0) =    -1153.81656089