 vasp.6.3.0 20Jan22 (build Apr  1 2022 16:44:48) complex
 executed on        HPECrayEX_GCC date 2023.01.10  03:22:32

 INCAR:
   SYSTEM = MgO-rocksalt
   ISMEAR = 0
   SIGMA = 0.05
   EDIFF = 1E-6
   ALGO = ALL
   ISTART = 0
   IBRION = -1
   NSW = 0
   ISYM = 2
   DIPOL = 0.5 0.5 0.5
   IDIPOL = 3
   LDIPOL = .TRUE.
   IVDW = 13
   VDW_S8 = 2.0293
   VDW_A1 = 0.4087
   VDW_A2 = 4.5381
   ENCUT = 520
   PREC = Accurate
   LASPH = .TRUE.
   LREAL = Auto
   ISPIN = 1
   NELM = 200
   NELMIN = 8
   NCORE = 4
   KPAR = 2
   LWAVE = .FALSE.
   LCHARG = .FALSE.

 POTCAR:    PAW_PBE Au 04Oct2007
 POTCAR:    PAW_PBE Mg_pv 13Apr2007
 POTCAR:    PAW_PBE O 08Apr2002
 POTCAR:    PAW_PBE Au 04Oct2007
   VRHFIN =Au: s1d10

   TITEL  = PAW_PBE Au 04Oct2007
   POMASS =  196.966; ZVAL   =   11.000    mass and valenz
   ENMAX  =  229.943; ENMIN  =  172.457 eV

   TITEL  = PAW_PBE Mg_pv 13Apr2007
   POMASS =   24.305; ZVAL   =    8.000    mass and valenz
   ENMAX  =  403.929; ENMIN  =  302.947 eV

   TITEL  = PAW_PBE O 08Apr2002
   POMASS =   16.000; ZVAL   =    6.000    mass and valenz
   ENMAX  =  400.000; ENMIN  =  300.000 eV

 Optimization of the real space projectors (new method)

 maximal supplied QI-value         = 15.12
 optimisation between [QCUT,QGAM] = [ 11.64, 23.28] = [ 37.95,151.78] Ry
 Optimized for a Real-space Cutoff    1.49 Angstroem

   l    n(q)    QCUT    max X(q) W(low)/X(q) W(high)/X(q)  e(spline)
   2      9    11.641    60.898    0.24E-03    0.10E-03    0.19E-06
   2      9    11.641    58.894    0.25E-03    0.10E-03    0.19E-06
   0     10    11.641   109.617    0.73E-04    0.33E-04    0.11E-06
   0     10    11.641    75.026    0.71E-04    0.32E-04    0.11E-06
   1     10    11.641    16.344    0.27E-04    0.97E-04    0.16E-06
   1     10    11.641    10.160    0.23E-04    0.77E-04    0.13E-06
 Optimization of the real space projectors (new method)

[...]

   l    n(q)    QCUT    max X(q) W(low)/X(q) W(high)/X(q)  e(spline)
   1      8    11.527     2.974    0.44E-04    0.56E-04    0.12E-06
   1      8    11.527     4.279    0.12E-03    0.12E-03    0.26E-06
   0      9    11.527    16.381    0.46E-04    0.64E-04    0.78E-07
   0      9    11.527     5.611    0.26E-04    0.43E-04    0.55E-07
   2      8    11.527     4.652    0.22E-03    0.72E-04    0.47E-07
 Optimization of the real space projectors (new method)

 maximal supplied QI-value         = 24.76
 optimisation between [QCUT,QGAM] = [ 11.64, 23.27] = [ 37.91,151.63] Ry
 Optimized for a Real-space Cutoff    1.14 Angstroem

   l    n(q)    QCUT    max X(q) W(low)/X(q) W(high)/X(q)  e(spline)
   0      8    11.635    20.381    0.10E-03    0.33E-03    0.24E-06
   0      8    11.635    15.268    0.11E-03    0.35E-03    0.26E-06
   1      7    11.635     5.964    0.24E-03    0.31E-03    0.30E-06
   1      7    11.635     5.382    0.22E-03    0.25E-03    0.26E-06
  PAW_PBE Au 04Oct2007                  :
  PAW_PBE Mg_pv 13Apr2007               :
  PAW_PBE O 08Apr2002                   :

 POSCAR: Au Mg  O
  positions in direct lattice
  velocities in cartesian coordinates
|           W    W    AA    RRRRR   N    N  II  N    N   GGGG   !!!           |
|           W    W   A  A   R    R  NN   N  II  NN   N  G    G  !!!           |
|           W    W  A    A  R    R  N N  N  II  N N  N  G       !!!           |
|           W WW W  AAAAAA  RRRRR   N  N N  II  N  N N  G  GGG   !            |
|           WW  WW  A    A  R   R   N   NN  II  N   NN  G    G                |
|           W    W  A    A  R    R  N    N  II  N    N   GGGG   !!!           |
|     Specifying the vdW parameters                                           |
|     VDW_S8 = 2.029                                                          |
|     VDW_A1 = 0.409                                                          |
|     VDW_A2 = 4.538                                                          |
|     in the INCAR file will overwrite the defaults for pbe. Please make      |
|     sure that is what you intended.                                         |

 ion  position               nearest neighbor table
   1  0.400  0.565  0.604- 157 2.36   3 2.61  55 2.63   4 2.77
   2  0.400  0.500  0.818-   3 2.52
   3  0.400  0.500  0.704-   2 2.52   4 2.61   1 2.61
   4  0.400  0.434  0.604- 153 2.35   3 2.61  55 2.64   1 2.77
   5  0.000  0.000  0.407- 107 2.11 108 2.11 123 2.11 188 2.11 105 2.11
   6  0.100  0.100  0.407- 107 2.11 108 2.11 112 2.11 127 2.11 106 2.11
   7  0.000  0.100  0.503- 105 2.11 106 2.11 109 2.11 186 2.11 107 2.11
   8  0.100  0.000  0.503- 105 2.11 106 2.11 122 2.11 125 2.11 108 2.11
   9  0.000  0.200  0.407- 111 2.11 107 2.11 112 2.11 192 2.11 109 2.11
  10  0.100  0.300  0.407- 112 2.11 111 2.11 116 2.11 131 2.11 110 2.11
  11  0.000  0.300  0.503- 109 2.11 110 2.11 113 2.11 190 2.11 111 2.11
  12  0.100  0.200  0.503- 110 2.11 109 2.11 106 2.11 129 2.11 112 2.11
  13  0.000  0.400  0.407- 111 2.11 115 2.11 116 2.11 196 2.11 113 2.11
  14  0.100  0.500  0.407- 115 2.11 116 2.11 120 2.11 135 2.11 114 2.11
  15  0.000  0.500  0.503- 113 2.11 114 2.11 117 2.11 194 2.11 115 2.11
  16  0.100  0.400  0.503- 110 2.11 113 2.11 114 2.11 133 2.11 116 2.11
  17  0.000  0.600  0.407- 115 2.11 119 2.11 120 2.11 200 2.11 117 2.11
  18  0.100  0.700  0.407- 124 2.11 120 2.11 119 2.11 139 2.11 118 2.11
  19  0.000  0.700  0.503- 121 2.11 118 2.11 117 2.11 198 2.11 119 2.11
  20  0.100  0.600  0.503- 114 2.11 117 2.11 118 2.11 137 2.11 120 2.11
  21  0.000  0.800  0.407- 119 2.11 123 2.11 124 2.11 204 2.11 121 2.11
  22  0.100  0.900  0.407- 108 2.11 123 2.11 124 2.11 143 2.11 122 2.11
  23  0.000  0.900  0.503- 105 2.11 121 2.11 122 2.11 202 2.11 123 2.11
  24  0.100  0.800  0.503- 118 2.11 121 2.11 122 2.11 141 2.11 124 2.11
  25  0.200  0.000  0.407- 128 2.11 127 2.11 108 2.11 143 2.11 125 2.11
  26  0.300  0.100  0.407- 127 2.11 128 2.11 132 2.11 147 2.11 126 2.11
  27  0.200  0.100  0.503- 126 2.11 125 2.11 106 2.11 129 2.11 127 2.11
  28  0.300  0.000  0.503- 125 2.11 126 2.11 142 2.11 145 2.11 128 2.11
  29  0.200  0.200  0.407- 131 2.11 132 2.11 112 2.11 127 2.11 129 2.11
  30  0.300  0.300  0.407- 131 2.11 132 2.11 136 2.11 151 2.11 130 2.11
  31  0.200  0.300  0.503- 129 2.11 130 2.11 110 2.11 133 2.11 131 2.11
  32  0.300  0.200  0.503- 129 2.11 130 2.11 126 2.11 149 2.11 132 2.11
  33  0.200  0.400  0.407- 136 2.11 131 2.11 135 2.11 116 2.11 133 2.11
  34  0.300  0.500  0.407- 135 2.11 136 2.11 140 2.11 155 2.11 134 2.11
  35  0.200  0.500  0.503- 134 2.11 133 2.11 114 2.11 137 2.11 135 2.11
  36  0.300  0.400  0.503- 133 2.11 130 2.11 134 2.11 153 2.11 136 2.11
  37  0.200  0.600  0.407- 140 2.11 135 2.11 139 2.11 120 2.11 137 2.11
  38  0.300  0.700  0.407- 139 2.11 144 2.11 140 2.11 159 2.11 138 2.11
  39  0.200  0.700  0.503- 138 2.11 141 2.11 118 2.11 137 2.11 139 2.11
  40  0.300  0.600  0.503- 137 2.11 134 2.11 138 2.11 157 2.11 140 2.11
  41  0.200  0.800  0.407- 139 2.11 144 2.11 143 2.11 124 2.11 141 2.11
  42  0.300  0.900  0.407- 143 2.11 128 2.11 144 2.11 163 2.11 142 2.11
  43  0.200  0.900  0.503- 142 2.11 125 2.11 141 2.11 122 2.11 143 2.11
  44  0.300  0.800  0.503- 138 2.11 141 2.11 142 2.11 161 2.11 144 2.11
  45  0.400  0.000  0.407- 128 2.11 147 2.11 148 2.11 163 2.11 145 2.11
  46  0.500  0.100  0.407- 147 2.11 148 2.11 152 2.11 167 2.11 146 2.11
  47  0.400  0.100  0.503- 126 2.11 145 2.11 146 2.11 149 2.11 147 2.11
  48  0.500  0.000  0.503- 145 2.11 146 2.11 162 2.11 165 2.11 148 2.11
  49  0.400  0.200  0.407- 151 2.11 147 2.11 132 2.11 152 2.11 149 2.11
  50  0.500  0.300  0.407- 152 2.11 151 2.11 156 2.11 171 2.11 150 2.11
  51  0.400  0.300  0.503- 149 2.11 130 2.11 150 2.11 153 2.11 151 2.11
  52  0.500  0.200  0.503- 150 2.11 149 2.11 146 2.11 169 2.11 152 2.11
  53  0.400  0.400  0.407- 136 2.11 151 2.11 155 2.11 156 2.11 153 2.11
  54  0.500  0.500  0.407- 155 2.11 156 2.11 160 2.11 175 2.11 154 2.11
  55  0.400  0.500  0.503- 134 2.11 153 2.11 154 2.11 157 2.11 155 2.11   1 2.63   4 2.64
  56  0.500  0.400  0.503- 150 2.11 153 2.11 154 2.11 173 2.11 156 2.11
  57  0.400  0.600  0.407- 140 2.11 155 2.11 159 2.11 160 2.11 157 2.11
  58  0.500  0.700  0.407- 164 2.11 160 2.11 159 2.11 179 2.11 158 2.11
  59  0.400  0.700  0.503- 161 2.11 157 2.11 158 2.11 138 2.11 159 2.11
  60  0.500  0.600  0.503- 154 2.11 157 2.11 158 2.11 177 2.11 160 2.11
[...]
 190  0.900  0.300  0.503-  92 2.11  91 2.11  11 2.11  96 2.11  90 2.11
 191  0.800  0.300  0.407-  70 2.11  89 2.11  90 2.11  93 2.11  91 2.11
 192  0.900  0.200  0.407-  90 2.11  86 2.11  89 2.11   9 2.11  92 2.11
 193  0.800  0.400  0.503-  76 2.11  91 2.11  95 2.11  96 2.11  93 2.11
 194  0.900  0.500  0.503-  15 2.11  95 2.11  96 2.11 100 2.11  94 2.11
 195  0.800  0.500  0.407-  74 2.11  93 2.11  94 2.11  97 2.11  95 2.11
 196  0.900  0.400  0.407-  13 2.11  90 2.11  93 2.11  94 2.11  96 2.11
 197  0.800  0.600  0.503-  80 2.11  95 2.11  99 2.11 100 2.11  97 2.11
 198  0.900  0.700  0.503- 104 2.11  99 2.11 100 2.11  19 2.11  98 2.11
 199  0.800  0.700  0.407-  78 2.11 101 2.11  98 2.11  97 2.11  99 2.11
 200  0.900  0.600  0.407-  17 2.11  94 2.11  97 2.11  98 2.11 100 2.11
 201  0.800  0.800  0.503-  84 2.11  99 2.11 103 2.11 104 2.11 101 2.11
 202  0.900  0.900  0.503-  23 2.11  88 2.11 103 2.11 104 2.11 102 2.11
 203  0.800  0.900  0.407-  82 2.11  85 2.11 101 2.11 102 2.11 103 2.11
 204  0.900  0.800  0.407-  98 2.11  21 2.11 101 2.11 102 2.11 104 2.11

  LATTYP: Found a simple tetragonal cell.
 ALAT       =    21.1388521970
 C/A-ratio  =     1.0461251639

  Lattice vectors:

 A1 = (  21.1388521970,   0.0000000000,   0.0000000000)
 A2 = (   0.0000000000,  21.1388521970,   0.0000000000)
 A3 = (   0.0000000000,   0.0000000000,  22.1138852197)

Analysis of symmetry for initial positions (statically):
 Subroutine PRICEL returns:
 Original cell was already a primitive cell.

 Routine SETGRP: Setting up the symmetry group for a
 simple tetragonal supercell.

 Subroutine GETGRP returns: Found  1 space group operations
 (whereof  1 operations were pure point group operations)
 out of a pool of 16 trial point group operations.

The static configuration has the point symmetry C_1 .

Analysis of symmetry for dynamics (positions and initial velocities):
 Subroutine PRICEL returns:
 Original cell was already a primitive cell.

[...]

The dynamic configuration has the point symmetry C_1 .

Analysis of constrained symmetry for selective dynamics:
 Subroutine PRICEL returns:
 Original cell was already a primitive cell.

 Routine SETGRP: Setting up the symmetry group for a
 simple tetragonal supercell.

 Subroutine GETGRP returns: Found  1 space group operations
 (whereof  1 operations were pure point group operations)
 out of a pool of 16 trial point group operations.

The constrained configuration has the point symmetry C_1 .

 Subroutine INISYM returns: Found  1 space group operations
 (whereof  1 operations are pure point group operations),
 and found     1 'primitive' translations

                                     Primitive cell

  volume of cell :    9881.6133

  direct lattice vectors                    reciprocal lattice vectors
[...]
     54     -43.1373      2.00000
     55     -43.1371      2.00000
     56     -43.1268      2.00000
     57     -43.1266      2.00000
     58     -43.1261      2.00000
     59     -43.1259      2.00000
     60     -43.1251      2.00000
[...]
   1010       6.9399      0.00000
   1011       6.9444      0.00000
   1012       6.9538      0.00000
   1013       7.0690      0.00000
   1014       7.1324      0.00000
   1015       7.1421      0.00000
   1016       7.1780      0.00000
   1017       7.4557      0.00000
   1018       7.5248      0.00000
   1019       7.6122      0.00000
   1020       7.6867      0.00000
   1021       7.6932      0.00000
   1022       7.7294      0.00000
   1023       7.7914      0.00000
   1024       7.8148      0.00000

 soft charge-density along one line, spin component           1
         0         1         2         3         4         5         6         7         8         9
 total charge-density along one line

------------------------ aborting loop because EDIFF is reached ----------------------------------------

  FORCE on cell =-STRESS in cart. coord.  units (eV):
  Direction    XX          YY          ZZ          XY          YZ          ZX
  Alpha Z  1417.83424  1417.83424  1417.83424
  Ewald  475017.55858476123.61356************     0.15895     0.50430    -0.54556
  Hartree504408.49823505205.13288************     0.11367     0.17915    -0.38573
  E(xc)   -7848.33237 -7847.08815 -7876.79905     0.00016     0.00036    -0.00083
  Local  ************************************    -0.26850    -0.67032     0.91219
  n-local -8749.62044 -8758.59432 -8889.66378    -0.00088     0.01849     0.00699
  augment  3556.01416  3550.96706  3488.81656    -0.00102    -0.00827     0.00279
  Kinetic 23307.83044 23295.57871 23533.05787    -0.00228     0.00528     0.01322
  Fock        0.00000     0.00000     0.00000     0.00000     0.00000     0.00000
  vdW       -36.67854   -36.73546   -14.49555    -0.00003    -0.00034    -0.00002
  Total    -184.71524  -184.85645     4.84409     0.00007     0.02865     0.00305
  in kB     -29.94922   -29.97211     0.78541     0.00001     0.00465     0.00050

 VOLUME and BASIS-vectors are now :
  energy-cutoff  :      520.00
  volume of cell :     9881.61
      direct lattice vectors                 reciprocal lattice vectors
    21.138852197  0.000000000  0.000000000     0.047306258  0.000000000  0.000000000
     0.000000000 21.138852197  0.000000000     0.000000000  0.047306258  0.000000000
     0.000000000  0.000000000 22.113885220     0.000000000  0.000000000  0.045220457

  length of vectors
    21.138852197 21.138852197 22.113885220     0.047306258  0.047306258  0.045220457

 FORCES acting on ions:
    Electron-Ion                     Ewald-Force                    Non-Local-Force
   -.145E+00 -.383E+03 -.190E+04   0.143E+00 0.380E+03 0.191E+04   0.289E-02 0.352E+01 -.288E+01
   0.316E-01 -.106E+00 -.126E+04   -.320E-01 0.987E-01 0.126E+04   0.382E-03 0.650E-02 0.677E+01
   0.161E+00 0.644E+00 -.172E+04   -.160E+00 -.643E+00 0.172E+04   -.105E-02 0.259E-02 0.185E+01
   -.298E-01 0.383E+03 -.190E+04   0.285E-01 -.379E+03 0.191E+04   0.245E-02 -.348E+01 -.288E+01
   0.633E+01 0.232E-01 0.935E+03   -.637E+01 -.232E-01 -.927E+03   0.276E-01 0.297E-04 -.746E+01
   0.124E+02 0.940E+01 0.938E+03   -.125E+02 -.943E+01 -.930E+03   0.610E-01 0.248E-01 -.746E+01
   0.906E+01 0.848E+01 -.918E+03   -.910E+01 -.848E+01 0.910E+03   0.311E-01 0.331E-02 0.733E+01
   0.132E+02 0.415E-01 -.917E+03   -.133E+02 -.416E-01 0.909E+03   0.421E-01 0.443E-04 0.733E+01
   0.980E+01 0.114E+02 0.938E+03   -.986E+01 -.114E+02 -.930E+03   0.496E-01 0.119E-01 -.746E+01
   0.257E+02 0.184E+02 0.949E+03   -.259E+02 -.184E+02 -.941E+03   0.165E+00 0.316E-01 -.749E+01
   0.189E+02 0.157E+02 -.912E+03   -.189E+02 -.157E+02 0.904E+03   0.514E-01 0.996E-03 0.733E+01
   0.243E+02 0.227E+02 -.910E+03   -.244E+02 -.227E+02 0.903E+03   0.994E-01 0.169E-01 0.733E+01
   0.171E+02 0.780E+01 0.944E+03   -.172E+02 -.781E+01 -.936E+03   0.790E-01 0.530E-02 -.748E+01
   0.374E+02 -.460E-01 0.959E+03   -.377E+02 0.461E-01 -.951E+03   0.207E+00 -.109E-03 -.751E+01
   0.272E+02 -.374E-01 -.907E+03   -.272E+02 0.374E-01 0.900E+03   0.520E-01 -.359E-05 0.732E+01
   0.540E+02 0.187E+02 -.895E+03   -.541E+02 -.187E+02 0.887E+03   0.137E+00 -.439E-03 0.730E+01
   0.170E+02 -.785E+01 0.944E+03   -.171E+02 0.785E+01 -.936E+03   0.789E-01 -.535E-02 -.748E+01
   0.256E+02 -.184E+02 0.949E+03   -.258E+02 0.184E+02 -.941E+03   0.164E+00 -.316E-01 -.749E+01
   0.188E+02 -.157E+02 -.912E+03   -.189E+02 0.157E+02 0.904E+03   0.514E-01 -.100E-02 0.733E+01
   0.539E+02 -.188E+02 -.895E+03   -.541E+02 0.188E+02 0.887E+03   0.137E+00 0.391E-03 0.730E+01
   0.978E+01 -.114E+02 0.938E+03   -.984E+01 0.114E+02 -.930E+03   0.495E-01 -.119E-01 -.746E+01
   0.124E+02 -.934E+01 0.938E+03   -.125E+02 0.938E+01 -.930E+03   0.609E-01 -.246E-01 -.746E+01
   0.905E+01 -.843E+01 -.918E+03   -.909E+01 0.843E+01 0.910E+03   0.310E-01 -.329E-02 0.733E+01
   0.242E+02 -.226E+02 -.911E+03   -.243E+02 0.227E+02 0.903E+03   0.991E-01 -.169E-01 0.733E+01
   0.113E+02 0.447E-01 0.939E+03   -.114E+02 -.449E-01 -.932E+03   0.502E-01 0.135E-03 -.746E+01
   0.897E+01 0.176E+02 0.946E+03   -.903E+01 -.178E+02 -.938E+03   0.464E-01 0.121E+00 -.747E+01
   0.178E+02 0.191E+02 -.911E+03   -.179E+02 -.191E+02 0.904E+03   0.598E-01 0.592E-01 0.733E+01
   0.935E+01 0.819E-01 -.911E+03   -.939E+01 -.820E-01 0.904E+03   0.293E-01 0.109E-03 0.733E+01
   0.205E+02 0.250E+02 0.950E+03   -.207E+02 -.251E+02 -.942E+03   0.142E+00 0.109E+00 -.747E+01
   0.263E+02 0.456E+02 0.985E+03   -.267E+02 -.460E+02 -.977E+03   0.319E+00 0.321E+00 -.741E+01
   0.564E+02 0.507E+02 -.884E+03   -.569E+02 -.507E+02 0.876E+03   0.353E+00 0.218E-01 0.729E+01
   0.238E+02 0.576E+02 -.891E+03   -.239E+02 -.580E+02 0.884E+03   0.856E-01 0.307E+00 0.731E+01
   0.468E+02 0.217E+02 0.981E+03   -.474E+02 -.217E+02 -.973E+03   0.482E+00 0.545E-01 -.759E+01
   0.497E+02 -.146E+00 0.104E+04   -.504E+02 0.149E+00 -.103E+04   0.513E+00 -.164E-02 -.762E+01
   0.110E+03 -.160E+00 -.847E+03   -.111E+03 0.160E+00 0.839E+03   0.302E+00 -.135E-04 0.723E+01
   0.128E+03 0.923E+02 -.759E+03   -.131E+03 -.922E+02 0.752E+03   0.193E+01 -.374E-01 0.686E+01
   0.467E+02 -.218E+02 0.981E+03   -.474E+02 0.218E+02 -.973E+03   0.480E+00 -.550E-01 -.759E+01
   0.262E+02 -.455E+02 0.985E+03   -.266E+02 0.460E+02 -.977E+03   0.319E+00 -.320E+00 -.741E+01
   0.562E+02 -.507E+02 -.884E+03   -.567E+02 0.507E+02 0.876E+03   0.351E+00 -.221E-01 0.729E+01
   0.128E+03 -.927E+02 -.760E+03   -.130E+03 0.926E+02 0.753E+03   0.191E+01 0.362E-01 0.686E+01
   0.204E+02 -.249E+02 0.950E+03   -.206E+02 0.250E+02 -.942E+03   0.142E+00 -.109E+00 -.747E+01
   0.895E+01 -.175E+02 0.946E+03   -.901E+01 0.176E+02 -.938E+03   0.464E-01 -.121E+00 -.747E+01
   0.178E+02 -.189E+02 -.911E+03   -.178E+02 0.190E+02 0.904E+03   0.598E-01 -.589E-01 0.733E+01
   0.237E+02 -.574E+02 -.891E+03   -.238E+02 0.578E+02 0.884E+03   0.856E-01 -.306E+00 0.731E+01
   -.638E-02 0.628E-01 0.943E+03   0.633E-02 -.631E-01 -.935E+03   0.411E-04 0.227E-03 -.747E+01
   -.898E+01 0.176E+02 0.946E+03   0.904E+01 -.178E+02 -.938E+03   -.464E-01 0.121E+00 -.747E+01
   -.111E-01 0.296E+02 -.906E+03   0.110E-01 -.298E+02 0.898E+03   0.561E-04 0.135E+00 0.732E+01
   -.936E+01 0.814E-01 -.911E+03   0.940E+01 -.815E-01 0.904E+03   -.292E-01 0.111E-03 0.733E+01
   -.134E-01 0.391E+02 0.963E+03   0.133E-01 -.396E+02 -.955E+03   0.716E-04 0.439E+00 -.753E+01
   -.263E+02 0.455E+02 0.985E+03   0.268E+02 -.460E+02 -.977E+03   -.319E+00 0.322E+00 -.741E+01
   -.633E-01 0.130E+03 -.820E+03   0.629E-01 -.132E+03 0.812E+03   0.272E-03 0.192E+01 0.738E+01
   -.238E+02 0.576E+02 -.891E+03   0.239E+02 -.580E+02 0.884E+03   -.855E-01 0.308E+00 0.731E+01
   -.418E-01 0.441E+02 0.104E+04   0.411E-01 -.444E+02 -.104E+04   0.528E-03 0.246E+00 -.506E+01
   -.497E+02 -.143E+00 0.104E+04   0.504E+02 0.146E+00 -.103E+04   -.513E+00 -.170E-02 -.762E+01
   -.224E+00 -.541E+00 -.530E+03   0.224E+00 0.562E+00 0.527E+03   0.109E-02 -.200E-01 0.293E+01
   -.128E+03 0.922E+02 -.759E+03   0.131E+03 -.921E+02 0.752E+03   -.193E+01 -.370E-01 0.686E+01
   -.384E-01 -.443E+02 0.104E+04   0.379E-01 0.446E+02 -.104E+04   0.382E-03 -.246E+00 -.508E+01
   -.262E+02 -.455E+02 0.985E+03   0.267E+02 0.459E+02 -.977E+03   -.318E+00 -.321E+00 -.741E+01
   -.543E-01 -.129E+03 -.820E+03   0.540E-01 0.132E+03 0.813E+03   0.244E-03 -.191E+01 0.738E+01
   -.128E+03 -.926E+02 -.760E+03   0.130E+03 0.925E+02 0.753E+03   -.191E+01 0.359E-01 0.686E+01
[...]
   -.102E+02 0.905E+01 0.708E+03   0.102E+02 -.906E+01 -.712E+03   -.598E-01 0.143E-01 0.347E+01
   0.618E-02 0.733E+01 0.704E+03   -.613E-02 -.734E+01 -.708E+03   -.664E-04 0.931E-02 0.347E+01
   -.185E+02 0.775E+01 -.683E+03   0.185E+02 -.775E+01 0.687E+03   -.546E-01 0.182E-03 -.370E+01
   0.157E-01 -.217E-01 -.685E+03   -.156E-01 0.217E-01 0.689E+03   -.129E-03 -.678E-05 -.369E+01
   -.139E+02 -.208E-01 0.711E+03   0.140E+02 0.209E-01 -.715E+03   -.694E-01 -.515E-04 0.346E+01
   0.102E-01 0.484E+01 0.707E+03   -.101E-01 -.484E+01 -.711E+03   -.109E-03 0.362E-02 0.346E+01
   -.185E+02 -.779E+01 -.683E+03   0.185E+02 0.779E+01 0.687E+03   -.546E-01 -.217E-03 -.370E+01
   0.110E-01 -.949E+01 -.687E+03   -.110E-01 0.949E+01 0.692E+03   -.948E-04 -.163E-02 -.368E+01
   -.101E+02 -.906E+01 0.708E+03   0.102E+02 0.907E+01 -.712E+03   -.597E-01 -.143E-01 0.347E+01
   0.100E-01 -.487E+01 0.707E+03   -.994E-02 0.487E+01 -.711E+03   -.105E-03 -.366E-02 0.346E+01
   -.969E+01 -.109E+02 -.688E+03   0.972E+01 0.109E+02 0.692E+03   -.417E-01 -.959E-02 -.367E+01
   0.564E-02 -.535E+01 -.691E+03   -.560E-02 0.535E+01 0.695E+03   -.534E-04 -.348E-02 -.366E+01
   -.541E+01 -.504E+01 0.703E+03   0.543E+01 0.505E+01 -.707E+03   -.362E-01 -.118E-01 0.347E+01
   0.595E-02 -.732E+01 0.704E+03   -.591E-02 0.733E+01 -.708E+03   -.636E-04 -.929E-02 0.347E+01
   0.608E-02 -.374E-01 0.597E+01   0.152E-11 0.136E-11 0.200E-10   -.529E-02 0.362E-01 -.658E+01

 POSITION                                       TOTAL-FORCE (eV/Angst)
      8.45440     11.94847     13.35506         0.000726      0.049907     -0.081905
      8.45328     10.56231     18.09008         0.000005     -0.001099      0.033922
      8.45334     10.56083     15.56737         0.000351      0.003153     -0.034423
      8.45399      9.17859     13.35199         0.001086     -0.039230     -0.082105
      0.00000      0.00000      9.00000        -0.007616      0.000000      0.390297
      2.11389      2.11389      9.00000        -0.016881     -0.006927      0.390434
      0.00000      2.11389     11.11389        -0.008292     -0.000885     -0.343717
      2.11389      0.00000     11.11389        -0.011604     -0.000006     -0.342653
      0.00000      4.22777      9.00000        -0.013204     -0.003308      0.391646
      2.11389      6.34166      9.00000        -0.043230     -0.008621      0.396275
      0.00000      6.34166     11.11389        -0.012840      0.000047     -0.337871
      2.11389      4.22777     11.11389        -0.025738     -0.004408     -0.336370
      0.00000      8.45554      9.00000        -0.020710     -0.001327      0.394313
      2.11389     10.56943      9.00000        -0.055355      0.000033      0.401089
      0.00000     10.56943     11.11389        -0.012222      0.000007     -0.333122
      2.11389      8.45554     11.11389        -0.030710      0.001451     -0.318607
      0.00000     12.68331      9.00000        -0.020687      0.001349      0.394311
      2.11389     14.79720      9.00000        -0.043102      0.008642      0.396232
      0.00000     14.79720     11.11389        -0.012825     -0.000034     -0.337903
      2.11389     12.68331     11.11389        -0.030712     -0.001425     -0.318673
      0.00000     16.91108      9.00000        -0.013178      0.003318      0.391634
      2.11389     19.02497      9.00000        -0.016852      0.006902      0.390430
      0.00000     19.02497     11.11389        -0.008286      0.000889     -0.343728
      2.11389     16.91108     11.11389        -0.025683      0.004419     -0.336425
      4.22777      0.00000      9.00000        -0.014148     -0.000029      0.390887
      6.34166      2.11389      9.00000        -0.013459     -0.031890      0.392297
      4.22777      2.11389     11.11389        -0.016621     -0.015047     -0.337474
      6.34166      0.00000     11.11389        -0.008280     -0.000019     -0.338169
      4.22777      4.22777      9.00000        -0.039982     -0.030821      0.389231
      6.34166      6.34166      9.00000        -0.101995     -0.099165      0.360696
      4.22777      6.34166     11.11389        -0.083915      0.000243     -0.304044
      6.34166      4.22777     11.11389        -0.023478     -0.074688     -0.317719
      4.22777      8.45554      9.00000        -0.119837     -0.012665      0.418304
      6.34166     10.56943      9.00000        -0.161145      0.000550      0.396794
      4.22777     10.56943     11.11389        -0.054191     -0.000024     -0.248255
      6.34166      8.45554     11.11389        -0.630687      0.039296     -0.188521
      4.22777     12.68331      9.00000        -0.119436      0.012820      0.418163
      6.34166     14.79720      9.00000        -0.101694      0.098836      0.360909
      4.22777     14.79720     11.11389        -0.083618     -0.000117     -0.304316
      6.34166     12.68331     11.11389        -0.624988     -0.039385     -0.188392
      4.22777     16.91108      9.00000        -0.039870      0.030718      0.389216
      6.34166     19.02497      9.00000        -0.013433      0.031757      0.392272
      4.22777     19.02497     11.11389        -0.016609      0.014997     -0.337524
      6.34166     16.91108     11.11389        -0.023519      0.074411     -0.317966
      8.45554      0.00000      9.00000        -0.000017     -0.000050      0.391842
     10.56943      2.11389      9.00000         0.013431     -0.031898      0.392292
      8.45554      2.11389     11.11389        -0.000024     -0.032927     -0.332760
     10.56943      0.00000     11.11389         0.008257     -0.000023     -0.338172
      8.45554      4.22777      9.00000        -0.000025     -0.109764      0.400361
     10.56943      6.34166      9.00000         0.101937     -0.099249      0.360662
      8.45554      6.34166     11.11389        -0.000104     -0.578551     -0.293262
     10.56943      4.22777     11.11389         0.023427     -0.074737     -0.317743
      8.45554      8.45554      9.00000        -0.000187     -0.039152     -0.127833
     10.56943     10.56943      9.00000         0.161055      0.000573      0.396774
      8.45554     10.56943     11.11389         0.000604      0.000907     -0.901967
     10.56943      8.45554     11.11389         0.629984      0.039422     -0.188425
      8.45554     12.68331      9.00000        -0.000135      0.039087     -0.124579
     10.56943     14.79720      9.00000         0.101635      0.098893      0.360871
      8.45554     14.79720     11.11389        -0.000097      0.574243     -0.293304
     10.56943     12.68331     11.11389         0.624470     -0.039459     -0.188423
[...]
     19.02497      6.34166     11.11389        -0.000031      0.000455      0.430673
     16.91108      6.34166      9.00000        -0.016539      0.003980     -0.483994
     19.02497      4.22777      9.00000        -0.000023      0.002597     -0.482425
     16.91108      8.45554     11.11389        -0.015290      0.000055      0.424063
     19.02497     10.56943     11.11389        -0.000040      0.000004      0.427438
     16.91108     10.56943      9.00000        -0.019250     -0.000010     -0.486029
     19.02497      8.45554      9.00000        -0.000033      0.001022     -0.484059
     16.91108     12.68331     11.11389        -0.015275     -0.000054      0.424089
     19.02497     14.79720     11.11389        -0.000032     -0.000446      0.430693
     16.91108     14.79720      9.00000        -0.016515     -0.003970     -0.483982
     19.02497     12.68331      9.00000        -0.000035     -0.001023     -0.484059
     16.91108     16.91108     11.11389        -0.011524     -0.002662      0.431680
     19.02497     19.02497     11.11389        -0.000016     -0.000974      0.435232
     16.91108     19.02497      9.00000        -0.009954     -0.003244     -0.481915
     19.02497     16.91108      9.00000        -0.000022     -0.002581     -0.482417
    total drift:                                0.000794     -0.001144     -0.606483

  FREE ENERGIE OF THE ION-ELECTRON SYSTEM (eV)
  free  energy   TOTEN  =     -1177.60253225 eV

  energy  without entropy=    -1177.60253225  energy(sigma->0) =    -1177.60253225