 vasp.6.3.0 20Jan22 (build Apr  1 2022 16:44:48) complex
 executed on        HPECrayEX_GCC date 2023.01.09  18:45:47

 INCAR:
   SYSTEM = MgO-rocksalt
   ISMEAR = 0
   SIGMA = 0.05
   EDIFF = 1E-6
   ALGO = ALL
   ISTART = 0
   IBRION = -1
   NSW = 0
   ISYM = 2
   DIPOL = 0.5 0.5 0.5
   IDIPOL = 3
   LDIPOL = .TRUE.
   GGA = RE
   LUSE_VDW = .TRUE.
   AGGAC = 0.0
   ENCUT = 520
   PREC = Accurate
   LASPH = .TRUE.
   LREAL = Auto
   ISPIN = 1
   NELM = 200
   NELMIN = 8
   NCORE = 4
   KPAR = 2
   LWAVE = .FALSE.
   LCHARG = .FALSE.

 POTCAR:    PAW_PBE Au 04Oct2007
 POTCAR:    PAW_PBE Mg_pv 13Apr2007
 POTCAR:    PAW_PBE O 08Apr2002
|               ----> ADVICE to this user running VASP <----                  |
|     You have switched on vdW-DFT.                                           |
|     This routine was written and supplied by Jiri Klimes. We recommend      |
|     that you carefully read and cite the following publications:            |
|       J. Klimes, D.R. Bowler, A. Michelides                                 |
|          J. Phys.: Cond Matt. 22 022201 (2010)                              |
|       J. Klimes, D.R. Bowler, A. Michelides                                 |
|          Phys. Rev. B. 83, 195131 (2011)                                    |
|     and references therein.                                                 |

   TITEL  = PAW_PBE Au 04Oct2007
   POMASS =  196.966; ZVAL   =   11.000    mass and valenz
   ENMAX  =  229.943; ENMIN  =  172.457 eV

   TITEL  = PAW_PBE Mg_pv 13Apr2007
   POMASS =   24.305; ZVAL   =    8.000    mass and valenz
   ENMAX  =  403.929; ENMIN  =  302.947 eV

   TITEL  = PAW_PBE O 08Apr2002
   POMASS =   16.000; ZVAL   =    6.000    mass and valenz
   ENMAX  =  400.000; ENMIN  =  300.000 eV

 Optimization of the real space projectors (new method)

 maximal supplied QI-value         = 15.12
 optimisation between [QCUT,QGAM] = [ 11.64, 23.28] = [ 37.95,151.78] Ry
 Optimized for a Real-space Cutoff    1.49 Angstroem

   l    n(q)    QCUT    max X(q) W(low)/X(q) W(high)/X(q)  e(spline)
   2      9    11.641    60.898    0.24E-03    0.10E-03    0.19E-06
   2      9    11.641    58.894    0.25E-03    0.10E-03    0.19E-06
   0     10    11.641   109.617    0.73E-04    0.33E-04    0.11E-06
   0     10    11.641    75.026    0.71E-04    0.32E-04    0.11E-06
   1     10    11.641    16.344    0.27E-04    0.97E-04    0.16E-06
   1     10    11.641    10.160    0.23E-04    0.77E-04    0.13E-06
 Optimization of the real space projectors (new method)

[...]

   l    n(q)    QCUT    max X(q) W(low)/X(q) W(high)/X(q)  e(spline)
   1      8    11.527     2.974    0.44E-04    0.56E-04    0.12E-06
   1      8    11.527     4.279    0.12E-03    0.12E-03    0.26E-06
   0      9    11.527    16.381    0.46E-04    0.64E-04    0.78E-07
   0      9    11.527     5.611    0.26E-04    0.43E-04    0.55E-07
   2      8    11.527     4.652    0.22E-03    0.72E-04    0.47E-07
 Optimization of the real space projectors (new method)

 maximal supplied QI-value         = 24.76
 optimisation between [QCUT,QGAM] = [ 11.64, 23.27] = [ 37.91,151.63] Ry
 Optimized for a Real-space Cutoff    1.14 Angstroem

   l    n(q)    QCUT    max X(q) W(low)/X(q) W(high)/X(q)  e(spline)
   0      8    11.635    20.381    0.10E-03    0.33E-03    0.24E-06
   0      8    11.635    15.268    0.11E-03    0.35E-03    0.26E-06
   1      7    11.635     5.964    0.24E-03    0.31E-03    0.30E-06
   1      7    11.635     5.382    0.22E-03    0.25E-03    0.26E-06
|               ----> ADVICE to this user running VASP <----                  |
|     You enforced a specific xc type in the INCAR file but a different       |
|     type was found in the POTCAR file.                                      |
|     I HOPE YOU KNOW WHAT YOU ARE DOING!                                     |

  PAW_PBE Au 04Oct2007                  :
  PAW_PBE Mg_pv 13Apr2007               :
  PAW_PBE O 08Apr2002                   :

 POSCAR: Au Mg  O
  positions in direct lattice
  velocities in cartesian coordinates
 exchange correlation table for  LEXCH =       40
   RHO(1)=    0.500       N(1)  =     2000
   RHO(2)=  100.500       N(2)  =     4000

 ion  position               nearest neighbor table
   1  0.404  0.596  0.665-   2 2.57   4 2.74
   2  0.332  0.668  0.602- 138 2.40   1 2.57  59 2.71  40 2.71
   3  0.568  0.432  0.602- 173 2.40   4 2.57  75 2.71  56 2.71
   4  0.496  0.504  0.665-   3 2.57   1 2.74
   5  0.000  0.000  0.407- 107 2.11 108 2.11 123 2.11 188 2.11 105 2.11
   6  0.100  0.100  0.407- 107 2.11 108 2.11 112 2.11 127 2.11 106 2.11
   7  0.000  0.100  0.503- 105 2.11 106 2.11 109 2.11 186 2.11 107 2.11
   8  0.100  0.000  0.503- 105 2.11 106 2.11 122 2.11 125 2.11 108 2.11
   9  0.000  0.200  0.407- 111 2.11 107 2.11 112 2.11 192 2.11 109 2.11
  10  0.100  0.300  0.407- 112 2.11 111 2.11 116 2.11 131 2.11 110 2.11
  11  0.000  0.300  0.503- 109 2.11 110 2.11 113 2.11 190 2.11 111 2.11
  12  0.100  0.200  0.503- 110 2.11 109 2.11 106 2.11 129 2.11 112 2.11
  13  0.000  0.400  0.407- 111 2.11 115 2.11 116 2.11 196 2.11 113 2.11
  14  0.100  0.500  0.407- 115 2.11 116 2.11 120 2.11 135 2.11 114 2.11
  15  0.000  0.500  0.503- 113 2.11 114 2.11 117 2.11 194 2.11 115 2.11
  16  0.100  0.400  0.503- 110 2.11 113 2.11 114 2.11 133 2.11 116 2.11
  17  0.000  0.600  0.407- 115 2.11 119 2.11 120 2.11 200 2.11 117 2.11
  18  0.100  0.700  0.407- 124 2.11 120 2.11 119 2.11 139 2.11 118 2.11
  19  0.000  0.700  0.503- 121 2.11 118 2.11 117 2.11 198 2.11 119 2.11
  20  0.100  0.600  0.503- 114 2.11 117 2.11 118 2.11 137 2.11 120 2.11
  21  0.000  0.800  0.407- 119 2.11 123 2.11 124 2.11 204 2.11 121 2.11
  22  0.100  0.900  0.407- 108 2.11 123 2.11 124 2.11 143 2.11 122 2.11
  23  0.000  0.900  0.503- 105 2.11 121 2.11 122 2.11 202 2.11 123 2.11
  24  0.100  0.800  0.503- 118 2.11 121 2.11 122 2.11 141 2.11 124 2.11
  25  0.200  0.000  0.407- 128 2.11 127 2.11 108 2.11 143 2.11 125 2.11
  26  0.300  0.100  0.407- 127 2.11 128 2.11 132 2.11 147 2.11 126 2.11
  27  0.200  0.100  0.503- 126 2.11 125 2.11 106 2.11 129 2.11 127 2.11
  28  0.300  0.000  0.503- 125 2.11 126 2.11 142 2.11 145 2.11 128 2.11
  29  0.200  0.200  0.407- 131 2.11 132 2.11 112 2.11 127 2.11 129 2.11
  30  0.300  0.300  0.407- 131 2.11 132 2.11 136 2.11 151 2.11 130 2.11
  31  0.200  0.300  0.503- 129 2.11 130 2.11 110 2.11 133 2.11 131 2.11
  32  0.300  0.200  0.503- 129 2.11 130 2.11 126 2.11 149 2.11 132 2.11
  33  0.200  0.400  0.407- 136 2.11 131 2.11 135 2.11 116 2.11 133 2.11
  34  0.300  0.500  0.407- 135 2.11 136 2.11 140 2.11 155 2.11 134 2.11
  35  0.200  0.500  0.503- 134 2.11 133 2.11 114 2.11 137 2.11 135 2.11
  36  0.300  0.400  0.503- 133 2.11 130 2.11 134 2.11 153 2.11 136 2.11
  37  0.200  0.600  0.407- 140 2.11 135 2.11 139 2.11 120 2.11 137 2.11
  38  0.300  0.700  0.407- 139 2.11 144 2.11 140 2.11 159 2.11 138 2.11
  39  0.200  0.700  0.503- 138 2.11 141 2.11 118 2.11 137 2.11 139 2.11
  40  0.300  0.600  0.503- 137 2.11 134 2.11 138 2.11 157 2.11 140 2.11   2 2.71
  41  0.200  0.800  0.407- 139 2.11 144 2.11 143 2.11 124 2.11 141 2.11
  42  0.300  0.900  0.407- 143 2.11 128 2.11 144 2.11 163 2.11 142 2.11
  43  0.200  0.900  0.503- 142 2.11 125 2.11 141 2.11 122 2.11 143 2.11
  44  0.300  0.800  0.503- 138 2.11 141 2.11 142 2.11 161 2.11 144 2.11
  45  0.400  0.000  0.407- 128 2.11 147 2.11 148 2.11 163 2.11 145 2.11
  46  0.500  0.100  0.407- 147 2.11 148 2.11 152 2.11 167 2.11 146 2.11
  47  0.400  0.100  0.503- 126 2.11 145 2.11 146 2.11 149 2.11 147 2.11
  48  0.500  0.000  0.503- 145 2.11 146 2.11 162 2.11 165 2.11 148 2.11
  49  0.400  0.200  0.407- 151 2.11 147 2.11 132 2.11 152 2.11 149 2.11
  50  0.500  0.300  0.407- 152 2.11 151 2.11 156 2.11 171 2.11 150 2.11
  51  0.400  0.300  0.503- 149 2.11 130 2.11 150 2.11 153 2.11 151 2.11
  52  0.500  0.200  0.503- 150 2.11 149 2.11 146 2.11 169 2.11 152 2.11
  53  0.400  0.400  0.407- 136 2.11 151 2.11 155 2.11 156 2.11 153 2.11
  54  0.500  0.500  0.407- 155 2.11 156 2.11 160 2.11 175 2.11 154 2.11
  55  0.400  0.500  0.503- 134 2.11 153 2.11 154 2.11 157 2.11 155 2.11
  56  0.500  0.400  0.503- 150 2.11 153 2.11 154 2.11 173 2.11 156 2.11   3 2.71
  57  0.400  0.600  0.407- 140 2.11 155 2.11 159 2.11 160 2.11 157 2.11
  58  0.500  0.700  0.407- 164 2.11 160 2.11 159 2.11 179 2.11 158 2.11
  59  0.400  0.700  0.503- 161 2.11 157 2.11 158 2.11 138 2.11 159 2.11   2 2.71
  60  0.500  0.600  0.503- 154 2.11 157 2.11 158 2.11 177 2.11 160 2.11
[...]
 190  0.900  0.300  0.503-  92 2.11  91 2.11  11 2.11  96 2.11  90 2.11
 191  0.800  0.300  0.407-  70 2.11  89 2.11  90 2.11  93 2.11  91 2.11
 192  0.900  0.200  0.407-  90 2.11  86 2.11  89 2.11   9 2.11  92 2.11
 193  0.800  0.400  0.503-  76 2.11  91 2.11  95 2.11  96 2.11  93 2.11
 194  0.900  0.500  0.503-  15 2.11  95 2.11  96 2.11 100 2.11  94 2.11
 195  0.800  0.500  0.407-  74 2.11  93 2.11  94 2.11  97 2.11  95 2.11
 196  0.900  0.400  0.407-  13 2.11  90 2.11  93 2.11  94 2.11  96 2.11
 197  0.800  0.600  0.503-  80 2.11  95 2.11  99 2.11 100 2.11  97 2.11
 198  0.900  0.700  0.503- 104 2.11  99 2.11 100 2.11  19 2.11  98 2.11
 199  0.800  0.700  0.407-  78 2.11 101 2.11  98 2.11  97 2.11  99 2.11
 200  0.900  0.600  0.407-  17 2.11  94 2.11  97 2.11  98 2.11 100 2.11
 201  0.800  0.800  0.503-  84 2.11  99 2.11 103 2.11 104 2.11 101 2.11
 202  0.900  0.900  0.503-  23 2.11  88 2.11 103 2.11 104 2.11 102 2.11
 203  0.800  0.900  0.407-  82 2.11  85 2.11 101 2.11 102 2.11 103 2.11
 204  0.900  0.800  0.407-  98 2.11  21 2.11 101 2.11 102 2.11 104 2.11

  LATTYP: Found a simple tetragonal cell.
 ALAT       =    21.1388521970
 C/A-ratio  =     1.0461251639

  Lattice vectors:

 A1 = (  21.1388521970,   0.0000000000,   0.0000000000)
 A2 = (   0.0000000000,  21.1388521970,   0.0000000000)
 A3 = (   0.0000000000,   0.0000000000,  22.1138852197)

Analysis of symmetry for initial positions (statically):
 Subroutine PRICEL returns:
 Original cell was already a primitive cell.

 Routine SETGRP: Setting up the symmetry group for a
 simple tetragonal supercell.

 Subroutine GETGRP returns: Found  2 space group operations
 (whereof  1 operations were pure point group operations)
 out of a pool of 16 trial point group operations.

The static configuration has the point symmetry C_1 .
 The point group associated with its full space group is C_1h.

Analysis of symmetry for dynamics (positions and initial velocities):
 Subroutine PRICEL returns:
 Original cell was already a primitive cell.

[...]

The dynamic configuration has the point symmetry C_1 .
 The point group associated with its full space group is C_1h.

Analysis of constrained symmetry for selective dynamics:
 Subroutine PRICEL returns:
 Original cell was already a primitive cell.

 Routine SETGRP: Setting up the symmetry group for a
 simple tetragonal supercell.

 Subroutine GETGRP returns: Found  2 space group operations
 (whereof  1 operations were pure point group operations)
 out of a pool of 16 trial point group operations.

The constrained configuration has the point symmetry C_1 .
 The point group associated with its full space group is C_1h.

[...]
     52     -43.6110      2.00000
     53     -43.6051      2.00000
     54     -43.6051      2.00000
     55     -43.6031      2.00000
     56     -43.6031      2.00000
     57     -43.5980      2.00000
     58     -43.5952      2.00000
     59     -43.5946      2.00000
     60     -43.5945      2.00000
[...]
    946       5.5237      0.00000
    947       5.5467      0.00000
    948       5.5620      0.00000
    949       5.5659      0.00000
    950       5.5784      0.00000
    951       5.5789      0.00000
    952       5.5962      0.00000
    953       5.6574      0.00000
    954       5.7185      0.00000
    955       5.8021      0.00000
    956       5.8825      0.00000
    957       5.9960      0.00000
    958       6.1572      0.00000
    959       6.1984      0.00000
    960       6.4566      0.00000

 soft charge-density along one line, spin component           1
         0         1         2         3         4         5         6         7         8         9
 total charge-density along one line

------------------------ aborting loop because EDIFF is reached ----------------------------------------

  FORCE on cell =-STRESS in cart. coord.  units (eV):
  Direction    XX          YY          ZZ          XY          YZ          ZX
  Alpha Z  1417.83424  1417.83424  1417.83424
  Ewald  482423.15860482423.15974************ -1155.82133    -0.02915    -0.03097
  Hartree511446.28114511446.28155************  -907.59805    -0.01297    -0.01354
  E(xc)   -8058.69767 -8058.69767 -8075.52612    -1.00039     0.00011     0.00011
  Local  ************************************  2045.65826     0.04105     0.04322
  n-local -8769.60542 -8769.60543 -8882.22885    10.93884    -0.00290    -0.00315
  augment  3647.34561  3647.34562  3592.77287     1.86690     0.00133     0.00133
  Kinetic 23377.30342 23377.30343 23586.15463     6.04117    -0.00035    -0.00021
  Fock        0.00000     0.00000     0.00000     0.00000     0.00000     0.00000
  Total    -117.16806  -117.16806    40.82020     0.08540    -0.00305    -0.00305
  in kB     -18.99730   -18.99730     6.61847     0.01385    -0.00049    -0.00049

 VOLUME and BASIS-vectors are now :
  energy-cutoff  :      520.00
  volume of cell :     9881.61
      direct lattice vectors                 reciprocal lattice vectors
    21.138852197  0.000000000  0.000000000     0.047306258  0.000000000  0.000000000
     0.000000000 21.138852197  0.000000000     0.000000000  0.047306258  0.000000000
     0.000000000  0.000000000 22.113885220     0.000000000  0.000000000  0.045220457

  length of vectors
    21.138852197 21.138852197 22.113885220     0.047306258  0.047306258  0.045220457

 FORCES acting on ions:
    Electron-Ion                     Ewald-Force                    Non-Local-Force
   0.492E+02 -.492E+02 -.197E+04   -.510E+02 0.510E+02 0.197E+04   0.186E+01 -.186E+01 0.258E+01
   0.221E+03 -.221E+03 -.203E+04   -.218E+03 0.218E+03 0.203E+04   -.242E+01 0.242E+01 -.216E+01
   -.221E+03 0.221E+03 -.203E+04   0.218E+03 -.218E+03 0.203E+04   0.242E+01 -.242E+01 -.216E+01
   -.492E+02 0.492E+02 -.197E+04   0.510E+02 -.510E+02 0.197E+04   -.186E+01 0.186E+01 0.258E+01
   0.457E+01 -.457E+01 0.936E+03   -.461E+01 0.461E+01 -.929E+03   0.301E-01 -.301E-01 -.683E+01
   0.896E+01 0.202E+01 0.937E+03   -.895E+01 -.195E+01 -.930E+03   -.408E-02 -.562E-01 -.684E+01
   0.330E+01 0.331E+01 -.918E+03   -.328E+01 -.328E+01 0.911E+03   -.200E-01 -.200E-01 0.674E+01
   0.139E+02 -.104E+02 -.915E+03   -.139E+02 0.105E+02 0.908E+03   0.249E-01 -.963E-01 0.673E+01
   0.202E+01 0.896E+01 0.937E+03   -.195E+01 -.895E+01 -.930E+03   -.562E-01 -.408E-02 -.684E+01
   0.143E+02 0.155E+02 0.943E+03   -.142E+02 -.155E+02 -.936E+03   -.498E-01 0.100E-02 -.685E+01
   0.314E+01 0.155E+02 -.914E+03   -.302E+01 -.155E+02 0.907E+03   -.893E-01 -.866E-03 0.673E+01
   0.132E+02 0.132E+02 -.915E+03   -.132E+02 -.132E+02 0.908E+03   -.401E-01 -.401E-01 0.673E+01
   0.486E+01 0.110E+02 0.944E+03   -.477E+01 -.110E+02 -.937E+03   -.767E-01 0.192E-01 -.685E+01
   0.281E+02 0.111E+02 0.956E+03   -.281E+02 -.113E+02 -.949E+03   -.471E-02 0.117E+00 -.686E+01
   0.128E+02 0.788E+01 -.908E+03   -.128E+02 -.792E+01 0.901E+03   -.287E-01 0.263E-01 0.672E+01
   0.305E+02 0.233E+02 -.905E+03   -.304E+02 -.233E+02 0.898E+03   -.102E+00 0.421E-01 0.671E+01
   0.121E+02 -.242E+01 0.948E+03   -.122E+02 0.238E+01 -.941E+03   0.799E-01 0.310E-01 -.685E+01
   0.318E+02 -.129E+02 0.959E+03   -.323E+02 0.128E+02 -.952E+03   0.391E+00 0.469E-01 -.690E+01
   0.203E+02 -.128E+02 -.908E+03   -.205E+02 0.128E+02 0.901E+03   0.145E+00 0.196E-01 0.672E+01
   0.581E+02 0.285E+01 -.892E+03   -.583E+02 -.301E+01 0.885E+03   0.141E+00 0.123E+00 0.669E+01
   0.109E+02 -.130E+02 0.943E+03   -.110E+02 0.130E+02 -.936E+03   0.149E+00 -.161E-01 -.684E+01
   0.158E+02 -.158E+02 0.944E+03   -.159E+02 0.159E+02 -.937E+03   0.108E+00 -.108E+00 -.683E+01
   0.104E+02 -.139E+02 -.915E+03   -.105E+02 0.139E+02 0.908E+03   0.964E-01 -.249E-01 0.673E+01
   0.387E+02 -.287E+02 -.902E+03   -.391E+02 0.288E+02 0.896E+03   0.333E+00 -.278E-01 0.672E+01
   0.130E+02 -.109E+02 0.943E+03   -.130E+02 0.110E+02 -.936E+03   0.161E-01 -.148E+00 -.684E+01
   0.110E+02 0.486E+01 0.944E+03   -.110E+02 -.477E+01 -.937E+03   0.192E-01 -.767E-01 -.685E+01
   0.155E+02 0.314E+01 -.914E+03   -.155E+02 -.302E+01 0.907E+03   -.866E-03 -.893E-01 0.673E+01
   0.128E+02 -.203E+02 -.908E+03   -.128E+02 0.205E+02 0.901E+03   -.196E-01 -.145E+00 0.672E+01
   0.155E+02 0.143E+02 0.943E+03   -.155E+02 -.142E+02 -.936E+03   0.100E-02 -.498E-01 -.685E+01
   0.252E+02 0.322E+02 0.963E+03   -.253E+02 -.321E+02 -.955E+03   0.739E-01 -.397E-01 -.690E+01
   0.329E+02 0.329E+02 -.903E+03   -.328E+02 -.328E+02 0.897E+03   -.571E-01 -.571E-01 0.670E+01
   0.233E+02 0.306E+02 -.905E+03   -.233E+02 -.304E+02 0.898E+03   0.421E-01 -.102E+00 0.671E+01
   0.322E+02 0.252E+02 0.963E+03   -.321E+02 -.253E+02 -.955E+03   -.397E-01 0.739E-01 -.690E+01
   0.426E+02 0.277E+02 0.101E+04   -.426E+02 -.282E+02 -.100E+04   0.145E-02 0.348E+00 -.717E+01
   0.791E+02 0.416E+02 -.868E+03   -.788E+02 -.419E+02 0.862E+03   -.253E+00 0.278E+00 0.661E+01
   0.671E+02 0.671E+02 -.861E+03   -.669E+02 -.669E+02 0.854E+03   -.141E+00 -.141E+00 0.658E+01
   0.499E+02 0.289E+01 0.991E+03   -.501E+02 -.338E+01 -.984E+03   0.140E+00 0.366E+00 -.685E+01
   0.342E+02 -.342E+02 0.102E+04   -.339E+02 0.339E+02 -.102E+04   -.199E+00 0.199E+00 -.445E+01
   0.109E+03 -.430E+02 -.839E+03   -.112E+03 0.427E+02 0.832E+03   0.185E+01 0.198E+00 0.685E+01
   0.120E+03 0.624E+02 -.698E+03   -.120E+03 -.655E+02 0.692E+03   -.376E+00 0.204E+01 0.513E+01
   0.312E+02 -.312E+02 0.969E+03   -.315E+02 0.315E+02 -.962E+03   0.243E+00 -.243E+00 -.673E+01
   0.129E+02 -.318E+02 0.959E+03   -.128E+02 0.323E+02 -.952E+03   -.469E-01 -.391E+00 -.690E+01
   0.287E+02 -.387E+02 -.902E+03   -.288E+02 0.391E+02 0.896E+03   0.277E-01 -.333E+00 0.672E+01
   0.431E+02 -.109E+03 -.839E+03   -.428E+02 0.112E+03 0.832E+03   -.198E+00 -.185E+01 0.685E+01
   0.242E+01 -.121E+02 0.948E+03   -.238E+01 0.122E+02 -.941E+03   -.310E-01 -.798E-01 -.685E+01
   -.242E+01 0.121E+02 0.948E+03   0.238E+01 -.122E+02 -.941E+03   0.310E-01 0.799E-01 -.685E+01
   0.788E+01 0.128E+02 -.908E+03   -.792E+01 -.128E+02 0.901E+03   0.263E-01 -.287E-01 0.672E+01
   -.788E+01 -.129E+02 -.908E+03   0.792E+01 0.128E+02 0.901E+03   -.263E-01 0.288E-01 0.672E+01
   0.111E+02 0.281E+02 0.956E+03   -.113E+02 -.281E+02 -.949E+03   0.117E+00 -.471E-02 -.686E+01
   0.289E+01 0.499E+02 0.991E+03   -.338E+01 -.501E+02 -.984E+03   0.366E+00 0.140E+00 -.685E+01
   0.416E+02 0.791E+02 -.868E+03   -.419E+02 -.788E+02 0.862E+03   0.278E+00 -.253E+00 0.661E+01
   0.284E+01 0.581E+02 -.892E+03   -.301E+01 -.583E+02 0.885E+03   0.123E+00 0.141E+00 0.669E+01
   0.277E+02 0.426E+02 0.101E+04   -.282E+02 -.426E+02 -.100E+04   0.348E+00 0.145E-02 -.717E+01
   -.765E+01 0.767E+01 0.105E+04   0.734E+01 -.737E+01 -.104E+04   0.230E+00 -.230E+00 -.715E+01
   0.665E+02 0.665E+02 -.736E+03   -.667E+02 -.667E+02 0.730E+03   0.140E+00 0.140E+00 0.623E+01
   0.624E+02 0.120E+03 -.698E+03   -.655E+02 -.120E+03 0.692E+03   0.204E+01 -.376E+00 0.513E+01
   0.767E+01 -.764E+01 0.105E+04   -.737E+01 0.734E+01 -.104E+04   -.230E+00 0.230E+00 -.715E+01
   -.277E+02 -.426E+02 0.101E+04   0.282E+02 0.426E+02 -.100E+04   -.348E+00 -.148E-02 -.717E+01
   -.624E+02 -.120E+03 -.698E+03   0.655E+02 0.120E+03 0.692E+03   -.204E+01 0.376E+00 0.513E+01
   -.665E+02 -.665E+02 -.736E+03   0.667E+02 0.667E+02 0.730E+03   -.141E+00 -.141E+00 0.623E+01
[...]
   -.181E+02 0.142E+02 0.716E+03   0.182E+02 -.143E+02 -.720E+03   -.244E+00 0.109E+00 0.357E+01
   -.563E+01 0.800E+01 0.706E+03   0.569E+01 -.802E+01 -.710E+03   -.873E-01 0.452E-01 0.355E+01
   -.422E+02 0.143E+02 -.672E+03   0.424E+02 -.143E+02 0.676E+03   -.276E+00 -.914E-01 -.376E+01
   -.142E+02 0.197E+01 -.682E+03   0.143E+02 -.193E+01 0.687E+03   -.562E-01 -.467E-01 -.372E+01
   -.251E+02 -.109E-01 0.723E+03   0.252E+02 0.151E+00 -.727E+03   -.153E+00 -.184E+00 0.352E+01
   -.984E+01 0.738E+01 0.712E+03   0.992E+01 -.736E+01 -.716E+03   -.122E+00 -.149E-01 0.354E+01
   -.339E+02 -.138E+02 -.675E+03   0.339E+02 0.139E+02 0.680E+03   -.575E-02 -.137E+00 -.376E+01
   -.496E+01 -.108E+02 -.685E+03   0.491E+01 0.108E+02 0.689E+03   0.625E-01 -.121E-01 -.371E+01
   -.155E+02 -.121E+02 0.714E+03   0.154E+02 0.122E+02 -.718E+03   0.434E-01 -.421E-01 0.352E+01
   -.646E+01 -.420E+01 0.712E+03   0.645E+01 0.424E+01 -.716E+03   0.694E-02 -.378E-01 0.353E+01
   -.147E+02 -.156E+02 -.685E+03   0.147E+02 0.156E+02 0.690E+03   0.651E-01 0.228E-01 -.371E+01
   -.171E+01 -.839E+01 -.689E+03   0.166E+01 0.840E+01 0.694E+03   0.535E-01 0.636E-02 -.368E+01
   -.770E+01 -.769E+01 0.707E+03   0.767E+01 0.767E+01 -.711E+03   0.292E-01 0.292E-01 0.354E+01
   -.194E+01 -.909E+01 0.707E+03   0.188E+01 0.910E+01 -.712E+03   0.699E-01 -.653E-02 0.354E+01
   -.734E+00 0.732E+00 0.130E+02   0.199E-11 0.119E-11 0.146E-10   0.265E-02 0.265E-02 -.140E+02

 POSITION                                       TOTAL-FORCE (eV/Angst)
      8.54545     12.59441     14.71338         0.014508     -0.013686      0.333540
      7.02105     14.11881     13.31306        -0.256790      0.256107      0.296764
     12.00492      9.13494     13.31306         0.256107     -0.256790      0.296764
     10.48052     10.65934     14.71338        -0.013686      0.014508      0.333540
      0.00000      0.00000      9.00000        -0.008420      0.008393      0.170990
      2.11389      2.11389      9.00000         0.001052      0.015078      0.172788
      0.00000      2.11389     11.11389         0.005326      0.005326     -0.143060
      2.11389      0.00000     11.11389        -0.007204      0.025600     -0.140767
      0.00000      4.22777      9.00000         0.015078      0.001052      0.172788
      2.11389      6.34166      9.00000         0.013704      0.000412      0.176879
      0.00000      6.34166     11.11389         0.023723      0.000606     -0.139526
      2.11389      4.22777     11.11389         0.011158      0.011158     -0.140533
      0.00000      8.45554      9.00000         0.019964     -0.004955      0.174703
      2.11389     10.56943      9.00000        -0.000562     -0.032680      0.177076
      0.00000     10.56943     11.11389         0.007878     -0.007169     -0.132903
      2.11389      8.45554     11.11389         0.027916     -0.009641     -0.129176
      0.00000     12.68331      9.00000        -0.021389     -0.009312      0.175376
      2.11389     14.79720      9.00000        -0.098666     -0.014101      0.180815
      0.00000     14.79720     11.11389        -0.036769     -0.005997     -0.133938
      2.11389     12.68331     11.11389        -0.036602     -0.036874     -0.114200
      0.00000     16.91108      9.00000        -0.039411      0.004803      0.172939
      2.11389     19.02497      9.00000        -0.031223      0.031209      0.166295
      0.00000     19.02497     11.11389        -0.025628      0.007195     -0.140770
      2.11389     16.91108     11.11389        -0.087084      0.009599     -0.129643
      4.22777      0.00000      9.00000        -0.004812      0.039379      0.172938
      6.34166      2.11389      9.00000        -0.004955      0.019964      0.174703
      4.22777      2.11389     11.11389         0.000606      0.023723     -0.139526
      6.34166      0.00000     11.11389         0.005989      0.036718     -0.133934
      4.22777      4.22777      9.00000         0.000412      0.013704      0.176879
      6.34166      6.34166      9.00000        -0.017207      0.012207      0.191431
      4.22777      6.34166     11.11389         0.017374      0.017374     -0.127148
      6.34166      4.22777     11.11389        -0.009641      0.027916     -0.129176
      4.22777      8.45554      9.00000         0.012207     -0.017207      0.191431
      6.34166     10.56943      9.00000         0.003668     -0.085165      0.251494
      4.22777     10.56943     11.11389         0.078066     -0.065015     -0.072673
      6.34166      8.45554     11.11389         0.046488      0.046488     -0.065960
      4.22777     12.68331      9.00000        -0.051898     -0.118249      0.156826
      6.34166     14.79720      9.00000         0.067544     -0.067443     -0.381093
      4.22777     14.79720     11.11389        -0.574404     -0.066230     -0.126112
      6.34166     12.68331     11.11389        -0.038831     -0.996323     -0.244111
      4.22777     16.91108      9.00000        -0.083127      0.083145      0.125758
      6.34166     19.02497      9.00000         0.014097      0.098619      0.180817
      4.22777     19.02497     11.11389        -0.009597      0.087068     -0.129638
      6.34166     16.91108     11.11389         0.066274      0.574426     -0.126133
      8.45554      0.00000      9.00000         0.009311      0.021341      0.175382
     10.56943      2.11389      9.00000        -0.009312     -0.021389      0.175376
      8.45554      2.11389     11.11389        -0.007169      0.007878     -0.132903
     10.56943      0.00000     11.11389         0.007157     -0.007939     -0.132900
      8.45554      4.22777      9.00000        -0.032680     -0.000562      0.177076
     10.56943      6.34166      9.00000        -0.118249     -0.051898      0.156826
      8.45554      6.34166     11.11389        -0.065015      0.078066     -0.072673
     10.56943      4.22777     11.11389        -0.036874     -0.036602     -0.114200
      8.45554      8.45554      9.00000        -0.085165      0.003668      0.251494
     10.56943     10.56943      9.00000        -0.074008      0.074062      0.208976
      8.45554     10.56943     11.11389        -0.026985     -0.026985      0.170248
     10.56943      8.45554     11.11389        -0.996323     -0.038831     -0.244111
      8.45554     12.68331      9.00000         0.074062     -0.074008      0.208976
     10.56943     14.79720      9.00000         0.085173     -0.003671      0.251578
      8.45554     14.79720     11.11389         0.997411      0.039178     -0.245373
     10.56943     12.68331     11.11389         0.027097      0.027097      0.170451
[...]
     19.02497      6.34166     11.11389        -0.034094      0.004811      0.525211
     16.91108      6.34166      9.00000        -0.067840      0.029922     -0.554517
     19.02497      4.22777      9.00000        -0.024280      0.012507     -0.560499
     16.91108      8.45554     11.11389        -0.079689     -0.025208      0.511343
     19.02497     10.56943     11.11389        -0.015932     -0.013172      0.519665
     16.91108     10.56943      9.00000        -0.042417     -0.050705     -0.567559
     19.02497      8.45554      9.00000        -0.034034     -0.004343     -0.562659
     16.91108     12.68331     11.11389        -0.002327     -0.038869      0.510175
     19.02497     14.79720     11.11389         0.017478     -0.003220      0.523730
     16.91108     14.79720      9.00000         0.012058     -0.011748     -0.568836
     19.02497     12.68331      9.00000         0.001953     -0.010477     -0.565220
     16.91108     16.91108     11.11389         0.018122      0.006391      0.523492
     19.02497     19.02497     11.11389         0.014874      0.001776      0.529661
     16.91108     19.02497      9.00000         0.008123      0.008123     -0.563470
     19.02497     16.91108      9.00000         0.019489     -0.001752     -0.563034
    total drift:                               -0.731342      0.734681     -0.958838

  FREE ENERGIE OF THE ION-ELECTRON SYSTEM (eV)
  free  energy   TOTEN  =      -679.63526616 eV

  energy  without entropy=     -679.63526616  energy(sigma->0) =     -679.63526616