 vasp.6.3.0 20Jan22 (build Apr  1 2022 16:44:48) complex
 executed on        HPECrayEX_GCC date 2023.01.09  19:12:19

 INCAR:
   SYSTEM = MgO-rocksalt
   ISMEAR = 0
   SIGMA = 0.05
   EDIFF = 1E-6
   ALGO = ALL
   ISTART = 0
   IBRION = -1
   NSW = 0
   ISYM = 2
   DIPOL = 0.5 0.5 0.5
   IDIPOL = 3
   LDIPOL = .TRUE.
   GGA = MK
   LUSE_VDW = .TRUE.
   PARAM1 = 0.1234
   PARAM2 = 0.711357
   ZAB_VDW = -1.8867
   AGGAC = 0.0
   ENCUT = 520
   PREC = Accurate
   LASPH = .TRUE.
   LREAL = Auto
   ISPIN = 1
   NELM = 200
   NELMIN = 8
   NCORE = 4
   KPAR = 2
   LWAVE = .FALSE.
   LCHARG = .FALSE.

 POTCAR:    PAW_PBE Au 04Oct2007
 POTCAR:    PAW_PBE Mg_pv 13Apr2007
 POTCAR:    PAW_PBE O 08Apr2002
|               ----> ADVICE to this user running VASP <----                  |
|     You have switched on vdW-DFT.                                           |
|     This routine was written and supplied by Jiri Klimes. We recommend      |
|     that you carefully read and cite the following publications:            |
|       J. Klimes, D.R. Bowler, A. Michelides                                 |
|          J. Phys.: Cond Matt. 22 022201 (2010)                              |
|       J. Klimes, D.R. Bowler, A. Michelides                                 |
|          Phys. Rev. B. 83, 195131 (2011)                                    |
|     and references therein.                                                 |

   TITEL  = PAW_PBE Au 04Oct2007
   POMASS =  196.966; ZVAL   =   11.000    mass and valenz
   ENMAX  =  229.943; ENMIN  =  172.457 eV

   TITEL  = PAW_PBE Mg_pv 13Apr2007
   POMASS =   24.305; ZVAL   =    8.000    mass and valenz
   ENMAX  =  403.929; ENMIN  =  302.947 eV

   TITEL  = PAW_PBE O 08Apr2002
   POMASS =   16.000; ZVAL   =    6.000    mass and valenz
   ENMAX  =  400.000; ENMIN  =  300.000 eV

 Optimization of the real space projectors (new method)

 maximal supplied QI-value         = 15.12
 optimisation between [QCUT,QGAM] = [ 11.64, 23.28] = [ 37.95,151.78] Ry
 Optimized for a Real-space Cutoff    1.49 Angstroem

   l    n(q)    QCUT    max X(q) W(low)/X(q) W(high)/X(q)  e(spline)
   2      9    11.641    60.898    0.24E-03    0.10E-03    0.19E-06
   2      9    11.641    58.894    0.25E-03    0.10E-03    0.19E-06
   0     10    11.641   109.617    0.73E-04    0.33E-04    0.11E-06
   0     10    11.641    75.026    0.71E-04    0.32E-04    0.11E-06
   1     10    11.641    16.344    0.27E-04    0.97E-04    0.16E-06
   1     10    11.641    10.160    0.23E-04    0.77E-04    0.13E-06
 Optimization of the real space projectors (new method)

[...]

   l    n(q)    QCUT    max X(q) W(low)/X(q) W(high)/X(q)  e(spline)
   1      8    11.527     2.974    0.44E-04    0.56E-04    0.12E-06
   1      8    11.527     4.279    0.12E-03    0.12E-03    0.26E-06
   0      9    11.527    16.381    0.46E-04    0.64E-04    0.78E-07
   0      9    11.527     5.611    0.26E-04    0.43E-04    0.55E-07
   2      8    11.527     4.652    0.22E-03    0.72E-04    0.47E-07
 Optimization of the real space projectors (new method)

 maximal supplied QI-value         = 24.76
 optimisation between [QCUT,QGAM] = [ 11.64, 23.27] = [ 37.91,151.63] Ry
 Optimized for a Real-space Cutoff    1.14 Angstroem

   l    n(q)    QCUT    max X(q) W(low)/X(q) W(high)/X(q)  e(spline)
   0      8    11.635    20.381    0.10E-03    0.33E-03    0.24E-06
   0      8    11.635    15.268    0.11E-03    0.35E-03    0.26E-06
   1      7    11.635     5.964    0.24E-03    0.31E-03    0.30E-06
   1      7    11.635     5.382    0.22E-03    0.25E-03    0.26E-06
|               ----> ADVICE to this user running VASP <----                  |
|     You enforced a specific xc type in the INCAR file but a different       |
|     type was found in the POTCAR file.                                      |
|     I HOPE YOU KNOW WHAT YOU ARE DOING!                                     |

  PAW_PBE Au 04Oct2007                  :
  PAW_PBE Mg_pv 13Apr2007               :
  PAW_PBE O 08Apr2002                   :

 POSCAR: Au Mg  O
  positions in direct lattice
  velocities in cartesian coordinates
 exchange correlation table for  LEXCH =       43
   RHO(1)=    0.500       N(1)  =     2000
   RHO(2)=  100.500       N(2)  =     4000

 ion  position               nearest neighbor table
   1  0.404  0.596  0.665-   2 2.57   4 2.74
   2  0.332  0.668  0.602- 138 2.40   1 2.57  59 2.71  40 2.71
   3  0.568  0.432  0.602- 173 2.40   4 2.57  75 2.71  56 2.71
   4  0.496  0.504  0.665-   3 2.57   1 2.74
   5  0.000  0.000  0.407- 107 2.11 108 2.11 123 2.11 188 2.11 105 2.11
   6  0.100  0.100  0.407- 107 2.11 108 2.11 112 2.11 127 2.11 106 2.11
   7  0.000  0.100  0.503- 105 2.11 106 2.11 109 2.11 186 2.11 107 2.11
   8  0.100  0.000  0.503- 105 2.11 106 2.11 122 2.11 125 2.11 108 2.11
   9  0.000  0.200  0.407- 111 2.11 107 2.11 112 2.11 192 2.11 109 2.11
  10  0.100  0.300  0.407- 112 2.11 111 2.11 116 2.11 131 2.11 110 2.11
  11  0.000  0.300  0.503- 109 2.11 110 2.11 113 2.11 190 2.11 111 2.11
  12  0.100  0.200  0.503- 110 2.11 109 2.11 106 2.11 129 2.11 112 2.11
  13  0.000  0.400  0.407- 111 2.11 115 2.11 116 2.11 196 2.11 113 2.11
  14  0.100  0.500  0.407- 115 2.11 116 2.11 120 2.11 135 2.11 114 2.11
  15  0.000  0.500  0.503- 113 2.11 114 2.11 117 2.11 194 2.11 115 2.11
  16  0.100  0.400  0.503- 110 2.11 113 2.11 114 2.11 133 2.11 116 2.11
  17  0.000  0.600  0.407- 115 2.11 119 2.11 120 2.11 200 2.11 117 2.11
  18  0.100  0.700  0.407- 124 2.11 120 2.11 119 2.11 139 2.11 118 2.11
  19  0.000  0.700  0.503- 121 2.11 118 2.11 117 2.11 198 2.11 119 2.11
  20  0.100  0.600  0.503- 114 2.11 117 2.11 118 2.11 137 2.11 120 2.11
  21  0.000  0.800  0.407- 119 2.11 123 2.11 124 2.11 204 2.11 121 2.11
  22  0.100  0.900  0.407- 108 2.11 123 2.11 124 2.11 143 2.11 122 2.11
  23  0.000  0.900  0.503- 105 2.11 121 2.11 122 2.11 202 2.11 123 2.11
  24  0.100  0.800  0.503- 118 2.11 121 2.11 122 2.11 141 2.11 124 2.11
  25  0.200  0.000  0.407- 128 2.11 127 2.11 108 2.11 143 2.11 125 2.11
  26  0.300  0.100  0.407- 127 2.11 128 2.11 132 2.11 147 2.11 126 2.11
  27  0.200  0.100  0.503- 126 2.11 125 2.11 106 2.11 129 2.11 127 2.11
  28  0.300  0.000  0.503- 125 2.11 126 2.11 142 2.11 145 2.11 128 2.11
  29  0.200  0.200  0.407- 131 2.11 132 2.11 112 2.11 127 2.11 129 2.11
  30  0.300  0.300  0.407- 131 2.11 132 2.11 136 2.11 151 2.11 130 2.11
  31  0.200  0.300  0.503- 129 2.11 130 2.11 110 2.11 133 2.11 131 2.11
  32  0.300  0.200  0.503- 129 2.11 130 2.11 126 2.11 149 2.11 132 2.11
  33  0.200  0.400  0.407- 136 2.11 131 2.11 135 2.11 116 2.11 133 2.11
  34  0.300  0.500  0.407- 135 2.11 136 2.11 140 2.11 155 2.11 134 2.11
  35  0.200  0.500  0.503- 134 2.11 133 2.11 114 2.11 137 2.11 135 2.11
  36  0.300  0.400  0.503- 133 2.11 130 2.11 134 2.11 153 2.11 136 2.11
  37  0.200  0.600  0.407- 140 2.11 135 2.11 139 2.11 120 2.11 137 2.11
  38  0.300  0.700  0.407- 139 2.11 144 2.11 140 2.11 159 2.11 138 2.11
  39  0.200  0.700  0.503- 138 2.11 141 2.11 118 2.11 137 2.11 139 2.11
  40  0.300  0.600  0.503- 137 2.11 134 2.11 138 2.11 157 2.11 140 2.11   2 2.71
  41  0.200  0.800  0.407- 139 2.11 144 2.11 143 2.11 124 2.11 141 2.11
  42  0.300  0.900  0.407- 143 2.11 128 2.11 144 2.11 163 2.11 142 2.11
  43  0.200  0.900  0.503- 142 2.11 125 2.11 141 2.11 122 2.11 143 2.11
  44  0.300  0.800  0.503- 138 2.11 141 2.11 142 2.11 161 2.11 144 2.11
  45  0.400  0.000  0.407- 128 2.11 147 2.11 148 2.11 163 2.11 145 2.11
  46  0.500  0.100  0.407- 147 2.11 148 2.11 152 2.11 167 2.11 146 2.11
  47  0.400  0.100  0.503- 126 2.11 145 2.11 146 2.11 149 2.11 147 2.11
  48  0.500  0.000  0.503- 145 2.11 146 2.11 162 2.11 165 2.11 148 2.11
  49  0.400  0.200  0.407- 151 2.11 147 2.11 132 2.11 152 2.11 149 2.11
  50  0.500  0.300  0.407- 152 2.11 151 2.11 156 2.11 171 2.11 150 2.11
  51  0.400  0.300  0.503- 149 2.11 130 2.11 150 2.11 153 2.11 151 2.11
  52  0.500  0.200  0.503- 150 2.11 149 2.11 146 2.11 169 2.11 152 2.11
  53  0.400  0.400  0.407- 136 2.11 151 2.11 155 2.11 156 2.11 153 2.11
  54  0.500  0.500  0.407- 155 2.11 156 2.11 160 2.11 175 2.11 154 2.11
  55  0.400  0.500  0.503- 134 2.11 153 2.11 154 2.11 157 2.11 155 2.11
  56  0.500  0.400  0.503- 150 2.11 153 2.11 154 2.11 173 2.11 156 2.11   3 2.71
  57  0.400  0.600  0.407- 140 2.11 155 2.11 159 2.11 160 2.11 157 2.11
  58  0.500  0.700  0.407- 164 2.11 160 2.11 159 2.11 179 2.11 158 2.11
  59  0.400  0.700  0.503- 161 2.11 157 2.11 158 2.11 138 2.11 159 2.11   2 2.71
  60  0.500  0.600  0.503- 154 2.11 157 2.11 158 2.11 177 2.11 160 2.11
[...]
 190  0.900  0.300  0.503-  92 2.11  91 2.11  11 2.11  96 2.11  90 2.11
 191  0.800  0.300  0.407-  70 2.11  89 2.11  90 2.11  93 2.11  91 2.11
 192  0.900  0.200  0.407-  90 2.11  86 2.11  89 2.11   9 2.11  92 2.11
 193  0.800  0.400  0.503-  76 2.11  91 2.11  95 2.11  96 2.11  93 2.11
 194  0.900  0.500  0.503-  15 2.11  95 2.11  96 2.11 100 2.11  94 2.11
 195  0.800  0.500  0.407-  74 2.11  93 2.11  94 2.11  97 2.11  95 2.11
 196  0.900  0.400  0.407-  13 2.11  90 2.11  93 2.11  94 2.11  96 2.11
 197  0.800  0.600  0.503-  80 2.11  95 2.11  99 2.11 100 2.11  97 2.11
 198  0.900  0.700  0.503- 104 2.11  99 2.11 100 2.11  19 2.11  98 2.11
 199  0.800  0.700  0.407-  78 2.11 101 2.11  98 2.11  97 2.11  99 2.11
 200  0.900  0.600  0.407-  17 2.11  94 2.11  97 2.11  98 2.11 100 2.11
 201  0.800  0.800  0.503-  84 2.11  99 2.11 103 2.11 104 2.11 101 2.11
 202  0.900  0.900  0.503-  23 2.11  88 2.11 103 2.11 104 2.11 102 2.11
 203  0.800  0.900  0.407-  82 2.11  85 2.11 101 2.11 102 2.11 103 2.11
 204  0.900  0.800  0.407-  98 2.11  21 2.11 101 2.11 102 2.11 104 2.11

  LATTYP: Found a simple tetragonal cell.
 ALAT       =    21.1388521970
 C/A-ratio  =     1.0461251639

  Lattice vectors:

 A1 = (  21.1388521970,   0.0000000000,   0.0000000000)
 A2 = (   0.0000000000,  21.1388521970,   0.0000000000)
 A3 = (   0.0000000000,   0.0000000000,  22.1138852197)

Analysis of symmetry for initial positions (statically):
 Subroutine PRICEL returns:
 Original cell was already a primitive cell.

 Routine SETGRP: Setting up the symmetry group for a
 simple tetragonal supercell.

 Subroutine GETGRP returns: Found  2 space group operations
 (whereof  1 operations were pure point group operations)
 out of a pool of 16 trial point group operations.

The static configuration has the point symmetry C_1 .
 The point group associated with its full space group is C_1h.

Analysis of symmetry for dynamics (positions and initial velocities):
 Subroutine PRICEL returns:
 Original cell was already a primitive cell.

[...]

The dynamic configuration has the point symmetry C_1 .
 The point group associated with its full space group is C_1h.

Analysis of constrained symmetry for selective dynamics:
 Subroutine PRICEL returns:
 Original cell was already a primitive cell.

 Routine SETGRP: Setting up the symmetry group for a
 simple tetragonal supercell.

 Subroutine GETGRP returns: Found  2 space group operations
 (whereof  1 operations were pure point group operations)
 out of a pool of 16 trial point group operations.

The constrained configuration has the point symmetry C_1 .
[...]
     52     -43.3279      2.00000
     53     -43.3233      2.00000
     54     -43.3203      2.00000
     55     -43.3197      2.00000
     56     -43.3197      2.00000
     57     -43.3193      2.00000
     58     -43.3189      2.00000
     59     -43.3178      2.00000
     60     -43.3176      2.00000
[...]
    946       5.5132      0.00000
    947       5.5322      0.00000
    948       5.5537      0.00000
    949       5.5898      0.00000
    950       5.6108      0.00000
    951       5.6604      0.00000
    952       5.7464      0.00000
    953       5.7906      0.00000
    954       5.8586      0.00000
    955       5.9066      0.00000
    956       6.0614      0.00000
    957       6.1031      0.00000
    958       6.1144      0.00000
    959       6.2498      0.00000
    960       6.4571      0.00000

 soft charge-density along one line, spin component           1
         0         1         2         3         4         5         6         7         8         9
 total charge-density along one line

------------------------ aborting loop because EDIFF is reached ----------------------------------------

  FORCE on cell =-STRESS in cart. coord.  units (eV):
  Direction    XX          YY          ZZ          XY          YZ          ZX
  Alpha Z  1417.83424  1417.83424  1417.83424
  Ewald  482423.15860482423.15974************ -1155.82133    -0.02915    -0.03097
  Hartree511414.12408511414.12448************  -908.01545    -0.01309    -0.01365
  E(xc)   -7847.35067 -7847.35067 -7849.29636    -0.45799     0.00009     0.00010
  Local  ************************************  2046.57369     0.04106     0.04321
  n-local -8830.92668 -8830.92669 -8943.63249    10.94727    -0.00284    -0.00310
  augment  3564.77687  3564.77687  3507.43591     1.96903     0.00129     0.00131
  Kinetic 23303.99441 23303.99441 23538.24743     6.38498    -0.00032    -0.00016
  Fock        0.00000     0.00000     0.00000     0.00000     0.00000     0.00000
  Total    -182.77139  -182.77139     2.20995     1.58021    -0.00311    -0.00310
  in kB     -29.63405   -29.63405     0.35832     0.25621    -0.00050    -0.00050

 VOLUME and BASIS-vectors are now :
  energy-cutoff  :      520.00
  volume of cell :     9881.61
      direct lattice vectors                 reciprocal lattice vectors
    21.138852197  0.000000000  0.000000000     0.047306258  0.000000000  0.000000000
     0.000000000 21.138852197  0.000000000     0.000000000  0.047306258  0.000000000
     0.000000000  0.000000000 22.113885220     0.000000000  0.000000000  0.045220457

  length of vectors
    21.138852197 21.138852197 22.113885220     0.047306258  0.047306258  0.045220457

 FORCES acting on ions:
    Electron-Ion                     Ewald-Force                    Non-Local-Force
   0.493E+02 -.493E+02 -.197E+04   -.510E+02 0.510E+02 0.197E+04   0.183E+01 -.183E+01 0.261E+01
   0.221E+03 -.221E+03 -.203E+04   -.218E+03 0.218E+03 0.203E+04   -.244E+01 0.244E+01 -.213E+01
   -.221E+03 0.221E+03 -.203E+04   0.218E+03 -.218E+03 0.203E+04   0.244E+01 -.244E+01 -.213E+01
   -.493E+02 0.493E+02 -.197E+04   0.510E+02 -.510E+02 0.197E+04   -.183E+01 0.183E+01 0.261E+01
   0.457E+01 -.457E+01 0.937E+03   -.461E+01 0.461E+01 -.929E+03   0.302E-01 -.302E-01 -.716E+01
   0.896E+01 0.202E+01 0.938E+03   -.895E+01 -.195E+01 -.930E+03   -.461E-02 -.569E-01 -.717E+01
   0.331E+01 0.331E+01 -.918E+03   -.328E+01 -.328E+01 0.911E+03   -.204E-01 -.204E-01 0.708E+01
   0.139E+02 -.104E+02 -.916E+03   -.139E+02 0.105E+02 0.908E+03   0.240E-01 -.962E-01 0.708E+01
   0.202E+01 0.896E+01 0.938E+03   -.195E+01 -.895E+01 -.930E+03   -.569E-01 -.461E-02 -.717E+01
   0.143E+02 0.155E+02 0.944E+03   -.142E+02 -.155E+02 -.936E+03   -.510E-01 0.405E-03 -.718E+01
   0.314E+01 0.155E+02 -.914E+03   -.302E+01 -.155E+02 0.907E+03   -.897E-01 -.126E-02 0.708E+01
   0.132E+02 0.132E+02 -.915E+03   -.132E+02 -.132E+02 0.908E+03   -.410E-01 -.410E-01 0.708E+01
   0.486E+01 0.110E+02 0.944E+03   -.477E+01 -.110E+02 -.937E+03   -.777E-01 0.192E-01 -.718E+01
   0.281E+02 0.111E+02 0.957E+03   -.281E+02 -.113E+02 -.949E+03   -.523E-02 0.119E+00 -.719E+01
   0.128E+02 0.788E+01 -.908E+03   -.128E+02 -.792E+01 0.901E+03   -.295E-01 0.258E-01 0.706E+01
   0.306E+02 0.233E+02 -.905E+03   -.304E+02 -.233E+02 0.898E+03   -.105E+00 0.415E-01 0.706E+01
   0.121E+02 -.242E+01 0.948E+03   -.122E+02 0.238E+01 -.941E+03   0.817E-01 0.311E-01 -.718E+01
   0.318E+02 -.129E+02 0.960E+03   -.323E+02 0.128E+02 -.952E+03   0.397E+00 0.467E-01 -.723E+01
   0.203E+02 -.128E+02 -.909E+03   -.205E+02 0.128E+02 0.901E+03   0.143E+00 0.200E-01 0.707E+01
   0.581E+02 0.285E+01 -.892E+03   -.583E+02 -.301E+01 0.885E+03   0.139E+00 0.120E+00 0.703E+01
   0.109E+02 -.130E+02 0.943E+03   -.110E+02 0.130E+02 -.936E+03   0.150E+00 -.156E-01 -.718E+01
   0.158E+02 -.158E+02 0.944E+03   -.159E+02 0.159E+02 -.937E+03   0.109E+00 -.109E+00 -.716E+01
   0.104E+02 -.139E+02 -.916E+03   -.105E+02 0.139E+02 0.908E+03   0.962E-01 -.240E-01 0.708E+01
   0.387E+02 -.287E+02 -.903E+03   -.391E+02 0.288E+02 0.896E+03   0.329E+00 -.242E-01 0.707E+01
   0.130E+02 -.109E+02 0.943E+03   -.130E+02 0.110E+02 -.936E+03   0.156E-01 -.150E+00 -.718E+01
   0.110E+02 0.487E+01 0.944E+03   -.110E+02 -.477E+01 -.937E+03   0.192E-01 -.777E-01 -.718E+01
   0.155E+02 0.314E+01 -.914E+03   -.155E+02 -.302E+01 0.907E+03   -.126E-02 -.897E-01 0.708E+01
   0.128E+02 -.203E+02 -.909E+03   -.128E+02 0.205E+02 0.901E+03   -.200E-01 -.142E+00 0.707E+01
   0.155E+02 0.143E+02 0.944E+03   -.155E+02 -.142E+02 -.936E+03   0.405E-03 -.510E-01 -.718E+01
   0.252E+02 0.322E+02 0.963E+03   -.253E+02 -.321E+02 -.955E+03   0.751E-01 -.399E-01 -.724E+01
   0.329E+02 0.329E+02 -.904E+03   -.328E+02 -.328E+02 0.897E+03   -.599E-01 -.599E-01 0.705E+01
   0.233E+02 0.306E+02 -.905E+03   -.233E+02 -.304E+02 0.898E+03   0.415E-01 -.105E+00 0.706E+01
   0.322E+02 0.252E+02 0.963E+03   -.321E+02 -.253E+02 -.955E+03   -.399E-01 0.751E-01 -.724E+01
   0.426E+02 0.277E+02 0.101E+04   -.426E+02 -.282E+02 -.100E+04   0.411E-02 0.349E+00 -.750E+01
   0.791E+02 0.416E+02 -.869E+03   -.788E+02 -.419E+02 0.862E+03   -.264E+00 0.277E+00 0.695E+01
   0.671E+02 0.671E+02 -.861E+03   -.669E+02 -.669E+02 0.854E+03   -.146E+00 -.146E+00 0.692E+01
   0.499E+02 0.289E+01 0.991E+03   -.501E+02 -.338E+01 -.984E+03   0.137E+00 0.369E+00 -.718E+01
   0.342E+02 -.342E+02 0.102E+04   -.339E+02 0.339E+02 -.102E+04   -.205E+00 0.205E+00 -.476E+01
   0.109E+03 -.430E+02 -.839E+03   -.112E+03 0.427E+02 0.832E+03   0.181E+01 0.208E+00 0.712E+01
   0.120E+03 0.626E+02 -.698E+03   -.120E+03 -.655E+02 0.692E+03   -.436E+00 0.194E+01 0.519E+01
   0.312E+02 -.312E+02 0.969E+03   -.315E+02 0.315E+02 -.962E+03   0.245E+00 -.245E+00 -.707E+01
   0.129E+02 -.318E+02 0.960E+03   -.128E+02 0.323E+02 -.952E+03   -.468E-01 -.397E+00 -.723E+01
   0.287E+02 -.387E+02 -.903E+03   -.288E+02 0.391E+02 0.896E+03   0.241E-01 -.329E+00 0.707E+01
   0.431E+02 -.109E+03 -.839E+03   -.428E+02 0.112E+03 0.832E+03   -.208E+00 -.181E+01 0.712E+01
   0.242E+01 -.121E+02 0.949E+03   -.238E+01 0.122E+02 -.941E+03   -.311E-01 -.816E-01 -.718E+01
   -.242E+01 0.121E+02 0.948E+03   0.238E+01 -.122E+02 -.941E+03   0.311E-01 0.817E-01 -.718E+01
   0.788E+01 0.128E+02 -.908E+03   -.792E+01 -.128E+02 0.901E+03   0.258E-01 -.295E-01 0.706E+01
   -.788E+01 -.129E+02 -.908E+03   0.792E+01 0.128E+02 0.901E+03   -.258E-01 0.296E-01 0.706E+01
   0.111E+02 0.281E+02 0.957E+03   -.113E+02 -.281E+02 -.949E+03   0.119E+00 -.523E-02 -.719E+01
   0.289E+01 0.499E+02 0.991E+03   -.338E+01 -.501E+02 -.984E+03   0.369E+00 0.137E+00 -.718E+01
   0.416E+02 0.791E+02 -.869E+03   -.419E+02 -.788E+02 0.862E+03   0.277E+00 -.264E+00 0.695E+01
   0.285E+01 0.581E+02 -.892E+03   -.301E+01 -.583E+02 0.885E+03   0.120E+00 0.139E+00 0.703E+01
   0.277E+02 0.426E+02 0.101E+04   -.282E+02 -.426E+02 -.100E+04   0.349E+00 0.411E-02 -.750E+01
   -.764E+01 0.767E+01 0.105E+04   0.734E+01 -.737E+01 -.104E+04   0.226E+00 -.226E+00 -.746E+01
   0.665E+02 0.665E+02 -.736E+03   -.667E+02 -.667E+02 0.730E+03   0.131E+00 0.131E+00 0.644E+01
   0.626E+02 0.120E+03 -.698E+03   -.655E+02 -.120E+03 0.692E+03   0.194E+01 -.436E+00 0.519E+01
   0.766E+01 -.764E+01 0.105E+04   -.737E+01 0.734E+01 -.104E+04   -.226E+00 0.226E+00 -.746E+01
   -.277E+02 -.426E+02 0.101E+04   0.282E+02 0.426E+02 -.100E+04   -.349E+00 -.414E-02 -.750E+01
   -.626E+02 -.120E+03 -.698E+03   0.655E+02 0.120E+03 0.692E+03   -.194E+01 0.436E+00 0.519E+01
   -.665E+02 -.665E+02 -.736E+03   0.667E+02 0.667E+02 0.730E+03   -.132E+00 -.132E+00 0.644E+01
[...]
   -.181E+02 0.142E+02 0.716E+03   0.182E+02 -.143E+02 -.720E+03   -.248E+00 0.111E+00 0.363E+01
   -.563E+01 0.800E+01 0.706E+03   0.569E+01 -.802E+01 -.710E+03   -.886E-01 0.456E-01 0.361E+01
   -.423E+02 0.143E+02 -.672E+03   0.424E+02 -.143E+02 0.676E+03   -.268E+00 -.926E-01 -.383E+01
   -.142E+02 0.197E+01 -.682E+03   0.143E+02 -.193E+01 0.687E+03   -.556E-01 -.468E-01 -.378E+01
   -.251E+02 -.766E-02 0.723E+03   0.252E+02 0.151E+00 -.727E+03   -.158E+00 -.188E+00 0.359E+01
   -.984E+01 0.738E+01 0.712E+03   0.992E+01 -.736E+01 -.716E+03   -.123E+00 -.150E-01 0.360E+01
   -.339E+02 -.138E+02 -.675E+03   0.339E+02 0.139E+02 0.680E+03   -.390E-02 -.140E+00 -.382E+01
   -.496E+01 -.108E+02 -.685E+03   0.491E+01 0.108E+02 0.689E+03   0.632E-01 -.121E-01 -.377E+01
   -.155E+02 -.121E+02 0.714E+03   0.154E+02 0.122E+02 -.718E+03   0.451E-01 -.426E-01 0.358E+01
   -.646E+01 -.420E+01 0.712E+03   0.645E+01 0.424E+01 -.716E+03   0.699E-02 -.389E-01 0.359E+01
   -.147E+02 -.156E+02 -.685E+03   0.147E+02 0.156E+02 0.690E+03   0.673E-01 0.243E-01 -.377E+01
   -.171E+01 -.840E+01 -.689E+03   0.166E+01 0.840E+01 0.694E+03   0.544E-01 0.709E-02 -.374E+01
   -.770E+01 -.769E+01 0.707E+03   0.767E+01 0.767E+01 -.711E+03   0.303E-01 0.303E-01 0.360E+01
   -.194E+01 -.909E+01 0.708E+03   0.188E+01 0.910E+01 -.712E+03   0.712E-01 -.619E-02 0.360E+01
   -.731E+00 0.728E+00 0.145E+02   0.199E-11 0.119E-11 0.146E-10   0.280E-02 0.280E-02 -.149E+02

 POSITION                                       TOTAL-FORCE (eV/Angst)
      8.54545     12.59441     14.71338         0.003447     -0.002601      0.008894
      7.02105     14.11881     13.31306         0.000541     -0.001236      0.009026
     12.00492      9.13494     13.31306        -0.001236      0.000541      0.009026
     10.48052     10.65934     14.71338        -0.002601      0.003447      0.008894
      0.00000      0.00000      9.00000        -0.008431      0.008407      0.344560
      2.11389      2.11389      9.00000         0.001202      0.015263      0.346365
      0.00000      2.11389     11.11389         0.005420      0.005420     -0.313240
      2.11389      0.00000     11.11389        -0.006963      0.025568     -0.310929
      0.00000      4.22777      9.00000         0.015263      0.001202      0.346365
      2.11389      6.34166      9.00000         0.014032      0.000588      0.350533
      0.00000      6.34166     11.11389         0.023864      0.000730     -0.309770
      2.11389      4.22777     11.11389         0.011395      0.011395     -0.310783
      0.00000      8.45554      9.00000         0.020246     -0.004936      0.348349
      2.11389     10.56943      9.00000        -0.000501     -0.033268      0.351157
      0.00000     10.56943     11.11389         0.008121     -0.007040     -0.303147
      2.11389      8.45554     11.11389         0.028909     -0.009458     -0.299449
      0.00000     12.68331      9.00000        -0.021818     -0.009338      0.349341
      2.11389     14.79720      9.00000        -0.100135     -0.013998      0.356297
      0.00000     14.79720     11.11389        -0.036136     -0.006089     -0.303975
      2.11389     12.68331     11.11389        -0.036571     -0.035867     -0.282022
      0.00000     16.91108      9.00000        -0.039744      0.004649      0.346781
      2.11389     19.02497      9.00000        -0.031320      0.031307      0.340140
      0.00000     19.02497     11.11389        -0.025597      0.006949     -0.310930
      2.11389     16.91108     11.11389        -0.086183      0.008344     -0.298629
      4.22777      0.00000      9.00000        -0.004663      0.039712      0.346784
      6.34166      2.11389      9.00000        -0.004936      0.020246      0.348349
      4.22777      2.11389     11.11389         0.000730      0.023864     -0.309770
      6.34166      0.00000     11.11389         0.006085      0.036087     -0.303973
      4.22777      4.22777      9.00000         0.000588      0.014032      0.350533
      6.34166      6.34166      9.00000        -0.017488      0.012229      0.366061
      4.22777      6.34166     11.11389         0.018178      0.018178     -0.297412
      6.34166      4.22777     11.11389        -0.009458      0.028909     -0.299449
      4.22777      8.45554      9.00000         0.012229     -0.017488      0.366061
      6.34166     10.56943      9.00000         0.003059     -0.085097      0.426671
      4.22777     10.56943     11.11389         0.082692     -0.063697     -0.236967
      6.34166      8.45554     11.11389         0.048641      0.048641     -0.230770
      4.22777     12.68331      9.00000        -0.050505     -0.118984      0.330822
      6.34166     14.79720      9.00000         0.069907     -0.069806     -0.212617
      4.22777     14.79720     11.11389        -0.560624     -0.070940     -0.270437
      6.34166     12.68331     11.11389        -0.012921     -0.959044     -0.321730
      4.22777     16.91108      9.00000        -0.083614      0.083632      0.301380
      6.34166     19.02497      9.00000         0.013997      0.100086      0.356299
      4.22777     19.02497     11.11389        -0.008339      0.086162     -0.298630
      6.34166     16.91108     11.11389         0.070991      0.560633     -0.270445
      8.45554      0.00000      9.00000         0.009331      0.021772      0.349348
     10.56943      2.11389      9.00000        -0.009338     -0.021818      0.349341
      8.45554      2.11389     11.11389        -0.007040      0.008121     -0.303147
     10.56943      0.00000     11.11389         0.007025     -0.008180     -0.303141
      8.45554      4.22777      9.00000        -0.033268     -0.000501      0.351157
     10.56943      6.34166      9.00000        -0.118984     -0.050505      0.330822
      8.45554      6.34166     11.11389        -0.063697      0.082692     -0.236967
     10.56943      4.22777     11.11389        -0.035867     -0.036571     -0.282022
      8.45554      8.45554      9.00000        -0.085097      0.003059      0.426671
     10.56943     10.56943      9.00000        -0.072170      0.072229      0.378008
      8.45554     10.56943     11.11389        -0.021844     -0.021844      0.055156
     10.56943      8.45554     11.11389        -0.959044     -0.012921     -0.321730
      8.45554     12.68331      9.00000         0.072229     -0.072170      0.378008
     10.56943     14.79720      9.00000         0.085103     -0.003069      0.426750
      8.45554     14.79720     11.11389         0.960093      0.013260     -0.322870
     10.56943     12.68331     11.11389         0.021955      0.021955      0.055404
[...]
     19.02497      6.34166     11.11389        -0.033814      0.004453      0.362835
     16.91108      6.34166      9.00000        -0.068124      0.029958     -0.396068
     19.02497      4.22777      9.00000        -0.024377      0.012467     -0.401405
     16.91108      8.45554     11.11389        -0.077181     -0.025301      0.346629
     19.02497     10.56943     11.11389        -0.015596     -0.013073      0.357122
     16.91108     10.56943      9.00000        -0.043257     -0.051021     -0.408496
     19.02497      8.45554      9.00000        -0.034106     -0.004341     -0.403923
     16.91108     12.68331     11.11389        -0.001467     -0.038967      0.346760
     19.02497     14.79720     11.11389         0.017611     -0.003132      0.361522
     16.91108     14.79720      9.00000         0.012471     -0.011757     -0.409981
     19.02497     12.68331      9.00000         0.002009     -0.010642     -0.406293
     16.91108     16.91108     11.11389         0.018608      0.006756      0.361313
     19.02497     19.02497     11.11389         0.014993      0.001973      0.367537
     16.91108     19.02497      9.00000         0.008345      0.008345     -0.404296
     19.02497     16.91108      9.00000         0.019675     -0.001634     -0.403904
    total drift:                               -0.727782      0.731141     -0.358622

  FREE ENERGIE OF THE ION-ELECTRON SYSTEM (eV)
  free  energy   TOTEN  =      -794.07986769 eV

  energy  without entropy=     -794.07986769  energy(sigma->0) =     -794.07986769