 vasp.6.3.0 20Jan22 (build Apr  1 2022 16:44:48) complex
 executed on        HPECrayEX_GCC date 2023.01.09  19:20:50

 INCAR:
   SYSTEM = MgO-rocksalt
   ISMEAR = 0
   SIGMA = 0.05
   EDIFF = 1E-6
   ALGO = ALL
   ISTART = 0
   IBRION = -1
   NSW = 0
   ISYM = 2
   DIPOL = 0.5 0.5 0.5
   IDIPOL = 3
   LDIPOL = .TRUE.
   METAGGA = M06L
   ENCUT = 520
   PREC = Accurate
   LASPH = .TRUE.
   LREAL = Auto
   ISPIN = 1
   NELM = 200
   NELMIN = 8
   NCORE = 4
   KPAR = 2
   LWAVE = .FALSE.
   LCHARG = .FALSE.

 POTCAR:    PAW_PBE Au 04Oct2007
 POTCAR:    PAW_PBE Mg_pv 13Apr2007
 POTCAR:    PAW_PBE O 08Apr2002
 POTCAR:    PAW_PBE Au 04Oct2007
   VRHFIN =Au: s1d10

   TITEL  = PAW_PBE Au 04Oct2007
   POMASS =  196.966; ZVAL   =   11.000    mass and valenz
   ENMAX  =  229.943; ENMIN  =  172.457 eV

   TITEL  = PAW_PBE Mg_pv 13Apr2007
   POMASS =   24.305; ZVAL   =    8.000    mass and valenz
   ENMAX  =  403.929; ENMIN  =  302.947 eV

   TITEL  = PAW_PBE O 08Apr2002
   POMASS =   16.000; ZVAL   =    6.000    mass and valenz
   ENMAX  =  400.000; ENMIN  =  300.000 eV

 Optimization of the real space projectors (new method)

 maximal supplied QI-value         = 15.12
 optimisation between [QCUT,QGAM] = [ 11.64, 23.28] = [ 37.95,151.78] Ry
 Optimized for a Real-space Cutoff    1.49 Angstroem

   l    n(q)    QCUT    max X(q) W(low)/X(q) W(high)/X(q)  e(spline)
   2      9    11.641    60.898    0.24E-03    0.10E-03    0.19E-06
   2      9    11.641    58.894    0.25E-03    0.10E-03    0.19E-06
   0     10    11.641   109.617    0.73E-04    0.33E-04    0.11E-06
   0     10    11.641    75.026    0.71E-04    0.32E-04    0.11E-06
   1     10    11.641    16.344    0.27E-04    0.97E-04    0.16E-06
   1     10    11.641    10.160    0.23E-04    0.77E-04    0.13E-06
 Optimization of the real space projectors (new method)

[...]

   l    n(q)    QCUT    max X(q) W(low)/X(q) W(high)/X(q)  e(spline)
   1      8    11.527     2.974    0.44E-04    0.56E-04    0.12E-06
   1      8    11.527     4.279    0.12E-03    0.12E-03    0.26E-06
   0      9    11.527    16.381    0.46E-04    0.64E-04    0.78E-07
   0      9    11.527     5.611    0.26E-04    0.43E-04    0.55E-07
   2      8    11.527     4.652    0.22E-03    0.72E-04    0.47E-07
 Optimization of the real space projectors (new method)

 maximal supplied QI-value         = 24.76
 optimisation between [QCUT,QGAM] = [ 11.64, 23.27] = [ 37.91,151.63] Ry
 Optimized for a Real-space Cutoff    1.14 Angstroem

   l    n(q)    QCUT    max X(q) W(low)/X(q) W(high)/X(q)  e(spline)
   0      8    11.635    20.381    0.10E-03    0.33E-03    0.24E-06
   0      8    11.635    15.268    0.11E-03    0.35E-03    0.26E-06
   1      7    11.635     5.964    0.24E-03    0.31E-03    0.30E-06
   1      7    11.635     5.382    0.22E-03    0.25E-03    0.26E-06
  PAW_PBE Au 04Oct2007                  :
  PAW_PBE Mg_pv 13Apr2007               :
  PAW_PBE O 08Apr2002                   :

 POSCAR: Au Mg  O
  positions in direct lattice
  velocities in cartesian coordinates

 METAGGA = M06L     LMAXTAU =  6    LMIXTAU =  F

 ion  position               nearest neighbor table
   1  0.404  0.596  0.665-   2 2.57   4 2.74
   2  0.332  0.668  0.602- 138 2.40   1 2.57  59 2.71  40 2.71
   3  0.568  0.432  0.602- 173 2.40   4 2.57  75 2.71  56 2.71
   4  0.496  0.504  0.665-   3 2.57   1 2.74
   5  0.000  0.000  0.407- 107 2.11 108 2.11 123 2.11 188 2.11 105 2.11
   6  0.100  0.100  0.407- 107 2.11 108 2.11 112 2.11 127 2.11 106 2.11
   7  0.000  0.100  0.503- 105 2.11 106 2.11 109 2.11 186 2.11 107 2.11
   8  0.100  0.000  0.503- 105 2.11 106 2.11 122 2.11 125 2.11 108 2.11
   9  0.000  0.200  0.407- 111 2.11 107 2.11 112 2.11 192 2.11 109 2.11
  10  0.100  0.300  0.407- 112 2.11 111 2.11 116 2.11 131 2.11 110 2.11
  11  0.000  0.300  0.503- 109 2.11 110 2.11 113 2.11 190 2.11 111 2.11
  12  0.100  0.200  0.503- 110 2.11 109 2.11 106 2.11 129 2.11 112 2.11
  13  0.000  0.400  0.407- 111 2.11 115 2.11 116 2.11 196 2.11 113 2.11
  14  0.100  0.500  0.407- 115 2.11 116 2.11 120 2.11 135 2.11 114 2.11
  15  0.000  0.500  0.503- 113 2.11 114 2.11 117 2.11 194 2.11 115 2.11
  16  0.100  0.400  0.503- 110 2.11 113 2.11 114 2.11 133 2.11 116 2.11
  17  0.000  0.600  0.407- 115 2.11 119 2.11 120 2.11 200 2.11 117 2.11
  18  0.100  0.700  0.407- 124 2.11 120 2.11 119 2.11 139 2.11 118 2.11
  19  0.000  0.700  0.503- 121 2.11 118 2.11 117 2.11 198 2.11 119 2.11
  20  0.100  0.600  0.503- 114 2.11 117 2.11 118 2.11 137 2.11 120 2.11
  21  0.000  0.800  0.407- 119 2.11 123 2.11 124 2.11 204 2.11 121 2.11
  22  0.100  0.900  0.407- 108 2.11 123 2.11 124 2.11 143 2.11 122 2.11
  23  0.000  0.900  0.503- 105 2.11 121 2.11 122 2.11 202 2.11 123 2.11
  24  0.100  0.800  0.503- 118 2.11 121 2.11 122 2.11 141 2.11 124 2.11
  25  0.200  0.000  0.407- 128 2.11 127 2.11 108 2.11 143 2.11 125 2.11
  26  0.300  0.100  0.407- 127 2.11 128 2.11 132 2.11 147 2.11 126 2.11
  27  0.200  0.100  0.503- 126 2.11 125 2.11 106 2.11 129 2.11 127 2.11
  28  0.300  0.000  0.503- 125 2.11 126 2.11 142 2.11 145 2.11 128 2.11
  29  0.200  0.200  0.407- 131 2.11 132 2.11 112 2.11 127 2.11 129 2.11
  30  0.300  0.300  0.407- 131 2.11 132 2.11 136 2.11 151 2.11 130 2.11
  31  0.200  0.300  0.503- 129 2.11 130 2.11 110 2.11 133 2.11 131 2.11
  32  0.300  0.200  0.503- 129 2.11 130 2.11 126 2.11 149 2.11 132 2.11
  33  0.200  0.400  0.407- 136 2.11 131 2.11 135 2.11 116 2.11 133 2.11
  34  0.300  0.500  0.407- 135 2.11 136 2.11 140 2.11 155 2.11 134 2.11
  35  0.200  0.500  0.503- 134 2.11 133 2.11 114 2.11 137 2.11 135 2.11
  36  0.300  0.400  0.503- 133 2.11 130 2.11 134 2.11 153 2.11 136 2.11
  37  0.200  0.600  0.407- 140 2.11 135 2.11 139 2.11 120 2.11 137 2.11
  38  0.300  0.700  0.407- 139 2.11 144 2.11 140 2.11 159 2.11 138 2.11
  39  0.200  0.700  0.503- 138 2.11 141 2.11 118 2.11 137 2.11 139 2.11
  40  0.300  0.600  0.503- 137 2.11 134 2.11 138 2.11 157 2.11 140 2.11   2 2.71
  41  0.200  0.800  0.407- 139 2.11 144 2.11 143 2.11 124 2.11 141 2.11
  42  0.300  0.900  0.407- 143 2.11 128 2.11 144 2.11 163 2.11 142 2.11
  43  0.200  0.900  0.503- 142 2.11 125 2.11 141 2.11 122 2.11 143 2.11
  44  0.300  0.800  0.503- 138 2.11 141 2.11 142 2.11 161 2.11 144 2.11
  45  0.400  0.000  0.407- 128 2.11 147 2.11 148 2.11 163 2.11 145 2.11
  46  0.500  0.100  0.407- 147 2.11 148 2.11 152 2.11 167 2.11 146 2.11
  47  0.400  0.100  0.503- 126 2.11 145 2.11 146 2.11 149 2.11 147 2.11
  48  0.500  0.000  0.503- 145 2.11 146 2.11 162 2.11 165 2.11 148 2.11
  49  0.400  0.200  0.407- 151 2.11 147 2.11 132 2.11 152 2.11 149 2.11
  50  0.500  0.300  0.407- 152 2.11 151 2.11 156 2.11 171 2.11 150 2.11
  51  0.400  0.300  0.503- 149 2.11 130 2.11 150 2.11 153 2.11 151 2.11
  52  0.500  0.200  0.503- 150 2.11 149 2.11 146 2.11 169 2.11 152 2.11
  53  0.400  0.400  0.407- 136 2.11 151 2.11 155 2.11 156 2.11 153 2.11
  54  0.500  0.500  0.407- 155 2.11 156 2.11 160 2.11 175 2.11 154 2.11
  55  0.400  0.500  0.503- 134 2.11 153 2.11 154 2.11 157 2.11 155 2.11
  56  0.500  0.400  0.503- 150 2.11 153 2.11 154 2.11 173 2.11 156 2.11   3 2.71
  57  0.400  0.600  0.407- 140 2.11 155 2.11 159 2.11 160 2.11 157 2.11
  58  0.500  0.700  0.407- 164 2.11 160 2.11 159 2.11 179 2.11 158 2.11
  59  0.400  0.700  0.503- 161 2.11 157 2.11 158 2.11 138 2.11 159 2.11   2 2.71
  60  0.500  0.600  0.503- 154 2.11 157 2.11 158 2.11 177 2.11 160 2.11
[...]
 190  0.900  0.300  0.503-  92 2.11  91 2.11  11 2.11  96 2.11  90 2.11
 191  0.800  0.300  0.407-  70 2.11  89 2.11  90 2.11  93 2.11  91 2.11
 192  0.900  0.200  0.407-  90 2.11  86 2.11  89 2.11   9 2.11  92 2.11
 193  0.800  0.400  0.503-  76 2.11  91 2.11  95 2.11  96 2.11  93 2.11
 194  0.900  0.500  0.503-  15 2.11  95 2.11  96 2.11 100 2.11  94 2.11
 195  0.800  0.500  0.407-  74 2.11  93 2.11  94 2.11  97 2.11  95 2.11
 196  0.900  0.400  0.407-  13 2.11  90 2.11  93 2.11  94 2.11  96 2.11
 197  0.800  0.600  0.503-  80 2.11  95 2.11  99 2.11 100 2.11  97 2.11
 198  0.900  0.700  0.503- 104 2.11  99 2.11 100 2.11  19 2.11  98 2.11
 199  0.800  0.700  0.407-  78 2.11 101 2.11  98 2.11  97 2.11  99 2.11
 200  0.900  0.600  0.407-  17 2.11  94 2.11  97 2.11  98 2.11 100 2.11
 201  0.800  0.800  0.503-  84 2.11  99 2.11 103 2.11 104 2.11 101 2.11
 202  0.900  0.900  0.503-  23 2.11  88 2.11 103 2.11 104 2.11 102 2.11
 203  0.800  0.900  0.407-  82 2.11  85 2.11 101 2.11 102 2.11 103 2.11
 204  0.900  0.800  0.407-  98 2.11  21 2.11 101 2.11 102 2.11 104 2.11

  LATTYP: Found a simple tetragonal cell.
 ALAT       =    21.1388521970
 C/A-ratio  =     1.0461251639

  Lattice vectors:

 A1 = (  21.1388521970,   0.0000000000,   0.0000000000)
 A2 = (   0.0000000000,  21.1388521970,   0.0000000000)
 A3 = (   0.0000000000,   0.0000000000,  22.1138852197)

Analysis of symmetry for initial positions (statically):
 Subroutine PRICEL returns:
 Original cell was already a primitive cell.

 Routine SETGRP: Setting up the symmetry group for a
 simple tetragonal supercell.

 Subroutine GETGRP returns: Found  2 space group operations
 (whereof  1 operations were pure point group operations)
 out of a pool of 16 trial point group operations.

The static configuration has the point symmetry C_1 .
 The point group associated with its full space group is C_1h.

Analysis of symmetry for dynamics (positions and initial velocities):
 Subroutine PRICEL returns:
 Original cell was already a primitive cell.

[...]

The dynamic configuration has the point symmetry C_1 .
 The point group associated with its full space group is C_1h.

Analysis of constrained symmetry for selective dynamics:
 Subroutine PRICEL returns:
 Original cell was already a primitive cell.

 Routine SETGRP: Setting up the symmetry group for a
 simple tetragonal supercell.

 Subroutine GETGRP returns: Found  2 space group operations
 (whereof  1 operations were pure point group operations)
 out of a pool of 16 trial point group operations.

The constrained configuration has the point symmetry C_1 .
 The point group associated with its full space group is C_1h.

 Subroutine INISYM returns: Found  2 space group operations
 (whereof  1 operations are pure point group operations),
 and found     1 'primitive' translations

                                     Primitive cell

  volume of cell :    9881.6133

  direct lattice vectors                    reciprocal lattice vectors
    21.138852197  0.000000000  0.000000000     0.047306258  0.000000000  0.000000000
     0.000000000 21.138852197  0.000000000     0.000000000  0.047306258  0.000000000
     0.000000000  0.000000000 22.113885220     0.000000000  0.000000000  0.045220457

  length of vectors
    21.138852197 21.138852197 22.113885220     0.047306258  0.047306258  0.045220457

  position of ions in fractional coordinates (direct lattice)
     0.404253373  0.595794633  0.665345618
     0.332139373  0.667908160  0.602022863
     0.567907686  0.432139846  0.602022863
     0.495794160  0.504253373  0.665345618
     0.000000000  0.000000000  0.406984115
     0.100000000  0.100000000  0.406984115
     0.000000000  0.100000000  0.502574971
     0.100000000  0.000000000  0.502574971
[...]
     52     -44.6599      2.00000
     53     -44.6590      2.00000
     54     -44.6590      2.00000
     55     -44.6567      2.00000
     56     -44.6567      2.00000
     57     -44.6563      2.00000
     58     -44.6550      2.00000
     59     -44.6550      2.00000
     60     -44.6546      2.00000
[...]
    946       9.6470      0.00000
    947       9.8140      0.00000
    948       9.8448      0.00000
    949       9.8623      0.00000
    950       9.9970      0.00000
    951      10.4182      0.00000
    952      10.4581      0.00000
    953      11.1842      0.00000
    954      11.2253      0.00000
    955      12.2288      0.00000
    956      12.4181      0.00000
    957      13.5806      0.00000
    958      13.9131      0.00000
    959      14.8247      0.00000
    960      17.6470      0.00000

 soft charge-density along one line, spin component           1
         0         1         2         3         4         5         6         7         8         9
 total charge-density along one line

------------------------ aborting loop EDIFF was not reached (unconverged)  ----------------------------

  FORCE on cell =-STRESS in cart. coord.  units (eV):
  Direction    XX          YY          ZZ          XY          YZ          ZX
  Alpha Z  1417.83424  1417.83424  1417.83424
  Ewald  482423.15860482423.15974************ -1155.82133    -0.02915    -0.03097
  Hartree511948.60513511948.60554************  -908.89309     0.01128     0.01071
  E(xc)   -8933.82927 -8933.82389 -8929.16650    -0.76541    -0.03330    -0.03088
  Local  ************************************  2047.04379     0.01941     0.02159
  n-local -8681.68345 -8681.68486 -8823.51396    11.07319     0.01858    -0.01860
  augment  4390.81993  4390.81994  4361.58528     1.13388     0.22699     0.22501
  Kinetic 23473.53763 23473.73400 23680.35075     6.99772    -0.00573     0.01792
  Fock        0.00000     0.00000     0.00000     0.00000     0.00000     0.00000
  Total    -233.59068  -233.59068    -6.35626     0.76868     0.20144     0.20145
  in kB     -37.87374   -37.87374    -1.03059     0.12463     0.03266     0.03266

 VOLUME and BASIS-vectors are now :
  energy-cutoff  :      520.00
  volume of cell :     9881.61
      direct lattice vectors                 reciprocal lattice vectors
    21.138852197  0.000000000  0.000000000     0.047306258  0.000000000  0.000000000
     0.000000000 21.138852197  0.000000000     0.000000000  0.047306258  0.000000000
     0.000000000  0.000000000 22.113885220     0.000000000  0.000000000  0.045220457

  length of vectors
    21.138852197 21.138852197 22.113885220     0.047306258  0.047306258  0.045220457

 FORCES acting on ions:
    Electron-Ion                     Ewald-Force                    Non-Local-Force
   0.493E+02 -.492E+02 -.197E+04   -.510E+02 0.510E+02 0.197E+04   0.198E+01 -.202E+01 0.250E+01
   0.221E+03 -.221E+03 -.203E+04   -.218E+03 0.218E+03 0.203E+04   -.247E+01 0.246E+01 -.261E+01
   -.221E+03 0.221E+03 -.203E+04   0.218E+03 -.218E+03 0.203E+04   0.246E+01 -.247E+01 -.261E+01
   -.492E+02 0.493E+02 -.197E+04   0.510E+02 -.510E+02 0.197E+04   -.202E+01 0.198E+01 0.250E+01
   0.459E+01 -.456E+01 0.938E+03   -.461E+01 0.461E+01 -.929E+03   0.342E-01 -.449E-01 -.741E+01
   0.896E+01 0.203E+01 0.940E+03   -.895E+01 -.195E+01 -.930E+03   0.773E-02 -.601E-01 -.730E+01
   0.331E+01 0.332E+01 -.920E+03   -.328E+01 -.328E+01 0.911E+03   -.299E-01 -.299E-01 0.921E+01
   0.139E+02 -.104E+02 -.917E+03   -.139E+02 0.105E+02 0.908E+03   0.372E-01 -.106E+00 0.939E+01
   0.203E+01 0.896E+01 0.940E+03   -.195E+01 -.895E+01 -.930E+03   -.601E-01 0.773E-02 -.730E+01
   0.143E+02 0.155E+02 0.945E+03   -.142E+02 -.155E+02 -.936E+03   -.466E-01 0.129E-01 -.653E+01
   0.313E+01 0.155E+02 -.916E+03   -.302E+01 -.155E+02 0.907E+03   -.915E-01 0.309E-02 0.901E+01
   0.132E+02 0.132E+02 -.917E+03   -.132E+02 -.132E+02 0.908E+03   -.373E-01 -.373E-01 0.911E+01
   0.488E+01 0.110E+02 0.946E+03   -.477E+01 -.110E+02 -.937E+03   -.761E-01 0.356E-01 -.738E+01
   0.281E+02 0.111E+02 0.958E+03   -.281E+02 -.113E+02 -.949E+03   0.166E-01 0.133E+00 -.667E+01
   0.129E+02 0.786E+01 -.910E+03   -.128E+02 -.792E+01 0.901E+03   -.306E-01 0.389E-01 0.988E+01
   0.305E+02 0.233E+02 -.907E+03   -.304E+02 -.233E+02 0.898E+03   -.868E-01 0.593E-01 0.102E+02
   0.121E+02 -.242E+01 0.950E+03   -.122E+02 0.238E+01 -.941E+03   0.833E-01 0.386E-01 -.745E+01
   0.317E+02 -.128E+02 0.961E+03   -.323E+02 0.128E+02 -.952E+03   0.418E+00 0.415E-01 -.723E+01
   0.203E+02 -.128E+02 -.911E+03   -.205E+02 0.128E+02 0.901E+03   0.161E+00 0.315E-02 0.934E+01
   0.581E+02 0.284E+01 -.894E+03   -.583E+02 -.301E+01 0.885E+03   0.213E+00 0.123E+00 0.971E+01
   0.108E+02 -.129E+02 0.945E+03   -.110E+02 0.130E+02 -.936E+03   0.156E+00 -.405E-01 -.686E+01
   0.158E+02 -.158E+02 0.946E+03   -.159E+02 0.159E+02 -.937E+03   0.121E+00 -.131E+00 -.737E+01
   0.104E+02 -.139E+02 -.917E+03   -.105E+02 0.139E+02 0.908E+03   0.988E-01 -.408E-01 0.915E+01
   0.387E+02 -.287E+02 -.905E+03   -.391E+02 0.288E+02 0.896E+03   0.376E+00 -.459E-01 0.910E+01
   0.130E+02 -.108E+02 0.945E+03   -.130E+02 0.110E+02 -.936E+03   0.265E-01 -.172E+00 -.698E+01
   0.110E+02 0.488E+01 0.946E+03   -.110E+02 -.477E+01 -.937E+03   0.356E-01 -.761E-01 -.738E+01
   0.155E+02 0.313E+01 -.916E+03   -.155E+02 -.302E+01 0.907E+03   0.309E-02 -.915E-01 0.901E+01
   0.128E+02 -.203E+02 -.911E+03   -.128E+02 0.205E+02 0.901E+03   -.949E-02 -.168E+00 0.926E+01
   0.155E+02 0.143E+02 0.945E+03   -.155E+02 -.142E+02 -.936E+03   0.129E-01 -.466E-01 -.653E+01
   0.251E+02 0.322E+02 0.965E+03   -.253E+02 -.321E+02 -.955E+03   0.116E+00 -.224E-01 -.712E+01
   0.329E+02 0.329E+02 -.906E+03   -.328E+02 -.328E+02 0.897E+03   -.562E-01 -.562E-01 0.905E+01
   0.233E+02 0.305E+02 -.907E+03   -.233E+02 -.304E+02 0.898E+03   0.593E-01 -.868E-01 0.102E+02
   0.322E+02 0.251E+02 0.965E+03   -.321E+02 -.253E+02 -.955E+03   -.224E-01 0.116E+00 -.712E+01
   0.425E+02 0.277E+02 0.101E+04   -.426E+02 -.282E+02 -.100E+04   0.416E-01 0.388E+00 -.710E+01
   0.791E+02 0.416E+02 -.870E+03   -.788E+02 -.419E+02 0.862E+03   -.228E+00 0.322E+00 0.992E+01
   0.670E+02 0.670E+02 -.863E+03   -.669E+02 -.669E+02 0.854E+03   -.946E-01 -.946E-01 0.910E+01
   0.498E+02 0.288E+01 0.993E+03   -.501E+02 -.338E+01 -.984E+03   0.194E+00 0.374E+00 -.689E+01
   0.342E+02 -.341E+02 0.103E+04   -.339E+02 0.339E+02 -.102E+04   -.176E+00 0.180E+00 -.452E+01
   0.109E+03 -.430E+02 -.841E+03   -.112E+03 0.427E+02 0.832E+03   0.199E+01 0.191E+00 0.934E+01
   0.120E+03 0.626E+02 -.699E+03   -.120E+03 -.655E+02 0.692E+03   -.474E+00 0.192E+01 0.685E+01
   0.311E+02 -.311E+02 0.971E+03   -.315E+02 0.315E+02 -.962E+03   0.281E+00 -.281E+00 -.722E+01
   0.129E+02 -.317E+02 0.961E+03   -.128E+02 0.323E+02 -.952E+03   -.313E-01 -.433E+00 -.730E+01
   0.287E+02 -.387E+02 -.905E+03   -.288E+02 0.391E+02 0.896E+03   0.439E-01 -.378E+00 0.944E+01
   0.430E+02 -.109E+03 -.841E+03   -.428E+02 0.112E+03 0.832E+03   -.188E+00 -.199E+01 0.938E+01
   0.240E+01 -.121E+02 0.950E+03   -.238E+01 0.122E+02 -.941E+03   -.113E-01 -.101E+00 -.754E+01
   -.242E+01 0.121E+02 0.950E+03   0.238E+01 -.122E+02 -.941E+03   0.386E-01 0.833E-01 -.745E+01
   0.786E+01 0.129E+02 -.910E+03   -.792E+01 -.128E+02 0.901E+03   0.389E-01 -.306E-01 0.988E+01
   -.788E+01 -.128E+02 -.910E+03   0.792E+01 0.128E+02 0.901E+03   -.263E-01 0.180E-01 0.954E+01
   0.111E+02 0.281E+02 0.958E+03   -.113E+02 -.281E+02 -.949E+03   0.133E+00 0.166E-01 -.667E+01
   0.287E+01 0.498E+02 0.993E+03   -.338E+01 -.501E+02 -.984E+03   0.374E+00 0.194E+00 -.689E+01
   0.416E+02 0.791E+02 -.870E+03   -.419E+02 -.788E+02 0.862E+03   0.322E+00 -.228E+00 0.992E+01
   0.284E+01 0.581E+02 -.894E+03   -.301E+01 -.583E+02 0.885E+03   0.123E+00 0.213E+00 0.971E+01
   0.277E+02 0.425E+02 0.101E+04   -.282E+02 -.426E+02 -.100E+04   0.388E+00 0.416E-01 -.710E+01
   -.763E+01 0.769E+01 0.105E+04   0.734E+01 -.737E+01 -.104E+04   0.246E+00 -.264E+00 -.767E+01
   0.664E+02 0.664E+02 -.737E+03   -.667E+02 -.667E+02 0.730E+03   0.243E+00 0.243E+00 0.814E+01
   0.626E+02 0.120E+03 -.699E+03   -.655E+02 -.120E+03 0.692E+03   0.192E+01 -.474E+00 0.685E+01
   0.768E+01 -.763E+01 0.105E+04   -.737E+01 0.734E+01 -.104E+04   -.264E+00 0.246E+00 -.767E+01
   -.277E+02 -.425E+02 0.101E+04   0.282E+02 0.426E+02 -.100E+04   -.376E+00 -.230E-01 -.779E+01
   -.626E+02 -.120E+03 -.699E+03   0.655E+02 0.120E+03 0.692E+03   -.191E+01 0.477E+00 0.678E+01
   -.664E+02 -.664E+02 -.737E+03   0.667E+02 0.667E+02 0.730E+03   -.212E+00 -.212E+00 0.827E+01
[...]
   -.181E+02 0.142E+02 0.716E+03   0.182E+02 -.143E+02 -.720E+03   -.253E+00 0.114E+00 0.355E+01
   -.560E+01 0.800E+01 0.707E+03   0.569E+01 -.802E+01 -.710E+03   -.964E-01 0.498E-01 0.355E+01
   -.423E+02 0.143E+02 -.673E+03   0.424E+02 -.143E+02 0.676E+03   -.288E+00 -.643E-01 -.313E+01
   -.143E+02 0.192E+01 -.683E+03   0.143E+02 -.193E+01 0.687E+03   -.791E-01 -.287E-01 -.311E+01
   -.251E+02 -.600E-01 0.723E+03   0.252E+02 0.151E+00 -.727E+03   -.184E+00 -.170E+00 0.341E+01
   -.983E+01 0.736E+01 0.713E+03   0.992E+01 -.736E+01 -.716E+03   -.134E+00 -.828E-02 0.341E+01
   -.339E+02 -.138E+02 -.676E+03   0.339E+02 0.139E+02 0.680E+03   -.240E-01 -.133E+00 -.308E+01
   -.498E+01 -.108E+02 -.686E+03   0.491E+01 0.108E+02 0.689E+03   0.454E-01 -.108E-01 -.306E+01
   -.155E+02 -.121E+02 0.715E+03   0.154E+02 0.122E+02 -.718E+03   0.321E-01 -.551E-01 0.341E+01
   -.644E+01 -.420E+01 0.713E+03   0.645E+01 0.424E+01 -.716E+03   -.405E-02 -.476E-01 0.336E+01
   -.147E+02 -.156E+02 -.686E+03   0.147E+02 0.156E+02 0.690E+03   0.581E-01 0.108E-01 -.307E+01
   -.170E+01 -.841E+01 -.690E+03   0.166E+01 0.840E+01 0.694E+03   0.464E-01 0.120E-02 -.303E+01
   -.770E+01 -.769E+01 0.707E+03   0.767E+01 0.767E+01 -.711E+03   0.206E-01 0.206E-01 0.352E+01
   -.192E+01 -.909E+01 0.708E+03   0.188E+01 0.910E+01 -.712E+03   0.580E-01 -.862E-02 0.350E+01
   -.873E+00 0.500E+00 -.458E+02   0.199E-11 0.119E-11 0.146E-10   -.123E+00 -.123E+00 0.128E+03

 POSITION                                       TOTAL-FORCE (eV/Angst)
      8.54545     12.59441     14.71338         0.172427     -0.272106     -0.200553
      7.02105     14.11881     13.31306        -0.213383      0.229312     -0.242292
     12.00492      9.13494     13.31306         0.229312     -0.213383     -0.242292
     10.48052     10.65934     14.71338        -0.272106      0.172427     -0.200553
      0.00000      0.00000      9.00000         0.021216      0.000928      0.814287
      2.11389      2.11389      9.00000         0.016292      0.025251      0.715182
      0.00000      2.11389     11.11389         0.002318      0.002318     -0.952811
      2.11389      0.00000     11.11389        -0.015953      0.043079     -0.629680
      0.00000      4.22777      9.00000         0.025251      0.016292      0.715182
      2.11389      6.34166      9.00000         0.019605      0.009241      1.986166
      0.00000      6.34166     11.11389         0.017630      0.001611     -0.459971
      2.11389      4.22777     11.11389        -0.004180     -0.004180     -1.096521
      0.00000      8.45554      9.00000         0.016767     -0.029992      0.794774
      2.11389     10.56943      9.00000         0.004310     -0.046346      1.787901
      0.00000     10.56943     11.11389        -0.001973     -0.025442     -1.127761
      2.11389      8.45554     11.11389         0.003541     -0.032473     -1.933708
      0.00000     12.68331      9.00000        -0.020786     -0.003210      0.750824
      2.11389     14.79720      9.00000        -0.091065     -0.005361      1.074948
      0.00000     14.79720     11.11389        -0.029009      0.014516     -0.876109
      2.11389     12.68331     11.11389        -0.025716     -0.023183     -1.065513
      0.00000     16.91108      9.00000        -0.031556      0.001864      1.502831
      2.11389     19.02497      9.00000        -0.016539      0.024136      0.854159
      0.00000     19.02497     11.11389        -0.009744      0.004088     -0.487167
      2.11389     16.91108     11.11389        -0.077661      0.008720     -0.558517
      4.22777      0.00000      9.00000         0.025377      0.058816      1.315394
      6.34166      2.11389      9.00000        -0.029992      0.016767      0.794774
      4.22777      2.11389     11.11389         0.001611      0.017630     -0.459971
      6.34166      0.00000     11.11389         0.000293      0.047334     -0.819683
      4.22777      4.22777      9.00000         0.009241      0.019605      1.986166
      6.34166      6.34166      9.00000        -0.030184      0.009647      1.215847
      4.22777      6.34166     11.11389         0.019161      0.019161     -0.447558
      6.34166      4.22777     11.11389        -0.032473      0.003541     -1.933708
      4.22777      8.45554      9.00000         0.009647     -0.030184      1.215847
      6.34166     10.56943      9.00000        -0.030146     -0.088108      1.691777
      4.22777     10.56943     11.11389         0.110180     -0.037788     -1.469494
      6.34166      8.45554     11.11389         0.028883      0.028883     -0.516529
      4.22777     12.68331      9.00000        -0.070326     -0.127985      1.473656
      6.34166     14.79720      9.00000         0.041615     -0.037597      1.013196
      4.22777     14.79720     11.11389        -0.518714     -0.094384     -0.960005
      6.34166     12.68331     11.11389        -0.023640     -0.966787     -0.620816
      4.22777     16.91108      9.00000        -0.085921      0.080816      0.657184
      6.34166     19.02497      9.00000         0.001282      0.107766      0.888272
      4.22777     19.02497     11.11389        -0.010973      0.076279     -1.155157
      6.34166     16.91108     11.11389         0.076011      0.500716     -1.322467
      8.45554      0.00000      9.00000         0.023292      0.028948      0.716091
     10.56943      2.11389      9.00000        -0.003210     -0.020786      0.750824
      8.45554      2.11389     11.11389        -0.025442     -0.001973     -1.127761
     10.56943      0.00000     11.11389         0.024986     -0.024041     -0.931742
      8.45554      4.22777      9.00000        -0.046346      0.004310      1.787901
     10.56943      6.34166      9.00000        -0.127985     -0.070326      1.473656
      8.45554      6.34166     11.11389        -0.037788      0.110180     -1.469494
     10.56943      4.22777     11.11389        -0.023183     -0.025716     -1.065513
      8.45554      8.45554      9.00000        -0.088108     -0.030146      1.691777
     10.56943     10.56943      9.00000        -0.048548      0.061256      1.019400
      8.45554     10.56943     11.11389        -0.038288     -0.038288     -0.009672
     10.56943      8.45554     11.11389        -0.966787     -0.023640     -0.620816
      8.45554     12.68331      9.00000         0.061256     -0.048548      1.019400
     10.56943     14.79720      9.00000         0.095485      0.026127      1.134880
      8.45554     14.79720     11.11389         0.968865      0.007748     -0.715001
     10.56943     12.68331     11.11389         0.067236      0.067236      0.152634
[...]
     19.02497      6.34166     11.11389        -0.031901      0.000437      0.087199
     16.91108      6.34166      9.00000        -0.095983      0.055948     -0.192721
     19.02497      4.22777      9.00000        -0.006111      0.021091     -0.235293
     16.91108      8.45554     11.11389        -0.112694     -0.022936      0.035695
     19.02497     10.56943     11.11389        -0.076774     -0.039881     -0.001010
     16.91108     10.56943      9.00000        -0.077454     -0.086414     -0.339275
     19.02497      8.45554      9.00000        -0.036394     -0.014464     -0.354078
     16.91108     12.68331     11.11389        -0.035369     -0.036408      0.024893
     19.02497     14.79720     11.11389        -0.012017      0.028794      0.054644
     16.91108     14.79720      9.00000        -0.013489     -0.027985     -0.344457
     19.02497     12.68331      9.00000         0.016651     -0.028787     -0.496925
     16.91108     16.91108     11.11389         0.002704      0.016065      0.070953
     19.02497     19.02497     11.11389         0.017209     -0.016609      0.078282
     16.91108     19.02497      9.00000        -0.010523     -0.010523     -0.251792
     19.02497     16.91108      9.00000         0.024303     -0.002607     -0.306970
    total drift:                               -0.996275      0.377331     82.152435

  FREE ENERGIE OF THE ION-ELECTRON SYSTEM (eV)
  free  energy   TOTEN  =     -1818.03436713 eV

  energy  without entropy=    -1818.03333477  energy(sigma->0) =    -1818.03385095