 vasp.6.4.0 14Feb23 (build Dec 05 2023 14:15:48) complex

 executed on             LinuxIFC date 2023.12.11  11:02:23

 INCAR:
   SYSTEM = MgO-rocksalt
   ISMEAR = 0
   SIGMA = 0.05
   EDIFF = 1E-4
   ALGO = ALL
   ISTART = 0
   IBRION = -1
   NSW = 0
   ISYM = 0
   DIPOL = 0.5 0.5 0.5
   IDIPOL = 3
   LDIPOL = .TRUE.
   METAGGA = M06L
   ENCUT = 520
   PREC = Accurate
   LASPH = .TRUE.
   LREAL = Auto
   ISPIN = 1
   NELM = 2000
   NELMIN = 8
   NCORE = 16
   LWAVE = .FALSE.
   LCHARG = .FALSE.

 POTCAR:    PAW_PBE Au 04Oct2007
 POTCAR:    PAW_PBE Mg_pv 13Apr2007
 POTCAR:    PAW_PBE O 08Apr2002
 POTCAR:    PAW_PBE Au 04Oct2007
   VRHFIN =Au: s1d10

   TITEL  = PAW_PBE Au 04Oct2007
   POMASS =  196.966; ZVAL   =   11.000    mass and valenz
   ENMAX  =  229.943; ENMIN  =  172.457 eV

   TITEL  = PAW_PBE Mg_pv 13Apr2007
   POMASS =   24.305; ZVAL   =    8.000    mass and valenz
   ENMAX  =  403.929; ENMIN  =  302.947 eV

   TITEL  = PAW_PBE O 08Apr2002
   POMASS =   16.000; ZVAL   =    6.000    mass and valenz
   ENMAX  =  400.000; ENMIN  =  300.000 eV

 Optimization of the real space projectors (new method)

 maximal supplied QI-value         = 15.12
 optimisation between [QCUT,QGAM] = [ 11.64, 23.28] = [ 37.95,151.78] Ry
 Optimized for a Real-space Cutoff    1.49 Angstroem

   l    n(q)    QCUT    max X(q) W(low)/X(q) W(high)/X(q)  e(spline)
   2      9    11.641    60.898    0.24E-03    0.10E-03    0.19E-06
   2      9    11.641    58.894    0.25E-03    0.10E-03    0.19E-06
   0     10    11.641   109.617    0.73E-04    0.33E-04    0.11E-06
   0     10    11.641    75.026    0.71E-04    0.32E-04    0.11E-06
   1     10    11.641    16.344    0.27E-04    0.97E-04    0.16E-06
   1     10    11.641    10.160    0.23E-04    0.77E-04    0.13E-06
 Optimization of the real space projectors (new method)

[...]

   l    n(q)    QCUT    max X(q) W(low)/X(q) W(high)/X(q)  e(spline)
   1      8    11.527     2.974    0.44E-04    0.56E-04    0.12E-06
   1      8    11.527     4.279    0.12E-03    0.12E-03    0.26E-06
   0      9    11.527    16.381    0.46E-04    0.64E-04    0.78E-07
   0      9    11.527     5.611    0.26E-04    0.43E-04    0.55E-07
   2      8    11.527     4.652    0.22E-03    0.72E-04    0.47E-07
 Optimization of the real space projectors (new method)

 maximal supplied QI-value         = 24.76
 optimisation between [QCUT,QGAM] = [ 11.64, 23.27] = [ 37.91,151.63] Ry
 Optimized for a Real-space Cutoff    1.14 Angstroem

   l    n(q)    QCUT    max X(q) W(low)/X(q) W(high)/X(q)  e(spline)
   0      8    11.635    20.381    0.10E-03    0.33E-03    0.24E-06
   0      8    11.635    15.268    0.11E-03    0.35E-03    0.26E-06
   1      7    11.635     5.964    0.24E-03    0.31E-03    0.30E-06
   1      7    11.635     5.382    0.22E-03    0.25E-03    0.26E-06
  PAW_PBE Au 04Oct2007                  :
  PAW_PBE Mg_pv 13Apr2007               :
  PAW_PBE O 08Apr2002                   :

 POSCAR: Au Mg  O
  positions in direct lattice
  velocities in cartesian coordinates

 METAGGA = M06L                                        LMAXTAU =  6    LMIXTAU =  F

 ion  position               nearest neighbor table
   1  0.404  0.596  0.665-   2 2.57   4 2.74
   2  0.332  0.668  0.602- 138 2.40   1 2.57  59 2.71  40 2.71
   3  0.568  0.432  0.602- 173 2.40   4 2.57  75 2.71  56 2.71
   4  0.496  0.504  0.665-   3 2.57   1 2.74
   5  0.000  0.000  0.407- 107 2.11 108 2.11 123 2.11 188 2.11 105 2.11
   6  0.100  0.100  0.407- 107 2.11 108 2.11 112 2.11 127 2.11 106 2.11
   7  0.000  0.100  0.503- 105 2.11 106 2.11 109 2.11 186 2.11 107 2.11
   8  0.100  0.000  0.503- 105 2.11 106 2.11 122 2.11 125 2.11 108 2.11
   9  0.000  0.200  0.407- 111 2.11 107 2.11 112 2.11 192 2.11 109 2.11
  10  0.100  0.300  0.407- 112 2.11 111 2.11 116 2.11 131 2.11 110 2.11
  11  0.000  0.300  0.503- 109 2.11 110 2.11 113 2.11 190 2.11 111 2.11
  12  0.100  0.200  0.503- 110 2.11 109 2.11 106 2.11 129 2.11 112 2.11
  13  0.000  0.400  0.407- 111 2.11 115 2.11 116 2.11 196 2.11 113 2.11
  14  0.100  0.500  0.407- 115 2.11 116 2.11 120 2.11 135 2.11 114 2.11
  15  0.000  0.500  0.503- 113 2.11 114 2.11 117 2.11 194 2.11 115 2.11
  16  0.100  0.400  0.503- 110 2.11 113 2.11 114 2.11 133 2.11 116 2.11
  17  0.000  0.600  0.407- 115 2.11 119 2.11 120 2.11 200 2.11 117 2.11
  18  0.100  0.700  0.407- 124 2.11 120 2.11 119 2.11 139 2.11 118 2.11
  19  0.000  0.700  0.503- 121 2.11 118 2.11 117 2.11 198 2.11 119 2.11
  20  0.100  0.600  0.503- 114 2.11 117 2.11 118 2.11 137 2.11 120 2.11
  21  0.000  0.800  0.407- 119 2.11 123 2.11 124 2.11 204 2.11 121 2.11
  22  0.100  0.900  0.407- 108 2.11 123 2.11 124 2.11 143 2.11 122 2.11
  23  0.000  0.900  0.503- 105 2.11 121 2.11 122 2.11 202 2.11 123 2.11
  24  0.100  0.800  0.503- 118 2.11 121 2.11 122 2.11 141 2.11 124 2.11
  25  0.200  0.000  0.407- 128 2.11 127 2.11 108 2.11 143 2.11 125 2.11
  26  0.300  0.100  0.407- 127 2.11 128 2.11 132 2.11 147 2.11 126 2.11
  27  0.200  0.100  0.503- 126 2.11 125 2.11 106 2.11 129 2.11 127 2.11
  28  0.300  0.000  0.503- 125 2.11 126 2.11 142 2.11 145 2.11 128 2.11
  29  0.200  0.200  0.407- 131 2.11 132 2.11 112 2.11 127 2.11 129 2.11
  30  0.300  0.300  0.407- 131 2.11 132 2.11 136 2.11 151 2.11 130 2.11
  31  0.200  0.300  0.503- 129 2.11 130 2.11 110 2.11 133 2.11 131 2.11
  32  0.300  0.200  0.503- 129 2.11 130 2.11 126 2.11 149 2.11 132 2.11
  33  0.200  0.400  0.407- 136 2.11 131 2.11 135 2.11 116 2.11 133 2.11
  34  0.300  0.500  0.407- 135 2.11 136 2.11 140 2.11 155 2.11 134 2.11
  35  0.200  0.500  0.503- 134 2.11 133 2.11 114 2.11 137 2.11 135 2.11
  36  0.300  0.400  0.503- 133 2.11 130 2.11 134 2.11 153 2.11 136 2.11
  37  0.200  0.600  0.407- 140 2.11 135 2.11 139 2.11 120 2.11 137 2.11
  38  0.300  0.700  0.407- 139 2.11 144 2.11 140 2.11 159 2.11 138 2.11
  39  0.200  0.700  0.503- 138 2.11 141 2.11 118 2.11 137 2.11 139 2.11
  40  0.300  0.600  0.503- 137 2.11 134 2.11 138 2.11 157 2.11 140 2.11   2 2.71
  41  0.200  0.800  0.407- 139 2.11 144 2.11 143 2.11 124 2.11 141 2.11
  42  0.300  0.900  0.407- 143 2.11 128 2.11 144 2.11 163 2.11 142 2.11
  43  0.200  0.900  0.503- 142 2.11 125 2.11 141 2.11 122 2.11 143 2.11
  44  0.300  0.800  0.503- 138 2.11 141 2.11 142 2.11 161 2.11 144 2.11
  45  0.400  0.000  0.407- 128 2.11 147 2.11 148 2.11 163 2.11 145 2.11
  46  0.500  0.100  0.407- 147 2.11 148 2.11 152 2.11 167 2.11 146 2.11
  47  0.400  0.100  0.503- 126 2.11 145 2.11 146 2.11 149 2.11 147 2.11
  48  0.500  0.000  0.503- 145 2.11 146 2.11 162 2.11 165 2.11 148 2.11
  49  0.400  0.200  0.407- 151 2.11 147 2.11 132 2.11 152 2.11 149 2.11
  50  0.500  0.300  0.407- 152 2.11 151 2.11 156 2.11 171 2.11 150 2.11
  51  0.400  0.300  0.503- 149 2.11 130 2.11 150 2.11 153 2.11 151 2.11
  52  0.500  0.200  0.503- 150 2.11 149 2.11 146 2.11 169 2.11 152 2.11
  53  0.400  0.400  0.407- 136 2.11 151 2.11 155 2.11 156 2.11 153 2.11
  54  0.500  0.500  0.407- 155 2.11 156 2.11 160 2.11 175 2.11 154 2.11
  55  0.400  0.500  0.503- 134 2.11 153 2.11 154 2.11 157 2.11 155 2.11
  56  0.500  0.400  0.503- 150 2.11 153 2.11 154 2.11 173 2.11 156 2.11   3 2.71
  57  0.400  0.600  0.407- 140 2.11 155 2.11 159 2.11 160 2.11 157 2.11
  58  0.500  0.700  0.407- 164 2.11 160 2.11 159 2.11 179 2.11 158 2.11
  59  0.400  0.700  0.503- 161 2.11 157 2.11 158 2.11 138 2.11 159 2.11   2 2.71
  60  0.500  0.600  0.503- 154 2.11 157 2.11 158 2.11 177 2.11 160 2.11
[...]
 190  0.900  0.300  0.503-  92 2.11  91 2.11  11 2.11  96 2.11  90 2.11
 191  0.800  0.300  0.407-  70 2.11  89 2.11  90 2.11  93 2.11  91 2.11
 192  0.900  0.200  0.407-  90 2.11  86 2.11  89 2.11   9 2.11  92 2.11
 193  0.800  0.400  0.503-  76 2.11  91 2.11  95 2.11  96 2.11  93 2.11
 194  0.900  0.500  0.503-  15 2.11  95 2.11  96 2.11 100 2.11  94 2.11
 195  0.800  0.500  0.407-  74 2.11  93 2.11  94 2.11  97 2.11  95 2.11
 196  0.900  0.400  0.407-  13 2.11  90 2.11  93 2.11  94 2.11  96 2.11
 197  0.800  0.600  0.503-  80 2.11  95 2.11  99 2.11 100 2.11  97 2.11
 198  0.900  0.700  0.503- 104 2.11  99 2.11 100 2.11  19 2.11  98 2.11
 199  0.800  0.700  0.407-  78 2.11 101 2.11  98 2.11  97 2.11  99 2.11
 200  0.900  0.600  0.407-  17 2.11  94 2.11  97 2.11  98 2.11 100 2.11
 201  0.800  0.800  0.503-  84 2.11  99 2.11 103 2.11 104 2.11 101 2.11
 202  0.900  0.900  0.503-  23 2.11  88 2.11 103 2.11 104 2.11 102 2.11
 203  0.800  0.900  0.407-  82 2.11  85 2.11 101 2.11 102 2.11 103 2.11
 204  0.900  0.800  0.407-  98 2.11  21 2.11 101 2.11 102 2.11 104 2.11

IMPORTANT INFORMATION: All symmetrisations will be switched off!
NOSYMM: (Re-)initialisation of all symmetry stuff for point group C_1.

                                     Primitive cell

  volume of cell :    9881.6133

  direct lattice vectors                    reciprocal lattice vectors
    21.138852197  0.000000000  0.000000000     0.047306258  0.000000000  0.000000000
     0.000000000 21.138852197  0.000000000     0.000000000  0.047306258  0.000000000
     0.000000000  0.000000000 22.113885220     0.000000000  0.000000000  0.045220457

  length of vectors
    21.138852197 21.138852197 22.113885220     0.047306258  0.047306258  0.045220457

  position of ions in fractional coordinates (direct lattice)
     0.404253373  0.595794633  0.665345618
     0.332139373  0.667908160  0.602022863
     0.567907686  0.432139846  0.602022863
     0.495794160  0.504253373  0.665345618
     0.000000000  0.000000000  0.406984115
     0.100000000  0.100000000  0.406984115
     0.000000000  0.100000000  0.502574971
     0.100000000  0.000000000  0.502574971
     0.000000000  0.200000000  0.406984115
     0.100000000  0.300000000  0.406984115
     0.000000000  0.300000000  0.502574971
     0.100000000  0.200000000  0.502574971
     0.000000000  0.400000000  0.406984115
     0.100000000  0.500000000  0.406984115
     0.000000000  0.500000000  0.502574971
     0.100000000  0.400000000  0.502574971
     0.000000000  0.600000000  0.406984115
     0.100000000  0.700000000  0.406984115
     0.000000000  0.700000000  0.502574971
     0.100000000  0.600000000  0.502574971
     0.000000000  0.800000000  0.406984115
     0.100000000  0.900000000  0.406984115
     0.000000000  0.900000000  0.502574971
     0.100000000  0.800000000  0.502574971
     0.200000000  0.000000000  0.406984115
     0.300000000  0.100000000  0.406984115
     0.200000000  0.100000000  0.502574971
     0.300000000  0.000000000  0.502574971
     0.200000000  0.200000000  0.406984115
     0.300000000  0.300000000  0.406984115
     0.200000000  0.300000000  0.502574971
     0.300000000  0.200000000  0.502574971
     0.200000000  0.400000000  0.406984115
     0.300000000  0.500000000  0.406984115
     0.200000000  0.500000000  0.502574971
     0.300000000  0.400000000  0.502574971
     0.200000000  0.600000000  0.406984115
     0.300000000  0.700000000  0.406984115
     0.200000000  0.700000000  0.502574971
     0.300000000  0.600000000  0.502574971
     0.200000000  0.800000000  0.406984115
     0.300000000  0.900000000  0.406984115
     0.200000000  0.900000000  0.502574971
     0.300000000  0.800000000  0.502574971
     0.400000000  0.000000000  0.406984115
[...]
     52     -44.6710      2.00000
     53     -44.6679      2.00000
     54     -44.6668      2.00000
     55     -44.6647      2.00000
     56     -44.6637      2.00000
     57     -44.6627      2.00000
     58     -44.6614      2.00000
     59     -44.6610      2.00000
     60     -44.6607      2.00000
[...]
    882       9.3297      0.00000
    883       9.4807      0.00000
    884       9.6112      0.00000
    885      10.0299      0.00000
    886      10.1305      0.00000
    887      10.2869      0.00000
    888      10.9163      0.00000
    889      11.1296      0.00000
    890      11.6397      0.00000
    891      12.8578      0.00000
    892      13.0442      0.00000
    893      13.1474      0.00000
    894      14.9536      0.00000
    895      16.4725      0.00000
    896      17.9727      0.00000

 soft charge-density along one line, spin component           1
         0         1         2         3         4         5         6         7         8         9
 total charge-density along one line

------------------------ aborting loop because EDIFF is reached ----------------------------------------

  FORCE on cell =-STRESS in cart. coord.  units (eV):
  Direction    XX          YY          ZZ          XY          YZ          ZX
  Alpha Z  1417.83424  1417.83424  1417.83424
  Ewald  482423.15860482423.15974************ -1155.82133    -0.02915    -0.03097
  Hartree511932.79887511932.74760************  -907.78250     0.02073    -0.04520
  E(xc)   -8932.85269 -8932.86156 -8920.60151    -0.79967    -0.04679     0.05095
  Local  ************************************  2045.77725    -0.03651     0.12546
  n-local -8677.78835 -8677.79467 -8817.77403    10.95714     0.03697    -0.02085
  augment  4391.77907  4391.78257  4373.47900     1.17773    -0.23773     0.16146
  Kinetic 23471.69231 23471.73560 23679.58711     6.91942    -0.00664    -0.02137
  Fock        0.00000     0.00000     0.00000     0.00000     0.00000     0.00000
  Total    -228.15091  -228.14505    22.79770     0.42804    -0.29912     0.21949
  in kB     -36.99175   -36.99080     3.69635     0.06940    -0.04850     0.03559

 VOLUME and BASIS-vectors are now :
  energy-cutoff  :      520.00
  volume of cell :     9881.61
      direct lattice vectors                 reciprocal lattice vectors
    21.138852197  0.000000000  0.000000000     0.047306258  0.000000000  0.000000000
     0.000000000 21.138852197  0.000000000     0.000000000  0.047306258  0.000000000
     0.000000000  0.000000000 22.113885220     0.000000000  0.000000000  0.045220457

  length of vectors
    21.138852197 21.138852197 22.113885220     0.047306258  0.047306258  0.045220457

 FORCES acting on ions:
    Electron-Ion                     Ewald-Force                    Non-Local-Force
   0.492E+02 -.492E+02 -.197E+04   -.510E+02 0.510E+02 0.197E+04   0.196E+01 -.194E+01 0.238E+01
   0.220E+03 -.220E+03 -.203E+04   -.218E+03 0.218E+03 0.203E+04   -.234E+01 0.232E+01 -.259E+01
   -.220E+03 0.220E+03 -.203E+04   0.218E+03 -.218E+03 0.203E+04   0.236E+01 -.238E+01 -.256E+01
   -.492E+02 0.492E+02 -.197E+04   0.510E+02 -.510E+02 0.197E+04   -.197E+01 0.198E+01 0.239E+01
   0.456E+01 -.457E+01 0.938E+03   -.461E+01 0.461E+01 -.929E+03   0.390E-01 -.385E-01 -.667E+01
   0.896E+01 0.202E+01 0.940E+03   -.895E+01 -.195E+01 -.930E+03   0.440E-02 -.558E-01 -.664E+01
   0.330E+01 0.331E+01 -.920E+03   -.328E+01 -.328E+01 0.911E+03   -.322E-01 -.137E-01 0.960E+01
   0.138E+02 -.104E+02 -.917E+03   -.139E+02 0.105E+02 0.908E+03   0.319E-01 -.118E+00 0.936E+01
   0.202E+01 0.895E+01 0.940E+03   -.195E+01 -.895E+01 -.930E+03   -.533E-01 0.342E-02 -.689E+01
   0.143E+02 0.154E+02 0.945E+03   -.142E+02 -.155E+02 -.936E+03   -.387E-01 0.172E-01 -.671E+01
   0.315E+01 0.154E+02 -.916E+03   -.302E+01 -.155E+02 0.907E+03   -.998E-01 0.130E-01 0.931E+01
   0.132E+02 0.132E+02 -.917E+03   -.132E+02 -.132E+02 0.908E+03   -.318E-01 -.300E-01 0.953E+01
   0.486E+01 0.110E+02 0.946E+03   -.477E+01 -.110E+02 -.937E+03   -.859E-01 0.258E-01 -.633E+01
   0.280E+02 0.111E+02 0.958E+03   -.281E+02 -.113E+02 -.949E+03   0.144E-01 0.148E+00 -.652E+01
   0.128E+02 0.788E+01 -.910E+03   -.128E+02 -.792E+01 0.901E+03   -.768E-02 0.300E-01 0.955E+01
   0.305E+02 0.233E+02 -.907E+03   -.304E+02 -.233E+02 0.898E+03   -.826E-01 0.649E-01 0.986E+01
   0.121E+02 -.243E+01 0.950E+03   -.122E+02 0.238E+01 -.941E+03   0.104E+00 0.399E-01 -.668E+01
   0.317E+02 -.128E+02 0.961E+03   -.323E+02 0.128E+02 -.952E+03   0.433E+00 0.257E-01 -.750E+01
   0.202E+02 -.128E+02 -.911E+03   -.205E+02 0.128E+02 0.901E+03   0.170E+00 0.119E-01 0.973E+01
   0.580E+02 0.283E+01 -.894E+03   -.583E+02 -.301E+01 0.885E+03   0.218E+00 0.142E+00 0.921E+01
   0.108E+02 -.129E+02 0.945E+03   -.110E+02 0.130E+02 -.936E+03   0.173E+00 -.323E-01 -.668E+01
   0.157E+02 -.157E+02 0.946E+03   -.159E+02 0.159E+02 -.937E+03   0.127E+00 -.129E+00 -.720E+01
   0.104E+02 -.139E+02 -.917E+03   -.105E+02 0.139E+02 0.908E+03   0.111E+00 -.309E-01 0.957E+01
   0.386E+02 -.287E+02 -.905E+03   -.391E+02 0.288E+02 0.896E+03   0.378E+00 -.462E-01 0.944E+01
   0.129E+02 -.108E+02 0.945E+03   -.130E+02 0.110E+02 -.936E+03   0.235E-01 -.169E+00 -.704E+01
   0.110E+02 0.486E+01 0.946E+03   -.110E+02 -.477E+01 -.937E+03   0.348E-01 -.814E-01 -.702E+01
   0.154E+02 0.315E+01 -.916E+03   -.155E+02 -.302E+01 0.907E+03   0.116E-01 -.963E-01 0.926E+01
   0.128E+02 -.203E+02 -.911E+03   -.128E+02 0.205E+02 0.901E+03   -.528E-02 -.156E+00 0.971E+01
   0.155E+02 0.143E+02 0.945E+03   -.155E+02 -.142E+02 -.936E+03   0.167E-01 -.388E-01 -.665E+01
   0.251E+02 0.321E+02 0.965E+03   -.253E+02 -.321E+02 -.955E+03   0.101E+00 0.200E-02 -.743E+01
   0.328E+02 0.328E+02 -.906E+03   -.328E+02 -.328E+02 0.897E+03   -.443E-01 -.451E-01 0.971E+01
   0.233E+02 0.305E+02 -.907E+03   -.233E+02 -.304E+02 0.898E+03   0.671E-01 -.859E-01 0.935E+01
   0.321E+02 0.251E+02 0.965E+03   -.321E+02 -.253E+02 -.955E+03   -.158E-02 0.104E+00 -.648E+01
   0.424E+02 0.277E+02 0.101E+04   -.426E+02 -.282E+02 -.100E+04   0.625E-01 0.396E+00 -.746E+01
   0.790E+02 0.415E+02 -.870E+03   -.788E+02 -.419E+02 0.862E+03   -.200E+00 0.347E+00 0.895E+01
   0.670E+02 0.670E+02 -.863E+03   -.669E+02 -.669E+02 0.854E+03   -.710E-01 -.722E-01 0.920E+01
   0.498E+02 0.286E+01 0.993E+03   -.501E+02 -.338E+01 -.984E+03   0.200E+00 0.387E+00 -.729E+01
   0.341E+02 -.341E+02 0.103E+04   -.339E+02 0.339E+02 -.102E+04   -.170E+00 0.167E+00 -.484E+01
   0.109E+03 -.430E+02 -.841E+03   -.112E+03 0.427E+02 0.832E+03   0.200E+01 0.183E+00 0.925E+01
   0.120E+03 0.625E+02 -.699E+03   -.120E+03 -.655E+02 0.692E+03   -.454E+00 0.192E+01 0.658E+01
   0.311E+02 -.311E+02 0.971E+03   -.315E+02 0.315E+02 -.962E+03   0.289E+00 -.293E+00 -.649E+01
   0.128E+02 -.317E+02 0.961E+03   -.128E+02 0.323E+02 -.952E+03   -.369E-01 -.444E+00 -.632E+01
   0.287E+02 -.386E+02 -.905E+03   -.288E+02 0.391E+02 0.896E+03   0.356E-01 -.369E+00 0.967E+01
   0.430E+02 -.109E+03 -.841E+03   -.428E+02 0.112E+03 0.832E+03   -.177E+00 -.200E+01 0.936E+01
   0.241E+01 -.121E+02 0.950E+03   -.238E+01 0.122E+02 -.941E+03   -.306E-01 -.928E-01 -.734E+01
   -.242E+01 0.121E+02 0.950E+03   0.238E+01 -.122E+02 -.941E+03   0.301E-01 0.105E+00 -.726E+01
   0.788E+01 0.128E+02 -.910E+03   -.792E+01 -.128E+02 0.901E+03   0.377E-01 -.305E-01 0.987E+01
   -.787E+01 -.128E+02 -.910E+03   0.792E+01 0.128E+02 0.901E+03   -.416E-01 0.206E-01 0.936E+01
   0.111E+02 0.280E+02 0.958E+03   -.113E+02 -.281E+02 -.949E+03   0.147E+00 0.295E-01 -.733E+01
   0.287E+01 0.498E+02 0.993E+03   -.338E+01 -.501E+02 -.984E+03   0.390E+00 0.214E+00 -.697E+01
   0.415E+02 0.790E+02 -.870E+03   -.419E+02 -.788E+02 0.862E+03   0.339E+00 -.194E+00 0.944E+01
   0.284E+01 0.580E+02 -.894E+03   -.301E+01 -.583E+02 0.885E+03   0.133E+00 0.220E+00 0.958E+01
   0.277E+02 0.424E+02 0.101E+04   -.282E+02 -.426E+02 -.100E+04   0.403E+00 0.628E-01 -.730E+01
   -.762E+01 0.765E+01 0.105E+04   0.734E+01 -.737E+01 -.104E+04   0.219E+00 -.223E+00 -.728E+01
   0.663E+02 0.664E+02 -.737E+03   -.667E+02 -.667E+02 0.730E+03   0.245E+00 0.235E+00 0.815E+01
   0.625E+02 0.120E+03 -.699E+03   -.655E+02 -.120E+03 0.692E+03   0.192E+01 -.427E+00 0.688E+01
   0.765E+01 -.760E+01 0.105E+04   -.737E+01 0.734E+01 -.104E+04   -.237E+00 0.221E+00 -.735E+01
   -.277E+02 -.425E+02 0.101E+04   0.282E+02 0.426E+02 -.100E+04   -.393E+00 -.556E-01 -.716E+01
   -.625E+02 -.120E+03 -.699E+03   0.655E+02 0.120E+03 0.692E+03   -.194E+01 0.457E+00 0.655E+01
   -.663E+02 -.663E+02 -.737E+03   0.667E+02 0.667E+02 0.730E+03   -.229E+00 -.253E+00 0.814E+01
[...]
   -.180E+02 0.142E+02 0.716E+03   0.182E+02 -.143E+02 -.720E+03   -.259E+00 0.116E+00 0.345E+01
   -.562E+01 0.798E+01 0.707E+03   0.569E+01 -.802E+01 -.710E+03   -.865E-01 0.513E-01 0.353E+01
   -.422E+02 0.143E+02 -.673E+03   0.424E+02 -.143E+02 0.676E+03   -.296E+00 -.763E-01 -.306E+01
   -.142E+02 0.195E+01 -.683E+03   0.143E+02 -.193E+01 0.687E+03   -.630E-01 -.478E-01 -.299E+01
   -.250E+02 -.304E-01 0.723E+03   0.252E+02 0.151E+00 -.727E+03   -.189E+00 -.174E+00 0.342E+01
   -.982E+01 0.735E+01 0.713E+03   0.992E+01 -.736E+01 -.716E+03   -.131E+00 -.433E-02 0.348E+01
   -.338E+02 -.138E+02 -.676E+03   0.339E+02 0.139E+02 0.680E+03   -.236E-01 -.154E+00 -.308E+01
   -.493E+01 -.108E+02 -.686E+03   0.491E+01 0.108E+02 0.689E+03   0.582E-01 -.227E-01 -.303E+01
   -.154E+02 -.121E+02 0.715E+03   0.154E+02 0.122E+02 -.718E+03   0.267E-01 -.585E-01 0.355E+01
   -.644E+01 -.420E+01 0.713E+03   0.645E+01 0.424E+01 -.716E+03   0.535E-02 -.448E-01 0.356E+01
   -.147E+02 -.156E+02 -.686E+03   0.147E+02 0.156E+02 0.690E+03   0.565E-01 0.166E-01 -.300E+01
   -.170E+01 -.840E+01 -.690E+03   0.166E+01 0.840E+01 0.694E+03   0.528E-01 0.165E-02 -.299E+01
   -.768E+01 -.769E+01 0.707E+03   0.767E+01 0.767E+01 -.711E+03   0.255E-01 0.249E-01 0.356E+01
   -.191E+01 -.908E+01 0.708E+03   0.188E+01 0.910E+01 -.712E+03   0.668E-01 -.171E-01 0.339E+01
   -.503E-01 -.120E+00 -.829E+02   0.343E-11 -.405E-12 -.110E-10   -.500E-01 0.197E+00 0.145E+03

 POSITION                                       TOTAL-FORCE (eV/Angst)
      8.54545     12.59441     14.71338         0.072505     -0.161936     -0.145358
      7.02105     14.11881     13.31306        -0.215845      0.230195     -0.266939
     12.00492      9.13494     13.31306         0.227280     -0.208203     -0.272013
     10.48052     10.65934     14.71338        -0.113718      0.070293     -0.179214
      0.00000      0.00000      9.00000        -0.004474      0.008644      1.520593
      2.11389      2.11389      9.00000         0.004605      0.012128      1.802620
      0.00000      2.11389     11.11389         0.013137      0.011301     -1.243696
      2.11389      0.00000     11.11389        -0.024358      0.035570     -0.985142
      0.00000      4.22777      9.00000         0.012908     -0.006907      1.377765
      2.11389      6.34166      9.00000         0.001813     -0.020535      2.057274
      0.00000      6.34166     11.11389         0.019782     -0.006945     -1.689522
      2.11389      4.22777     11.11389        -0.000688     -0.007150     -1.184030
      0.00000      8.45554      9.00000         0.009924     -0.022681      2.063562
      2.11389     10.56943      9.00000        -0.044906     -0.038440      2.090853
      0.00000     10.56943     11.11389        -0.010505     -0.007822     -2.448950
      2.11389      8.45554     11.11389         0.009274     -0.036810     -2.953838
      0.00000     12.68331      9.00000        -0.040820     -0.007008      1.892701
      2.11389     14.79720      9.00000        -0.140977     -0.005966      1.044263
      0.00000     14.79720     11.11389        -0.048918      0.011396     -3.178976
      2.11389     12.68331     11.11389        -0.076029     -0.031036     -0.786253
      0.00000     16.91108      9.00000        -0.045546      0.022970      1.620173
      2.11389     19.02497      9.00000        -0.042104      0.042566      0.920804
      0.00000     19.02497     11.11389        -0.033734      0.031268     -2.412947
      2.11389     16.91108     11.11389        -0.127581      0.016755     -1.623256
      4.22777      0.00000      9.00000        -0.014911      0.060292      1.404696
      6.34166      2.11389      9.00000        -0.010193      0.013644      1.719549
      4.22777      2.11389     11.11389        -0.007417      0.034727     -0.702911
      6.34166      0.00000     11.11389         0.004696      0.090591     -0.732086
      4.22777      4.22777      9.00000        -0.010482     -0.009606      1.854562
      6.34166      6.34166      9.00000        -0.039022     -0.028887      1.002262
      4.22777      6.34166     11.11389        -0.029862     -0.027407     -3.122099
      6.34166      4.22777     11.11389        -0.022105      0.002407     -0.576390
      4.22777      8.45554      9.00000        -0.010801     -0.047965      1.957156
      6.34166     10.56943      9.00000        -0.055818     -0.113479      1.526766
      4.22777     10.56943     11.11389         0.032765     -0.103580     -0.126265
      6.34166      8.45554     11.11389         0.013371      0.027476     -0.731412
      4.22777     12.68331      9.00000        -0.083135     -0.122007      0.859951
      6.34166     14.79720      9.00000         0.031836     -0.025914      0.798786
      4.22777     14.79720     11.11389        -0.619033     -0.052534     -0.863300
      6.34166     12.68331     11.11389        -0.108588     -1.032106     -0.706817
      4.22777     16.91108      9.00000        -0.110046      0.116037      1.872293
      6.34166     19.02497      9.00000        -0.001402      0.134295      2.172104
      4.22777     19.02497     11.11389        -0.011557      0.112972     -1.569095
      6.34166     16.91108     11.11389         0.050240      0.644049     -0.857674
      8.45554      0.00000      9.00000         0.004604      0.045285      1.474247
     10.56943      2.11389      9.00000        -0.005767     -0.032565      0.846815
      8.45554      2.11389     11.11389        -0.003283     -0.011904     -3.173218
     10.56943      0.00000     11.11389         0.009662      0.001344     -1.612932
      8.45554      4.22777      9.00000        -0.056901     -0.028641      0.860403
     10.56943      6.34166      9.00000        -0.121443     -0.099958      1.427706
      8.45554      6.34166     11.11389        -0.104841      0.016329     -1.751060
     10.56943      4.22777     11.11389        -0.046256     -0.074833     -2.389964
      8.45554      8.45554      9.00000        -0.117446     -0.055480      1.699426
     10.56943     10.56943      9.00000        -0.055648      0.060366      1.497219
      8.45554     10.56943     11.11389        -0.096982     -0.091934      0.060975
     10.56943      8.45554     11.11389        -1.035431     -0.115840     -0.438117
      8.45554     12.68331      9.00000         0.055842     -0.051592      1.361800
     10.56943     14.79720      9.00000         0.118895      0.047912      1.797493
      8.45554     14.79720     11.11389         1.028957      0.100571     -0.555343
     10.56943     12.68331     11.11389         0.088370      0.106035      0.109871
[...]
     19.02497      6.34166     11.11389        -0.026669     -0.003322      0.204377
     16.91108      6.34166      9.00000        -0.053445      0.024272     -0.297322
     19.02497      4.22777      9.00000        -0.015437      0.004390     -0.109636
     16.91108      8.45554     11.11389        -0.038229     -0.046002      0.169761
     19.02497     10.56943     11.11389         0.002289     -0.023244      0.212867
     16.91108     10.56943      9.00000        -0.024032     -0.055743     -0.234847
     19.02497      8.45554      9.00000        -0.029175     -0.009683     -0.114266
     16.91108     12.68331     11.11389         0.041181     -0.035751      0.154993
     19.02497     14.79720     11.11389         0.033213     -0.003224      0.188432
     16.91108     14.79720      9.00000         0.025346     -0.017807     -0.214950
     19.02497     12.68331      9.00000         0.013584     -0.008561     -0.147522
     16.91108     16.91108     11.11389         0.045259      0.037085      0.175857
     19.02497     19.02497     11.11389         0.017674      0.002524      0.196241
     16.91108     19.02497      9.00000         0.015037      0.010070     -0.077017
     19.02497     16.91108      9.00000         0.037804      0.002712     -0.165206
    total drift:                               -0.100264      0.076641     62.234127

  FREE ENERGIE OF THE ION-ELECTRON SYSTEM (eV)
  free  energy   TOTEN  =     -1818.59977107 eV

  energy  without entropy=    -1818.59179788  energy(sigma->0) =    -1818.59578447