 vasp.6.4.1 05Apr23 (build May 06 2023 19:47:20) complex

 executed on             LinuxIFC date 2023.07.04  04:22:10

 INCAR:
   SYSTEM = MgO-rocksalt
   ISMEAR = 0
   SIGMA = 0.05
   EDIFF = 1E-6
   ALGO = ALL
   ISTART = 0
   IBRION = -1
   NSW = 0
   ISYM = 2
   DIPOL = 0.5 0.5 0.5
   IDIPOL = 3
   LDIPOL = .TRUE.
   LHFCALC = .TRUE.
   GGA = B5
   AEXX = 0.2
   AGGAX = 0.72
   AGGAC = 0.81
   ALDAC = 0.19
   IVDW = 11
   VDW_S6 = 1.0
   VDW_SR = 1.261
   VDW_S8 = 1.703
   ENCUT = 520
   PREC = Accurate
   LASPH = .TRUE.
   LREAL = Auto
   ISPIN = 1
   NELM = 200
   NELMIN = 8
   NCORE = 16
   KPAR = 1
   LWAVE = .FALSE.
   LCHARG = .FALSE.

 POTCAR:    PAW_PBE Cu 22Jun2005
 POTCAR:    PAW_PBE Mg_pv 13Apr2007
 POTCAR:    PAW_PBE O 08Apr2002
|           W    W    AA    RRRRR   N    N  II  N    N   GGGG   !!!           |
|           W    W   A  A   R    R  NN   N  II  NN   N  G    G  !!!           |
|           W    W  A    A  R    R  N N  N  II  N N  N  G       !!!           |
|           W WW W  AAAAAA  RRRRR   N  N N  II  N  N N  G  GGG   !            |
|           WW  WW  A    A  R   R   N   NN  II  N   NN  G    G                |
|           W    W  A    A  R    R  N    N  II  N    N   GGGG   !!!           |
|     You have selected ISYM=2 for a HF type calculation. This will           |
|     symmetrize the charge density but not the exchange potential. I         |
|     suggest to use ISYM=3 instead. This uses symmetry to obtain the         |
|     orbitals at all k-points in the Brillouin zone, but does not apply      |
|     symmetry to the Hartree potential directly. The resultant charge        |
|     might have lower symmetry than the crystal but, at least, Hartree       |
|     and exchange are fully compatible.                                      |

   TITEL  = PAW_PBE Cu 22Jun2005
   POMASS =   63.546; ZVAL   =   11.000    mass and valenz
   ENMAX  =  295.446; ENMIN  =  221.585 eV

   TITEL  = PAW_PBE Mg_pv 13Apr2007
   POMASS =   24.305; ZVAL   =    8.000    mass and valenz
   ENMAX  =  403.929; ENMIN  =  302.947 eV

   TITEL  = PAW_PBE O 08Apr2002
   POMASS =   16.000; ZVAL   =    6.000    mass and valenz
   ENMAX  =  400.000; ENMIN  =  300.000 eV

 Optimization of the real space projectors (new method)

 maximal supplied QI-value         = 16.25
 optimisation between [QCUT,QGAM] = [ 11.54, 23.24] = [ 37.28,151.24] Ry
 Optimized for a Real-space Cutoff    1.53 Angstroem

   l    n(q)    QCUT    max X(q) W(low)/X(q) W(high)/X(q)  e(spline)
   2     10    11.539     4.610    0.96E-04    0.13E-03    0.19E-06
   2     10    11.539     8.522    0.16E-03    0.21E-03    0.28E-06
   0     11    11.539    51.609    0.45E-04    0.31E-04    0.11E-06
   0     11    11.539    27.747    0.39E-04    0.29E-04    0.10E-06
   1     10    11.539    20.408    0.70E-05    0.38E-04    0.18E-06
   1     10    11.539    13.425    0.66E-05    0.34E-04    0.17E-06
 Optimization of the real space projectors (new method)

[...]

   l    n(q)    QCUT    max X(q) W(low)/X(q) W(high)/X(q)  e(spline)
   1      8    11.527     2.974    0.44E-04    0.56E-04    0.12E-06
   1      8    11.527     4.279    0.12E-03    0.12E-03    0.26E-06
   0      9    11.527    16.381    0.46E-04    0.64E-04    0.78E-07
   0      9    11.527     5.611    0.26E-04    0.43E-04    0.55E-07
   2      8    11.527     4.652    0.22E-03    0.72E-04    0.47E-07
 Optimization of the real space projectors (new method)

 maximal supplied QI-value         = 24.76
 optimisation between [QCUT,QGAM] = [ 11.64, 23.27] = [ 37.91,151.63] Ry
 Optimized for a Real-space Cutoff    1.14 Angstroem

   l    n(q)    QCUT    max X(q) W(low)/X(q) W(high)/X(q)  e(spline)
   0      8    11.635    20.381    0.10E-03    0.33E-03    0.24E-06
   0      8    11.635    15.268    0.11E-03    0.35E-03    0.26E-06
   1      7    11.635     5.964    0.24E-03    0.31E-03    0.30E-06
   1      7    11.635     5.382    0.22E-03    0.25E-03    0.26E-06
|               ----> ADVICE to this user running VASP <----                  |
|     You enforced a specific xc type in the INCAR file but a different       |
|     type was found in the POTCAR file.                                      |
|     I HOPE YOU KNOW WHAT YOU ARE DOING!                                     |

  PAW_PBE Cu 22Jun2005                  :
  PAW_PBE Mg_pv 13Apr2007               :
  PAW_PBE O 08Apr2002                   :

 POSCAR: Cu Mg  O
  positions in direct lattice
 exchange correlation table for  LEXCH =       12
   RHO(1)=    0.500       N(1)  =     2000
   RHO(2)=  100.500       N(2)  =     4000

 ion  position               nearest neighbor table
   1  0.450  0.450  0.699-   2 2.23
   2  0.450  0.450  0.598-   1 2.23  53 2.59  54 2.59
   3  0.000  0.000  0.407- 105 2.11 106 2.11 121 2.11 186 2.11 103 2.11
   4  0.100  0.100  0.407- 105 2.11 106 2.11 110 2.11 125 2.11 104 2.11
   5  0.000  0.100  0.503- 103 2.11 104 2.11 107 2.11 184 2.11 105 2.11
   6  0.100  0.000  0.503- 103 2.11 104 2.11 120 2.11 123 2.11 106 2.11
   7  0.000  0.200  0.407- 109 2.11 105 2.11 110 2.11 190 2.11 107 2.11
   8  0.100  0.300  0.407- 110 2.11 109 2.11 114 2.11 129 2.11 108 2.11
   9  0.000  0.300  0.503- 107 2.11 108 2.11 111 2.11 188 2.11 109 2.11
  10  0.100  0.200  0.503- 108 2.11 107 2.11 104 2.11 127 2.11 110 2.11
  11  0.000  0.400  0.407- 109 2.11 113 2.11 114 2.11 194 2.11 111 2.11
  12  0.100  0.500  0.407- 113 2.11 114 2.11 118 2.11 133 2.11 112 2.11
  13  0.000  0.500  0.503- 111 2.11 112 2.11 115 2.11 192 2.11 113 2.11
  14  0.100  0.400  0.503- 108 2.11 111 2.11 112 2.11 131 2.11 114 2.11
  15  0.000  0.600  0.407- 113 2.11 117 2.11 118 2.11 198 2.11 115 2.11
  16  0.100  0.700  0.407- 122 2.11 118 2.11 117 2.11 137 2.11 116 2.11
  17  0.000  0.700  0.503- 119 2.11 116 2.11 115 2.11 196 2.11 117 2.11
  18  0.100  0.600  0.503- 112 2.11 115 2.11 116 2.11 135 2.11 118 2.11
  19  0.000  0.800  0.407- 117 2.11 121 2.11 122 2.11 202 2.11 119 2.11
  20  0.100  0.900  0.407- 106 2.11 121 2.11 122 2.11 141 2.11 120 2.11
  21  0.000  0.900  0.503- 103 2.11 119 2.11 120 2.11 200 2.11 121 2.11
  22  0.100  0.800  0.503- 116 2.11 119 2.11 120 2.11 139 2.11 122 2.11
  23  0.200  0.000  0.407- 126 2.11 125 2.11 106 2.11 141 2.11 123 2.11
  24  0.300  0.100  0.407- 125 2.11 126 2.11 130 2.11 145 2.11 124 2.11
  25  0.200  0.100  0.503- 124 2.11 123 2.11 104 2.11 127 2.11 125 2.11
  26  0.300  0.000  0.503- 123 2.11 124 2.11 140 2.11 143 2.11 126 2.11
  27  0.200  0.200  0.407- 129 2.11 130 2.11 110 2.11 125 2.11 127 2.11
  28  0.300  0.300  0.407- 129 2.11 130 2.11 134 2.11 149 2.11 128 2.11
  29  0.200  0.300  0.503- 127 2.11 128 2.11 108 2.11 131 2.11 129 2.11
  30  0.300  0.200  0.503- 127 2.11 128 2.11 124 2.11 147 2.11 130 2.11
  31  0.200  0.400  0.407- 134 2.11 129 2.11 133 2.11 114 2.11 131 2.11
  32  0.300  0.500  0.407- 133 2.11 134 2.11 138 2.11 153 2.11 132 2.11
  33  0.200  0.500  0.503- 132 2.11 131 2.11 112 2.11 135 2.11 133 2.11
  34  0.300  0.400  0.503- 131 2.11 128 2.11 132 2.11 151 2.11 134 2.11
  35  0.200  0.600  0.407- 138 2.11 133 2.11 137 2.11 118 2.11 135 2.11
  36  0.300  0.700  0.407- 137 2.11 142 2.11 138 2.11 157 2.11 136 2.11
  37  0.200  0.700  0.503- 136 2.11 139 2.11 116 2.11 135 2.11 137 2.11
  38  0.300  0.600  0.503- 135 2.11 132 2.11 136 2.11 155 2.11 138 2.11
  39  0.200  0.800  0.407- 137 2.11 142 2.11 141 2.11 122 2.11 139 2.11
  40  0.300  0.900  0.407- 141 2.11 126 2.11 142 2.11 161 2.11 140 2.11
  41  0.200  0.900  0.503- 140 2.11 123 2.11 139 2.11 120 2.11 141 2.11
  42  0.300  0.800  0.503- 136 2.11 139 2.11 140 2.11 159 2.11 142 2.11
  43  0.400  0.000  0.407- 126 2.11 145 2.11 146 2.11 161 2.11 143 2.11
  44  0.500  0.100  0.407- 145 2.11 146 2.11 150 2.11 165 2.11 144 2.11
  45  0.400  0.100  0.503- 124 2.11 143 2.11 144 2.11 147 2.11 145 2.11
  46  0.500  0.000  0.503- 143 2.11 144 2.11 160 2.11 163 2.11 146 2.11
  47  0.400  0.200  0.407- 149 2.11 145 2.11 130 2.11 150 2.11 147 2.11
  48  0.500  0.300  0.407- 150 2.11 149 2.11 154 2.11 169 2.11 148 2.11
  49  0.400  0.300  0.503- 147 2.11 128 2.11 148 2.11 151 2.11 149 2.11
  50  0.500  0.200  0.503- 148 2.11 147 2.11 144 2.11 167 2.11 150 2.11
  51  0.400  0.400  0.407- 134 2.11 149 2.11 153 2.11 154 2.11 151 2.11
  52  0.500  0.500  0.407- 153 2.11 154 2.11 158 2.11 173 2.11 152 2.11
  53  0.400  0.500  0.503- 132 2.11 151 2.11 152 2.11 155 2.11 153 2.11   2 2.59
  54  0.500  0.400  0.503- 148 2.11 151 2.11 152 2.11 171 2.11 154 2.11   2 2.59
  55  0.400  0.600  0.407- 138 2.11 153 2.11 157 2.11 158 2.11 155 2.11
  56  0.500  0.700  0.407- 162 2.11 158 2.11 157 2.11 177 2.11 156 2.11
  57  0.400  0.700  0.503- 159 2.11 155 2.11 156 2.11 136 2.11 157 2.11
  58  0.500  0.600  0.503- 152 2.11 155 2.11 156 2.11 175 2.11 158 2.11
  59  0.400  0.800  0.407- 157 2.11 142 2.11 161 2.11 162 2.11 159 2.11
  60  0.500  0.900  0.407- 146 2.11 161 2.11 162 2.11 181 2.11 160 2.11
[...]
 188  0.900  0.300  0.503-  90 2.11  89 2.11   9 2.11  94 2.11  88 2.11
 189  0.800  0.300  0.407-  68 2.11  87 2.11  88 2.11  91 2.11  89 2.11
 190  0.900  0.200  0.407-  88 2.11  84 2.11  87 2.11   7 2.11  90 2.11
 191  0.800  0.400  0.503-  74 2.11  89 2.11  93 2.11  94 2.11  91 2.11
 192  0.900  0.500  0.503-  13 2.11  93 2.11  94 2.11  98 2.11  92 2.11
 193  0.800  0.500  0.407-  72 2.11  91 2.11  92 2.11  95 2.11  93 2.11
 194  0.900  0.400  0.407-  11 2.11  88 2.11  91 2.11  92 2.11  94 2.11
 195  0.800  0.600  0.503-  78 2.11  93 2.11  97 2.11  98 2.11  95 2.11
 196  0.900  0.700  0.503- 102 2.11  97 2.11  98 2.11  17 2.11  96 2.11
 197  0.800  0.700  0.407-  76 2.11  99 2.11  96 2.11  95 2.11  97 2.11
 198  0.900  0.600  0.407-  15 2.11  92 2.11  95 2.11  96 2.11  98 2.11
 199  0.800  0.800  0.503-  82 2.11  97 2.11 101 2.11 102 2.11  99 2.11
 200  0.900  0.900  0.503-  21 2.11  86 2.11 101 2.11 102 2.11 100 2.11
 201  0.800  0.900  0.407-  80 2.11  83 2.11  99 2.11 100 2.11 101 2.11
 202  0.900  0.800  0.407-  96 2.11  19 2.11  99 2.11 100 2.11 102 2.11

  LATTYP: Found a simple tetragonal cell.
 ALAT       =    21.1388521970
 C/A-ratio  =     1.0461251639

  Lattice vectors:

 A1 = (  21.1388521970,   0.0000000000,   0.0000000000)
 A2 = (   0.0000000000,  21.1388521970,   0.0000000000)
 A3 = (   0.0000000000,   0.0000000000,  22.1138852197)

Analysis of symmetry for initial positions (statically):
 Subroutine PRICEL returns:
 Original cell was already a primitive cell.

 Routine SETGRP: Setting up the symmetry group for a
 simple tetragonal supercell.

 Subroutine GETGRP returns: Found  4 space group operations
 (whereof  2 operations were pure point group operations)
 out of a pool of 16 trial point group operations.

The static configuration has the point symmetry C_1h.
 The point group associated with its full space group is C_2v.

Analysis of symmetry for dynamics (positions and initial velocities):
 Subroutine PRICEL returns:
 Original cell was already a primitive cell.

 Routine SETGRP: Setting up the symmetry group for a
 simple tetragonal supercell.

 Subroutine GETGRP returns: Found  4 space group operations
 (whereof  2 operations were pure point group operations)
[...]
     41     -46.3933      2.00000
     42     -46.3932      2.00000
     43     -46.3905      2.00000
     44     -46.3897      2.00000
     45     -46.3896      2.00000
     46     -46.3896      2.00000
     47     -46.3887      2.00000
     48     -46.3879      2.00000
     49     -46.3877      2.00000
     50     -46.3873      2.00000
     51     -46.3860      2.00000
     52     -46.3855      2.00000
     53     -46.3853      2.00000
     54     -46.3851      2.00000
     55     -46.3839      2.00000
     56     -46.3833      2.00000
     57     -46.3830      2.00000
     58     -46.3824      2.00000
     59     -46.3821      2.00000
     60     -46.3808      2.00000
[...]
    850       4.8539      0.00000
    851       4.9011      0.00000
    852       4.9352      0.00000
    853       4.9654      0.00000
    854       4.9899      0.00000
    855       5.0447      0.00000
    856       5.0627      0.00000
    857       5.0792      0.00000
    858       5.0856      0.00000
    859       5.1385      0.00000
    860       5.1462      0.00000
    861       5.4088      0.00000
    862       5.4309      0.00000
    863       5.4759      0.00000
    864       5.5040      0.00000

 soft charge-density along one line, spin component           1
         0         1         2         3         4         5         6         7         8         9
 total charge-density along one line

------------------------ aborting loop because EDIFF is reached ----------------------------------------

 WARNING: Using user supplied parameters
     VDW_S8 = 1.703
     VDW_SR = 1.261
     because the xc functional is not supported. Required parameters not
     defined in the INCAR file will be replaced with PBE defaults ones.

         DFTD3 V3.0 Rev 1
 IVDW         = 11
 DF unknown
 parameters
 VDW_S6       =    1.0000
 VDW_S8       =    1.7030
 VDW_SR       =    1.2610
 rs18     =    1.0000
 alpha6   =   14.0000
 alpha8   =   16.0000
 k1-k3    =   16.0000    1.3333   -4.0000
 VDW_RADIUS   =   50.2022 A
 VDW_CNRADIUS =   21.1671 A
 Edisp (eV)  -32.71039

 E6    (eV) :    -6.8953
 E8    (eV) :   -25.8151
 % E8        : 78.92

 VOLUME and BASIS-vectors are now :
  energy-cutoff  :      520.00
  volume of cell :     9881.61
      direct lattice vectors                 reciprocal lattice vectors
    21.138852197  0.000000000  0.000000000     0.047306258  0.000000000  0.000000000
     0.000000000 21.138852197  0.000000000     0.000000000  0.047306258  0.000000000
     0.000000000  0.000000000 22.113885220     0.000000000  0.000000000  0.045220457

  length of vectors
    21.138852197 21.138852197 22.113885220     0.047306258  0.047306258  0.045220457

 FORCES acting on ions:
    Electron-Ion                     Ewald-Force                    Non-Local-Force
   0.225E-04 -.989E-04 -.196E+04   0.441E-07 -.340E-07 0.195E+04   -.147E-21 -.100E-21 0.122E+02
   0.158E-04 -.904E-04 -.185E+04   0.798E-05 -.860E-05 0.186E+04   0.150E-21 0.312E-21 -.113E+02
   0.175E+01 0.175E+01 0.931E+03   -.176E+01 -.176E+01 -.923E+03   0.372E-02 0.372E-02 -.670E+01
   0.621E+01 0.621E+01 0.933E+03   -.623E+01 -.623E+01 -.925E+03   0.155E-01 0.155E-01 -.670E+01
   0.286E+01 0.585E+01 -.922E+03   -.287E+01 -.585E+01 0.914E+03   0.778E-02 0.493E-02 0.666E+01
   0.585E+01 0.286E+01 -.922E+03   -.585E+01 -.287E+01 0.914E+03   0.493E-02 0.778E-02 0.666E+01
   0.318E+01 0.617E+01 0.933E+03   -.320E+01 -.618E+01 -.925E+03   0.147E-01 0.816E-02 -.670E+01
   0.129E+02 0.759E+01 0.938E+03   -.129E+02 -.760E+01 -.930E+03   0.548E-01 0.103E-01 -.671E+01
   0.604E+01 0.673E+01 -.919E+03   -.606E+01 -.673E+01 0.912E+03   0.149E-01 0.248E-02 0.666E+01
   0.126E+02 0.113E+02 -.919E+03   -.127E+02 -.113E+02 0.911E+03   0.283E-01 0.998E-02 0.666E+01
   0.513E+01 0.209E+01 0.936E+03   -.516E+01 -.209E+01 -.928E+03   0.183E-01 0.401E-03 -.671E+01
   0.157E+02 -.310E+01 0.940E+03   -.158E+02 0.312E+01 -.932E+03   0.499E-01 -.133E-01 -.672E+01
   0.738E+01 -.269E+01 -.918E+03   -.739E+01 0.270E+01 0.911E+03   0.435E-02 -.352E-02 0.666E+01
   0.242E+02 0.449E+01 -.913E+03   -.242E+02 -.448E+01 0.906E+03   0.414E-01 -.625E-02 0.665E+01
   0.433E+01 -.527E+01 0.934E+03   -.434E+01 0.528E+01 -.927E+03   0.420E-02 -.742E-02 -.671E+01
   0.914E+01 -.845E+01 0.935E+03   -.916E+01 0.847E+01 -.927E+03   0.136E-01 -.130E-01 -.671E+01
   0.428E+01 -.774E+01 -.921E+03   -.428E+01 0.774E+01 0.913E+03   -.329E-02 -.407E-02 0.666E+01
   0.190E+02 -.106E+02 -.916E+03   -.190E+02 0.106E+02 0.908E+03   0.948E-02 -.954E-02 0.665E+01
   0.226E+01 -.474E+01 0.931E+03   -.226E+01 0.475E+01 -.924E+03   -.549E-03 -.488E-02 -.670E+01
   0.474E+01 -.226E+01 0.931E+03   -.475E+01 0.226E+01 -.924E+03   0.488E-02 0.549E-03 -.670E+01
   0.215E+01 -.215E+01 -.923E+03   -.215E+01 0.215E+01 0.915E+03   -.174E-03 0.174E-03 0.667E+01
   0.807E+01 -.807E+01 -.921E+03   -.808E+01 0.808E+01 0.913E+03   0.197E-02 -.197E-02 0.666E+01
   0.617E+01 0.318E+01 0.933E+03   -.618E+01 -.320E+01 -.925E+03   0.816E-02 0.147E-01 -.670E+01
   0.759E+01 0.129E+02 0.938E+03   -.760E+01 -.129E+02 -.930E+03   0.103E-01 0.548E-01 -.671E+01
   0.113E+02 0.126E+02 -.919E+03   -.113E+02 -.127E+02 0.911E+03   0.998E-02 0.283E-01 0.666E+01
   0.673E+01 0.604E+01 -.919E+03   -.673E+01 -.606E+01 0.912E+03   0.248E-02 0.149E-01 0.666E+01
   0.133E+02 0.133E+02 0.940E+03   -.134E+02 -.134E+02 -.932E+03   0.458E-01 0.458E-01 -.671E+01
   0.226E+02 0.226E+02 0.961E+03   -.228E+02 -.228E+02 -.953E+03   0.132E+00 0.132E+00 -.669E+01
   0.338E+02 0.213E+02 -.906E+03   -.340E+02 -.214E+02 0.898E+03   0.122E+00 0.761E-02 0.664E+01
   0.213E+02 0.338E+02 -.906E+03   -.214E+02 -.340E+02 0.898E+03   0.761E-02 0.122E+00 0.664E+01
   0.265E+02 0.578E+01 0.952E+03   -.268E+02 -.577E+01 -.944E+03   0.185E+00 -.416E-02 -.675E+01
   0.330E+02 -.111E+02 0.976E+03   -.333E+02 0.113E+02 -.969E+03   0.212E+00 -.122E+00 -.678E+01
   0.483E+02 -.101E+02 -.898E+03   -.484E+02 0.102E+02 0.890E+03   0.743E-01 -.286E-01 0.662E+01
   0.849E+02 0.290E+02 -.852E+03   -.861E+02 -.289E+02 0.845E+03   0.877E+00 -.661E-01 0.661E+01
   0.204E+02 -.131E+02 0.946E+03   -.205E+02 0.131E+02 -.939E+03   0.602E-01 -.426E-01 -.673E+01
   0.131E+02 -.204E+02 0.946E+03   -.131E+02 0.205E+02 -.939E+03   0.426E-01 -.602E-01 -.673E+01
   0.198E+02 -.198E+02 -.914E+03   -.198E+02 0.198E+02 0.906E+03   0.113E-01 -.113E-01 0.665E+01
   0.463E+02 -.463E+02 -.884E+03   -.464E+02 0.464E+02 0.877E+03   0.687E-01 -.687E-01 0.659E+01
   0.845E+01 -.914E+01 0.935E+03   -.847E+01 0.916E+01 -.927E+03   0.130E-01 -.136E-01 -.671E+01
   0.527E+01 -.433E+01 0.934E+03   -.528E+01 0.434E+01 -.927E+03   0.742E-02 -.420E-02 -.671E+01
   0.774E+01 -.428E+01 -.921E+03   -.774E+01 0.428E+01 0.913E+03   0.407E-02 0.329E-02 0.666E+01
   0.106E+02 -.190E+02 -.916E+03   -.106E+02 0.190E+02 0.908E+03   0.954E-02 -.948E-02 0.665E+01
   0.209E+01 0.513E+01 0.936E+03   -.209E+01 -.516E+01 -.928E+03   0.401E-03 0.183E-01 -.671E+01
   -.310E+01 0.157E+02 0.940E+03   0.312E+01 -.158E+02 -.932E+03   -.133E-01 0.499E-01 -.672E+01
   0.449E+01 0.242E+02 -.913E+03   -.448E+01 -.242E+02 0.906E+03   -.625E-02 0.414E-01 0.665E+01
   -.269E+01 0.738E+01 -.918E+03   0.270E+01 -.739E+01 0.911E+03   -.352E-02 0.435E-02 0.666E+01
   0.578E+01 0.265E+02 0.952E+03   -.577E+01 -.268E+02 -.944E+03   -.416E-02 0.185E+00 -.675E+01
   -.111E+02 0.330E+02 0.976E+03   0.113E+02 -.333E+02 -.969E+03   -.122E+00 0.212E+00 -.678E+01
   0.290E+02 0.849E+02 -.852E+03   -.289E+02 -.861E+02 0.845E+03   -.661E-01 0.877E+00 0.661E+01
   -.101E+02 0.483E+02 -.898E+03   0.102E+02 -.484E+02 0.890E+03   -.286E-01 0.743E-01 0.662E+01
   0.186E+02 0.186E+02 0.101E+04   -.186E+02 -.186E+02 -.100E+04   0.281E-01 0.281E-01 -.588E+01
   -.186E+02 -.186E+02 0.101E+04   0.186E+02 0.186E+02 -.100E+04   -.281E-01 -.281E-01 -.588E+01
   0.886E+02 -.886E+02 -.718E+03   -.903E+02 0.903E+02 0.710E+03   0.881E+00 -.881E+00 0.601E+01
   -.886E+02 0.886E+02 -.718E+03   0.903E+02 -.903E+02 0.710E+03   -.881E+00 0.881E+00 0.601E+01
   0.111E+02 -.330E+02 0.976E+03   -.113E+02 0.333E+02 -.969E+03   0.122E+00 -.212E+00 -.678E+01
   -.578E+01 -.265E+02 0.952E+03   0.577E+01 0.268E+02 -.944E+03   0.416E-02 -.185E+00 -.675E+01
   0.101E+02 -.483E+02 -.898E+03   -.102E+02 0.484E+02 0.890E+03   0.286E-01 -.743E-01 0.662E+01
   -.290E+02 -.849E+02 -.852E+03   0.289E+02 0.861E+02 0.845E+03   0.661E-01 -.877E+00 0.661E+01
   0.310E+01 -.157E+02 0.940E+03   -.312E+01 0.158E+02 -.932E+03   0.133E-01 -.499E-01 -.672E+01
   -.209E+01 -.513E+01 0.936E+03   0.209E+01 0.516E+01 -.928E+03   -.401E-03 -.183E-01 -.671E+01
[...]
   -.968E+01 0.569E+01 0.705E+03   0.970E+01 -.570E+01 -.709E+03   -.244E-01 0.200E-01 0.316E+01
   -.240E+01 0.463E+01 0.701E+03   0.240E+01 -.464E+01 -.705E+03   -.463E-03 0.871E-02 0.317E+01
   -.182E+02 0.335E+01 -.687E+03   0.182E+02 -.336E+01 0.691E+03   -.250E-01 0.155E-01 -.326E+01
   -.553E+01 -.202E+01 -.690E+03   0.554E+01 0.202E+01 0.694E+03   -.106E-01 0.994E-03 -.324E+01
   -.118E+02 -.234E+01 0.707E+03   0.119E+02 0.234E+01 -.711E+03   -.486E-01 0.289E-02 0.316E+01
   -.386E+01 0.156E+01 0.703E+03   0.387E+01 -.157E+01 -.707E+03   -.906E-02 0.582E-02 0.317E+01
   -.143E+02 -.795E+01 -.688E+03   0.143E+02 0.796E+01 0.692E+03   -.357E-01 -.707E-02 -.325E+01
   -.320E+01 -.580E+01 -.692E+03   0.321E+01 0.581E+01 0.696E+03   -.113E-01 -.686E-02 -.323E+01
   -.685E+01 -.633E+01 0.703E+03   0.687E+01 0.635E+01 -.707E+03   -.313E-01 -.216E-01 0.317E+01
   -.324E+01 -.396E+01 0.703E+03   0.325E+01 0.396E+01 -.707E+03   -.155E-01 -.708E-02 0.317E+01
   -.605E+01 -.605E+01 -.692E+03   0.606E+01 0.606E+01 0.696E+03   -.151E-01 -.151E-01 -.323E+01
   -.161E+01 -.161E+01 -.694E+03   0.161E+01 0.161E+01 0.698E+03   -.350E-02 -.350E-02 -.322E+01
   -.355E+01 -.168E+01 0.700E+03   0.356E+01 0.169E+01 -.704E+03   -.853E-02 -.845E-02 0.317E+01
   -.169E+01 -.355E+01 0.700E+03   0.169E+01 0.356E+01 -.704E+03   -.845E-02 -.853E-02 0.317E+01
   -.301E-01 0.150E-01 0.361E+01   0.352E-11 -.298E-12 -.716E-11   -.517E-15 0.182E-15 -.350E+01

 POSITION                                       TOTAL-FORCE (eV/Angst)
      9.51248      9.51248     15.45078         0.000000      0.000000      0.174243
      9.51248      9.51248     13.22359         0.000000      0.000000     -0.220323
      0.00000      0.00000      9.00000        -0.001179     -0.001179      0.425630
      2.11389      2.11389      9.00000        -0.004860     -0.004860      0.426047
      0.00000      2.11389     11.11389        -0.002342     -0.001526     -0.410899
      2.11389      0.00000     11.11389        -0.001526     -0.002342     -0.410899
      0.00000      4.22777      9.00000        -0.004412     -0.002594      0.426350
      2.11389      6.34166      9.00000        -0.016226     -0.003314      0.428654
      0.00000      6.34166     11.11389        -0.004192     -0.000720     -0.408358
      2.11389      4.22777     11.11389        -0.008081     -0.003024     -0.407702
      0.00000      8.45554      9.00000        -0.005379     -0.000118      0.427834
      2.11389     10.56943      9.00000        -0.014708      0.004354      0.430400
      0.00000     10.56943     11.11389        -0.000951      0.001112     -0.407449
      2.11389      8.45554     11.11389        -0.009868      0.002301     -0.401610
      0.00000     12.68331      9.00000        -0.001255      0.002332      0.427172
      2.11389     14.79720      9.00000        -0.004080      0.003991      0.427815
      0.00000     14.79720     11.11389         0.001116      0.001196     -0.409675
      2.11389     12.68331     11.11389        -0.001667      0.002657     -0.403969
      0.00000     16.91108      9.00000         0.000202      0.001531      0.426135
      2.11389     19.02497      9.00000        -0.001531     -0.000202      0.426135
      0.00000     19.02497     11.11389         0.000077     -0.000077     -0.411422
      2.11389     16.91108     11.11389        -0.000469      0.000469     -0.409526
      4.22777      0.00000      9.00000        -0.002594     -0.004412      0.426350
      6.34166      2.11389      9.00000        -0.003314     -0.016226      0.428654
      4.22777      2.11389     11.11389        -0.003024     -0.008081     -0.407702
      6.34166      0.00000     11.11389        -0.000720     -0.004192     -0.408358
      4.22777      4.22777      9.00000        -0.014562     -0.014562      0.426203
      6.34166      6.34166      9.00000        -0.046656     -0.046656      0.416856
      4.22777      6.34166     11.11389        -0.031265     -0.000962     -0.392581
      6.34166      4.22777     11.11389        -0.000962     -0.031265     -0.392581
      4.22777      8.45554      9.00000        -0.051384      0.001902      0.438040
      6.34166     10.56943      9.00000        -0.062163      0.042538      0.445012
      4.22777     10.56943     11.11389        -0.011070      0.008020     -0.378397
      6.34166      8.45554     11.11389        -0.248123      0.037881     -0.305945
      4.22777     12.68331      9.00000        -0.017771      0.012974      0.433793
      6.34166     14.79720      9.00000        -0.012974      0.017771      0.433793
      4.22777     14.79720     11.11389        -0.002079      0.002079     -0.401200
      6.34166     12.68331     11.11389         0.000750     -0.000750     -0.346215
      4.22777     16.91108      9.00000        -0.003991      0.004080      0.427815
      6.34166     19.02497      9.00000        -0.002332      0.001255      0.427172
      4.22777     19.02497     11.11389        -0.001196     -0.001116     -0.409675
      6.34166     16.91108     11.11389        -0.002657      0.001667     -0.403969
      8.45554      0.00000      9.00000        -0.000118     -0.005379      0.427834
     10.56943      2.11389      9.00000         0.004354     -0.014708      0.430400
      8.45554      2.11389     11.11389         0.002301     -0.009868     -0.401610
     10.56943      0.00000     11.11389         0.001112     -0.000951     -0.407449
      8.45554      4.22777      9.00000         0.001902     -0.051384      0.438040
     10.56943      6.34166      9.00000         0.042538     -0.062163      0.445012
      8.45554      6.34166     11.11389         0.037881     -0.248123     -0.305945
     10.56943      4.22777     11.11389         0.008020     -0.011070     -0.378397
      8.45554      8.45554      9.00000        -0.000416     -0.000416      0.214431
     10.56943     10.56943      9.00000         0.000416      0.000416      0.214431
      8.45554     10.56943     11.11389        -0.625522      0.625522     -0.839154
     10.56943      8.45554     11.11389         0.625522     -0.625522     -0.839154
      8.45554     12.68331      9.00000        -0.042538      0.062163      0.445012
     10.56943     14.79720      9.00000        -0.001902      0.051384      0.438040
      8.45554     14.79720     11.11389        -0.008020      0.011070     -0.378397
     10.56943     12.68331     11.11389        -0.037881      0.248123     -0.305945
      8.45554     16.91108      9.00000        -0.004354      0.014708      0.430400
     10.56943     19.02497      9.00000         0.000118      0.005379      0.427834
[...]
     19.02497      6.34166     11.11389        -0.000208      0.001935      0.392930
     16.91108      6.34166      9.00000        -0.007935      0.006501     -0.414859
     19.02497      4.22777      9.00000        -0.000155      0.002798     -0.412244
     16.91108      8.45554     11.11389        -0.008353      0.005057      0.385733
     19.02497     10.56943     11.11389        -0.003463      0.000312      0.391882
     16.91108     10.56943      9.00000        -0.015772      0.000892     -0.415136
     19.02497      8.45554      9.00000        -0.002928      0.001916     -0.413362
     16.91108     12.68331     11.11389        -0.011715     -0.002358      0.388877
     19.02497     14.79720     11.11389        -0.003665     -0.002234      0.394501
     16.91108     14.79720      9.00000        -0.010118     -0.006983     -0.412429
     19.02497     12.68331      9.00000        -0.005027     -0.002326     -0.412685
     16.91108     16.91108     11.11389        -0.004893     -0.004893      0.394726
     19.02497     19.02497     11.11389        -0.001126     -0.001126      0.396450
     16.91108     19.02497      9.00000        -0.002753     -0.002708     -0.411560
     19.02497     16.91108      9.00000        -0.002708     -0.002753     -0.411560
    total drift:                               -0.030139      0.015004     -0.251831

  FREE ENERGIE OF THE ION-ELECTRON SYSTEM (eV)
  free  energy   TOTEN  =     -1365.38883972 eV

  energy  without entropy=    -1365.38883972  energy(sigma->0) =    -1365.38883972