 vasp.6.4.0 14Feb23 (build Jul 14 2023 13:46:40) complex

 executed on             LinuxIFC date 2023.07.30  04:36:21

 INCAR:
   SYSTEM = MgO-rocksalt
   ISMEAR = 0
   SIGMA = 0.05
   EDIFF = 1E-6
   ALGO = ALL
   ISTART = 0
   IBRION = -1
   NSW = 0
   ISYM = 2
   DIPOL = 0.5 0.5 0.5
   IDIPOL = 3
   LDIPOL = .TRUE.
   METAGGA = TPSS
   ENCUT = 520
   PREC = Accurate
   LASPH = .TRUE.
   LREAL = Auto
   ISPIN = 1
   NELM = 200
   NELMIN = 8
   NCORE = 16
   KPAR = 1
   LWAVE = .FALSE.
   LCHARG = .FALSE.

 POTCAR:    PAW_PBE Ag 02Apr2005
 POTCAR:    PAW_PBE Mg_pv 13Apr2007
 POTCAR:    PAW_PBE O 08Apr2002
 POTCAR:    PAW_PBE Ag 02Apr2005
   VRHFIN =Ag : s1 d10

   TITEL  = PAW_PBE Ag 02Apr2005
   POMASS =  107.868; ZVAL   =   11.000    mass and valenz
   ENMAX  =  249.844; ENMIN  =  187.383 eV

   TITEL  = PAW_PBE Mg_pv 13Apr2007
   POMASS =   24.305; ZVAL   =    8.000    mass and valenz
   ENMAX  =  403.929; ENMIN  =  302.947 eV

   TITEL  = PAW_PBE O 08Apr2002
   POMASS =   16.000; ZVAL   =    6.000    mass and valenz
   ENMAX  =  400.000; ENMIN  =  300.000 eV

 Optimization of the real space projectors (new method)

 maximal supplied QI-value         = 15.12
 optimisation between [QCUT,QGAM] = [ 11.64, 23.28] = [ 37.95,151.78] Ry
 Optimized for a Real-space Cutoff    1.45 Angstroem

   l    n(q)    QCUT    max X(q) W(low)/X(q) W(high)/X(q)  e(spline)
   2      9    11.641    53.897    0.22E-03    0.42E-04    0.28E-06
   2      9    11.641    52.416    0.23E-03    0.44E-04    0.29E-06
   0     10    11.641   122.045    0.51E-04    0.25E-04    0.16E-06
   0     10    11.641    73.629    0.49E-04    0.24E-04    0.16E-06
   1     10    11.641    15.255    0.99E-04    0.55E-04    0.11E-06
   1     10    11.641     9.562    0.81E-04    0.47E-04    0.95E-07
 Optimization of the real space projectors (new method)

[...]

   l    n(q)    QCUT    max X(q) W(low)/X(q) W(high)/X(q)  e(spline)
   1      8    11.527     2.974    0.44E-04    0.56E-04    0.12E-06
   1      8    11.527     4.279    0.12E-03    0.12E-03    0.26E-06
   0      9    11.527    16.381    0.46E-04    0.64E-04    0.78E-07
   0      9    11.527     5.611    0.26E-04    0.43E-04    0.55E-07
   2      8    11.527     4.652    0.22E-03    0.72E-04    0.47E-07
 Optimization of the real space projectors (new method)

 maximal supplied QI-value         = 24.76
 optimisation between [QCUT,QGAM] = [ 11.64, 23.27] = [ 37.91,151.63] Ry
 Optimized for a Real-space Cutoff    1.14 Angstroem

   l    n(q)    QCUT    max X(q) W(low)/X(q) W(high)/X(q)  e(spline)
   0      8    11.635    20.381    0.10E-03    0.33E-03    0.24E-06
   0      8    11.635    15.268    0.11E-03    0.35E-03    0.26E-06
   1      7    11.635     5.964    0.24E-03    0.31E-03    0.30E-06
   1      7    11.635     5.382    0.22E-03    0.25E-03    0.26E-06
  PAW_PBE Ag 02Apr2005                  :
  PAW_PBE Mg_pv 13Apr2007               :
  PAW_PBE O 08Apr2002                   :

 POSCAR: Ag Mg  O
  positions in direct lattice

 METAGGA = TPSS                                        LMAXTAU =  6    LMIXTAU =  F

 ion  position               nearest neighbor table
   1  0.543  0.457  0.625-   2 2.59
   2  0.457  0.543  0.625-   1 2.59
   3  0.000  0.000  0.407- 105 2.11 106 2.11 121 2.11 186 2.11 103 2.11
   4  0.100  0.100  0.407- 105 2.11 106 2.11 110 2.11 125 2.11 104 2.11
   5  0.000  0.100  0.503- 103 2.11 104 2.11 107 2.11 184 2.11 105 2.11
   6  0.100  0.000  0.503- 103 2.11 104 2.11 120 2.11 123 2.11 106 2.11
   7  0.000  0.200  0.407- 109 2.11 105 2.11 110 2.11 190 2.11 107 2.11
   8  0.100  0.300  0.407- 110 2.11 109 2.11 114 2.11 129 2.11 108 2.11
   9  0.000  0.300  0.503- 107 2.11 108 2.11 111 2.11 188 2.11 109 2.11
  10  0.100  0.200  0.503- 108 2.11 107 2.11 104 2.11 127 2.11 110 2.11
  11  0.000  0.400  0.407- 109 2.11 113 2.11 114 2.11 194 2.11 111 2.11
  12  0.100  0.500  0.407- 113 2.11 114 2.11 118 2.11 133 2.11 112 2.11
  13  0.000  0.500  0.503- 111 2.11 112 2.11 115 2.11 192 2.11 113 2.11
  14  0.100  0.400  0.503- 108 2.11 111 2.11 112 2.11 131 2.11 114 2.11
  15  0.000  0.600  0.407- 113 2.11 117 2.11 118 2.11 198 2.11 115 2.11
  16  0.100  0.700  0.407- 122 2.11 118 2.11 117 2.11 137 2.11 116 2.11
  17  0.000  0.700  0.503- 119 2.11 116 2.11 115 2.11 196 2.11 117 2.11
  18  0.100  0.600  0.503- 112 2.11 115 2.11 116 2.11 135 2.11 118 2.11
  19  0.000  0.800  0.407- 117 2.11 121 2.11 122 2.11 202 2.11 119 2.11
  20  0.100  0.900  0.407- 106 2.11 121 2.11 122 2.11 141 2.11 120 2.11
  21  0.000  0.900  0.503- 103 2.11 119 2.11 120 2.11 200 2.11 121 2.11
  22  0.100  0.800  0.503- 116 2.11 119 2.11 120 2.11 139 2.11 122 2.11
  23  0.200  0.000  0.407- 126 2.11 125 2.11 106 2.11 141 2.11 123 2.11
  24  0.300  0.100  0.407- 125 2.11 126 2.11 130 2.11 145 2.11 124 2.11
  25  0.200  0.100  0.503- 124 2.11 123 2.11 104 2.11 127 2.11 125 2.11
  26  0.300  0.000  0.503- 123 2.11 124 2.11 140 2.11 143 2.11 126 2.11
  27  0.200  0.200  0.407- 129 2.11 130 2.11 110 2.11 125 2.11 127 2.11
  28  0.300  0.300  0.407- 129 2.11 130 2.11 134 2.11 149 2.11 128 2.11
  29  0.200  0.300  0.503- 127 2.11 128 2.11 108 2.11 131 2.11 129 2.11
  30  0.300  0.200  0.503- 127 2.11 128 2.11 124 2.11 147 2.11 130 2.11
  31  0.200  0.400  0.407- 134 2.11 129 2.11 133 2.11 114 2.11 131 2.11
  32  0.300  0.500  0.407- 133 2.11 134 2.11 138 2.11 153 2.11 132 2.11
  33  0.200  0.500  0.503- 132 2.11 131 2.11 112 2.11 135 2.11 133 2.11
  34  0.300  0.400  0.503- 131 2.11 128 2.11 132 2.11 151 2.11 134 2.11
  35  0.200  0.600  0.407- 138 2.11 133 2.11 137 2.11 118 2.11 135 2.11
  36  0.300  0.700  0.407- 137 2.11 142 2.11 138 2.11 157 2.11 136 2.11
  37  0.200  0.700  0.503- 136 2.11 139 2.11 116 2.11 135 2.11 137 2.11
  38  0.300  0.600  0.503- 135 2.11 132 2.11 136 2.11 155 2.11 138 2.11
  39  0.200  0.800  0.407- 137 2.11 142 2.11 141 2.11 122 2.11 139 2.11
  40  0.300  0.900  0.407- 141 2.11 126 2.11 142 2.11 161 2.11 140 2.11
  41  0.200  0.900  0.503- 140 2.11 123 2.11 139 2.11 120 2.11 141 2.11
  42  0.300  0.800  0.503- 136 2.11 139 2.11 140 2.11 159 2.11 142 2.11
  43  0.400  0.000  0.407- 126 2.11 145 2.11 146 2.11 161 2.11 143 2.11
  44  0.500  0.100  0.407- 145 2.11 146 2.11 150 2.11 165 2.11 144 2.11
  45  0.400  0.100  0.503- 124 2.11 143 2.11 144 2.11 147 2.11 145 2.11
  46  0.500  0.000  0.503- 143 2.11 144 2.11 160 2.11 163 2.11 146 2.11
  47  0.400  0.200  0.407- 149 2.11 145 2.11 130 2.11 150 2.11 147 2.11
  48  0.500  0.300  0.407- 150 2.11 149 2.11 154 2.11 169 2.11 148 2.11
  49  0.400  0.300  0.503- 147 2.11 128 2.11 148 2.11 151 2.11 149 2.11
  50  0.500  0.200  0.503- 148 2.11 147 2.11 144 2.11 167 2.11 150 2.11
  51  0.400  0.400  0.407- 134 2.11 149 2.11 153 2.11 154 2.11 151 2.11
  52  0.500  0.500  0.407- 153 2.11 154 2.11 158 2.11 173 2.11 152 2.11
  53  0.400  0.500  0.503- 132 2.11 151 2.11 152 2.11 155 2.11 153 2.11
  54  0.500  0.400  0.503- 148 2.11 151 2.11 152 2.11 171 2.11 154 2.11
  55  0.400  0.600  0.407- 138 2.11 153 2.11 157 2.11 158 2.11 155 2.11
  56  0.500  0.700  0.407- 162 2.11 158 2.11 157 2.11 177 2.11 156 2.11
  57  0.400  0.700  0.503- 159 2.11 155 2.11 156 2.11 136 2.11 157 2.11
  58  0.500  0.600  0.503- 152 2.11 155 2.11 156 2.11 175 2.11 158 2.11
  59  0.400  0.800  0.407- 157 2.11 142 2.11 161 2.11 162 2.11 159 2.11
  60  0.500  0.900  0.407- 146 2.11 161 2.11 162 2.11 181 2.11 160 2.11
[...]
 188  0.900  0.300  0.503-  90 2.11  89 2.11   9 2.11  94 2.11  88 2.11
 189  0.800  0.300  0.407-  68 2.11  87 2.11  88 2.11  91 2.11  89 2.11
 190  0.900  0.200  0.407-  88 2.11  84 2.11  87 2.11   7 2.11  90 2.11
 191  0.800  0.400  0.503-  74 2.11  89 2.11  93 2.11  94 2.11  91 2.11
 192  0.900  0.500  0.503-  13 2.11  93 2.11  94 2.11  98 2.11  92 2.11
 193  0.800  0.500  0.407-  72 2.11  91 2.11  92 2.11  95 2.11  93 2.11
 194  0.900  0.400  0.407-  11 2.11  88 2.11  91 2.11  92 2.11  94 2.11
 195  0.800  0.600  0.503-  78 2.11  93 2.11  97 2.11  98 2.11  95 2.11
 196  0.900  0.700  0.503- 102 2.11  97 2.11  98 2.11  17 2.11  96 2.11
 197  0.800  0.700  0.407-  76 2.11  99 2.11  96 2.11  95 2.11  97 2.11
 198  0.900  0.600  0.407-  15 2.11  92 2.11  95 2.11  96 2.11  98 2.11
 199  0.800  0.800  0.503-  82 2.11  97 2.11 101 2.11 102 2.11  99 2.11
 200  0.900  0.900  0.503-  21 2.11  86 2.11 101 2.11 102 2.11 100 2.11
 201  0.800  0.900  0.407-  80 2.11  83 2.11  99 2.11 100 2.11 101 2.11
 202  0.900  0.800  0.407-  96 2.11  19 2.11  99 2.11 100 2.11 102 2.11

  LATTYP: Found a simple tetragonal cell.
 ALAT       =    21.1388521970
 C/A-ratio  =     1.0461251639

  Lattice vectors:

 A1 = (  21.1388521970,   0.0000000000,   0.0000000000)
 A2 = (   0.0000000000,  21.1388521970,   0.0000000000)
 A3 = (   0.0000000000,   0.0000000000,  22.1138852197)

Analysis of symmetry for initial positions (statically):
 Subroutine PRICEL returns:
 Original cell was already a primitive cell.

 Routine SETGRP: Setting up the symmetry group for a
 simple tetragonal supercell.

 Subroutine GETGRP returns: Found  4 space group operations
 (whereof  4 operations were pure point group operations)
 out of a pool of 16 trial point group operations.

The static configuration has the point symmetry C_2v.

Analysis of symmetry for dynamics (positions and initial velocities):
 Subroutine PRICEL returns:
 Original cell was already a primitive cell.

 Routine SETGRP: Setting up the symmetry group for a
 simple tetragonal supercell.

 Subroutine GETGRP returns: Found  4 space group operations
 (whereof  4 operations were pure point group operations)
 out of a pool of 16 trial point group operations.

The dynamic configuration has the point symmetry C_2v.

 Subroutine INISYM returns: Found  4 space group operations
 (whereof  4 operations are pure point group operations),
 and found     1 'primitive' translations

                                     Primitive cell

  volume of cell :    9881.6133

  direct lattice vectors                    reciprocal lattice vectors
    21.138852197  0.000000000  0.000000000     0.047306258  0.000000000  0.000000000
     0.000000000 21.138852197  0.000000000     0.000000000  0.047306258  0.000000000
     0.000000000  0.000000000 22.113885220     0.000000000  0.000000000  0.045220457

  length of vectors
    21.138852197 21.138852197 22.113885220     0.047306258  0.047306258  0.045220457

  position of ions in fractional coordinates (direct lattice)
     0.543282734  0.456717266  0.625334806
     0.456717266  0.543282734  0.625334806
     0.000000000  0.000000000  0.406984115
     0.100000000  0.100000000  0.406984115
     0.000000000  0.100000000  0.502574971
     0.100000000  0.000000000  0.502574971
     0.000000000  0.200000000  0.406984115
     0.100000000  0.300000000  0.406984115
     0.000000000  0.300000000  0.502574971
     0.100000000  0.200000000  0.502574971
     0.000000000  0.400000000  0.406984115
     0.100000000  0.500000000  0.406984115
     0.000000000  0.500000000  0.502574971
     0.100000000  0.400000000  0.502574971
     0.000000000  0.600000000  0.406984115
     0.100000000  0.700000000  0.406984115
     0.000000000  0.700000000  0.502574971
     0.100000000  0.600000000  0.502574971
[...]
     52     -43.2868      2.00000
     53     -43.2864      2.00000
     54     -43.2855      2.00000
     55     -43.2855      2.00000
     56     -43.2851      2.00000
     57     -43.2846      2.00000
     58     -43.2844      2.00000
     59     -43.2838      2.00000
     60     -43.2838      2.00000
[...]
    850       6.1682      0.00000
    851       6.2259      0.00000
    852       6.2623      0.00000
    853       6.3280      0.00000
    854       6.4086      0.00000
    855       6.4171      0.00000
    856       6.4789      0.00000
    857       6.5268      0.00000
    858       6.5456      0.00000
    859       6.5967      0.00000
    860       6.6610      0.00000
    861       6.7666      0.00000
    862       6.7741      0.00000
    863       6.8584      0.00000
    864       7.0056      0.00000

 soft charge-density along one line, spin component           1
         0         1         2         3         4         5         6         7         8         9
 total charge-density along one line

------------------------ aborting loop because EDIFF is reached ----------------------------------------

  FORCE on cell =-STRESS in cart. coord.  units (eV):
  Direction    XX          YY          ZZ          XY          YZ          ZX
  Alpha Z  1357.53553  1357.53553  1357.53553
  Ewald  479361.88727479361.88727************  -323.89554     0.00000     0.00000
  Hartree508190.22514508190.22514************  -242.96843    -0.00000    -0.00000
  E(xc)   -8197.48397 -8197.48396 -8223.26768    -0.25317    -0.00000     0.00000
  Local  ************************************   563.23078    -0.00000    -0.00000
  n-local -8953.96614 -8953.96614 -9077.70271     1.84033     0.00001     0.00001
  augment  3961.37495  3961.37495  3906.70938     0.36434    -0.00000    -0.00000
  Kinetic 22985.91371 22985.91379 23236.09117     2.20150    -0.00001     0.00002
  Fock        0.00000     0.00000     0.00000     0.00000     0.00000     0.00000
  Total    -166.91721  -166.91721     8.17931     0.51979     0.00000     0.00000
  in kB     -27.06349   -27.06349     1.32617     0.08428     0.00000     0.00000

 VOLUME and BASIS-vectors are now :
  energy-cutoff  :      520.00
  volume of cell :     9881.61
      direct lattice vectors                 reciprocal lattice vectors
    21.138852197  0.000000000  0.000000000     0.047306258  0.000000000  0.000000000
     0.000000000 21.138852197  0.000000000     0.000000000  0.047306258  0.000000000
     0.000000000  0.000000000 22.113885220     0.000000000  0.000000000  0.045220457

  length of vectors
    21.138852197 21.138852197 22.113885220     0.047306258  0.047306258  0.045220457

 FORCES acting on ions:
    Electron-Ion                     Ewald-Force                    Non-Local-Force
   -.187E+03 0.187E+03 -.205E+04   0.183E+03 -.183E+03 0.205E+04   0.481E+01 -.481E+01 -.279E+00
   0.187E+03 -.187E+03 -.205E+04   -.183E+03 0.183E+03 0.205E+04   -.481E+01 0.481E+01 -.279E+00
   -.471E-10 0.823E-09 0.931E+03   0.974E-10 -.170E-08 -.923E+03   -.982E-22 0.938E-22 -.792E+01
   0.379E+01 0.379E+01 0.932E+03   -.378E+01 -.378E+01 -.924E+03   -.442E-02 -.442E-02 -.792E+01
   -.281E+00 0.419E+01 -.923E+03   0.293E+00 -.419E+01 0.915E+03   -.100E-01 0.205E-02 0.789E+01
   0.419E+01 -.281E+00 -.923E+03   -.419E+01 0.293E+00 0.915E+03   0.205E-02 -.100E-01 0.789E+01
   -.369E+00 0.579E+01 0.933E+03   0.390E+00 -.579E+01 -.925E+03   -.169E-01 0.432E-02 -.792E+01
   0.753E+01 0.737E+01 0.936E+03   -.751E+01 -.738E+01 -.928E+03   -.124E-01 0.761E-02 -.792E+01
   -.702E+00 0.763E+01 -.921E+03   0.732E+00 -.764E+01 0.913E+03   -.235E-01 0.301E-02 0.789E+01
   0.679E+01 0.845E+01 -.922E+03   -.677E+01 -.845E+01 0.913E+03   -.153E-01 -.143E-02 0.789E+01
   -.325E+00 0.393E+01 0.936E+03   0.345E+00 -.394E+01 -.928E+03   -.153E-01 0.254E-02 -.792E+01
   0.115E+02 0.414E+00 0.939E+03   -.116E+02 -.432E+00 -.931E+03   0.206E-01 0.136E-01 -.792E+01
   0.145E-09 -.124E-08 -.919E+03   -.299E-09 0.256E-08 0.911E+03   -.778E-22 0.767E-22 0.789E+01
   0.146E+02 0.699E+01 -.918E+03   -.146E+02 -.701E+01 0.910E+03   -.125E-01 0.132E-01 0.789E+01
   0.325E+00 -.393E+01 0.936E+03   -.345E+00 0.394E+01 -.928E+03   0.153E-01 -.254E-02 -.792E+01
   0.857E+01 -.740E+01 0.936E+03   -.862E+01 0.740E+01 -.928E+03   0.387E-01 -.486E-02 -.792E+01
   0.702E+00 -.763E+01 -.921E+03   -.732E+00 0.764E+01 0.913E+03   0.235E-01 -.301E-02 0.789E+01
   0.162E+02 -.615E+01 -.917E+03   -.162E+02 0.614E+01 0.909E+03   0.393E-01 0.866E-02 0.789E+01
   0.369E+00 -.579E+01 0.933E+03   -.390E+00 0.579E+01 -.925E+03   0.169E-01 -.432E-02 -.792E+01
   0.418E+01 -.418E+01 0.932E+03   -.419E+01 0.419E+01 -.924E+03   0.120E-01 -.120E-01 -.792E+01
   0.281E+00 -.419E+01 -.923E+03   -.293E+00 0.419E+01 0.915E+03   0.100E-01 -.205E-02 0.789E+01
   0.806E+01 -.901E+01 -.921E+03   -.810E+01 0.902E+01 0.913E+03   0.289E-01 -.105E-01 0.789E+01
   0.579E+01 -.369E+00 0.933E+03   -.579E+01 0.390E+00 -.925E+03   0.432E-02 -.169E-01 -.792E+01
   0.737E+01 0.753E+01 0.936E+03   -.738E+01 -.751E+01 -.928E+03   0.761E-02 -.124E-01 -.792E+01
   0.845E+01 0.679E+01 -.922E+03   -.845E+01 -.677E+01 0.913E+03   -.143E-02 -.153E-01 0.789E+01
   0.763E+01 -.702E+00 -.921E+03   -.764E+01 0.732E+00 0.913E+03   0.301E-02 -.235E-01 0.789E+01
   0.967E+01 0.967E+01 0.936E+03   -.967E+01 -.967E+01 -.928E+03   -.262E-02 -.262E-02 -.793E+01
   0.189E+02 0.189E+02 0.949E+03   -.189E+02 -.189E+02 -.941E+03   0.158E-01 0.158E-01 -.795E+01
   0.217E+02 0.166E+02 -.915E+03   -.216E+02 -.166E+02 0.907E+03   -.306E-01 0.803E-02 0.788E+01
   0.166E+02 0.217E+02 -.915E+03   -.166E+02 -.216E+02 0.907E+03   0.803E-02 -.306E-01 0.788E+01
   0.204E+02 0.873E+01 0.945E+03   -.204E+02 -.878E+01 -.937E+03   0.163E-02 0.344E-01 -.793E+01
   0.338E+02 0.216E+01 0.969E+03   -.339E+02 -.228E+01 -.961E+03   0.610E-01 0.970E-01 -.792E+01
   0.404E+02 0.238E+01 -.906E+03   -.405E+02 -.244E+01 0.898E+03   0.303E-01 0.449E-01 0.788E+01
   0.554E+02 0.317E+02 -.888E+03   -.553E+02 -.318E+02 0.880E+03   -.999E-01 0.780E-01 0.784E+01
   0.217E+02 -.758E+01 0.947E+03   -.218E+02 0.756E+01 -.939E+03   0.101E+00 0.145E-01 -.793E+01
   0.199E+02 -.199E+02 0.952E+03   -.199E+02 0.199E+02 -.944E+03   0.623E-01 -.623E-01 -.788E+01
   0.249E+02 -.177E+02 -.913E+03   -.250E+02 0.177E+02 0.905E+03   0.911E-01 -.862E-02 0.789E+01
   0.654E+02 -.291E+02 -.878E+03   -.660E+02 0.290E+02 0.869E+03   0.434E+00 0.706E-01 0.792E+01
   0.105E+02 -.105E+02 0.937E+03   -.105E+02 0.105E+02 -.929E+03   0.294E-01 -.294E-01 -.791E+01
   0.740E+01 -.857E+01 0.936E+03   -.740E+01 0.862E+01 -.928E+03   0.486E-02 -.387E-01 -.792E+01
   0.901E+01 -.806E+01 -.921E+03   -.902E+01 0.810E+01 0.913E+03   0.105E-01 -.289E-01 0.789E+01
   0.177E+02 -.249E+02 -.913E+03   -.177E+02 0.250E+02 0.905E+03   0.862E-02 -.911E-01 0.789E+01
   0.393E+01 -.325E+00 0.936E+03   -.394E+01 0.345E+00 -.928E+03   0.254E-02 -.153E-01 -.792E+01
   0.414E+00 0.115E+02 0.939E+03   -.432E+00 -.116E+02 -.931E+03   0.136E-01 0.206E-01 -.792E+01
   0.699E+01 0.146E+02 -.918E+03   -.701E+01 -.146E+02 0.910E+03   0.132E-01 -.125E-01 0.789E+01
   0.145E-09 0.372E-08 -.919E+03   -.299E-09 -.769E-08 0.911E+03   -.756E-22 0.739E-22 0.789E+01
   0.873E+01 0.204E+02 0.945E+03   -.878E+01 -.204E+02 -.937E+03   0.344E-01 0.163E-02 -.793E+01
   0.216E+01 0.338E+02 0.969E+03   -.228E+01 -.339E+02 -.961E+03   0.970E-01 0.610E-01 -.792E+01
   0.317E+02 0.554E+02 -.888E+03   -.318E+02 -.553E+02 0.880E+03   0.780E-01 -.999E-01 0.784E+01
   0.238E+01 0.404E+02 -.906E+03   -.244E+01 -.405E+02 0.898E+03   0.449E-01 0.303E-01 0.788E+01
   0.250E+02 0.250E+02 0.984E+03   -.252E+02 -.252E+02 -.976E+03   0.943E-01 0.943E-01 -.808E+01
   -.974E-09 -.832E-08 0.102E+04   0.201E-08 0.172E-07 -.101E+04   -.707E-22 0.299E-22 -.787E+01
   0.101E+03 0.219E+02 -.766E+03   -.101E+03 -.227E+02 0.759E+03   0.739E-01 0.511E+00 0.690E+01
   0.219E+02 0.101E+03 -.766E+03   -.227E+02 -.101E+03 0.759E+03   0.511E+00 0.739E-01 0.690E+01
   0.238E+02 -.238E+02 0.990E+03   -.237E+02 0.237E+02 -.982E+03   -.308E-01 0.308E-01 -.733E+01
   -.216E+01 -.338E+02 0.969E+03   0.228E+01 0.339E+02 -.961E+03   -.970E-01 -.610E-01 -.792E+01
   0.291E+02 -.654E+02 -.878E+03   -.290E+02 0.660E+02 0.869E+03   -.706E-01 -.434E+00 0.792E+01
   -.219E+02 -.101E+03 -.766E+03   0.227E+02 0.101E+03 0.759E+03   -.511E+00 -.739E-01 0.690E+01
   0.758E+01 -.217E+02 0.947E+03   -.756E+01 0.218E+02 -.939E+03   -.145E-01 -.101E+00 -.793E+01
   -.414E+00 -.115E+02 0.939E+03   0.432E+00 0.116E+02 -.931E+03   -.136E-01 -.206E-01 -.792E+01
[...]
   -.120E+02 0.881E+01 0.708E+03   0.121E+02 -.883E+01 -.712E+03   -.639E-01 0.273E-01 0.353E+01
   -.450E+01 0.525E+01 0.702E+03   0.452E+01 -.526E+01 -.706E+03   -.252E-01 0.150E-01 0.352E+01
   -.275E+02 0.888E+01 -.682E+03   0.276E+02 -.886E+01 0.686E+03   -.728E-01 -.332E-01 -.357E+01
   -.129E+02 -.546E+00 -.689E+03   0.129E+02 0.562E+00 0.693E+03   -.131E-01 -.211E-01 -.357E+01
   -.178E+02 -.804E+00 0.713E+03   0.178E+02 0.843E+00 -.717E+03   -.385E-01 -.544E-01 0.352E+01
   -.818E+01 0.346E+01 0.705E+03   0.820E+01 -.346E+01 -.709E+03   -.319E-01 -.691E-02 0.352E+01
   -.246E+02 -.104E+02 -.684E+03   0.246E+02 0.105E+02 0.688E+03   0.704E-02 -.398E-01 -.359E+01
   -.779E+01 -.722E+01 -.691E+03   0.778E+01 0.723E+01 0.695E+03   0.139E-01 -.534E-02 -.357E+01
   -.110E+02 -.861E+01 0.707E+03   0.110E+02 0.862E+01 -.711E+03   0.836E-02 -.864E-02 0.351E+01
   -.755E+01 -.385E+01 0.705E+03   0.755E+01 0.386E+01 -.709E+03   0.119E-02 -.166E-01 0.352E+01
   -.985E+01 -.985E+01 -.691E+03   0.984E+01 0.984E+01 0.695E+03   0.131E-01 0.131E-01 -.357E+01
   -.352E+01 -.352E+01 -.693E+03   0.351E+01 0.351E+01 0.697E+03   0.614E-02 0.614E-02 -.356E+01
   -.501E+01 -.390E+01 0.702E+03   0.501E+01 0.390E+01 -.706E+03   -.122E-03 0.982E-02 0.352E+01
   -.390E+01 -.501E+01 0.702E+03   0.390E+01 0.501E+01 -.706E+03   0.982E-02 -.122E-03 0.352E+01
   0.886E-08 0.817E-06 0.955E+01   0.353E-11 -.647E-12 -.193E-11   -.335E-15 0.607E-16 -.103E+02

 POSITION                                       TOTAL-FORCE (eV/Angst)
     11.48437      9.65448     13.82858        -0.009808      0.009808      0.039090
      9.65448     11.48437     13.82858         0.009808     -0.009808      0.039090
      0.00000      0.00000      9.00000         0.000000     -0.000000      0.402867
      2.11389      2.11389      9.00000         0.001235      0.001235      0.403281
      0.00000      2.11389     11.11389         0.002699     -0.000562     -0.397555
      2.11389      0.00000     11.11389        -0.000562      0.002699     -0.397555
      0.00000      4.22777      9.00000         0.004505     -0.001211      0.403034
      2.11389      6.34166      9.00000         0.003260     -0.002002      0.403956
      0.00000      6.34166     11.11389         0.006261     -0.000821     -0.396728
      2.11389      4.22777     11.11389         0.004219      0.000548     -0.396553
      0.00000      8.45554      9.00000         0.003935     -0.000694      0.403363
      2.11389     10.56943      9.00000        -0.005558     -0.004018      0.403848
      0.00000     10.56943     11.11389         0.000000     -0.000000     -0.396096
      2.11389      8.45554     11.11389         0.003563     -0.003701     -0.394807
      0.00000     12.68331      9.00000        -0.003935      0.000694      0.403363
      2.11389     14.79720      9.00000        -0.010217      0.001483      0.402709
      0.00000     14.79720     11.11389        -0.006261      0.000821     -0.396728
      2.11389     12.68331     11.11389        -0.010106     -0.002546     -0.396074
      0.00000     16.91108      9.00000        -0.004505      0.001211      0.403034
      2.11389     19.02497      9.00000        -0.003336      0.003336      0.402554
      0.00000     19.02497     11.11389        -0.002699      0.000562     -0.397555
      2.11389     16.91108     11.11389        -0.007739      0.003016     -0.397339
      4.22777      0.00000      9.00000        -0.001211      0.004505      0.403034
      6.34166      2.11389      9.00000        -0.002002      0.003260      0.403956
      4.22777      2.11389     11.11389         0.000548      0.004219     -0.396553
      6.34166      0.00000     11.11389        -0.000821      0.006261     -0.396728
      4.22777      4.22777      9.00000         0.000982      0.000982      0.405048
      6.34166      6.34166      9.00000        -0.003219     -0.003219      0.412728
      4.22777      6.34166     11.11389         0.008760     -0.001444     -0.391893
      6.34166      4.22777     11.11389        -0.001444      0.008760     -0.391893
      4.22777      8.45554      9.00000        -0.001302     -0.009713      0.405892
      6.34166     10.56943      9.00000        -0.019344     -0.031453      0.399570
      4.22777     10.56943     11.11389        -0.009568     -0.013765     -0.389677
      6.34166      8.45554     11.11389         0.034312     -0.015502     -0.359268
      4.22777     12.68331      9.00000        -0.025681     -0.004253      0.404260
      6.34166     14.79720      9.00000        -0.021477      0.021477      0.389152
      4.22777     14.79720     11.11389        -0.024621      0.003284     -0.397495
      6.34166     12.68331     11.11389        -0.134165     -0.026227     -0.396621
      4.22777     16.91108      9.00000        -0.008476      0.008476      0.400765
      6.34166     19.02497      9.00000        -0.001483      0.010217      0.402709
      4.22777     19.02497     11.11389        -0.003016      0.007739     -0.397339
      6.34166     16.91108     11.11389        -0.003284      0.024621     -0.397495
      8.45554      0.00000      9.00000        -0.000694      0.003935      0.403363
     10.56943      2.11389      9.00000        -0.004018     -0.005558      0.403848
      8.45554      2.11389     11.11389        -0.003701      0.003563     -0.394807
     10.56943      0.00000     11.11389         0.000000     -0.000000     -0.396096
      8.45554      4.22777      9.00000        -0.009713     -0.001302      0.405892
     10.56943      6.34166      9.00000        -0.031453     -0.019344      0.399570
      8.45554      6.34166     11.11389        -0.015502      0.034312     -0.359268
     10.56943      4.22777     11.11389        -0.013765     -0.009568     -0.389677
      8.45554      8.45554      9.00000        -0.024609     -0.024609      0.434675
     10.56943     10.56943      9.00000         0.000000     -0.000000      0.322203
      8.45554     10.56943     11.11389        -0.073014     -0.238273     -0.284978
     10.56943      8.45554     11.11389        -0.238273     -0.073014     -0.284978
      8.45554     12.68331      9.00000         0.010820     -0.010820      0.258490
     10.56943     14.79720      9.00000         0.031453      0.019344      0.399570
      8.45554     14.79720     11.11389         0.026227      0.134165     -0.396621
     10.56943     12.68331     11.11389         0.238273      0.073014     -0.284978
      8.45554     16.91108      9.00000         0.004253      0.025681      0.404260
     10.56943     19.02497      9.00000         0.004018      0.005558      0.403848
[...]
     19.02497      6.34166     11.11389        -0.009566      0.001726      0.510077
     16.91108      6.34166      9.00000        -0.017964      0.007668     -0.513827
     19.02497      4.22777      9.00000        -0.007001      0.004152     -0.516144
     16.91108      8.45554     11.11389        -0.021038     -0.008912      0.508513
     19.02497     10.56943     11.11389        -0.003810     -0.005852      0.507992
     16.91108     10.56943      9.00000        -0.011811     -0.014805     -0.518260
     19.02497      8.45554      9.00000        -0.009008     -0.001850     -0.516507
     16.91108     12.68331     11.11389         0.001290     -0.011311      0.501690
     19.02497     14.79720     11.11389         0.003770     -0.001513      0.508661
     16.91108     14.79720      9.00000         0.002124     -0.002567     -0.520182
     19.02497     12.68331      9.00000         0.000234     -0.004649     -0.518092
     16.91108     16.91108     11.11389         0.003494      0.003494      0.507676
     19.02497     19.02497     11.11389         0.001684      0.001684      0.510445
     16.91108     19.02497      9.00000        -0.000058      0.002674     -0.517416
     19.02497     16.91108      9.00000         0.002674     -0.000058     -0.517416
    total drift:                                0.000000      0.000001     -0.723204

  FREE ENERGIE OF THE ION-ELECTRON SYSTEM (eV)
  free  energy   TOTEN  =     -1776.93882074 eV

  energy  without entropy=    -1776.93882074  energy(sigma->0) =    -1776.93882074