 vasp.6.4.1 05Apr23 (build May 06 2023 19:47:20) complex

 executed on             LinuxIFC date 2023.07.05  06:56:35

 INCAR:
   SYSTEM = MgO-rocksalt
   ISMEAR = 0
   SIGMA = 0.05
   EDIFF = 1E-6
   ALGO = ALL
   ISTART = 0
   IBRION = -1
   NSW = 0
   ISYM = 2
   DIPOL = 0.5 0.5 0.5
   IDIPOL = 3
   LDIPOL = .TRUE.
   GGA = PE
   IVDW = 11
   ENCUT = 520
   PREC = Accurate
   LASPH = .TRUE.
   LREAL = Auto
   ISPIN = 1
   NELM = 200
   NELMIN = 8
   NCORE = 16
   KPAR = 1
   LWAVE = .FALSE.
   LCHARG = .FALSE.

 POTCAR:    PAW_PBE Cu 22Jun2005
 POTCAR:    PAW_PBE Mg_pv 13Apr2007
 POTCAR:    PAW_PBE O 08Apr2002
 POTCAR:    PAW_PBE Cu 22Jun2005
   VRHFIN =Cu: d10 p1

   TITEL  = PAW_PBE Cu 22Jun2005
   POMASS =   63.546; ZVAL   =   11.000    mass and valenz
   ENMAX  =  295.446; ENMIN  =  221.585 eV

   TITEL  = PAW_PBE Mg_pv 13Apr2007
   POMASS =   24.305; ZVAL   =    8.000    mass and valenz
   ENMAX  =  403.929; ENMIN  =  302.947 eV

   TITEL  = PAW_PBE O 08Apr2002
   POMASS =   16.000; ZVAL   =    6.000    mass and valenz
   ENMAX  =  400.000; ENMIN  =  300.000 eV

 Optimization of the real space projectors (new method)

 maximal supplied QI-value         = 16.25
 optimisation between [QCUT,QGAM] = [ 11.54, 23.24] = [ 37.28,151.24] Ry
 Optimized for a Real-space Cutoff    1.53 Angstroem

   l    n(q)    QCUT    max X(q) W(low)/X(q) W(high)/X(q)  e(spline)
   2     10    11.539     4.610    0.96E-04    0.13E-03    0.19E-06
   2     10    11.539     8.522    0.16E-03    0.21E-03    0.28E-06
   0     11    11.539    51.609    0.45E-04    0.31E-04    0.11E-06
   0     11    11.539    27.747    0.39E-04    0.29E-04    0.10E-06
   1     10    11.539    20.408    0.70E-05    0.38E-04    0.18E-06
   1     10    11.539    13.425    0.66E-05    0.34E-04    0.17E-06
 Optimization of the real space projectors (new method)

[...]

   l    n(q)    QCUT    max X(q) W(low)/X(q) W(high)/X(q)  e(spline)
   1      8    11.527     2.974    0.44E-04    0.56E-04    0.12E-06
   1      8    11.527     4.279    0.12E-03    0.12E-03    0.26E-06
   0      9    11.527    16.381    0.46E-04    0.64E-04    0.78E-07
   0      9    11.527     5.611    0.26E-04    0.43E-04    0.55E-07
   2      8    11.527     4.652    0.22E-03    0.72E-04    0.47E-07
 Optimization of the real space projectors (new method)

 maximal supplied QI-value         = 24.76
 optimisation between [QCUT,QGAM] = [ 11.64, 23.27] = [ 37.91,151.63] Ry
 Optimized for a Real-space Cutoff    1.14 Angstroem

   l    n(q)    QCUT    max X(q) W(low)/X(q) W(high)/X(q)  e(spline)
   0      8    11.635    20.381    0.10E-03    0.33E-03    0.24E-06
   0      8    11.635    15.268    0.11E-03    0.35E-03    0.26E-06
   1      7    11.635     5.964    0.24E-03    0.31E-03    0.30E-06
   1      7    11.635     5.382    0.22E-03    0.25E-03    0.26E-06
  PAW_PBE Cu 22Jun2005                  :
  PAW_PBE Mg_pv 13Apr2007               :
  PAW_PBE O 08Apr2002                   :

 POSCAR: Cu Mg  O
  positions in direct lattice
 exchange correlation table for  LEXCH =        8
   RHO(1)=    0.500       N(1)  =     2000
   RHO(2)=  100.500       N(2)  =     4000

 ion  position               nearest neighbor table
   1  0.538  0.562  0.615-   2 2.24
   2  0.462  0.638  0.615-   1 2.24
   3  0.000  0.000  0.407- 105 2.11 106 2.11 121 2.11 186 2.11 103 2.11
   4  0.100  0.100  0.407- 105 2.11 106 2.11 110 2.11 125 2.11 104 2.11
   5  0.000  0.100  0.503- 103 2.11 104 2.11 107 2.11 184 2.11 105 2.11
   6  0.100  0.000  0.503- 103 2.11 104 2.11 120 2.11 123 2.11 106 2.11
   7  0.000  0.200  0.407- 109 2.11 105 2.11 110 2.11 190 2.11 107 2.11
   8  0.100  0.300  0.407- 110 2.11 109 2.11 114 2.11 129 2.11 108 2.11
   9  0.000  0.300  0.503- 107 2.11 108 2.11 111 2.11 188 2.11 109 2.11
  10  0.100  0.200  0.503- 108 2.11 107 2.11 104 2.11 127 2.11 110 2.11
  11  0.000  0.400  0.407- 109 2.11 113 2.11 114 2.11 194 2.11 111 2.11
  12  0.100  0.500  0.407- 113 2.11 114 2.11 118 2.11 133 2.11 112 2.11
  13  0.000  0.500  0.503- 111 2.11 112 2.11 115 2.11 192 2.11 113 2.11
  14  0.100  0.400  0.503- 108 2.11 111 2.11 112 2.11 131 2.11 114 2.11
  15  0.000  0.600  0.407- 113 2.11 117 2.11 118 2.11 198 2.11 115 2.11
  16  0.100  0.700  0.407- 122 2.11 118 2.11 117 2.11 137 2.11 116 2.11
  17  0.000  0.700  0.503- 119 2.11 116 2.11 115 2.11 196 2.11 117 2.11
  18  0.100  0.600  0.503- 112 2.11 115 2.11 116 2.11 135 2.11 118 2.11
  19  0.000  0.800  0.407- 117 2.11 121 2.11 122 2.11 202 2.11 119 2.11
  20  0.100  0.900  0.407- 106 2.11 121 2.11 122 2.11 141 2.11 120 2.11
  21  0.000  0.900  0.503- 103 2.11 119 2.11 120 2.11 200 2.11 121 2.11
  22  0.100  0.800  0.503- 116 2.11 119 2.11 120 2.11 139 2.11 122 2.11
  23  0.200  0.000  0.407- 126 2.11 125 2.11 106 2.11 141 2.11 123 2.11
  24  0.300  0.100  0.407- 125 2.11 126 2.11 130 2.11 145 2.11 124 2.11
  25  0.200  0.100  0.503- 124 2.11 123 2.11 104 2.11 127 2.11 125 2.11
  26  0.300  0.000  0.503- 123 2.11 124 2.11 140 2.11 143 2.11 126 2.11
  27  0.200  0.200  0.407- 129 2.11 130 2.11 110 2.11 125 2.11 127 2.11
  28  0.300  0.300  0.407- 129 2.11 130 2.11 134 2.11 149 2.11 128 2.11
  29  0.200  0.300  0.503- 127 2.11 128 2.11 108 2.11 131 2.11 129 2.11
  30  0.300  0.200  0.503- 127 2.11 128 2.11 124 2.11 147 2.11 130 2.11
  31  0.200  0.400  0.407- 134 2.11 129 2.11 133 2.11 114 2.11 131 2.11
  32  0.300  0.500  0.407- 133 2.11 134 2.11 138 2.11 153 2.11 132 2.11
  33  0.200  0.500  0.503- 132 2.11 131 2.11 112 2.11 135 2.11 133 2.11
  34  0.300  0.400  0.503- 131 2.11 128 2.11 132 2.11 151 2.11 134 2.11
  35  0.200  0.600  0.407- 138 2.11 133 2.11 137 2.11 118 2.11 135 2.11
  36  0.300  0.700  0.407- 137 2.11 142 2.11 138 2.11 157 2.11 136 2.11
  37  0.200  0.700  0.503- 136 2.11 139 2.11 116 2.11 135 2.11 137 2.11
  38  0.300  0.600  0.503- 135 2.11 132 2.11 136 2.11 155 2.11 138 2.11
  39  0.200  0.800  0.407- 137 2.11 142 2.11 141 2.11 122 2.11 139 2.11
  40  0.300  0.900  0.407- 141 2.11 126 2.11 142 2.11 161 2.11 140 2.11
  41  0.200  0.900  0.503- 140 2.11 123 2.11 139 2.11 120 2.11 141 2.11
  42  0.300  0.800  0.503- 136 2.11 139 2.11 140 2.11 159 2.11 142 2.11
  43  0.400  0.000  0.407- 126 2.11 145 2.11 146 2.11 161 2.11 143 2.11
  44  0.500  0.100  0.407- 145 2.11 146 2.11 150 2.11 165 2.11 144 2.11
  45  0.400  0.100  0.503- 124 2.11 143 2.11 144 2.11 147 2.11 145 2.11
  46  0.500  0.000  0.503- 143 2.11 144 2.11 160 2.11 163 2.11 146 2.11
  47  0.400  0.200  0.407- 149 2.11 145 2.11 130 2.11 150 2.11 147 2.11
  48  0.500  0.300  0.407- 150 2.11 149 2.11 154 2.11 169 2.11 148 2.11
  49  0.400  0.300  0.503- 147 2.11 128 2.11 148 2.11 151 2.11 149 2.11
  50  0.500  0.200  0.503- 148 2.11 147 2.11 144 2.11 167 2.11 150 2.11
  51  0.400  0.400  0.407- 134 2.11 149 2.11 153 2.11 154 2.11 151 2.11
  52  0.500  0.500  0.407- 153 2.11 154 2.11 158 2.11 173 2.11 152 2.11
  53  0.400  0.500  0.503- 132 2.11 151 2.11 152 2.11 155 2.11 153 2.11
  54  0.500  0.400  0.503- 148 2.11 151 2.11 152 2.11 171 2.11 154 2.11
  55  0.400  0.600  0.407- 138 2.11 153 2.11 157 2.11 158 2.11 155 2.11
  56  0.500  0.700  0.407- 162 2.11 158 2.11 157 2.11 177 2.11 156 2.11
  57  0.400  0.700  0.503- 159 2.11 155 2.11 156 2.11 136 2.11 157 2.11
  58  0.500  0.600  0.503- 152 2.11 155 2.11 156 2.11 175 2.11 158 2.11
  59  0.400  0.800  0.407- 157 2.11 142 2.11 161 2.11 162 2.11 159 2.11
  60  0.500  0.900  0.407- 146 2.11 161 2.11 162 2.11 181 2.11 160 2.11
[...]
 188  0.900  0.300  0.503-  90 2.11  89 2.11   9 2.11  94 2.11  88 2.11
 189  0.800  0.300  0.407-  68 2.11  87 2.11  88 2.11  91 2.11  89 2.11
 190  0.900  0.200  0.407-  88 2.11  84 2.11  87 2.11   7 2.11  90 2.11
 191  0.800  0.400  0.503-  74 2.11  89 2.11  93 2.11  94 2.11  91 2.11
 192  0.900  0.500  0.503-  13 2.11  93 2.11  94 2.11  98 2.11  92 2.11
 193  0.800  0.500  0.407-  72 2.11  91 2.11  92 2.11  95 2.11  93 2.11
 194  0.900  0.400  0.407-  11 2.11  88 2.11  91 2.11  92 2.11  94 2.11
 195  0.800  0.600  0.503-  78 2.11  93 2.11  97 2.11  98 2.11  95 2.11
 196  0.900  0.700  0.503- 102 2.11  97 2.11  98 2.11  17 2.11  96 2.11
 197  0.800  0.700  0.407-  76 2.11  99 2.11  96 2.11  95 2.11  97 2.11
 198  0.900  0.600  0.407-  15 2.11  92 2.11  95 2.11  96 2.11  98 2.11
 199  0.800  0.800  0.503-  82 2.11  97 2.11 101 2.11 102 2.11  99 2.11
 200  0.900  0.900  0.503-  21 2.11  86 2.11 101 2.11 102 2.11 100 2.11
 201  0.800  0.900  0.407-  80 2.11  83 2.11  99 2.11 100 2.11 101 2.11
 202  0.900  0.800  0.407-  96 2.11  19 2.11  99 2.11 100 2.11 102 2.11

  LATTYP: Found a simple tetragonal cell.
 ALAT       =    21.1388521970
 C/A-ratio  =     1.0461251639

  Lattice vectors:

 A1 = (  21.1388521970,   0.0000000000,   0.0000000000)
 A2 = (   0.0000000000,  21.1388521970,   0.0000000000)
 A3 = (   0.0000000000,   0.0000000000,  22.1138852197)

Analysis of symmetry for initial positions (statically):
 Subroutine PRICEL returns:
 Original cell was already a primitive cell.

 Routine SETGRP: Setting up the symmetry group for a
 simple tetragonal supercell.

 Subroutine GETGRP returns: Found  4 space group operations
 (whereof  1 operations were pure point group operations)
 out of a pool of 16 trial point group operations.

The static configuration has the point symmetry C_1 .
 The point group associated with its full space group is C_2v.

Analysis of symmetry for dynamics (positions and initial velocities):
 Subroutine PRICEL returns:
 Original cell was already a primitive cell.

 Routine SETGRP: Setting up the symmetry group for a
 simple tetragonal supercell.

 Subroutine GETGRP returns: Found  4 space group operations
 (whereof  1 operations were pure point group operations)
 out of a pool of 16 trial point group operations.

The dynamic configuration has the point symmetry C_1 .
 The point group associated with its full space group is C_2v.

 Subroutine INISYM returns: Found  4 space group operations
 (whereof  1 operations are pure point group operations),
 and found     1 'primitive' translations

                                     Primitive cell

  volume of cell :    9881.6133

  direct lattice vectors                    reciprocal lattice vectors
    21.138852197  0.000000000  0.000000000     0.047306258  0.000000000  0.000000000
     0.000000000 21.138852197  0.000000000     0.000000000  0.047306258  0.000000000
     0.000000000  0.000000000 22.113885220     0.000000000  0.000000000  0.045220457

  length of vectors
    21.138852197 21.138852197 22.113885220     0.047306258  0.047306258  0.045220457

  position of ions in fractional coordinates (direct lattice)
     0.537531089  0.562468875  0.614848637
     0.462468911  0.637531053  0.614848637
     0.000000000  0.000000000  0.406984115
     0.100000000  0.100000000  0.406984115
     0.000000000  0.100000000  0.502574971
     0.100000000  0.000000000  0.502574971
     0.000000000  0.200000000  0.406984115
     0.100000000  0.300000000  0.406984115
     0.000000000  0.300000000  0.502574971
     0.100000000  0.200000000  0.502574971
     0.000000000  0.400000000  0.406984115
     0.100000000  0.500000000  0.406984115
     0.000000000  0.500000000  0.502574971
     0.100000000  0.400000000  0.502574971
[...]
    855       4.6489      0.00000
    856       4.6608      0.00000
    857       4.6718      0.00000
    858       4.6828      0.00000
    859       4.6995      0.00000
    860       4.7847      0.00000
    861       4.9668      0.00000
    862       5.0198      0.00000
    863       5.1182      0.00000
    864       5.2743      0.00000

 soft charge-density along one line, spin component           1
         0         1         2         3         4         5         6         7         8         9
 total charge-density along one line

------------------------ aborting loop because EDIFF is reached ----------------------------------------

         DFTD3 V3.0 Rev 1
 IVDW         = 11
 DF pbe
 parameters
 VDW_S6       =    1.0000
 VDW_S8       =    0.7220
 VDW_SR       =    1.2170
 rs18     =    1.0000
 alpha6   =   14.0000
 alpha8   =   16.0000
 k1-k3    =   16.0000    1.3333   -4.0000
 VDW_RADIUS   =   50.2022 A
 VDW_CNRADIUS =   21.1671 A
 Edisp (eV)  -18.93383

 E6    (eV) :    -7.9183
 E8    (eV) :   -11.0156
 % E8        : 58.18

  FORCE on cell =-STRESS in cart. coord.  units (eV):
  Direction    XX          YY          ZZ          XY          YZ          ZX
  Alpha Z  1354.41543  1354.41543  1354.41543
  Ewald  480381.00929480381.00929************  -397.46722     0.00001    -0.00002
  Hartree509158.11797509158.11797************  -292.94693    -0.00000    -0.00002
  E(xc)   -7777.67378 -7777.67378 -7809.33590    -0.22916     0.00000     0.00000
  Local  ************************************   684.36173    -0.00001     0.00004
  n-local -8811.23336 -8811.23335 -8930.90282     0.51563    -0.00000     0.00001
  augment  3468.52621  3468.52621  3412.77857     2.53670    -0.00000    -0.00000
  Kinetic 22859.76125 22859.76120 23115.46621     2.51701     0.00001    -0.00002
  Fock        0.00000     0.00000     0.00000     0.00000     0.00000     0.00000
  vdW       -25.86598   -25.86598    -3.03605    -0.03483    -0.00000     0.00000
  Total    -175.34187  -175.34187    15.16785    -0.74706     0.00000     0.00000
  in kB     -28.42944   -28.42944     2.45927    -0.12113     0.00000     0.00000

 VOLUME and BASIS-vectors are now :
  energy-cutoff  :      520.00
  volume of cell :     9881.61
      direct lattice vectors                 reciprocal lattice vectors
    21.138852197  0.000000000  0.000000000     0.047306258  0.000000000  0.000000000
     0.000000000 21.138852197  0.000000000     0.000000000  0.047306258  0.000000000
     0.000000000  0.000000000 22.113885220     0.000000000  0.000000000  0.045220457

  length of vectors
    21.138852197 21.138852197 22.113885220     0.047306258  0.047306258  0.045220457

 FORCES acting on ions:
    Electron-Ion                     Ewald-Force                    Non-Local-Force
   -.254E+03 0.254E+03 -.212E+04   0.246E+03 -.246E+03 0.212E+04   0.857E+01 -.857E+01 -.140E+00
   0.254E+03 -.254E+03 -.212E+04   -.246E+03 0.246E+03 0.212E+04   -.857E+01 0.857E+01 -.140E+00
   0.159E+00 -.352E+01 0.931E+03   -.162E+00 0.353E+01 -.923E+03   0.243E-02 -.321E-02 -.741E+01
   0.352E+01 -.159E+00 0.931E+03   -.353E+01 0.162E+00 -.923E+03   0.321E-02 -.243E-02 -.741E+01
   0.116E-07 -.186E-03 -.923E+03   0.784E-07 -.160E-05 0.915E+03   -.112E-20 0.113E-20 0.738E+01
   0.530E+01 -.530E+01 -.922E+03   -.531E+01 0.531E+01 0.915E+03   0.632E-02 -.632E-02 0.738E+01
   -.159E+00 0.352E+01 0.931E+03   0.162E+00 -.353E+01 -.923E+03   -.243E-02 0.321E-02 -.741E+01
   0.548E+01 0.692E+01 0.933E+03   -.549E+01 -.692E+01 -.925E+03   0.299E-02 0.574E-02 -.741E+01
   -.438E+00 0.725E+01 -.922E+03   0.446E+00 -.725E+01 0.914E+03   -.618E-02 0.407E-02 0.738E+01
   0.483E+01 0.483E+01 -.923E+03   -.483E+01 -.483E+01 0.915E+03   0.254E-03 0.254E-03 0.738E+01
   -.370E+00 0.627E+01 0.934E+03   0.378E+00 -.628E+01 -.926E+03   -.618E-02 0.560E-02 -.741E+01
   0.107E+02 0.528E+01 0.937E+03   -.107E+02 -.529E+01 -.930E+03   0.147E-01 0.832E-02 -.742E+01
   -.423E+00 0.508E+01 -.920E+03   0.430E+00 -.508E+01 0.912E+03   -.588E-02 0.265E-02 0.738E+01
   0.109E+02 0.984E+01 -.920E+03   -.109E+02 -.985E+01 0.912E+03   0.728E-03 0.620E-02 0.738E+01
   0.210E-06 -.189E-03 0.936E+03   -.118E-06 0.158E-05 -.928E+03   -.454E-21 -.163E-20 -.742E+01
   0.114E+02 -.486E+01 0.938E+03   -.114E+02 0.486E+01 -.930E+03   0.285E-01 -.239E-02 -.742E+01
   0.423E+00 -.508E+01 -.920E+03   -.430E+00 0.508E+01 0.912E+03   0.588E-02 -.265E-02 0.738E+01
   0.178E+02 0.582E+00 -.917E+03   -.178E+02 -.589E+00 0.909E+03   0.184E-01 0.530E-02 0.738E+01
   0.370E+00 -.627E+01 0.934E+03   -.378E+00 0.628E+01 -.926E+03   0.618E-02 -.560E-02 -.741E+01
   0.614E+01 -.719E+01 0.933E+03   -.615E+01 0.720E+01 -.926E+03   0.121E-01 -.922E-02 -.741E+01
   0.438E+00 -.725E+01 -.922E+03   -.446E+00 0.725E+01 0.914E+03   0.618E-02 -.407E-02 0.738E+01
   0.123E+02 -.995E+01 -.919E+03   -.124E+02 0.996E+01 0.912E+03   0.208E-01 -.544E-02 0.738E+01
   0.718E+01 -.614E+01 0.933E+03   -.720E+01 0.615E+01 -.926E+03   0.922E-02 -.121E-01 -.741E+01
   0.627E+01 -.370E+00 0.934E+03   -.628E+01 0.378E+00 -.926E+03   0.560E-02 -.618E-02 -.741E+01
   0.725E+01 -.438E+00 -.922E+03   -.725E+01 0.446E+00 0.914E+03   0.407E-02 -.618E-02 0.738E+01
   0.995E+01 -.123E+02 -.919E+03   -.996E+01 0.124E+02 0.912E+03   0.544E-02 -.208E-01 0.738E+01
   0.692E+01 0.548E+01 0.933E+03   -.692E+01 -.549E+01 -.925E+03   0.574E-02 0.299E-02 -.741E+01
   0.121E+02 0.156E+02 0.940E+03   -.121E+02 -.156E+02 -.932E+03   0.174E-01 0.235E-01 -.742E+01
   0.136E+02 0.136E+02 -.919E+03   -.136E+02 -.136E+02 0.912E+03   0.464E-02 0.464E-02 0.738E+01
   0.984E+01 0.109E+02 -.920E+03   -.985E+01 -.109E+02 0.912E+03   0.620E-02 0.728E-03 0.738E+01
   0.156E+02 0.121E+02 0.940E+03   -.156E+02 -.121E+02 -.932E+03   0.235E-01 0.174E-01 -.742E+01
   0.310E+02 0.170E+02 0.962E+03   -.311E+02 -.171E+02 -.954E+03   0.111E+00 0.523E-01 -.745E+01
   0.346E+02 0.142E+02 -.910E+03   -.346E+02 -.142E+02 0.902E+03   0.226E-01 0.182E-01 0.737E+01
   0.334E+02 0.334E+02 -.906E+03   -.334E+02 -.334E+02 0.898E+03   0.233E-01 0.233E-01 0.736E+01
   0.254E+02 0.918E+00 0.948E+03   -.254E+02 -.933E+00 -.940E+03   0.703E-01 0.115E-01 -.743E+01
   0.327E+02 -.156E+02 0.965E+03   -.327E+02 0.156E+02 -.958E+03   0.684E-01 -.339E-01 -.738E+01
   0.378E+02 -.126E+02 -.908E+03   -.379E+02 0.126E+02 0.901E+03   0.714E-01 0.103E-02 0.738E+01
   0.840E+02 0.687E+01 -.871E+03   -.843E+02 -.693E+01 0.864E+03   0.222E+00 0.517E-01 0.738E+01
   0.168E+02 -.123E+02 0.941E+03   -.168E+02 0.124E+02 -.934E+03   0.340E-01 -.199E-01 -.741E+01
   0.123E+02 -.168E+02 0.941E+03   -.124E+02 0.168E+02 -.934E+03   0.199E-01 -.340E-01 -.741E+01
   0.149E+02 -.149E+02 -.918E+03   -.149E+02 0.149E+02 0.911E+03   0.180E-01 -.180E-01 0.738E+01
   0.374E+02 -.374E+02 -.901E+03   -.375E+02 0.375E+02 0.893E+03   0.575E-01 -.575E-01 0.738E+01
   0.486E+01 -.114E+02 0.938E+03   -.486E+01 0.114E+02 -.930E+03   0.239E-02 -.285E-01 -.742E+01
   0.205E-06 -.183E-03 0.936E+03   -.110E-06 -.428E-05 -.928E+03   0.162E-20 0.451E-21 -.742E+01
   0.508E+01 -.423E+00 -.920E+03   -.508E+01 0.430E+00 0.912E+03   0.265E-02 -.588E-02 0.738E+01
   -.582E+00 -.178E+02 -.917E+03   0.589E+00 0.178E+02 0.909E+03   -.530E-02 -.184E-01 0.738E+01
   0.528E+01 0.107E+02 0.937E+03   -.529E+01 -.107E+02 -.930E+03   0.832E-02 0.147E-01 -.742E+01
   0.918E+00 0.254E+02 0.948E+03   -.933E+00 -.254E+02 -.940E+03   0.115E-01 0.703E-01 -.743E+01
   0.142E+02 0.346E+02 -.910E+03   -.142E+02 -.346E+02 0.902E+03   0.182E-01 0.226E-01 0.737E+01
   0.582E+00 0.178E+02 -.917E+03   -.589E+00 -.178E+02 0.909E+03   0.530E-02 0.184E-01 0.738E+01
   0.170E+02 0.310E+02 0.962E+03   -.171E+02 -.311E+02 -.954E+03   0.523E-01 0.111E+00 -.745E+01
   0.281E+01 0.347E+02 0.101E+04   -.275E+01 -.348E+02 -.100E+04   -.484E-01 0.800E-01 -.713E+01
   0.784E+02 0.784E+02 -.833E+03   -.787E+02 -.787E+02 0.826E+03   0.242E+00 0.242E+00 0.717E+01
   0.687E+01 0.840E+02 -.871E+03   -.693E+01 -.843E+02 0.864E+03   0.517E-01 0.222E+00 0.738E+01
   0.347E+02 0.281E+01 0.101E+04   -.348E+02 -.275E+01 -.100E+04   0.800E-01 -.484E-01 -.713E+01
   -.281E+01 -.347E+02 0.101E+04   0.275E+01 0.348E+02 -.100E+04   0.484E-01 -.800E-01 -.713E+01
   0.866E+02 -.866E+02 -.795E+03   -.868E+02 0.868E+02 0.787E+03   0.126E+00 -.126E+00 0.704E+01
   -.239E-04 -.261E-03 -.613E+03   0.242E-04 0.699E-04 0.610E+03   0.739E-21 -.733E-21 0.343E+01
   0.156E+02 -.327E+02 0.965E+03   -.156E+02 0.327E+02 -.958E+03   0.339E-01 -.684E-01 -.738E+01
   -.918E+00 -.254E+02 0.948E+03   0.933E+00 0.254E+02 -.940E+03   -.115E-01 -.703E-01 -.743E+01
[...]
   -.813E+01 0.813E+01 0.704E+03   0.814E+01 -.814E+01 -.708E+03   -.198E-01 0.198E-01 0.353E+01
   -.319E+01 0.319E+01 0.700E+03   0.320E+01 -.320E+01 -.705E+03   -.716E-02 0.716E-02 0.353E+01
   -.191E+02 0.136E+02 -.687E+03   0.191E+02 -.136E+02 0.691E+03   -.379E-01 0.249E-01 -.358E+01
   -.124E+02 0.480E+01 -.690E+03   0.124E+02 -.480E+01 0.694E+03   -.205E-01 0.123E-02 -.358E+01
   -.173E+02 0.613E+01 0.711E+03   0.173E+02 -.614E+01 -.715E+03   -.543E-01 0.116E-01 0.354E+01
   -.664E+01 0.574E+01 0.703E+03   0.666E+01 -.575E+01 -.707E+03   -.192E-01 0.108E-01 0.353E+01
   -.318E+02 -.146E+01 -.682E+03   0.318E+02 0.148E+01 0.686E+03   -.466E-01 -.231E-01 -.360E+01
   -.114E+02 -.530E+01 -.690E+03   0.114E+02 0.530E+01 0.694E+03   -.913E-02 -.100E-01 -.358E+01
   -.164E+02 -.686E+01 0.710E+03   0.164E+02 0.688E+01 -.715E+03   -.335E-01 -.247E-01 0.352E+01
   -.912E+01 -.258E+00 0.705E+03   0.914E+01 0.262E+00 -.710E+03   -.196E-01 -.590E-02 0.353E+01
   -.170E+02 -.129E+02 -.688E+03   0.170E+02 0.130E+02 0.692E+03   -.134E-01 -.147E-01 -.360E+01
   -.530E+01 -.650E+01 -.693E+03   0.530E+01 0.650E+01 0.697E+03   -.751E-03 -.442E-02 -.358E+01
   -.762E+01 -.762E+01 0.703E+03   0.763E+01 0.763E+01 -.707E+03   -.114E-01 -.114E-01 0.353E+01
   -.598E+01 -.573E+01 0.703E+03   0.599E+01 0.573E+01 -.707E+03   -.635E-02 -.978E-02 0.353E+01
   -.142E-04 -.110E+00 0.935E+01   0.436E-11 -.952E-12 -.580E-11   0.226E-16 -.128E-15 -.994E+01

 POSITION                                       TOTAL-FORCE (eV/Angst)
     11.36279     11.88995     13.59669         0.028086     -0.028086     -0.028832
      9.77606     13.47667     13.59669        -0.028086      0.028086     -0.028832
      0.00000      0.00000      9.00000        -0.000668      0.000879      0.330492
      2.11389      2.11389      9.00000        -0.000879      0.000668      0.330492
      0.00000      2.11389     11.11389         0.000000     -0.000000     -0.323706
      2.11389      0.00000     11.11389        -0.001697      0.001697     -0.323502
      0.00000      4.22777      9.00000         0.000668     -0.000879      0.330492
      2.11389      6.34166      9.00000        -0.000774     -0.001543      0.330998
      0.00000      6.34166     11.11389         0.001673     -0.001085     -0.323122
      2.11389      4.22777     11.11389        -0.000027     -0.000027     -0.323199
      0.00000      8.45554      9.00000         0.001628     -0.001557      0.330867
      2.11389     10.56943      9.00000        -0.003904     -0.002341      0.331544
      0.00000     10.56943     11.11389         0.001556     -0.000713     -0.322034
      2.11389      8.45554     11.11389         0.000143     -0.001567     -0.321389
      0.00000     12.68331      9.00000         0.000000     -0.000000      0.331134
      2.11389     14.79720      9.00000        -0.007299      0.000660      0.331326
      0.00000     14.79720     11.11389        -0.001556      0.000713     -0.322034
      2.11389     12.68331     11.11389        -0.004029     -0.001566     -0.320549
      0.00000     16.91108      9.00000        -0.001628      0.001557      0.330867
      2.11389     19.02497      9.00000        -0.003266      0.002541      0.330409
      0.00000     19.02497     11.11389        -0.001673      0.001085     -0.323122
      2.11389     16.91108     11.11389        -0.005297      0.001475     -0.322324
      4.22777      0.00000      9.00000        -0.002541      0.003266      0.330409
      6.34166      2.11389      9.00000        -0.001557      0.001628      0.330867
      4.22777      2.11389     11.11389        -0.001085      0.001673     -0.323122
      6.34166      0.00000     11.11389        -0.001475      0.005297     -0.322324
      4.22777      4.22777      9.00000        -0.001543     -0.000774      0.330998
      6.34166      6.34166      9.00000        -0.004664     -0.006140      0.332783
      4.22777      6.34166     11.11389        -0.000888     -0.000888     -0.320622
      6.34166      4.22777     11.11389        -0.001567      0.000143     -0.321389
      4.22777      8.45554      9.00000        -0.006140     -0.004664      0.332783
      6.34166     10.56943      9.00000        -0.029436     -0.015663      0.338515
      4.22777     10.56943     11.11389        -0.002865     -0.004356     -0.314634
      6.34166      8.45554     11.11389        -0.002266     -0.002266     -0.306807
      4.22777     12.68331      9.00000        -0.018228     -0.003474      0.333361
      6.34166     14.79720      9.00000        -0.016850      0.009855      0.322581
      4.22777     14.79720     11.11389        -0.017671     -0.000990     -0.317293
      6.34166     12.68331     11.11389        -0.061133     -0.012712     -0.286554
      4.22777     16.91108      9.00000        -0.009146      0.005698      0.330007
      6.34166     19.02497      9.00000        -0.005698      0.009146      0.330007
      4.22777     19.02497     11.11389        -0.004638      0.004638     -0.322464
      6.34166     16.91108     11.11389        -0.011253      0.011253     -0.316759
      8.45554      0.00000      9.00000        -0.000660      0.007299      0.331326
     10.56943      2.11389      9.00000         0.000000     -0.000000      0.331134
      8.45554      2.11389     11.11389        -0.000713      0.001556     -0.322034
     10.56943      0.00000     11.11389         0.001566      0.004029     -0.320549
      8.45554      4.22777      9.00000        -0.002341     -0.003904      0.331544
     10.56943      6.34166      9.00000        -0.003474     -0.018228      0.333361
      8.45554      6.34166     11.11389        -0.004356     -0.002865     -0.314634
     10.56943      4.22777     11.11389        -0.001566     -0.004029     -0.320549
      8.45554      8.45554      9.00000        -0.015663     -0.029436      0.338515
     10.56943     10.56943      9.00000         0.018978     -0.014905      0.260499
      8.45554     10.56943     11.11389        -0.026513     -0.026513     -0.143360
     10.56943      8.45554     11.11389        -0.012712     -0.061133     -0.286554
      8.45554     12.68331      9.00000        -0.014905      0.018978      0.260499
     10.56943     14.79720      9.00000        -0.018978      0.014905      0.260499
      8.45554     14.79720     11.11389        -0.092403      0.092403     -0.423220
     10.56943     12.68331     11.11389         0.000000     -0.000000     -0.151376
      8.45554     16.91108      9.00000        -0.009855      0.016850      0.322581
     10.56943     19.02497      9.00000         0.003474      0.018228      0.333361
[...]
     19.02497      6.34166     11.11389        -0.003552      0.002879      0.510489
     16.91108      6.34166      9.00000        -0.005570      0.005570     -0.518126
     19.02497      4.22777      9.00000        -0.001990      0.001990     -0.518337
     16.91108      8.45554     11.11389        -0.011066      0.007317      0.509346
     19.02497     10.56943     11.11389        -0.005867      0.000391      0.508674
     16.91108     10.56943      9.00000        -0.015949      0.003458     -0.516269
     19.02497      8.45554      9.00000        -0.005389      0.003077     -0.518452
     16.91108     12.68331     11.11389        -0.014268     -0.006537      0.503165
     19.02497     14.79720     11.11389        -0.002665     -0.002812      0.507776
     16.91108     14.79720      9.00000        -0.010079     -0.007154     -0.521589
     19.02497     12.68331      9.00000        -0.005582     -0.001618     -0.519206
     16.91108     16.91108     11.11389        -0.004092     -0.004292      0.504956
     19.02497     19.02497     11.11389        -0.000244     -0.001266      0.509768
     16.91108     19.02497      9.00000        -0.003250     -0.003250     -0.519606
     19.02497     16.91108      9.00000        -0.001832     -0.002780     -0.519268
    total drift:                               -0.000014     -0.110166     -0.592294

  FREE ENERGIE OF THE ION-ELECTRON SYSTEM (eV)
  free  energy   TOTEN  =     -1160.10624816 eV

  energy  without entropy=    -1160.10624816  energy(sigma->0) =    -1160.10624816