 vasp.6.4.0 14Feb23 (build Jul 14 2023 13:46:40) complex

 executed on             LinuxIFC date 2023.07.30  06:17:23

 INCAR:
   SYSTEM = MgO-rocksalt
   ISMEAR = 0
   SIGMA = 0.05
   EDIFF = 1E-6
   ALGO = ALL
   ISTART = 0
   IBRION = -1
   NSW = 0
   ISYM = 2
   DIPOL = 0.5 0.5 0.5
   IDIPOL = 3
   LDIPOL = .TRUE.
   METAGGA = TPSS
   ENCUT = 520
   PREC = Accurate
   LASPH = .TRUE.
   LREAL = Auto
   ISPIN = 1
   NELM = 200
   NELMIN = 8
   NCORE = 16
   KPAR = 1
   LWAVE = .FALSE.
   LCHARG = .FALSE.

 POTCAR:    PAW_PBE Cu 22Jun2005
 POTCAR:    PAW_PBE Mg_pv 13Apr2007
 POTCAR:    PAW_PBE O 08Apr2002
 POTCAR:    PAW_PBE Cu 22Jun2005
   VRHFIN =Cu: d10 p1

   TITEL  = PAW_PBE Cu 22Jun2005
   POMASS =   63.546; ZVAL   =   11.000    mass and valenz
   ENMAX  =  295.446; ENMIN  =  221.585 eV

   TITEL  = PAW_PBE Mg_pv 13Apr2007
   POMASS =   24.305; ZVAL   =    8.000    mass and valenz
   ENMAX  =  403.929; ENMIN  =  302.947 eV

   TITEL  = PAW_PBE O 08Apr2002
   POMASS =   16.000; ZVAL   =    6.000    mass and valenz
   ENMAX  =  400.000; ENMIN  =  300.000 eV

 Optimization of the real space projectors (new method)

 maximal supplied QI-value         = 16.25
 optimisation between [QCUT,QGAM] = [ 11.54, 23.24] = [ 37.28,151.24] Ry
 Optimized for a Real-space Cutoff    1.53 Angstroem

   l    n(q)    QCUT    max X(q) W(low)/X(q) W(high)/X(q)  e(spline)
   2     10    11.539     4.610    0.96E-04    0.13E-03    0.19E-06
   2     10    11.539     8.522    0.16E-03    0.21E-03    0.28E-06
   0     11    11.539    51.609    0.45E-04    0.31E-04    0.11E-06
   0     11    11.539    27.747    0.39E-04    0.29E-04    0.10E-06
   1     10    11.539    20.408    0.70E-05    0.38E-04    0.18E-06
   1     10    11.539    13.425    0.66E-05    0.34E-04    0.17E-06
 Optimization of the real space projectors (new method)

[...]

   l    n(q)    QCUT    max X(q) W(low)/X(q) W(high)/X(q)  e(spline)
   1      8    11.527     2.974    0.44E-04    0.56E-04    0.12E-06
   1      8    11.527     4.279    0.12E-03    0.12E-03    0.26E-06
   0      9    11.527    16.381    0.46E-04    0.64E-04    0.78E-07
   0      9    11.527     5.611    0.26E-04    0.43E-04    0.55E-07
   2      8    11.527     4.652    0.22E-03    0.72E-04    0.47E-07
 Optimization of the real space projectors (new method)

 maximal supplied QI-value         = 24.76
 optimisation between [QCUT,QGAM] = [ 11.64, 23.27] = [ 37.91,151.63] Ry
 Optimized for a Real-space Cutoff    1.14 Angstroem

   l    n(q)    QCUT    max X(q) W(low)/X(q) W(high)/X(q)  e(spline)
   0      8    11.635    20.381    0.10E-03    0.33E-03    0.24E-06
   0      8    11.635    15.268    0.11E-03    0.35E-03    0.26E-06
   1      7    11.635     5.964    0.24E-03    0.31E-03    0.30E-06
   1      7    11.635     5.382    0.22E-03    0.25E-03    0.26E-06
  PAW_PBE Cu 22Jun2005                  :
  PAW_PBE Mg_pv 13Apr2007               :
  PAW_PBE O 08Apr2002                   :

 POSCAR: Cu Mg  O
  positions in direct lattice

 METAGGA = TPSS                                        LMAXTAU =  6    LMIXTAU =  F

 ion  position               nearest neighbor table
   1  0.487  0.413  0.634-   2 2.23
   2  0.413  0.487  0.634-   1 2.23
   3  0.000  0.000  0.407- 105 2.11 106 2.11 121 2.11 186 2.11 103 2.11
   4  0.100  0.100  0.407- 105 2.11 106 2.11 110 2.11 125 2.11 104 2.11
   5  0.000  0.100  0.503- 103 2.11 104 2.11 107 2.11 184 2.11 105 2.11
   6  0.100  0.000  0.503- 103 2.11 104 2.11 120 2.11 123 2.11 106 2.11
   7  0.000  0.200  0.407- 109 2.11 105 2.11 110 2.11 190 2.11 107 2.11
   8  0.100  0.300  0.407- 110 2.11 109 2.11 114 2.11 129 2.11 108 2.11
   9  0.000  0.300  0.503- 107 2.11 108 2.11 111 2.11 188 2.11 109 2.11
  10  0.100  0.200  0.503- 108 2.11 107 2.11 104 2.11 127 2.11 110 2.11
  11  0.000  0.400  0.407- 109 2.11 113 2.11 114 2.11 194 2.11 111 2.11
  12  0.100  0.500  0.407- 113 2.11 114 2.11 118 2.11 133 2.11 112 2.11
  13  0.000  0.500  0.503- 111 2.11 112 2.11 115 2.11 192 2.11 113 2.11
  14  0.100  0.400  0.503- 108 2.11 111 2.11 112 2.11 131 2.11 114 2.11
  15  0.000  0.600  0.407- 113 2.11 117 2.11 118 2.11 198 2.11 115 2.11
  16  0.100  0.700  0.407- 122 2.11 118 2.11 117 2.11 137 2.11 116 2.11
  17  0.000  0.700  0.503- 119 2.11 116 2.11 115 2.11 196 2.11 117 2.11
  18  0.100  0.600  0.503- 112 2.11 115 2.11 116 2.11 135 2.11 118 2.11
  19  0.000  0.800  0.407- 117 2.11 121 2.11 122 2.11 202 2.11 119 2.11
  20  0.100  0.900  0.407- 106 2.11 121 2.11 122 2.11 141 2.11 120 2.11
  21  0.000  0.900  0.503- 103 2.11 119 2.11 120 2.11 200 2.11 121 2.11
  22  0.100  0.800  0.503- 116 2.11 119 2.11 120 2.11 139 2.11 122 2.11
  23  0.200  0.000  0.407- 126 2.11 125 2.11 106 2.11 141 2.11 123 2.11
  24  0.300  0.100  0.407- 125 2.11 126 2.11 130 2.11 145 2.11 124 2.11
  25  0.200  0.100  0.503- 124 2.11 123 2.11 104 2.11 127 2.11 125 2.11
  26  0.300  0.000  0.503- 123 2.11 124 2.11 140 2.11 143 2.11 126 2.11
  27  0.200  0.200  0.407- 129 2.11 130 2.11 110 2.11 125 2.11 127 2.11
  28  0.300  0.300  0.407- 129 2.11 130 2.11 134 2.11 149 2.11 128 2.11
  29  0.200  0.300  0.503- 127 2.11 128 2.11 108 2.11 131 2.11 129 2.11
  30  0.300  0.200  0.503- 127 2.11 128 2.11 124 2.11 147 2.11 130 2.11
  31  0.200  0.400  0.407- 134 2.11 129 2.11 133 2.11 114 2.11 131 2.11
  32  0.300  0.500  0.407- 133 2.11 134 2.11 138 2.11 153 2.11 132 2.11
  33  0.200  0.500  0.503- 132 2.11 131 2.11 112 2.11 135 2.11 133 2.11
  34  0.300  0.400  0.503- 131 2.11 128 2.11 132 2.11 151 2.11 134 2.11
  35  0.200  0.600  0.407- 138 2.11 133 2.11 137 2.11 118 2.11 135 2.11
  36  0.300  0.700  0.407- 137 2.11 142 2.11 138 2.11 157 2.11 136 2.11
  37  0.200  0.700  0.503- 136 2.11 139 2.11 116 2.11 135 2.11 137 2.11
  38  0.300  0.600  0.503- 135 2.11 132 2.11 136 2.11 155 2.11 138 2.11
  39  0.200  0.800  0.407- 137 2.11 142 2.11 141 2.11 122 2.11 139 2.11
  40  0.300  0.900  0.407- 141 2.11 126 2.11 142 2.11 161 2.11 140 2.11
  41  0.200  0.900  0.503- 140 2.11 123 2.11 139 2.11 120 2.11 141 2.11
  42  0.300  0.800  0.503- 136 2.11 139 2.11 140 2.11 159 2.11 142 2.11
  43  0.400  0.000  0.407- 126 2.11 145 2.11 146 2.11 161 2.11 143 2.11
  44  0.500  0.100  0.407- 145 2.11 146 2.11 150 2.11 165 2.11 144 2.11
  45  0.400  0.100  0.503- 124 2.11 143 2.11 144 2.11 147 2.11 145 2.11
  46  0.500  0.000  0.503- 143 2.11 144 2.11 160 2.11 163 2.11 146 2.11
  47  0.400  0.200  0.407- 149 2.11 145 2.11 130 2.11 150 2.11 147 2.11
  48  0.500  0.300  0.407- 150 2.11 149 2.11 154 2.11 169 2.11 148 2.11
  49  0.400  0.300  0.503- 147 2.11 128 2.11 148 2.11 151 2.11 149 2.11
  50  0.500  0.200  0.503- 148 2.11 147 2.11 144 2.11 167 2.11 150 2.11
  51  0.400  0.400  0.407- 134 2.11 149 2.11 153 2.11 154 2.11 151 2.11
  52  0.500  0.500  0.407- 153 2.11 154 2.11 158 2.11 173 2.11 152 2.11
  53  0.400  0.500  0.503- 132 2.11 151 2.11 152 2.11 155 2.11 153 2.11
  54  0.500  0.400  0.503- 148 2.11 151 2.11 152 2.11 171 2.11 154 2.11
  55  0.400  0.600  0.407- 138 2.11 153 2.11 157 2.11 158 2.11 155 2.11
  56  0.500  0.700  0.407- 162 2.11 158 2.11 157 2.11 177 2.11 156 2.11
  57  0.400  0.700  0.503- 159 2.11 155 2.11 156 2.11 136 2.11 157 2.11
  58  0.500  0.600  0.503- 152 2.11 155 2.11 156 2.11 175 2.11 158 2.11
  59  0.400  0.800  0.407- 157 2.11 142 2.11 161 2.11 162 2.11 159 2.11
  60  0.500  0.900  0.407- 146 2.11 161 2.11 162 2.11 181 2.11 160 2.11
[...]
 188  0.900  0.300  0.503-  90 2.11  89 2.11   9 2.11  94 2.11  88 2.11
 189  0.800  0.300  0.407-  68 2.11  87 2.11  88 2.11  91 2.11  89 2.11
 190  0.900  0.200  0.407-  88 2.11  84 2.11  87 2.11   7 2.11  90 2.11
 191  0.800  0.400  0.503-  74 2.11  89 2.11  93 2.11  94 2.11  91 2.11
 192  0.900  0.500  0.503-  13 2.11  93 2.11  94 2.11  98 2.11  92 2.11
 193  0.800  0.500  0.407-  72 2.11  91 2.11  92 2.11  95 2.11  93 2.11
 194  0.900  0.400  0.407-  11 2.11  88 2.11  91 2.11  92 2.11  94 2.11
 195  0.800  0.600  0.503-  78 2.11  93 2.11  97 2.11  98 2.11  95 2.11
 196  0.900  0.700  0.503- 102 2.11  97 2.11  98 2.11  17 2.11  96 2.11
 197  0.800  0.700  0.407-  76 2.11  99 2.11  96 2.11  95 2.11  97 2.11
 198  0.900  0.600  0.407-  15 2.11  92 2.11  95 2.11  96 2.11  98 2.11
 199  0.800  0.800  0.503-  82 2.11  97 2.11 101 2.11 102 2.11  99 2.11
 200  0.900  0.900  0.503-  21 2.11  86 2.11 101 2.11 102 2.11 100 2.11
 201  0.800  0.900  0.407-  80 2.11  83 2.11  99 2.11 100 2.11 101 2.11
 202  0.900  0.800  0.407-  96 2.11  19 2.11  99 2.11 100 2.11 102 2.11

  LATTYP: Found a simple tetragonal cell.
 ALAT       =    21.1388521970
 C/A-ratio  =     1.0461251639

  Lattice vectors:

 A1 = (  21.1388521970,   0.0000000000,   0.0000000000)
 A2 = (   0.0000000000,  21.1388521970,   0.0000000000)
 A3 = (   0.0000000000,   0.0000000000,  22.1138852197)

Analysis of symmetry for initial positions (statically):
 Subroutine PRICEL returns:
 Original cell was already a primitive cell.

 Routine SETGRP: Setting up the symmetry group for a
 simple tetragonal supercell.

 Subroutine GETGRP returns: Found  4 space group operations
 (whereof  2 operations were pure point group operations)
 out of a pool of 16 trial point group operations.

The static configuration has the point symmetry C_1h.
 The point group associated with its full space group is C_2v.

Analysis of symmetry for dynamics (positions and initial velocities):
 Subroutine PRICEL returns:
 Original cell was already a primitive cell.

 Routine SETGRP: Setting up the symmetry group for a
 simple tetragonal supercell.

 Subroutine GETGRP returns: Found  4 space group operations
 (whereof  2 operations were pure point group operations)
 out of a pool of 16 trial point group operations.

The dynamic configuration has the point symmetry C_1h.
 The point group associated with its full space group is C_2v.

 Subroutine INISYM returns: Found  4 space group operations
 (whereof  2 operations are pure point group operations),
 and found     1 'primitive' translations

                                     Primitive cell

  volume of cell :    9881.6133

  direct lattice vectors                    reciprocal lattice vectors
    21.138852197  0.000000000  0.000000000     0.047306258  0.000000000  0.000000000
     0.000000000 21.138852197  0.000000000     0.000000000  0.047306258  0.000000000
     0.000000000  0.000000000 22.113885220     0.000000000  0.000000000  0.045220457

  length of vectors
    21.138852197 21.138852197 22.113885220     0.047306258  0.047306258  0.045220457

  position of ions in fractional coordinates (direct lattice)
     0.487233885  0.412766122  0.633890230
     0.412766091  0.487233915  0.633890230
     0.000000000  0.000000000  0.406984115
     0.100000000  0.100000000  0.406984115
     0.000000000  0.100000000  0.502574971
     0.100000000  0.000000000  0.502574971
     0.000000000  0.200000000  0.406984115
     0.100000000  0.300000000  0.406984115
     0.000000000  0.300000000  0.502574971
     0.100000000  0.200000000  0.502574971
     0.000000000  0.400000000  0.406984115
     0.100000000  0.500000000  0.406984115
     0.000000000  0.500000000  0.502574971
     0.100000000  0.400000000  0.502574971
     0.000000000  0.600000000  0.406984115
[...]
     52     -55.5988      2.00000
     53     -55.5542      2.00000
     54     -55.4954      2.00000
     55     -55.4708      2.00000
     56     -55.4510      2.00000
     57     -55.3619      2.00000
     58     -55.3152      2.00000
     59     -55.2861      2.00000
     60     -55.2314      2.00000
[...]
    850      11.1794      0.00000
    851      11.2297      0.00000
    852      11.2880      0.00000
    853      11.3386      0.00000
    854      11.3451      0.00000
    855      11.3574      0.00000
    856      11.3885      0.00000
    857      11.5288      0.00000
    858      11.6434      0.00000
    859      11.7226      0.00000
    860      11.9246      0.00000
    861      11.9479      0.00000
    862      12.5073      0.00000
    863      12.6752      0.00000
    864      12.8655      0.00000

 soft charge-density along one line, spin component           1
         0         1         2         3         4         5         6         7         8         9
 total charge-density along one line

------------------------ aborting loop EDIFF was not reached (unconverged)  ----------------------------

  FORCE on cell =-STRESS in cart. coord.  units (eV):
  Direction    XX          YY          ZZ          XY          YZ          ZX
  Alpha Z  1354.41543  1354.41543  1354.41543
  Ewald  478638.37410478638.37410************  -389.48255     0.00001    -0.00000
  Hartree493763.60934493763.60935************  -359.56080     0.00004    -0.00002
  E(xc)   -8038.83684 -8039.05297 -8040.08419    -0.03216     0.23814     0.02754
  Local  ************************************   743.99256    -0.00006     0.00007
  n-local -9043.58639 -9069.69245 -9058.16965    25.78396     2.84042     5.55947
  augment  4343.79336  4343.79338  4358.36181    23.54351    -0.00000     0.00000
  Kinetic 21903.90996 21895.17535 22848.23039    -5.21310    12.76608     0.99841
  Fock        0.00000     0.00000     0.00000     0.00000     0.00000     0.00000
  Total      72.77601    72.77601  -841.08032    38.99099    -0.00000     0.00000
  in kB      11.79970    11.79970  -136.37043     6.32189    -0.00000     0.00000

 VOLUME and BASIS-vectors are now :
  energy-cutoff  :      520.00
  volume of cell :     9881.61
      direct lattice vectors                 reciprocal lattice vectors
    21.138852197  0.000000000  0.000000000     0.047306258  0.000000000  0.000000000
     0.000000000 21.138852197  0.000000000     0.000000000  0.047306258  0.000000000
     0.000000000  0.000000000 22.113885220     0.000000000  0.000000000  0.045220457

  length of vectors
    21.138852197 21.138852197 22.113885220     0.047306258  0.047306258  0.045220457

 FORCES acting on ions:
    Electron-Ion                     Ewald-Force                    Non-Local-Force
   -.282E+03 0.282E+03 -.207E+04   0.246E+03 -.246E+03 0.200E+04   -.168E+03 0.168E+03 0.310E+02
   0.282E+03 -.282E+03 -.207E+04   -.246E+03 0.246E+03 0.200E+04   0.168E+03 -.168E+03 0.310E+02
   0.444E+02 0.444E+02 0.923E+03   -.174E+01 -.174E+01 -.923E+03   0.171E+01 0.171E+01 0.128E+02
   0.183E+03 0.183E+03 0.925E+03   -.626E+01 -.626E+01 -.925E+03   0.322E+01 0.322E+01 0.134E+02
   0.290E+02 0.971E+02 -.732E+03   -.268E+01 -.599E+01 0.914E+03   0.210E+01 0.414E+01 0.228E+02
   0.971E+02 0.290E+02 -.732E+03   -.599E+01 -.268E+01 0.914E+03   0.414E+01 0.210E+01 0.228E+02
   0.490E+02 0.204E+03 0.925E+03   -.300E+01 -.637E+01 -.926E+03   0.229E+01 0.252E+01 0.132E+02
   0.473E+02 0.624E+02 0.927E+03   -.130E+02 -.801E+01 -.931E+03   0.100E+02 0.561E+01 0.157E+02
   0.204E+02 0.635E+02 -.895E+03   -.588E+01 -.710E+01 0.911E+03   0.394E+01 0.433E+01 0.245E+02
   0.659E+02 0.883E+02 -.874E+03   -.127E+02 -.117E+02 0.911E+03   0.798E+01 0.743E+01 0.246E+02
   0.149E+02 0.229E+02 0.923E+03   -.524E+01 -.229E+01 -.929E+03   0.404E+01 0.159E+01 0.149E+02
   0.393E+02 -.214E+02 0.931E+03   -.166E+02 0.278E+01 -.934E+03   0.116E+02 -.129E+01 0.162E+02
   0.169E+02 -.203E+02 -.909E+03   -.810E+01 0.261E+01 0.910E+03   0.547E+01 -.148E+01 0.258E+02
   0.497E+02 0.196E+02 -.905E+03   -.254E+02 -.558E+01 0.905E+03   0.158E+02 0.379E+01 0.276E+02
   0.191E+02 -.937E+02 0.923E+03   -.485E+01 0.543E+01 -.927E+03   0.398E+01 -.367E+01 0.137E+02
   0.866E+02 -.123E+03 0.928E+03   -.993E+01 0.893E+01 -.928E+03   0.811E+01 -.663E+01 0.138E+02
   0.288E+02 -.981E+02 -.837E+03   -.503E+01 0.814E+01 0.913E+03   0.357E+01 -.529E+01 0.238E+02
   0.532E+02 -.570E+02 -.895E+03   -.213E+02 0.111E+02 0.907E+03   0.141E+02 -.726E+01 0.266E+02
   0.100E+03 -.177E+03 0.928E+03   -.256E+01 0.498E+01 -.924E+03   0.359E-01 -.211E+01 0.123E+02
   0.177E+03 -.100E+03 0.928E+03   -.498E+01 0.256E+01 -.924E+03   0.211E+01 -.359E-01 0.123E+02
   0.420E+02 -.420E+02 -.697E+03   -.234E+01 0.234E+01 0.915E+03   0.112E+01 -.112E+01 0.240E+02
   0.796E+02 -.796E+02 -.811E+03   -.884E+01 0.884E+01 0.913E+03   0.658E+01 -.658E+01 0.234E+02
   0.204E+03 0.490E+02 0.925E+03   -.637E+01 -.300E+01 -.926E+03   0.252E+01 0.229E+01 0.132E+02
   0.624E+02 0.473E+02 0.927E+03   -.801E+01 -.130E+02 -.931E+03   0.561E+01 0.100E+02 0.157E+02
   0.883E+02 0.659E+02 -.874E+03   -.117E+02 -.127E+02 0.911E+03   0.743E+01 0.798E+01 0.246E+02
   0.635E+02 0.204E+02 -.895E+03   -.710E+01 -.588E+01 0.911E+03   0.433E+01 0.394E+01 0.245E+02
   0.719E+02 0.719E+02 0.929E+03   -.135E+02 -.135E+02 -.933E+03   0.108E+02 0.108E+02 0.164E+02
   0.487E+02 0.487E+02 0.961E+03   -.225E+02 -.225E+02 -.954E+03   0.141E+02 0.141E+02 0.266E+02
   0.714E+02 0.576E+02 -.893E+03   -.343E+02 -.226E+02 0.898E+03   0.209E+02 0.133E+02 0.300E+02
   0.576E+02 0.714E+02 -.893E+03   -.226E+02 -.343E+02 0.898E+03   0.133E+02 0.209E+02 0.300E+02
   0.544E+02 0.185E+02 0.950E+03   -.268E+02 -.679E+01 -.946E+03   0.178E+02 0.461E+01 0.222E+02
   0.570E+02 -.193E+02 0.987E+03   -.316E+02 0.909E+01 -.972E+03   0.187E+02 -.544E+01 0.341E+02
   0.894E+02 -.215E+02 -.881E+03   -.531E+02 0.835E+01 0.886E+03   0.291E+02 -.451E+01 0.351E+02
   0.116E+03 0.493E+02 -.826E+03   -.798E+02 -.337E+02 0.840E+03   0.406E+02 0.166E+02 0.544E+02
   0.589E+02 -.507E+02 0.943E+03   -.217E+02 0.134E+02 -.942E+03   0.144E+02 -.907E+01 0.198E+02
   0.507E+02 -.589E+02 0.943E+03   -.134E+02 0.217E+02 -.942E+03   0.907E+01 -.144E+02 0.198E+02
   0.729E+02 -.729E+02 -.887E+03   -.220E+02 0.220E+02 0.904E+03   0.141E+02 -.141E+02 0.276E+02
   0.853E+02 -.853E+02 -.856E+03   -.511E+02 0.511E+02 0.864E+03   0.268E+02 -.268E+02 0.447E+02
   0.123E+03 -.866E+02 0.928E+03   -.893E+01 0.993E+01 -.928E+03   0.663E+01 -.811E+01 0.138E+02
   0.937E+02 -.191E+02 0.923E+03   -.543E+01 0.485E+01 -.927E+03   0.367E+01 -.398E+01 0.137E+02
   0.981E+02 -.288E+02 -.837E+03   -.814E+01 0.503E+01 0.913E+03   0.529E+01 -.357E+01 0.238E+02
   0.570E+02 -.532E+02 -.895E+03   -.111E+02 0.213E+02 0.907E+03   0.726E+01 -.141E+02 0.266E+02
   0.229E+02 0.149E+02 0.923E+03   -.229E+01 -.524E+01 -.929E+03   0.159E+01 0.404E+01 0.149E+02
   -.214E+02 0.393E+02 0.931E+03   0.278E+01 -.166E+02 -.934E+03   -.129E+01 0.116E+02 0.162E+02
   0.196E+02 0.497E+02 -.905E+03   -.558E+01 -.254E+02 0.905E+03   0.379E+01 0.158E+02 0.276E+02
   -.203E+02 0.169E+02 -.909E+03   0.261E+01 -.810E+01 0.910E+03   -.148E+01 0.547E+01 0.258E+02
   0.185E+02 0.544E+02 0.950E+03   -.679E+01 -.268E+02 -.946E+03   0.461E+01 0.178E+02 0.222E+02
   -.193E+02 0.570E+02 0.987E+03   0.909E+01 -.316E+02 -.972E+03   -.544E+01 0.187E+02 0.341E+02
   0.493E+02 0.116E+03 -.826E+03   -.337E+02 -.798E+02 0.840E+03   0.166E+02 0.406E+02 0.544E+02
   -.215E+02 0.894E+02 -.881E+03   0.835E+01 -.531E+02 0.886E+03   -.451E+01 0.291E+02 0.351E+02
   0.267E+02 0.267E+02 0.102E+04   -.165E+02 -.165E+02 -.996E+03   0.952E+01 0.952E+01 0.451E+02
   -.267E+02 -.267E+02 0.102E+04   0.165E+02 0.165E+02 -.996E+03   -.952E+01 -.952E+01 0.451E+02
   0.698E+02 -.698E+02 -.683E+03   -.518E+02 0.518E+02 0.713E+03   0.245E+02 -.245E+02 0.109E+03
   -.698E+02 0.698E+02 -.683E+03   0.518E+02 -.518E+02 0.713E+03   -.245E+02 0.245E+02 0.109E+03
   0.193E+02 -.570E+02 0.987E+03   -.909E+01 0.316E+02 -.972E+03   0.544E+01 -.187E+02 0.341E+02
   -.185E+02 -.544E+02 0.950E+03   0.679E+01 0.268E+02 -.946E+03   -.461E+01 -.178E+02 0.222E+02
   0.215E+02 -.894E+02 -.881E+03   -.835E+01 0.531E+02 0.886E+03   0.451E+01 -.291E+02 0.351E+02
   -.493E+02 -.116E+03 -.826E+03   0.337E+02 0.798E+02 0.840E+03   -.166E+02 -.406E+02 0.544E+02
   0.214E+02 -.393E+02 0.931E+03   -.278E+01 0.166E+02 -.934E+03   0.129E+01 -.116E+02 0.162E+02
   -.229E+02 -.149E+02 0.923E+03   0.229E+01 0.524E+01 -.929E+03   -.159E+01 -.404E+01 0.149E+02
[...]
   -.382E+02 0.488E+02 0.703E+03   0.104E+02 -.582E+01 -.710E+03   -.331E+01 0.224E+01 0.133E+02
   -.334E+02 0.108E+03 0.717E+03   0.275E+01 -.482E+01 -.706E+03   -.801E+00 0.116E+01 0.430E+01
   -.390E+02 0.141E+02 -.682E+03   0.198E+02 -.292E+01 0.690E+03   -.560E+01 0.125E+01 0.597E+01
   -.133E+02 -.139E+02 -.687E+03   0.571E+01 0.227E+01 0.694E+03   -.921E+00 -.793E+00 0.544E+01
   -.287E+02 -.142E+02 0.704E+03   0.122E+02 0.275E+01 -.712E+03   -.378E+01 -.115E+01 0.133E+02
   -.106E+02 0.179E+02 0.698E+03   0.414E+01 -.153E+01 -.708E+03   -.841E+00 0.221E+00 0.129E+02
   -.376E+02 -.423E+02 -.679E+03   0.145E+02 0.852E+01 0.692E+03   -.453E+01 -.236E+01 0.599E+01
   -.218E+02 -.833E+02 -.638E+03   0.300E+01 0.601E+01 0.696E+03   0.474E-01 -.176E+01 0.443E+01
   -.645E+02 -.883E+02 0.698E+03   0.687E+01 0.649E+01 -.707E+03   -.295E+01 -.264E+01 0.131E+02
   -.188E+02 -.609E+02 0.698E+03   0.315E+01 0.414E+01 -.707E+03   -.660E+00 -.101E+01 0.126E+02
   -.706E+02 -.706E+02 -.615E+03   0.609E+01 0.609E+01 0.696E+03   -.220E+01 -.220E+01 0.433E+01
   -.250E+02 -.250E+02 -.548E+03   0.160E+01 0.160E+01 0.698E+03   -.683E+00 -.683E+00 0.389E+01
   -.117E+03 -.342E+02 0.733E+03   0.363E+01 0.159E+01 -.705E+03   0.160E+01 0.111E+01 -.109E+02
   -.342E+02 -.117E+03 0.733E+03   0.159E+01 0.363E+01 -.705E+03   0.111E+01 0.160E+01 -.109E+02
   -.293E-01 0.147E-01 0.389E+04   0.303E-11 -.732E-12 -.625E-11   -.668E-13 -.382E-13 0.356E+04

 POSITION                                       TOTAL-FORCE (eV/Angst)
     10.29957      8.72540     14.01778      -204.039338    204.039338    -75.905501
      8.72540     10.29957     14.01778       204.039338   -204.039338    -75.905501
      0.00000      0.00000      9.00000        44.357428     44.357428    -24.604011
      2.11389      2.11389      9.00000       179.627105    179.627105    -24.189479
      0.00000      2.11389     11.11389        28.449172     95.259115    168.485397
      2.11389      0.00000     11.11389        95.259115     28.449172    168.485397
      0.00000      4.22777      9.00000        48.295917    199.819071    -24.586500
      2.11389      6.34166      9.00000        44.306254     60.024045    -25.501760
      0.00000      6.34166     11.11389        18.500693     60.708121      4.485544
      2.11389      4.22777     11.11389        61.166625     84.114626     24.925496
      0.00000      8.45554      9.00000        13.678418     22.177066    -27.956233
      2.11389     10.56943      9.00000        34.224924    -19.953527    -23.201351
      0.00000     10.56943     11.11389        14.246674    -19.178061    -10.101366
      2.11389      8.45554     11.11389        40.166280     17.795237     -9.404897
      0.00000     12.68331      9.00000        18.218601    -91.940253    -27.249570
      2.11389     14.79720      9.00000        84.791682   -120.387890    -23.681574
      0.00000     14.79720     11.11389        27.313129    -95.275764     62.290344
      2.11389     12.68331     11.11389        46.073206    -53.154662      2.064607
      0.00000     16.91108      9.00000        97.967387   -173.728085    -20.624450
      2.11389     19.02497      9.00000       173.728085    -97.967387    -20.624450
      0.00000     19.02497     11.11389        40.747051    -40.747051    204.834468
      2.11389     16.91108     11.11389        77.352419    -77.352419     88.724811
      4.22777      0.00000      9.00000       199.819071     48.295917    -24.586500
      6.34166      2.11389      9.00000        60.024045     44.306254    -25.501760
      4.22777      2.11389     11.11389        84.114626     61.166625     24.925496
      6.34166      0.00000     11.11389        60.708121     18.500693      4.485544
      4.22777      4.22777      9.00000        69.136928     69.136928    -23.699387
      6.34166      6.34166      9.00000        40.323699     40.323699     -2.828100
      4.22777      6.34166     11.11389        57.972734     48.336155     -2.464418
      6.34166      4.22777     11.11389        48.336155     57.972734     -2.464418
      4.22777      8.45554      9.00000        45.413216     16.310902    -11.210082
      6.34166     10.56943      9.00000        44.127491    -15.672091     11.939545
      4.22777     10.56943     11.11389        65.384557    -17.681009      3.010011
      6.34166      8.45554     11.11389        76.650885     32.172574     31.135520
      4.22777     12.68331      9.00000        51.658004    -46.451060    -15.765612
      6.34166     14.79720      9.00000        46.451060    -51.658004    -15.765612
      4.22777     14.79720     11.11389        64.962327    -64.962327      8.130824
      6.34166     12.68331     11.11389        61.055628    -61.055628     15.685251
      4.22777     16.91108      9.00000       120.387890    -84.791682    -23.681574
      6.34166     19.02497      9.00000        91.940253    -18.218601    -27.249570
      4.22777     19.02497     11.11389        95.275764    -27.313129     62.290344
      6.34166     16.91108     11.11389        53.154662    -46.073206      2.064607
      8.45554      0.00000      9.00000        22.177066     13.678418    -27.956233
     10.56943      2.11389      9.00000       -19.953527     34.224924    -23.201351
      8.45554      2.11389     11.11389        17.795237     40.166280     -9.404897
     10.56943      0.00000     11.11389       -19.178061     14.246674    -10.101366
      8.45554      4.22777      9.00000        16.310902     45.413216    -11.210082
     10.56943      6.34166      9.00000       -15.672091     44.127491     11.939545
      8.45554      6.34166     11.11389        32.172574     76.650885     31.135520
     10.56943      4.22777     11.11389       -17.681009     65.384557      3.010011
      8.45554      8.45554      9.00000        19.716977     19.716977     30.749709
     10.56943     10.56943      9.00000       -19.716977    -19.716977     30.749709
      8.45554     10.56943     11.11389        42.477809    -42.477809    102.391309
     10.56943      8.45554     11.11389       -42.477809     42.477809    102.391309
      8.45554     12.68331      9.00000        15.672091    -44.127491     11.939545
     10.56943     14.79720      9.00000       -16.310902    -45.413216    -11.210082
      8.45554     14.79720     11.11389        17.681009    -65.384557      3.010011
     10.56943     12.68331     11.11389       -32.172574    -76.650885     31.135520
      8.45554     16.91108      9.00000        19.953527    -34.224924    -23.201351
     10.56943     19.02497      9.00000       -22.177066    -13.678418    -27.956233
[...]
     19.02497      6.34166     11.11389       -11.459824     45.684935    -10.274727
     16.91108      6.34166      9.00000       -31.112393     45.257291    -31.259707
     19.02497      4.22777      9.00000       -31.441378    104.335660    -21.331942
     16.91108      8.45554     11.11389       -24.756792     12.456849    -22.927677
     19.02497     10.56943     11.11389        -8.514924    -12.447763    -24.412606
     16.91108     10.56943      9.00000       -20.346899    -12.606147    -31.138065
     19.02497      8.45554      9.00000        -7.338315     16.561702    -33.726720
     16.91108     12.68331     11.11389       -27.680499    -36.124205    -17.628603
     19.02497     14.79720     11.11389       -18.745741    -79.093114     25.585187
     16.91108     14.79720      9.00000       -60.613652    -84.450857    -33.331427
     19.02497     12.68331      9.00000       -16.274784    -57.797762    -33.672191
     16.91108     16.91108     11.11389       -66.728105    -66.728105     49.248706
     19.02497     19.02497     11.11389       -24.081160    -24.081160    117.219326
     16.91108     19.02497      9.00000      -111.501993    -31.507225    -19.121889
     19.02497     16.91108      9.00000       -31.507225   -111.501993    -19.121889
    total drift:                               -0.029299      0.014727   7448.511446

  FREE ENERGIE OF THE ION-ELECTRON SYSTEM (eV)
  free  energy   TOTEN  =      -545.91161300 eV

  energy  without entropy=     -545.88503635  energy(sigma->0) =     -545.89832467