 vasp.6.3.0 20Jan22 (build Apr  1 2022 16:44:48) complex
 executed on        HPECrayEX_GCC date 2023.01.10  19:58:12

 INCAR:
   SYSTEM = MgO-rocksalt
   ISMEAR = 0
   SIGMA = 0.05
   EDIFF = 1E-6
   ALGO = ALL
   ISTART = 0
   IBRION = -1
   NSW = 0
   ISYM = 2
   DIPOL = 0.5 0.5 0.5
   IDIPOL = 3
   LDIPOL = .TRUE.
   LHFCALC = .TRUE.
   HFSCREEN = 0.2
   GGA = PE
   IVDW = 13
   VDW_S8 = 1.19528249
   VDW_A1 = 0.38663183
   VDW_A2 = 5.19133469
   ENCUT = 520
   PREC = Accurate
   LASPH = .TRUE.
   LREAL = Auto
   ISPIN = 1
   NELM = 200
   NELMIN = 8
   NCORE = 4
   KPAR = 2
   LWAVE = .FALSE.
   LCHARG = .FALSE.

 POTCAR:    PAW_PBE Au 04Oct2007
 POTCAR:    PAW_PBE Mg_pv 13Apr2007
 POTCAR:    PAW_PBE O 08Apr2002
|           W    W    AA    RRRRR   N    N  II  N    N   GGGG   !!!           |
|           W    W   A  A   R    R  NN   N  II  NN   N  G    G  !!!           |
|           W    W  A    A  R    R  N N  N  II  N N  N  G       !!!           |
|           W WW W  AAAAAA  RRRRR   N  N N  II  N  N N  G  GGG   !            |
|           WW  WW  A    A  R   R   N   NN  II  N   NN  G    G                |
|           W    W  A    A  R    R  N    N  II  N    N   GGGG   !!!           |
|     You have selected ISYM=2 for a HF type calculation. This will           |
|     symmetrize the charge density but not the exchange potential. I         |
|     suggest to use ISYM=3 instead. This uses symmetry to obtain the         |
|     orbitals at all k-points in the Brillouin zone, but does not apply      |
|     symmetry to the Hartree potential directly. The resultant charge        |
|     might have lower symmetry than the crystal but, at least, Hartree       |
|     and exchange are fully compatible.                                      |

   TITEL  = PAW_PBE Au 04Oct2007
   POMASS =  196.966; ZVAL   =   11.000    mass and valenz
   ENMAX  =  229.943; ENMIN  =  172.457 eV

   TITEL  = PAW_PBE Mg_pv 13Apr2007
   POMASS =   24.305; ZVAL   =    8.000    mass and valenz
   ENMAX  =  403.929; ENMIN  =  302.947 eV

   TITEL  = PAW_PBE O 08Apr2002
   POMASS =   16.000; ZVAL   =    6.000    mass and valenz
   ENMAX  =  400.000; ENMIN  =  300.000 eV

 Optimization of the real space projectors (new method)

 maximal supplied QI-value         = 15.12
 optimisation between [QCUT,QGAM] = [ 11.64, 23.28] = [ 37.95,151.78] Ry
 Optimized for a Real-space Cutoff    1.49 Angstroem

   l    n(q)    QCUT    max X(q) W(low)/X(q) W(high)/X(q)  e(spline)
   2      9    11.641    60.898    0.24E-03    0.10E-03    0.19E-06
   2      9    11.641    58.894    0.25E-03    0.10E-03    0.19E-06
   0     10    11.641   109.617    0.73E-04    0.33E-04    0.11E-06
   0     10    11.641    75.026    0.71E-04    0.32E-04    0.11E-06
   1     10    11.641    16.344    0.27E-04    0.97E-04    0.16E-06
   1     10    11.641    10.160    0.23E-04    0.77E-04    0.13E-06
 Optimization of the real space projectors (new method)

[...]

   l    n(q)    QCUT    max X(q) W(low)/X(q) W(high)/X(q)  e(spline)
   1      8    11.527     2.974    0.44E-04    0.56E-04    0.12E-06
   1      8    11.527     4.279    0.12E-03    0.12E-03    0.26E-06
   0      9    11.527    16.381    0.46E-04    0.64E-04    0.78E-07
   0      9    11.527     5.611    0.26E-04    0.43E-04    0.55E-07
   2      8    11.527     4.652    0.22E-03    0.72E-04    0.47E-07
 Optimization of the real space projectors (new method)

 maximal supplied QI-value         = 24.76
 optimisation between [QCUT,QGAM] = [ 11.64, 23.27] = [ 37.91,151.63] Ry
 Optimized for a Real-space Cutoff    1.14 Angstroem

   l    n(q)    QCUT    max X(q) W(low)/X(q) W(high)/X(q)  e(spline)
   0      8    11.635    20.381    0.10E-03    0.33E-03    0.24E-06
   0      8    11.635    15.268    0.11E-03    0.35E-03    0.26E-06
   1      7    11.635     5.964    0.24E-03    0.31E-03    0.30E-06
   1      7    11.635     5.382    0.22E-03    0.25E-03    0.26E-06
  PAW_PBE Au 04Oct2007                  :
  PAW_PBE Mg_pv 13Apr2007               :
  PAW_PBE O 08Apr2002                   :

 POSCAR: Au Mg  O
  positions in direct lattice
  velocities in cartesian coordinates
|           W    W    AA    RRRRR   N    N  II  N    N   GGGG   !!!           |
|           W    W   A  A   R    R  NN   N  II  NN   N  G    G  !!!           |
|           W    W  A    A  R    R  N N  N  II  N N  N  G       !!!           |
|           W WW W  AAAAAA  RRRRR   N  N N  II  N  N N  G  GGG   !            |
|           WW  WW  A    A  R   R   N   NN  II  N   NN  G    G                |
|           W    W  A    A  R    R  N    N  II  N    N   GGGG   !!!           |
|     Specifying the vdW parameters                                           |
|     VDW_S8 = 1.195                                                          |
|     VDW_A1 = 0.387                                                          |
|     VDW_A2 = 5.191                                                          |
|     in the INCAR file will overwrite the defaults for hse06. Please         |
|     make sure that is what you intended.                                    |

 ion  position               nearest neighbor table
   1  0.404  0.596  0.665-   2 2.57   4 2.74
   2  0.332  0.668  0.602- 138 2.40   1 2.57  59 2.71  40 2.71
   3  0.568  0.432  0.602- 173 2.40   4 2.57  75 2.71  56 2.71
   4  0.496  0.504  0.665-   3 2.57   1 2.74
   5  0.000  0.000  0.407- 107 2.11 108 2.11 123 2.11 188 2.11 105 2.11
   6  0.100  0.100  0.407- 107 2.11 108 2.11 112 2.11 127 2.11 106 2.11
   7  0.000  0.100  0.503- 105 2.11 106 2.11 109 2.11 186 2.11 107 2.11
   8  0.100  0.000  0.503- 105 2.11 106 2.11 122 2.11 125 2.11 108 2.11
   9  0.000  0.200  0.407- 111 2.11 107 2.11 112 2.11 192 2.11 109 2.11
  10  0.100  0.300  0.407- 112 2.11 111 2.11 116 2.11 131 2.11 110 2.11
  11  0.000  0.300  0.503- 109 2.11 110 2.11 113 2.11 190 2.11 111 2.11
  12  0.100  0.200  0.503- 110 2.11 109 2.11 106 2.11 129 2.11 112 2.11
  13  0.000  0.400  0.407- 111 2.11 115 2.11 116 2.11 196 2.11 113 2.11
  14  0.100  0.500  0.407- 115 2.11 116 2.11 120 2.11 135 2.11 114 2.11
  15  0.000  0.500  0.503- 113 2.11 114 2.11 117 2.11 194 2.11 115 2.11
  16  0.100  0.400  0.503- 110 2.11 113 2.11 114 2.11 133 2.11 116 2.11
  17  0.000  0.600  0.407- 115 2.11 119 2.11 120 2.11 200 2.11 117 2.11
  18  0.100  0.700  0.407- 124 2.11 120 2.11 119 2.11 139 2.11 118 2.11
  19  0.000  0.700  0.503- 121 2.11 118 2.11 117 2.11 198 2.11 119 2.11
  20  0.100  0.600  0.503- 114 2.11 117 2.11 118 2.11 137 2.11 120 2.11
  21  0.000  0.800  0.407- 119 2.11 123 2.11 124 2.11 204 2.11 121 2.11
  22  0.100  0.900  0.407- 108 2.11 123 2.11 124 2.11 143 2.11 122 2.11
  23  0.000  0.900  0.503- 105 2.11 121 2.11 122 2.11 202 2.11 123 2.11
  24  0.100  0.800  0.503- 118 2.11 121 2.11 122 2.11 141 2.11 124 2.11
  25  0.200  0.000  0.407- 128 2.11 127 2.11 108 2.11 143 2.11 125 2.11
  26  0.300  0.100  0.407- 127 2.11 128 2.11 132 2.11 147 2.11 126 2.11
  27  0.200  0.100  0.503- 126 2.11 125 2.11 106 2.11 129 2.11 127 2.11
  28  0.300  0.000  0.503- 125 2.11 126 2.11 142 2.11 145 2.11 128 2.11
  29  0.200  0.200  0.407- 131 2.11 132 2.11 112 2.11 127 2.11 129 2.11
  30  0.300  0.300  0.407- 131 2.11 132 2.11 136 2.11 151 2.11 130 2.11
  31  0.200  0.300  0.503- 129 2.11 130 2.11 110 2.11 133 2.11 131 2.11
  32  0.300  0.200  0.503- 129 2.11 130 2.11 126 2.11 149 2.11 132 2.11
  33  0.200  0.400  0.407- 136 2.11 131 2.11 135 2.11 116 2.11 133 2.11
  34  0.300  0.500  0.407- 135 2.11 136 2.11 140 2.11 155 2.11 134 2.11
  35  0.200  0.500  0.503- 134 2.11 133 2.11 114 2.11 137 2.11 135 2.11
  36  0.300  0.400  0.503- 133 2.11 130 2.11 134 2.11 153 2.11 136 2.11
  37  0.200  0.600  0.407- 140 2.11 135 2.11 139 2.11 120 2.11 137 2.11
  38  0.300  0.700  0.407- 139 2.11 144 2.11 140 2.11 159 2.11 138 2.11
  39  0.200  0.700  0.503- 138 2.11 141 2.11 118 2.11 137 2.11 139 2.11
  40  0.300  0.600  0.503- 137 2.11 134 2.11 138 2.11 157 2.11 140 2.11   2 2.71
  41  0.200  0.800  0.407- 139 2.11 144 2.11 143 2.11 124 2.11 141 2.11
  42  0.300  0.900  0.407- 143 2.11 128 2.11 144 2.11 163 2.11 142 2.11
  43  0.200  0.900  0.503- 142 2.11 125 2.11 141 2.11 122 2.11 143 2.11
  44  0.300  0.800  0.503- 138 2.11 141 2.11 142 2.11 161 2.11 144 2.11
  45  0.400  0.000  0.407- 128 2.11 147 2.11 148 2.11 163 2.11 145 2.11
  46  0.500  0.100  0.407- 147 2.11 148 2.11 152 2.11 167 2.11 146 2.11
  47  0.400  0.100  0.503- 126 2.11 145 2.11 146 2.11 149 2.11 147 2.11
  48  0.500  0.000  0.503- 145 2.11 146 2.11 162 2.11 165 2.11 148 2.11
  49  0.400  0.200  0.407- 151 2.11 147 2.11 132 2.11 152 2.11 149 2.11
  50  0.500  0.300  0.407- 152 2.11 151 2.11 156 2.11 171 2.11 150 2.11
  51  0.400  0.300  0.503- 149 2.11 130 2.11 150 2.11 153 2.11 151 2.11
  52  0.500  0.200  0.503- 150 2.11 149 2.11 146 2.11 169 2.11 152 2.11
  53  0.400  0.400  0.407- 136 2.11 151 2.11 155 2.11 156 2.11 153 2.11
  54  0.500  0.500  0.407- 155 2.11 156 2.11 160 2.11 175 2.11 154 2.11
  55  0.400  0.500  0.503- 134 2.11 153 2.11 154 2.11 157 2.11 155 2.11
  56  0.500  0.400  0.503- 150 2.11 153 2.11 154 2.11 173 2.11 156 2.11   3 2.71
  57  0.400  0.600  0.407- 140 2.11 155 2.11 159 2.11 160 2.11 157 2.11
  58  0.500  0.700  0.407- 164 2.11 160 2.11 159 2.11 179 2.11 158 2.11
  59  0.400  0.700  0.503- 161 2.11 157 2.11 158 2.11 138 2.11 159 2.11   2 2.71
  60  0.500  0.600  0.503- 154 2.11 157 2.11 158 2.11 177 2.11 160 2.11
[...]
 190  0.900  0.300  0.503-  92 2.11  91 2.11  11 2.11  96 2.11  90 2.11
 191  0.800  0.300  0.407-  70 2.11  89 2.11  90 2.11  93 2.11  91 2.11
 192  0.900  0.200  0.407-  90 2.11  86 2.11  89 2.11   9 2.11  92 2.11
 193  0.800  0.400  0.503-  76 2.11  91 2.11  95 2.11  96 2.11  93 2.11
 194  0.900  0.500  0.503-  15 2.11  95 2.11  96 2.11 100 2.11  94 2.11
 195  0.800  0.500  0.407-  74 2.11  93 2.11  94 2.11  97 2.11  95 2.11
 196  0.900  0.400  0.407-  13 2.11  90 2.11  93 2.11  94 2.11  96 2.11
 197  0.800  0.600  0.503-  80 2.11  95 2.11  99 2.11 100 2.11  97 2.11
 198  0.900  0.700  0.503- 104 2.11  99 2.11 100 2.11  19 2.11  98 2.11
 199  0.800  0.700  0.407-  78 2.11 101 2.11  98 2.11  97 2.11  99 2.11
 200  0.900  0.600  0.407-  17 2.11  94 2.11  97 2.11  98 2.11 100 2.11
 201  0.800  0.800  0.503-  84 2.11  99 2.11 103 2.11 104 2.11 101 2.11
 202  0.900  0.900  0.503-  23 2.11  88 2.11 103 2.11 104 2.11 102 2.11
 203  0.800  0.900  0.407-  82 2.11  85 2.11 101 2.11 102 2.11 103 2.11
 204  0.900  0.800  0.407-  98 2.11  21 2.11 101 2.11 102 2.11 104 2.11

  LATTYP: Found a simple tetragonal cell.
 ALAT       =    21.1388521970
 C/A-ratio  =     1.0461251639

  Lattice vectors:

 A1 = (  21.1388521970,   0.0000000000,   0.0000000000)
 A2 = (   0.0000000000,  21.1388521970,   0.0000000000)
 A3 = (   0.0000000000,   0.0000000000,  22.1138852197)

Analysis of symmetry for initial positions (statically):
 Subroutine PRICEL returns:
 Original cell was already a primitive cell.

 Routine SETGRP: Setting up the symmetry group for a
 simple tetragonal supercell.

 Subroutine GETGRP returns: Found  2 space group operations
 (whereof  1 operations were pure point group operations)
 out of a pool of 16 trial point group operations.

[...]
     22     -46.7120      2.00000
     23     -46.7119      2.00000
     24     -46.7119      2.00000
     25     -46.7078      2.00000
     26     -46.7078      2.00000
     27     -46.7077      2.00000
     28     -46.7077      2.00000
     29     -46.6910      2.00000
     30     -46.6910      2.00000
     31     -46.6894      2.00000
     32     -46.6894      2.00000
     33     -46.6737      2.00000
     34     -46.6736      2.00000
     35     -46.6729      2.00000
     36     -46.6729      2.00000
     37     -46.6608      2.00000
     38     -46.6608      2.00000
     39     -46.6519      2.00000
     40     -46.6516      2.00000
     41     -46.6484      2.00000
     42     -46.6483      2.00000
     43     -46.6466      2.00000
     44     -46.6460      2.00000
     45     -46.6457      2.00000
     46     -46.6452      2.00000
     47     -46.6440      2.00000
     48     -46.6440      2.00000
     49     -46.6438      2.00000
     50     -46.6438      2.00000
     51     -46.6368      2.00000
     52     -46.6366      2.00000
     53     -46.6352      2.00000
     54     -46.6346      2.00000
     55     -46.6343      2.00000
     56     -46.6334      2.00000
     57     -46.6292      2.00000
     58     -46.6274      2.00000
     59     -46.6274      2.00000
     60     -46.6270      2.00000
[...]
   1010       7.2893      0.00000
   1011       7.3018      0.00000
   1012       7.3917      0.00000
   1013       7.4939      0.00000
   1014       7.5138      0.00000
   1015       7.6785      0.00000
   1016       7.6998      0.00000
   1017       7.7605      0.00000
   1018       7.7780      0.00000
   1019       7.8442      0.00000
   1020       7.9087      0.00000
   1021       7.9301      0.00000
   1022       7.9753      0.00000
   1023       8.0216      0.00000
   1024       8.0301      0.00000

 soft charge-density along one line, spin component           1
         0         1         2         3         4         5         6         7         8         9
 total charge-density along one line

------------------------ aborting loop because EDIFF is reached ----------------------------------------

 VOLUME and BASIS-vectors are now :
  energy-cutoff  :      520.00
  volume of cell :     9881.61
      direct lattice vectors                 reciprocal lattice vectors
    21.138852197  0.000000000  0.000000000     0.047306258  0.000000000  0.000000000
     0.000000000 21.138852197  0.000000000     0.000000000  0.047306258  0.000000000
     0.000000000  0.000000000 22.113885220     0.000000000  0.000000000  0.045220457

  length of vectors
    21.138852197 21.138852197 22.113885220     0.047306258  0.047306258  0.045220457

 FORCES acting on ions:
    Electron-Ion                     Ewald-Force                    Non-Local-Force
   0.483E+02 -.483E+02 -.197E+04   -.510E+02 0.510E+02 0.197E+04   0.241E+01 -.241E+01 0.304E+01
   0.221E+03 -.221E+03 -.203E+04   -.218E+03 0.218E+03 0.203E+04   -.294E+01 0.294E+01 -.249E+01
   -.221E+03 0.221E+03 -.203E+04   0.218E+03 -.218E+03 0.203E+04   0.294E+01 -.294E+01 -.249E+01
   -.483E+02 0.483E+02 -.197E+04   0.510E+02 -.510E+02 0.197E+04   -.241E+01 0.241E+01 0.304E+01
   0.457E+01 -.457E+01 0.938E+03   -.461E+01 0.461E+01 -.929E+03   0.266E-01 -.266E-01 -.720E+01
   0.896E+01 0.202E+01 0.939E+03   -.895E+01 -.195E+01 -.930E+03   -.408E-02 -.503E-01 -.720E+01
   0.331E+01 0.331E+01 -.919E+03   -.328E+01 -.328E+01 0.911E+03   -.179E-01 -.179E-01 0.711E+01
   0.139E+02 -.104E+02 -.917E+03   -.139E+02 0.105E+02 0.908E+03   0.237E-01 -.872E-01 0.711E+01
   0.202E+01 0.896E+01 0.939E+03   -.195E+01 -.895E+01 -.930E+03   -.503E-01 -.408E-02 -.720E+01
   0.143E+02 0.155E+02 0.945E+03   -.142E+02 -.155E+02 -.936E+03   -.471E-01 -.993E-03 -.721E+01
   0.314E+01 0.155E+02 -.915E+03   -.302E+01 -.155E+02 0.907E+03   -.825E-01 -.148E-02 0.711E+01
   0.132E+02 0.132E+02 -.916E+03   -.132E+02 -.132E+02 0.908E+03   -.374E-01 -.374E-01 0.711E+01
   0.487E+01 0.110E+02 0.946E+03   -.477E+01 -.110E+02 -.937E+03   -.699E-01 0.160E-01 -.721E+01
   0.281E+02 0.111E+02 0.958E+03   -.281E+02 -.113E+02 -.949E+03   -.709E-02 0.103E+00 -.722E+01
   0.128E+02 0.788E+01 -.910E+03   -.128E+02 -.792E+01 0.901E+03   -.281E-01 0.247E-01 0.710E+01
   0.306E+02 0.233E+02 -.907E+03   -.304E+02 -.233E+02 0.898E+03   -.957E-01 0.370E-01 0.709E+01
   0.121E+02 -.242E+01 0.950E+03   -.122E+02 0.238E+01 -.941E+03   0.690E-01 0.289E-01 -.721E+01
   0.318E+02 -.129E+02 0.961E+03   -.323E+02 0.128E+02 -.952E+03   0.333E+00 0.431E-01 -.724E+01
   0.203E+02 -.128E+02 -.910E+03   -.205E+02 0.128E+02 0.901E+03   0.136E+00 0.185E-01 0.711E+01
   0.581E+02 0.283E+01 -.893E+03   -.583E+02 -.301E+01 0.885E+03   0.139E+00 0.118E+00 0.708E+01
   0.109E+02 -.130E+02 0.944E+03   -.110E+02 0.130E+02 -.936E+03   0.130E+00 -.142E-01 -.720E+01
   0.158E+02 -.158E+02 0.945E+03   -.159E+02 0.159E+02 -.937E+03   0.951E-01 -.951E-01 -.719E+01
   0.104E+02 -.139E+02 -.917E+03   -.105E+02 0.139E+02 0.908E+03   0.873E-01 -.237E-01 0.711E+01
   0.387E+02 -.287E+02 -.904E+03   -.391E+02 0.288E+02 0.896E+03   0.308E+00 -.305E-01 0.711E+01
   0.130E+02 -.109E+02 0.944E+03   -.130E+02 0.110E+02 -.936E+03   0.142E-01 -.130E+00 -.720E+01
   0.110E+02 0.487E+01 0.946E+03   -.110E+02 -.477E+01 -.937E+03   0.160E-01 -.699E-01 -.721E+01
   0.155E+02 0.314E+01 -.915E+03   -.155E+02 -.302E+01 0.907E+03   -.148E-02 -.825E-01 0.711E+01
   0.128E+02 -.203E+02 -.910E+03   -.128E+02 0.205E+02 0.901E+03   -.185E-01 -.136E+00 0.711E+01
   0.155E+02 0.143E+02 0.945E+03   -.155E+02 -.142E+02 -.936E+03   -.993E-03 -.471E-01 -.721E+01
   0.252E+02 0.322E+02 0.964E+03   -.253E+02 -.321E+02 -.955E+03   0.636E-01 -.413E-01 -.726E+01
   0.329E+02 0.329E+02 -.905E+03   -.328E+02 -.328E+02 0.897E+03   -.552E-01 -.552E-01 0.709E+01
   0.233E+02 0.306E+02 -.907E+03   -.233E+02 -.304E+02 0.898E+03   0.370E-01 -.957E-01 0.709E+01
   0.322E+02 0.252E+02 0.964E+03   -.321E+02 -.253E+02 -.955E+03   -.413E-01 0.636E-01 -.726E+01
   0.426E+02 0.277E+02 0.101E+04   -.426E+02 -.282E+02 -.100E+04   -.167E-01 0.307E+00 -.748E+01
   0.791E+02 0.416E+02 -.870E+03   -.788E+02 -.419E+02 0.862E+03   -.233E+00 0.267E+00 0.701E+01
   0.671E+02 0.671E+02 -.862E+03   -.669E+02 -.669E+02 0.854E+03   -.127E+00 -.127E+00 0.699E+01
   0.499E+02 0.289E+01 0.992E+03   -.501E+02 -.338E+01 -.984E+03   0.122E+00 0.325E+00 -.719E+01
   0.342E+02 -.342E+02 0.103E+04   -.339E+02 0.339E+02 -.102E+04   -.171E+00 0.171E+00 -.507E+01
   0.109E+03 -.430E+02 -.840E+03   -.112E+03 0.427E+02 0.832E+03   0.167E+01 0.187E+00 0.721E+01
   0.120E+03 0.624E+02 -.699E+03   -.120E+03 -.655E+02 0.692E+03   -.426E+00 0.177E+01 0.552E+01
   0.312E+02 -.312E+02 0.970E+03   -.315E+02 0.315E+02 -.962E+03   0.212E+00 -.212E+00 -.709E+01
   0.129E+02 -.318E+02 0.961E+03   -.128E+02 0.323E+02 -.952E+03   -.432E-01 -.333E+00 -.724E+01
   0.287E+02 -.387E+02 -.904E+03   -.288E+02 0.391E+02 0.896E+03   0.304E-01 -.308E+00 0.711E+01
   0.431E+02 -.109E+03 -.840E+03   -.428E+02 0.112E+03 0.832E+03   -.187E+00 -.167E+01 0.721E+01
   0.242E+01 -.121E+02 0.950E+03   -.238E+01 0.122E+02 -.941E+03   -.289E-01 -.689E-01 -.721E+01
   -.242E+01 0.121E+02 0.950E+03   0.238E+01 -.122E+02 -.941E+03   0.289E-01 0.690E-01 -.721E+01
   0.788E+01 0.128E+02 -.910E+03   -.792E+01 -.128E+02 0.901E+03   0.247E-01 -.281E-01 0.710E+01
   -.788E+01 -.129E+02 -.910E+03   0.792E+01 0.128E+02 0.901E+03   -.247E-01 0.282E-01 0.710E+01
   0.111E+02 0.281E+02 0.958E+03   -.113E+02 -.281E+02 -.949E+03   0.103E+00 -.709E-02 -.722E+01
   0.289E+01 0.499E+02 0.992E+03   -.338E+01 -.501E+02 -.984E+03   0.325E+00 0.122E+00 -.719E+01
   0.416E+02 0.791E+02 -.870E+03   -.419E+02 -.788E+02 0.862E+03   0.267E+00 -.233E+00 0.701E+01
   0.283E+01 0.581E+02 -.893E+03   -.301E+01 -.583E+02 0.885E+03   0.118E+00 0.139E+00 0.708E+01
   0.277E+02 0.426E+02 0.101E+04   -.282E+02 -.426E+02 -.100E+04   0.307E+00 -.167E-01 -.748E+01
   -.768E+01 0.770E+01 0.105E+04   0.734E+01 -.737E+01 -.104E+04   0.223E+00 -.223E+00 -.748E+01
   0.666E+02 0.666E+02 -.737E+03   -.667E+02 -.667E+02 0.730E+03   0.100E+00 0.100E+00 0.657E+01
   0.624E+02 0.120E+03 -.699E+03   -.655E+02 -.120E+03 0.692E+03   0.177E+01 -.426E+00 0.552E+01
   0.770E+01 -.767E+01 0.105E+04   -.737E+01 0.734E+01 -.104E+04   -.223E+00 0.223E+00 -.748E+01
   -.277E+02 -.426E+02 0.101E+04   0.282E+02 0.426E+02 -.100E+04   -.307E+00 0.167E-01 -.748E+01
   -.624E+02 -.120E+03 -.699E+03   0.655E+02 0.120E+03 0.692E+03   -.177E+01 0.426E+00 0.552E+01
   -.665E+02 -.665E+02 -.737E+03   0.667E+02 0.667E+02 0.730E+03   -.101E+00 -.101E+00 0.657E+01
[...]
   -.181E+02 0.142E+02 0.716E+03   0.182E+02 -.143E+02 -.720E+03   -.210E+00 0.902E-01 0.315E+01
   -.563E+01 0.800E+01 0.706E+03   0.569E+01 -.802E+01 -.710E+03   -.754E-01 0.382E-01 0.312E+01
   -.422E+02 0.143E+02 -.672E+03   0.424E+02 -.143E+02 0.676E+03   -.252E+00 -.824E-01 -.330E+01
   -.142E+02 0.197E+01 -.682E+03   0.143E+02 -.193E+01 0.687E+03   -.510E-01 -.435E-01 -.327E+01
   -.251E+02 -.122E-01 0.723E+03   0.252E+02 0.151E+00 -.727E+03   -.132E+00 -.158E+00 0.311E+01
   -.984E+01 0.738E+01 0.712E+03   0.992E+01 -.736E+01 -.716E+03   -.107E+00 -.143E-01 0.312E+01
   -.339E+02 -.138E+02 -.676E+03   0.339E+02 0.139E+02 0.680E+03   -.161E-02 -.125E+00 -.331E+01
   -.496E+01 -.108E+02 -.685E+03   0.491E+01 0.108E+02 0.689E+03   0.582E-01 -.916E-02 -.326E+01
   -.155E+02 -.121E+02 0.714E+03   0.154E+02 0.122E+02 -.718E+03   0.419E-01 -.356E-01 0.309E+01
   -.646E+01 -.420E+01 0.713E+03   0.645E+01 0.424E+01 -.716E+03   0.882E-02 -.318E-01 0.311E+01
   -.147E+02 -.156E+02 -.686E+03   0.147E+02 0.156E+02 0.690E+03   0.605E-01 0.222E-01 -.326E+01
   -.171E+01 -.840E+01 -.690E+03   0.166E+01 0.840E+01 0.694E+03   0.481E-01 0.606E-02 -.324E+01
   -.770E+01 -.769E+01 0.707E+03   0.767E+01 0.767E+01 -.711E+03   0.270E-01 0.270E-01 0.311E+01
   -.194E+01 -.909E+01 0.708E+03   0.188E+01 0.910E+01 -.712E+03   0.627E-01 -.459E-02 0.312E+01
   -.726E+00 0.724E+00 0.117E+02   0.199E-11 0.119E-11 0.146E-10   0.329E-02 0.329E-02 -.108E+02

 POSITION                                       TOTAL-FORCE (eV/Angst)
      8.54545     12.59441     14.71338        -0.133354      0.134249     -0.031809
      7.02105     14.11881     13.31306        -0.005317      0.004559      0.007952
     12.00492      9.13494     13.31306         0.004559     -0.005317      0.007952
     10.48052     10.65934     14.71338         0.134249     -0.133354     -0.031809
      0.00000      0.00000      9.00000        -0.008501      0.008477      0.592802
      2.11389      2.11389      9.00000         0.001232      0.015482      0.594568
      0.00000      2.11389     11.11389         0.005467      0.005467     -0.561959
      2.11389      0.00000     11.11389        -0.007738      0.026473     -0.559871
      0.00000      4.22777      9.00000         0.015482      0.001232      0.594568
      2.11389      6.34166      9.00000         0.014896      0.001059      0.599184
      0.00000      6.34166     11.11389         0.025092      0.000852     -0.558501
      2.11389      4.22777     11.11389         0.011934      0.011934     -0.559189
      0.00000      8.45554      9.00000         0.020883     -0.004708      0.596558
      2.11389     10.56943      9.00000         0.000771     -0.032892      0.599541
      0.00000     10.56943     11.11389         0.008947     -0.007618     -0.552121
      2.11389      8.45554     11.11389         0.030362     -0.009476     -0.548322
      0.00000     12.68331      9.00000        -0.020935     -0.009859      0.596810
      2.11389     14.79720      9.00000        -0.095653     -0.014823      0.599114
      0.00000     14.79720     11.11389        -0.039092     -0.006472     -0.553843
      2.11389     12.68331     11.11389        -0.037470     -0.039313     -0.534760
      0.00000     16.91108      9.00000        -0.039524      0.004830      0.594014
      2.11389     19.02497      9.00000        -0.031193      0.031181      0.587037
      0.00000     19.02497     11.11389        -0.026501      0.007723     -0.559879
      2.11389     16.91108     11.11389        -0.090390      0.010471     -0.551814
      4.22777      0.00000      9.00000        -0.004845      0.039487      0.594011
      6.34166      2.11389      9.00000        -0.004708      0.020883      0.596558
      4.22777      2.11389     11.11389         0.000852      0.025092     -0.558501
      6.34166      0.00000     11.11389         0.006466      0.039040     -0.553851
      4.22777      4.22777      9.00000         0.001059      0.014896      0.599184
      6.34166      6.34166      9.00000        -0.016590      0.014607      0.615673
      4.22777      6.34166     11.11389         0.019316      0.019316     -0.546387
      6.34166      4.22777     11.11389        -0.009476      0.030362     -0.548322
      4.22777      8.45554      9.00000         0.014607     -0.016590      0.615673
      6.34166     10.56943      9.00000         0.010925     -0.084123      0.677819
      4.22777     10.56943     11.11389         0.088222     -0.065948     -0.487583
      6.34166      8.45554     11.11389         0.053217      0.053217     -0.480473
      4.22777     12.68331      9.00000        -0.048771     -0.117700      0.577012
      6.34166     14.79720      9.00000         0.067056     -0.066957      0.031930
      4.22777     14.79720     11.11389        -0.575753     -0.071642     -0.554423
      6.34166     12.68331     11.11389         0.000804     -1.002958     -0.625804
      4.22777     16.91108      9.00000        -0.080652      0.080670      0.542833
      6.34166     19.02497      9.00000         0.014824      0.095617      0.599176
      4.22777     19.02497     11.11389        -0.010468      0.090372     -0.551814
      6.34166     16.91108     11.11389         0.071691      0.575771     -0.554456
      8.45554      0.00000      9.00000         0.009847      0.020884      0.596808
     10.56943      2.11389      9.00000        -0.009859     -0.020935      0.596810
      8.45554      2.11389     11.11389        -0.007618      0.008947     -0.552121
     10.56943      0.00000     11.11389         0.007605     -0.009012     -0.552124
      8.45554      4.22777      9.00000        -0.032892      0.000771      0.599541
     10.56943      6.34166      9.00000        -0.117700     -0.048771      0.577012
      8.45554      6.34166     11.11389        -0.065948      0.088222     -0.487583
     10.56943      4.22777     11.11389        -0.039313     -0.037470     -0.534760
      8.45554      8.45554      9.00000        -0.084123      0.010925      0.677819
     10.56943     10.56943      9.00000        -0.080688      0.080742      0.643021
      8.45554     10.56943     11.11389        -0.009076     -0.009076     -0.197392
     10.56943      8.45554     11.11389        -1.002958      0.000804     -0.625804
      8.45554     12.68331      9.00000         0.080742     -0.080688      0.643021
     10.56943     14.79720      9.00000         0.084124     -0.010934      0.677919
      8.45554     14.79720     11.11389         1.004010     -0.000482     -0.626947
     10.56943     12.68331     11.11389         0.009192      0.009192     -0.197133
[...]
     19.02497      6.34166     11.11389        -0.036253      0.005242      0.379758
     16.91108      6.34166      9.00000        -0.068888      0.029086     -0.407034
     19.02497      4.22777      9.00000        -0.024644      0.012430     -0.416219
     16.91108      8.45554     11.11389        -0.086160     -0.026336      0.367633
     19.02497     10.56943     11.11389        -0.017032     -0.014284      0.373943
     16.91108     10.56943      9.00000        -0.043237     -0.051015     -0.420117
     19.02497      8.45554      9.00000        -0.035167     -0.004725     -0.417751
     16.91108     12.68331     11.11389        -0.001649     -0.041294      0.363419
     19.02497     14.79720     11.11389         0.019032     -0.002987      0.377563
     16.91108     14.79720      9.00000         0.013705     -0.011688     -0.425503
     19.02497     12.68331      9.00000         0.002893     -0.010359     -0.421177
     16.91108     16.91108     11.11389         0.019598      0.007144      0.377047
     19.02497     19.02497     11.11389         0.015700      0.001936      0.383454
     16.91108     19.02497      9.00000         0.008803      0.008803     -0.419862
     19.02497     16.91108      9.00000         0.020519     -0.001498     -0.419174
    total drift:                               -0.723463      0.726878     -0.637018

  FREE ENERGIE OF THE ION-ELECTRON SYSTEM (eV)
  free  energy   TOTEN  =     -1390.15722575 eV

  energy  without entropy=    -1390.15722575  energy(sigma->0) =    -1390.15722575