 vasp.6.4.0 14Feb23 (build Mar 22 2023 21:21:37) complex

 executed on           IFC15_impi date 2023.05.05  19:41:36

 INCAR:
   SYSTEM = MgO-rocksalt
   ISMEAR = 0
   SIGMA = 0.05
   EDIFF = 1E-6
   ALGO = ALL
   ISTART = 0
   IBRION = -1
   NSW = 0
   ISYM = 2
   DIPOL = 0.5 0.5 0.5
   IDIPOL = 3
   LDIPOL = .TRUE.
   METAGGA = R2SCAN
   IVDW = 12
   VDW_S8 = 0.7898
   VDW_A1 = 0.4948
   VDW_A2 = 5.7308
   ENCUT = 520
   PREC = Accurate
   LASPH = .TRUE.
   LREAL = Auto
   ISPIN = 1
   NELM = 200
   NELMIN = 8
   NCORE = 4
   KPAR = 2
   LWAVE = .FALSE.
   LCHARG = .FALSE.

 POTCAR:    PAW_PBE Au 04Oct2007
 POTCAR:    PAW_PBE Mg_pv 13Apr2007
 POTCAR:    PAW_PBE O 08Apr2002
 POTCAR:    PAW_PBE Au 04Oct2007
   VRHFIN =Au: s1d10

   TITEL  = PAW_PBE Au 04Oct2007
   POMASS =  196.966; ZVAL   =   11.000    mass and valenz
   ENMAX  =  229.943; ENMIN  =  172.457 eV

   TITEL  = PAW_PBE Mg_pv 13Apr2007
   POMASS =   24.305; ZVAL   =    8.000    mass and valenz
   ENMAX  =  403.929; ENMIN  =  302.947 eV

   TITEL  = PAW_PBE O 08Apr2002
   POMASS =   16.000; ZVAL   =    6.000    mass and valenz
   ENMAX  =  400.000; ENMIN  =  300.000 eV

 Optimization of the real space projectors (new method)

 maximal supplied QI-value         = 15.12
 optimisation between [QCUT,QGAM] = [ 11.64, 23.28] = [ 37.95,151.78] Ry
 Optimized for a Real-space Cutoff    1.49 Angstroem

   l    n(q)    QCUT    max X(q) W(low)/X(q) W(high)/X(q)  e(spline)
   2      9    11.641    60.898    0.24E-03    0.10E-03    0.19E-06
   2      9    11.641    58.894    0.25E-03    0.10E-03    0.19E-06
   0     10    11.641   109.617    0.73E-04    0.33E-04    0.11E-06
   0     10    11.641    75.026    0.71E-04    0.32E-04    0.11E-06
   1     10    11.641    16.344    0.27E-04    0.97E-04    0.16E-06
   1     10    11.641    10.160    0.23E-04    0.77E-04    0.13E-06
 Optimization of the real space projectors (new method)

[...]

   l    n(q)    QCUT    max X(q) W(low)/X(q) W(high)/X(q)  e(spline)
   1      8    11.527     2.974    0.44E-04    0.56E-04    0.12E-06
   1      8    11.527     4.279    0.12E-03    0.12E-03    0.26E-06
   0      9    11.527    16.381    0.46E-04    0.64E-04    0.78E-07
   0      9    11.527     5.611    0.26E-04    0.43E-04    0.55E-07
   2      8    11.527     4.652    0.22E-03    0.72E-04    0.47E-07
 Optimization of the real space projectors (new method)

 maximal supplied QI-value         = 24.76
 optimisation between [QCUT,QGAM] = [ 11.64, 23.27] = [ 37.91,151.63] Ry
 Optimized for a Real-space Cutoff    1.14 Angstroem

   l    n(q)    QCUT    max X(q) W(low)/X(q) W(high)/X(q)  e(spline)
   0      8    11.635    20.381    0.10E-03    0.33E-03    0.24E-06
   0      8    11.635    15.268    0.11E-03    0.35E-03    0.26E-06
   1      7    11.635     5.964    0.24E-03    0.31E-03    0.30E-06
   1      7    11.635     5.382    0.22E-03    0.25E-03    0.26E-06
  PAW_PBE Au 04Oct2007                  :
  PAW_PBE Mg_pv 13Apr2007               :
  PAW_PBE O 08Apr2002                   :

 POSCAR: Mg  O
  positions in direct lattice
  velocities in cartesian coordinates

 METAGGA = R2SCAN                                      LMAXTAU =  6    LMIXTAU =  F

 ion  position               nearest neighbor table
   1  0.498  0.433  0.611-  11 2.70  17 2.71  13 2.72   3 2.73   4 2.76   8 2.78
   2  0.326  0.314  0.579- 246 2.42  14 2.70  13 2.70  19 2.73  11 2.77  67 2.88  52 3.07
   3  0.558  0.545  0.592-   9 2.71   8 2.73   1 2.73  17 2.75  91 3.03
   4  0.567  0.324  0.619-  17 2.70   7 2.70  15 2.71  13 2.71   6 2.75   1 2.76
   5  0.449  0.096  0.604-  10 2.66  19 2.71   7 2.81
   6  0.637  0.214  0.618-   7 2.71  15 2.71  16 2.72   4 2.75  20 2.77  10 2.77
   7  0.510  0.210  0.625-  19 2.68   4 2.70   6 2.71  10 2.74  13 2.76   5 2.81
   8  0.428  0.542  0.592-  11 2.69   3 2.73   1 2.78  71 2.93
   9  0.685  0.549  0.597-  18 2.67   3 2.71  17 2.72
  10  0.574  0.099  0.611-  16 2.63   5 2.66   7 2.74   6 2.77
  11  0.370  0.431  0.607-  14 2.65   8 2.69   1 2.70   2 2.77  13 2.80
  12  0.820  0.335  0.592-  18 2.67  15 2.70  20 2.75 107 2.87
  13  0.439  0.320  0.621-   2 2.70   4 2.71   1 2.72   7 2.76  19 2.76  11 2.80
  14  0.251  0.417  0.581- 249 2.61  11 2.65   2 2.70  52 2.70
  15  0.695  0.328  0.609-  12 2.70  17 2.71   4 2.71   6 2.71  20 2.75  18 2.80
  16  0.687  0.112  0.575- 282 2.27  10 2.63   6 2.72  20 2.76  83 2.93  88 2.98
  17  0.626  0.436  0.607-   4 2.70  15 2.71   1 2.71   9 2.72   3 2.75  18 2.78
  18  0.756  0.444  0.596-   9 2.67  12 2.67  17 2.78  15 2.80
  19  0.403  0.210  0.577- 265 2.29   7 2.68   5 2.71   2 2.73  13 2.76  67 3.04
  20  0.759  0.221  0.584- 305 2.65  12 2.75  15 2.75  16 2.76   6 2.77  88 2.86
  21  0.000  1.000  0.430- 239 2.11 224 2.11 304 2.11 321 2.12 223 2.12 221 2.13
  22  0.100  0.100  0.430- 224 2.11 223 2.11 243 2.11 322 2.12 228 2.12 222 2.13
  23  0.000  0.099  0.500- 302 2.10 222 2.11 223 2.11 221 2.11 225 2.12
  24  0.100  0.999  0.500- 224 2.11 238 2.11 221 2.11 241 2.11 222 2.12
  25  1.000  0.200  0.430- 227 2.11 228 2.11 223 2.11 308 2.12 325 2.12 225 2.14
  26  0.100  0.300  0.430- 227 2.11 232 2.11 228 2.11 247 2.12 326 2.12 226 2.14
  27  0.000  0.300  0.500- 226 2.11 227 2.11 306 2.11 229 2.11 225 2.12
  28  0.099  0.200  0.500- 225 2.10 228 2.11 245 2.11 222 2.11 226 2.13
  29  1.000  0.400  0.430- 312 2.10 231 2.11 227 2.12 329 2.12 232 2.13 229 2.14
  30  0.100  0.500  0.430- 231 2.11 236 2.11 251 2.11 232 2.12 330 2.12 230 2.13
  31  1.000  0.501  0.500- 310 2.10 233 2.10 231 2.11 230 2.12 229 2.12
  32  0.098  0.401  0.500- 229 2.08 230 2.10 232 2.11 249 2.12 226 2.13
  33  1.000  0.600  0.430- 316 2.11 235 2.11 231 2.12 236 2.12 333 2.12 233 2.13
  34  0.100  0.700  0.430- 235 2.11 240 2.11 255 2.11 236 2.11 334 2.12 234 2.13
  35  1.000  0.700  0.500- 235 2.11 314 2.11 233 2.11 237 2.11 234 2.11
  36  0.100  0.601  0.500- 234 2.11 233 2.11 236 2.11 253 2.12 230 2.12
  37  1.000  0.800  0.430- 235 2.11 320 2.11 240 2.11 239 2.12 337 2.12 237 2.13
  38  0.100  0.900  0.430- 240 2.11 239 2.11 259 2.11 224 2.12 338 2.12 238 2.13
  39  0.000  0.899  0.500- 239 2.10 237 2.11 238 2.11 318 2.11 221 2.12
  40  0.100  0.800  0.500- 240 2.11 234 2.11 237 2.11 257 2.11 238 2.11
  41  0.200  1.000  0.430- 259 2.11 224 2.11 244 2.11 341 2.12 243 2.12 241 2.13
  42  0.300  0.099  0.430- 244 2.10 263 2.11 243 2.11 342 2.12 248 2.13 242 2.13
  43  0.199  0.099  0.500- 241 2.10 222 2.10 243 2.11 242 2.12 245 2.13
  44  0.300  0.999  0.500- 258 2.10 244 2.11 241 2.11 261 2.12 242 2.12
  45  0.199  0.200  0.430- 228 2.10 243 2.11 345 2.12 248 2.12 247 2.13 245 2.14
  46  0.300  0.300  0.429- 267 2.10 252 2.10 346 2.11 248 2.11 247 2.11 246 2.16
  47  0.198  0.299  0.500- 226 2.08 247 2.11 245 2.11 246 2.12 249 2.13
  48  0.297  0.198  0.500- 245 2.08 242 2.08 248 2.09 246 2.13 265 2.13
  49  0.200  0.400  0.429- 251 2.10 232 2.10 252 2.11 349 2.11 247 2.11 249 2.21
  50  0.300  0.501  0.430- 250 2.10 271 2.10 256 2.11 350 2.12 251 2.12 252 2.14
  51  0.200  0.502  0.500- 253 2.09 251 2.11 250 2.11 230 2.11 249 2.15
  52  0.302  0.402  0.499- 269 2.08 252 2.08 250 2.09 249 2.19 246 2.20  14 2.70   2 3.07
  53  0.200  0.600  0.430- 255 2.11 256 2.11 236 2.11 353 2.12 251 2.13 253 2.13
  54  0.300  0.700  0.430- 256 2.11 275 2.11 260 2.11 255 2.12 354 2.12 254 2.13
  55  0.200  0.700  0.500- 255 2.11 253 2.11 257 2.11 254 2.11 234 2.11
  56  0.300  0.601  0.500- 250 2.10 254 2.11 273 2.11 256 2.11 253 2.12
  57  0.200  0.800  0.430- 255 2.11 260 2.11 240 2.11 259 2.12 357 2.12 257 2.13
  58  0.300  0.900  0.430- 260 2.11 279 2.11 259 2.11 244 2.12 358 2.12 258 2.13
  59  0.200  0.900  0.500- 259 2.11 257 2.11 238 2.11 258 2.11 241 2.12
  60  0.300  0.800  0.500- 260 2.11 254 2.11 258 2.11 277 2.11 257 2.12
[...]
 406  0.900  0.300  0.359- 208 2.11 207 2.11 127 2.11 212 2.11 206 2.11 106 2.12
 407  0.800  0.300  0.289- 186 2.11 205 2.11 206 2.11 209 2.11 207 2.11
 408  0.900  0.200  0.289- 206 2.11 202 2.11 205 2.11 125 2.11 208 2.11
 409  0.800  0.400  0.359- 109 2.11 192 2.11 207 2.11 211 2.11 212 2.11 209 2.11
 410  0.900  0.500  0.359- 131 2.11 211 2.11 212 2.11 216 2.11 210 2.11 110 2.12
 411  0.800  0.500  0.289- 190 2.11 209 2.11 210 2.11 213 2.11 211 2.11
 412  0.900  0.400  0.289- 129 2.11 206 2.11 209 2.11 210 2.11 212 2.11
 413  0.800  0.600  0.359- 196 2.11 211 2.11 215 2.11 216 2.11 213 2.11 113 2.12
 414  0.900  0.700  0.359- 220 2.11 215 2.11 216 2.11 135 2.11 214 2.11 114 2.12
 415  0.800  0.700  0.289- 194 2.11 217 2.11 214 2.11 213 2.11 215 2.11
 416  0.900  0.600  0.289- 133 2.11 210 2.11 213 2.11 214 2.11 216 2.11
 417  0.800  0.800  0.359- 200 2.11 215 2.11 219 2.11 220 2.11 217 2.11 117 2.12
 418  0.900  0.900  0.359- 139 2.11 204 2.11 219 2.11 220 2.11 218 2.11 118 2.12
 419  0.800  0.900  0.289- 198 2.11 201 2.11 217 2.11 218 2.11 219 2.11
 420  0.900  0.800  0.289- 214 2.11 137 2.11 217 2.11 218 2.11 220 2.11

  LATTYP: Found a simple tetragonal cell.
 ALAT       =    21.1388521970
 C/A-ratio  =     1.4191877459

  Lattice vectors:

 A1 = (  21.1388521970,   0.0000000000,   0.0000000000)
 A2 = (   0.0000000000,  21.1388521970,   0.0000000000)
 A3 = (   0.0000000000,   0.0000000000,  30.0000000000)

Analysis of symmetry for initial positions (statically):
 Subroutine PRICEL returns:
 Original cell was already a primitive cell.

 Routine SETGRP: Setting up the symmetry group for a
 simple tetragonal supercell.

 Subroutine GETGRP returns: Found  1 space group operations
 (whereof  1 operations were pure point group operations)
 out of a pool of 16 trial point group operations.

The static configuration has the point symmetry C_1 .

Analysis of symmetry for dynamics (positions and initial velocities):
 Subroutine PRICEL returns:
 Original cell was already a primitive cell.

[...]

The dynamic configuration has the point symmetry C_1 .

Analysis of constrained symmetry for selective dynamics:
 Subroutine PRICEL returns:
 Original cell was already a primitive cell.

 Routine SETGRP: Setting up the symmetry group for a
 simple tetragonal supercell.

 Subroutine GETGRP returns: Found  1 space group operations
 (whereof  1 operations were pure point group operations)
 out of a pool of 16 trial point group operations.

The constrained configuration has the point symmetry C_1 .

 Subroutine INISYM returns: Found  1 space group operations
 (whereof  1 operations are pure point group operations),
 and found     1 'primitive' translations

                                     Primitive cell

  volume of cell :   13405.5322

  direct lattice vectors                    reciprocal lattice vectors
    21.138852197  0.000000000  0.000000000     0.047306258  0.000000000  0.000000000
     0.000000000 21.138852197  0.000000000     0.000000000  0.047306258  0.000000000
     0.000000000  0.000000000 30.000000000     0.000000000  0.000000000  0.033333333

  length of vectors
    21.138852197 21.138852197 30.000000000     0.047306258  0.047306258  0.033333333

  position of ions in fractional coordinates (direct lattice)
     0.497653430  0.433301918  0.611398906
     0.326191035  0.313929231  0.578738456
     0.557546139  0.544553129  0.592090395
[...]
  506                  m_alltoallv_z                         0.059327                  6   8
  507                  map_scatter                           0.020414                  6   8
  508          m_sumb_d                              0.001700                          3   4
  509        fortau                                3.029294                            1   3
  510          m_sumb_d                              0.000200                          1   4
  511        forhar                                2.978006                            1   3
  512          m_sumb_d                              0.000248                          1   4
  513        strehar                               0.040327                            1   3
  514          m_sumb_d                              0.007138                          1   4
  515        m_bcast_d                             0.000849                            2   3
  516      potlok                                0.171081                              1   2
  517        fft3d_mpi                             0.115919                            5   3
  518          fftbrc_mpi                            0.106855                          5   4
  519            fftbas_plan_mpi                       0.106773                        5   5
  520              dfftw_execute                         0.035246                     15   6
  521              map_backward                          0.027677                      4   6
  522                map_gather                            0.003201                    2   7
  523                m_alltoallv_z                         0.017593                    2   7
  524                map_scatter                           0.006824                    2   7
  525              map_forward                           0.039600                      6   6
  526                map_gather                            0.006208                    4   7
  527                m_alltoallv_z                         0.021626                    4   7
  528                map_scatter                           0.011666                    4   7
  529        m_sumb_d                              0.002576                            2   3
  530        fewald                                0.001389                            2   3
  531          rsp                                   0.001283                          2   4
  532          rcp                                   0.000091                          2   4
  533        pothar                                0.005444                            1   3
  534          m_sumb_d                              0.001728                          1   4
  535        m_bcast_d                             0.012616                            1   3
  536      potlok_metagga                        2.921791                              1   2
  537        fft3d_mpi                             0.396828                           17   3
  538          fftbrc_mpi                            0.370401                         17   4
  539            fftbas_plan_mpi                       0.370339                       17   5
  540              dfftw_execute                         0.115168                     51   6
  541              map_forward                           0.157015                     22   6
  542                map_gather                            0.026864                   13   7
  543                m_alltoallv_z                         0.101634                   13   7
  544                map_scatter                           0.028177                   13   7
  545              map_backward                          0.085633                     12   6
  546                map_gather                            0.009241                    6   7
  547                m_alltoallv_z                         0.055313                    6   7
  548                map_scatter                           0.020915                    6   7
  549        m_sumb_d                              0.000794                            3   3
  550        m_bcast_d                             0.025195                            2   3
  551      set_dd_magatom                        0.000001                              1   2
  552      set_dd_paw                            5.075891                              1   2
  553        set_rsgf_all                          0.000002                            1   3
  554        m_sumb_d                              3.929642                            8   3

 Flat profile

 dfftw_execute                        1830.146941      239454
 edwav                                 839.843189          49
 lincom                                338.725208         154
 m_sumb_d                              323.733355       28308
 map_scatter                           296.103754       80090
 kinhamil_tau                          294.840133        8048
 map_gather                            251.324361       80090
 fftwav_mpi                            221.941982       44920
 orth1                                 183.971516        7158
 m_alltoallv_z                         165.807148       80090
 eddav                                 163.242240           5
 map_forward                           159.379351       91464
 potlok_metagga                        126.974303          51
 wfinit                                 91.401550           1
 set_kineden                            82.083535          69
 set_dd_paw                             59.307533          52
 ggemm                                  54.465765        1265
 eccp_tau                               54.439107        5700
 fftbas_plan_mpi                        50.508260       79818
 m_alltoall_d                           45.867253       53885
 force_and_stress                       43.646676           1
 choleski                               33.217522          50
 fftext_mpi                             31.019646       33503
 eddiag                                 25.507589          27
 total_time                             21.284244           1
 crrexp_mul_work_add                    19.350301      962220
 m_bcast_z                              18.821412        2896
 crrexp_mul_wave                        15.271350     1153740
 vhamil                                 14.408145        2348
 rpro1                                  14.070621        2006
 pw_charge                              13.099060        2400
 racc0                                  10.841967        1311
 lapack                                  7.295756         980
 gemm                                    6.952921      411600
 w1_dscal                                5.544286        1311
 redis_pw                                5.405131        8147
 setdij_                                 4.379870          78
 augmentation_charge                     4.202991          50
 rspher_all                              3.668693          14
 phaser                                  3.155931          41
 fortau                                  3.029094           1
 forloc                                  2.985361           1
 forhar                                  2.977758           1
 fft3d_mpi                               2.817417       79818
 rpromu_gemm                             2.611505       81900
 potxc_metagga                           2.488504           1
 m_bcast_d                               2.091729        2117
 potlok                                  1.940174          51
 racc0mu                                 1.916296         980
 stufak                                  1.798008           1
 orthch                                  1.097737          50
 map_backward                            0.985836       68172
 overl                                   0.907321        3083
 rpromu                                  0.863641         195
 w1_copy                                 0.863170        2940
 elmin_all                               0.625381           1
 stretau                                 0.616635           1
 soft_charge                             0.392097          50
 redis_proj                              0.362278        7826
 fftbas_mpi                              0.306822       78423
 setup_precond                           0.270044         285
 apply_precond                           0.246753         695
 depsum                                  0.217154          50
 pothar                                  0.186983          51
 inisym                                  0.180294           1
 overl1                                  0.133780         980
 fft_gq                                  0.088197          50
 rsp                                     0.077229         103
 set_charge                              0.054799          50
 strnlr                                  0.053309           1
 densta                                  0.048244          61
 strkin                                  0.033286           1
 strehar                                 0.033189           1
 hamiltmu_tau                            0.030238         980
 strelo                                  0.026686           1
 hamilt_local_tau                        0.024131        1368
 newband                                 0.020515         985
 fornlr                                  0.017822           1
 raccmu_                                 0.015354         980
 fewald                                  0.011656         103
 rpro_isp                                0.010056          13
 rcp                                     0.006146         103
 fftbrc_mpi                              0.005172        1395
 w1_projall                              0.004308         695
 brgrid                                  0.002987           1
 truncate_high_frequency_w1              0.001443        1265
 fordep                                  0.000708           1
 redis_pw_all                            0.000460          49
 crpa_reader                             0.000308           1
 posmap                                  0.000256           2
 redis_pw_over_bands                     0.000227          50
 set_rsgf_all                            0.000129          52
 proall                                  0.000071           1
 vectorpot                               0.000027           1
 rotate_active_occupied_orbital          0.000019           1
 set_dd_magatom                          0.000009           2
 shift_bands_between_low_high            0.000008           1
  summed up times    5968.72936010361

 Accumulative profile

 total_time                           5968.729360           1
 elmin_all                            5556.914134           1
 edwav                                3224.990968          49
 fft3d_mpi                            2757.385062       79818
 fftbas_plan_mpi                      2754.255651       79818
 fftbas_mpi                           2724.211611       78423
 kinhamil_tau                         2371.978116        8048
 fftwav_mpi                           1855.921339       44920
 dfftw_execute                        1830.146941      239454
 eccp_tau                             1730.608423        5700
 fftext_mpi                           1121.588564       33503
 eddav                                 810.541353           5
 set_kineden                           582.311218          69
 map_forward                           575.104843       91464
 eddiag                                555.972106          27
 hamilt_local_tau                      412.614074        1368
 lincom                                338.725208         154
 m_sumb_d                              323.733355       28308
 hamiltmu_tau                          316.209542         980
 map_backward                          298.495606       68172
 map_scatter                           296.103754       80090
 set_dd_paw                            266.030257          52
 force_and_stress                      262.376772           1
 map_gather                            251.324361       80090
 orthch                                228.794307          50
 orth1                                 183.971516        7158
 m_alltoallv_z                         165.807148       80090
 stretau                               160.740082           1
 potlok_metagga                        149.299099          51
 set_charge                            122.826659          50
 soft_charge                           116.874341          50
 wfinit                                109.682425           1
 newband                               101.949974         985
 ggemm                                  54.465765        1265
 m_alltoall_d                           45.867253       53885
 redis_pw                               41.319737        8147
 rpro_isp                               37.971956          13
 choleski                               33.217522          50
 racc0                                  31.149568        1311
 fftbrc_mpi                             30.356034        1395
 strnlr                                 29.560217           1
 rpro1                                  25.775746        2006
 crrexp_mul_work_add                    19.350301      962220
 m_bcast_z                              18.821412        2896
 raccmu_                                17.836668         980
 racc0mu                                17.687534         980
 crrexp_mul_wave                        15.271350     1153740
 vhamil                                 14.408145        2348
 pw_charge                              13.099060        2400
 redis_proj                             10.314924        7826
 fornlr                                  9.903865           1
 w1_projall                              9.311502         695
 potlok                                  8.840767          51
 rpromu                                  7.644227         195
 lapack                                  7.295756         980
 gemm                                    6.952921      411600
 w1_dscal                                5.544286        1311
 augmentation_charge                     5.399966          50
 redis_pw_over_bands                     5.362118          50
 redis_pw_all                            5.361891          49
 densta                                  5.227847          61
 setdij_                                 4.828992          78
 rspher_all                              3.668693          14
 phaser                                  3.155931          41
 proall                                  3.086544           1
 fortau                                  3.029294           1
 forloc                                  2.987826           1
 forhar                                  2.978006           1
 potxc_metagga                           2.802600           1
 rpromu_gemm                             2.611505       81900
 m_bcast_d                               2.091729        2117
 stufak                                  1.798008           1
 fft_gq                                  1.212092          50
 overl                                   0.907321        3083
 w1_copy                                 0.863170        2940
 depsum                                  0.497554          50
 fordep                                  0.362471           1
 setup_precond                           0.292675         285
 pothar                                  0.248914          51
 apply_precond                           0.246753         695
 fewald                                  0.231050         103
 inisym                                  0.180550           1
 overl1                                  0.133780         980
 rsp                                     0.077229         103
 strehar                                 0.040327           1
 strkin                                  0.033495           1
 strelo                                  0.027590           1
 rcp                                     0.006146         103
 brgrid                                  0.002987           1
 truncate_high_frequency_w1              0.001443        1265
 crpa_reader                             0.000308           1
 posmap                                  0.000256           2
 set_rsgf_all                            0.000129          52
 vectorpot                               0.000027           1
 rotate_active_occupied_orbital          0.000019           1
 set_dd_magatom                          0.000009           2
 shift_bands_between_low_high            0.000008           1

Profiling took   5.051802  1.248888  0.006526  0.006271 seconds
Profiling took   4.234179 seconds