 vasp.6.3.0 20Jan22 (build Apr  1 2022 16:44:48) complex
 executed on        HPECrayEX_GCC date 2022.08.15  20:09:31

 INCAR:
   SYSTEM = MgO-rocksalt
   ISMEAR = 0
   SIGMA = 0.05
   EDIFF = 1E-6
   ALGO = ALL
   ISTART = 0
   IBRION = -1
   NSW = 0
   ISYM = 2
   DIPOL = 0.5 0.5 0.5
   IDIPOL = 3
   LDIPOL = .TRUE.
   GGA = ML
   LUSE_VDW = .TRUE.
   ZAB_VDW = -1.8867
   AGGAC = 0.0000
   ENCUT = 520
   PREC = Accurate
   LASPH = .TRUE.
   LREAL = Auto
   ISPIN = 1
   NELM = 200
   NELMIN = 8
   NCORE = 4
   KPAR = 2
   LWAVE = .FALSE.
   LCHARG = .FALSE.

 POTCAR:    PAW_PBE Au 04Oct2007
 POTCAR:    PAW_PBE Mg_pv 13Apr2007
 POTCAR:    PAW_PBE O 08Apr2002
|               ----> ADVICE to this user running VASP <----                  |
|     You have switched on vdW-DFT.                                           |
|     This routine was written and supplied by Jiri Klimes. We recommend      |
|     that you carefully read and cite the following publications:            |
|       J. Klimes, D.R. Bowler, A. Michelides                                 |
|          J. Phys.: Cond Matt. 22 022201 (2010)                              |
|       J. Klimes, D.R. Bowler, A. Michelides                                 |
|          Phys. Rev. B. 83, 195131 (2011)                                    |
|     and references therein.                                                 |

   TITEL  = PAW_PBE Au 04Oct2007
   POMASS =  196.966; ZVAL   =   11.000    mass and valenz
   ENMAX  =  229.943; ENMIN  =  172.457 eV

   TITEL  = PAW_PBE Mg_pv 13Apr2007
   POMASS =   24.305; ZVAL   =    8.000    mass and valenz
   ENMAX  =  403.929; ENMIN  =  302.947 eV

   TITEL  = PAW_PBE O 08Apr2002
   POMASS =   16.000; ZVAL   =    6.000    mass and valenz
   ENMAX  =  400.000; ENMIN  =  300.000 eV

 Optimization of the real space projectors (new method)

 maximal supplied QI-value         = 15.12
 optimisation between [QCUT,QGAM] = [ 11.64, 23.28] = [ 37.95,151.78] Ry
 Optimized for a Real-space Cutoff    1.49 Angstroem

   l    n(q)    QCUT    max X(q) W(low)/X(q) W(high)/X(q)  e(spline)
   2      9    11.641    60.898    0.24E-03    0.10E-03    0.19E-06
   2      9    11.641    58.894    0.25E-03    0.10E-03    0.19E-06
   0     10    11.641   109.617    0.73E-04    0.33E-04    0.11E-06
   0     10    11.641    75.026    0.71E-04    0.32E-04    0.11E-06
   1     10    11.641    16.344    0.27E-04    0.97E-04    0.16E-06
   1     10    11.641    10.160    0.23E-04    0.77E-04    0.13E-06
 Optimization of the real space projectors (new method)

[...]

   l    n(q)    QCUT    max X(q) W(low)/X(q) W(high)/X(q)  e(spline)
   1      8    11.527     2.974    0.44E-04    0.56E-04    0.12E-06
   1      8    11.527     4.279    0.12E-03    0.12E-03    0.26E-06
   0      9    11.527    16.381    0.46E-04    0.64E-04    0.78E-07
   0      9    11.527     5.611    0.26E-04    0.43E-04    0.55E-07
   2      8    11.527     4.652    0.22E-03    0.72E-04    0.47E-07
 Optimization of the real space projectors (new method)

 maximal supplied QI-value         = 24.76
 optimisation between [QCUT,QGAM] = [ 11.64, 23.27] = [ 37.91,151.63] Ry
 Optimized for a Real-space Cutoff    1.14 Angstroem

   l    n(q)    QCUT    max X(q) W(low)/X(q) W(high)/X(q)  e(spline)
   0      8    11.635    20.381    0.10E-03    0.33E-03    0.24E-06
   0      8    11.635    15.268    0.11E-03    0.35E-03    0.26E-06
   1      7    11.635     5.964    0.24E-03    0.31E-03    0.30E-06
   1      7    11.635     5.382    0.22E-03    0.25E-03    0.26E-06
|               ----> ADVICE to this user running VASP <----                  |
|     You enforced a specific xc type in the INCAR file but a different       |
|     type was found in the POTCAR file.                                      |
|     I HOPE YOU KNOW WHAT YOU ARE DOING!                                     |

  PAW_PBE Au 04Oct2007                  :
  PAW_PBE Mg_pv 13Apr2007               :
  PAW_PBE O 08Apr2002                   :

 POSCAR: Au Mg  O
  positions in direct lattice
 exchange correlation table for  LEXCH =       44
   RHO(1)=    0.500       N(1)  =     2000
   RHO(2)=  100.500       N(2)  =     4000

 ion  position               nearest neighbor table
   1  0.492  0.408  0.630-   2 2.53  54 2.82
   2  0.408  0.492  0.630-   1 2.53  53 2.82
   3  0.000  0.000  0.407- 105 2.11 106 2.11 121 2.11 186 2.11 103 2.11
   4  0.100  0.100  0.407- 105 2.11 106 2.11 110 2.11 125 2.11 104 2.11
   5  0.000  0.100  0.503- 103 2.11 104 2.11 107 2.11 184 2.11 105 2.11
   6  0.100  0.000  0.503- 103 2.11 104 2.11 120 2.11 123 2.11 106 2.11
   7  0.000  0.200  0.407- 109 2.11 105 2.11 110 2.11 190 2.11 107 2.11
   8  0.100  0.300  0.407- 110 2.11 109 2.11 114 2.11 129 2.11 108 2.11
   9  0.000  0.300  0.503- 107 2.11 108 2.11 111 2.11 188 2.11 109 2.11
  10  0.100  0.200  0.503- 108 2.11 107 2.11 104 2.11 127 2.11 110 2.11
  11  0.000  0.400  0.407- 109 2.11 113 2.11 114 2.11 194 2.11 111 2.11
  12  0.100  0.500  0.407- 113 2.11 114 2.11 118 2.11 133 2.11 112 2.11
  13  0.000  0.500  0.503- 111 2.11 112 2.11 115 2.11 192 2.11 113 2.11
  14  0.100  0.400  0.503- 108 2.11 111 2.11 112 2.11 131 2.11 114 2.11
  15  0.000  0.600  0.407- 113 2.11 117 2.11 118 2.11 198 2.11 115 2.11
  16  0.100  0.700  0.407- 122 2.11 118 2.11 117 2.11 137 2.11 116 2.11
  17  0.000  0.700  0.503- 119 2.11 116 2.11 115 2.11 196 2.11 117 2.11
  18  0.100  0.600  0.503- 112 2.11 115 2.11 116 2.11 135 2.11 118 2.11
  19  0.000  0.800  0.407- 117 2.11 121 2.11 122 2.11 202 2.11 119 2.11
  20  0.100  0.900  0.407- 106 2.11 121 2.11 122 2.11 141 2.11 120 2.11
  21  0.000  0.900  0.503- 103 2.11 119 2.11 120 2.11 200 2.11 121 2.11
  22  0.100  0.800  0.503- 116 2.11 119 2.11 120 2.11 139 2.11 122 2.11
  23  0.200  0.000  0.407- 126 2.11 125 2.11 106 2.11 141 2.11 123 2.11
  24  0.300  0.100  0.407- 125 2.11 126 2.11 130 2.11 145 2.11 124 2.11
  25  0.200  0.100  0.503- 124 2.11 123 2.11 104 2.11 127 2.11 125 2.11
  26  0.300  0.000  0.503- 123 2.11 124 2.11 140 2.11 143 2.11 126 2.11
  27  0.200  0.200  0.407- 129 2.11 130 2.11 110 2.11 125 2.11 127 2.11
  28  0.300  0.300  0.407- 129 2.11 130 2.11 134 2.11 149 2.11 128 2.11
  29  0.200  0.300  0.503- 127 2.11 128 2.11 108 2.11 131 2.11 129 2.11
  30  0.300  0.200  0.503- 127 2.11 128 2.11 124 2.11 147 2.11 130 2.11
  31  0.200  0.400  0.407- 134 2.11 129 2.11 133 2.11 114 2.11 131 2.11
  32  0.300  0.500  0.407- 133 2.11 134 2.11 138 2.11 153 2.11 132 2.11
  33  0.200  0.500  0.503- 132 2.11 131 2.11 112 2.11 135 2.11 133 2.11
  34  0.300  0.400  0.503- 131 2.11 128 2.11 132 2.11 151 2.11 134 2.11
  35  0.200  0.600  0.407- 138 2.11 133 2.11 137 2.11 118 2.11 135 2.11
  36  0.300  0.700  0.407- 137 2.11 142 2.11 138 2.11 157 2.11 136 2.11
  37  0.200  0.700  0.503- 136 2.11 139 2.11 116 2.11 135 2.11 137 2.11
  38  0.300  0.600  0.503- 135 2.11 132 2.11 136 2.11 155 2.11 138 2.11
  39  0.200  0.800  0.407- 137 2.11 142 2.11 141 2.11 122 2.11 139 2.11
  40  0.300  0.900  0.407- 141 2.11 126 2.11 142 2.11 161 2.11 140 2.11
  41  0.200  0.900  0.503- 140 2.11 123 2.11 139 2.11 120 2.11 141 2.11
  42  0.300  0.800  0.503- 136 2.11 139 2.11 140 2.11 159 2.11 142 2.11
  43  0.400  0.000  0.407- 126 2.11 145 2.11 146 2.11 161 2.11 143 2.11
  44  0.500  0.100  0.407- 145 2.11 146 2.11 150 2.11 165 2.11 144 2.11
  45  0.400  0.100  0.503- 124 2.11 143 2.11 144 2.11 147 2.11 145 2.11
  46  0.500  0.000  0.503- 143 2.11 144 2.11 160 2.11 163 2.11 146 2.11
  47  0.400  0.200  0.407- 149 2.11 145 2.11 130 2.11 150 2.11 147 2.11
  48  0.500  0.300  0.407- 150 2.11 149 2.11 154 2.11 169 2.11 148 2.11
  49  0.400  0.300  0.503- 147 2.11 128 2.11 148 2.11 151 2.11 149 2.11
  50  0.500  0.200  0.503- 148 2.11 147 2.11 144 2.11 167 2.11 150 2.11
  51  0.400  0.400  0.407- 134 2.11 149 2.11 153 2.11 154 2.11 151 2.11
  52  0.500  0.500  0.407- 153 2.11 154 2.11 158 2.11 173 2.11 152 2.11
  53  0.400  0.500  0.503- 132 2.11 151 2.11 152 2.11 155 2.11 153 2.11   2 2.82
  54  0.500  0.400  0.503- 148 2.11 151 2.11 152 2.11 171 2.11 154 2.11   1 2.82
  55  0.400  0.600  0.407- 138 2.11 153 2.11 157 2.11 158 2.11 155 2.11
  56  0.500  0.700  0.407- 162 2.11 158 2.11 157 2.11 177 2.11 156 2.11
  57  0.400  0.700  0.503- 159 2.11 155 2.11 156 2.11 136 2.11 157 2.11
  58  0.500  0.600  0.503- 152 2.11 155 2.11 156 2.11 175 2.11 158 2.11
  59  0.400  0.800  0.407- 157 2.11 142 2.11 161 2.11 162 2.11 159 2.11
  60  0.500  0.900  0.407- 146 2.11 161 2.11 162 2.11 181 2.11 160 2.11
[...]
 188  0.900  0.300  0.503-  90 2.11  89 2.11   9 2.11  94 2.11  88 2.11
 189  0.800  0.300  0.407-  68 2.11  87 2.11  88 2.11  91 2.11  89 2.11
 190  0.900  0.200  0.407-  88 2.11  84 2.11  87 2.11   7 2.11  90 2.11
 191  0.800  0.400  0.503-  74 2.11  89 2.11  93 2.11  94 2.11  91 2.11
 192  0.900  0.500  0.503-  13 2.11  93 2.11  94 2.11  98 2.11  92 2.11
 193  0.800  0.500  0.407-  72 2.11  91 2.11  92 2.11  95 2.11  93 2.11
 194  0.900  0.400  0.407-  11 2.11  88 2.11  91 2.11  92 2.11  94 2.11
 195  0.800  0.600  0.503-  78 2.11  93 2.11  97 2.11  98 2.11  95 2.11
 196  0.900  0.700  0.503- 102 2.11  97 2.11  98 2.11  17 2.11  96 2.11
 197  0.800  0.700  0.407-  76 2.11  99 2.11  96 2.11  95 2.11  97 2.11
 198  0.900  0.600  0.407-  15 2.11  92 2.11  95 2.11  96 2.11  98 2.11
 199  0.800  0.800  0.503-  82 2.11  97 2.11 101 2.11 102 2.11  99 2.11
 200  0.900  0.900  0.503-  21 2.11  86 2.11 101 2.11 102 2.11 100 2.11
 201  0.800  0.900  0.407-  80 2.11  83 2.11  99 2.11 100 2.11 101 2.11
 202  0.900  0.800  0.407-  96 2.11  19 2.11  99 2.11 100 2.11 102 2.11

  LATTYP: Found a simple tetragonal cell.
 ALAT       =    21.1388521970
 C/A-ratio  =     1.0461251639

  Lattice vectors:

 A1 = (  21.1388521970,   0.0000000000,   0.0000000000)
 A2 = (   0.0000000000,  21.1388521970,   0.0000000000)
 A3 = (   0.0000000000,   0.0000000000,  22.1138852197)

Analysis of symmetry for initial positions (statically):
 Subroutine PRICEL returns:
 Original cell was already a primitive cell.

 Routine SETGRP: Setting up the symmetry group for a
 simple tetragonal supercell.

 Subroutine GETGRP returns: Found  4 space group operations
 (whereof  2 operations were pure point group operations)
 out of a pool of 16 trial point group operations.

The static configuration has the point symmetry C_1h.
 The point group associated with its full space group is C_2v.

Analysis of symmetry for dynamics (positions and initial velocities):
 Subroutine PRICEL returns:
 Original cell was already a primitive cell.

 Routine SETGRP: Setting up the symmetry group for a
 simple tetragonal supercell.

 Subroutine GETGRP returns: Found  4 space group operations
 (whereof  2 operations were pure point group operations)
 out of a pool of 16 trial point group operations.

The dynamic configuration has the point symmetry C_1h.
 The point group associated with its full space group is C_2v.

 Subroutine INISYM returns: Found  4 space group operations
 (whereof  2 operations are pure point group operations),
 and found     1 'primitive' translations

                                     Primitive cell

  volume of cell :    9881.6133

[...]
     52     -43.9543      2.00000
     53     -43.9539      2.00000
     54     -43.9533      2.00000
     55     -43.9526      2.00000
     56     -43.9524      2.00000
     57     -43.9520      2.00000
     58     -43.9512      2.00000
     59     -43.9505      2.00000
     60     -43.9505      2.00000
[...]
    882       3.9896      0.00000
    883       4.1891      0.00000
    884       4.2129      0.00000
    885       4.2245      0.00000
    886       4.2429      0.00000
    887       4.2597      0.00000
    888       4.2866      0.00000
    889       4.5230      0.00000
    890       4.5858      0.00000
    891       4.7342      0.00000
    892       4.8416      0.00000
    893       4.9155      0.00000
    894       4.9840      0.00000
    895       5.0558      0.00000
    896       5.1134      0.00000

 soft charge-density along one line, spin component           1
         0         1         2         3         4         5         6         7         8         9
 total charge-density along one line

------------------------ aborting loop because EDIFF is reached ----------------------------------------

  FORCE on cell =-STRESS in cart. coord.  units (eV):
  Direction    XX          YY          ZZ          XY          YZ          ZX
  Alpha Z  1365.75682  1365.75682  1365.75682
  Ewald  478966.19865478966.19865************  -341.35603     0.00001    -0.00001
  Hartree507282.10202507282.10203************  -227.70726     0.00001    -0.00000
  E(xc)   -8046.86960 -8046.86960 -8056.11214    -0.44980    -0.00000    -0.00000
  Local  ************************************   553.91014    -0.00002     0.00001
  n-local -8840.30951 -8840.30953 -8935.54929     7.60177    -0.00000     0.00000
  augment  3570.88501  3570.88504  3515.68304     1.99278     0.00000    -0.00000
  Kinetic 23107.96271 23107.96268 23317.46995     5.06562    -0.00002    -0.00002
  Fock        0.00000     0.00000     0.00000     0.00000     0.00000     0.00000
  Total    -123.29519  -123.29519    40.61355    -0.94279     0.00000     0.00000
  in kB     -19.99074   -19.99074     6.58497    -0.15286     0.00000     0.00000

 VOLUME and BASIS-vectors are now :
  energy-cutoff  :      520.00
  volume of cell :     9881.61
      direct lattice vectors                 reciprocal lattice vectors
    21.138852197  0.000000000  0.000000000     0.047306258  0.000000000  0.000000000
     0.000000000 21.138852197  0.000000000     0.000000000  0.047306258  0.000000000
     0.000000000  0.000000000 22.113885220     0.000000000  0.000000000  0.045220457

  length of vectors
    21.138852197 21.138852197 22.113885220     0.047306258  0.047306258  0.045220457

 FORCES acting on ions:
    Electron-Ion                     Ewald-Force                    Non-Local-Force
   -.194E+03 0.194E+03 -.203E+04   0.191E+03 -.191E+03 0.203E+04   0.406E+01 -.406E+01 0.470E+00
   0.194E+03 -.194E+03 -.203E+04   -.191E+03 0.191E+03 0.203E+04   -.406E+01 0.406E+01 0.470E+00
   0.174E+01 0.174E+01 0.929E+03   -.174E+01 -.174E+01 -.923E+03   -.189E-02 -.189E-02 -.616E+01
   0.628E+01 0.628E+01 0.932E+03   -.627E+01 -.627E+01 -.925E+03   -.307E-02 -.307E-02 -.616E+01
   0.263E+01 0.601E+01 -.920E+03   -.261E+01 -.602E+01 0.914E+03   -.106E-01 0.455E-03 0.613E+01
   0.601E+01 0.263E+01 -.920E+03   -.602E+01 -.261E+01 0.914E+03   0.455E-03 -.106E-01 0.613E+01
   0.296E+01 0.642E+01 0.932E+03   -.295E+01 -.643E+01 -.926E+03   -.133E-01 0.579E-02 -.616E+01
   0.131E+02 0.814E+01 0.937E+03   -.131E+02 -.817E+01 -.931E+03   -.761E-02 0.206E-01 -.616E+01
   0.582E+01 0.718E+01 -.918E+03   -.580E+01 -.719E+01 0.912E+03   -.149E-01 0.673E-02 0.613E+01
   0.127E+02 0.117E+02 -.917E+03   -.127E+02 -.117E+02 0.911E+03   -.179E-01 0.290E-02 0.613E+01
   0.528E+01 0.235E+01 0.935E+03   -.529E+01 -.236E+01 -.929E+03   0.320E-02 0.729E-02 -.616E+01
   0.170E+02 -.270E+01 0.940E+03   -.170E+02 0.268E+01 -.934E+03   0.680E-01 0.129E-01 -.617E+01
   0.827E+01 -.258E+01 -.917E+03   -.829E+01 0.257E+01 0.910E+03   0.165E-01 0.397E-02 0.613E+01
   0.256E+02 0.587E+01 -.911E+03   -.256E+02 -.591E+01 0.905E+03   0.517E-02 0.244E-01 0.612E+01
   0.500E+01 -.547E+01 0.934E+03   -.503E+01 0.548E+01 -.928E+03   0.262E-01 -.340E-02 -.616E+01
   0.102E+02 -.908E+01 0.935E+03   -.102E+02 0.910E+01 -.929E+03   0.318E-01 -.176E-01 -.616E+01
   0.522E+01 -.823E+01 -.919E+03   -.525E+01 0.824E+01 0.913E+03   0.228E-01 -.587E-02 0.613E+01
   0.219E+02 -.112E+02 -.913E+03   -.219E+02 0.112E+02 0.907E+03   0.569E-01 0.576E-03 0.613E+01
   0.264E+01 -.504E+01 0.930E+03   -.266E+01 0.505E+01 -.924E+03   0.132E-01 -.782E-02 -.616E+01
   0.504E+01 -.264E+01 0.930E+03   -.505E+01 0.266E+01 -.924E+03   0.782E-02 -.132E-01 -.616E+01
   0.239E+01 -.239E+01 -.921E+03   -.239E+01 0.239E+01 0.915E+03   0.529E-02 -.529E-02 0.613E+01
   0.903E+01 -.903E+01 -.919E+03   -.905E+01 0.905E+01 0.913E+03   0.174E-01 -.174E-01 0.613E+01
   0.642E+01 0.296E+01 0.932E+03   -.643E+01 -.295E+01 -.926E+03   0.579E-02 -.133E-01 -.616E+01
   0.814E+01 0.131E+02 0.937E+03   -.817E+01 -.131E+02 -.931E+03   0.206E-01 -.761E-02 -.616E+01
   0.117E+02 0.127E+02 -.917E+03   -.117E+02 -.127E+02 0.911E+03   0.290E-02 -.179E-01 0.613E+01
   0.718E+01 0.582E+01 -.918E+03   -.719E+01 -.580E+01 0.912E+03   0.673E-02 -.149E-01 0.613E+01
   0.136E+02 0.136E+02 0.939E+03   -.136E+02 -.136E+02 -.933E+03   0.293E-02 0.293E-02 -.617E+01
   0.229E+02 0.229E+02 0.961E+03   -.229E+02 -.229E+02 -.954E+03   0.339E-01 0.339E-01 -.623E+01
   0.345E+02 0.229E+02 -.904E+03   -.344E+02 -.229E+02 0.898E+03   -.539E-01 0.326E-01 0.611E+01
   0.229E+02 0.345E+02 -.904E+03   -.229E+02 -.344E+02 0.898E+03   0.326E-01 -.539E-01 0.611E+01
   0.272E+02 0.713E+01 0.953E+03   -.272E+02 -.722E+01 -.947E+03   0.195E-02 0.734E-01 -.616E+01
   0.324E+02 -.885E+01 0.980E+03   -.323E+02 0.876E+01 -.974E+03   -.491E-01 0.649E-01 -.587E+01
   0.546E+02 -.782E+01 -.891E+03   -.548E+02 0.775E+01 0.885E+03   0.184E+00 0.522E-01 0.612E+01
   0.809E+02 0.359E+02 -.846E+03   -.806E+02 -.362E+02 0.840E+03   -.235E+00 0.277E+00 0.603E+01
   0.222E+02 -.135E+02 0.948E+03   -.223E+02 0.136E+02 -.942E+03   0.688E-01 -.297E-01 -.615E+01
   0.135E+02 -.222E+02 0.948E+03   -.136E+02 0.223E+02 -.942E+03   0.297E-01 -.688E-01 -.615E+01
   0.226E+02 -.226E+02 -.910E+03   -.227E+02 0.227E+02 0.904E+03   0.437E-01 -.437E-01 0.613E+01
   0.532E+02 -.532E+02 -.868E+03   -.534E+02 0.534E+02 0.862E+03   0.161E+00 -.161E+00 0.619E+01
   0.908E+01 -.102E+02 0.935E+03   -.910E+01 0.102E+02 -.929E+03   0.176E-01 -.318E-01 -.616E+01
   0.547E+01 -.500E+01 0.934E+03   -.548E+01 0.503E+01 -.928E+03   0.340E-02 -.262E-01 -.616E+01
   0.823E+01 -.522E+01 -.919E+03   -.824E+01 0.525E+01 0.913E+03   0.587E-02 -.228E-01 0.613E+01
   0.112E+02 -.219E+02 -.913E+03   -.112E+02 0.219E+02 0.907E+03   -.576E-03 -.569E-01 0.613E+01
   0.235E+01 0.528E+01 0.935E+03   -.236E+01 -.529E+01 -.929E+03   0.729E-02 0.320E-02 -.616E+01
   -.270E+01 0.170E+02 0.940E+03   0.268E+01 -.170E+02 -.934E+03   0.129E-01 0.680E-01 -.617E+01
   0.587E+01 0.256E+02 -.911E+03   -.591E+01 -.256E+02 0.905E+03   0.244E-01 0.517E-02 0.612E+01
   -.258E+01 0.827E+01 -.917E+03   0.257E+01 -.829E+01 0.910E+03   0.397E-02 0.165E-01 0.613E+01
   0.713E+01 0.272E+02 0.953E+03   -.722E+01 -.272E+02 -.947E+03   0.734E-01 0.195E-02 -.616E+01
   -.885E+01 0.324E+02 0.980E+03   0.876E+01 -.323E+02 -.974E+03   0.649E-01 -.491E-01 -.587E+01
   0.359E+02 0.809E+02 -.846E+03   -.362E+02 -.806E+02 0.840E+03   0.277E+00 -.235E+00 0.603E+01
   -.782E+01 0.546E+02 -.891E+03   0.775E+01 -.548E+02 0.885E+03   0.522E-01 0.184E+00 0.612E+01
   0.170E+02 0.170E+02 0.100E+04   -.170E+02 -.170E+02 -.997E+03   0.292E-01 0.292E-01 -.648E+01
   -.170E+02 -.170E+02 0.100E+04   0.170E+02 0.170E+02 -.997E+03   -.292E-01 -.292E-01 -.648E+01
   0.491E+02 -.491E+02 -.708E+03   -.486E+02 0.486E+02 0.704E+03   -.423E+00 0.423E+00 0.436E+01
   -.491E+02 0.491E+02 -.708E+03   0.486E+02 -.486E+02 0.704E+03   0.423E+00 -.423E+00 0.436E+01
   0.885E+01 -.324E+02 0.980E+03   -.876E+01 0.323E+02 -.974E+03   -.649E-01 0.491E-01 -.587E+01
   -.713E+01 -.272E+02 0.953E+03   0.722E+01 0.272E+02 -.947E+03   -.734E-01 -.195E-02 -.616E+01
   0.782E+01 -.546E+02 -.891E+03   -.775E+01 0.548E+02 0.885E+03   -.522E-01 -.184E+00 0.612E+01
   -.359E+02 -.809E+02 -.846E+03   0.362E+02 0.806E+02 0.840E+03   -.277E+00 0.235E+00 0.603E+01
   0.270E+01 -.170E+02 0.940E+03   -.268E+01 0.170E+02 -.934E+03   -.129E-01 -.680E-01 -.617E+01
   -.235E+01 -.528E+01 0.935E+03   0.236E+01 0.529E+01 -.929E+03   -.729E-02 -.320E-02 -.616E+01
[...]
   -.107E+02 0.587E+01 0.706E+03   0.107E+02 -.588E+01 -.710E+03   -.470E-01 0.126E-01 0.362E+01
   -.285E+01 0.488E+01 0.702E+03   0.286E+01 -.489E+01 -.706E+03   -.197E-01 0.997E-02 0.362E+01
   -.202E+02 0.279E+01 -.686E+03   0.203E+02 -.277E+01 0.690E+03   -.376E-01 -.242E-01 -.367E+01
   -.574E+01 -.234E+01 -.690E+03   0.573E+01 0.234E+01 0.694E+03   -.226E-03 -.959E-02 -.366E+01
   -.123E+02 -.287E+01 0.708E+03   0.123E+02 0.290E+01 -.712E+03   -.190E-01 -.370E-01 0.361E+01
   -.424E+01 0.152E+01 0.704E+03   0.425E+01 -.152E+01 -.708E+03   -.153E-01 -.338E-02 0.362E+01
   -.145E+02 -.865E+01 -.688E+03   0.145E+02 0.866E+01 0.693E+03   0.853E-02 -.186E-01 -.367E+01
   -.293E+01 -.605E+01 -.692E+03   0.292E+01 0.606E+01 0.696E+03   0.127E-01 -.442E-02 -.365E+01
   -.690E+01 -.655E+01 0.703E+03   0.689E+01 0.655E+01 -.707E+03   0.805E-02 -.353E-02 0.361E+01
   -.313E+01 -.419E+01 0.703E+03   0.313E+01 0.420E+01 -.707E+03   0.749E-02 -.104E-01 0.362E+01
   -.608E+01 -.608E+01 -.692E+03   0.607E+01 0.607E+01 0.696E+03   0.741E-02 0.741E-02 -.366E+01
   -.159E+01 -.159E+01 -.694E+03   0.159E+01 0.159E+01 0.698E+03   0.246E-02 0.246E-02 -.365E+01
   -.366E+01 -.157E+01 0.701E+03   0.366E+01 0.156E+01 -.705E+03   -.182E-02 0.807E-02 0.362E+01
   -.157E+01 -.366E+01 0.701E+03   0.156E+01 0.366E+01 -.705E+03   0.807E-02 -.182E-02 0.362E+01
   -.311E-01 0.153E-01 0.978E+01   0.155E-11 0.117E-11 0.117E-10   0.729E-16 -.259E-14 -.103E+02

 POSITION                                       TOTAL-FORCE (eV/Angst)
     10.40626      8.61871     13.92428         0.575918     -0.575918      0.221686
      8.61871     10.40626     13.92428        -0.575918      0.575918      0.221686
      0.00000      0.00000      9.00000         0.000533      0.000533      0.086488
      2.11389      2.11389      9.00000         0.000942      0.000942      0.087258
      0.00000      2.11389     11.11389         0.002928     -0.000079     -0.079363
      2.11389      0.00000     11.11389        -0.000079      0.002928     -0.079363
      0.00000      4.22777      9.00000         0.003586     -0.001579      0.086841
      2.11389      6.34166      9.00000         0.001820     -0.005661      0.087854
      0.00000      6.34166     11.11389         0.004051     -0.001882     -0.077886
      2.11389      4.22777     11.11389         0.005036     -0.000458     -0.077184
      0.00000      8.45554      9.00000        -0.000988     -0.002138      0.087143
      2.11389     10.56943      9.00000        -0.017896     -0.003805      0.089313
      0.00000     10.56943     11.11389        -0.004264     -0.001193     -0.077711
      2.11389      8.45554     11.11389        -0.001062     -0.007311     -0.073634
      0.00000     12.68331      9.00000        -0.006997      0.001019      0.086751
      2.11389     14.79720      9.00000        -0.008843      0.005113      0.085633
      0.00000     14.79720     11.11389        -0.006168      0.001703     -0.079019
      2.11389     12.68331     11.11389        -0.015358      0.000095     -0.077079
      0.00000     16.91108      9.00000        -0.003620      0.002190      0.086306
      2.11389     19.02497      9.00000        -0.002190      0.003620      0.086306
      0.00000     19.02497     11.11389        -0.001447      0.001447     -0.079787
      2.11389     16.91108     11.11389        -0.004806      0.004806     -0.079315
      4.22777      0.00000      9.00000        -0.001579      0.003586      0.086841
      6.34166      2.11389      9.00000        -0.005661      0.001820      0.087854
      4.22777      2.11389     11.11389        -0.000458      0.005036     -0.077184
      6.34166      0.00000     11.11389        -0.001882      0.004051     -0.077886
      4.22777      4.22777      9.00000        -0.000328     -0.000328      0.090450
      6.34166      6.34166      9.00000        -0.006318     -0.006318      0.105635
      4.22777      6.34166     11.11389         0.015831     -0.007222     -0.066349
      6.34166      4.22777     11.11389        -0.007222      0.015831     -0.066349
      4.22777      8.45554      9.00000        -0.003847     -0.023052      0.087094
      6.34166     10.56943      9.00000         0.016601     -0.021391      0.008747
      4.22777     10.56943     11.11389        -0.065147     -0.016795     -0.065299
      6.34166      8.45554     11.11389         0.077101     -0.074500     -0.007101
      4.22777     12.68331      9.00000        -0.020503      0.010165      0.081870
      6.34166     14.79720      9.00000        -0.010165      0.020503      0.081870
      4.22777     14.79720     11.11389        -0.012439      0.012439     -0.078208
      6.34166     12.68331     11.11389        -0.046922      0.046922     -0.090886
      4.22777     16.91108      9.00000        -0.005113      0.008843      0.085633
      6.34166     19.02497      9.00000        -0.001019      0.006997      0.086751
      4.22777     19.02497     11.11389        -0.001703      0.006168     -0.079019
      6.34166     16.91108     11.11389        -0.000095      0.015358     -0.077079
      8.45554      0.00000      9.00000        -0.002138     -0.000988      0.087143
     10.56943      2.11389      9.00000        -0.003805     -0.017896      0.089313
      8.45554      2.11389     11.11389        -0.007311     -0.001062     -0.073634
     10.56943      0.00000     11.11389        -0.001193     -0.004264     -0.077711
      8.45554      4.22777      9.00000        -0.023052     -0.003847      0.087094
     10.56943      6.34166      9.00000        -0.021391      0.016601      0.008747
      8.45554      6.34166     11.11389        -0.074500      0.077101     -0.007101
     10.56943      4.22777     11.11389        -0.016795     -0.065147     -0.065299
      8.45554      8.45554      9.00000        -0.005083     -0.005083      0.143401
     10.56943     10.56943      9.00000         0.005083      0.005083      0.143401
      8.45554     10.56943     11.11389         0.127078     -0.127078     -0.031281
     10.56943      8.45554     11.11389        -0.127078      0.127078     -0.031281
      8.45554     12.68331      9.00000         0.021391     -0.016601      0.008747
     10.56943     14.79720      9.00000         0.023052      0.003847      0.087094
      8.45554     14.79720     11.11389         0.016795      0.065147     -0.065299
     10.56943     12.68331     11.11389         0.074500     -0.077101     -0.007101
      8.45554     16.91108      9.00000         0.003805      0.017896      0.089313
     10.56943     19.02497      9.00000         0.002138      0.000988      0.087143
[...]
     19.02497      6.34166     11.11389        -0.005913      0.000903      0.471587
     16.91108      6.34166      9.00000        -0.013319      0.003647     -0.479693
     19.02497      4.22777      9.00000        -0.005591      0.002920     -0.480254
     16.91108      8.45554     11.11389        -0.011017     -0.006852      0.468646
     19.02497     10.56943     11.11389        -0.000132     -0.002704      0.470674
     16.91108     10.56943      9.00000        -0.005522     -0.010516     -0.482542
     19.02497      8.45554      9.00000        -0.004375     -0.000928     -0.480787
     16.91108     12.68331     11.11389         0.002295     -0.005317      0.468684
     19.02497     14.79720     11.11389         0.003592     -0.001266      0.472101
     16.91108     14.79720      9.00000         0.002213     -0.001063     -0.481757
     19.02497     12.68331      9.00000         0.002087     -0.002988     -0.481011
     16.91108     16.91108     11.11389         0.002060      0.002060      0.471914
     19.02497     19.02497     11.11389         0.000689      0.000689      0.473158
     16.91108     19.02497      9.00000        -0.000545      0.002263     -0.480535
     19.02497     16.91108      9.00000         0.002263     -0.000545     -0.480535
    total drift:                               -0.031109      0.015272     -0.512435

  FREE ENERGIE OF THE ION-ELECTRON SYSTEM (eV)
  free  energy   TOTEN  =      -749.96948556 eV

  energy  without entropy=     -749.96948556  energy(sigma->0) =     -749.96948556