 vasp.6.4.0 14Feb23 (build Dec 05 2023 14:15:48) complex

 executed on             LinuxIFC date 2023.12.07  22:46:26

 INCAR:
   SYSTEM = MgO-rocksalt
   ISMEAR = 0
   SIGMA = 0.05
   EDIFF = 1E-4
   ALGO = ALL
   ISTART = 0
   IBRION = -1
   NSW = 0
   ISYM = 3
   DIPOL = 0.5 0.5 0.5
   IDIPOL = 3
   LDIPOL = .TRUE.
   LHFCALC = .TRUE.
   GGA = B5
   AEXX = 0.2
   AGGAX = 0.72
   AGGAC = 0.81
   ALDAC = 0.19
   IVDW = 13
   VDW_S8 = 2.0293
   VDW_A1 = 0.4087
   VDW_A2 = 4.5381
   ENCUT = 520
   PREC = Normal
   LASPH = .TRUE.
   LREAL = Auto
   ISPIN = 1
   NELM = 2000
   NELMIN = 8
   NCORE = 32
   LWAVE = .FALSE.
   LCHARG = .FALSE.

 POTCAR:    PAW_PBE Au 04Oct2007
 POTCAR:    PAW_PBE Mg_pv 13Apr2007
 POTCAR:    PAW_PBE O 08Apr2002
 POTCAR:    PAW_PBE Au 04Oct2007
   VRHFIN =Au: s1d10

   TITEL  = PAW_PBE Au 04Oct2007
   POMASS =  196.966; ZVAL   =   11.000    mass and valenz
   ENMAX  =  229.943; ENMIN  =  172.457 eV

   TITEL  = PAW_PBE Mg_pv 13Apr2007
   POMASS =   24.305; ZVAL   =    8.000    mass and valenz
   ENMAX  =  403.929; ENMIN  =  302.947 eV

   TITEL  = PAW_PBE O 08Apr2002
   POMASS =   16.000; ZVAL   =    6.000    mass and valenz
   ENMAX  =  400.000; ENMIN  =  300.000 eV

 Optimization of the real space projectors (new method)

 maximal supplied QI-value         = 15.12
 optimisation between [QCUT,QGAM] = [ 11.64, 23.28] = [ 37.95,151.78] Ry
 Optimized for a Real-space Cutoff    1.36 Angstroem

   l    n(q)    QCUT    max X(q) W(low)/X(q) W(high)/X(q)  e(spline)
   2      9    11.641    60.898    0.44E-03    0.10E-02    0.32E-06
   2      9    11.641    58.894    0.45E-03    0.11E-02    0.32E-06
   0      9    11.641   109.617    0.19E-03    0.78E-04    0.11E-06
   0      9    11.641    75.026    0.19E-03    0.76E-04    0.10E-06
   1      9    11.641    16.344    0.43E-03    0.28E-03    0.32E-06
   1      9    11.641    10.160    0.36E-03    0.22E-03    0.26E-06
 Optimization of the real space projectors (new method)

[...]

   l    n(q)    QCUT    max X(q) W(low)/X(q) W(high)/X(q)  e(spline)
   1      8    11.527     2.974    0.16E-03    0.13E-03    0.98E-07
   1      8    11.527     4.279    0.42E-03    0.30E-03    0.22E-06
   0      8    11.527    16.381    0.13E-03    0.20E-03    0.72E-07
   0      8    11.527     5.611    0.88E-04    0.13E-03    0.50E-07
   2      7    11.527     4.652    0.25E-03    0.73E-04    0.51E-07
 Optimization of the real space projectors (new method)

 maximal supplied QI-value         = 24.76
 optimisation between [QCUT,QGAM] = [ 11.64, 23.27] = [ 37.91,151.63] Ry
 Optimized for a Real-space Cutoff    1.04 Angstroem

   l    n(q)    QCUT    max X(q) W(low)/X(q) W(high)/X(q)  e(spline)
   0      7    11.635    20.381    0.14E-03    0.49E-03    0.18E-06
   0      7    11.635    15.268    0.16E-03    0.52E-03    0.19E-06
   1      7    11.635     5.964    0.30E-03    0.44E-03    0.22E-06
   1      7    11.635     5.382    0.27E-03    0.34E-03    0.19E-06
|               ----> ADVICE to this user running VASP <----                  |
|     You enforced a specific xc type in the INCAR file but a different       |
|     type was found in the POTCAR file.                                      |
|     I HOPE YOU KNOW WHAT YOU ARE DOING!                                     |

  PAW_PBE Au 04Oct2007                  :
  PAW_PBE Mg_pv 13Apr2007               :
  PAW_PBE O 08Apr2002                   :

 POSCAR: Au Mg  O
  positions in direct lattice
  velocities in cartesian coordinates
 WARNING: Using user supplied parameters
     VDW_S8 = 2.029
     VDW_A1 = 0.409
     VDW_A2 = 4.538
     because the xc functional is not supported. Required parameters not
     defined in the INCAR file will be replaced with PBE defaults ones.

 ion  position               nearest neighbor table
   1  0.404  0.596  0.665-   2 2.57   4 2.74
   2  0.332  0.668  0.602- 138 2.40   1 2.57  59 2.71  40 2.71
   3  0.568  0.432  0.602- 173 2.40   4 2.57  75 2.71  56 2.71
   4  0.496  0.504  0.665-   3 2.57   1 2.74
   5  0.000  0.000  0.407- 107 2.11 108 2.11 123 2.11 188 2.11 105 2.11
   6  0.100  0.100  0.407- 107 2.11 108 2.11 112 2.11 127 2.11 106 2.11
   7  0.000  0.100  0.503- 105 2.11 106 2.11 109 2.11 186 2.11 107 2.11
   8  0.100  0.000  0.503- 105 2.11 106 2.11 122 2.11 125 2.11 108 2.11
   9  0.000  0.200  0.407- 111 2.11 107 2.11 112 2.11 192 2.11 109 2.11
  10  0.100  0.300  0.407- 112 2.11 111 2.11 116 2.11 131 2.11 110 2.11
  11  0.000  0.300  0.503- 109 2.11 110 2.11 113 2.11 190 2.11 111 2.11
  12  0.100  0.200  0.503- 110 2.11 109 2.11 106 2.11 129 2.11 112 2.11
  13  0.000  0.400  0.407- 111 2.11 115 2.11 116 2.11 196 2.11 113 2.11
  14  0.100  0.500  0.407- 115 2.11 116 2.11 120 2.11 135 2.11 114 2.11
  15  0.000  0.500  0.503- 113 2.11 114 2.11 117 2.11 194 2.11 115 2.11
  16  0.100  0.400  0.503- 110 2.11 113 2.11 114 2.11 133 2.11 116 2.11
  17  0.000  0.600  0.407- 115 2.11 119 2.11 120 2.11 200 2.11 117 2.11
  18  0.100  0.700  0.407- 124 2.11 120 2.11 119 2.11 139 2.11 118 2.11
  19  0.000  0.700  0.503- 121 2.11 118 2.11 117 2.11 198 2.11 119 2.11
  20  0.100  0.600  0.503- 114 2.11 117 2.11 118 2.11 137 2.11 120 2.11
  21  0.000  0.800  0.407- 119 2.11 123 2.11 124 2.11 204 2.11 121 2.11
  22  0.100  0.900  0.407- 108 2.11 123 2.11 124 2.11 143 2.11 122 2.11
  23  0.000  0.900  0.503- 105 2.11 121 2.11 122 2.11 202 2.11 123 2.11
  24  0.100  0.800  0.503- 118 2.11 121 2.11 122 2.11 141 2.11 124 2.11
  25  0.200  0.000  0.407- 128 2.11 127 2.11 108 2.11 143 2.11 125 2.11
  26  0.300  0.100  0.407- 127 2.11 128 2.11 132 2.11 147 2.11 126 2.11
  27  0.200  0.100  0.503- 126 2.11 125 2.11 106 2.11 129 2.11 127 2.11
  28  0.300  0.000  0.503- 125 2.11 126 2.11 142 2.11 145 2.11 128 2.11
  29  0.200  0.200  0.407- 131 2.11 132 2.11 112 2.11 127 2.11 129 2.11
  30  0.300  0.300  0.407- 131 2.11 132 2.11 136 2.11 151 2.11 130 2.11
  31  0.200  0.300  0.503- 129 2.11 130 2.11 110 2.11 133 2.11 131 2.11
  32  0.300  0.200  0.503- 129 2.11 130 2.11 126 2.11 149 2.11 132 2.11
  33  0.200  0.400  0.407- 136 2.11 131 2.11 135 2.11 116 2.11 133 2.11
  34  0.300  0.500  0.407- 135 2.11 136 2.11 140 2.11 155 2.11 134 2.11
  35  0.200  0.500  0.503- 134 2.11 133 2.11 114 2.11 137 2.11 135 2.11
  36  0.300  0.400  0.503- 133 2.11 130 2.11 134 2.11 153 2.11 136 2.11
  37  0.200  0.600  0.407- 140 2.11 135 2.11 139 2.11 120 2.11 137 2.11
  38  0.300  0.700  0.407- 139 2.11 144 2.11 140 2.11 159 2.11 138 2.11
  39  0.200  0.700  0.503- 138 2.11 141 2.11 118 2.11 137 2.11 139 2.11
  40  0.300  0.600  0.503- 137 2.11 134 2.11 138 2.11 157 2.11 140 2.11   2 2.71
  41  0.200  0.800  0.407- 139 2.11 144 2.11 143 2.11 124 2.11 141 2.11
  42  0.300  0.900  0.407- 143 2.11 128 2.11 144 2.11 163 2.11 142 2.11
  43  0.200  0.900  0.503- 142 2.11 125 2.11 141 2.11 122 2.11 143 2.11
  44  0.300  0.800  0.503- 138 2.11 141 2.11 142 2.11 161 2.11 144 2.11
  45  0.400  0.000  0.407- 128 2.11 147 2.11 148 2.11 163 2.11 145 2.11
  46  0.500  0.100  0.407- 147 2.11 148 2.11 152 2.11 167 2.11 146 2.11
  47  0.400  0.100  0.503- 126 2.11 145 2.11 146 2.11 149 2.11 147 2.11
  48  0.500  0.000  0.503- 145 2.11 146 2.11 162 2.11 165 2.11 148 2.11
  49  0.400  0.200  0.407- 151 2.11 147 2.11 132 2.11 152 2.11 149 2.11
  50  0.500  0.300  0.407- 152 2.11 151 2.11 156 2.11 171 2.11 150 2.11
  51  0.400  0.300  0.503- 149 2.11 130 2.11 150 2.11 153 2.11 151 2.11
  52  0.500  0.200  0.503- 150 2.11 149 2.11 146 2.11 169 2.11 152 2.11
  53  0.400  0.400  0.407- 136 2.11 151 2.11 155 2.11 156 2.11 153 2.11
  54  0.500  0.500  0.407- 155 2.11 156 2.11 160 2.11 175 2.11 154 2.11
  55  0.400  0.500  0.503- 134 2.11 153 2.11 154 2.11 157 2.11 155 2.11
  56  0.500  0.400  0.503- 150 2.11 153 2.11 154 2.11 173 2.11 156 2.11   3 2.71
  57  0.400  0.600  0.407- 140 2.11 155 2.11 159 2.11 160 2.11 157 2.11
  58  0.500  0.700  0.407- 164 2.11 160 2.11 159 2.11 179 2.11 158 2.11
  59  0.400  0.700  0.503- 161 2.11 157 2.11 158 2.11 138 2.11 159 2.11   2 2.71
  60  0.500  0.600  0.503- 154 2.11 157 2.11 158 2.11 177 2.11 160 2.11
[...]
 190  0.900  0.300  0.503-  92 2.11  91 2.11  11 2.11  96 2.11  90 2.11
 191  0.800  0.300  0.407-  70 2.11  89 2.11  90 2.11  93 2.11  91 2.11
 192  0.900  0.200  0.407-  90 2.11  86 2.11  89 2.11   9 2.11  92 2.11
 193  0.800  0.400  0.503-  76 2.11  91 2.11  95 2.11  96 2.11  93 2.11
 194  0.900  0.500  0.503-  15 2.11  95 2.11  96 2.11 100 2.11  94 2.11
 195  0.800  0.500  0.407-  74 2.11  93 2.11  94 2.11  97 2.11  95 2.11
 196  0.900  0.400  0.407-  13 2.11  90 2.11  93 2.11  94 2.11  96 2.11
 197  0.800  0.600  0.503-  80 2.11  95 2.11  99 2.11 100 2.11  97 2.11
 198  0.900  0.700  0.503- 104 2.11  99 2.11 100 2.11  19 2.11  98 2.11
 199  0.800  0.700  0.407-  78 2.11 101 2.11  98 2.11  97 2.11  99 2.11
 200  0.900  0.600  0.407-  17 2.11  94 2.11  97 2.11  98 2.11 100 2.11
 201  0.800  0.800  0.503-  84 2.11  99 2.11 103 2.11 104 2.11 101 2.11
 202  0.900  0.900  0.503-  23 2.11  88 2.11 103 2.11 104 2.11 102 2.11
 203  0.800  0.900  0.407-  82 2.11  85 2.11 101 2.11 102 2.11 103 2.11
 204  0.900  0.800  0.407-  98 2.11  21 2.11 101 2.11 102 2.11 104 2.11

  LATTYP: Found a simple tetragonal cell.
 ALAT       =    21.1388521970
 C/A-ratio  =     1.0461251639

  Lattice vectors:

 A1 = (  21.1388521970,   0.0000000000,   0.0000000000)
 A2 = (   0.0000000000,  21.1388521970,   0.0000000000)
 A3 = (   0.0000000000,   0.0000000000,  22.1138852197)

Analysis of symmetry for initial positions (statically):
 Subroutine PRICEL returns:
 Original cell was already a primitive cell.

 Routine SETGRP: Setting up the symmetry group for a
 simple tetragonal supercell.

 Subroutine GETGRP returns: Found  2 space group operations
 (whereof  1 operations were pure point group operations)
 out of a pool of 16 trial point group operations.

The static configuration has the point symmetry C_1 .
 The point group associated with its full space group is C_1h.

Analysis of symmetry for dynamics (positions and initial velocities):
 Subroutine PRICEL returns:
 Original cell was already a primitive cell.

[...]

The dynamic configuration has the point symmetry C_1 .
 The point group associated with its full space group is C_1h.

Analysis of constrained symmetry for selective dynamics:
 Subroutine PRICEL returns:
 Original cell was already a primitive cell.

 Routine SETGRP: Setting up the symmetry group for a
 simple tetragonal supercell.

 Subroutine GETGRP returns: Found  2 space group operations
 (whereof  1 operations were pure point group operations)
 out of a pool of 16 trial point group operations.

The constrained configuration has the point symmetry C_1 .
 The point group associated with its full space group is C_1h.

 Subroutine INISYM returns: Found  2 space group operations
 (whereof  1 operations are pure point group operations),
 and found     1 'primitive' translations

                                     Primitive cell

  volume of cell :    9881.6133

  direct lattice vectors                    reciprocal lattice vectors
    21.138852197  0.000000000  0.000000000     0.047306258  0.000000000  0.000000000
[...]
     22     -46.4888      2.00000
     23     -46.4886      2.00000
     24     -46.4886      2.00000
     25     -46.4827      2.00000
     26     -46.4826      2.00000
     27     -46.4825      2.00000
     28     -46.4825      2.00000
     29     -46.4674      2.00000
     30     -46.4673      2.00000
     31     -46.4653      2.00000
     32     -46.4652      2.00000
     33     -46.4649      2.00000
     34     -46.4648      2.00000
     35     -46.4638      2.00000
     36     -46.4637      2.00000
     37     -46.4490      2.00000
     38     -46.4489      2.00000
     39     -46.4485      2.00000
     40     -46.4484      2.00000
     41     -46.4356      2.00000
     42     -46.4355      2.00000
     43     -46.4219      2.00000
     44     -46.4217      2.00000
     45     -46.4213      2.00000
     46     -46.4212      2.00000
     47     -46.4190      2.00000
     48     -46.4189      2.00000
     49     -46.4188      2.00000
     50     -46.4187      2.00000
     51     -46.4181      2.00000
     52     -46.4163      2.00000
     53     -46.4119      2.00000
     54     -46.4119      2.00000
     55     -46.4104      2.00000
     56     -46.4103      2.00000
     57     -46.4096      2.00000
     58     -46.4096      2.00000
     59     -46.4036      2.00000
     60     -46.4025      2.00000
[...]
    882       5.1356      0.00000
    883       5.1579      0.00000
    884       5.1775      0.00000
    885       5.2176      0.00000
    886       5.3262      0.00000
    887       5.4198      0.00000
    888       5.4220      0.00000
    889       5.4633      0.00000
    890       5.5051      0.00000
    891       5.5158      0.00000
    892       5.5687      0.00000
    893       5.5842      0.00000
    894       5.7027      0.00000
    895       5.8317      0.00000
    896       6.0288      0.00000

 soft charge-density along one line, spin component           1
         0         1         2         3         4         5         6         7         8         9
 total charge-density along one line

------------------------ aborting loop because EDIFF is reached ----------------------------------------

 VOLUME and BASIS-vectors are now :
  energy-cutoff  :      520.00
  volume of cell :     9881.61
      direct lattice vectors                 reciprocal lattice vectors
    21.138852197  0.000000000  0.000000000     0.047306258  0.000000000  0.000000000
     0.000000000 21.138852197  0.000000000     0.000000000  0.047306258  0.000000000
     0.000000000  0.000000000 22.113885220     0.000000000  0.000000000  0.045220457

  length of vectors
    21.138852197 21.138852197 22.113885220     0.047306258  0.047306258  0.045220457

 FORCES acting on ions:
    Electron-Ion                     Ewald-Force                    Non-Local-Force
   0.485E+02 -.485E+02 -.197E+04   -.510E+02 0.510E+02 0.197E+04   0.228E+01 -.227E+01 0.279E+01
   0.221E+03 -.221E+03 -.203E+04   -.218E+03 0.218E+03 0.203E+04   -.277E+01 0.274E+01 -.248E+01
   -.221E+03 0.221E+03 -.203E+04   0.218E+03 -.218E+03 0.203E+04   0.274E+01 -.277E+01 -.248E+01
   -.485E+02 0.485E+02 -.197E+04   0.510E+02 -.510E+02 0.197E+04   -.227E+01 0.228E+01 0.279E+01
   0.457E+01 -.457E+01 0.937E+03   -.461E+01 0.461E+01 -.929E+03   0.270E-01 -.270E-01 -.671E+01
   0.896E+01 0.202E+01 0.938E+03   -.895E+01 -.195E+01 -.930E+03   -.365E-02 -.500E-01 -.672E+01
   0.331E+01 0.331E+01 -.918E+03   -.328E+01 -.328E+01 0.911E+03   -.176E-01 -.176E-01 0.665E+01
   0.139E+02 -.104E+02 -.916E+03   -.139E+02 0.105E+02 0.908E+03   0.247E-01 -.878E-01 0.665E+01
   0.202E+01 0.896E+01 0.938E+03   -.195E+01 -.895E+01 -.930E+03   -.500E-01 -.365E-02 -.672E+01
   0.143E+02 0.155E+02 0.944E+03   -.142E+02 -.155E+02 -.936E+03   -.455E-01 0.747E-04 -.673E+01
   0.314E+01 0.155E+02 -.915E+03   -.302E+01 -.155E+02 0.907E+03   -.821E-01 -.680E-03 0.665E+01
   0.132E+02 0.132E+02 -.916E+03   -.132E+02 -.132E+02 0.908E+03   -.365E-01 -.365E-01 0.664E+01
   0.486E+01 0.110E+02 0.945E+03   -.477E+01 -.110E+02 -.937E+03   -.688E-01 0.167E-01 -.673E+01
   0.281E+02 0.111E+02 0.957E+03   -.281E+02 -.113E+02 -.949E+03   -.418E-02 0.103E+00 -.674E+01
   0.128E+02 0.788E+01 -.909E+03   -.128E+02 -.792E+01 0.901E+03   -.270E-01 0.252E-01 0.664E+01
   0.306E+02 0.233E+02 -.906E+03   -.304E+02 -.233E+02 0.898E+03   -.925E-01 0.379E-01 0.663E+01
   0.121E+02 -.242E+01 0.949E+03   -.122E+02 0.238E+01 -.941E+03   0.694E-01 0.288E-01 -.673E+01
   0.318E+02 -.129E+02 0.960E+03   -.323E+02 0.128E+02 -.952E+03   0.334E+00 0.431E-01 -.675E+01
   0.203E+02 -.128E+02 -.909E+03   -.205E+02 0.128E+02 0.901E+03   0.138E+00 0.182E-01 0.664E+01
   0.581E+02 0.283E+01 -.892E+03   -.583E+02 -.301E+01 0.885E+03   0.142E+00 0.120E+00 0.662E+01
   0.109E+02 -.130E+02 0.943E+03   -.110E+02 0.130E+02 -.936E+03   0.131E+00 -.152E-01 -.672E+01
   0.158E+02 -.158E+02 0.944E+03   -.159E+02 0.159E+02 -.937E+03   0.965E-01 -.966E-01 -.670E+01
   0.104E+02 -.139E+02 -.916E+03   -.105E+02 0.139E+02 0.908E+03   0.878E-01 -.249E-01 0.665E+01
   0.387E+02 -.287E+02 -.903E+03   -.391E+02 0.288E+02 0.896E+03   0.311E+00 -.338E-01 0.665E+01
   0.130E+02 -.109E+02 0.943E+03   -.130E+02 0.110E+02 -.936E+03   0.152E-01 -.131E+00 -.672E+01
   0.110E+02 0.486E+01 0.945E+03   -.110E+02 -.477E+01 -.937E+03   0.167E-01 -.688E-01 -.673E+01
   0.155E+02 0.314E+01 -.915E+03   -.155E+02 -.302E+01 0.907E+03   -.680E-03 -.821E-01 0.665E+01
   0.128E+02 -.203E+02 -.909E+03   -.128E+02 0.205E+02 0.901E+03   -.181E-01 -.138E+00 0.664E+01
   0.155E+02 0.143E+02 0.944E+03   -.155E+02 -.142E+02 -.936E+03   0.747E-04 -.455E-01 -.673E+01
   0.252E+02 0.322E+02 0.963E+03   -.253E+02 -.321E+02 -.955E+03   0.648E-01 -.385E-01 -.678E+01
   0.329E+02 0.329E+02 -.904E+03   -.328E+02 -.328E+02 0.897E+03   -.526E-01 -.526E-01 0.662E+01
   0.233E+02 0.306E+02 -.906E+03   -.233E+02 -.304E+02 0.898E+03   0.379E-01 -.925E-01 0.663E+01
   0.322E+02 0.252E+02 0.963E+03   -.321E+02 -.253E+02 -.955E+03   -.385E-01 0.648E-01 -.678E+01
   0.426E+02 0.277E+02 0.101E+04   -.426E+02 -.282E+02 -.100E+04   -.136E-01 0.309E+00 -.699E+01
   0.791E+02 0.416E+02 -.869E+03   -.788E+02 -.419E+02 0.862E+03   -.223E+00 0.267E+00 0.655E+01
   0.671E+02 0.671E+02 -.862E+03   -.669E+02 -.669E+02 0.854E+03   -.120E+00 -.120E+00 0.653E+01
   0.499E+02 0.289E+01 0.992E+03   -.501E+02 -.338E+01 -.984E+03   0.132E+00 0.327E+00 -.671E+01
   0.342E+02 -.342E+02 0.102E+04   -.339E+02 0.339E+02 -.102E+04   -.167E+00 0.166E+00 -.458E+01
   0.109E+03 -.430E+02 -.839E+03   -.112E+03 0.427E+02 0.832E+03   0.171E+01 0.175E+00 0.681E+01
   0.120E+03 0.623E+02 -.699E+03   -.120E+03 -.655E+02 0.692E+03   -.340E+00 0.193E+01 0.530E+01
   0.312E+02 -.312E+02 0.969E+03   -.315E+02 0.315E+02 -.962E+03   0.216E+00 -.216E+00 -.660E+01
   0.129E+02 -.318E+02 0.960E+03   -.128E+02 0.323E+02 -.952E+03   -.431E-01 -.334E+00 -.675E+01
   0.287E+02 -.387E+02 -.903E+03   -.288E+02 0.391E+02 0.896E+03   0.336E-01 -.311E+00 0.665E+01
   0.431E+02 -.109E+03 -.839E+03   -.428E+02 0.112E+03 0.832E+03   -.175E+00 -.171E+01 0.681E+01
   0.242E+01 -.121E+02 0.949E+03   -.238E+01 0.122E+02 -.941E+03   -.288E-01 -.691E-01 -.673E+01
   -.242E+01 0.121E+02 0.949E+03   0.238E+01 -.122E+02 -.941E+03   0.288E-01 0.694E-01 -.673E+01
   0.788E+01 0.128E+02 -.909E+03   -.792E+01 -.128E+02 0.901E+03   0.252E-01 -.270E-01 0.664E+01
   -.788E+01 -.129E+02 -.909E+03   0.792E+01 0.128E+02 0.901E+03   -.251E-01 0.272E-01 0.664E+01
   0.111E+02 0.281E+02 0.957E+03   -.113E+02 -.281E+02 -.949E+03   0.103E+00 -.418E-02 -.674E+01
   0.289E+01 0.499E+02 0.992E+03   -.338E+01 -.501E+02 -.984E+03   0.327E+00 0.132E+00 -.671E+01
   0.416E+02 0.791E+02 -.869E+03   -.419E+02 -.788E+02 0.862E+03   0.267E+00 -.223E+00 0.655E+01
   0.283E+01 0.581E+02 -.892E+03   -.301E+01 -.583E+02 0.885E+03   0.120E+00 0.142E+00 0.662E+01
   0.277E+02 0.426E+02 0.101E+04   -.282E+02 -.426E+02 -.100E+04   0.309E+00 -.136E-01 -.699E+01
   -.767E+01 0.770E+01 0.105E+04   0.734E+01 -.737E+01 -.104E+04   0.225E+00 -.225E+00 -.700E+01
   0.666E+02 0.666E+02 -.736E+03   -.667E+02 -.667E+02 0.730E+03   0.108E+00 0.108E+00 0.620E+01
   0.623E+02 0.120E+03 -.699E+03   -.655E+02 -.120E+03 0.692E+03   0.193E+01 -.340E+00 0.530E+01
   0.770E+01 -.767E+01 0.105E+04   -.737E+01 0.734E+01 -.104E+04   -.225E+00 0.225E+00 -.700E+01
   -.277E+02 -.426E+02 0.101E+04   0.282E+02 0.426E+02 -.100E+04   -.309E+00 0.134E-01 -.699E+01
   -.623E+02 -.120E+03 -.698E+03   0.655E+02 0.120E+03 0.692E+03   -.193E+01 0.340E+00 0.529E+01
   -.665E+02 -.665E+02 -.736E+03   0.667E+02 0.667E+02 0.730E+03   -.109E+00 -.109E+00 0.620E+01
[...]
   -.181E+02 0.142E+02 0.716E+03   0.182E+02 -.143E+02 -.720E+03   -.212E+00 0.913E-01 0.318E+01
   -.562E+01 0.799E+01 0.706E+03   0.569E+01 -.802E+01 -.710E+03   -.757E-01 0.387E-01 0.315E+01
   -.422E+02 0.143E+02 -.672E+03   0.424E+02 -.143E+02 0.676E+03   -.259E+00 -.812E-01 -.333E+01
   -.142E+02 0.196E+01 -.682E+03   0.143E+02 -.193E+01 0.687E+03   -.519E-01 -.433E-01 -.330E+01
   -.251E+02 -.216E-01 0.723E+03   0.252E+02 0.151E+00 -.727E+03   -.133E+00 -.157E+00 0.313E+01
   -.984E+01 0.737E+01 0.712E+03   0.992E+01 -.736E+01 -.716E+03   -.108E+00 -.138E-01 0.314E+01
   -.339E+02 -.138E+02 -.676E+03   0.339E+02 0.139E+02 0.680E+03   -.492E-02 -.125E+00 -.334E+01
   -.496E+01 -.108E+02 -.685E+03   0.491E+01 0.108E+02 0.689E+03   0.575E-01 -.975E-02 -.329E+01
   -.155E+02 -.121E+02 0.714E+03   0.154E+02 0.122E+02 -.718E+03   0.396E-01 -.364E-01 0.312E+01
   -.645E+01 -.421E+01 0.713E+03   0.645E+01 0.424E+01 -.716E+03   0.806E-02 -.319E-01 0.313E+01
   -.147E+02 -.156E+02 -.686E+03   0.147E+02 0.156E+02 0.690E+03   0.588E-01 0.207E-01 -.329E+01
   -.170E+01 -.840E+01 -.690E+03   0.166E+01 0.840E+01 0.694E+03   0.478E-01 0.528E-02 -.327E+01
   -.769E+01 -.769E+01 0.707E+03   0.767E+01 0.767E+01 -.711E+03   0.258E-01 0.258E-01 0.313E+01
   -.193E+01 -.910E+01 0.708E+03   0.188E+01 0.910E+01 -.712E+03   0.622E-01 -.554E-02 0.314E+01
   -.162E-02 -.135E-02 0.107E+02   0.343E-11 -.405E-12 -.110E-10   -.193E-01 -.193E-01 -.930E+01

 POSITION                                       TOTAL-FORCE (eV/Angst)
      8.54545     12.59441     14.71338        -0.080405      0.084395      0.115763
      7.02105     14.11881     13.31306        -0.171304      0.153125      0.021639
     12.00492      9.13494     13.31306         0.153125     -0.171304      0.021639
     10.48052     10.65934     14.71338         0.084395     -0.080405      0.115763
      0.00000      0.00000      9.00000        -0.008321      0.008548      0.488455
      2.11389      2.11389      9.00000         0.001129      0.015276      0.490326
      0.00000      2.11389     11.11389         0.005360      0.005360     -0.443655
      2.11389      0.00000     11.11389        -0.007867      0.026348     -0.441102
      0.00000      4.22777      9.00000         0.015276      0.001129      0.490326
      2.11389      6.34166      9.00000         0.014434      0.000758      0.494840
      0.00000      6.34166     11.11389         0.024856      0.000791     -0.440083
      2.11389      4.22777     11.11389         0.011717      0.011717     -0.442445
      0.00000      8.45554      9.00000         0.020446     -0.004771      0.491990
      2.11389     10.56943      9.00000         0.000276     -0.032256      0.493388
      0.00000     10.56943     11.11389         0.008705     -0.007519     -0.433189
      2.11389      8.45554     11.11389         0.029450     -0.009552     -0.430392
      0.00000     12.68331      9.00000        -0.020427     -0.009863      0.490124
      2.11389     14.79720      9.00000        -0.093096     -0.014590      0.491358
      0.00000     14.79720     11.11389        -0.038619     -0.006250     -0.431003
      2.11389     12.68331     11.11389        -0.034590     -0.039681     -0.413728
      0.00000     16.91108      9.00000        -0.038803      0.004968      0.487388
      2.11389     19.02497      9.00000        -0.030779      0.031004      0.479515
      0.00000     19.02497     11.11389        -0.026189      0.008119     -0.441054
      2.11389     16.91108     11.11389        -0.088774      0.011287     -0.427781
      4.22777      0.00000      9.00000        -0.004842      0.038920      0.486991
      6.34166      2.11389      9.00000        -0.004771      0.020446      0.491990
      4.22777      2.11389     11.11389         0.000791      0.024856     -0.440083
      6.34166      0.00000     11.11389         0.006424      0.038575     -0.433303
      4.22777      4.22777      9.00000         0.000758      0.014434      0.494840
      6.34166      6.34166      9.00000        -0.016510      0.013907      0.510431
      4.22777      6.34166     11.11389         0.018662      0.018662     -0.428069
      6.34166      4.22777     11.11389        -0.009552      0.029450     -0.430392
      4.22777      8.45554      9.00000         0.013907     -0.016510      0.510431
      6.34166     10.56943      9.00000         0.011157     -0.082027      0.573936
      4.22777     10.56943     11.11389         0.086626     -0.062512     -0.370456
      6.34166      8.45554     11.11389         0.053778      0.053778     -0.362081
      4.22777     12.68331      9.00000        -0.048330     -0.115485      0.471119
      6.34166     14.79720      9.00000         0.065338     -0.065044     -0.056025
      4.22777     14.79720     11.11389        -0.576839     -0.066456     -0.446058
      6.34166     12.68331     11.11389        -0.022034     -1.030389     -0.559399
      4.22777     16.91108      9.00000        -0.079378      0.079648      0.436269
      6.34166     19.02497      9.00000         0.014707      0.093264      0.491405
      4.22777     19.02497     11.11389        -0.011104      0.089040     -0.430219
      6.34166     16.91108     11.11389         0.066692      0.577062     -0.446169
      8.45554      0.00000      9.00000         0.009838      0.020498      0.489928
     10.56943      2.11389      9.00000        -0.009863     -0.020427      0.490124
      8.45554      2.11389     11.11389        -0.007519      0.008705     -0.433189
     10.56943      0.00000     11.11389         0.007539     -0.008588     -0.432880
      8.45554      4.22777      9.00000        -0.032256      0.000276      0.493388
     10.56943      6.34166      9.00000        -0.115485     -0.048330      0.471119
      8.45554      6.34166     11.11389        -0.062512      0.086626     -0.370456
     10.56943      4.22777     11.11389        -0.039681     -0.034590     -0.413728
      8.45554      8.45554      9.00000        -0.082027      0.011157      0.573936
     10.56943     10.56943      9.00000        -0.080862      0.080995      0.549087
      8.45554     10.56943     11.11389        -0.004734     -0.004734     -0.110443
     10.56943      8.45554     11.11389        -1.030389     -0.022034     -0.559399
      8.45554     12.68331      9.00000         0.080995     -0.080862      0.549087
     10.56943     14.79720      9.00000         0.082247     -0.010990      0.573787
      8.45554     14.79720     11.11389         1.031584      0.022561     -0.560424
     10.56943     12.68331     11.11389         0.005034      0.005034     -0.110185
[...]
     19.02497      6.34166     11.11389        -0.036251      0.005680      0.352628
     16.91108      6.34166      9.00000        -0.067967      0.028913     -0.392114
     19.02497      4.22777      9.00000        -0.024343      0.012387     -0.401410
     16.91108      8.45554     11.11389        -0.087426     -0.025522      0.341608
     19.02497     10.56943     11.11389        -0.017124     -0.013955      0.347231
     16.91108     10.56943      9.00000        -0.042279     -0.050363     -0.405427
     19.02497      8.45554      9.00000        -0.034680     -0.004770     -0.402475
     16.91108     12.68331     11.11389        -0.002631     -0.040739      0.337443
     19.02497     14.79720     11.11389         0.018768     -0.002954      0.350559
     16.91108     14.79720      9.00000         0.013134     -0.011646     -0.410410
     19.02497     12.68331      9.00000         0.002871     -0.010046     -0.406128
     16.91108     16.91108     11.11389         0.019039      0.006806      0.350127
     19.02497     19.02497     11.11389         0.015221      0.001682      0.356310
     16.91108     19.02497      9.00000         0.008529      0.008529     -0.404956
     19.02497     16.91108      9.00000         0.020216     -0.001799     -0.404284
    total drift:                               -0.012646     -0.012379     -0.083386

  FREE ENERGIE OF THE ION-ELECTRON SYSTEM (eV)
  free  energy   TOTEN  =     -1368.36713138 eV

  energy  without entropy=    -1368.36713138  energy(sigma->0) =    -1368.36713138