 vasp.6.4.0 14Feb23 (build Jul 14 2023 13:46:40) complex

 executed on             LinuxIFC date 2023.07.30  10:48:17

 INCAR:
   SYSTEM = MgO-rocksalt
   ISMEAR = 0
   SIGMA = 0.05
   EDIFF = 1E-6
   ALGO = ALL
   ISTART = 0
   IBRION = -1
   NSW = 0
   ISYM = 2
   DIPOL = 0.5 0.5 0.5
   IDIPOL = 3
   LDIPOL = .TRUE.
   METAGGA = R2SCAN
   LUSE_VDW = .TRUE.
   BPARAM = 11.95
   CPARAM = 0.0093
   ENCUT = 520
   PREC = Accurate
   LASPH = .TRUE.
   LREAL = Auto
   ISPIN = 1
   NELM = 200
   NELMIN = 8
   NCORE = 16
   KPAR = 1
   LWAVE = .FALSE.
   LCHARG = .FALSE.

 POTCAR:    PAW_PBE Cu 22Jun2005
 POTCAR:    PAW_PBE Mg_pv 13Apr2007
 POTCAR:    PAW_PBE O 08Apr2002
|               ----> ADVICE to this user running VASP <----                  |
|     You have switched on vdW-DFT.                                           |
|     This routine was written and supplied by Jiri Klimes. We recommend      |
|     that you carefully read and cite the following publications:            |
|       J. Klimes, D.R. Bowler, A. Michelides                                 |
|          J. Phys.: Cond Matt. 22 022201 (2010)                              |
|       J. Klimes, D.R. Bowler, A. Michelides                                 |
|          Phys. Rev. B. 83, 195131 (2011)                                    |
|     and references therein.                                                 |

   TITEL  = PAW_PBE Cu 22Jun2005
   POMASS =   63.546; ZVAL   =   11.000    mass and valenz
   ENMAX  =  295.446; ENMIN  =  221.585 eV

   TITEL  = PAW_PBE Mg_pv 13Apr2007
   POMASS =   24.305; ZVAL   =    8.000    mass and valenz
   ENMAX  =  403.929; ENMIN  =  302.947 eV

   TITEL  = PAW_PBE O 08Apr2002
   POMASS =   16.000; ZVAL   =    6.000    mass and valenz
   ENMAX  =  400.000; ENMIN  =  300.000 eV

 Optimization of the real space projectors (new method)

 maximal supplied QI-value         = 16.25
 optimisation between [QCUT,QGAM] = [ 11.54, 23.24] = [ 37.28,151.24] Ry
 Optimized for a Real-space Cutoff    1.53 Angstroem

   l    n(q)    QCUT    max X(q) W(low)/X(q) W(high)/X(q)  e(spline)
   2     10    11.539     4.610    0.96E-04    0.13E-03    0.19E-06
   2     10    11.539     8.522    0.16E-03    0.21E-03    0.28E-06
   0     11    11.539    51.609    0.45E-04    0.31E-04    0.11E-06
   0     11    11.539    27.747    0.39E-04    0.29E-04    0.10E-06
   1     10    11.539    20.408    0.70E-05    0.38E-04    0.18E-06
   1     10    11.539    13.425    0.66E-05    0.34E-04    0.17E-06
 Optimization of the real space projectors (new method)

[...]

   l    n(q)    QCUT    max X(q) W(low)/X(q) W(high)/X(q)  e(spline)
   1      8    11.527     2.974    0.44E-04    0.56E-04    0.12E-06
   1      8    11.527     4.279    0.12E-03    0.12E-03    0.26E-06
   0      9    11.527    16.381    0.46E-04    0.64E-04    0.78E-07
   0      9    11.527     5.611    0.26E-04    0.43E-04    0.55E-07
   2      8    11.527     4.652    0.22E-03    0.72E-04    0.47E-07
 Optimization of the real space projectors (new method)

 maximal supplied QI-value         = 24.76
 optimisation between [QCUT,QGAM] = [ 11.64, 23.27] = [ 37.91,151.63] Ry
 Optimized for a Real-space Cutoff    1.14 Angstroem

   l    n(q)    QCUT    max X(q) W(low)/X(q) W(high)/X(q)  e(spline)
   0      8    11.635    20.381    0.10E-03    0.33E-03    0.24E-06
   0      8    11.635    15.268    0.11E-03    0.35E-03    0.26E-06
   1      7    11.635     5.964    0.24E-03    0.31E-03    0.30E-06
   1      7    11.635     5.382    0.22E-03    0.25E-03    0.26E-06
  PAW_PBE Cu 22Jun2005                  :
  PAW_PBE Mg_pv 13Apr2007               :
  PAW_PBE O 08Apr2002                   :

 POSCAR: Cu Mg  O
  positions in direct lattice

 METAGGA = R2SCAN                                      LMAXTAU =  6    LMIXTAU =  F

 ion  position               nearest neighbor table
   1  0.538  0.562  0.615-   2 2.24
   2  0.462  0.638  0.615-   1 2.24
   3  0.000  0.000  0.407- 105 2.11 106 2.11 121 2.11 186 2.11 103 2.11
   4  0.100  0.100  0.407- 105 2.11 106 2.11 110 2.11 125 2.11 104 2.11
   5  0.000  0.100  0.503- 103 2.11 104 2.11 107 2.11 184 2.11 105 2.11
   6  0.100  0.000  0.503- 103 2.11 104 2.11 120 2.11 123 2.11 106 2.11
   7  0.000  0.200  0.407- 109 2.11 105 2.11 110 2.11 190 2.11 107 2.11
   8  0.100  0.300  0.407- 110 2.11 109 2.11 114 2.11 129 2.11 108 2.11
   9  0.000  0.300  0.503- 107 2.11 108 2.11 111 2.11 188 2.11 109 2.11
  10  0.100  0.200  0.503- 108 2.11 107 2.11 104 2.11 127 2.11 110 2.11
  11  0.000  0.400  0.407- 109 2.11 113 2.11 114 2.11 194 2.11 111 2.11
  12  0.100  0.500  0.407- 113 2.11 114 2.11 118 2.11 133 2.11 112 2.11
  13  0.000  0.500  0.503- 111 2.11 112 2.11 115 2.11 192 2.11 113 2.11
  14  0.100  0.400  0.503- 108 2.11 111 2.11 112 2.11 131 2.11 114 2.11
  15  0.000  0.600  0.407- 113 2.11 117 2.11 118 2.11 198 2.11 115 2.11
  16  0.100  0.700  0.407- 122 2.11 118 2.11 117 2.11 137 2.11 116 2.11
  17  0.000  0.700  0.503- 119 2.11 116 2.11 115 2.11 196 2.11 117 2.11
  18  0.100  0.600  0.503- 112 2.11 115 2.11 116 2.11 135 2.11 118 2.11
  19  0.000  0.800  0.407- 117 2.11 121 2.11 122 2.11 202 2.11 119 2.11
  20  0.100  0.900  0.407- 106 2.11 121 2.11 122 2.11 141 2.11 120 2.11
  21  0.000  0.900  0.503- 103 2.11 119 2.11 120 2.11 200 2.11 121 2.11
  22  0.100  0.800  0.503- 116 2.11 119 2.11 120 2.11 139 2.11 122 2.11
  23  0.200  0.000  0.407- 126 2.11 125 2.11 106 2.11 141 2.11 123 2.11
  24  0.300  0.100  0.407- 125 2.11 126 2.11 130 2.11 145 2.11 124 2.11
  25  0.200  0.100  0.503- 124 2.11 123 2.11 104 2.11 127 2.11 125 2.11
  26  0.300  0.000  0.503- 123 2.11 124 2.11 140 2.11 143 2.11 126 2.11
  27  0.200  0.200  0.407- 129 2.11 130 2.11 110 2.11 125 2.11 127 2.11
  28  0.300  0.300  0.407- 129 2.11 130 2.11 134 2.11 149 2.11 128 2.11
  29  0.200  0.300  0.503- 127 2.11 128 2.11 108 2.11 131 2.11 129 2.11
  30  0.300  0.200  0.503- 127 2.11 128 2.11 124 2.11 147 2.11 130 2.11
  31  0.200  0.400  0.407- 134 2.11 129 2.11 133 2.11 114 2.11 131 2.11
  32  0.300  0.500  0.407- 133 2.11 134 2.11 138 2.11 153 2.11 132 2.11
  33  0.200  0.500  0.503- 132 2.11 131 2.11 112 2.11 135 2.11 133 2.11
  34  0.300  0.400  0.503- 131 2.11 128 2.11 132 2.11 151 2.11 134 2.11
  35  0.200  0.600  0.407- 138 2.11 133 2.11 137 2.11 118 2.11 135 2.11
  36  0.300  0.700  0.407- 137 2.11 142 2.11 138 2.11 157 2.11 136 2.11
  37  0.200  0.700  0.503- 136 2.11 139 2.11 116 2.11 135 2.11 137 2.11
  38  0.300  0.600  0.503- 135 2.11 132 2.11 136 2.11 155 2.11 138 2.11
  39  0.200  0.800  0.407- 137 2.11 142 2.11 141 2.11 122 2.11 139 2.11
  40  0.300  0.900  0.407- 141 2.11 126 2.11 142 2.11 161 2.11 140 2.11
  41  0.200  0.900  0.503- 140 2.11 123 2.11 139 2.11 120 2.11 141 2.11
  42  0.300  0.800  0.503- 136 2.11 139 2.11 140 2.11 159 2.11 142 2.11
  43  0.400  0.000  0.407- 126 2.11 145 2.11 146 2.11 161 2.11 143 2.11
  44  0.500  0.100  0.407- 145 2.11 146 2.11 150 2.11 165 2.11 144 2.11
  45  0.400  0.100  0.503- 124 2.11 143 2.11 144 2.11 147 2.11 145 2.11
  46  0.500  0.000  0.503- 143 2.11 144 2.11 160 2.11 163 2.11 146 2.11
  47  0.400  0.200  0.407- 149 2.11 145 2.11 130 2.11 150 2.11 147 2.11
  48  0.500  0.300  0.407- 150 2.11 149 2.11 154 2.11 169 2.11 148 2.11
  49  0.400  0.300  0.503- 147 2.11 128 2.11 148 2.11 151 2.11 149 2.11
  50  0.500  0.200  0.503- 148 2.11 147 2.11 144 2.11 167 2.11 150 2.11
  51  0.400  0.400  0.407- 134 2.11 149 2.11 153 2.11 154 2.11 151 2.11
  52  0.500  0.500  0.407- 153 2.11 154 2.11 158 2.11 173 2.11 152 2.11
  53  0.400  0.500  0.503- 132 2.11 151 2.11 152 2.11 155 2.11 153 2.11
  54  0.500  0.400  0.503- 148 2.11 151 2.11 152 2.11 171 2.11 154 2.11
  55  0.400  0.600  0.407- 138 2.11 153 2.11 157 2.11 158 2.11 155 2.11
  56  0.500  0.700  0.407- 162 2.11 158 2.11 157 2.11 177 2.11 156 2.11
  57  0.400  0.700  0.503- 159 2.11 155 2.11 156 2.11 136 2.11 157 2.11
  58  0.500  0.600  0.503- 152 2.11 155 2.11 156 2.11 175 2.11 158 2.11
  59  0.400  0.800  0.407- 157 2.11 142 2.11 161 2.11 162 2.11 159 2.11
  60  0.500  0.900  0.407- 146 2.11 161 2.11 162 2.11 181 2.11 160 2.11
[...]
 188  0.900  0.300  0.503-  90 2.11  89 2.11   9 2.11  94 2.11  88 2.11
 189  0.800  0.300  0.407-  68 2.11  87 2.11  88 2.11  91 2.11  89 2.11
 190  0.900  0.200  0.407-  88 2.11  84 2.11  87 2.11   7 2.11  90 2.11
 191  0.800  0.400  0.503-  74 2.11  89 2.11  93 2.11  94 2.11  91 2.11
 192  0.900  0.500  0.503-  13 2.11  93 2.11  94 2.11  98 2.11  92 2.11
 193  0.800  0.500  0.407-  72 2.11  91 2.11  92 2.11  95 2.11  93 2.11
 194  0.900  0.400  0.407-  11 2.11  88 2.11  91 2.11  92 2.11  94 2.11
 195  0.800  0.600  0.503-  78 2.11  93 2.11  97 2.11  98 2.11  95 2.11
 196  0.900  0.700  0.503- 102 2.11  97 2.11  98 2.11  17 2.11  96 2.11
 197  0.800  0.700  0.407-  76 2.11  99 2.11  96 2.11  95 2.11  97 2.11
 198  0.900  0.600  0.407-  15 2.11  92 2.11  95 2.11  96 2.11  98 2.11
 199  0.800  0.800  0.503-  82 2.11  97 2.11 101 2.11 102 2.11  99 2.11
 200  0.900  0.900  0.503-  21 2.11  86 2.11 101 2.11 102 2.11 100 2.11
 201  0.800  0.900  0.407-  80 2.11  83 2.11  99 2.11 100 2.11 101 2.11
 202  0.900  0.800  0.407-  96 2.11  19 2.11  99 2.11 100 2.11 102 2.11

  LATTYP: Found a simple tetragonal cell.
 ALAT       =    21.1388521970
 C/A-ratio  =     1.0461251639

  Lattice vectors:

 A1 = (  21.1388521970,   0.0000000000,   0.0000000000)
 A2 = (   0.0000000000,  21.1388521970,   0.0000000000)
 A3 = (   0.0000000000,   0.0000000000,  22.1138852197)

Analysis of symmetry for initial positions (statically):
 Subroutine PRICEL returns:
 Original cell was already a primitive cell.

 Routine SETGRP: Setting up the symmetry group for a
 simple tetragonal supercell.

 Subroutine GETGRP returns: Found  4 space group operations
 (whereof  1 operations were pure point group operations)
 out of a pool of 16 trial point group operations.

The static configuration has the point symmetry C_1 .
 The point group associated with its full space group is C_2v.

Analysis of symmetry for dynamics (positions and initial velocities):
 Subroutine PRICEL returns:
 Original cell was already a primitive cell.

 Routine SETGRP: Setting up the symmetry group for a
 simple tetragonal supercell.

 Subroutine GETGRP returns: Found  4 space group operations
 (whereof  1 operations were pure point group operations)
 out of a pool of 16 trial point group operations.

The dynamic configuration has the point symmetry C_1 .
 The point group associated with its full space group is C_2v.

 Subroutine INISYM returns: Found  4 space group operations
 (whereof  1 operations are pure point group operations),
 and found     1 'primitive' translations

                                     Primitive cell

  volume of cell :    9881.6133

  direct lattice vectors                    reciprocal lattice vectors
    21.138852197  0.000000000  0.000000000     0.047306258  0.000000000  0.000000000
     0.000000000 21.138852197  0.000000000     0.000000000  0.047306258  0.000000000
     0.000000000  0.000000000 22.113885220     0.000000000  0.000000000  0.045220457

  length of vectors
    21.138852197 21.138852197 22.113885220     0.047306258  0.047306258  0.045220457

[...]
     52     -44.4052      2.00000
     53     -44.4044      2.00000
     54     -44.4042      2.00000
     55     -44.4038      2.00000
     56     -44.4035      2.00000
     57     -44.4025      2.00000
     58     -44.4024      2.00000
     59     -44.4022      2.00000
     60     -44.4016      2.00000
[...]
    850       4.8130      0.00000
    851       4.8230      0.00000
    852       4.8345      0.00000
    853       4.8428      0.00000
    854       4.8969      0.00000
    855       4.9078      0.00000
    856       5.0242      0.00000
    857       5.0525      0.00000
    858       5.0676      0.00000
    859       5.0816      0.00000
    860       5.0928      0.00000
    861       5.1277      0.00000
    862       5.3073      0.00000
    863       5.3984      0.00000
    864       5.4915      0.00000

 soft charge-density along one line, spin component           1
         0         1         2         3         4         5         6         7         8         9
 total charge-density along one line

------------------------ aborting loop because EDIFF is reached ----------------------------------------

  FORCE on cell =-STRESS in cart. coord.  units (eV):
  Direction    XX          YY          ZZ          XY          YZ          ZX
  Alpha Z  1354.41543  1354.41543  1354.41543
  Ewald  480381.00929480381.00929************  -397.46722     0.00001    -0.00002
  Hartree509342.74300509342.74300************  -292.51018    -0.00000    -0.00002
  E(xc)   -8412.09198 -8412.09198 -8403.18043    -0.04431    -0.00000     0.00000
  Local  ************************************   683.97475    -0.00001     0.00004
  n-local -8731.91747 -8731.91747 -8854.47971     0.42875     0.00000    -0.00000
  augment  3885.14591  3885.14587  3828.16129     2.64901     0.00000    -0.00000
  Kinetic 22912.24452 22912.24452 23137.22431     2.44335     0.00000    -0.00000
  Fock        0.00000     0.00000     0.00000     0.00000     0.00000     0.00000
  Total    -231.56213  -231.56213   -20.45722    -0.52585     0.00000     0.00000
  in kB     -37.54484   -37.54484    -3.31688    -0.08526     0.00000     0.00000

 VOLUME and BASIS-vectors are now :
  energy-cutoff  :      520.00
  volume of cell :     9881.61
      direct lattice vectors                 reciprocal lattice vectors
    21.138852197  0.000000000  0.000000000     0.047306258  0.000000000  0.000000000
     0.000000000 21.138852197  0.000000000     0.000000000  0.047306258  0.000000000
     0.000000000  0.000000000 22.113885220     0.000000000  0.000000000  0.045220457

  length of vectors
    21.138852197 21.138852197 22.113885220     0.047306258  0.047306258  0.045220457

 FORCES acting on ions:
    Electron-Ion                     Ewald-Force                    Non-Local-Force
   -.256E+03 0.256E+03 -.212E+04   0.246E+03 -.246E+03 0.212E+04   0.961E+01 -.961E+01 -.598E+00
   0.256E+03 -.256E+03 -.212E+04   -.246E+03 0.246E+03 0.212E+04   -.961E+01 0.961E+01 -.598E+00
   0.158E+00 -.352E+01 0.931E+03   -.162E+00 0.353E+01 -.923E+03   0.336E-02 -.341E-02 -.750E+01
   0.352E+01 -.158E+00 0.931E+03   -.353E+01 0.162E+00 -.923E+03   0.341E-02 -.336E-02 -.750E+01
   0.140E-07 -.184E-03 -.923E+03   0.784E-07 -.160E-05 0.915E+03   -.103E-20 0.103E-20 0.752E+01
   0.530E+01 -.530E+01 -.923E+03   -.531E+01 0.531E+01 0.915E+03   0.769E-02 -.769E-02 0.752E+01
   -.158E+00 0.352E+01 0.931E+03   0.162E+00 -.353E+01 -.923E+03   -.336E-02 0.341E-02 -.750E+01
   0.548E+01 0.692E+01 0.933E+03   -.549E+01 -.692E+01 -.925E+03   0.170E-02 0.557E-02 -.750E+01
   -.435E+00 0.725E+01 -.922E+03   0.446E+00 -.725E+01 0.914E+03   -.847E-02 0.427E-02 0.752E+01
   0.483E+01 0.483E+01 -.923E+03   -.483E+01 -.483E+01 0.915E+03   -.646E-03 -.646E-03 0.752E+01
   -.367E+00 0.627E+01 0.934E+03   0.378E+00 -.628E+01 -.926E+03   -.840E-02 0.594E-02 -.750E+01
   0.107E+02 0.528E+01 0.938E+03   -.107E+02 -.529E+01 -.930E+03   0.137E-01 0.973E-02 -.750E+01
   -.420E+00 0.508E+01 -.920E+03   0.430E+00 -.508E+01 0.912E+03   -.813E-02 0.276E-02 0.752E+01
   0.109E+02 0.984E+01 -.920E+03   -.109E+02 -.985E+01 0.912E+03   -.217E-02 0.654E-02 0.752E+01
   0.213E-06 -.187E-03 0.936E+03   -.118E-06 0.158E-05 -.928E+03   -.861E-21 0.160E-20 -.750E+01
   0.114E+02 -.486E+01 0.938E+03   -.114E+02 0.486E+01 -.930E+03   0.316E-01 -.163E-02 -.750E+01
   0.420E+00 -.508E+01 -.920E+03   -.430E+00 0.508E+01 0.912E+03   0.813E-02 -.276E-02 0.752E+01
   0.178E+02 0.579E+00 -.917E+03   -.178E+02 -.589E+00 0.909E+03   0.196E-01 0.743E-02 0.752E+01
   0.367E+00 -.627E+01 0.934E+03   -.378E+00 0.628E+01 -.926E+03   0.840E-02 -.594E-02 -.750E+01
   0.613E+01 -.718E+01 0.934E+03   -.615E+01 0.720E+01 -.926E+03   0.145E-01 -.103E-01 -.750E+01
   0.435E+00 -.725E+01 -.922E+03   -.446E+00 0.725E+01 0.914E+03   0.847E-02 -.427E-02 0.752E+01
   0.123E+02 -.995E+01 -.920E+03   -.124E+02 0.996E+01 0.912E+03   0.258E-01 -.562E-02 0.752E+01
   0.718E+01 -.613E+01 0.934E+03   -.720E+01 0.615E+01 -.926E+03   0.103E-01 -.145E-01 -.750E+01
   0.627E+01 -.367E+00 0.934E+03   -.628E+01 0.378E+00 -.926E+03   0.594E-02 -.840E-02 -.750E+01
   0.725E+01 -.435E+00 -.922E+03   -.725E+01 0.446E+00 0.914E+03   0.427E-02 -.847E-02 0.752E+01
   0.995E+01 -.123E+02 -.920E+03   -.996E+01 0.124E+02 0.912E+03   0.562E-02 -.258E-01 0.752E+01
   0.692E+01 0.548E+01 0.933E+03   -.692E+01 -.549E+01 -.925E+03   0.557E-02 0.170E-02 -.750E+01
   0.121E+02 0.156E+02 0.940E+03   -.121E+02 -.156E+02 -.932E+03   0.179E-01 0.224E-01 -.751E+01
   0.136E+02 0.136E+02 -.920E+03   -.136E+02 -.136E+02 0.912E+03   0.289E-02 0.289E-02 0.752E+01
   0.984E+01 0.109E+02 -.920E+03   -.985E+01 -.109E+02 0.912E+03   0.654E-02 -.217E-02 0.752E+01
   0.156E+02 0.121E+02 0.940E+03   -.156E+02 -.121E+02 -.932E+03   0.224E-01 0.179E-01 -.751E+01
   0.310E+02 0.170E+02 0.962E+03   -.311E+02 -.171E+02 -.954E+03   0.104E+00 0.528E-01 -.754E+01
   0.346E+02 0.142E+02 -.910E+03   -.346E+02 -.142E+02 0.902E+03   0.184E-01 0.225E-01 0.751E+01
   0.334E+02 0.334E+02 -.906E+03   -.334E+02 -.334E+02 0.898E+03   0.210E-01 0.210E-01 0.749E+01
   0.254E+02 0.912E+00 0.948E+03   -.254E+02 -.933E+00 -.940E+03   0.671E-01 0.157E-01 -.751E+01
   0.327E+02 -.156E+02 0.965E+03   -.327E+02 0.156E+02 -.958E+03   0.662E-01 -.268E-01 -.745E+01
   0.378E+02 -.126E+02 -.909E+03   -.379E+02 0.126E+02 0.901E+03   0.887E-01 0.468E-02 0.752E+01
   0.840E+02 0.684E+01 -.872E+03   -.843E+02 -.693E+01 0.864E+03   0.212E+00 0.729E-01 0.750E+01
   0.168E+02 -.123E+02 0.942E+03   -.168E+02 0.124E+02 -.934E+03   0.385E-01 -.210E-01 -.750E+01
   0.123E+02 -.168E+02 0.942E+03   -.124E+02 0.168E+02 -.934E+03   0.210E-01 -.385E-01 -.750E+01
   0.149E+02 -.149E+02 -.919E+03   -.149E+02 0.149E+02 0.911E+03   0.218E-01 -.218E-01 0.752E+01
   0.374E+02 -.374E+02 -.901E+03   -.375E+02 0.375E+02 0.893E+03   0.684E-01 -.684E-01 0.753E+01
   0.486E+01 -.114E+02 0.938E+03   -.486E+01 0.114E+02 -.930E+03   0.163E-02 -.316E-01 -.750E+01
   0.207E-06 -.181E-03 0.936E+03   -.110E-06 -.428E-05 -.928E+03   -.160E-20 0.861E-21 -.750E+01
   0.508E+01 -.420E+00 -.920E+03   -.508E+01 0.430E+00 0.912E+03   0.276E-02 -.813E-02 0.752E+01
   -.579E+00 -.178E+02 -.917E+03   0.589E+00 0.178E+02 0.909E+03   -.743E-02 -.196E-01 0.752E+01
   0.528E+01 0.107E+02 0.938E+03   -.529E+01 -.107E+02 -.930E+03   0.973E-02 0.137E-01 -.750E+01
   0.913E+00 0.254E+02 0.948E+03   -.933E+00 -.254E+02 -.940E+03   0.157E-01 0.671E-01 -.751E+01
   0.142E+02 0.346E+02 -.910E+03   -.142E+02 -.346E+02 0.902E+03   0.225E-01 0.184E-01 0.751E+01
   0.579E+00 0.178E+02 -.917E+03   -.589E+00 -.178E+02 0.909E+03   0.743E-02 0.196E-01 0.752E+01
   0.170E+02 0.310E+02 0.962E+03   -.171E+02 -.311E+02 -.954E+03   0.528E-01 0.104E+00 -.754E+01
   0.280E+01 0.347E+02 0.101E+04   -.275E+01 -.348E+02 -.100E+04   -.382E-01 0.770E-01 -.724E+01
   0.784E+02 0.784E+02 -.833E+03   -.787E+02 -.787E+02 0.826E+03   0.225E+00 0.225E+00 0.724E+01
   0.684E+01 0.840E+02 -.872E+03   -.693E+01 -.843E+02 0.864E+03   0.729E-01 0.212E+00 0.750E+01
   0.347E+02 0.280E+01 0.101E+04   -.348E+02 -.275E+01 -.100E+04   0.770E-01 -.382E-01 -.724E+01
   -.280E+01 -.347E+02 0.101E+04   0.275E+01 0.348E+02 -.100E+04   0.382E-01 -.770E-01 -.724E+01
   0.866E+02 -.866E+02 -.795E+03   -.868E+02 0.868E+02 0.787E+03   0.138E+00 -.138E+00 0.730E+01
   -.238E-04 -.259E-03 -.614E+03   0.242E-04 0.699E-04 0.610E+03   0.656E-22 -.660E-22 0.371E+01
   0.156E+02 -.327E+02 0.965E+03   -.156E+02 0.327E+02 -.958E+03   0.268E-01 -.662E-01 -.745E+01
   -.913E+00 -.254E+02 0.948E+03   0.933E+00 0.254E+02 -.940E+03   -.157E-01 -.671E-01 -.751E+01
[...]
   -.812E+01 0.812E+01 0.704E+03   0.814E+01 -.814E+01 -.708E+03   -.231E-01 0.231E-01 0.347E+01
   -.319E+01 0.319E+01 0.701E+03   0.320E+01 -.320E+01 -.705E+03   -.853E-02 0.853E-02 0.347E+01
   -.191E+02 0.136E+02 -.687E+03   0.191E+02 -.136E+02 0.691E+03   -.471E-01 0.300E-01 -.351E+01
   -.124E+02 0.480E+01 -.690E+03   0.124E+02 -.480E+01 0.694E+03   -.245E-01 -.246E-03 -.351E+01
   -.173E+02 0.613E+01 0.712E+03   0.173E+02 -.614E+01 -.715E+03   -.623E-01 0.837E-02 0.348E+01
   -.664E+01 0.574E+01 0.704E+03   0.666E+01 -.575E+01 -.707E+03   -.229E-01 0.115E-01 0.347E+01
   -.318E+02 -.145E+01 -.682E+03   0.318E+02 0.148E+01 0.686E+03   -.494E-01 -.333E-01 -.353E+01
   -.114E+02 -.530E+01 -.690E+03   0.114E+02 0.530E+01 0.694E+03   -.802E-02 -.121E-01 -.352E+01
   -.164E+02 -.686E+01 0.711E+03   0.164E+02 0.688E+01 -.715E+03   -.336E-01 -.271E-01 0.345E+01
   -.912E+01 -.257E+00 0.706E+03   0.914E+01 0.262E+00 -.710E+03   -.213E-01 -.793E-02 0.346E+01
   -.170E+02 -.129E+02 -.688E+03   0.170E+02 0.130E+02 0.692E+03   -.107E-01 -.143E-01 -.353E+01
   -.530E+01 -.650E+01 -.693E+03   0.530E+01 0.650E+01 0.697E+03   0.103E-02 -.388E-02 -.351E+01
   -.762E+01 -.762E+01 0.704E+03   0.763E+01 0.763E+01 -.707E+03   -.108E-01 -.108E-01 0.346E+01
   -.598E+01 -.573E+01 0.703E+03   0.599E+01 0.573E+01 -.707E+03   -.496E-02 -.104E-01 0.346E+01
   -.138E-04 -.110E+00 0.105E+02   0.436E-11 -.952E-12 -.580E-11   -.351E-15 -.130E-15 -.771E+01

 POSITION                                       TOTAL-FORCE (eV/Angst)
     11.36279     11.88995     13.59669        -0.171985      0.171985     -0.113312
      9.77606     13.47667     13.59669         0.171985     -0.171985     -0.113312
      0.00000      0.00000      9.00000        -0.000944      0.000962      0.514040
      2.11389      2.11389      9.00000        -0.000962      0.000944      0.514040
      0.00000      2.11389     11.11389        -0.000000     -0.000000     -0.481362
      2.11389      0.00000     11.11389        -0.002178      0.002178     -0.481140
      0.00000      4.22777      9.00000         0.000944     -0.000962      0.514040
      2.11389      6.34166      9.00000        -0.000465     -0.001555      0.514648
      0.00000      6.34166     11.11389         0.002385     -0.001223     -0.480727
      2.11389      4.22777     11.11389         0.000203      0.000203     -0.480792
      0.00000      8.45554      9.00000         0.002273     -0.001703      0.514356
      2.11389     10.56943      9.00000        -0.003813     -0.002800      0.515166
      0.00000     10.56943     11.11389         0.002233     -0.000780     -0.479475
      2.11389      8.45554     11.11389         0.000801     -0.001806     -0.478694
      0.00000     12.68331      9.00000        -0.000000     -0.000000      0.514593
      2.11389     14.79720      9.00000        -0.008415      0.000440      0.514696
      0.00000     14.79720     11.11389        -0.002233      0.000780     -0.479475
      2.11389     12.68331     11.11389        -0.005024     -0.002230     -0.478155
      0.00000     16.91108      9.00000        -0.002273      0.001703      0.514356
      2.11389     19.02497      9.00000        -0.004051      0.002959      0.513785
      0.00000     19.02497     11.11389        -0.002385      0.001223     -0.480727
      2.11389     16.91108     11.11389        -0.007095      0.001696     -0.479997
      4.22777      0.00000      9.00000        -0.002959      0.004051      0.513785
      6.34166      2.11389      9.00000        -0.001703      0.002273      0.514356
      4.22777      2.11389     11.11389        -0.001223      0.002385     -0.480727
      6.34166      0.00000     11.11389        -0.001696      0.007095     -0.479997
      4.22777      4.22777      9.00000        -0.001555     -0.000465      0.514648
      6.34166      6.34166      9.00000        -0.005025     -0.006154      0.516613
      4.22777      6.34166     11.11389        -0.000603     -0.000603     -0.477789
      6.34166      4.22777     11.11389        -0.001806      0.000801     -0.478694
      4.22777      8.45554      9.00000        -0.006154     -0.005025      0.516613
      6.34166     10.56943      9.00000        -0.029591     -0.016697      0.520095
      4.22777     10.56943     11.11389        -0.003599     -0.006277     -0.471158
      6.34166      8.45554     11.11389        -0.003672     -0.003672     -0.462137
      4.22777     12.68331      9.00000        -0.018536     -0.004928      0.515706
      6.34166     14.79720      9.00000        -0.019046      0.008602      0.497938
      4.22777     14.79720     11.11389        -0.025464     -0.001506     -0.475832
      6.34166     12.68331     11.11389        -0.073194     -0.022966     -0.453477
      4.22777     16.91108      9.00000        -0.010956      0.006380      0.512584
      6.34166     19.02497      9.00000        -0.006380      0.010956      0.512584
      4.22777     19.02497     11.11389        -0.006132      0.006132     -0.480296
      6.34166     16.91108     11.11389        -0.019409      0.019409     -0.478116
      8.45554      0.00000      9.00000        -0.000440      0.008415      0.514696
     10.56943      2.11389      9.00000        -0.000000     -0.000000      0.514593
      8.45554      2.11389     11.11389        -0.000780      0.002233     -0.479475
     10.56943      0.00000     11.11389         0.002230      0.005024     -0.478155
      8.45554      4.22777      9.00000        -0.002800     -0.003813      0.515166
     10.56943      6.34166      9.00000        -0.004928     -0.018536      0.515706
      8.45554      6.34166     11.11389        -0.006277     -0.003599     -0.471158
     10.56943      4.22777     11.11389        -0.002230     -0.005024     -0.478155
      8.45554      8.45554      9.00000        -0.016697     -0.029591      0.520095
     10.56943     10.56943      9.00000         0.014931     -0.020148      0.434041
      8.45554     10.56943     11.11389        -0.035661     -0.035661     -0.298943
     10.56943      8.45554     11.11389        -0.022966     -0.073194     -0.453477
      8.45554     12.68331      9.00000        -0.020148      0.014931      0.434041
     10.56943     14.79720      9.00000        -0.014931      0.020148      0.434041
      8.45554     14.79720     11.11389        -0.086861      0.086861     -0.616527
     10.56943     12.68331     11.11389        -0.000000      0.000000     -0.228695
      8.45554     16.91108      9.00000        -0.008602      0.019046      0.497938
     10.56943     19.02497      9.00000         0.004928      0.018536      0.515706
[...]
     19.02497      6.34166     11.11389        -0.004449      0.003392      0.319296
     16.91108      6.34166      9.00000        -0.006439      0.006439     -0.351736
     19.02497      4.22777      9.00000        -0.002369      0.002369     -0.352284
     16.91108      8.45554     11.11389        -0.013461      0.008613      0.318605
     19.02497     10.56943     11.11389        -0.006919     -0.000031      0.317370
     16.91108     10.56943      9.00000        -0.017969      0.002460     -0.348505
     19.02497      8.45554      9.00000        -0.006391      0.003231     -0.352225
     16.91108     12.68331     11.11389        -0.014707     -0.009324      0.311661
     19.02497     14.79720     11.11389        -0.002314     -0.003387      0.316137
     16.91108     14.79720      9.00000        -0.009824     -0.007708     -0.355627
     19.02497     12.68331      9.00000        -0.005990     -0.002179     -0.353159
     16.91108     16.91108     11.11389        -0.003226     -0.004137      0.312719
     19.02497     19.02497     11.11389         0.000263     -0.001101      0.318315
     16.91108     19.02497      9.00000        -0.003039     -0.003039     -0.353894
     19.02497     16.91108      9.00000        -0.001405     -0.002916     -0.353451
    total drift:                               -0.000014     -0.109657      2.797259

  FREE ENERGIE OF THE ION-ELECTRON SYSTEM (eV)
  free  energy   TOTEN  =     -1515.05055315 eV

  energy  without entropy=    -1515.05055315  energy(sigma->0) =    -1515.05055315