 vasp.6.3.0 20Jan22 (build Apr  1 2022 16:44:48) complex
 executed on        HPECrayEX_GCC date 2023.01.16  02:55:49

 INCAR:
   SYSTEM = MgO-rocksalt
   ISMEAR = 0
   SIGMA = 0.05
   EDIFF = 1E-6
   ALGO = ALL
   ISTART = 0
   IBRION = -1
   NSW = 0
   ISYM = 2
   DIPOL = 0.5 0.5 0.5
   IDIPOL = 3
   LDIPOL = .TRUE.
   IVDW = 13
   VDW_S8 = 2.0293
   VDW_A1 = 0.4087
   VDW_A2 = 4.5381
   ENCUT = 520
   PREC = Accurate
   LASPH = .TRUE.
   LREAL = Auto
   ISPIN = 1
   NELM = 200
   NELMIN = 8
   NCORE = 4
   KPAR = 2
   LWAVE = .FALSE.
   LCHARG = .FALSE.

 POTCAR:    PAW_PBE Ag 02Apr2005
 POTCAR:    PAW_PBE Mg_pv 13Apr2007
 POTCAR:    PAW_PBE O 08Apr2002
 POTCAR:    PAW_PBE Ag 02Apr2005
   VRHFIN =Ag : s1 d10

   TITEL  = PAW_PBE Ag 02Apr2005
   POMASS =  107.868; ZVAL   =   11.000    mass and valenz
   ENMAX  =  249.844; ENMIN  =  187.383 eV

   TITEL  = PAW_PBE Mg_pv 13Apr2007
   POMASS =   24.305; ZVAL   =    8.000    mass and valenz
   ENMAX  =  403.929; ENMIN  =  302.947 eV

   TITEL  = PAW_PBE O 08Apr2002
   POMASS =   16.000; ZVAL   =    6.000    mass and valenz
   ENMAX  =  400.000; ENMIN  =  300.000 eV

 Optimization of the real space projectors (new method)

 maximal supplied QI-value         = 15.12
 optimisation between [QCUT,QGAM] = [ 11.64, 23.28] = [ 37.95,151.78] Ry
 Optimized for a Real-space Cutoff    1.45 Angstroem

   l    n(q)    QCUT    max X(q) W(low)/X(q) W(high)/X(q)  e(spline)
   2      9    11.641    53.897    0.22E-03    0.42E-04    0.28E-06
   2      9    11.641    52.416    0.23E-03    0.44E-04    0.29E-06
   0     10    11.641   122.045    0.51E-04    0.25E-04    0.16E-06
   0     10    11.641    73.629    0.49E-04    0.24E-04    0.16E-06
   1     10    11.641    15.255    0.99E-04    0.55E-04    0.11E-06
   1     10    11.641     9.562    0.81E-04    0.47E-04    0.95E-07
 Optimization of the real space projectors (new method)

[...]

   l    n(q)    QCUT    max X(q) W(low)/X(q) W(high)/X(q)  e(spline)
   1      8    11.527     2.974    0.44E-04    0.56E-04    0.12E-06
   1      8    11.527     4.279    0.12E-03    0.12E-03    0.26E-06
   0      9    11.527    16.381    0.46E-04    0.64E-04    0.78E-07
   0      9    11.527     5.611    0.26E-04    0.43E-04    0.55E-07
   2      8    11.527     4.652    0.22E-03    0.72E-04    0.47E-07
 Optimization of the real space projectors (new method)

 maximal supplied QI-value         = 24.76
 optimisation between [QCUT,QGAM] = [ 11.64, 23.27] = [ 37.91,151.63] Ry
 Optimized for a Real-space Cutoff    1.14 Angstroem

   l    n(q)    QCUT    max X(q) W(low)/X(q) W(high)/X(q)  e(spline)
   0      8    11.635    20.381    0.10E-03    0.33E-03    0.24E-06
   0      8    11.635    15.268    0.11E-03    0.35E-03    0.26E-06
   1      7    11.635     5.964    0.24E-03    0.31E-03    0.30E-06
   1      7    11.635     5.382    0.22E-03    0.25E-03    0.26E-06
  PAW_PBE Ag 02Apr2005                  :
  PAW_PBE Mg_pv 13Apr2007               :
  PAW_PBE O 08Apr2002                   :

 POSCAR: Ag Mg  O
  positions in direct lattice
  velocities in cartesian coordinates
|           W    W    AA    RRRRR   N    N  II  N    N   GGGG   !!!           |
|           W    W   A  A   R    R  NN   N  II  NN   N  G    G  !!!           |
|           W    W  A    A  R    R  N N  N  II  N N  N  G       !!!           |
|           W WW W  AAAAAA  RRRRR   N  N N  II  N  N N  G  GGG   !            |
|           WW  WW  A    A  R   R   N   NN  II  N   NN  G    G                |
|           W    W  A    A  R    R  N    N  II  N    N   GGGG   !!!           |
|     Specifying the vdW parameters                                           |
|     VDW_S8 = 2.029                                                          |
|     VDW_A1 = 0.409                                                          |
|     VDW_A2 = 4.538                                                          |
|     in the INCAR file will overwrite the defaults for pbe. Please make      |
|     sure that is what you intended.                                         |

 ion  position               nearest neighbor table
   1  0.286  0.505  0.630-   2 2.73   3 2.73
   2  0.398  0.441  0.622-   3 2.68   4 2.73   1 2.73 153 2.78  55 2.91
   3  0.398  0.568  0.615- 157 2.59   2 2.68   1 2.73   4 2.73  55 2.88
   4  0.510  0.505  0.629-   2 2.73   3 2.73
   5  0.000  0.000  0.407- 107 2.11 108 2.11 123 2.11 188 2.11 105 2.11
   6  0.100  0.100  0.407- 107 2.11 108 2.11 112 2.11 127 2.11 106 2.11
   7  0.000  0.100  0.503- 105 2.11 106 2.11 109 2.11 186 2.11 107 2.11
   8  0.100  0.000  0.503- 105 2.11 106 2.11 122 2.11 125 2.11 108 2.11
   9  0.000  0.200  0.407- 111 2.11 107 2.11 112 2.11 192 2.11 109 2.11
  10  0.100  0.300  0.407- 112 2.11 111 2.11 116 2.11 131 2.11 110 2.11
  11  0.000  0.300  0.503- 109 2.11 110 2.11 113 2.11 190 2.11 111 2.11
  12  0.100  0.200  0.503- 110 2.11 109 2.11 106 2.11 129 2.11 112 2.11
  13  0.000  0.400  0.407- 111 2.11 115 2.11 116 2.11 196 2.11 113 2.11
  14  0.100  0.500  0.407- 115 2.11 116 2.11 120 2.11 135 2.11 114 2.11
  15  0.000  0.500  0.503- 113 2.11 114 2.11 117 2.11 194 2.11 115 2.11
  16  0.100  0.400  0.503- 110 2.11 113 2.11 114 2.11 133 2.11 116 2.11
  17  0.000  0.600  0.407- 115 2.11 119 2.11 120 2.11 200 2.11 117 2.11
  18  0.100  0.700  0.407- 124 2.11 120 2.11 119 2.11 139 2.11 118 2.11
  19  0.000  0.700  0.503- 121 2.11 118 2.11 117 2.11 198 2.11 119 2.11
  20  0.100  0.600  0.503- 114 2.11 117 2.11 118 2.11 137 2.11 120 2.11
  21  0.000  0.800  0.407- 119 2.11 123 2.11 124 2.11 204 2.11 121 2.11
  22  0.100  0.900  0.407- 108 2.11 123 2.11 124 2.11 143 2.11 122 2.11
  23  0.000  0.900  0.503- 105 2.11 121 2.11 122 2.11 202 2.11 123 2.11
  24  0.100  0.800  0.503- 118 2.11 121 2.11 122 2.11 141 2.11 124 2.11
  25  0.200  0.000  0.407- 128 2.11 127 2.11 108 2.11 143 2.11 125 2.11
  26  0.300  0.100  0.407- 127 2.11 128 2.11 132 2.11 147 2.11 126 2.11
  27  0.200  0.100  0.503- 126 2.11 125 2.11 106 2.11 129 2.11 127 2.11
  28  0.300  0.000  0.503- 125 2.11 126 2.11 142 2.11 145 2.11 128 2.11
  29  0.200  0.200  0.407- 131 2.11 132 2.11 112 2.11 127 2.11 129 2.11
  30  0.300  0.300  0.407- 131 2.11 132 2.11 136 2.11 151 2.11 130 2.11
  31  0.200  0.300  0.503- 129 2.11 130 2.11 110 2.11 133 2.11 131 2.11
  32  0.300  0.200  0.503- 129 2.11 130 2.11 126 2.11 149 2.11 132 2.11
  33  0.200  0.400  0.407- 136 2.11 131 2.11 135 2.11 116 2.11 133 2.11
  34  0.300  0.500  0.407- 135 2.11 136 2.11 140 2.11 155 2.11 134 2.11
  35  0.200  0.500  0.503- 134 2.11 133 2.11 114 2.11 137 2.11 135 2.11
  36  0.300  0.400  0.503- 133 2.11 130 2.11 134 2.11 153 2.11 136 2.11
  37  0.200  0.600  0.407- 140 2.11 135 2.11 139 2.11 120 2.11 137 2.11
  38  0.300  0.700  0.407- 139 2.11 144 2.11 140 2.11 159 2.11 138 2.11
  39  0.200  0.700  0.503- 138 2.11 141 2.11 118 2.11 137 2.11 139 2.11
  40  0.300  0.600  0.503- 137 2.11 134 2.11 138 2.11 157 2.11 140 2.11
  41  0.200  0.800  0.407- 139 2.11 144 2.11 143 2.11 124 2.11 141 2.11
  42  0.300  0.900  0.407- 143 2.11 128 2.11 144 2.11 163 2.11 142 2.11
  43  0.200  0.900  0.503- 142 2.11 125 2.11 141 2.11 122 2.11 143 2.11
  44  0.300  0.800  0.503- 138 2.11 141 2.11 142 2.11 161 2.11 144 2.11
  45  0.400  0.000  0.407- 128 2.11 147 2.11 148 2.11 163 2.11 145 2.11
  46  0.500  0.100  0.407- 147 2.11 148 2.11 152 2.11 167 2.11 146 2.11
  47  0.400  0.100  0.503- 126 2.11 145 2.11 146 2.11 149 2.11 147 2.11
  48  0.500  0.000  0.503- 145 2.11 146 2.11 162 2.11 165 2.11 148 2.11
  49  0.400  0.200  0.407- 151 2.11 147 2.11 132 2.11 152 2.11 149 2.11
  50  0.500  0.300  0.407- 152 2.11 151 2.11 156 2.11 171 2.11 150 2.11
  51  0.400  0.300  0.503- 149 2.11 130 2.11 150 2.11 153 2.11 151 2.11
  52  0.500  0.200  0.503- 150 2.11 149 2.11 146 2.11 169 2.11 152 2.11
  53  0.400  0.400  0.407- 136 2.11 151 2.11 155 2.11 156 2.11 153 2.11
  54  0.500  0.500  0.407- 155 2.11 156 2.11 160 2.11 175 2.11 154 2.11
  55  0.400  0.500  0.503- 134 2.11 153 2.11 154 2.11 157 2.11 155 2.11   3 2.88   2 2.91
  56  0.500  0.400  0.503- 150 2.11 153 2.11 154 2.11 173 2.11 156 2.11
  57  0.400  0.600  0.407- 140 2.11 155 2.11 159 2.11 160 2.11 157 2.11
  58  0.500  0.700  0.407- 164 2.11 160 2.11 159 2.11 179 2.11 158 2.11
  59  0.400  0.700  0.503- 161 2.11 157 2.11 158 2.11 138 2.11 159 2.11
  60  0.500  0.600  0.503- 154 2.11 157 2.11 158 2.11 177 2.11 160 2.11
[...]
 190  0.900  0.300  0.503-  92 2.11  91 2.11  11 2.11  96 2.11  90 2.11
 191  0.800  0.300  0.407-  70 2.11  89 2.11  90 2.11  93 2.11  91 2.11
 192  0.900  0.200  0.407-  90 2.11  86 2.11  89 2.11   9 2.11  92 2.11
 193  0.800  0.400  0.503-  76 2.11  91 2.11  95 2.11  96 2.11  93 2.11
 194  0.900  0.500  0.503-  15 2.11  95 2.11  96 2.11 100 2.11  94 2.11
 195  0.800  0.500  0.407-  74 2.11  93 2.11  94 2.11  97 2.11  95 2.11
 196  0.900  0.400  0.407-  13 2.11  90 2.11  93 2.11  94 2.11  96 2.11
 197  0.800  0.600  0.503-  80 2.11  95 2.11  99 2.11 100 2.11  97 2.11
 198  0.900  0.700  0.503- 104 2.11  99 2.11 100 2.11  19 2.11  98 2.11
 199  0.800  0.700  0.407-  78 2.11 101 2.11  98 2.11  97 2.11  99 2.11
 200  0.900  0.600  0.407-  17 2.11  94 2.11  97 2.11  98 2.11 100 2.11
 201  0.800  0.800  0.503-  84 2.11  99 2.11 103 2.11 104 2.11 101 2.11
 202  0.900  0.900  0.503-  23 2.11  88 2.11 103 2.11 104 2.11 102 2.11
 203  0.800  0.900  0.407-  82 2.11  85 2.11 101 2.11 102 2.11 103 2.11
 204  0.900  0.800  0.407-  98 2.11  21 2.11 101 2.11 102 2.11 104 2.11

  LATTYP: Found a simple tetragonal cell.
 ALAT       =    21.1388521970
 C/A-ratio  =     1.0461251639

  Lattice vectors:

 A1 = (  21.1388521970,   0.0000000000,   0.0000000000)
 A2 = (   0.0000000000,  21.1388521970,   0.0000000000)
 A3 = (   0.0000000000,   0.0000000000,  22.1138852197)

Analysis of symmetry for initial positions (statically):
 Subroutine PRICEL returns:
 Original cell was already a primitive cell.

 Routine SETGRP: Setting up the symmetry group for a
 simple tetragonal supercell.

 Subroutine GETGRP returns: Found  1 space group operations
 (whereof  1 operations were pure point group operations)
 out of a pool of 16 trial point group operations.

The static configuration has the point symmetry C_1 .

Analysis of symmetry for dynamics (positions and initial velocities):
 Subroutine PRICEL returns:
 Original cell was already a primitive cell.

[...]

The dynamic configuration has the point symmetry C_1 .

Analysis of constrained symmetry for selective dynamics:
 Subroutine PRICEL returns:
 Original cell was already a primitive cell.

 Routine SETGRP: Setting up the symmetry group for a
 simple tetragonal supercell.

 Subroutine GETGRP returns: Found  1 space group operations
 (whereof  1 operations were pure point group operations)
 out of a pool of 16 trial point group operations.

The constrained configuration has the point symmetry C_1 .

 Subroutine INISYM returns: Found  1 space group operations
 (whereof  1 operations are pure point group operations),
 and found     1 'primitive' translations

                                     Primitive cell

  volume of cell :    9881.6133

  direct lattice vectors                    reciprocal lattice vectors
[...]
     54     -42.9907      2.00000
     55     -42.9898      2.00000
     56     -42.9885      2.00000
     57     -42.9869      2.00000
     58     -42.9855      2.00000
     59     -42.9852      2.00000
     60     -42.9841      2.00000
[...]
   1010       7.0395      0.00000
   1011       7.0608      0.00000
   1012       7.0728      0.00000
   1013       7.2032      0.00000
   1014       7.2655      0.00000
   1015       7.2671      0.00000
   1016       7.2882      0.00000
   1017       7.5237      0.00000
   1018       7.6358      0.00000
   1019       7.6755      0.00000
   1020       7.7212      0.00000
   1021       7.7800      0.00000
   1022       7.8264      0.00000
   1023       7.8871      0.00000
   1024       7.9521      0.00000

 soft charge-density along one line, spin component           1
         0         1         2         3         4         5         6         7         8         9
 total charge-density along one line

------------------------ aborting loop because EDIFF is reached ----------------------------------------

  FORCE on cell =-STRESS in cart. coord.  units (eV):
  Direction    XX          YY          ZZ          XY          YZ          ZX
  Alpha Z  1401.13727  1401.13727  1401.13727
  Ewald  484953.40071483912.36336************    -3.45277   -66.40944   -12.81358
  Hartree514138.57934513239.17270************    -3.22985   -48.81192   -10.08292
  E(xc)   -7880.76714 -7881.30620 -7912.97351    -0.00117    -0.06797    -0.01548
  Local  ************************************     6.73387   114.38392    22.88212
  n-local -8801.55597 -8804.35219 -8922.10122    -0.02002     0.15599     0.04212
  augment  3648.98579  3649.45784  3596.76522    -0.00568     0.21339    -0.02380
  Kinetic 23225.50442 23224.69112 23487.18105    -0.02369     0.53166     0.05098
  Fock        0.00000     0.00000     0.00000     0.00000     0.00000     0.00000
  vdW       -37.21713   -37.07931   -14.81554     0.00054     0.00771    -0.00296
  Total    -185.08849  -185.76269     4.28308     0.00122     0.00335     0.03649
  in kB     -30.00973   -30.11905     0.69445     0.00020     0.00054     0.00592

 VOLUME and BASIS-vectors are now :
  energy-cutoff  :      520.00
  volume of cell :     9881.61
      direct lattice vectors                 reciprocal lattice vectors
    21.138852197  0.000000000  0.000000000     0.047306258  0.000000000  0.000000000
     0.000000000 21.138852197  0.000000000     0.000000000  0.047306258  0.000000000
     0.000000000  0.000000000 22.113885220     0.000000000  0.000000000  0.045220457

  length of vectors
    21.138852197 21.138852197 22.113885220     0.047306258  0.047306258  0.045220457

 FORCES acting on ions:
    Electron-Ion                     Ewald-Force                    Non-Local-Force
   0.479E+03 -.318E+01 -.207E+04   -.474E+03 0.321E+01 0.207E+04   -.535E+01 -.302E-01 0.766E-01
   0.197E+01 0.477E+03 -.206E+04   -.191E+01 -.471E+03 0.206E+04   -.617E-01 -.648E+01 0.565E-01
   -.109E+01 -.472E+03 -.205E+04   0.107E+01 0.466E+03 0.205E+04   0.312E-01 0.608E+01 -.178E+00
   -.480E+03 -.534E+00 -.207E+04   0.475E+03 0.553E+00 0.207E+04   0.544E+01 -.271E-01 -.200E-01
   0.656E+01 -.442E+00 0.937E+03   -.659E+01 0.445E+00 -.929E+03   0.179E-01 -.228E-02 -.742E+01
   0.126E+02 0.111E+02 0.940E+03   -.127E+02 -.111E+02 -.933E+03   0.373E-01 -.814E-03 -.742E+01
   0.948E+01 0.103E+02 -.918E+03   -.951E+01 -.103E+02 0.910E+03   0.189E-01 -.114E-01 0.737E+01
   0.134E+02 -.781E+00 -.917E+03   -.134E+02 0.786E+00 0.909E+03   0.311E-01 -.362E-02 0.737E+01
   0.107E+02 0.145E+02 0.941E+03   -.108E+02 -.145E+02 -.933E+03   0.256E-01 -.112E-01 -.743E+01
   0.289E+02 0.252E+02 0.957E+03   -.291E+02 -.251E+02 -.949E+03   0.862E-01 -.765E-02 -.745E+01
   0.229E+02 0.221E+02 -.910E+03   -.229E+02 -.221E+02 0.903E+03   0.144E-01 -.265E-01 0.736E+01
   0.259E+02 0.293E+02 -.910E+03   -.260E+02 -.292E+02 0.902E+03   0.556E-01 -.249E-01 0.736E+01
   0.213E+02 0.114E+02 0.951E+03   -.213E+02 -.114E+02 -.944E+03   0.323E-01 -.900E-02 -.744E+01
   0.473E+02 0.111E+01 0.975E+03   -.474E+02 -.112E+01 -.967E+03   0.112E+00 0.544E-02 -.750E+01
   0.382E+02 0.889E+00 -.902E+03   -.382E+02 -.892E+00 0.895E+03   -.235E-01 0.169E-02 0.735E+01
   0.719E+02 0.329E+02 -.883E+03   -.719E+02 -.328E+02 0.876E+03   0.318E-01 -.480E-01 0.732E+01
   0.218E+02 -.105E+02 0.952E+03   -.218E+02 0.105E+02 -.944E+03   0.365E-01 0.128E-01 -.745E+01
   0.303E+02 -.251E+02 0.958E+03   -.304E+02 0.251E+02 -.950E+03   0.103E+00 0.938E-02 -.746E+01
   0.239E+02 -.220E+02 -.910E+03   -.240E+02 0.220E+02 0.902E+03   0.173E-01 0.278E-01 0.736E+01
   0.747E+02 -.309E+02 -.882E+03   -.748E+02 0.308E+02 0.874E+03   0.382E-01 0.528E-01 0.731E+01
   0.112E+02 -.150E+02 0.941E+03   -.112E+02 0.150E+02 -.934E+03   0.300E-01 0.977E-02 -.743E+01
   0.130E+02 -.122E+02 0.941E+03   -.131E+02 0.123E+02 -.933E+03   0.418E-01 -.632E-02 -.742E+01
   0.982E+01 -.113E+02 -.918E+03   -.985E+01 0.112E+02 0.910E+03   0.209E-01 0.840E-02 0.737E+01
   0.274E+02 -.306E+02 -.909E+03   -.275E+02 0.306E+02 0.902E+03   0.660E-01 0.237E-01 0.736E+01
   0.112E+02 -.838E+00 0.942E+03   -.112E+02 0.846E+00 -.934E+03   0.357E-01 -.692E-02 -.742E+01
   0.854E+01 0.195E+02 0.948E+03   -.858E+01 -.196E+02 -.940E+03   0.308E-01 0.451E-01 -.743E+01
   0.174E+02 0.217E+02 -.912E+03   -.174E+02 -.218E+02 0.904E+03   0.429E-01 0.114E-01 0.737E+01
   0.894E+01 -.145E+01 -.912E+03   -.897E+01 0.146E+01 0.905E+03   0.239E-01 -.952E-02 0.737E+01
   0.207E+02 0.305E+02 0.955E+03   -.208E+02 -.305E+02 -.947E+03   0.793E-01 0.337E-01 -.743E+01
   0.247E+02 0.559E+02 0.994E+03   -.249E+02 -.561E+02 -.987E+03   0.156E+00 0.145E+00 -.739E+01
   0.597E+02 0.713E+02 -.877E+03   -.599E+02 -.712E+02 0.869E+03   0.192E+00 -.567E-01 0.732E+01
   0.217E+02 0.657E+02 -.892E+03   -.218E+02 -.658E+02 0.885E+03   0.653E-01 0.123E+00 0.737E+01
   0.519E+02 0.328E+02 0.100E+04   -.522E+02 -.328E+02 -.994E+03   0.254E+00 0.205E-01 -.753E+01
   0.471E+02 0.348E+01 0.107E+04   -.476E+02 -.354E+01 -.106E+04   0.344E+00 0.436E-01 -.746E+01
   0.154E+03 0.590E+01 -.775E+03   -.154E+03 -.590E+01 0.768E+03   0.282E+00 0.525E-03 0.672E+01
   0.103E+03 0.138E+03 -.725E+03   -.105E+03 -.138E+03 0.718E+03   0.920E+00 0.746E-01 0.680E+01
   0.538E+02 -.306E+02 0.100E+04   -.542E+02 0.306E+02 -.996E+03   0.296E+00 -.765E-03 -.753E+01
   0.264E+02 -.570E+02 0.999E+03   -.267E+02 0.573E+02 -.992E+03   0.189E+00 -.162E+00 -.738E+01
   0.643E+02 -.736E+02 -.873E+03   -.646E+02 0.735E+02 0.865E+03   0.239E+00 0.630E-01 0.731E+01
   0.113E+03 -.135E+03 -.706E+03   -.115E+03 0.135E+03 0.699E+03   0.121E+01 -.651E-02 0.658E+01
   0.219E+02 -.319E+02 0.956E+03   -.220E+02 0.320E+02 -.949E+03   0.949E-01 -.465E-01 -.743E+01
   0.891E+01 -.217E+02 0.949E+03   -.895E+01 0.218E+02 -.941E+03   0.353E-01 -.688E-01 -.743E+01
   0.182E+02 -.241E+02 -.911E+03   -.183E+02 0.242E+02 0.904E+03   0.482E-01 -.247E-01 0.737E+01
   0.236E+02 -.705E+02 -.890E+03   -.237E+02 0.707E+02 0.882E+03   0.783E-01 -.164E+00 0.737E+01
   -.177E+00 -.113E+01 0.945E+03   0.176E+00 0.115E+01 -.938E+03   0.103E-02 -.121E-01 -.743E+01
   -.886E+01 0.194E+02 0.948E+03   0.889E+01 -.194E+02 -.940E+03   -.290E-01 0.453E-01 -.743E+01
   -.282E+00 0.315E+02 -.907E+03   0.281E+00 -.316E+02 0.900E+03   0.109E-02 0.630E-01 0.737E+01
   -.928E+01 -.142E+01 -.913E+03   0.931E+01 0.143E+01 0.905E+03   -.222E-01 -.997E-02 0.737E+01
   -.334E+00 0.442E+02 0.967E+03   0.332E+00 -.445E+02 -.959E+03   0.142E-02 0.186E+00 -.744E+01
   -.254E+02 0.553E+02 0.994E+03   0.256E+02 -.555E+02 -.986E+03   -.151E+00 0.155E+00 -.740E+01
   -.132E+01 0.139E+03 -.825E+03   0.132E+01 -.140E+03 0.818E+03   -.987E-04 0.827E+00 0.747E+01
   -.224E+02 0.650E+02 -.893E+03   0.225E+02 -.651E+02 0.885E+03   -.626E-01 0.121E+00 0.737E+01
   -.929E+00 0.558E+02 0.106E+04   0.910E+00 -.560E+02 -.105E+04   0.144E-01 0.196E+00 -.641E+01
   -.485E+02 0.336E+01 0.107E+04   0.489E+02 -.342E+01 -.106E+04   -.333E+00 0.434E-01 -.741E+01
   -.349E+01 0.173E+02 -.518E+03   0.345E+01 -.177E+02 0.512E+03   0.405E-01 0.315E+00 0.542E+01
   -.105E+03 0.137E+03 -.729E+03   0.106E+03 -.137E+03 0.722E+03   -.897E+00 0.119E+00 0.681E+01
   -.104E+01 -.521E+02 0.107E+04   0.102E+01 0.523E+02 -.106E+04   0.151E-01 -.140E+00 -.606E+01
   -.273E+02 -.564E+02 0.998E+03   0.275E+02 0.567E+02 -.991E+03   -.182E+00 -.172E+00 -.738E+01
   -.166E+01 -.149E+03 -.813E+03   0.165E+01 0.151E+03 0.805E+03   0.364E-02 -.109E+01 0.751E+01
   -.115E+03 -.133E+03 -.711E+03   0.116E+03 0.133E+03 0.705E+03   -.118E+01 -.489E-01 0.662E+01
[...]
   -.114E+02 0.121E+02 0.711E+03   0.114E+02 -.121E+02 -.715E+03   -.299E-01 -.113E-01 0.350E+01
   0.178E+00 0.927E+01 0.706E+03   -.177E+00 -.926E+01 -.710E+03   -.216E-02 -.117E-01 0.351E+01
   -.236E+02 0.118E+02 -.681E+03   0.236E+02 -.118E+02 0.685E+03   -.120E-01 -.214E-01 -.364E+01
   0.590E+00 0.464E+00 -.683E+03   -.586E+00 -.466E+00 0.688E+03   -.593E-02 0.185E-02 -.362E+01
   -.172E+02 0.444E+00 0.717E+03   0.173E+02 -.447E+00 -.721E+03   -.262E-01 0.349E-02 0.349E+01
   0.339E+00 0.683E+01 0.711E+03   -.336E+00 -.683E+01 -.715E+03   -.459E-02 -.890E-02 0.350E+01
   -.242E+02 -.110E+02 -.681E+03   0.242E+02 0.110E+02 0.685E+03   -.145E-01 0.258E-01 -.364E+01
   0.403E+00 -.128E+02 -.687E+03   -.400E+00 0.128E+02 0.691E+03   -.420E-02 0.232E-01 -.361E+01
   -.118E+02 -.119E+02 0.711E+03   0.119E+02 0.119E+02 -.716E+03   -.344E-01 0.127E-01 0.350E+01
   0.356E+00 -.630E+01 0.712E+03   -.353E+00 0.629E+01 -.716E+03   -.486E-02 0.126E-01 0.350E+01
   -.108E+02 -.144E+02 -.688E+03   0.109E+02 0.144E+02 0.692E+03   -.258E-01 0.145E-01 -.361E+01
   0.177E+00 -.711E+01 -.691E+03   -.175E+00 0.711E+01 0.695E+03   -.176E-02 0.673E-02 -.360E+01
   -.560E+01 -.658E+01 0.705E+03   0.562E+01 0.658E+01 -.709E+03   -.254E-01 -.907E-04 0.352E+01
   0.196E+00 -.952E+01 0.706E+03   -.195E+00 0.951E+01 -.710E+03   -.248E-02 0.103E-01 0.351E+01
   0.371E-01 0.543E+00 0.123E+02   0.171E-11 0.114E-12 0.637E-11   -.375E-01 -.550E+00 -.129E+02

 POSITION                                       TOTAL-FORCE (eV/Angst)
      6.03778     10.68115     13.92861        -0.069630     -0.002290     -0.083436
      8.40302      9.32878     13.74873        -0.000203     -0.091626     -0.080804
      8.40867     12.00204     13.60841         0.006342      0.099052     -0.077757
     10.77601     10.66514     13.90267         0.074875     -0.004538     -0.083065
      0.00000      0.00000      9.00000        -0.004889      0.000667      0.378228
      2.11389      2.11389      9.00000        -0.010261      0.000189      0.378427
      0.00000      2.11389     11.11389        -0.005023      0.003184     -0.361152
      2.11389      0.00000     11.11389        -0.008606      0.001002     -0.361006
      0.00000      4.22777      9.00000        -0.006676      0.003249      0.379974
      2.11389      6.34166      9.00000        -0.022075      0.002640      0.386373
      0.00000      6.34166     11.11389        -0.002822      0.007950     -0.355906
      2.11389      4.22777     11.11389        -0.014272      0.007319     -0.356576
      0.00000      8.45554      9.00000        -0.008101      0.002989      0.384888
      2.11389     10.56943      9.00000        -0.028140     -0.001501      0.399323
      0.00000     10.56943     11.11389         0.008603     -0.000400     -0.348528
      2.11389      8.45554     11.11389         0.003206      0.020652     -0.324214
      0.00000     12.68331      9.00000        -0.009188     -0.003962      0.385160
      2.11389     14.79720      9.00000        -0.026393     -0.003042      0.387368
      0.00000     14.79720     11.11389        -0.003445     -0.008280     -0.355267
      2.11389     12.68331     11.11389         0.001861     -0.022067     -0.321332
      0.00000     16.91108      9.00000        -0.007811     -0.002767      0.380177
      2.11389     19.02497      9.00000        -0.011496      0.001855      0.378452
      0.00000     19.02497     11.11389        -0.005561     -0.002299     -0.360925
      2.11389     16.91108     11.11389        -0.016849     -0.006973     -0.355491
      4.22777      0.00000      9.00000        -0.010093      0.001893      0.378075
      6.34166      2.11389      9.00000        -0.008965     -0.011698      0.378277
      4.22777      2.11389     11.11389        -0.012014     -0.002527     -0.359391
      6.34166      0.00000     11.11389        -0.006851      0.002506     -0.360232
      4.22777      4.22777      9.00000        -0.022294     -0.009620      0.378983
      6.34166      6.34166      9.00000        -0.048880     -0.041999      0.366795
      4.22777      6.34166     11.11389        -0.042371      0.026603     -0.323622
      6.34166      4.22777     11.11389        -0.019129     -0.029521     -0.354547
      4.22777      8.45554      9.00000        -0.062428     -0.002271      0.405092
      6.34166     10.56943      9.00000        -0.101399     -0.013009      0.350992
      4.22777     10.56943     11.11389        -0.085054     -0.000600     -0.196148
      6.34166      8.45554     11.11389        -0.296686      0.008675     -0.171049
      4.22777     12.68331      9.00000        -0.071938     -0.003392      0.406426
      6.34166     14.79720      9.00000        -0.059183      0.048160      0.360405
      4.22777     14.79720     11.11389        -0.051633     -0.030599     -0.314154
      6.34166     12.68331     11.11389        -0.402500     -0.014252     -0.151328
      4.22777     16.91108      9.00000        -0.026724      0.013395      0.378858
      6.34166     19.02497      9.00000        -0.010277      0.018064      0.378364
      4.22777     19.02497     11.11389        -0.013484      0.006022     -0.358726
      6.34166     16.91108     11.11389        -0.022711      0.039754     -0.351775
      8.45554      0.00000      9.00000        -0.000286      0.003199      0.378198
     10.56943      2.11389      9.00000         0.008454     -0.011788      0.378237
      8.45554      2.11389     11.11389        -0.000302     -0.015445     -0.359581
     10.56943      0.00000     11.11389         0.006358      0.002626     -0.360249
      8.45554      4.22777      9.00000        -0.000381     -0.045902      0.379546
     10.56943      6.34166      9.00000         0.047311     -0.044977      0.368081
      8.45554      6.34166     11.11389         0.000484     -0.241567     -0.386560
     10.56943      4.22777     11.11389         0.018325     -0.029085     -0.354418
      8.45554      8.45554      9.00000        -0.004779     -0.039037      0.162968
     10.56943     10.56943      9.00000         0.098620     -0.013019      0.339937
      8.45554     10.56943     11.11389         0.001498     -0.129751     -0.386088
     10.56943      8.45554     11.11389         0.278456     -0.005632     -0.161648
      8.45554     12.68331      9.00000        -0.005025      0.026202      0.089532
     10.56943     14.79720      9.00000         0.057325      0.051113      0.360880
      8.45554     14.79720     11.11389        -0.000781      0.329716     -0.410693
     10.56943     12.68331     11.11389         0.380197     -0.001234     -0.148995
[...]
     19.02497      6.34166     11.11389        -0.001031     -0.006042      0.449076
     16.91108      6.34166      9.00000        -0.008457     -0.003051     -0.473650
     19.02497      4.22777      9.00000        -0.000589     -0.003202     -0.471254
     16.91108      8.45554     11.11389        -0.004184     -0.005708      0.442497
     19.02497     10.56943     11.11389        -0.001620      0.000540      0.445634
     16.91108     10.56943      9.00000        -0.007990      0.000991     -0.478165
     19.02497      8.45554      9.00000        -0.001254     -0.002562     -0.474302
     16.91108     12.68331     11.11389        -0.004930      0.006961      0.441965
     19.02497     14.79720     11.11389        -0.001148      0.006468      0.448670
     16.91108     14.79720      9.00000        -0.009715      0.003503     -0.473867
     19.02497     12.68331      9.00000        -0.001330      0.003626     -0.474407
     16.91108     16.91108     11.11389        -0.007206      0.003985      0.449943
     19.02497     19.02497     11.11389        -0.000481      0.001887      0.452594
     16.91108     19.02497      9.00000        -0.007006      0.000008     -0.470446
     19.02497     16.91108      9.00000        -0.000676      0.002873     -0.471357
    total drift:                               -0.000390     -0.006897     -0.606483

  FREE ENERGIE OF THE ION-ELECTRON SYSTEM (eV)
  free  energy   TOTEN  =     -1175.64215309 eV

  energy  without entropy=    -1175.64215309  energy(sigma->0) =    -1175.64215309