 vasp.6.3.0 20Jan22 (build Apr  1 2022 16:44:48) complex
 executed on        HPECrayEX_GCC date 2023.01.09  23:33:04

 INCAR:
   SYSTEM = MgO-rocksalt
   ISMEAR = 0
   SIGMA = 0.05
   EDIFF = 1E-6
   ALGO = ALL
   ISTART = 0
   IBRION = -1
   NSW = 0
   ISYM = 2
   DIPOL = 0.5 0.5 0.5
   IDIPOL = 3
   LDIPOL = .TRUE.
   METAGGA = R2SCAN
   ENCUT = 520
   PREC = Accurate
   LASPH = .TRUE.
   LREAL = Auto
   ISPIN = 1
   NELM = 200
   NELMIN = 8
   NCORE = 4
   KPAR = 2
   LWAVE = .FALSE.
   LCHARG = .FALSE.

 POTCAR:    PAW_PBE Cu 22Jun2005
 POTCAR:    PAW_PBE Mg_pv 13Apr2007
 POTCAR:    PAW_PBE O 08Apr2002
 POTCAR:    PAW_PBE Cu 22Jun2005
   VRHFIN =Cu: d10 p1

   TITEL  = PAW_PBE Cu 22Jun2005
   POMASS =   63.546; ZVAL   =   11.000    mass and valenz
   ENMAX  =  295.446; ENMIN  =  221.585 eV

   TITEL  = PAW_PBE Mg_pv 13Apr2007
   POMASS =   24.305; ZVAL   =    8.000    mass and valenz
   ENMAX  =  403.929; ENMIN  =  302.947 eV

   TITEL  = PAW_PBE O 08Apr2002
   POMASS =   16.000; ZVAL   =    6.000    mass and valenz
   ENMAX  =  400.000; ENMIN  =  300.000 eV

 Optimization of the real space projectors (new method)

 maximal supplied QI-value         = 16.25
 optimisation between [QCUT,QGAM] = [ 11.54, 23.24] = [ 37.28,151.24] Ry
 Optimized for a Real-space Cutoff    1.53 Angstroem

   l    n(q)    QCUT    max X(q) W(low)/X(q) W(high)/X(q)  e(spline)
   2     10    11.539     4.610    0.96E-04    0.13E-03    0.19E-06
   2     10    11.539     8.522    0.16E-03    0.21E-03    0.28E-06
   0     11    11.539    51.609    0.45E-04    0.31E-04    0.11E-06
   0     11    11.539    27.747    0.39E-04    0.29E-04    0.10E-06
   1     10    11.539    20.408    0.70E-05    0.38E-04    0.18E-06
   1     10    11.539    13.425    0.66E-05    0.34E-04    0.17E-06
 Optimization of the real space projectors (new method)

[...]

   l    n(q)    QCUT    max X(q) W(low)/X(q) W(high)/X(q)  e(spline)
   1      8    11.527     2.974    0.44E-04    0.56E-04    0.12E-06
   1      8    11.527     4.279    0.12E-03    0.12E-03    0.26E-06
   0      9    11.527    16.381    0.46E-04    0.64E-04    0.78E-07
   0      9    11.527     5.611    0.26E-04    0.43E-04    0.55E-07
   2      8    11.527     4.652    0.22E-03    0.72E-04    0.47E-07
 Optimization of the real space projectors (new method)

 maximal supplied QI-value         = 24.76
 optimisation between [QCUT,QGAM] = [ 11.64, 23.27] = [ 37.91,151.63] Ry
 Optimized for a Real-space Cutoff    1.14 Angstroem

   l    n(q)    QCUT    max X(q) W(low)/X(q) W(high)/X(q)  e(spline)
   0      8    11.635    20.381    0.10E-03    0.33E-03    0.24E-06
   0      8    11.635    15.268    0.11E-03    0.35E-03    0.26E-06
   1      7    11.635     5.964    0.24E-03    0.31E-03    0.30E-06
   1      7    11.635     5.382    0.22E-03    0.25E-03    0.26E-06
  PAW_PBE Cu 22Jun2005                  :
  PAW_PBE Mg_pv 13Apr2007               :
  PAW_PBE O 08Apr2002                   :

 POSCAR: Cu Mg  O
  positions in direct lattice
  velocities in cartesian coordinates

 METAGGA = R2SCA    LMAXTAU =  6    LMIXTAU =  F

 ion  position               nearest neighbor table
   1  0.400  0.558  0.598- 157 2.29   3 2.35  55 2.43   4 2.47
   2  0.400  0.499  0.790-   3 2.25
   3  0.400  0.499  0.688-   2 2.25   1 2.35   4 2.35
   4  0.400  0.441  0.597- 153 2.26   3 2.35  55 2.43   1 2.47
   5  0.000  0.000  0.407- 107 2.11 108 2.11 123 2.11 188 2.11 105 2.11
   6  0.100  0.100  0.407- 107 2.11 108 2.11 112 2.11 127 2.11 106 2.11
   7  0.000  0.100  0.503- 105 2.11 106 2.11 109 2.11 186 2.11 107 2.11
   8  0.100  0.000  0.503- 105 2.11 106 2.11 122 2.11 125 2.11 108 2.11
   9  0.000  0.200  0.407- 111 2.11 107 2.11 112 2.11 192 2.11 109 2.11
  10  0.100  0.300  0.407- 112 2.11 111 2.11 116 2.11 131 2.11 110 2.11
  11  0.000  0.300  0.503- 109 2.11 110 2.11 113 2.11 190 2.11 111 2.11
  12  0.100  0.200  0.503- 110 2.11 109 2.11 106 2.11 129 2.11 112 2.11
  13  0.000  0.400  0.407- 111 2.11 115 2.11 116 2.11 196 2.11 113 2.11
  14  0.100  0.500  0.407- 115 2.11 116 2.11 120 2.11 135 2.11 114 2.11
  15  0.000  0.500  0.503- 113 2.11 114 2.11 117 2.11 194 2.11 115 2.11
  16  0.100  0.400  0.503- 110 2.11 113 2.11 114 2.11 133 2.11 116 2.11
  17  0.000  0.600  0.407- 115 2.11 119 2.11 120 2.11 200 2.11 117 2.11
  18  0.100  0.700  0.407- 124 2.11 120 2.11 119 2.11 139 2.11 118 2.11
  19  0.000  0.700  0.503- 121 2.11 118 2.11 117 2.11 198 2.11 119 2.11
  20  0.100  0.600  0.503- 114 2.11 117 2.11 118 2.11 137 2.11 120 2.11
  21  0.000  0.800  0.407- 119 2.11 123 2.11 124 2.11 204 2.11 121 2.11
  22  0.100  0.900  0.407- 108 2.11 123 2.11 124 2.11 143 2.11 122 2.11
  23  0.000  0.900  0.503- 105 2.11 121 2.11 122 2.11 202 2.11 123 2.11
  24  0.100  0.800  0.503- 118 2.11 121 2.11 122 2.11 141 2.11 124 2.11
  25  0.200  0.000  0.407- 128 2.11 127 2.11 108 2.11 143 2.11 125 2.11
  26  0.300  0.100  0.407- 127 2.11 128 2.11 132 2.11 147 2.11 126 2.11
  27  0.200  0.100  0.503- 126 2.11 125 2.11 106 2.11 129 2.11 127 2.11
  28  0.300  0.000  0.503- 125 2.11 126 2.11 142 2.11 145 2.11 128 2.11
  29  0.200  0.200  0.407- 131 2.11 132 2.11 112 2.11 127 2.11 129 2.11
  30  0.300  0.300  0.407- 131 2.11 132 2.11 136 2.11 151 2.11 130 2.11
  31  0.200  0.300  0.503- 129 2.11 130 2.11 110 2.11 133 2.11 131 2.11
  32  0.300  0.200  0.503- 129 2.11 130 2.11 126 2.11 149 2.11 132 2.11
  33  0.200  0.400  0.407- 136 2.11 131 2.11 135 2.11 116 2.11 133 2.11
  34  0.300  0.500  0.407- 135 2.11 136 2.11 140 2.11 155 2.11 134 2.11
  35  0.200  0.500  0.503- 134 2.11 133 2.11 114 2.11 137 2.11 135 2.11
  36  0.300  0.400  0.503- 133 2.11 130 2.11 134 2.11 153 2.11 136 2.11
  37  0.200  0.600  0.407- 140 2.11 135 2.11 139 2.11 120 2.11 137 2.11
  38  0.300  0.700  0.407- 139 2.11 144 2.11 140 2.11 159 2.11 138 2.11
  39  0.200  0.700  0.503- 138 2.11 141 2.11 118 2.11 137 2.11 139 2.11
  40  0.300  0.600  0.503- 137 2.11 134 2.11 138 2.11 157 2.11 140 2.11
  41  0.200  0.800  0.407- 139 2.11 144 2.11 143 2.11 124 2.11 141 2.11
  42  0.300  0.900  0.407- 143 2.11 128 2.11 144 2.11 163 2.11 142 2.11
  43  0.200  0.900  0.503- 142 2.11 125 2.11 141 2.11 122 2.11 143 2.11
  44  0.300  0.800  0.503- 138 2.11 141 2.11 142 2.11 161 2.11 144 2.11
  45  0.400  0.000  0.407- 128 2.11 147 2.11 148 2.11 163 2.11 145 2.11
  46  0.500  0.100  0.407- 147 2.11 148 2.11 152 2.11 167 2.11 146 2.11
  47  0.400  0.100  0.503- 126 2.11 145 2.11 146 2.11 149 2.11 147 2.11
  48  0.500  0.000  0.503- 145 2.11 146 2.11 162 2.11 165 2.11 148 2.11
  49  0.400  0.200  0.407- 151 2.11 147 2.11 132 2.11 152 2.11 149 2.11
  50  0.500  0.300  0.407- 152 2.11 151 2.11 156 2.11 171 2.11 150 2.11
  51  0.400  0.300  0.503- 149 2.11 130 2.11 150 2.11 153 2.11 151 2.11
  52  0.500  0.200  0.503- 150 2.11 149 2.11 146 2.11 169 2.11 152 2.11
  53  0.400  0.400  0.407- 136 2.11 151 2.11 155 2.11 156 2.11 153 2.11
  54  0.500  0.500  0.407- 155 2.11 156 2.11 160 2.11 175 2.11 154 2.11
  55  0.400  0.500  0.503- 134 2.11 153 2.11 154 2.11 157 2.11 155 2.11   4 2.43   1 2.43
  56  0.500  0.400  0.503- 150 2.11 153 2.11 154 2.11 173 2.11 156 2.11
  57  0.400  0.600  0.407- 140 2.11 155 2.11 159 2.11 160 2.11 157 2.11
  58  0.500  0.700  0.407- 164 2.11 160 2.11 159 2.11 179 2.11 158 2.11
  59  0.400  0.700  0.503- 161 2.11 157 2.11 158 2.11 138 2.11 159 2.11
  60  0.500  0.600  0.503- 154 2.11 157 2.11 158 2.11 177 2.11 160 2.11
[...]
 190  0.900  0.300  0.503-  92 2.11  91 2.11  11 2.11  96 2.11  90 2.11
 191  0.800  0.300  0.407-  70 2.11  89 2.11  90 2.11  93 2.11  91 2.11
 192  0.900  0.200  0.407-  90 2.11  86 2.11  89 2.11   9 2.11  92 2.11
 193  0.800  0.400  0.503-  76 2.11  91 2.11  95 2.11  96 2.11  93 2.11
 194  0.900  0.500  0.503-  15 2.11  95 2.11  96 2.11 100 2.11  94 2.11
 195  0.800  0.500  0.407-  74 2.11  93 2.11  94 2.11  97 2.11  95 2.11
 196  0.900  0.400  0.407-  13 2.11  90 2.11  93 2.11  94 2.11  96 2.11
 197  0.800  0.600  0.503-  80 2.11  95 2.11  99 2.11 100 2.11  97 2.11
 198  0.900  0.700  0.503- 104 2.11  99 2.11 100 2.11  19 2.11  98 2.11
 199  0.800  0.700  0.407-  78 2.11 101 2.11  98 2.11  97 2.11  99 2.11
 200  0.900  0.600  0.407-  17 2.11  94 2.11  97 2.11  98 2.11 100 2.11
 201  0.800  0.800  0.503-  84 2.11  99 2.11 103 2.11 104 2.11 101 2.11
 202  0.900  0.900  0.503-  23 2.11  88 2.11 103 2.11 104 2.11 102 2.11
 203  0.800  0.900  0.407-  82 2.11  85 2.11 101 2.11 102 2.11 103 2.11
 204  0.900  0.800  0.407-  98 2.11  21 2.11 101 2.11 102 2.11 104 2.11

  LATTYP: Found a simple tetragonal cell.
 ALAT       =    21.1388521970
 C/A-ratio  =     1.0461251639

  Lattice vectors:

 A1 = (  21.1388521970,   0.0000000000,   0.0000000000)
 A2 = (   0.0000000000,  21.1388521970,   0.0000000000)
 A3 = (   0.0000000000,   0.0000000000,  22.1138852197)

Analysis of symmetry for initial positions (statically):
 Subroutine PRICEL returns:
 Original cell was already a primitive cell.

 Routine SETGRP: Setting up the symmetry group for a
 simple tetragonal supercell.

 Subroutine GETGRP returns: Found  1 space group operations
 (whereof  1 operations were pure point group operations)
 out of a pool of 16 trial point group operations.

The static configuration has the point symmetry C_1 .

Analysis of symmetry for dynamics (positions and initial velocities):
 Subroutine PRICEL returns:
 Original cell was already a primitive cell.

[...]

The dynamic configuration has the point symmetry C_1 .

Analysis of constrained symmetry for selective dynamics:
 Subroutine PRICEL returns:
 Original cell was already a primitive cell.

 Routine SETGRP: Setting up the symmetry group for a
 simple tetragonal supercell.

 Subroutine GETGRP returns: Found  1 space group operations
 (whereof  1 operations were pure point group operations)
 out of a pool of 16 trial point group operations.

The constrained configuration has the point symmetry C_1 .

 Subroutine INISYM returns: Found  1 space group operations
 (whereof  1 operations are pure point group operations),
 and found     1 'primitive' translations

                                     Primitive cell

  volume of cell :    9881.6133

  direct lattice vectors                    reciprocal lattice vectors
    21.138852197  0.000000000  0.000000000     0.047306258  0.000000000  0.000000000
     0.000000000 21.138852197  0.000000000     0.000000000  0.047306258  0.000000000
     0.000000000  0.000000000 22.113885220     0.000000000  0.000000000  0.045220457

  length of vectors
    21.138852197 21.138852197 22.113885220     0.047306258  0.047306258  0.045220457

  position of ions in fractional coordinates (direct lattice)
     0.399799103  0.557704010  0.597819508
     0.399656041  0.499161715  0.789905234
     0.399599063  0.498964654  0.687952686
     0.399792629  0.441052696  0.597113492
     0.000000000  0.000000000  0.406984115
     0.100000000  0.100000000  0.406984115
     0.000000000  0.100000000  0.502574971
     0.100000000  0.000000000  0.502574971
     0.000000000  0.200000000  0.406984115
     0.100000000  0.300000000  0.406984115
     0.000000000  0.300000000  0.502574971
     0.100000000  0.200000000  0.502574971
     0.000000000  0.400000000  0.406984115
[...]
     52     -44.5420      2.00000
     53     -44.5417      2.00000
     54     -44.5410      2.00000
     55     -44.5408      2.00000
     56     -44.5405      2.00000
     57     -44.5404      2.00000
     58     -44.5392      2.00000
     59     -44.5390      2.00000
     60     -44.5383      2.00000
[...]
    946       6.4937      0.00000
    947       6.5374      0.00000
    948       6.5912      0.00000
    949       6.6250      0.00000
    950       6.6801      0.00000
    951       6.7137      0.00000
    952       6.7998      0.00000
    953       6.8526      0.00000
    954       6.8783      0.00000
    955       6.9414      0.00000
    956       7.0707      0.00000
    957       7.1281      0.00000
    958       7.1780      0.00000
    959       7.3094      0.00000
    960       7.3397      0.00000

 soft charge-density along one line, spin component           1
         0         1         2         3         4         5         6         7         8         9
 total charge-density along one line

------------------------ aborting loop because EDIFF is reached ----------------------------------------

  FORCE on cell =-STRESS in cart. coord.  units (eV):
  Direction    XX          YY          ZZ          XY          YZ          ZX
  Alpha Z  1394.80054  1394.80054  1394.80054
  Ewald  476789.57733478031.49515************     0.08233     1.75104    -2.53842
  Hartree506847.49893507817.14238************     0.06366     1.10712    -2.01019
  E(xc)   -8555.03995 -8554.76472 -8555.17897    -0.00001     0.00275    -0.00020
  Local  ************************************    -0.14463    -2.85995     4.51807
  n-local -8772.92046 -8774.23065 -8896.51496    -0.00040     0.00965    -0.00018
  augment  4091.16180  4083.87218  4020.38506     0.00265    -0.01295     0.01391
  Kinetic 23105.05281 23097.50834 23317.87958    -0.00069    -0.00873     0.02892
  Fock        0.00000     0.00000     0.00000     0.00000     0.00000     0.00000
  Total    -220.34552  -222.57881   -18.43840     0.00291    -0.01106     0.01191
  in kB     -35.72621   -36.08831    -2.98955     0.00047    -0.00179     0.00193

 VOLUME and BASIS-vectors are now :
  energy-cutoff  :      520.00
  volume of cell :     9881.61
      direct lattice vectors                 reciprocal lattice vectors
    21.138852197  0.000000000  0.000000000     0.047306258  0.000000000  0.000000000
     0.000000000 21.138852197  0.000000000     0.000000000  0.047306258  0.000000000
     0.000000000  0.000000000 22.113885220     0.000000000  0.000000000  0.045220457

  length of vectors
    21.138852197 21.138852197 22.113885220     0.047306258  0.047306258  0.045220457

 FORCES acting on ions:
    Electron-Ion                     Ewald-Force                    Non-Local-Force
   -.595E+00 -.490E+03 -.187E+04   0.583E+00 0.479E+03 0.188E+04   0.149E-01 0.108E+02 -.570E+01
   -.854E-01 -.294E+00 -.155E+04   0.676E-01 0.246E+00 0.153E+04   0.250E-01 0.649E-01 0.125E+02
   0.132E+01 0.390E+01 -.186E+04   -.129E+01 -.384E+01 0.186E+04   -.190E-01 -.653E-01 0.816E+00
   -.534E+00 0.486E+03 -.187E+04   0.524E+00 -.475E+03 0.188E+04   0.119E-01 -.106E+02 -.572E+01
   0.647E+01 0.579E-01 0.935E+03   -.650E+01 -.582E-01 -.927E+03   0.254E-01 0.297E-03 -.757E+01
   0.127E+02 0.987E+01 0.939E+03   -.128E+02 -.990E+01 -.931E+03   0.562E-01 0.216E-01 -.757E+01
   0.929E+01 0.884E+01 -.918E+03   -.932E+01 -.884E+01 0.910E+03   0.288E-01 0.222E-02 0.752E+01
   0.135E+02 0.103E+00 -.917E+03   -.135E+02 -.103E+00 0.909E+03   0.400E-01 0.520E-03 0.752E+01
   0.102E+02 0.119E+02 0.939E+03   -.102E+02 -.120E+02 -.931E+03   0.448E-01 0.945E-02 -.758E+01
   0.270E+02 0.195E+02 0.951E+03   -.272E+02 -.195E+02 -.943E+03   0.146E+00 0.261E-01 -.760E+01
   0.197E+02 0.165E+02 -.912E+03   -.198E+02 -.165E+02 0.904E+03   0.474E-01 -.205E-02 0.751E+01
   0.251E+02 0.238E+02 -.911E+03   -.252E+02 -.238E+02 0.903E+03   0.931E-01 0.141E-01 0.751E+01
   0.180E+02 0.821E+01 0.946E+03   -.181E+02 -.821E+01 -.937E+03   0.702E-01 0.328E-02 -.759E+01
   0.401E+02 -.121E+00 0.961E+03   -.403E+02 0.122E+00 -.953E+03   0.178E+00 -.685E-03 -.762E+01
   0.287E+02 -.947E-01 -.908E+03   -.288E+02 0.949E-01 0.900E+03   0.449E-01 -.204E-03 0.750E+01
   0.573E+02 0.201E+02 -.895E+03   -.575E+02 -.201E+02 0.887E+03   0.134E+00 -.493E-02 0.748E+01
   0.180E+02 -.832E+01 0.945E+03   -.181E+02 0.832E+01 -.937E+03   0.696E-01 -.370E-02 -.759E+01
   0.269E+02 -.195E+02 0.951E+03   -.271E+02 0.196E+02 -.942E+03   0.144E+00 -.264E-01 -.760E+01
   0.196E+02 -.165E+02 -.912E+03   -.197E+02 0.165E+02 0.904E+03   0.469E-01 0.193E-02 0.751E+01
   0.571E+02 -.203E+02 -.895E+03   -.573E+02 0.203E+02 0.887E+03   0.133E+00 0.417E-02 0.748E+01
   0.101E+02 -.119E+02 0.939E+03   -.102E+02 0.119E+02 -.931E+03   0.441E-01 -.925E-02 -.758E+01
   0.127E+02 -.973E+01 0.939E+03   -.128E+02 0.975E+01 -.931E+03   0.556E-01 -.207E-01 -.757E+01
   0.924E+01 -.871E+01 -.918E+03   -.928E+01 0.871E+01 0.910E+03   0.285E-01 -.190E-02 0.752E+01
   0.249E+02 -.237E+02 -.911E+03   -.250E+02 0.237E+02 0.903E+03   0.916E-01 -.138E-01 0.751E+01
   0.115E+02 0.113E+00 0.940E+03   -.116E+02 -.114E+00 -.932E+03   0.474E-01 0.909E-03 -.758E+01
   0.919E+01 0.186E+02 0.947E+03   -.925E+01 -.187E+02 -.939E+03   0.444E-01 0.106E+00 -.758E+01
   0.182E+02 0.199E+02 -.912E+03   -.183E+02 -.200E+02 0.904E+03   0.586E-01 0.542E-01 0.751E+01
   0.947E+01 0.203E+00 -.912E+03   -.950E+01 -.204E+00 0.904E+03   0.285E-01 0.113E-02 0.751E+01
   0.213E+02 0.265E+02 0.951E+03   -.215E+02 -.266E+02 -.943E+03   0.128E+00 0.944E-01 -.758E+01
   0.281E+02 0.498E+02 0.989E+03   -.284E+02 -.501E+02 -.981E+03   0.269E+00 0.263E+00 -.748E+01
   0.592E+02 0.544E+02 -.884E+03   -.596E+02 -.545E+02 0.876E+03   0.341E+00 0.239E-01 0.748E+01
   0.244E+02 0.605E+02 -.892E+03   -.245E+02 -.609E+02 0.884E+03   0.928E-01 0.296E+00 0.750E+01
   0.507E+02 0.239E+02 0.985E+03   -.512E+02 -.239E+02 -.977E+03   0.395E+00 0.405E-01 -.766E+01
   0.559E+02 -.445E+00 0.105E+04   -.565E+02 0.454E+00 -.104E+04   0.419E+00 -.645E-02 -.765E+01
   0.121E+03 -.448E+00 -.843E+03   -.122E+03 0.449E+00 0.836E+03   0.287E+00 -.104E-02 0.740E+01
   0.142E+03 0.108E+03 -.751E+03   -.144E+03 -.108E+03 0.743E+03   0.171E+01 -.306E-01 0.726E+01
   0.505E+02 -.241E+02 0.985E+03   -.510E+02 0.242E+02 -.976E+03   0.389E+00 -.431E-01 -.766E+01
   0.278E+02 -.496E+02 0.988E+03   -.281E+02 0.500E+02 -.980E+03   0.264E+00 -.260E+00 -.748E+01
   0.586E+02 -.543E+02 -.884E+03   -.590E+02 0.543E+02 0.876E+03   0.334E+00 -.249E-01 0.748E+01
   0.140E+03 -.109E+03 -.753E+03   -.142E+03 0.109E+03 0.745E+03   0.166E+01 0.225E-01 0.726E+01
   0.212E+02 -.263E+02 0.951E+03   -.213E+02 0.264E+02 -.943E+03   0.126E+00 -.927E-01 -.758E+01
   0.914E+01 -.183E+02 0.947E+03   -.919E+01 0.184E+02 -.939E+03   0.439E-01 -.103E+00 -.758E+01
   0.181E+02 -.196E+02 -.912E+03   -.181E+02 0.197E+02 0.904E+03   0.580E-01 -.525E-01 0.751E+01
   0.241E+02 -.599E+02 -.892E+03   -.242E+02 0.603E+02 0.884E+03   0.914E-01 -.290E+00 0.750E+01
   -.222E-01 0.159E+00 0.944E+03   0.220E-01 -.161E+00 -.936E+03   0.165E-03 0.149E-02 -.758E+01
   -.923E+01 0.186E+02 0.947E+03   0.929E+01 -.187E+02 -.939E+03   -.442E-01 0.106E+00 -.758E+01
   -.377E-01 0.308E+02 -.906E+03   0.375E-01 -.310E+02 0.898E+03   0.283E-03 0.134E+00 0.751E+01
   -.951E+01 0.202E+00 -.912E+03   0.955E+01 -.204E+00 0.904E+03   -.284E-01 0.117E-02 0.751E+01
   -.458E-01 0.417E+02 0.965E+03   0.456E-01 -.421E+02 -.957E+03   0.113E-03 0.354E+00 -.760E+01
   -.281E+02 0.497E+02 0.989E+03   0.285E+02 -.500E+02 -.981E+03   -.269E+00 0.263E+00 -.748E+01
   -.207E+00 0.140E+03 -.821E+03   0.206E+00 -.142E+03 0.813E+03   0.286E-03 0.166E+01 0.763E+01
   -.245E+02 0.604E+02 -.892E+03   0.246E+02 -.608E+02 0.884E+03   -.925E-01 0.297E+00 0.750E+01
   -.150E+00 0.509E+02 0.106E+04   0.149E+00 -.511E+02 -.105E+04   0.861E-03 0.164E+00 -.569E+01
   -.560E+02 -.443E+00 0.105E+04   0.566E+02 0.452E+00 -.104E+04   -.418E+00 -.650E-02 -.765E+01
   -.937E+00 -.271E+01 -.455E+03   0.939E+00 0.279E+01 0.451E+03   0.142E-02 -.503E-01 0.265E+01
   -.142E+03 0.108E+03 -.752E+03   0.144E+03 -.108E+03 0.744E+03   -.171E+01 -.310E-01 0.726E+01
   -.147E+00 -.514E+02 0.106E+04   0.146E+00 0.516E+02 -.105E+04   0.800E-03 -.172E+00 -.574E+01
   -.279E+02 -.496E+02 0.988E+03   0.282E+02 0.499E+02 -.980E+03   -.264E+00 -.260E+00 -.748E+01
   -.200E+00 -.138E+03 -.823E+03   0.200E+00 0.140E+03 0.815E+03   0.384E-03 -.162E+01 0.763E+01
   -.140E+03 -.109E+03 -.753E+03   0.142E+03 0.109E+03 0.746E+03   -.166E+01 0.230E-01 0.727E+01
[...]
   -.106E+02 0.948E+01 0.708E+03   0.106E+02 -.949E+01 -.712E+03   -.547E-01 0.105E-01 0.338E+01
   0.214E-01 0.764E+01 0.705E+03   -.213E-01 -.764E+01 -.708E+03   -.126E-03 0.682E-02 0.339E+01
   -.194E+02 0.814E+01 -.683E+03   0.194E+02 -.813E+01 0.687E+03   -.490E-01 -.283E-02 -.360E+01
   0.564E-01 -.545E-01 -.686E+03   -.562E-01 0.546E-01 0.689E+03   -.298E-03 -.218E-03 -.359E+01
   -.147E+02 -.537E-01 0.712E+03   0.147E+02 0.539E-01 -.716E+03   -.621E-01 -.380E-03 0.338E+01
   0.363E-01 0.505E+01 0.708E+03   -.361E-01 -.505E+01 -.712E+03   -.233E-03 0.159E-02 0.338E+01
   -.194E+02 -.824E+01 -.683E+03   0.194E+02 0.824E+01 0.687E+03   -.487E-01 0.235E-02 -.360E+01
   0.398E-01 -.991E+01 -.688E+03   -.397E-01 0.991E+01 0.692E+03   -.230E-03 0.124E-02 -.357E+01
   -.106E+02 -.950E+01 0.708E+03   0.106E+02 0.951E+01 -.712E+03   -.542E-01 -.107E-01 0.338E+01
   0.361E-01 -.512E+01 0.708E+03   -.360E-01 0.512E+01 -.712E+03   -.231E-03 -.198E-02 0.338E+01
   -.995E+01 -.113E+02 -.688E+03   0.998E+01 0.113E+02 0.692E+03   -.384E-01 -.660E-02 -.357E+01
   0.199E-01 -.551E+01 -.691E+03   -.198E-01 0.552E+01 0.695E+03   -.103E-03 -.197E-02 -.356E+01
   -.552E+01 -.522E+01 0.704E+03   0.555E+01 0.522E+01 -.708E+03   -.330E-01 -.932E-02 0.339E+01
   0.213E-01 -.761E+01 0.705E+03   -.211E-01 0.761E+01 -.708E+03   -.159E-03 -.664E-02 0.339E+01
   0.410E-02 -.272E+00 0.695E+01   0.223E-11 0.853E-12 0.182E-11   0.977E-02 0.304E+00 -.417E+01

 POSITION                                       TOTAL-FORCE (eV/Angst)
      8.45129     11.78922     13.22011         0.002807     -0.167318     -0.025808
      8.44827     10.55171     17.46787         0.007177      0.017215     -0.189542
      8.44707     10.54754     15.21331         0.006001     -0.001439     -0.081238
      8.45116      9.32335     13.20450         0.002105      0.187689     -0.023908
      0.00000      0.00000      9.00000        -0.007229     -0.000217      0.534069
      2.11389      2.11389      9.00000        -0.016048     -0.006489      0.534142
      0.00000      2.11389     11.11389        -0.008040     -0.000811     -0.467010
      2.11389      0.00000     11.11389        -0.011543     -0.000201     -0.466276
      0.00000      4.22777      9.00000        -0.012431     -0.002895      0.535505
      2.11389      6.34166      9.00000        -0.039935     -0.007650      0.538932
      0.00000      6.34166     11.11389        -0.012616      0.000710     -0.461114
      2.11389      4.22777     11.11389        -0.025464     -0.004155     -0.460496
      0.00000      8.45554      9.00000        -0.019078     -0.000833      0.538291
      2.11389     10.56943      9.00000        -0.049812      0.000059      0.543399
      0.00000     10.56943     11.11389        -0.011370     -0.000080     -0.456227
      2.11389      8.45554     11.11389        -0.033976      0.002318     -0.442789
      0.00000     12.68331      9.00000        -0.018949      0.000700      0.538241
      2.11389     14.79720      9.00000        -0.039305      0.007407      0.538759
      0.00000     14.79720     11.11389        -0.012459     -0.000961     -0.461208
      2.11389     12.68331     11.11389        -0.033751     -0.002487     -0.442987
      0.00000     16.91108      9.00000        -0.012285      0.002515      0.535489
      2.11389     19.02497      9.00000        -0.015912      0.005852      0.534201
      0.00000     19.02497     11.11389        -0.007979      0.000363     -0.467058
      2.11389     16.91108     11.11389        -0.025101      0.003743     -0.460672
      4.22777      0.00000      9.00000        -0.013848     -0.000395      0.534318
      6.34166      2.11389      9.00000        -0.013304     -0.029051      0.534256
      4.22777      2.11389     11.11389        -0.017196     -0.014797     -0.461950
      6.34166      0.00000     11.11389        -0.008478     -0.000469     -0.462474
      4.22777      4.22777      9.00000        -0.037525     -0.028079      0.531257
      6.34166      6.34166      9.00000        -0.088772     -0.085512      0.489427
      4.22777      6.34166     11.11389        -0.091949     -0.005507     -0.435985
      6.34166      4.22777     11.11389        -0.028530     -0.080967     -0.449606
      4.22777      8.45554      9.00000        -0.104990     -0.010240      0.548022
      6.34166     10.56943      9.00000        -0.138964      0.002207      0.499639
      4.22777     10.56943     11.11389        -0.079466     -0.000024     -0.380082
      6.34166      8.45554     11.11389        -0.592398      0.018824     -0.437893
      4.22777     12.68331      9.00000        -0.103311      0.010661      0.547796
      6.34166     14.79720      9.00000        -0.086987      0.083867      0.490532
      4.22777     14.79720     11.11389        -0.090155      0.005448     -0.436695
      6.34166     12.68331     11.11389        -0.573033     -0.017891     -0.436501
      4.22777     16.91108      9.00000        -0.036870      0.027257      0.531357
      6.34166     19.02497      9.00000        -0.013161      0.027835      0.534305
      4.22777     19.02497     11.11389        -0.016973      0.013959     -0.462031
      6.34166     16.91108     11.11389        -0.028149      0.078940     -0.450064
      8.45554      0.00000      9.00000        -0.000037     -0.000568      0.534530
     10.56943      2.11389      9.00000         0.013129     -0.029085      0.534277
      8.45554      2.11389     11.11389         0.000044     -0.035601     -0.458484
     10.56943      0.00000     11.11389         0.008302     -0.000420     -0.462501
      8.45554      4.22777      9.00000        -0.000150     -0.093187      0.532616
     10.56943      6.34166      9.00000         0.088494     -0.085595      0.489486
      8.45554      6.34166     11.11389        -0.000272     -0.526969     -0.488609
     10.56943      4.22777     11.11389         0.028322     -0.081050     -0.449664
      8.45554      8.45554      9.00000        -0.000278     -0.030584      0.087277
     10.56943     10.56943      9.00000         0.138777      0.002147      0.500008
      8.45554     10.56943     11.11389         0.003354      0.024063     -1.463064
     10.56943      8.45554     11.11389         0.590412      0.019808     -0.436711
      8.45554     12.68331      9.00000        -0.000282      0.032234      0.098596
     10.56943     14.79720      9.00000         0.086802      0.084028      0.490606
      8.45554     14.79720     11.11389        -0.000186      0.511801     -0.486843
     10.56943     12.68331     11.11389         0.571095     -0.018727     -0.435423
[...]
     19.02497      6.34166     11.11389        -0.000151     -0.000527      0.321362
     16.91108      6.34166      9.00000        -0.015298      0.002797     -0.394501
     19.02497      4.22777      9.00000        -0.000097      0.001761     -0.392993
     16.91108      8.45554     11.11389        -0.013779     -0.000911      0.314950
     19.02497     10.56943     11.11389        -0.000161     -0.000219      0.318077
     16.91108     10.56943      9.00000        -0.017358     -0.000269     -0.396679
     19.02497      8.45554      9.00000        -0.000148      0.000310     -0.394807
     16.91108     12.68331     11.11389        -0.013689      0.000479      0.315009
     19.02497     14.79720     11.11389        -0.000129      0.000155      0.321440
     16.91108     14.79720      9.00000        -0.015134     -0.003184     -0.394470
     19.02497     12.68331      9.00000        -0.000128     -0.000734     -0.394807
     16.91108     16.91108     11.11389        -0.010758     -0.002038      0.322658
     19.02497     19.02497     11.11389        -0.000089     -0.000726      0.325947
     16.91108     19.02497      9.00000        -0.009210     -0.002735     -0.392445
     19.02497     16.91108      9.00000        -0.000111     -0.002034     -0.393007
    total drift:                                0.013864      0.032286      2.779570

  FREE ENERGIE OF THE ION-ELECTRON SYSTEM (eV)
  free  energy   TOTEN  =     -1585.46084183 eV

  energy  without entropy=    -1585.46084183  energy(sigma->0) =    -1585.46084183