 vasp.6.3.0 20Jan22 (build Apr  1 2022 16:44:48) complex
 executed on        HPECrayEX_GCC date 2022.10.20  09:23:04

 INCAR:
   SYSTEM = MgO-rocksalt
   ISMEAR = 0
   SIGMA = 0.05
   EDIFF = 1E-6
   ALGO = ALL
   ISTART = 0
   IBRION = -1
   NSW = 0
   ISYM = 2
   DIPOL = 0.5 0.5 0.5
   IDIPOL = 3
   LDIPOL = .TRUE.
   METAGGA = SCAN
   LUSE_VDW = .TRUE.
   BPARAM = 15.7
   CPARAM = 0.0093
   ENCUT = 520
   PREC = Accurate
   LASPH = .TRUE.
   LREAL = Auto
   ISPIN = 1
   NELM = 200
   NELMIN = 8
   NCORE = 4
   KPAR = 2
   LWAVE = .FALSE.
   LCHARG = .FALSE.

 POTCAR:    PAW_PBE Au 04Oct2007
 POTCAR:    PAW_PBE Mg_pv 13Apr2007
 POTCAR:    PAW_PBE O 08Apr2002
|               ----> ADVICE to this user running VASP <----                  |
|     You have switched on vdW-DFT.                                           |
|     This routine was written and supplied by Jiri Klimes. We recommend      |
|     that you carefully read and cite the following publications:            |
|       J. Klimes, D.R. Bowler, A. Michelides                                 |
|          J. Phys.: Cond Matt. 22 022201 (2010)                              |
|       J. Klimes, D.R. Bowler, A. Michelides                                 |
|          Phys. Rev. B. 83, 195131 (2011)                                    |
|     and references therein.                                                 |

   TITEL  = PAW_PBE Au 04Oct2007
   POMASS =  196.966; ZVAL   =   11.000    mass and valenz
   ENMAX  =  229.943; ENMIN  =  172.457 eV

   TITEL  = PAW_PBE Mg_pv 13Apr2007
   POMASS =   24.305; ZVAL   =    8.000    mass and valenz
   ENMAX  =  403.929; ENMIN  =  302.947 eV

   TITEL  = PAW_PBE O 08Apr2002
   POMASS =   16.000; ZVAL   =    6.000    mass and valenz
   ENMAX  =  400.000; ENMIN  =  300.000 eV

 Optimization of the real space projectors (new method)

 maximal supplied QI-value         = 15.12
 optimisation between [QCUT,QGAM] = [ 11.64, 23.28] = [ 37.95,151.78] Ry
 Optimized for a Real-space Cutoff    1.49 Angstroem

   l    n(q)    QCUT    max X(q) W(low)/X(q) W(high)/X(q)  e(spline)
   2      9    11.641    60.898    0.24E-03    0.10E-03    0.19E-06
   2      9    11.641    58.894    0.25E-03    0.10E-03    0.19E-06
   0     10    11.641   109.617    0.73E-04    0.33E-04    0.11E-06
   0     10    11.641    75.026    0.71E-04    0.32E-04    0.11E-06
   1     10    11.641    16.344    0.27E-04    0.97E-04    0.16E-06
   1     10    11.641    10.160    0.23E-04    0.77E-04    0.13E-06
 Optimization of the real space projectors (new method)

[...]

   l    n(q)    QCUT    max X(q) W(low)/X(q) W(high)/X(q)  e(spline)
   1      8    11.527     2.974    0.44E-04    0.56E-04    0.12E-06
   1      8    11.527     4.279    0.12E-03    0.12E-03    0.26E-06
   0      9    11.527    16.381    0.46E-04    0.64E-04    0.78E-07
   0      9    11.527     5.611    0.26E-04    0.43E-04    0.55E-07
   2      8    11.527     4.652    0.22E-03    0.72E-04    0.47E-07
 Optimization of the real space projectors (new method)

 maximal supplied QI-value         = 24.76
 optimisation between [QCUT,QGAM] = [ 11.64, 23.27] = [ 37.91,151.63] Ry
 Optimized for a Real-space Cutoff    1.14 Angstroem

   l    n(q)    QCUT    max X(q) W(low)/X(q) W(high)/X(q)  e(spline)
   0      8    11.635    20.381    0.10E-03    0.33E-03    0.24E-06
   0      8    11.635    15.268    0.11E-03    0.35E-03    0.26E-06
   1      7    11.635     5.964    0.24E-03    0.31E-03    0.30E-06
   1      7    11.635     5.382    0.22E-03    0.25E-03    0.26E-06
  PAW_PBE Au 04Oct2007                  :
  PAW_PBE Mg_pv 13Apr2007               :
  PAW_PBE O 08Apr2002                   :

 POSCAR: Au Mg  O
  positions in direct lattice

 METAGGA = SCAN     LMAXTAU =  6    LMIXTAU =  F

 ion  position               nearest neighbor table
   1  0.543  0.457  0.618-   2 2.55  54 2.97  73 2.97
   2  0.457  0.543  0.618-   1 2.55  53 2.97  58 2.97
   3  0.000  0.000  0.407- 105 2.11 106 2.11 121 2.11 186 2.11 103 2.11
   4  0.100  0.100  0.407- 105 2.11 106 2.11 110 2.11 125 2.11 104 2.11
   5  0.000  0.100  0.503- 103 2.11 104 2.11 107 2.11 184 2.11 105 2.11
   6  0.100  0.000  0.503- 103 2.11 104 2.11 120 2.11 123 2.11 106 2.11
   7  0.000  0.200  0.407- 109 2.11 105 2.11 110 2.11 190 2.11 107 2.11
   8  0.100  0.300  0.407- 110 2.11 109 2.11 114 2.11 129 2.11 108 2.11
   9  0.000  0.300  0.503- 107 2.11 108 2.11 111 2.11 188 2.11 109 2.11
  10  0.100  0.200  0.503- 108 2.11 107 2.11 104 2.11 127 2.11 110 2.11
  11  0.000  0.400  0.407- 109 2.11 113 2.11 114 2.11 194 2.11 111 2.11
  12  0.100  0.500  0.407- 113 2.11 114 2.11 118 2.11 133 2.11 112 2.11
  13  0.000  0.500  0.503- 111 2.11 112 2.11 115 2.11 192 2.11 113 2.11
  14  0.100  0.400  0.503- 108 2.11 111 2.11 112 2.11 131 2.11 114 2.11
  15  0.000  0.600  0.407- 113 2.11 117 2.11 118 2.11 198 2.11 115 2.11
  16  0.100  0.700  0.407- 122 2.11 118 2.11 117 2.11 137 2.11 116 2.11
  17  0.000  0.700  0.503- 119 2.11 116 2.11 115 2.11 196 2.11 117 2.11
  18  0.100  0.600  0.503- 112 2.11 115 2.11 116 2.11 135 2.11 118 2.11
  19  0.000  0.800  0.407- 117 2.11 121 2.11 122 2.11 202 2.11 119 2.11
  20  0.100  0.900  0.407- 106 2.11 121 2.11 122 2.11 141 2.11 120 2.11
  21  0.000  0.900  0.503- 103 2.11 119 2.11 120 2.11 200 2.11 121 2.11
  22  0.100  0.800  0.503- 116 2.11 119 2.11 120 2.11 139 2.11 122 2.11
  23  0.200  0.000  0.407- 126 2.11 125 2.11 106 2.11 141 2.11 123 2.11
  24  0.300  0.100  0.407- 125 2.11 126 2.11 130 2.11 145 2.11 124 2.11
  25  0.200  0.100  0.503- 124 2.11 123 2.11 104 2.11 127 2.11 125 2.11
  26  0.300  0.000  0.503- 123 2.11 124 2.11 140 2.11 143 2.11 126 2.11
  27  0.200  0.200  0.407- 129 2.11 130 2.11 110 2.11 125 2.11 127 2.11
  28  0.300  0.300  0.407- 129 2.11 130 2.11 134 2.11 149 2.11 128 2.11
  29  0.200  0.300  0.503- 127 2.11 128 2.11 108 2.11 131 2.11 129 2.11
  30  0.300  0.200  0.503- 127 2.11 128 2.11 124 2.11 147 2.11 130 2.11
  31  0.200  0.400  0.407- 134 2.11 129 2.11 133 2.11 114 2.11 131 2.11
  32  0.300  0.500  0.407- 133 2.11 134 2.11 138 2.11 153 2.11 132 2.11
  33  0.200  0.500  0.503- 132 2.11 131 2.11 112 2.11 135 2.11 133 2.11
  34  0.300  0.400  0.503- 131 2.11 128 2.11 132 2.11 151 2.11 134 2.11
  35  0.200  0.600  0.407- 138 2.11 133 2.11 137 2.11 118 2.11 135 2.11
  36  0.300  0.700  0.407- 137 2.11 142 2.11 138 2.11 157 2.11 136 2.11
  37  0.200  0.700  0.503- 136 2.11 139 2.11 116 2.11 135 2.11 137 2.11
  38  0.300  0.600  0.503- 135 2.11 132 2.11 136 2.11 155 2.11 138 2.11
  39  0.200  0.800  0.407- 137 2.11 142 2.11 141 2.11 122 2.11 139 2.11
  40  0.300  0.900  0.407- 141 2.11 126 2.11 142 2.11 161 2.11 140 2.11
  41  0.200  0.900  0.503- 140 2.11 123 2.11 139 2.11 120 2.11 141 2.11
  42  0.300  0.800  0.503- 136 2.11 139 2.11 140 2.11 159 2.11 142 2.11
  43  0.400  0.000  0.407- 126 2.11 145 2.11 146 2.11 161 2.11 143 2.11
  44  0.500  0.100  0.407- 145 2.11 146 2.11 150 2.11 165 2.11 144 2.11
  45  0.400  0.100  0.503- 124 2.11 143 2.11 144 2.11 147 2.11 145 2.11
  46  0.500  0.000  0.503- 143 2.11 144 2.11 160 2.11 163 2.11 146 2.11
  47  0.400  0.200  0.407- 149 2.11 145 2.11 130 2.11 150 2.11 147 2.11
  48  0.500  0.300  0.407- 150 2.11 149 2.11 154 2.11 169 2.11 148 2.11
  49  0.400  0.300  0.503- 147 2.11 128 2.11 148 2.11 151 2.11 149 2.11
  50  0.500  0.200  0.503- 148 2.11 147 2.11 144 2.11 167 2.11 150 2.11
  51  0.400  0.400  0.407- 134 2.11 149 2.11 153 2.11 154 2.11 151 2.11
  52  0.500  0.500  0.407- 153 2.11 154 2.11 158 2.11 173 2.11 152 2.11
  53  0.400  0.500  0.503- 132 2.11 151 2.11 152 2.11 155 2.11 153 2.11   2 2.97
  54  0.500  0.400  0.503- 148 2.11 151 2.11 152 2.11 171 2.11 154 2.11   1 2.97
  55  0.400  0.600  0.407- 138 2.11 153 2.11 157 2.11 158 2.11 155 2.11
  56  0.500  0.700  0.407- 162 2.11 158 2.11 157 2.11 177 2.11 156 2.11
  57  0.400  0.700  0.503- 159 2.11 155 2.11 156 2.11 136 2.11 157 2.11
  58  0.500  0.600  0.503- 152 2.11 155 2.11 156 2.11 175 2.11 158 2.11   2 2.97
  59  0.400  0.800  0.407- 157 2.11 142 2.11 161 2.11 162 2.11 159 2.11
  60  0.500  0.900  0.407- 146 2.11 161 2.11 162 2.11 181 2.11 160 2.11
[...]
 188  0.900  0.300  0.503-  90 2.11  89 2.11   9 2.11  94 2.11  88 2.11
 189  0.800  0.300  0.407-  68 2.11  87 2.11  88 2.11  91 2.11  89 2.11
 190  0.900  0.200  0.407-  88 2.11  84 2.11  87 2.11   7 2.11  90 2.11
 191  0.800  0.400  0.503-  74 2.11  89 2.11  93 2.11  94 2.11  91 2.11
 192  0.900  0.500  0.503-  13 2.11  93 2.11  94 2.11  98 2.11  92 2.11
 193  0.800  0.500  0.407-  72 2.11  91 2.11  92 2.11  95 2.11  93 2.11
 194  0.900  0.400  0.407-  11 2.11  88 2.11  91 2.11  92 2.11  94 2.11
 195  0.800  0.600  0.503-  78 2.11  93 2.11  97 2.11  98 2.11  95 2.11
 196  0.900  0.700  0.503- 102 2.11  97 2.11  98 2.11  17 2.11  96 2.11
 197  0.800  0.700  0.407-  76 2.11  99 2.11  96 2.11  95 2.11  97 2.11
 198  0.900  0.600  0.407-  15 2.11  92 2.11  95 2.11  96 2.11  98 2.11
 199  0.800  0.800  0.503-  82 2.11  97 2.11 101 2.11 102 2.11  99 2.11
 200  0.900  0.900  0.503-  21 2.11  86 2.11 101 2.11 102 2.11 100 2.11
 201  0.800  0.900  0.407-  80 2.11  83 2.11  99 2.11 100 2.11 101 2.11
 202  0.900  0.800  0.407-  96 2.11  19 2.11  99 2.11 100 2.11 102 2.11

  LATTYP: Found a simple tetragonal cell.
 ALAT       =    21.1388521970
 C/A-ratio  =     1.0461251639

  Lattice vectors:

 A1 = (  21.1388521970,   0.0000000000,   0.0000000000)
 A2 = (   0.0000000000,  21.1388521970,   0.0000000000)
 A3 = (   0.0000000000,   0.0000000000,  22.1138852197)

Analysis of symmetry for initial positions (statically):
 Subroutine PRICEL returns:
 Original cell was already a primitive cell.

 Routine SETGRP: Setting up the symmetry group for a
 simple tetragonal supercell.

 Subroutine GETGRP returns: Found  4 space group operations
 (whereof  4 operations were pure point group operations)
 out of a pool of 16 trial point group operations.

The static configuration has the point symmetry C_2v.

Analysis of symmetry for dynamics (positions and initial velocities):
 Subroutine PRICEL returns:
 Original cell was already a primitive cell.

 Routine SETGRP: Setting up the symmetry group for a
 simple tetragonal supercell.

 Subroutine GETGRP returns: Found  4 space group operations
 (whereof  4 operations were pure point group operations)
 out of a pool of 16 trial point group operations.

The dynamic configuration has the point symmetry C_2v.

 Subroutine INISYM returns: Found  4 space group operations
 (whereof  4 operations are pure point group operations),
 and found     1 'primitive' translations

                                     Primitive cell

  volume of cell :    9881.6133

  direct lattice vectors                    reciprocal lattice vectors
    21.138852197  0.000000000  0.000000000     0.047306258  0.000000000  0.000000000
     0.000000000 21.138852197  0.000000000     0.000000000  0.047306258  0.000000000
     0.000000000  0.000000000 22.113885220     0.000000000  0.000000000  0.045220457

  length of vectors
    21.138852197 21.138852197 22.113885220     0.047306258  0.047306258  0.045220457

  position of ions in fractional coordinates (direct lattice)
     0.542717991  0.457282009  0.618300337
[...]
     52     -44.4798      2.00000
     53     -44.4791      2.00000
     54     -44.4790      2.00000
     55     -44.4774      2.00000
     56     -44.4774      2.00000
     57     -44.4772      2.00000
     58     -44.4763      2.00000
     59     -44.4762      2.00000
     60     -44.4761      2.00000
[...]
    946       7.1073      0.00000
    947       7.1415      0.00000
    948       7.1835      0.00000
    949       7.1865      0.00000
    950       7.2029      0.00000
    951       7.2499      0.00000
    952       7.4846      0.00000
    953       7.5894      0.00000
    954       7.5995      0.00000
    955       7.6286      0.00000
    956       7.6440      0.00000
    957       7.6877      0.00000
    958       7.7112      0.00000
    959       7.7457      0.00000
    960       7.8003      0.00000

 soft charge-density along one line, spin component           1
         0         1         2         3         4         5         6         7         8         9
 total charge-density along one line

------------------------ aborting loop because EDIFF is reached ----------------------------------------

  FORCE on cell =-STRESS in cart. coord.  units (eV):
  Direction    XX          YY          ZZ          XY          YZ          ZX
  Alpha Z  1365.75682  1365.75682  1365.75682
  Ewald  480014.30065480014.30065************  -325.75939     0.00000     0.00000
  Hartree508752.49197508752.49197************  -226.11475    -0.00000    -0.00000
  E(xc)   -8379.94793 -8379.94794 -8372.15320    -0.23573     0.00002    -0.00000
  Local  ************************************   539.57194    -0.00000    -0.00000
  n-local -8714.78027 -8714.78035 -8829.65737     9.78138    -0.00008    -0.00025
  augment  3833.21037  3833.21037  3775.07940    -0.07317    -0.00000    -0.00000
  Kinetic 23041.77975 23041.77969 23277.64015     4.03218     0.00041    -0.00002
  Fock        0.00000     0.00000     0.00000     0.00000     0.00000     0.00000
  Total    -244.15750  -244.15750   -28.58207     1.20244     0.00000     0.00000
  in kB     -39.58702   -39.58702    -4.63422     0.19496     0.00000     0.00000

 VOLUME and BASIS-vectors are now :
  energy-cutoff  :      520.00
  volume of cell :     9881.61
      direct lattice vectors                 reciprocal lattice vectors
    21.138852197  0.000000000  0.000000000     0.047306258  0.000000000  0.000000000
     0.000000000 21.138852197  0.000000000     0.000000000  0.047306258  0.000000000
     0.000000000  0.000000000 22.113885220     0.000000000  0.000000000  0.045220457

  length of vectors
    21.138852197 21.138852197 22.113885220     0.047306258  0.047306258  0.045220457

 FORCES acting on ions:
    Electron-Ion                     Ewald-Force                    Non-Local-Force
   -.193E+03 0.193E+03 -.209E+04   0.187E+03 -.187E+03 0.210E+04   0.500E+01 -.500E+01 -.724E+00
   0.193E+03 -.193E+03 -.209E+04   -.187E+03 0.187E+03 0.210E+04   -.500E+01 0.500E+01 -.724E+00
   -.361E-10 0.637E-09 0.931E+03   0.977E-10 -.173E-08 -.923E+03   0.000E+00 0.000E+00 -.745E+01
   0.387E+01 0.387E+01 0.932E+03   -.386E+01 -.386E+01 -.924E+03   -.583E-02 -.583E-02 -.745E+01
   -.273E+00 0.423E+01 -.923E+03   0.291E+00 -.424E+01 0.915E+03   -.145E-01 0.293E-02 0.742E+01
   0.423E+01 -.273E+00 -.923E+03   -.424E+01 0.291E+00 0.915E+03   0.293E-02 -.145E-01 0.742E+01
   -.361E+00 0.589E+01 0.933E+03   0.393E+00 -.590E+01 -.925E+03   -.241E-01 0.642E-02 -.745E+01
   0.776E+01 0.754E+01 0.935E+03   -.774E+01 -.755E+01 -.927E+03   -.157E-01 0.112E-01 -.746E+01
   -.687E+00 0.772E+01 -.921E+03   0.730E+00 -.773E+01 0.913E+03   -.341E-01 0.381E-02 0.742E+01
   0.691E+01 0.857E+01 -.922E+03   -.689E+01 -.856E+01 0.914E+03   -.215E-01 -.231E-02 0.742E+01
   -.321E+00 0.401E+01 0.936E+03   0.350E+00 -.402E+01 -.928E+03   -.218E-01 0.350E-02 -.746E+01
   0.119E+02 0.415E+00 0.939E+03   -.120E+02 -.441E+00 -.931E+03   0.328E-01 0.197E-01 -.746E+01
   0.111E-09 -.954E-09 -.919E+03   -.299E-09 0.260E-08 0.911E+03   0.000E+00 0.000E+00 0.741E+01
   0.150E+02 0.710E+01 -.918E+03   -.149E+02 -.712E+01 0.910E+03   -.189E-01 0.182E-01 0.741E+01
   0.321E+00 -.401E+01 0.936E+03   -.350E+00 0.402E+01 -.928E+03   0.218E-01 -.350E-02 -.746E+01
   0.879E+01 -.757E+01 0.936E+03   -.887E+01 0.758E+01 -.928E+03   0.598E-01 -.734E-02 -.746E+01
   0.687E+00 -.772E+01 -.921E+03   -.730E+00 0.773E+01 0.913E+03   0.341E-01 -.381E-02 0.742E+01
   0.165E+02 -.627E+01 -.917E+03   -.166E+02 0.625E+01 0.909E+03   0.573E-01 0.136E-01 0.741E+01
   0.361E+00 -.589E+01 0.933E+03   -.393E+00 0.590E+01 -.925E+03   0.241E-01 -.642E-02 -.745E+01
   0.425E+01 -.425E+01 0.932E+03   -.427E+01 0.427E+01 -.924E+03   0.178E-01 -.178E-01 -.745E+01
   0.273E+00 -.423E+01 -.923E+03   -.291E+00 0.424E+01 0.915E+03   0.145E-01 -.293E-02 0.742E+01
   0.816E+01 -.912E+01 -.921E+03   -.821E+01 0.914E+01 0.913E+03   0.431E-01 -.150E-01 0.742E+01
   0.589E+01 -.361E+00 0.933E+03   -.590E+01 0.393E+00 -.925E+03   0.642E-02 -.241E-01 -.745E+01
   0.754E+01 0.776E+01 0.935E+03   -.755E+01 -.774E+01 -.927E+03   0.112E-01 -.157E-01 -.746E+01
   0.857E+01 0.691E+01 -.922E+03   -.856E+01 -.689E+01 0.914E+03   -.231E-02 -.215E-01 0.742E+01
   0.772E+01 -.687E+00 -.921E+03   -.773E+01 0.730E+00 0.913E+03   0.381E-02 -.341E-01 0.742E+01
   0.994E+01 0.994E+01 0.936E+03   -.993E+01 -.993E+01 -.928E+03   -.243E-02 -.243E-02 -.746E+01
   0.197E+02 0.197E+02 0.949E+03   -.197E+02 -.197E+02 -.941E+03   0.236E-01 0.236E-01 -.750E+01
   0.222E+02 0.170E+02 -.915E+03   -.222E+02 -.170E+02 0.907E+03   -.420E-01 0.914E-02 0.740E+01
   0.170E+02 0.222E+02 -.915E+03   -.170E+02 -.222E+02 0.907E+03   0.914E-02 -.420E-01 0.740E+01
   0.212E+02 0.903E+01 0.945E+03   -.212E+02 -.910E+01 -.937E+03   0.602E-02 0.506E-01 -.747E+01
   0.359E+02 0.223E+01 0.970E+03   -.361E+02 -.245E+01 -.962E+03   0.976E-01 0.160E+00 -.749E+01
   0.418E+02 0.241E+01 -.906E+03   -.418E+02 -.249E+01 0.898E+03   0.327E-01 0.658E-01 0.739E+01
   0.581E+02 0.332E+02 -.889E+03   -.579E+02 -.333E+02 0.881E+03   -.150E+00 0.981E-01 0.732E+01
   0.225E+02 -.789E+01 0.947E+03   -.227E+02 0.786E+01 -.939E+03   0.167E+00 0.224E-01 -.748E+01
   0.207E+02 -.207E+02 0.953E+03   -.209E+02 0.209E+02 -.945E+03   0.108E+00 -.108E+00 -.741E+01
   0.255E+02 -.181E+02 -.913E+03   -.256E+02 0.181E+02 0.906E+03   0.141E+00 -.102E-01 0.741E+01
   0.687E+02 -.308E+02 -.877E+03   -.696E+02 0.306E+02 0.870E+03   0.696E+00 0.123E+00 0.742E+01
   0.107E+02 -.107E+02 0.937E+03   -.108E+02 0.108E+02 -.929E+03   0.464E-01 -.464E-01 -.745E+01
   0.757E+01 -.879E+01 0.936E+03   -.758E+01 0.887E+01 -.928E+03   0.734E-02 -.598E-01 -.746E+01
   0.912E+01 -.816E+01 -.921E+03   -.914E+01 0.821E+01 0.913E+03   0.150E-01 -.431E-01 0.742E+01
   0.181E+02 -.255E+02 -.913E+03   -.181E+02 0.256E+02 0.906E+03   0.102E-01 -.141E+00 0.741E+01
   0.401E+01 -.321E+00 0.936E+03   -.402E+01 0.350E+00 -.928E+03   0.350E-02 -.218E-01 -.746E+01
   0.415E+00 0.119E+02 0.939E+03   -.441E+00 -.120E+02 -.931E+03   0.197E-01 0.328E-01 -.746E+01
   0.710E+01 0.150E+02 -.918E+03   -.712E+01 -.149E+02 0.910E+03   0.182E-01 -.189E-01 0.741E+01
   0.110E-09 0.289E-08 -.919E+03   -.299E-09 -.785E-08 0.911E+03   0.000E+00 0.000E+00 0.741E+01
   0.903E+01 0.212E+02 0.945E+03   -.910E+01 -.212E+02 -.937E+03   0.506E-01 0.602E-02 -.747E+01
   0.223E+01 0.359E+02 0.970E+03   -.245E+01 -.361E+02 -.962E+03   0.160E+00 0.976E-01 -.749E+01
   0.332E+02 0.581E+02 -.889E+03   -.333E+02 -.579E+02 0.881E+03   0.981E-01 -.150E+00 0.732E+01
   0.241E+01 0.418E+02 -.906E+03   -.249E+01 -.418E+02 0.898E+03   0.658E-01 0.327E-01 0.739E+01
   0.269E+02 0.269E+02 0.987E+03   -.271E+02 -.271E+02 -.978E+03   0.143E+00 0.143E+00 -.770E+01
   -.848E-09 -.694E-08 0.103E+04   0.229E-08 0.189E-07 -.102E+04   0.000E+00 0.000E+00 -.751E+01
   0.113E+03 0.253E+02 -.755E+03   -.113E+03 -.264E+02 0.749E+03   0.246E-01 0.776E+00 0.600E+01
   0.253E+02 0.113E+03 -.755E+03   -.264E+02 -.113E+03 0.749E+03   0.776E+00 0.246E-01 0.600E+01
   0.257E+02 -.257E+02 0.992E+03   -.256E+02 0.256E+02 -.985E+03   -.525E-01 0.525E-01 -.655E+01
   -.223E+01 -.359E+02 0.970E+03   0.245E+01 0.361E+02 -.962E+03   -.160E+00 -.976E-01 -.749E+01
   0.308E+02 -.687E+02 -.877E+03   -.306E+02 0.696E+02 0.870E+03   -.123E+00 -.696E+00 0.742E+01
   -.253E+02 -.113E+03 -.755E+03   0.264E+02 0.113E+03 0.749E+03   -.776E+00 -.246E-01 0.600E+01
   0.789E+01 -.225E+02 0.947E+03   -.786E+01 0.227E+02 -.939E+03   -.224E-01 -.167E+00 -.748E+01
   -.415E+00 -.119E+02 0.939E+03   0.441E+00 0.120E+02 -.931E+03   -.197E-01 -.328E-01 -.746E+01
[...]
   -.124E+02 0.909E+01 0.708E+03   0.125E+02 -.913E+01 -.712E+03   -.108E+00 0.483E-01 0.355E+01
   -.460E+01 0.535E+01 0.702E+03   0.463E+01 -.537E+01 -.706E+03   -.398E-01 0.241E-01 0.354E+01
   -.284E+02 0.916E+01 -.683E+03   0.284E+02 -.912E+01 0.687E+03   -.112E+00 -.545E-01 -.363E+01
   -.132E+02 -.542E+00 -.689E+03   0.132E+02 0.564E+00 0.693E+03   -.189E-01 -.308E-01 -.361E+01
   -.185E+02 -.811E+00 0.713E+03   0.186E+02 0.876E+00 -.717E+03   -.674E-01 -.885E-01 0.352E+01
   -.844E+01 0.356E+01 0.705E+03   0.848E+01 -.355E+01 -.709E+03   -.516E-01 -.108E-01 0.354E+01
   -.253E+02 -.107E+02 -.684E+03   0.253E+02 0.107E+02 0.688E+03   0.116E-01 -.538E-01 -.365E+01
   -.795E+01 -.733E+01 -.692E+03   0.794E+01 0.734E+01 0.695E+03   0.199E-01 -.704E-02 -.361E+01
   -.114E+02 -.889E+01 0.707E+03   0.114E+02 0.890E+01 -.711E+03   0.821E-02 -.145E-01 0.352E+01
   -.780E+01 -.394E+01 0.705E+03   0.780E+01 0.396E+01 -.709E+03   -.961E-03 -.253E-01 0.353E+01
   -.100E+02 -.100E+02 -.691E+03   0.100E+02 0.100E+02 0.695E+03   0.175E-01 0.175E-01 -.361E+01
   -.357E+01 -.357E+01 -.694E+03   0.356E+01 0.356E+01 0.698E+03   0.849E-02 0.849E-02 -.359E+01
   -.511E+01 -.401E+01 0.702E+03   0.511E+01 0.400E+01 -.706E+03   -.104E-02 0.133E-01 0.354E+01
   -.401E+01 -.511E+01 0.702E+03   0.400E+01 0.511E+01 -.706E+03   0.133E-01 -.104E-02 0.354E+01
   0.200E-06 0.116E-05 0.163E+02   0.186E-11 0.838E-12 0.231E-10   0.125E-14 0.366E-15 -.155E+02

 POSITION                                       TOTAL-FORCE (eV/Angst)
     11.47244      9.66642     13.67302        -0.425416      0.425416     -0.122809
      9.66642     11.47244     13.67302         0.425416     -0.425416     -0.122809
      0.00000      0.00000      9.00000         0.000000     -0.000000      0.589931
      2.11389      2.11389      9.00000         0.001884      0.001884      0.590627
      0.00000      2.11389     11.11389         0.003774     -0.000791     -0.575178
      2.11389      0.00000     11.11389        -0.000791      0.003774     -0.575178
      0.00000      4.22777      9.00000         0.007828     -0.002220      0.590591
      2.11389      6.34166      9.00000         0.004929     -0.003713      0.592029
      0.00000      6.34166     11.11389         0.008651     -0.001037     -0.573534
      2.11389      4.22777     11.11389         0.005601      0.000776     -0.573694
      0.00000      8.45554      9.00000         0.006935     -0.001216      0.591505
      2.11389     10.56943      9.00000        -0.010961     -0.006755      0.592844
      0.00000     10.56943     11.11389         0.000000     -0.000000     -0.572381
      2.11389      8.45554     11.11389         0.005083     -0.004886     -0.570222
      0.00000     12.68331      9.00000        -0.006935      0.001216      0.591505
      2.11389     14.79720      9.00000        -0.019464      0.002703      0.591130
      0.00000     14.79720     11.11389        -0.008651      0.001037     -0.573534
      2.11389     12.68331     11.11389        -0.013795     -0.003879     -0.571187
      0.00000     16.91108      9.00000        -0.007828      0.002220      0.590591
      2.11389     19.02497      9.00000        -0.005966      0.005966      0.589873
      0.00000     19.02497     11.11389        -0.003774      0.000791     -0.575178
      2.11389     16.91108     11.11389        -0.011100      0.004219     -0.574152
      4.22777      0.00000      9.00000        -0.002220      0.007828      0.590591
      6.34166      2.11389      9.00000        -0.003713      0.004929      0.592029
      4.22777      2.11389     11.11389         0.000776      0.005601     -0.573694
      6.34166      0.00000     11.11389        -0.001037      0.008651     -0.573534
      4.22777      4.22777      9.00000         0.000879      0.000879      0.593389
      6.34166      6.34166      9.00000        -0.007073     -0.007073      0.605987
      4.22777      6.34166     11.11389         0.011668     -0.001260     -0.566482
      6.34166      4.22777     11.11389        -0.001260      0.011668     -0.566482
      4.22777      8.45554      9.00000        -0.003049     -0.017071      0.596467
      6.34166     10.56943      9.00000        -0.035940     -0.058529      0.593283
      4.22777     10.56943     11.11389        -0.008604     -0.019463     -0.558723
      6.34166      8.45554     11.11389         0.052132     -0.015583     -0.518757
      4.22777     12.68331      9.00000        -0.053462     -0.007581      0.597973
      6.34166     14.79720      9.00000        -0.040976      0.040976      0.572720
      4.22777     14.79720     11.11389        -0.035955      0.003972     -0.570090
      6.34166     12.68331     11.11389        -0.207887     -0.044890     -0.545936
      4.22777     16.91108      9.00000        -0.015935      0.015935      0.588260
      6.34166     19.02497      9.00000        -0.002703      0.019464      0.591130
      4.22777     19.02497     11.11389        -0.004219      0.011100     -0.574152
      6.34166     16.91108     11.11389        -0.003972      0.035955     -0.570090
      8.45554      0.00000      9.00000        -0.001216      0.006935      0.591505
     10.56943      2.11389      9.00000        -0.006755     -0.010961      0.592844
      8.45554      2.11389     11.11389        -0.004886      0.005083     -0.570222
     10.56943      0.00000     11.11389         0.000000     -0.000000     -0.572381
      8.45554      4.22777      9.00000        -0.017071     -0.003049      0.596467
     10.56943      6.34166      9.00000        -0.058529     -0.035940      0.593283
      8.45554      6.34166     11.11389        -0.015583      0.052132     -0.518757
     10.56943      4.22777     11.11389        -0.019463     -0.008604     -0.558723
      8.45554      8.45554      9.00000        -0.045685     -0.045685      0.650950
     10.56943     10.56943      9.00000         0.000000     -0.000000      0.535498
      8.45554     10.56943     11.11389        -0.079295     -0.326367     -0.304782
     10.56943      8.45554     11.11389        -0.326367     -0.079295     -0.304782
      8.45554     12.68331      9.00000         0.021752     -0.021752      0.306849
     10.56943     14.79720      9.00000         0.058529      0.035940      0.593283
      8.45554     14.79720     11.11389         0.044890      0.207887     -0.545936
     10.56943     12.68331     11.11389         0.326367      0.079295     -0.304782
      8.45554     16.91108      9.00000         0.007581      0.053462      0.597973
     10.56943     19.02497      9.00000         0.006755      0.010961      0.592844
[...]
     19.02497      6.34166     11.11389        -0.014615      0.002295      0.289424
     16.91108      6.34166      9.00000        -0.030101      0.013310     -0.305471
     19.02497      4.22777      9.00000        -0.011059      0.006708     -0.307794
     16.91108      8.45554     11.11389        -0.032865     -0.015005      0.282553
     19.02497     10.56943     11.11389        -0.005434     -0.008639      0.286250
     16.91108     10.56943      9.00000        -0.018985     -0.023988     -0.314030
     19.02497      8.45554      9.00000        -0.014378     -0.002953     -0.308920
     16.91108     12.68331     11.11389         0.002843     -0.015382      0.277154
     19.02497     14.79720     11.11389         0.005573     -0.001976      0.288545
     16.91108     14.79720      9.00000         0.002204     -0.004128     -0.313667
     19.02497     12.68331      9.00000        -0.000268     -0.007057     -0.310862
     16.91108     16.91108     11.11389         0.004852      0.004852      0.287454
     19.02497     19.02497     11.11389         0.002349      0.002349      0.291463
     16.91108     19.02497      9.00000        -0.000308      0.003677     -0.309316
     19.02497     16.91108      9.00000         0.003677     -0.000308     -0.309316
    total drift:                                0.000000      0.000001      0.779546

  FREE ENERGIE OF THE ION-ELECTRON SYSTEM (eV)
  free  energy   TOTEN  =     -1760.00209992 eV

  energy  without entropy=    -1760.00209992  energy(sigma->0) =    -1760.00209992