 vasp.6.4.0 14Feb23 (build Dec 05 2023 14:15:48) complex

 executed on             LinuxIFC date 2023.12.06  18:11:10

 INCAR:
   SYSTEM = MgO-rocksalt
   ISMEAR = 0
   SIGMA = 0.05
   EDIFF = 1E-6
   ALGO = ALL
   ISTART = 0
   IBRION = -1
   NSW = 0
   ISYM = 0
   DIPOL = 0.5 0.5 0.5
   IDIPOL = 3
   LDIPOL = .TRUE.
   METAGGA = TPSS
   ENCUT = 520
   PREC = Accurate
   LASPH = .TRUE.
   LREAL = Auto
   ISPIN = 1
   NELM = 2000
   NELMIN = 8
   NCORE = 16
   KPAR = 1
   LWAVE = .FALSE.
   LCHARG = .FALSE.

 POTCAR:    PAW_PBE Cu 22Jun2005
 POTCAR:    PAW_PBE Mg_pv 13Apr2007
 POTCAR:    PAW_PBE O 08Apr2002
 POTCAR:    PAW_PBE Cu 22Jun2005
   VRHFIN =Cu: d10 p1

   TITEL  = PAW_PBE Cu 22Jun2005
   POMASS =   63.546; ZVAL   =   11.000    mass and valenz
   ENMAX  =  295.446; ENMIN  =  221.585 eV

   TITEL  = PAW_PBE Mg_pv 13Apr2007
   POMASS =   24.305; ZVAL   =    8.000    mass and valenz
   ENMAX  =  403.929; ENMIN  =  302.947 eV

   TITEL  = PAW_PBE O 08Apr2002
   POMASS =   16.000; ZVAL   =    6.000    mass and valenz
   ENMAX  =  400.000; ENMIN  =  300.000 eV

 Optimization of the real space projectors (new method)

 maximal supplied QI-value         = 16.25
 optimisation between [QCUT,QGAM] = [ 11.54, 23.24] = [ 37.28,151.24] Ry
 Optimized for a Real-space Cutoff    1.53 Angstroem

   l    n(q)    QCUT    max X(q) W(low)/X(q) W(high)/X(q)  e(spline)
   2     10    11.539     4.610    0.96E-04    0.13E-03    0.19E-06
   2     10    11.539     8.522    0.16E-03    0.21E-03    0.28E-06
   0     11    11.539    51.609    0.45E-04    0.31E-04    0.11E-06
   0     11    11.539    27.747    0.39E-04    0.29E-04    0.10E-06
   1     10    11.539    20.408    0.70E-05    0.38E-04    0.18E-06
   1     10    11.539    13.425    0.66E-05    0.34E-04    0.17E-06
 Optimization of the real space projectors (new method)

[...]

   l    n(q)    QCUT    max X(q) W(low)/X(q) W(high)/X(q)  e(spline)
   1      8    11.527     2.974    0.44E-04    0.56E-04    0.12E-06
   1      8    11.527     4.279    0.12E-03    0.12E-03    0.26E-06
   0      9    11.527    16.381    0.46E-04    0.64E-04    0.78E-07
   0      9    11.527     5.611    0.26E-04    0.43E-04    0.55E-07
   2      8    11.527     4.652    0.22E-03    0.72E-04    0.47E-07
 Optimization of the real space projectors (new method)

 maximal supplied QI-value         = 24.76
 optimisation between [QCUT,QGAM] = [ 11.64, 23.27] = [ 37.91,151.63] Ry
 Optimized for a Real-space Cutoff    1.14 Angstroem

   l    n(q)    QCUT    max X(q) W(low)/X(q) W(high)/X(q)  e(spline)
   0      8    11.635    20.381    0.10E-03    0.33E-03    0.24E-06
   0      8    11.635    15.268    0.11E-03    0.35E-03    0.26E-06
   1      7    11.635     5.964    0.24E-03    0.31E-03    0.30E-06
   1      7    11.635     5.382    0.22E-03    0.25E-03    0.26E-06
  PAW_PBE Cu 22Jun2005                  :
  PAW_PBE Mg_pv 13Apr2007               :
  PAW_PBE O 08Apr2002                   :

 POSCAR: Cu Mg  O
  positions in direct lattice
  velocities in cartesian coordinates

 METAGGA = TPSS                                        LMAXTAU =  6    LMIXTAU =  F

 ion  position               nearest neighbor table
   1  0.400  0.417  0.591- 153 1.98   4 2.26   3 2.42   2 2.42  55 2.62
   2  0.490  0.488  0.600- 154 2.19   4 2.37   1 2.42
   3  0.310  0.488  0.600- 134 2.19   4 2.37   1 2.42
   4  0.400  0.492  0.664-   1 2.26   2 2.37   3 2.37
   5  0.000  0.000  0.407- 107 2.11 108 2.11 123 2.11 188 2.11 105 2.11
   6  0.100  0.100  0.407- 107 2.11 108 2.11 112 2.11 127 2.11 106 2.11
   7  0.000  0.100  0.503- 105 2.11 106 2.11 109 2.11 186 2.11 107 2.11
   8  0.100  0.000  0.503- 105 2.11 106 2.11 122 2.11 125 2.11 108 2.11
   9  0.000  0.200  0.407- 111 2.11 107 2.11 112 2.11 192 2.11 109 2.11
  10  0.100  0.300  0.407- 112 2.11 111 2.11 116 2.11 131 2.11 110 2.11
  11  0.000  0.300  0.503- 109 2.11 110 2.11 113 2.11 190 2.11 111 2.11
  12  0.100  0.200  0.503- 110 2.11 109 2.11 106 2.11 129 2.11 112 2.11
  13  0.000  0.400  0.407- 111 2.11 115 2.11 116 2.11 196 2.11 113 2.11
  14  0.100  0.500  0.407- 115 2.11 116 2.11 120 2.11 135 2.11 114 2.11
  15  0.000  0.500  0.503- 113 2.11 114 2.11 117 2.11 194 2.11 115 2.11
  16  0.100  0.400  0.503- 110 2.11 113 2.11 114 2.11 133 2.11 116 2.11
  17  0.000  0.600  0.407- 115 2.11 119 2.11 120 2.11 200 2.11 117 2.11
  18  0.100  0.700  0.407- 124 2.11 120 2.11 119 2.11 139 2.11 118 2.11
  19  0.000  0.700  0.503- 121 2.11 118 2.11 117 2.11 198 2.11 119 2.11
  20  0.100  0.600  0.503- 114 2.11 117 2.11 118 2.11 137 2.11 120 2.11
  21  0.000  0.800  0.407- 119 2.11 123 2.11 124 2.11 204 2.11 121 2.11
  22  0.100  0.900  0.407- 108 2.11 123 2.11 124 2.11 143 2.11 122 2.11
  23  0.000  0.900  0.503- 105 2.11 121 2.11 122 2.11 202 2.11 123 2.11
  24  0.100  0.800  0.503- 118 2.11 121 2.11 122 2.11 141 2.11 124 2.11
  25  0.200  0.000  0.407- 128 2.11 127 2.11 108 2.11 143 2.11 125 2.11
  26  0.300  0.100  0.407- 127 2.11 128 2.11 132 2.11 147 2.11 126 2.11
  27  0.200  0.100  0.503- 126 2.11 125 2.11 106 2.11 129 2.11 127 2.11
  28  0.300  0.000  0.503- 125 2.11 126 2.11 142 2.11 145 2.11 128 2.11
  29  0.200  0.200  0.407- 131 2.11 132 2.11 112 2.11 127 2.11 129 2.11
  30  0.300  0.300  0.407- 131 2.11 132 2.11 136 2.11 151 2.11 130 2.11
  31  0.200  0.300  0.503- 129 2.11 130 2.11 110 2.11 133 2.11 131 2.11
  32  0.300  0.200  0.503- 129 2.11 130 2.11 126 2.11 149 2.11 132 2.11
  33  0.200  0.400  0.407- 136 2.11 131 2.11 135 2.11 116 2.11 133 2.11
  34  0.300  0.500  0.407- 135 2.11 136 2.11 140 2.11 155 2.11 134 2.11
  35  0.200  0.500  0.503- 134 2.11 133 2.11 114 2.11 137 2.11 135 2.11
  36  0.300  0.400  0.503- 133 2.11 130 2.11 134 2.11 153 2.11 136 2.11
  37  0.200  0.600  0.407- 140 2.11 135 2.11 139 2.11 120 2.11 137 2.11
  38  0.300  0.700  0.407- 139 2.11 144 2.11 140 2.11 159 2.11 138 2.11
  39  0.200  0.700  0.503- 138 2.11 141 2.11 118 2.11 137 2.11 139 2.11
  40  0.300  0.600  0.503- 137 2.11 134 2.11 138 2.11 157 2.11 140 2.11
  41  0.200  0.800  0.407- 139 2.11 144 2.11 143 2.11 124 2.11 141 2.11
  42  0.300  0.900  0.407- 143 2.11 128 2.11 144 2.11 163 2.11 142 2.11
  43  0.200  0.900  0.503- 142 2.11 125 2.11 141 2.11 122 2.11 143 2.11
  44  0.300  0.800  0.503- 138 2.11 141 2.11 142 2.11 161 2.11 144 2.11
  45  0.400  0.000  0.407- 128 2.11 147 2.11 148 2.11 163 2.11 145 2.11
  46  0.500  0.100  0.407- 147 2.11 148 2.11 152 2.11 167 2.11 146 2.11
  47  0.400  0.100  0.503- 126 2.11 145 2.11 146 2.11 149 2.11 147 2.11
  48  0.500  0.000  0.503- 145 2.11 146 2.11 162 2.11 165 2.11 148 2.11
  49  0.400  0.200  0.407- 151 2.11 147 2.11 132 2.11 152 2.11 149 2.11
  50  0.500  0.300  0.407- 152 2.11 151 2.11 156 2.11 171 2.11 150 2.11
  51  0.400  0.300  0.503- 149 2.11 130 2.11 150 2.11 153 2.11 151 2.11
  52  0.500  0.200  0.503- 150 2.11 149 2.11 146 2.11 169 2.11 152 2.11
  53  0.400  0.400  0.407- 136 2.11 151 2.11 155 2.11 156 2.11 153 2.11
  54  0.500  0.500  0.407- 155 2.11 156 2.11 160 2.11 175 2.11 154 2.11
  55  0.400  0.500  0.503- 134 2.11 153 2.11 154 2.11 157 2.11 155 2.11   1 2.62
  56  0.500  0.400  0.503- 150 2.11 153 2.11 154 2.11 173 2.11 156 2.11
  57  0.400  0.600  0.407- 140 2.11 155 2.11 159 2.11 160 2.11 157 2.11
  58  0.500  0.700  0.407- 164 2.11 160 2.11 159 2.11 179 2.11 158 2.11
  59  0.400  0.700  0.503- 161 2.11 157 2.11 158 2.11 138 2.11 159 2.11
  60  0.500  0.600  0.503- 154 2.11 157 2.11 158 2.11 177 2.11 160 2.11
[...]
 190  0.900  0.300  0.503-  92 2.11  91 2.11  11 2.11  96 2.11  90 2.11
 191  0.800  0.300  0.407-  70 2.11  89 2.11  90 2.11  93 2.11  91 2.11
 192  0.900  0.200  0.407-  90 2.11  86 2.11  89 2.11   9 2.11  92 2.11
 193  0.800  0.400  0.503-  76 2.11  91 2.11  95 2.11  96 2.11  93 2.11
 194  0.900  0.500  0.503-  15 2.11  95 2.11  96 2.11 100 2.11  94 2.11
 195  0.800  0.500  0.407-  74 2.11  93 2.11  94 2.11  97 2.11  95 2.11
 196  0.900  0.400  0.407-  13 2.11  90 2.11  93 2.11  94 2.11  96 2.11
 197  0.800  0.600  0.503-  80 2.11  95 2.11  99 2.11 100 2.11  97 2.11
 198  0.900  0.700  0.503- 104 2.11  99 2.11 100 2.11  19 2.11  98 2.11
 199  0.800  0.700  0.407-  78 2.11 101 2.11  98 2.11  97 2.11  99 2.11
 200  0.900  0.600  0.407-  17 2.11  94 2.11  97 2.11  98 2.11 100 2.11
 201  0.800  0.800  0.503-  84 2.11  99 2.11 103 2.11 104 2.11 101 2.11
 202  0.900  0.900  0.503-  23 2.11  88 2.11 103 2.11 104 2.11 102 2.11
 203  0.800  0.900  0.407-  82 2.11  85 2.11 101 2.11 102 2.11 103 2.11
 204  0.900  0.800  0.407-  98 2.11  21 2.11 101 2.11 102 2.11 104 2.11

IMPORTANT INFORMATION: All symmetrisations will be switched off!
NOSYMM: (Re-)initialisation of all symmetry stuff for point group C_1.

                                     Primitive cell

  volume of cell :    9881.6133

  direct lattice vectors                    reciprocal lattice vectors
    21.138852197  0.000000000  0.000000000     0.047306258  0.000000000  0.000000000
     0.000000000 21.138852197  0.000000000     0.000000000  0.047306258  0.000000000
     0.000000000  0.000000000 22.113885220     0.000000000  0.000000000  0.045220457

  length of vectors
    21.138852197 21.138852197 22.113885220     0.047306258  0.047306258  0.045220457

  position of ions in fractional coordinates (direct lattice)
     0.400000448  0.417421820  0.590666055
     0.489930887  0.487828399  0.600479320
     0.310074740  0.487828788  0.600479320
     0.400005179  0.491990244  0.664187608
     0.000000000  0.000000000  0.406984115
     0.100000000  0.100000000  0.406984115
     0.000000000  0.100000000  0.502574971
     0.100000000  0.000000000  0.502574971
     0.000000000  0.200000000  0.406984115
     0.100000000  0.300000000  0.406984115
     0.000000000  0.300000000  0.502574971
     0.100000000  0.200000000  0.502574971
     0.000000000  0.400000000  0.406984115
     0.100000000  0.500000000  0.406984115
     0.000000000  0.500000000  0.502574971
     0.100000000  0.400000000  0.502574971
     0.000000000  0.600000000  0.406984115
     0.100000000  0.700000000  0.406984115
     0.000000000  0.700000000  0.502574971
     0.100000000  0.600000000  0.502574971
     0.000000000  0.800000000  0.406984115
     0.100000000  0.900000000  0.406984115
     0.000000000  0.900000000  0.502574971
     0.100000000  0.800000000  0.502574971
     0.200000000  0.000000000  0.406984115
     0.300000000  0.100000000  0.406984115
     0.200000000  0.100000000  0.502574971
     0.300000000  0.000000000  0.502574971
     0.200000000  0.200000000  0.406984115
     0.300000000  0.300000000  0.406984115
     0.200000000  0.300000000  0.502574971
     0.300000000  0.200000000  0.502574971
     0.200000000  0.400000000  0.406984115
     0.300000000  0.500000000  0.406984115
     0.200000000  0.500000000  0.502574971
     0.300000000  0.400000000  0.502574971
     0.200000000  0.600000000  0.406984115
     0.300000000  0.700000000  0.406984115
     0.200000000  0.700000000  0.502574971
     0.300000000  0.600000000  0.502574971
     0.200000000  0.800000000  0.406984115
     0.300000000  0.900000000  0.406984115
     0.200000000  0.900000000  0.502574971
     0.300000000  0.800000000  0.502574971
     0.400000000  0.000000000  0.406984115
[...]
     52     -43.3755      2.00000
     53     -43.3754      2.00000
     54     -43.3735      2.00000
     55     -43.3715      2.00000
     56     -43.3667      2.00000
     57     -43.3666      2.00000
     58     -43.3661      2.00000
     59     -43.3653      2.00000
     60     -43.3653      2.00000
[...]
    882       4.9084      0.00000
    883       4.9154      0.00000
    884       4.9444      0.00000
    885       4.9873      0.00000
    886       5.0124      0.00000
    887       5.0220      0.00000
    888       5.0371      0.00000
    889       5.0585      0.00000
    890       5.0699      0.00000
    891       5.1105      0.00000
    892       5.1752      0.00000
    893       5.2017      0.00000
    894       5.2025      0.00000
    895       5.2599      0.00000
    896       5.2924      0.00000

 soft charge-density along one line, spin component           1
         0         1         2         3         4         5         6         7         8         9
 total charge-density along one line

------------------------ aborting loop because EDIFF is reached ----------------------------------------

  FORCE on cell =-STRESS in cart. coord.  units (eV):
  Direction    XX          YY          ZZ          XY          YZ          ZX
  Alpha Z  1394.80054  1394.80054  1394.80054
  Ewald  487008.22575485627.98407************     0.00456   493.91026     0.00668
  Hartree516731.01707515533.43483************     0.00717   373.91120     0.01043
  E(xc)   -8384.71876 -8385.22325 -8410.21099     0.00001    -0.02639     0.00002
  Local  ************************************    -0.01191  -861.54051    -0.01756
  n-local -9043.00826 -9046.18260 -9171.07575    -0.00005    -0.33114    -0.00023
  augment  4219.42972  4219.73793  4163.52606     0.00006    -2.88418     0.00023
  Kinetic 23079.90491 23078.94502 23320.42787     0.00000    -3.09704    -0.00015
  Fock        0.00000     0.00000     0.00000     0.00000     0.00000     0.00000
  Total    -163.86611  -163.50524     7.76756    -0.00016    -0.05780    -0.00059
  in kB     -26.56880   -26.51028     1.25941    -0.00003    -0.00937    -0.00010

 VOLUME and BASIS-vectors are now :
  energy-cutoff  :      520.00
  volume of cell :     9881.61
      direct lattice vectors                 reciprocal lattice vectors
    21.138852197  0.000000000  0.000000000     0.047306258  0.000000000  0.000000000
     0.000000000 21.138852197  0.000000000     0.000000000  0.047306258  0.000000000
     0.000000000  0.000000000 22.113885220     0.000000000  0.000000000  0.045220457

  length of vectors
    21.138852197 21.138852197 22.113885220     0.047306258  0.047306258  0.045220457

 FORCES acting on ions:
    Electron-Ion                     Ewald-Force                    Non-Local-Force
   0.538E-02 0.599E+03 -.197E+04   -.580E-02 -.593E+03 0.198E+04   0.436E-03 -.605E+01 -.200E+01
   -.601E+03 -.172E+03 -.205E+04   0.595E+03 0.168E+03 0.205E+04   0.595E+01 0.425E+01 -.609E+01
   0.601E+03 -.172E+03 -.205E+04   -.595E+03 0.168E+03 0.205E+04   -.595E+01 0.425E+01 -.609E+01
   -.240E-02 -.264E+03 -.243E+04   0.277E-02 0.258E+03 0.242E+04   -.673E-03 0.624E+01 0.995E+01
   0.681E+01 0.257E+01 0.937E+03   -.683E+01 -.257E+01 -.928E+03   0.154E-01 0.552E-02 -.794E+01
   0.150E+02 0.152E+02 0.942E+03   -.151E+02 -.153E+02 -.933E+03   0.466E-01 0.319E-01 -.795E+01
   0.108E+02 0.133E+02 -.919E+03   -.109E+02 -.133E+02 0.911E+03   0.208E-01 0.144E-02 0.786E+01
   0.139E+02 0.454E+01 -.918E+03   -.140E+02 -.455E+01 0.910E+03   0.220E-01 0.109E-01 0.786E+01
   0.128E+02 0.160E+02 0.942E+03   -.129E+02 -.160E+02 -.934E+03   0.429E-01 0.115E-01 -.796E+01
   0.361E+02 0.255E+02 0.960E+03   -.363E+02 -.255E+02 -.951E+03   0.167E+00 0.382E-01 -.800E+01
   0.262E+02 0.207E+02 -.912E+03   -.262E+02 -.207E+02 0.904E+03   0.290E-01 -.862E-02 0.784E+01
   0.323E+02 0.330E+02 -.910E+03   -.324E+02 -.330E+02 0.902E+03   0.725E-01 0.104E-03 0.784E+01
   0.238E+02 0.841E+01 0.952E+03   -.239E+02 -.842E+01 -.943E+03   0.814E-01 0.357E-02 -.798E+01
   0.515E+02 -.622E+01 0.974E+03   -.519E+02 0.623E+01 -.965E+03   0.302E+00 -.663E-02 -.807E+01
   0.376E+02 -.452E+01 -.907E+03   -.376E+02 0.452E+01 0.899E+03   0.199E-01 0.301E-02 0.783E+01
   0.826E+02 0.251E+02 -.887E+03   -.827E+02 -.251E+02 0.879E+03   0.871E-01 -.199E-01 0.778E+01
   0.210E+02 -.134E+02 0.950E+03   -.211E+02 0.134E+02 -.941E+03   0.755E-01 -.850E-02 -.797E+01
   0.278E+02 -.260E+02 0.953E+03   -.279E+02 0.260E+02 -.945E+03   0.831E-01 -.553E-01 -.796E+01
   0.207E+02 -.217E+02 -.914E+03   -.207E+02 0.217E+02 0.906E+03   0.316E-01 0.412E-02 0.785E+01
   0.683E+02 -.363E+02 -.893E+03   -.685E+02 0.363E+02 0.885E+03   0.166E+00 0.279E-01 0.781E+01
   0.100E+02 -.135E+02 0.940E+03   -.100E+02 0.135E+02 -.932E+03   0.217E-01 -.120E-01 -.795E+01
   0.122E+02 -.855E+01 0.940E+03   -.123E+02 0.856E+01 -.931E+03   0.223E-01 -.835E-02 -.795E+01
   0.887E+01 -.777E+01 -.920E+03   -.888E+01 0.777E+01 0.911E+03   0.103E-01 -.353E-04 0.786E+01
   0.232E+02 -.261E+02 -.914E+03   -.233E+02 0.262E+02 0.906E+03   0.209E-01 -.187E-01 0.785E+01
   0.120E+02 0.515E+01 0.942E+03   -.121E+02 -.519E+01 -.933E+03   0.281E-01 0.302E-01 -.795E+01
   0.110E+02 0.289E+02 0.952E+03   -.111E+02 -.291E+02 -.943E+03   0.383E-01 0.136E+00 -.796E+01
   0.217E+02 0.305E+02 -.912E+03   -.217E+02 -.305E+02 0.904E+03   0.445E-01 0.514E-01 0.785E+01
   0.967E+01 0.905E+01 -.914E+03   -.969E+01 -.911E+01 0.906E+03   0.156E-01 0.411E-01 0.786E+01
   0.276E+02 0.372E+02 0.960E+03   -.277E+02 -.374E+02 -.952E+03   0.127E+00 0.127E+00 -.798E+01
   0.374E+02 0.673E+02 0.102E+04   -.378E+02 -.679E+02 -.101E+04   0.309E+00 0.462E+00 -.802E+01
   0.835E+02 0.800E+02 -.872E+03   -.838E+02 -.800E+02 0.864E+03   0.283E+00 -.323E-02 0.773E+01
   0.325E+02 0.871E+02 -.887E+03   -.326E+02 -.874E+02 0.878E+03   0.742E-01 0.237E+00 0.782E+01
   0.681E+02 0.278E+02 0.101E+04   -.688E+02 -.280E+02 -.100E+04   0.574E+00 0.118E+00 -.818E+01
   0.584E+02 -.240E+02 0.109E+04   -.591E+02 0.244E+02 -.108E+04   0.528E+00 -.277E+00 -.671E+01
   0.182E+03 -.296E+02 -.788E+03   -.184E+03 0.294E+02 0.781E+03   0.130E+01 0.115E+00 0.727E+01
   0.184E+03 0.161E+03 -.640E+03   -.187E+03 -.162E+03 0.634E+03   0.202E+01 0.823E+00 0.532E+01
   0.542E+02 -.416E+02 0.997E+03   -.546E+02 0.418E+02 -.989E+03   0.269E+00 -.197E+00 -.798E+01
   0.231E+02 -.585E+02 0.985E+03   -.231E+02 0.589E+02 -.977E+03   0.542E-01 -.320E+00 -.806E+01
   0.527E+02 -.687E+02 -.889E+03   -.527E+02 0.689E+02 0.881E+03   0.263E-01 -.139E+00 0.781E+01
   0.902E+02 -.176E+03 -.763E+03   -.903E+02 0.177E+03 0.755E+03   0.221E-01 -.127E+01 0.736E+01
   0.192E+02 -.283E+02 0.951E+03   -.193E+02 0.284E+02 -.943E+03   0.351E-01 -.759E-01 -.797E+01
   0.830E+01 -.149E+02 0.946E+03   -.832E+01 0.149E+02 -.938E+03   0.142E-01 -.166E-01 -.795E+01
   0.162E+02 -.161E+02 -.915E+03   -.162E+02 0.161E+02 0.907E+03   0.175E-01 -.266E-03 0.786E+01
   0.182E+02 -.563E+02 -.902E+03   -.182E+02 0.563E+02 0.893E+03   0.123E-01 -.397E-01 0.784E+01
   0.224E-03 0.732E+01 0.946E+03   -.217E-03 -.740E+01 -.937E+03   -.134E-05 0.584E-01 -.795E+01
   -.110E+02 0.289E+02 0.952E+03   0.111E+02 -.291E+02 -.943E+03   -.383E-01 0.136E+00 -.796E+01
   0.390E-03 0.471E+02 -.906E+03   -.391E-03 -.472E+02 0.898E+03   -.515E-05 0.134E+00 0.785E+01
   -.967E+01 0.905E+01 -.914E+03   0.969E+01 -.911E+01 0.906E+03   -.156E-01 0.411E-01 0.786E+01
   0.499E-03 0.590E+02 0.979E+03   -.499E-03 -.596E+02 -.970E+03   -.388E-05 0.448E+00 -.803E+01
   -.374E+02 0.673E+02 0.102E+04   0.378E+02 -.679E+02 -.101E+04   -.309E+00 0.462E+00 -.802E+01
   0.193E-02 0.207E+03 -.777E+03   -.193E-02 -.210E+03 0.769E+03   0.567E-06 0.215E+01 0.779E+01
   -.325E+02 0.871E+02 -.887E+03   0.326E+02 -.874E+02 0.878E+03   -.742E-01 0.237E+00 0.782E+01
   0.143E-02 0.519E+02 0.111E+04   -.142E-02 -.523E+02 -.110E+04   -.171E-04 0.279E+00 -.554E+01
   -.584E+02 -.240E+02 0.109E+04   0.591E+02 0.244E+02 -.108E+04   -.528E+00 -.277E+00 -.671E+01
   0.161E-02 -.151E+03 -.464E+03   -.165E-02 0.154E+03 0.460E+03   0.398E-04 -.193E+01 0.435E+01
   -.184E+03 0.161E+03 -.640E+03   0.187E+03 -.162E+03 0.634E+03   -.202E+01 0.823E+00 0.532E+01
   0.117E-02 -.757E+02 0.105E+04   -.116E-02 0.766E+02 -.105E+04   -.563E-05 -.653E+00 -.817E+01
   -.231E+02 -.585E+02 0.985E+03   0.231E+02 0.589E+02 -.977E+03   -.542E-01 -.320E+00 -.806E+01
   0.128E-02 -.124E+03 -.859E+03   -.126E-02 0.124E+03 0.851E+03   -.150E-04 -.169E+00 0.778E+01
   -.902E+02 -.176E+03 -.763E+03   0.902E+02 0.177E+03 0.755E+03   -.221E-01 -.127E+01 0.736E+01
[...]
   -.140E+02 0.118E+02 0.712E+03   0.140E+02 -.118E+02 -.716E+03   -.512E-01 0.132E-01 0.346E+01
   -.246E-03 0.101E+02 0.706E+03   0.250E-03 -.101E+02 -.710E+03   0.320E-05 0.817E-02 0.348E+01
   -.264E+02 0.872E+01 -.682E+03   0.264E+02 -.872E+01 0.686E+03   -.293E-01 -.572E-02 -.368E+01
   -.729E-03 -.249E+01 -.685E+03   0.726E-03 0.248E+01 0.690E+03   0.897E-05 0.263E-02 -.365E+01
   -.187E+02 -.257E+01 0.716E+03   0.188E+02 0.257E+01 -.720E+03   -.593E-01 -.193E-02 0.345E+01
   -.457E-03 0.499E+01 0.711E+03   0.461E-03 -.499E+01 -.715E+03   0.528E-05 0.227E-02 0.346E+01
   -.231E+02 -.135E+02 -.683E+03   0.231E+02 0.135E+02 0.688E+03   -.324E-01 0.739E-02 -.366E+01
   -.444E-03 -.129E+02 -.688E+03   0.440E-03 0.129E+02 0.693E+03   0.579E-05 0.128E-02 -.362E+01
   -.113E+02 -.126E+02 0.710E+03   0.113E+02 0.126E+02 -.714E+03   -.418E-01 -.222E-01 0.347E+01
   -.440E-03 -.803E+01 0.710E+03   0.431E-03 0.804E+01 -.714E+03   0.524E-05 -.612E-02 0.347E+01
   -.970E+01 -.128E+02 -.689E+03   0.971E+01 0.128E+02 0.694E+03   -.203E-01 -.852E-02 -.362E+01
   -.196E-03 -.496E+01 -.692E+03   0.195E-03 0.496E+01 0.696E+03   0.100E-05 -.279E-03 -.361E+01
   -.544E+01 -.469E+01 0.704E+03   0.545E+01 0.470E+01 -.708E+03   -.165E-01 -.375E-02 0.349E+01
   -.215E-03 -.867E+01 0.705E+03   0.219E-03 0.867E+01 -.709E+03   0.499E-05 -.887E-02 0.348E+01
   0.134E-04 -.897E+01 0.132E+02   0.355E-11 -.711E-14 -.966E-11   -.307E-03 0.896E+01 -.139E+02

 POSITION                                       TOTAL-FORCE (eV/Angst)
      8.45555      8.82382     13.06192         0.000019      0.099031      0.121715
     10.35658     10.31213     13.27893        -0.087487     -0.034681     -0.017477
      6.55462     10.31214     13.27893         0.087405     -0.034648     -0.017288
      8.45565     10.40011     14.68777        -0.000317     -0.025395     -0.055562
      0.00000      0.00000      9.00000        -0.004291     -0.001553      0.411984
      2.11389      2.11389      9.00000        -0.012870     -0.008767      0.413453
      0.00000      2.11389     11.11389        -0.005502     -0.000330     -0.383322
      2.11389      0.00000     11.11389        -0.006088     -0.002902     -0.383677
      0.00000      4.22777      9.00000        -0.011320     -0.003086      0.415056
      2.11389      6.34166      9.00000        -0.043782     -0.010405      0.426142
      0.00000      6.34166     11.11389        -0.006422      0.002852     -0.373592
      2.11389      4.22777     11.11389        -0.018412      0.000582     -0.371558
      0.00000      8.45554      9.00000        -0.021550     -0.000914      0.420840
      2.11389     10.56943      9.00000        -0.076439      0.001376      0.439457
      0.00000     10.56943     11.11389        -0.002919     -0.001159     -0.367192
      2.11389      8.45554     11.11389        -0.015892      0.009019     -0.326950
      0.00000     12.68331      9.00000        -0.019559      0.002258      0.419281
      2.11389     14.79720      9.00000        -0.023307      0.015937      0.416462
      0.00000     14.79720     11.11389        -0.007815     -0.001174     -0.378137
      2.11389     12.68331     11.11389        -0.038465     -0.010425     -0.345046
      0.00000     16.91108      9.00000        -0.006000      0.003358      0.412954
      2.11389     19.02497      9.00000        -0.006257      0.002137      0.412827
      0.00000     19.02497     11.11389        -0.002865     -0.000077     -0.384893
      2.11389     16.91108     11.11389        -0.005778      0.004368     -0.379006
      4.22777      0.00000      9.00000        -0.007959     -0.008113      0.413088
      6.34166      2.11389      9.00000        -0.011242     -0.036160      0.416131
      4.22777      2.11389     11.11389        -0.012499     -0.012770     -0.376607
      6.34166      0.00000     11.11389        -0.004493     -0.010607     -0.380562
      4.22777      4.22777      9.00000        -0.035946     -0.035342      0.418279
      6.34166      6.34166      9.00000        -0.100258     -0.134265      0.405994
      4.22777      6.34166     11.11389        -0.058172      0.018013     -0.289142
      6.34166      4.22777     11.11389        -0.022571     -0.060070     -0.348951
      4.22777      8.45554      9.00000        -0.154217     -0.039795      0.449668
      6.34166     10.56943      9.00000        -0.146623      0.089212      0.113974
      4.22777     10.56943     11.11389        -0.438640     -0.041690     -0.221024
      6.34166      8.45554     11.11389        -0.756868     -0.426551     -0.031100
      4.22777     12.68331      9.00000        -0.082047      0.062745      0.407467
      6.34166     14.79720      9.00000        -0.014377      0.080909      0.436669
      4.22777     14.79720     11.11389        -0.005123      0.032405     -0.347526
      6.34166     12.68331     11.11389         0.015113      0.415083     -0.216154
      4.22777     16.91108      9.00000        -0.009821      0.019795      0.417539
      6.34166     19.02497      9.00000        -0.003990      0.004248      0.414518
      4.22777     19.02497     11.11389        -0.004879     -0.000333     -0.381354
      6.34166     16.91108     11.11389        -0.003416      0.007894     -0.369472
      8.45554      0.00000      9.00000         0.000007     -0.015254      0.414085
     10.56943      2.11389      9.00000         0.011246     -0.036167      0.416132
      8.45554      2.11389     11.11389        -0.000005     -0.033030     -0.372563
     10.56943      0.00000     11.11389         0.004483     -0.010606     -0.380615
      8.45554      4.22777      9.00000        -0.000002     -0.112048      0.428014
     10.56943      6.34166      9.00000         0.100253     -0.134272      0.405989
      8.45554      6.34166     11.11389        -0.000001     -0.698957     -0.396850
     10.56943      4.22777     11.11389         0.022567     -0.060072     -0.348954
      8.45554      8.45554      9.00000        -0.000000     -0.096916     -0.099359
     10.56943     10.56943      9.00000         0.146621      0.089210      0.113949
      8.45554     10.56943     11.11389        -0.000007      0.980755     -0.107145
     10.56943      8.45554     11.11389         0.756876     -0.426605     -0.031161
      8.45554     12.68331      9.00000         0.000002      0.187142      0.434878
     10.56943     14.79720      9.00000         0.014378      0.080918      0.436662
      8.45554     14.79720     11.11389         0.000004      0.033621     -0.320867
     10.56943     12.68331     11.11389        -0.015116      0.415111     -0.216136
[...]
     19.02497      6.34166     11.11389        -0.000002     -0.001696      0.490330
     16.91108      6.34166      9.00000        -0.014289      0.003657     -0.532359
     19.02497      4.22777      9.00000         0.000008      0.002199     -0.527894
     16.91108      8.45554     11.11389        -0.008585     -0.001484      0.478551
     19.02497     10.56943     11.11389         0.000007      0.000753      0.486722
     16.91108     10.56943      9.00000        -0.016836     -0.000558     -0.536752
     19.02497      8.45554      9.00000         0.000011      0.000559     -0.531738
     16.91108     12.68331     11.11389        -0.009372      0.001982      0.483132
     19.02497     14.79720     11.11389         0.000004      0.000444      0.493275
     16.91108     14.79720      9.00000        -0.011594     -0.006054     -0.529328
     19.02497     12.68331      9.00000        -0.000002     -0.001565     -0.530449
     16.91108     16.91108     11.11389        -0.005621     -0.002290      0.495432
     19.02497     19.02497     11.11389         0.000001     -0.000032      0.498404
     16.91108     19.02497      9.00000        -0.004558     -0.001001     -0.526003
     19.02497     16.91108      9.00000         0.000010     -0.002375     -0.526616
    total drift:                               -0.000293     -0.004062     -0.708143

  FREE ENERGIE OF THE ION-ELECTRON SYSTEM (eV)
  free  energy   TOTEN  =     -1797.81008220 eV

  energy  without entropy=    -1797.81008220  energy(sigma->0) =    -1797.81008220