 vasp.6.3.0 20Jan22 (build Apr  1 2022 16:44:48) complex
 executed on        HPECrayEX_GCC date 2022.08.15  21:29:38

 INCAR:
   SYSTEM = MgO-rocksalt
   ISMEAR = 0
   SIGMA = 0.05
   EDIFF = 1E-6
   ALGO = ALL
   ISTART = 0
   IBRION = -1
   NSW = 0
   ISYM = 2
   DIPOL = 0.5 0.5 0.5
   IDIPOL = 3
   LDIPOL = .TRUE.
   GGA = RE
   LUSE_VDW = .TRUE.
   AGGAC = 0.0
   ENCUT = 520
   PREC = Accurate
   LASPH = .TRUE.
   LREAL = Auto
   ISPIN = 1
   NELM = 200
   NELMIN = 8
   NCORE = 4
   KPAR = 2
   LWAVE = .FALSE.
   LCHARG = .FALSE.

 POTCAR:    PAW_PBE Ag 02Apr2005
 POTCAR:    PAW_PBE Mg_pv 13Apr2007
 POTCAR:    PAW_PBE O 08Apr2002
|               ----> ADVICE to this user running VASP <----                  |
|     You have switched on vdW-DFT.                                           |
|     This routine was written and supplied by Jiri Klimes. We recommend      |
|     that you carefully read and cite the following publications:            |
|       J. Klimes, D.R. Bowler, A. Michelides                                 |
|          J. Phys.: Cond Matt. 22 022201 (2010)                              |
|       J. Klimes, D.R. Bowler, A. Michelides                                 |
|          Phys. Rev. B. 83, 195131 (2011)                                    |
|     and references therein.                                                 |

   TITEL  = PAW_PBE Ag 02Apr2005
   POMASS =  107.868; ZVAL   =   11.000    mass and valenz
   ENMAX  =  249.844; ENMIN  =  187.383 eV

   TITEL  = PAW_PBE Mg_pv 13Apr2007
   POMASS =   24.305; ZVAL   =    8.000    mass and valenz
   ENMAX  =  403.929; ENMIN  =  302.947 eV

   TITEL  = PAW_PBE O 08Apr2002
   POMASS =   16.000; ZVAL   =    6.000    mass and valenz
   ENMAX  =  400.000; ENMIN  =  300.000 eV

 Optimization of the real space projectors (new method)

 maximal supplied QI-value         = 15.12
 optimisation between [QCUT,QGAM] = [ 11.64, 23.28] = [ 37.95,151.78] Ry
 Optimized for a Real-space Cutoff    1.45 Angstroem

   l    n(q)    QCUT    max X(q) W(low)/X(q) W(high)/X(q)  e(spline)
   2      9    11.641    53.897    0.22E-03    0.42E-04    0.28E-06
   2      9    11.641    52.416    0.23E-03    0.44E-04    0.29E-06
   0     10    11.641   122.045    0.51E-04    0.25E-04    0.16E-06
   0     10    11.641    73.629    0.49E-04    0.24E-04    0.16E-06
   1     10    11.641    15.255    0.99E-04    0.55E-04    0.11E-06
   1     10    11.641     9.562    0.81E-04    0.47E-04    0.95E-07
 Optimization of the real space projectors (new method)

[...]

   l    n(q)    QCUT    max X(q) W(low)/X(q) W(high)/X(q)  e(spline)
   1      8    11.527     2.974    0.44E-04    0.56E-04    0.12E-06
   1      8    11.527     4.279    0.12E-03    0.12E-03    0.26E-06
   0      9    11.527    16.381    0.46E-04    0.64E-04    0.78E-07
   0      9    11.527     5.611    0.26E-04    0.43E-04    0.55E-07
   2      8    11.527     4.652    0.22E-03    0.72E-04    0.47E-07
 Optimization of the real space projectors (new method)

 maximal supplied QI-value         = 24.76
 optimisation between [QCUT,QGAM] = [ 11.64, 23.27] = [ 37.91,151.63] Ry
 Optimized for a Real-space Cutoff    1.14 Angstroem

   l    n(q)    QCUT    max X(q) W(low)/X(q) W(high)/X(q)  e(spline)
   0      8    11.635    20.381    0.10E-03    0.33E-03    0.24E-06
   0      8    11.635    15.268    0.11E-03    0.35E-03    0.26E-06
   1      7    11.635     5.964    0.24E-03    0.31E-03    0.30E-06
   1      7    11.635     5.382    0.22E-03    0.25E-03    0.26E-06
|               ----> ADVICE to this user running VASP <----                  |
|     You enforced a specific xc type in the INCAR file but a different       |
|     type was found in the POTCAR file.                                      |
|     I HOPE YOU KNOW WHAT YOU ARE DOING!                                     |

  PAW_PBE Ag 02Apr2005                  :
  PAW_PBE Mg_pv 13Apr2007               :
  PAW_PBE O 08Apr2002                   :

 POSCAR: Ag Mg  O
  positions in direct lattice
 exchange correlation table for  LEXCH =       40
   RHO(1)=    0.500       N(1)  =     2000
   RHO(2)=  100.500       N(2)  =     4000

 ion  position               nearest neighbor table
   1  0.543  0.457  0.625-   2 2.59
   2  0.457  0.543  0.625-   1 2.59
   3  0.000  0.000  0.407- 105 2.11 106 2.11 121 2.11 186 2.11 103 2.11
   4  0.100  0.100  0.407- 105 2.11 106 2.11 110 2.11 125 2.11 104 2.11
   5  0.000  0.100  0.503- 103 2.11 104 2.11 107 2.11 184 2.11 105 2.11
   6  0.100  0.000  0.503- 103 2.11 104 2.11 120 2.11 123 2.11 106 2.11
   7  0.000  0.200  0.407- 109 2.11 105 2.11 110 2.11 190 2.11 107 2.11
   8  0.100  0.300  0.407- 110 2.11 109 2.11 114 2.11 129 2.11 108 2.11
   9  0.000  0.300  0.503- 107 2.11 108 2.11 111 2.11 188 2.11 109 2.11
  10  0.100  0.200  0.503- 108 2.11 107 2.11 104 2.11 127 2.11 110 2.11
  11  0.000  0.400  0.407- 109 2.11 113 2.11 114 2.11 194 2.11 111 2.11
  12  0.100  0.500  0.407- 113 2.11 114 2.11 118 2.11 133 2.11 112 2.11
  13  0.000  0.500  0.503- 111 2.11 112 2.11 115 2.11 192 2.11 113 2.11
  14  0.100  0.400  0.503- 108 2.11 111 2.11 112 2.11 131 2.11 114 2.11
  15  0.000  0.600  0.407- 113 2.11 117 2.11 118 2.11 198 2.11 115 2.11
  16  0.100  0.700  0.407- 122 2.11 118 2.11 117 2.11 137 2.11 116 2.11
  17  0.000  0.700  0.503- 119 2.11 116 2.11 115 2.11 196 2.11 117 2.11
  18  0.100  0.600  0.503- 112 2.11 115 2.11 116 2.11 135 2.11 118 2.11
  19  0.000  0.800  0.407- 117 2.11 121 2.11 122 2.11 202 2.11 119 2.11
  20  0.100  0.900  0.407- 106 2.11 121 2.11 122 2.11 141 2.11 120 2.11
  21  0.000  0.900  0.503- 103 2.11 119 2.11 120 2.11 200 2.11 121 2.11
  22  0.100  0.800  0.503- 116 2.11 119 2.11 120 2.11 139 2.11 122 2.11
  23  0.200  0.000  0.407- 126 2.11 125 2.11 106 2.11 141 2.11 123 2.11
  24  0.300  0.100  0.407- 125 2.11 126 2.11 130 2.11 145 2.11 124 2.11
  25  0.200  0.100  0.503- 124 2.11 123 2.11 104 2.11 127 2.11 125 2.11
  26  0.300  0.000  0.503- 123 2.11 124 2.11 140 2.11 143 2.11 126 2.11
  27  0.200  0.200  0.407- 129 2.11 130 2.11 110 2.11 125 2.11 127 2.11
  28  0.300  0.300  0.407- 129 2.11 130 2.11 134 2.11 149 2.11 128 2.11
  29  0.200  0.300  0.503- 127 2.11 128 2.11 108 2.11 131 2.11 129 2.11
  30  0.300  0.200  0.503- 127 2.11 128 2.11 124 2.11 147 2.11 130 2.11
  31  0.200  0.400  0.407- 134 2.11 129 2.11 133 2.11 114 2.11 131 2.11
  32  0.300  0.500  0.407- 133 2.11 134 2.11 138 2.11 153 2.11 132 2.11
  33  0.200  0.500  0.503- 132 2.11 131 2.11 112 2.11 135 2.11 133 2.11
  34  0.300  0.400  0.503- 131 2.11 128 2.11 132 2.11 151 2.11 134 2.11
  35  0.200  0.600  0.407- 138 2.11 133 2.11 137 2.11 118 2.11 135 2.11
  36  0.300  0.700  0.407- 137 2.11 142 2.11 138 2.11 157 2.11 136 2.11
  37  0.200  0.700  0.503- 136 2.11 139 2.11 116 2.11 135 2.11 137 2.11
  38  0.300  0.600  0.503- 135 2.11 132 2.11 136 2.11 155 2.11 138 2.11
  39  0.200  0.800  0.407- 137 2.11 142 2.11 141 2.11 122 2.11 139 2.11
  40  0.300  0.900  0.407- 141 2.11 126 2.11 142 2.11 161 2.11 140 2.11
  41  0.200  0.900  0.503- 140 2.11 123 2.11 139 2.11 120 2.11 141 2.11
  42  0.300  0.800  0.503- 136 2.11 139 2.11 140 2.11 159 2.11 142 2.11
  43  0.400  0.000  0.407- 126 2.11 145 2.11 146 2.11 161 2.11 143 2.11
  44  0.500  0.100  0.407- 145 2.11 146 2.11 150 2.11 165 2.11 144 2.11
  45  0.400  0.100  0.503- 124 2.11 143 2.11 144 2.11 147 2.11 145 2.11
  46  0.500  0.000  0.503- 143 2.11 144 2.11 160 2.11 163 2.11 146 2.11
  47  0.400  0.200  0.407- 149 2.11 145 2.11 130 2.11 150 2.11 147 2.11
  48  0.500  0.300  0.407- 150 2.11 149 2.11 154 2.11 169 2.11 148 2.11
  49  0.400  0.300  0.503- 147 2.11 128 2.11 148 2.11 151 2.11 149 2.11
  50  0.500  0.200  0.503- 148 2.11 147 2.11 144 2.11 167 2.11 150 2.11
  51  0.400  0.400  0.407- 134 2.11 149 2.11 153 2.11 154 2.11 151 2.11
  52  0.500  0.500  0.407- 153 2.11 154 2.11 158 2.11 173 2.11 152 2.11
  53  0.400  0.500  0.503- 132 2.11 151 2.11 152 2.11 155 2.11 153 2.11
  54  0.500  0.400  0.503- 148 2.11 151 2.11 152 2.11 171 2.11 154 2.11
  55  0.400  0.600  0.407- 138 2.11 153 2.11 157 2.11 158 2.11 155 2.11
  56  0.500  0.700  0.407- 162 2.11 158 2.11 157 2.11 177 2.11 156 2.11
  57  0.400  0.700  0.503- 159 2.11 155 2.11 156 2.11 136 2.11 157 2.11
  58  0.500  0.600  0.503- 152 2.11 155 2.11 156 2.11 175 2.11 158 2.11
  59  0.400  0.800  0.407- 157 2.11 142 2.11 161 2.11 162 2.11 159 2.11
  60  0.500  0.900  0.407- 146 2.11 161 2.11 162 2.11 181 2.11 160 2.11
[...]
 188  0.900  0.300  0.503-  90 2.11  89 2.11   9 2.11  94 2.11  88 2.11
 189  0.800  0.300  0.407-  68 2.11  87 2.11  88 2.11  91 2.11  89 2.11
 190  0.900  0.200  0.407-  88 2.11  84 2.11  87 2.11   7 2.11  90 2.11
 191  0.800  0.400  0.503-  74 2.11  89 2.11  93 2.11  94 2.11  91 2.11
 192  0.900  0.500  0.503-  13 2.11  93 2.11  94 2.11  98 2.11  92 2.11
 193  0.800  0.500  0.407-  72 2.11  91 2.11  92 2.11  95 2.11  93 2.11
 194  0.900  0.400  0.407-  11 2.11  88 2.11  91 2.11  92 2.11  94 2.11
 195  0.800  0.600  0.503-  78 2.11  93 2.11  97 2.11  98 2.11  95 2.11
 196  0.900  0.700  0.503- 102 2.11  97 2.11  98 2.11  17 2.11  96 2.11
 197  0.800  0.700  0.407-  76 2.11  99 2.11  96 2.11  95 2.11  97 2.11
 198  0.900  0.600  0.407-  15 2.11  92 2.11  95 2.11  96 2.11  98 2.11
 199  0.800  0.800  0.503-  82 2.11  97 2.11 101 2.11 102 2.11  99 2.11
 200  0.900  0.900  0.503-  21 2.11  86 2.11 101 2.11 102 2.11 100 2.11
 201  0.800  0.900  0.407-  80 2.11  83 2.11  99 2.11 100 2.11 101 2.11
 202  0.900  0.800  0.407-  96 2.11  19 2.11  99 2.11 100 2.11 102 2.11

  LATTYP: Found a simple tetragonal cell.
 ALAT       =    21.1388521970
 C/A-ratio  =     1.0461251639

  Lattice vectors:

 A1 = (  21.1388521970,   0.0000000000,   0.0000000000)
 A2 = (   0.0000000000,  21.1388521970,   0.0000000000)
 A3 = (   0.0000000000,   0.0000000000,  22.1138852197)

Analysis of symmetry for initial positions (statically):
 Subroutine PRICEL returns:
 Original cell was already a primitive cell.

 Routine SETGRP: Setting up the symmetry group for a
 simple tetragonal supercell.

 Subroutine GETGRP returns: Found  4 space group operations
 (whereof  4 operations were pure point group operations)
 out of a pool of 16 trial point group operations.

The static configuration has the point symmetry C_2v.

Analysis of symmetry for dynamics (positions and initial velocities):
 Subroutine PRICEL returns:
 Original cell was already a primitive cell.

 Routine SETGRP: Setting up the symmetry group for a
 simple tetragonal supercell.

 Subroutine GETGRP returns: Found  4 space group operations
 (whereof  4 operations were pure point group operations)
 out of a pool of 16 trial point group operations.

The dynamic configuration has the point symmetry C_2v.

 Subroutine INISYM returns: Found  4 space group operations
 (whereof  4 operations are pure point group operations),
 and found     1 'primitive' translations

                                     Primitive cell

  volume of cell :    9881.6133

  direct lattice vectors                    reciprocal lattice vectors
    21.138852197  0.000000000  0.000000000     0.047306258  0.000000000  0.000000000
[...]
     52     -43.5382      2.00000
     53     -43.5382      2.00000
     54     -43.5369      2.00000
     55     -43.5365      2.00000
     56     -43.5363      2.00000
     57     -43.5360      2.00000
     58     -43.5356      2.00000
     59     -43.5354      2.00000
     60     -43.5353      2.00000
[...]
    882       4.5474      0.00000
    883       4.5524      0.00000
    884       4.5951      0.00000
    885       4.6101      0.00000
    886       4.6493      0.00000
    887       4.6919      0.00000
    888       4.7383      0.00000
    889       4.9659      0.00000
    890       5.1563      0.00000
    891       5.1775      0.00000
    892       5.2996      0.00000
    893       5.3420      0.00000
    894       5.4443      0.00000
    895       5.4859      0.00000
    896       5.5395      0.00000

 soft charge-density along one line, spin component           1
         0         1         2         3         4         5         6         7         8         9
 total charge-density along one line

------------------------ aborting loop because EDIFF is reached ----------------------------------------

  FORCE on cell =-STRESS in cart. coord.  units (eV):
  Direction    XX          YY          ZZ          XY          YZ          ZX
  Alpha Z  1357.53553  1357.53553  1357.53553
  Ewald  479361.88727479361.88727************  -323.89554     0.00000     0.00000
  Hartree507871.25108507871.25108************  -242.83090    -0.00000    -0.00000
  E(xc)   -7975.11710 -7975.11710 -7992.43980    -0.38634    -0.00000    -0.00000
  Local  ************************************   562.92287    -0.00000    -0.00000
  n-local -8787.18330 -8787.18330 -8899.07240     1.66732     0.00000     0.00000
  augment  3562.34300  3562.34300  3508.03119     0.42592    -0.00000    -0.00000
  Kinetic 23031.27003 23031.27002 23245.63492     2.05821    -0.00001     0.00001
  Fock        0.00000     0.00000     0.00000     0.00000     0.00000     0.00000
  Total    -119.62190  -119.62190    38.23692    -0.03846     0.00000     0.00000
  in kB     -19.39516   -19.39516     6.19963    -0.00624     0.00000     0.00000

 VOLUME and BASIS-vectors are now :
  energy-cutoff  :      520.00
  volume of cell :     9881.61
      direct lattice vectors                 reciprocal lattice vectors
    21.138852197  0.000000000  0.000000000     0.047306258  0.000000000  0.000000000
     0.000000000 21.138852197  0.000000000     0.000000000  0.047306258  0.000000000
     0.000000000  0.000000000 22.113885220     0.000000000  0.000000000  0.045220457

  length of vectors
    21.138852197 21.138852197 22.113885220     0.047306258  0.047306258  0.045220457

 FORCES acting on ions:
    Electron-Ion                     Ewald-Force                    Non-Local-Force
   -.186E+03 0.186E+03 -.205E+04   0.183E+03 -.183E+03 0.205E+04   0.426E+01 -.426E+01 -.514E+00
   0.186E+03 -.186E+03 -.205E+04   -.183E+03 0.183E+03 0.205E+04   -.426E+01 0.426E+01 -.514E+00
   -.471E-10 0.824E-09 0.930E+03   0.974E-10 -.170E-08 -.923E+03   0.000E+00 0.000E+00 -.680E+01
   0.379E+01 0.379E+01 0.931E+03   -.378E+01 -.378E+01 -.924E+03   -.335E-02 -.335E-02 -.681E+01
   -.282E+00 0.419E+01 -.922E+03   0.293E+00 -.419E+01 0.915E+03   -.911E-02 0.226E-02 0.677E+01
   0.419E+01 -.282E+00 -.922E+03   -.419E+01 0.293E+00 0.915E+03   0.226E-02 -.911E-02 0.677E+01
   -.370E+00 0.579E+01 0.932E+03   0.390E+00 -.579E+01 -.925E+03   -.154E-01 0.483E-02 -.681E+01
   0.752E+01 0.737E+01 0.934E+03   -.751E+01 -.738E+01 -.928E+03   -.932E-02 0.817E-02 -.681E+01
   -.705E+00 0.763E+01 -.920E+03   0.732E+00 -.764E+01 0.913E+03   -.214E-01 0.337E-02 0.677E+01
   0.679E+01 0.845E+01 -.920E+03   -.677E+01 -.845E+01 0.913E+03   -.128E-01 -.376E-03 0.677E+01
   -.327E+00 0.393E+01 0.935E+03   0.345E+00 -.394E+01 -.928E+03   -.140E-01 0.291E-02 -.681E+01
   0.115E+02 0.416E+00 0.938E+03   -.116E+02 -.432E+00 -.931E+03   0.208E-01 0.125E-01 -.681E+01
   0.145E-09 -.124E-08 -.918E+03   -.299E-09 0.256E-08 0.911E+03   0.000E+00 0.000E+00 0.677E+01
   0.146E+02 0.699E+01 -.917E+03   -.146E+02 -.701E+01 0.910E+03   -.776E-02 0.127E-01 0.676E+01
   0.327E+00 -.393E+01 0.935E+03   -.345E+00 0.394E+01 -.928E+03   0.140E-01 -.291E-02 -.681E+01
   0.857E+01 -.739E+01 0.935E+03   -.862E+01 0.740E+01 -.928E+03   0.375E-01 -.569E-02 -.681E+01
   0.705E+00 -.763E+01 -.920E+03   -.732E+00 0.764E+01 0.913E+03   0.214E-01 -.337E-02 0.677E+01
   0.162E+02 -.615E+01 -.916E+03   -.162E+02 0.614E+01 0.909E+03   0.401E-01 0.735E-02 0.677E+01
   0.370E+00 -.579E+01 0.932E+03   -.390E+00 0.579E+01 -.925E+03   0.154E-01 -.483E-02 -.681E+01
   0.418E+01 -.418E+01 0.931E+03   -.419E+01 0.419E+01 -.924E+03   0.117E-01 -.117E-01 -.680E+01
   0.282E+00 -.419E+01 -.922E+03   -.293E+00 0.419E+01 0.915E+03   0.911E-02 -.226E-02 0.677E+01
   0.806E+01 -.901E+01 -.920E+03   -.810E+01 0.902E+01 0.913E+03   0.276E-01 -.106E-01 0.677E+01
   0.579E+01 -.370E+00 0.932E+03   -.579E+01 0.390E+00 -.925E+03   0.483E-02 -.154E-01 -.681E+01
   0.737E+01 0.752E+01 0.934E+03   -.738E+01 -.751E+01 -.928E+03   0.817E-02 -.932E-02 -.681E+01
   0.845E+01 0.679E+01 -.920E+03   -.845E+01 -.677E+01 0.913E+03   -.376E-03 -.128E-01 0.677E+01
   0.763E+01 -.705E+00 -.920E+03   -.764E+01 0.732E+00 0.913E+03   0.337E-02 -.214E-01 0.677E+01
   0.967E+01 0.967E+01 0.935E+03   -.967E+01 -.967E+01 -.928E+03   -.337E-03 -.337E-03 -.681E+01
   0.188E+02 0.188E+02 0.948E+03   -.189E+02 -.189E+02 -.941E+03   0.173E-01 0.173E-01 -.683E+01
   0.217E+02 0.166E+02 -.914E+03   -.216E+02 -.166E+02 0.907E+03   -.223E-01 0.987E-02 0.676E+01
   0.166E+02 0.217E+02 -.914E+03   -.166E+02 -.216E+02 0.907E+03   0.987E-02 -.223E-01 0.676E+01
   0.204E+02 0.873E+01 0.944E+03   -.204E+02 -.878E+01 -.937E+03   0.495E-02 0.323E-01 -.681E+01
   0.338E+02 0.216E+01 0.968E+03   -.339E+02 -.228E+01 -.961E+03   0.674E-01 0.895E-01 -.681E+01
   0.404E+02 0.239E+01 -.905E+03   -.405E+02 -.244E+01 0.898E+03   0.384E-01 0.418E-01 0.675E+01
   0.554E+02 0.317E+02 -.887E+03   -.553E+02 -.318E+02 0.880E+03   -.776E-01 0.761E-01 0.671E+01
   0.217E+02 -.758E+01 0.946E+03   -.218E+02 0.756E+01 -.939E+03   0.962E-01 0.127E-01 -.681E+01
   0.199E+02 -.199E+02 0.951E+03   -.199E+02 0.199E+02 -.944E+03   0.603E-01 -.603E-01 -.677E+01
   0.249E+02 -.177E+02 -.912E+03   -.250E+02 0.177E+02 0.905E+03   0.907E-01 -.111E-01 0.677E+01
   0.654E+02 -.291E+02 -.876E+03   -.660E+02 0.290E+02 0.869E+03   0.423E+00 0.575E-01 0.680E+01
   0.105E+02 -.105E+02 0.936E+03   -.105E+02 0.105E+02 -.929E+03   0.292E-01 -.292E-01 -.680E+01
   0.739E+01 -.857E+01 0.935E+03   -.740E+01 0.862E+01 -.928E+03   0.569E-02 -.375E-01 -.681E+01
   0.901E+01 -.806E+01 -.920E+03   -.902E+01 0.810E+01 0.913E+03   0.106E-01 -.276E-01 0.677E+01
   0.177E+02 -.249E+02 -.912E+03   -.177E+02 0.250E+02 0.905E+03   0.111E-01 -.907E-01 0.677E+01
   0.393E+01 -.327E+00 0.935E+03   -.394E+01 0.345E+00 -.928E+03   0.291E-02 -.140E-01 -.681E+01
   0.416E+00 0.115E+02 0.938E+03   -.432E+00 -.116E+02 -.931E+03   0.125E-01 0.208E-01 -.681E+01
   0.699E+01 0.146E+02 -.917E+03   -.701E+01 -.146E+02 0.910E+03   0.127E-01 -.776E-02 0.676E+01
   0.145E-09 0.373E-08 -.918E+03   -.299E-09 -.769E-08 0.911E+03   0.000E+00 0.000E+00 0.677E+01
   0.873E+01 0.204E+02 0.944E+03   -.878E+01 -.204E+02 -.937E+03   0.323E-01 0.495E-02 -.681E+01
   0.216E+01 0.338E+02 0.968E+03   -.228E+01 -.339E+02 -.961E+03   0.895E-01 0.674E-01 -.681E+01
   0.317E+02 0.554E+02 -.887E+03   -.318E+02 -.553E+02 0.880E+03   0.761E-01 -.776E-01 0.671E+01
   0.239E+01 0.404E+02 -.905E+03   -.244E+01 -.405E+02 0.898E+03   0.418E-01 0.384E-01 0.675E+01
   0.250E+02 0.250E+02 0.983E+03   -.252E+02 -.252E+02 -.976E+03   0.959E-01 0.959E-01 -.696E+01
   -.975E-09 -.833E-08 0.102E+04   0.201E-08 0.172E-07 -.101E+04   0.000E+00 0.000E+00 -.676E+01
   0.101E+03 0.219E+02 -.765E+03   -.101E+03 -.227E+02 0.759E+03   0.212E+00 0.539E+00 0.630E+01
   0.219E+02 0.101E+03 -.765E+03   -.227E+02 -.101E+03 0.759E+03   0.539E+00 0.212E+00 0.630E+01
   0.237E+02 -.237E+02 0.988E+03   -.237E+02 0.237E+02 -.982E+03   -.192E-01 0.192E-01 -.627E+01
   -.216E+01 -.338E+02 0.968E+03   0.228E+01 0.339E+02 -.961E+03   -.895E-01 -.674E-01 -.681E+01
   0.291E+02 -.654E+02 -.876E+03   -.290E+02 0.660E+02 0.869E+03   -.575E-01 -.423E+00 0.680E+01
   -.219E+02 -.101E+03 -.765E+03   0.227E+02 0.101E+03 0.759E+03   -.539E+00 -.212E+00 0.630E+01
   0.758E+01 -.217E+02 0.946E+03   -.756E+01 0.218E+02 -.939E+03   -.127E-01 -.962E-01 -.681E+01
   -.416E+00 -.115E+02 0.938E+03   0.432E+00 0.116E+02 -.931E+03   -.125E-01 -.208E-01 -.681E+01
[...]
   -.120E+02 0.881E+01 0.708E+03   0.121E+02 -.883E+01 -.712E+03   -.625E-01 0.271E-01 0.359E+01
   -.450E+01 0.525E+01 0.702E+03   0.452E+01 -.526E+01 -.706E+03   -.242E-01 0.150E-01 0.358E+01
   -.275E+02 0.888E+01 -.682E+03   0.276E+02 -.886E+01 0.686E+03   -.750E-01 -.280E-01 -.363E+01
   -.129E+02 -.548E+00 -.689E+03   0.129E+02 0.562E+00 0.693E+03   -.147E-01 -.193E-01 -.363E+01
   -.178E+02 -.807E+00 0.712E+03   0.178E+02 0.843E+00 -.717E+03   -.382E-01 -.500E-01 0.358E+01
   -.818E+01 0.346E+01 0.705E+03   0.820E+01 -.346E+01 -.709E+03   -.316E-01 -.584E-02 0.358E+01
   -.246E+02 -.104E+02 -.684E+03   0.246E+02 0.105E+02 0.688E+03   -.439E-03 -.385E-01 -.365E+01
   -.779E+01 -.722E+01 -.691E+03   0.778E+01 0.723E+01 0.695E+03   0.107E-01 -.629E-02 -.363E+01
   -.110E+02 -.861E+01 0.707E+03   0.110E+02 0.862E+01 -.711E+03   0.406E-02 -.986E-02 0.357E+01
   -.755E+01 -.385E+01 0.705E+03   0.755E+01 0.386E+01 -.709E+03   -.139E-02 -.157E-01 0.358E+01
   -.984E+01 -.984E+01 -.691E+03   0.984E+01 0.984E+01 0.695E+03   0.923E-02 0.923E-02 -.363E+01
   -.352E+01 -.352E+01 -.693E+03   0.351E+01 0.351E+01 0.697E+03   0.482E-02 0.482E-02 -.362E+01
   -.500E+01 -.390E+01 0.701E+03   0.501E+01 0.390E+01 -.706E+03   -.139E-02 0.771E-02 0.358E+01
   -.390E+01 -.500E+01 0.701E+03   0.390E+01 0.501E+01 -.706E+03   0.771E-02 -.139E-02 0.358E+01
   -.114E-07 0.791E-06 0.759E+01   0.149E-11 0.146E-11 0.152E-10   0.136E-14 0.225E-14 -.858E+01

 POSITION                                       TOTAL-FORCE (eV/Angst)
     11.48437      9.65448     13.82858         0.254742     -0.254742      0.224507
      9.65448     11.48437     13.82858        -0.254742      0.254742      0.224507
      0.00000      0.00000      9.00000        -0.000000      0.000000      0.162320
      2.11389      2.11389      9.00000         0.000932      0.000932      0.162679
      0.00000      2.11389     11.11389         0.002473     -0.000620     -0.158383
      2.11389      0.00000     11.11389        -0.000620      0.002473     -0.158383
      0.00000      4.22777      9.00000         0.004138     -0.001365      0.162509
      2.11389      6.34166      9.00000         0.002424     -0.002203      0.163284
      0.00000      6.34166     11.11389         0.005722     -0.000932     -0.157371
      2.11389      4.22777     11.11389         0.003520      0.000228     -0.157286
      0.00000      8.45554      9.00000         0.003628     -0.000827      0.162828
      2.11389     10.56943      9.00000        -0.005693     -0.003711      0.163079
      0.00000     10.56943     11.11389        -0.000000      0.000000     -0.156559
      2.11389      8.45554     11.11389         0.002263     -0.003536     -0.155201
      0.00000     12.68331      9.00000        -0.003628      0.000827      0.162828
      2.11389     14.79720      9.00000        -0.010015      0.001751      0.162224
      0.00000     14.79720     11.11389        -0.005722      0.000932     -0.157371
      2.11389     12.68331     11.11389        -0.010345     -0.002189     -0.156252
      0.00000     16.91108      9.00000        -0.004138      0.001365      0.162509
      2.11389     19.02497      9.00000        -0.003268      0.003268      0.162068
      0.00000     19.02497     11.11389        -0.002473      0.000620     -0.158383
      2.11389     16.91108     11.11389        -0.007440      0.003032     -0.157971
      4.22777      0.00000      9.00000        -0.001365      0.004138      0.162509
      6.34166      2.11389      9.00000        -0.002203      0.002424      0.163284
      4.22777      2.11389     11.11389         0.000228      0.003520     -0.157286
      6.34166      0.00000     11.11389        -0.000932      0.005722     -0.157371
      4.22777      4.22777      9.00000         0.000262      0.000262      0.164164
      6.34166      6.34166      9.00000        -0.003781     -0.003781      0.169874
      4.22777      6.34166     11.11389         0.006508     -0.002027     -0.152216
      6.34166      4.22777     11.11389        -0.002027      0.006508     -0.152216
      4.22777      8.45554      9.00000        -0.002217     -0.009163      0.164287
      6.34166     10.56943      9.00000        -0.021470     -0.029115      0.157793
      4.22777     10.56943     11.11389        -0.010734     -0.012833     -0.150033
      6.34166      8.45554     11.11389         0.026291     -0.018012     -0.126618
      4.22777     12.68331      9.00000        -0.024780     -0.003727      0.162702
      6.34166     14.79720      9.00000        -0.020652      0.020652      0.147861
      4.22777     14.79720     11.11389        -0.024500      0.003853     -0.156962
      6.34166     12.68331     11.11389        -0.133928     -0.018879     -0.164806
      4.22777     16.91108      9.00000        -0.008479      0.008479      0.160385
      6.34166     19.02497      9.00000        -0.001751      0.010015      0.162224
      4.22777     19.02497     11.11389        -0.003032      0.007440     -0.157971
      6.34166     16.91108     11.11389        -0.003853      0.024500     -0.156962
      8.45554      0.00000      9.00000        -0.000827      0.003628      0.162828
     10.56943      2.11389      9.00000        -0.003711     -0.005693      0.163079
      8.45554      2.11389     11.11389        -0.003536      0.002263     -0.155201
     10.56943      0.00000     11.11389        -0.000000      0.000000     -0.156559
      8.45554      4.22777      9.00000        -0.009163     -0.002217      0.164287
     10.56943      6.34166      9.00000        -0.029115     -0.021470      0.157793
      8.45554      6.34166     11.11389        -0.018012      0.026291     -0.126618
     10.56943      4.22777     11.11389        -0.012833     -0.010734     -0.150033
      8.45554      8.45554      9.00000        -0.026147     -0.026147      0.192472
     10.56943     10.56943      9.00000        -0.000000      0.000000      0.091023
      8.45554     10.56943     11.11389        -0.115421     -0.229640     -0.150555
     10.56943      8.45554     11.11389        -0.229640     -0.115421     -0.150555
      8.45554     12.68331      9.00000         0.006692     -0.006692      0.028449
     10.56943     14.79720      9.00000         0.029115      0.021470      0.157793
      8.45554     14.79720     11.11389         0.018879      0.133928     -0.164806
     10.56943     12.68331     11.11389         0.229640      0.115421     -0.150555
      8.45554     16.91108      9.00000         0.003727      0.024780      0.162702
     10.56943     19.02497      9.00000         0.003711      0.005693      0.163079
[...]
     19.02497      6.34166     11.11389        -0.009363      0.002047      0.545599
     16.91108      6.34166      9.00000        -0.017811      0.007782     -0.547986
     19.02497      4.22777      9.00000        -0.006790      0.004234     -0.550615
     16.91108      8.45554     11.11389        -0.022270     -0.007456      0.545128
     19.02497     10.56943     11.11389        -0.004265     -0.005407      0.543690
     16.91108     10.56943      9.00000        -0.012047     -0.013752     -0.552308
     19.02497      8.45554      9.00000        -0.008990     -0.001540     -0.550763
     16.91108     12.68331     11.11389        -0.000942     -0.011169      0.538893
     19.02497     14.79720     11.11389         0.002920     -0.001802      0.544437
     16.91108     14.79720      9.00000         0.000873     -0.002984     -0.553868
     19.02497     12.68331      9.00000        -0.000498     -0.004463     -0.552239
     16.91108     16.91108     11.11389         0.002476      0.002476      0.543625
     19.02497     19.02497     11.11389         0.001321      0.001321      0.546253
     16.91108     19.02497      9.00000        -0.000435      0.002123     -0.551751
     19.02497     16.91108      9.00000         0.002123     -0.000435     -0.551751
    total drift:                               -0.000000      0.000001     -0.988385

  FREE ENERGIE OF THE ION-ELECTRON SYSTEM (eV)
  free  energy   TOTEN  =      -680.06140953 eV

  energy  without entropy=     -680.06140953  energy(sigma->0) =     -680.06140953