 vasp.6.3.0 20Jan22 (build Apr  1 2022 16:44:48) complex
 executed on        HPECrayEX_GCC date 2023.01.09  22:53:19

 INCAR:
   SYSTEM = MgO-rocksalt
   ISMEAR = 0
   SIGMA = 0.05
   EDIFF = 1E-6
   ALGO = ALL
   ISTART = 0
   IBRION = -1
   NSW = 0
   ISYM = 2
   DIPOL = 0.5 0.5 0.5
   IDIPOL = 3
   LDIPOL = .TRUE.
   METAGGA = R2SCAN
   IVDW = 12
   VDW_S8 = 0.7898
   VDW_A1 = 0.4948
   VDW_A2 = 5.7308
   ENCUT = 520
   PREC = Accurate
   LASPH = .TRUE.
   LREAL = Auto
   ISPIN = 1
   NELM = 200
   NELMIN = 8
   NCORE = 4
   KPAR = 2
   LWAVE = .FALSE.
   LCHARG = .FALSE.

 POTCAR:    PAW_PBE Au 04Oct2007
 POTCAR:    PAW_PBE Mg_pv 13Apr2007
 POTCAR:    PAW_PBE O 08Apr2002
 POTCAR:    PAW_PBE Au 04Oct2007
   VRHFIN =Au: s1d10

   TITEL  = PAW_PBE Au 04Oct2007
   POMASS =  196.966; ZVAL   =   11.000    mass and valenz
   ENMAX  =  229.943; ENMIN  =  172.457 eV

   TITEL  = PAW_PBE Mg_pv 13Apr2007
   POMASS =   24.305; ZVAL   =    8.000    mass and valenz
   ENMAX  =  403.929; ENMIN  =  302.947 eV

   TITEL  = PAW_PBE O 08Apr2002
   POMASS =   16.000; ZVAL   =    6.000    mass and valenz
   ENMAX  =  400.000; ENMIN  =  300.000 eV

 Optimization of the real space projectors (new method)

 maximal supplied QI-value         = 15.12
 optimisation between [QCUT,QGAM] = [ 11.64, 23.28] = [ 37.95,151.78] Ry
 Optimized for a Real-space Cutoff    1.49 Angstroem

   l    n(q)    QCUT    max X(q) W(low)/X(q) W(high)/X(q)  e(spline)
   2      9    11.641    60.898    0.24E-03    0.10E-03    0.19E-06
   2      9    11.641    58.894    0.25E-03    0.10E-03    0.19E-06
   0     10    11.641   109.617    0.73E-04    0.33E-04    0.11E-06
   0     10    11.641    75.026    0.71E-04    0.32E-04    0.11E-06
   1     10    11.641    16.344    0.27E-04    0.97E-04    0.16E-06
   1     10    11.641    10.160    0.23E-04    0.77E-04    0.13E-06
 Optimization of the real space projectors (new method)

[...]

   l    n(q)    QCUT    max X(q) W(low)/X(q) W(high)/X(q)  e(spline)
   1      8    11.527     2.974    0.44E-04    0.56E-04    0.12E-06
   1      8    11.527     4.279    0.12E-03    0.12E-03    0.26E-06
   0      9    11.527    16.381    0.46E-04    0.64E-04    0.78E-07
   0      9    11.527     5.611    0.26E-04    0.43E-04    0.55E-07
   2      8    11.527     4.652    0.22E-03    0.72E-04    0.47E-07
 Optimization of the real space projectors (new method)

 maximal supplied QI-value         = 24.76
 optimisation between [QCUT,QGAM] = [ 11.64, 23.27] = [ 37.91,151.63] Ry
 Optimized for a Real-space Cutoff    1.14 Angstroem

   l    n(q)    QCUT    max X(q) W(low)/X(q) W(high)/X(q)  e(spline)
   0      8    11.635    20.381    0.10E-03    0.33E-03    0.24E-06
   0      8    11.635    15.268    0.11E-03    0.35E-03    0.26E-06
   1      7    11.635     5.964    0.24E-03    0.31E-03    0.30E-06
   1      7    11.635     5.382    0.22E-03    0.25E-03    0.26E-06
  PAW_PBE Au 04Oct2007                  :
  PAW_PBE Mg_pv 13Apr2007               :
  PAW_PBE O 08Apr2002                   :

 POSCAR: Au Mg  O
  positions in direct lattice
  velocities in cartesian coordinates

 METAGGA = R2SCA    LMAXTAU =  6    LMIXTAU =  F

 ion  position               nearest neighbor table
   1  0.290  0.507  0.638-   2 2.69   3 2.71
   2  0.397  0.442  0.618-   1 2.69   4 2.69 153 2.70   3 2.70  55 2.83
   3  0.397  0.569  0.609- 157 2.45   2 2.70   1 2.71   4 2.71  55 2.78
   4  0.505  0.506  0.637-   2 2.69   3 2.71
   5  0.000  0.000  0.407- 107 2.11 108 2.11 123 2.11 188 2.11 105 2.11
   6  0.100  0.100  0.407- 107 2.11 108 2.11 112 2.11 127 2.11 106 2.11
   7  0.000  0.100  0.503- 105 2.11 106 2.11 109 2.11 186 2.11 107 2.11
   8  0.100  0.000  0.503- 105 2.11 106 2.11 122 2.11 125 2.11 108 2.11
   9  0.000  0.200  0.407- 111 2.11 107 2.11 112 2.11 192 2.11 109 2.11
  10  0.100  0.300  0.407- 112 2.11 111 2.11 116 2.11 131 2.11 110 2.11
  11  0.000  0.300  0.503- 109 2.11 110 2.11 113 2.11 190 2.11 111 2.11
  12  0.100  0.200  0.503- 110 2.11 109 2.11 106 2.11 129 2.11 112 2.11
  13  0.000  0.400  0.407- 111 2.11 115 2.11 116 2.11 196 2.11 113 2.11
  14  0.100  0.500  0.407- 115 2.11 116 2.11 120 2.11 135 2.11 114 2.11
  15  0.000  0.500  0.503- 113 2.11 114 2.11 117 2.11 194 2.11 115 2.11
  16  0.100  0.400  0.503- 110 2.11 113 2.11 114 2.11 133 2.11 116 2.11
  17  0.000  0.600  0.407- 115 2.11 119 2.11 120 2.11 200 2.11 117 2.11
  18  0.100  0.700  0.407- 124 2.11 120 2.11 119 2.11 139 2.11 118 2.11
  19  0.000  0.700  0.503- 121 2.11 118 2.11 117 2.11 198 2.11 119 2.11
  20  0.100  0.600  0.503- 114 2.11 117 2.11 118 2.11 137 2.11 120 2.11
  21  0.000  0.800  0.407- 119 2.11 123 2.11 124 2.11 204 2.11 121 2.11
  22  0.100  0.900  0.407- 108 2.11 123 2.11 124 2.11 143 2.11 122 2.11
  23  0.000  0.900  0.503- 105 2.11 121 2.11 122 2.11 202 2.11 123 2.11
  24  0.100  0.800  0.503- 118 2.11 121 2.11 122 2.11 141 2.11 124 2.11
  25  0.200  0.000  0.407- 128 2.11 127 2.11 108 2.11 143 2.11 125 2.11
  26  0.300  0.100  0.407- 127 2.11 128 2.11 132 2.11 147 2.11 126 2.11
  27  0.200  0.100  0.503- 126 2.11 125 2.11 106 2.11 129 2.11 127 2.11
  28  0.300  0.000  0.503- 125 2.11 126 2.11 142 2.11 145 2.11 128 2.11
  29  0.200  0.200  0.407- 131 2.11 132 2.11 112 2.11 127 2.11 129 2.11
  30  0.300  0.300  0.407- 131 2.11 132 2.11 136 2.11 151 2.11 130 2.11
  31  0.200  0.300  0.503- 129 2.11 130 2.11 110 2.11 133 2.11 131 2.11
  32  0.300  0.200  0.503- 129 2.11 130 2.11 126 2.11 149 2.11 132 2.11
  33  0.200  0.400  0.407- 136 2.11 131 2.11 135 2.11 116 2.11 133 2.11
  34  0.300  0.500  0.407- 135 2.11 136 2.11 140 2.11 155 2.11 134 2.11
  35  0.200  0.500  0.503- 134 2.11 133 2.11 114 2.11 137 2.11 135 2.11
  36  0.300  0.400  0.503- 133 2.11 130 2.11 134 2.11 153 2.11 136 2.11
  37  0.200  0.600  0.407- 140 2.11 135 2.11 139 2.11 120 2.11 137 2.11
  38  0.300  0.700  0.407- 139 2.11 144 2.11 140 2.11 159 2.11 138 2.11
  39  0.200  0.700  0.503- 138 2.11 141 2.11 118 2.11 137 2.11 139 2.11
  40  0.300  0.600  0.503- 137 2.11 134 2.11 138 2.11 157 2.11 140 2.11
  41  0.200  0.800  0.407- 139 2.11 144 2.11 143 2.11 124 2.11 141 2.11
  42  0.300  0.900  0.407- 143 2.11 128 2.11 144 2.11 163 2.11 142 2.11
  43  0.200  0.900  0.503- 142 2.11 125 2.11 141 2.11 122 2.11 143 2.11
  44  0.300  0.800  0.503- 138 2.11 141 2.11 142 2.11 161 2.11 144 2.11
  45  0.400  0.000  0.407- 128 2.11 147 2.11 148 2.11 163 2.11 145 2.11
  46  0.500  0.100  0.407- 147 2.11 148 2.11 152 2.11 167 2.11 146 2.11
  47  0.400  0.100  0.503- 126 2.11 145 2.11 146 2.11 149 2.11 147 2.11
  48  0.500  0.000  0.503- 145 2.11 146 2.11 162 2.11 165 2.11 148 2.11
  49  0.400  0.200  0.407- 151 2.11 147 2.11 132 2.11 152 2.11 149 2.11
  50  0.500  0.300  0.407- 152 2.11 151 2.11 156 2.11 171 2.11 150 2.11
  51  0.400  0.300  0.503- 149 2.11 130 2.11 150 2.11 153 2.11 151 2.11
  52  0.500  0.200  0.503- 150 2.11 149 2.11 146 2.11 169 2.11 152 2.11
  53  0.400  0.400  0.407- 136 2.11 151 2.11 155 2.11 156 2.11 153 2.11
  54  0.500  0.500  0.407- 155 2.11 156 2.11 160 2.11 175 2.11 154 2.11
  55  0.400  0.500  0.503- 134 2.11 153 2.11 154 2.11 157 2.11 155 2.11   3 2.78   2 2.83
  56  0.500  0.400  0.503- 150 2.11 153 2.11 154 2.11 173 2.11 156 2.11
  57  0.400  0.600  0.407- 140 2.11 155 2.11 159 2.11 160 2.11 157 2.11
  58  0.500  0.700  0.407- 164 2.11 160 2.11 159 2.11 179 2.11 158 2.11
  59  0.400  0.700  0.503- 161 2.11 157 2.11 158 2.11 138 2.11 159 2.11
  60  0.500  0.600  0.503- 154 2.11 157 2.11 158 2.11 177 2.11 160 2.11
[...]
 190  0.900  0.300  0.503-  92 2.11  91 2.11  11 2.11  96 2.11  90 2.11
 191  0.800  0.300  0.407-  70 2.11  89 2.11  90 2.11  93 2.11  91 2.11
 192  0.900  0.200  0.407-  90 2.11  86 2.11  89 2.11   9 2.11  92 2.11
 193  0.800  0.400  0.503-  76 2.11  91 2.11  95 2.11  96 2.11  93 2.11
 194  0.900  0.500  0.503-  15 2.11  95 2.11  96 2.11 100 2.11  94 2.11
 195  0.800  0.500  0.407-  74 2.11  93 2.11  94 2.11  97 2.11  95 2.11
 196  0.900  0.400  0.407-  13 2.11  90 2.11  93 2.11  94 2.11  96 2.11
 197  0.800  0.600  0.503-  80 2.11  95 2.11  99 2.11 100 2.11  97 2.11
 198  0.900  0.700  0.503- 104 2.11  99 2.11 100 2.11  19 2.11  98 2.11
 199  0.800  0.700  0.407-  78 2.11 101 2.11  98 2.11  97 2.11  99 2.11
 200  0.900  0.600  0.407-  17 2.11  94 2.11  97 2.11  98 2.11 100 2.11
 201  0.800  0.800  0.503-  84 2.11  99 2.11 103 2.11 104 2.11 101 2.11
 202  0.900  0.900  0.503-  23 2.11  88 2.11 103 2.11 104 2.11 102 2.11
 203  0.800  0.900  0.407-  82 2.11  85 2.11 101 2.11 102 2.11 103 2.11
 204  0.900  0.800  0.407-  98 2.11  21 2.11 101 2.11 102 2.11 104 2.11

  LATTYP: Found a simple tetragonal cell.
 ALAT       =    21.1388521970
 C/A-ratio  =     1.0461251639

  Lattice vectors:

 A1 = (  21.1388521970,   0.0000000000,   0.0000000000)
 A2 = (   0.0000000000,  21.1388521970,   0.0000000000)
 A3 = (   0.0000000000,   0.0000000000,  22.1138852197)

Analysis of symmetry for initial positions (statically):
 Subroutine PRICEL returns:
 Original cell was already a primitive cell.

 Routine SETGRP: Setting up the symmetry group for a
 simple tetragonal supercell.

 Subroutine GETGRP returns: Found  1 space group operations
 (whereof  1 operations were pure point group operations)
 out of a pool of 16 trial point group operations.

The static configuration has the point symmetry C_1 .

Analysis of symmetry for dynamics (positions and initial velocities):
 Subroutine PRICEL returns:
 Original cell was already a primitive cell.

[...]

The dynamic configuration has the point symmetry C_1 .

Analysis of constrained symmetry for selective dynamics:
 Subroutine PRICEL returns:
 Original cell was already a primitive cell.

 Routine SETGRP: Setting up the symmetry group for a
 simple tetragonal supercell.

 Subroutine GETGRP returns: Found  1 space group operations
 (whereof  1 operations were pure point group operations)
 out of a pool of 16 trial point group operations.

The constrained configuration has the point symmetry C_1 .

 Subroutine INISYM returns: Found  1 space group operations
 (whereof  1 operations are pure point group operations),
 and found     1 'primitive' translations

                                     Primitive cell

  volume of cell :    9881.6133

  direct lattice vectors                    reciprocal lattice vectors
    21.138852197  0.000000000  0.000000000     0.047306258  0.000000000  0.000000000
     0.000000000 21.138852197  0.000000000     0.000000000  0.047306258  0.000000000
     0.000000000  0.000000000 22.113885220     0.000000000  0.000000000  0.045220457

  length of vectors
    21.138852197 21.138852197 22.113885220     0.047306258  0.047306258  0.045220457

  position of ions in fractional coordinates (direct lattice)
     0.289582037  0.506611861  0.637734502
     0.396872600  0.441829059  0.617838819
     0.397097437  0.569428494  0.609235494
     0.504915500  0.505823463  0.636583568
     0.000000000  0.000000000  0.406984115
     0.100000000  0.100000000  0.406984115
     0.000000000  0.100000000  0.502574971
     0.100000000  0.000000000  0.502574971
     0.000000000  0.200000000  0.406984115
     0.100000000  0.300000000  0.406984115
     0.000000000  0.300000000  0.502574971
[...]
    957       7.1976      0.00000
    958       7.2448      0.00000
    959       7.3408      0.00000
    960       7.3923      0.00000

 soft charge-density along one line, spin component           1
         0         1         2         3         4         5         6         7         8         9
 total charge-density along one line

------------------------ aborting loop because EDIFF is reached ----------------------------------------

 WARNING: Using user supplied parameters
     VDW_A1 = 0.495
     VDW_A2 = 5.731
     VDW_S8 = 0.79
     because the xc functional is not supported. Required parameters not
     defined in the INCAR file will be replaced with PBE defaults ones.

         DFTD3 V3.0 Rev 1
 IVDW         = 12
 DF unknown
 parameters
 VDW_S6       =    1.0000
 VDW_S8       =    0.7898
 VDW_A1       =    0.4948
 VDW_A2       =    5.7308
 k1-k3        =   16.0000    1.3333   -4.0000
 VDW_RADIUS   =   50.2022 A
 VDW_CNRADIUS =   21.1671 A
 Edisp (eV)  -13.07565

 E6    (eV) :    -8.8391
 E8    (eV) :    -4.2365
 % E8        : 32.40

  FORCE on cell =-STRESS in cart. coord.  units (eV):
  Direction    XX          YY          ZZ          XY          YZ          ZX
  Alpha Z  1417.83424  1417.83424  1417.83424
  Ewald  484651.50164483712.19756************    -3.57601   -87.59049   -13.50229
  Hartree513902.30560513115.60486************    -3.41516   -60.79665    -9.43784
  E(xc)   -8481.20729 -8481.63007 -8482.46395     0.00010    -0.06317    -0.01513
  Local  ************************************     7.13381   146.27051    22.50146
  n-local -8699.15023 -8699.28584 -8815.10942    -0.09797     1.01666     0.35763
  augment  3969.19041  3969.52666  3916.04598    -0.00862     0.27225    -0.00998
  Kinetic 23354.14977 23355.00875 23590.83862    -0.04552     0.94644     0.14369
  Fock        0.00000     0.00000     0.00000     0.00000     0.00000     0.00000
  vdW       -13.61507   -13.60346    -2.91088    -0.00012     0.00055     0.00012
  Total    -235.42246  -235.31015   -19.87471    -0.00948     0.05610     0.03767
  in kB     -38.17074   -38.15253    -3.22243    -0.00154     0.00910     0.00611

 VOLUME and BASIS-vectors are now :
  energy-cutoff  :      520.00
  volume of cell :     9881.61
      direct lattice vectors                 reciprocal lattice vectors
    21.138852197  0.000000000  0.000000000     0.047306258  0.000000000  0.000000000
     0.000000000 21.138852197  0.000000000     0.000000000  0.047306258  0.000000000
     0.000000000  0.000000000 22.113885220     0.000000000  0.000000000  0.045220457

  length of vectors
    21.138852197 21.138852197 22.113885220     0.047306258  0.047306258  0.045220457

 FORCES acting on ions:
    Electron-Ion                     Ewald-Force                    Non-Local-Force
   0.485E+03 -.687E+01 -.207E+04   -.480E+03 0.671E+01 0.207E+04   -.472E+01 0.159E+00 0.673E+00
   0.183E+01 0.485E+03 -.204E+04   -.183E+01 -.480E+03 0.204E+04   0.199E-02 -.462E+01 -.767E+00
   -.142E+01 -.472E+03 -.203E+04   0.131E+01 0.468E+03 0.203E+04   0.121E+00 0.374E+01 -.966E+00
   -.485E+03 -.425E+01 -.207E+04   0.480E+03 0.406E+01 0.207E+04   0.475E+01 0.186E+00 0.547E+00
   0.664E+01 -.546E+00 0.937E+03   -.667E+01 0.554E+00 -.929E+03   0.224E-01 -.616E-02 -.756E+01
   0.127E+02 0.109E+02 0.941E+03   -.127E+02 -.109E+02 -.933E+03   0.451E-01 -.364E-02 -.756E+01
   0.954E+01 0.100E+02 -.918E+03   -.956E+01 -.100E+02 0.910E+03   0.218E-01 -.155E-01 0.754E+01
   0.135E+02 -.967E+00 -.917E+03   -.136E+02 0.979E+00 0.909E+03   0.372E-01 -.968E-02 0.754E+01
   0.107E+02 0.143E+02 0.941E+03   -.108E+02 -.143E+02 -.933E+03   0.304E-01 -.132E-01 -.756E+01
   0.288E+02 0.247E+02 0.957E+03   -.289E+02 -.247E+02 -.948E+03   0.102E+00 -.791E-02 -.759E+01
   0.227E+02 0.217E+02 -.911E+03   -.227E+02 -.216E+02 0.903E+03   0.149E-01 -.286E-01 0.753E+01
   0.259E+02 0.288E+02 -.910E+03   -.260E+02 -.288E+02 0.902E+03   0.636E-01 -.305E-01 0.753E+01
   0.211E+02 0.113E+02 0.951E+03   -.212E+02 -.112E+02 -.943E+03   0.371E-01 -.701E-02 -.758E+01
   0.468E+02 0.135E+01 0.974E+03   -.470E+02 -.137E+01 -.966E+03   0.127E+00 0.129E-01 -.764E+01
   0.376E+02 0.108E+01 -.903E+03   -.376E+02 -.108E+01 0.895E+03   -.247E-01 0.587E-02 0.751E+01
   0.704E+02 0.318E+02 -.884E+03   -.704E+02 -.317E+02 0.877E+03   0.161E-01 -.505E-01 0.747E+01
   0.217E+02 -.102E+02 0.952E+03   -.218E+02 0.101E+02 -.944E+03   0.456E-01 0.175E-01 -.758E+01
   0.305E+02 -.247E+02 0.958E+03   -.306E+02 0.246E+02 -.950E+03   0.137E+00 0.128E-01 -.760E+01
   0.240E+02 -.215E+02 -.910E+03   -.240E+02 0.215E+02 0.902E+03   0.239E-01 0.321E-01 0.753E+01
   0.738E+02 -.293E+02 -.883E+03   -.738E+02 0.292E+02 0.875E+03   0.323E-01 0.665E-01 0.747E+01
   0.113E+02 -.148E+02 0.942E+03   -.114E+02 0.148E+02 -.934E+03   0.402E-01 0.886E-02 -.756E+01
   0.132E+02 -.123E+02 0.941E+03   -.133E+02 0.123E+02 -.933E+03   0.551E-01 -.141E-01 -.756E+01
   0.995E+01 -.113E+02 -.918E+03   -.999E+01 0.112E+02 0.910E+03   0.267E-01 0.607E-02 0.754E+01
   0.278E+02 -.304E+02 -.909E+03   -.279E+02 0.304E+02 0.901E+03   0.874E-01 0.243E-01 0.753E+01
   0.113E+02 -.104E+01 0.942E+03   -.114E+02 0.106E+01 -.934E+03   0.443E-01 -.164E-01 -.756E+01
   0.857E+01 0.192E+02 0.949E+03   -.862E+01 -.193E+02 -.940E+03   0.371E-01 0.538E-01 -.757E+01
   0.175E+02 0.214E+02 -.912E+03   -.175E+02 -.214E+02 0.904E+03   0.486E-01 0.914E-02 0.754E+01
   0.901E+01 -.181E+01 -.913E+03   -.904E+01 0.184E+01 0.905E+03   0.283E-01 -.219E-01 0.754E+01
   0.207E+02 0.301E+02 0.955E+03   -.209E+02 -.302E+02 -.947E+03   0.991E-01 0.389E-01 -.757E+01
   0.250E+02 0.556E+02 0.995E+03   -.253E+02 -.558E+02 -.986E+03   0.217E+00 0.179E+00 -.753E+01
   0.597E+02 0.698E+02 -.877E+03   -.600E+02 -.697E+02 0.870E+03   0.231E+00 -.868E-01 0.747E+01
   0.218E+02 0.653E+02 -.893E+03   -.219E+02 -.655E+02 0.885E+03   0.724E-01 0.152E+00 0.752E+01
   0.520E+02 0.322E+02 0.100E+04   -.524E+02 -.323E+02 -.992E+03   0.314E+00 0.256E-01 -.771E+01
   0.490E+02 0.439E+01 0.107E+04   -.496E+02 -.452E+01 -.106E+04   0.431E+00 0.996E-01 -.786E+01
   0.150E+03 0.678E+01 -.785E+03   -.150E+03 -.679E+01 0.778E+03   0.148E+00 0.105E-01 0.688E+01
   0.109E+03 0.136E+03 -.727E+03   -.111E+03 -.136E+03 0.720E+03   0.123E+01 -.858E-01 0.694E+01
   0.544E+02 -.295E+02 0.100E+04   -.549E+02 0.294E+02 -.995E+03   0.409E+00 0.180E-01 -.773E+01
   0.273E+02 -.571E+02 0.100E+04   -.277E+02 0.574E+02 -.993E+03   0.297E+00 -.221E+00 -.749E+01
   0.656E+02 -.726E+02 -.873E+03   -.660E+02 0.725E+02 0.865E+03   0.329E+00 0.103E+00 0.746E+01
   0.123E+03 -.131E+03 -.703E+03   -.126E+03 0.131E+03 0.697E+03   0.187E+01 0.205E+00 0.670E+01
   0.223E+02 -.319E+02 0.957E+03   -.224E+02 0.320E+02 -.949E+03   0.133E+00 -.667E-01 -.757E+01
   0.904E+01 -.220E+02 0.950E+03   -.910E+01 0.221E+02 -.942E+03   0.462E-01 -.107E+00 -.757E+01
   0.185E+02 -.244E+02 -.912E+03   -.186E+02 0.244E+02 0.904E+03   0.598E-01 -.421E-01 0.753E+01
   0.243E+02 -.713E+02 -.889E+03   -.244E+02 0.716E+02 0.882E+03   0.963E-01 -.243E+00 0.752E+01
   -.227E+00 -.142E+01 0.946E+03   0.225E+00 0.145E+01 -.938E+03   0.104E-02 -.266E-01 -.756E+01
   -.897E+01 0.191E+02 0.948E+03   0.902E+01 -.191E+02 -.940E+03   -.354E-01 0.537E-01 -.757E+01
   -.362E+00 0.311E+02 -.908E+03   0.360E+00 -.312E+02 0.900E+03   0.102E-02 0.650E-01 0.754E+01
   -.945E+01 -.177E+01 -.913E+03   0.948E+01 0.180E+01 0.905E+03   -.265E-01 -.226E-01 0.754E+01
   -.437E+00 0.439E+02 0.967E+03   0.435E+00 -.443E+02 -.959E+03   0.123E-02 0.252E+00 -.759E+01
   -.260E+02 0.548E+02 0.994E+03   0.262E+02 -.551E+02 -.986E+03   -.213E+00 0.189E+00 -.753E+01
   -.181E+01 0.139E+03 -.825E+03   0.180E+01 -.141E+03 0.817E+03   0.696E-03 0.110E+01 0.757E+01
   -.227E+02 0.644E+02 -.893E+03   0.228E+02 -.645E+02 0.885E+03   -.698E-01 0.151E+00 0.752E+01
   -.131E+01 0.563E+02 0.106E+04   0.129E+01 -.566E+02 -.105E+04   0.148E-01 0.252E+00 -.619E+01
   -.507E+02 0.423E+01 0.107E+04   0.513E+02 -.436E+01 -.106E+04   -.423E+00 0.100E+00 -.782E+01
   -.601E+01 0.230E+02 -.504E+03   0.598E+01 -.240E+02 0.499E+03   0.432E-01 0.702E+00 0.507E+01
   -.111E+03 0.133E+03 -.733E+03   0.112E+03 -.133E+03 0.726E+03   -.122E+01 -.562E-01 0.697E+01
   -.148E+01 -.517E+02 0.107E+04   0.146E+01 0.518E+02 -.106E+04   0.178E-01 -.115E+00 -.542E+01
   -.284E+02 -.563E+02 0.999E+03   0.288E+02 0.566E+02 -.991E+03   -.290E+00 -.231E+00 -.750E+01
   -.232E+01 -.153E+03 -.809E+03   0.231E+01 0.156E+03 0.801E+03   0.680E-02 -.168E+01 0.761E+01
   -.125E+03 -.128E+03 -.712E+03   0.127E+03 0.128E+03 0.705E+03   -.185E+01 0.182E+00 0.679E+01
[...]
   -.112E+02 0.118E+02 0.711E+03   0.113E+02 -.118E+02 -.715E+03   -.344E-01 -.121E-01 0.340E+01
   0.224E+00 0.909E+01 0.706E+03   -.223E+00 -.908E+01 -.710E+03   -.191E-02 -.141E-01 0.341E+01
   -.229E+02 0.115E+02 -.681E+03   0.229E+02 -.115E+02 0.685E+03   -.114E-01 -.210E-01 -.357E+01
   0.721E+00 0.567E+00 -.684E+03   -.717E+00 -.571E+00 0.688E+03   -.555E-02 0.607E-02 -.355E+01
   -.169E+02 0.543E+00 0.717E+03   0.169E+02 -.550E+00 -.720E+03   -.334E-01 0.910E-02 0.338E+01
   0.422E+00 0.675E+01 0.711E+03   -.419E+00 -.674E+01 -.715E+03   -.413E-02 -.723E-02 0.340E+01
   -.237E+02 -.105E+02 -.681E+03   0.237E+02 0.105E+02 0.685E+03   -.180E-01 0.339E-01 -.357E+01
   0.498E+00 -.125E+02 -.687E+03   -.495E+00 0.125E+02 0.691E+03   -.413E-02 0.275E-01 -.354E+01
   -.117E+02 -.117E+02 0.712E+03   0.118E+02 0.117E+02 -.715E+03   -.450E-01 0.157E-01 0.340E+01
   0.443E+00 -.609E+01 0.712E+03   -.440E+00 0.608E+01 -.715E+03   -.461E-02 0.175E-01 0.340E+01
   -.108E+02 -.142E+02 -.688E+03   0.109E+02 0.142E+02 0.692E+03   -.333E-01 0.151E-01 -.353E+01
   0.221E+00 -.709E+01 -.691E+03   -.220E+00 0.708E+01 0.695E+03   -.177E-02 0.460E-02 -.352E+01
   -.561E+01 -.656E+01 0.705E+03   0.564E+01 0.656E+01 -.709E+03   -.325E-01 -.447E-02 0.342E+01
   0.247E+00 -.939E+01 0.706E+03   -.245E+00 0.939E+01 -.710E+03   -.248E-02 0.982E-02 0.341E+01
   0.260E-02 0.875E+00 0.158E+02   0.273E-11 0.210E-11 0.218E-10   0.419E-03 -.873E+00 -.131E+02

 POSITION                                       TOTAL-FORCE (eV/Angst)
      6.12143     10.70919     14.10279         0.155806     -0.005541     -0.095780
      8.38943      9.33976     13.66282         0.003031      0.203176     -0.024604
      8.39418     12.03706     13.47256        -0.000067     -0.179853     -0.046832
     10.67333     10.69253     14.07734        -0.149595     -0.006996     -0.092363
      0.00000      0.00000      9.00000        -0.006313      0.001749      0.534536
      2.11389      2.11389      9.00000        -0.012730      0.000947      0.535032
      0.00000      2.11389     11.11389        -0.006048      0.004425     -0.484588
      2.11389      0.00000     11.11389        -0.010602      0.002709     -0.483969
      0.00000      4.22777      9.00000        -0.008159      0.003850      0.536751
      2.11389      6.34166      9.00000        -0.026575      0.003028      0.545025
      0.00000      6.34166     11.11389        -0.002916      0.008918     -0.478084
      2.11389      4.22777     11.11389        -0.016728      0.009251     -0.478209
      0.00000      8.45554      9.00000        -0.009456      0.002469      0.542498
      2.11389     10.56943      9.00000        -0.033168     -0.003796      0.558645
      0.00000     10.56943     11.11389         0.009179     -0.001762     -0.469607
      2.11389      8.45554     11.11389         0.005237      0.019788     -0.443173
      0.00000     12.68331      9.00000        -0.011726     -0.005511      0.542743
      2.11389     14.79720      9.00000        -0.035875     -0.004404      0.546035
      0.00000     14.79720     11.11389        -0.005244     -0.009942     -0.477340
      2.11389     12.68331     11.11389         0.001066     -0.024554     -0.440396
      0.00000     16.91108      9.00000        -0.010796     -0.002615      0.536896
      2.11389     19.02497      9.00000        -0.015536      0.004095      0.534890
      0.00000     19.02497     11.11389        -0.007375     -0.001753     -0.484279
      2.11389     16.91108     11.11389        -0.023054     -0.007443     -0.476781
      4.22777      0.00000      9.00000        -0.012820      0.004521      0.534783
      6.34166      2.11389      9.00000        -0.011018     -0.014177      0.535843
      4.22777      2.11389     11.11389        -0.013981     -0.001844     -0.480832
      6.34166      0.00000     11.11389        -0.008351      0.005976     -0.481582
      4.22777      4.22777      9.00000        -0.028406     -0.011358      0.536418
      6.34166      6.34166      9.00000        -0.069671     -0.055160      0.518109
      4.22777      6.34166     11.11389        -0.056855      0.032024     -0.439862
      6.34166      4.22777     11.11389        -0.021575     -0.038376     -0.468567
      4.22777      8.45554      9.00000        -0.079961     -0.003800      0.569733
      6.34166     10.56943      9.00000        -0.140400     -0.031905      0.543349
      4.22777     10.56943     11.11389        -0.013232     -0.001386     -0.224509
      6.34166      8.45554     11.11389        -0.405039      0.063894     -0.250143
      4.22777     12.68331      9.00000        -0.103469     -0.008865      0.572669
      6.34166     14.79720      9.00000        -0.095763      0.071155      0.502248
      4.22777     14.79720     11.11389        -0.081131     -0.037413     -0.429280
      6.34166     12.68331     11.11389        -0.630147     -0.090570     -0.219281
      4.22777     16.91108      9.00000        -0.038176      0.019527      0.535289
      6.34166     19.02497      9.00000        -0.013732      0.028698      0.535862
      4.22777     19.02497     11.11389        -0.017206      0.010881     -0.479775
      6.34166     16.91108     11.11389        -0.028578      0.062730     -0.463363
      8.45554      0.00000      9.00000        -0.000308      0.007206      0.535277
     10.56943      2.11389      9.00000         0.010455     -0.014212      0.535750
      8.45554      2.11389     11.11389        -0.000350     -0.015949     -0.479126
     10.56943      0.00000     11.11389         0.007774      0.006157     -0.481619
      8.45554      4.22777      9.00000        -0.000341     -0.064040      0.540271
     10.56943      6.34166      9.00000         0.068246     -0.058111      0.519559
      8.45554      6.34166     11.11389        -0.000232     -0.340796     -0.469903
     10.56943      4.22777     11.11389         0.020792     -0.037986     -0.468639
      8.45554      8.45554      9.00000        -0.005255     -0.049804      0.200556
     10.56943     10.56943      9.00000         0.138076     -0.032109      0.535858
      8.45554     10.56943     11.11389         0.008503     -0.287527     -0.497827
     10.56943      8.45554     11.11389         0.390250      0.057302     -0.238939
      8.45554     12.68331      9.00000        -0.006237      0.015160      0.025146
     10.56943     14.79720      9.00000         0.093655      0.074283      0.502643
      8.45554     14.79720     11.11389        -0.002306      0.527146     -0.484864
     10.56943     12.68331     11.11389         0.605596     -0.086864     -0.215512
[...]
     19.02497      6.34166     11.11389        -0.000940     -0.006689      0.326328
     16.91108      6.34166      9.00000        -0.009612     -0.003331     -0.383150
     19.02497      4.22777      9.00000        -0.000541     -0.003911     -0.380084
     16.91108      8.45554     11.11389        -0.003548     -0.005740      0.318178
     19.02497     10.56943     11.11389        -0.001540      0.001696      0.322247
     16.91108     10.56943      9.00000        -0.009522      0.002500     -0.388202
     19.02497      8.45554      9.00000        -0.001157     -0.002060     -0.383697
     16.91108     12.68331     11.11389        -0.005416      0.009280      0.317593
     19.02497     14.79720     11.11389        -0.001154      0.007601      0.325822
     16.91108     14.79720      9.00000        -0.012577      0.004323     -0.383218
     19.02497     12.68331      9.00000        -0.001290      0.004870     -0.383739
     16.91108     16.91108     11.11389        -0.009318      0.004140      0.327117
     19.02497     19.02497     11.11389        -0.000503      0.001259      0.330572
     16.91108     19.02497      9.00000        -0.009050     -0.001246     -0.379094
     19.02497     16.91108      9.00000        -0.000699      0.002709     -0.380109
    total drift:                                0.003021      0.002217      2.664982

  FREE ENERGIE OF THE ION-ELECTRON SYSTEM (eV)
  free  energy   TOTEN  =     -1759.55970124 eV

  energy  without entropy=    -1759.55970124  energy(sigma->0) =    -1759.55970124