 vasp.6.4.1 05Apr23 (build May 06 2023 19:47:20) complex

 executed on             LinuxIFC date 2023.07.04  00:18:40

 INCAR:
   SYSTEM = MgO-rocksalt
   ISMEAR = 0
   SIGMA = 0.05
   EDIFF = 1E-6
   ALGO = ALL
   ISTART = 0
   IBRION = -1
   NSW = 0
   ISYM = 2
   DIPOL = 0.5 0.5 0.5
   IDIPOL = 3
   LDIPOL = .TRUE.
   GGA = RE
   IVDW = 11
   ENCUT = 520
   PREC = Accurate
   LASPH = .TRUE.
   LREAL = Auto
   ISPIN = 1
   NELM = 200
   NELMIN = 8
   NCORE = 16
   KPAR = 1
   LWAVE = .FALSE.
   LCHARG = .FALSE.

 POTCAR:    PAW_PBE Ag 02Apr2005
 POTCAR:    PAW_PBE Mg_pv 13Apr2007
 POTCAR:    PAW_PBE O 08Apr2002
 POTCAR:    PAW_PBE Ag 02Apr2005
   VRHFIN =Ag : s1 d10

   TITEL  = PAW_PBE Ag 02Apr2005
   POMASS =  107.868; ZVAL   =   11.000    mass and valenz
   ENMAX  =  249.844; ENMIN  =  187.383 eV

   TITEL  = PAW_PBE Mg_pv 13Apr2007
   POMASS =   24.305; ZVAL   =    8.000    mass and valenz
   ENMAX  =  403.929; ENMIN  =  302.947 eV

   TITEL  = PAW_PBE O 08Apr2002
   POMASS =   16.000; ZVAL   =    6.000    mass and valenz
   ENMAX  =  400.000; ENMIN  =  300.000 eV

 Optimization of the real space projectors (new method)

 maximal supplied QI-value         = 15.12
 optimisation between [QCUT,QGAM] = [ 11.64, 23.28] = [ 37.95,151.78] Ry
 Optimized for a Real-space Cutoff    1.45 Angstroem

   l    n(q)    QCUT    max X(q) W(low)/X(q) W(high)/X(q)  e(spline)
   2      9    11.641    53.897    0.22E-03    0.42E-04    0.28E-06
   2      9    11.641    52.416    0.23E-03    0.44E-04    0.29E-06
   0     10    11.641   122.045    0.51E-04    0.25E-04    0.16E-06
   0     10    11.641    73.629    0.49E-04    0.24E-04    0.16E-06
   1     10    11.641    15.255    0.99E-04    0.55E-04    0.11E-06
   1     10    11.641     9.562    0.81E-04    0.47E-04    0.95E-07
 Optimization of the real space projectors (new method)

[...]

   l    n(q)    QCUT    max X(q) W(low)/X(q) W(high)/X(q)  e(spline)
   1      8    11.527     2.974    0.44E-04    0.56E-04    0.12E-06
   1      8    11.527     4.279    0.12E-03    0.12E-03    0.26E-06
   0      9    11.527    16.381    0.46E-04    0.64E-04    0.78E-07
   0      9    11.527     5.611    0.26E-04    0.43E-04    0.55E-07
   2      8    11.527     4.652    0.22E-03    0.72E-04    0.47E-07
 Optimization of the real space projectors (new method)

 maximal supplied QI-value         = 24.76
 optimisation between [QCUT,QGAM] = [ 11.64, 23.27] = [ 37.91,151.63] Ry
 Optimized for a Real-space Cutoff    1.14 Angstroem

   l    n(q)    QCUT    max X(q) W(low)/X(q) W(high)/X(q)  e(spline)
   0      8    11.635    20.381    0.10E-03    0.33E-03    0.24E-06
   0      8    11.635    15.268    0.11E-03    0.35E-03    0.26E-06
   1      7    11.635     5.964    0.24E-03    0.31E-03    0.30E-06
   1      7    11.635     5.382    0.22E-03    0.25E-03    0.26E-06
|               ----> ADVICE to this user running VASP <----                  |
|     You enforced a specific xc type in the INCAR file but a different       |
|     type was found in the POTCAR file.                                      |
|     I HOPE YOU KNOW WHAT YOU ARE DOING!                                     |

  PAW_PBE Ag 02Apr2005                  :
  PAW_PBE Mg_pv 13Apr2007               :
  PAW_PBE O 08Apr2002                   :

 POSCAR: Ag Mg  O
  positions in direct lattice
 exchange correlation table for  LEXCH =       40
   RHO(1)=    0.500       N(1)  =     2000
   RHO(2)=  100.500       N(2)  =     4000

 ion  position               nearest neighbor table
   1  0.493  0.407  0.638-   2 2.57  54 2.99
   2  0.407  0.493  0.638-   1 2.57  53 2.99
   3  0.000  0.000  0.407- 105 2.11 106 2.11 121 2.11 186 2.11 103 2.11
   4  0.100  0.100  0.407- 105 2.11 106 2.11 110 2.11 125 2.11 104 2.11
   5  0.000  0.100  0.503- 103 2.11 104 2.11 107 2.11 184 2.11 105 2.11
   6  0.100  0.000  0.503- 103 2.11 104 2.11 120 2.11 123 2.11 106 2.11
   7  0.000  0.200  0.407- 109 2.11 105 2.11 110 2.11 190 2.11 107 2.11
   8  0.100  0.300  0.407- 110 2.11 109 2.11 114 2.11 129 2.11 108 2.11
   9  0.000  0.300  0.503- 107 2.11 108 2.11 111 2.11 188 2.11 109 2.11
  10  0.100  0.200  0.503- 108 2.11 107 2.11 104 2.11 127 2.11 110 2.11
  11  0.000  0.400  0.407- 109 2.11 113 2.11 114 2.11 194 2.11 111 2.11
  12  0.100  0.500  0.407- 113 2.11 114 2.11 118 2.11 133 2.11 112 2.11
  13  0.000  0.500  0.503- 111 2.11 112 2.11 115 2.11 192 2.11 113 2.11
  14  0.100  0.400  0.503- 108 2.11 111 2.11 112 2.11 131 2.11 114 2.11
  15  0.000  0.600  0.407- 113 2.11 117 2.11 118 2.11 198 2.11 115 2.11
  16  0.100  0.700  0.407- 122 2.11 118 2.11 117 2.11 137 2.11 116 2.11
  17  0.000  0.700  0.503- 119 2.11 116 2.11 115 2.11 196 2.11 117 2.11
  18  0.100  0.600  0.503- 112 2.11 115 2.11 116 2.11 135 2.11 118 2.11
  19  0.000  0.800  0.407- 117 2.11 121 2.11 122 2.11 202 2.11 119 2.11
  20  0.100  0.900  0.407- 106 2.11 121 2.11 122 2.11 141 2.11 120 2.11
  21  0.000  0.900  0.503- 103 2.11 119 2.11 120 2.11 200 2.11 121 2.11
  22  0.100  0.800  0.503- 116 2.11 119 2.11 120 2.11 139 2.11 122 2.11
  23  0.200  0.000  0.407- 126 2.11 125 2.11 106 2.11 141 2.11 123 2.11
  24  0.300  0.100  0.407- 125 2.11 126 2.11 130 2.11 145 2.11 124 2.11
  25  0.200  0.100  0.503- 124 2.11 123 2.11 104 2.11 127 2.11 125 2.11
  26  0.300  0.000  0.503- 123 2.11 124 2.11 140 2.11 143 2.11 126 2.11
  27  0.200  0.200  0.407- 129 2.11 130 2.11 110 2.11 125 2.11 127 2.11
  28  0.300  0.300  0.407- 129 2.11 130 2.11 134 2.11 149 2.11 128 2.11
  29  0.200  0.300  0.503- 127 2.11 128 2.11 108 2.11 131 2.11 129 2.11
  30  0.300  0.200  0.503- 127 2.11 128 2.11 124 2.11 147 2.11 130 2.11
  31  0.200  0.400  0.407- 134 2.11 129 2.11 133 2.11 114 2.11 131 2.11
  32  0.300  0.500  0.407- 133 2.11 134 2.11 138 2.11 153 2.11 132 2.11
  33  0.200  0.500  0.503- 132 2.11 131 2.11 112 2.11 135 2.11 133 2.11
  34  0.300  0.400  0.503- 131 2.11 128 2.11 132 2.11 151 2.11 134 2.11
  35  0.200  0.600  0.407- 138 2.11 133 2.11 137 2.11 118 2.11 135 2.11
  36  0.300  0.700  0.407- 137 2.11 142 2.11 138 2.11 157 2.11 136 2.11
  37  0.200  0.700  0.503- 136 2.11 139 2.11 116 2.11 135 2.11 137 2.11
  38  0.300  0.600  0.503- 135 2.11 132 2.11 136 2.11 155 2.11 138 2.11
  39  0.200  0.800  0.407- 137 2.11 142 2.11 141 2.11 122 2.11 139 2.11
  40  0.300  0.900  0.407- 141 2.11 126 2.11 142 2.11 161 2.11 140 2.11
  41  0.200  0.900  0.503- 140 2.11 123 2.11 139 2.11 120 2.11 141 2.11
  42  0.300  0.800  0.503- 136 2.11 139 2.11 140 2.11 159 2.11 142 2.11
  43  0.400  0.000  0.407- 126 2.11 145 2.11 146 2.11 161 2.11 143 2.11
  44  0.500  0.100  0.407- 145 2.11 146 2.11 150 2.11 165 2.11 144 2.11
  45  0.400  0.100  0.503- 124 2.11 143 2.11 144 2.11 147 2.11 145 2.11
  46  0.500  0.000  0.503- 143 2.11 144 2.11 160 2.11 163 2.11 146 2.11
  47  0.400  0.200  0.407- 149 2.11 145 2.11 130 2.11 150 2.11 147 2.11
  48  0.500  0.300  0.407- 150 2.11 149 2.11 154 2.11 169 2.11 148 2.11
  49  0.400  0.300  0.503- 147 2.11 128 2.11 148 2.11 151 2.11 149 2.11
  50  0.500  0.200  0.503- 148 2.11 147 2.11 144 2.11 167 2.11 150 2.11
  51  0.400  0.400  0.407- 134 2.11 149 2.11 153 2.11 154 2.11 151 2.11
  52  0.500  0.500  0.407- 153 2.11 154 2.11 158 2.11 173 2.11 152 2.11
  53  0.400  0.500  0.503- 132 2.11 151 2.11 152 2.11 155 2.11 153 2.11   2 2.99
  54  0.500  0.400  0.503- 148 2.11 151 2.11 152 2.11 171 2.11 154 2.11   1 2.99
  55  0.400  0.600  0.407- 138 2.11 153 2.11 157 2.11 158 2.11 155 2.11
  56  0.500  0.700  0.407- 162 2.11 158 2.11 157 2.11 177 2.11 156 2.11
  57  0.400  0.700  0.503- 159 2.11 155 2.11 156 2.11 136 2.11 157 2.11
  58  0.500  0.600  0.503- 152 2.11 155 2.11 156 2.11 175 2.11 158 2.11
  59  0.400  0.800  0.407- 157 2.11 142 2.11 161 2.11 162 2.11 159 2.11
  60  0.500  0.900  0.407- 146 2.11 161 2.11 162 2.11 181 2.11 160 2.11
[...]
 188  0.900  0.300  0.503-  90 2.11  89 2.11   9 2.11  94 2.11  88 2.11
 189  0.800  0.300  0.407-  68 2.11  87 2.11  88 2.11  91 2.11  89 2.11
 190  0.900  0.200  0.407-  88 2.11  84 2.11  87 2.11   7 2.11  90 2.11
 191  0.800  0.400  0.503-  74 2.11  89 2.11  93 2.11  94 2.11  91 2.11
 192  0.900  0.500  0.503-  13 2.11  93 2.11  94 2.11  98 2.11  92 2.11
 193  0.800  0.500  0.407-  72 2.11  91 2.11  92 2.11  95 2.11  93 2.11
 194  0.900  0.400  0.407-  11 2.11  88 2.11  91 2.11  92 2.11  94 2.11
 195  0.800  0.600  0.503-  78 2.11  93 2.11  97 2.11  98 2.11  95 2.11
 196  0.900  0.700  0.503- 102 2.11  97 2.11  98 2.11  17 2.11  96 2.11
 197  0.800  0.700  0.407-  76 2.11  99 2.11  96 2.11  95 2.11  97 2.11
 198  0.900  0.600  0.407-  15 2.11  92 2.11  95 2.11  96 2.11  98 2.11
 199  0.800  0.800  0.503-  82 2.11  97 2.11 101 2.11 102 2.11  99 2.11
 200  0.900  0.900  0.503-  21 2.11  86 2.11 101 2.11 102 2.11 100 2.11
 201  0.800  0.900  0.407-  80 2.11  83 2.11  99 2.11 100 2.11 101 2.11
 202  0.900  0.800  0.407-  96 2.11  19 2.11  99 2.11 100 2.11 102 2.11

  LATTYP: Found a simple tetragonal cell.
 ALAT       =    21.1388521970
 C/A-ratio  =     1.0461251639

  Lattice vectors:

 A1 = (  21.1388521970,   0.0000000000,   0.0000000000)
 A2 = (   0.0000000000,  21.1388521970,   0.0000000000)
 A3 = (   0.0000000000,   0.0000000000,  22.1138852197)

Analysis of symmetry for initial positions (statically):
 Subroutine PRICEL returns:
 Original cell was already a primitive cell.

 Routine SETGRP: Setting up the symmetry group for a
 simple tetragonal supercell.

 Subroutine GETGRP returns: Found  4 space group operations
 (whereof  2 operations were pure point group operations)
 out of a pool of 16 trial point group operations.

The static configuration has the point symmetry C_1h.
 The point group associated with its full space group is C_2v.

Analysis of symmetry for dynamics (positions and initial velocities):
 Subroutine PRICEL returns:
 Original cell was already a primitive cell.

 Routine SETGRP: Setting up the symmetry group for a
 simple tetragonal supercell.

 Subroutine GETGRP returns: Found  4 space group operations
 (whereof  2 operations were pure point group operations)
 out of a pool of 16 trial point group operations.

The dynamic configuration has the point symmetry C_1h.
 The point group associated with its full space group is C_2v.

 Subroutine INISYM returns: Found  4 space group operations
 (whereof  2 operations are pure point group operations),
 and found     1 'primitive' translations

                                     Primitive cell

  volume of cell :    9881.6133

  direct lattice vectors                    reciprocal lattice vectors
    21.138852197  0.000000000  0.000000000     0.047306258  0.000000000  0.000000000
     0.000000000 21.138852197  0.000000000     0.000000000  0.047306258  0.000000000
     0.000000000  0.000000000 22.113885220     0.000000000  0.000000000  0.045220457

  length of vectors
    21.138852197 21.138852197 22.113885220     0.047306258  0.047306258  0.045220457

  position of ions in fractional coordinates (direct lattice)
     0.492981444  0.407018562  0.637532147
     0.407018532  0.492981474  0.637532147
     0.000000000  0.000000000  0.406984115
     0.100000000  0.100000000  0.406984115
     0.000000000  0.100000000  0.502574971
[...]
    855       4.6565      0.00000
    856       4.6701      0.00000
    857       4.6844      0.00000
    858       4.7439      0.00000
    859       4.8294      0.00000
    860       4.8594      0.00000
    861       4.8870      0.00000
    862       4.8878      0.00000
    863       4.9109      0.00000
    864       5.0424      0.00000

 soft charge-density along one line, spin component           1
         0         1         2         3         4         5         6         7         8         9
 total charge-density along one line

------------------------ aborting loop because EDIFF is reached ----------------------------------------

         DFTD3 V3.0 Rev 1
 IVDW         = 11
 DF revpbe
 parameters
 VDW_S6       =    1.0000
 VDW_S8       =    1.0100
 VDW_SR       =    0.9230
 rs18     =    1.0000
 alpha6   =   14.0000
 alpha8   =   16.0000
 k1-k3    =   16.0000    1.3333   -4.0000
 VDW_RADIUS   =   50.2022 A
 VDW_CNRADIUS =   21.1671 A
 Edisp (eV)  -36.50361

 E6    (eV) :   -20.8905
 E8    (eV) :   -15.6131
 % E8        : 42.77

  FORCE on cell =-STRESS in cart. coord.  units (eV):
  Direction    XX          YY          ZZ          XY          YZ          ZX
  Alpha Z  1357.53553  1357.53553  1357.53553
  Ewald  478265.93745478265.93745************  -335.41996     0.00001    -0.00000
  Hartree506988.09166506988.09169************  -245.46089     0.00000    -0.00000
  E(xc)   -7791.51801 -7791.51801 -7841.60136    -0.52321    -0.00000    -0.00000
  Local  ************************************   575.59340    -0.00001     0.00001
  n-local -8729.87983 -8729.87982 -8849.90080     1.54809     0.00000    -0.00000
  augment  3463.16749  3463.16750  3404.26068     1.01900     0.00000     0.00000
  Kinetic 22973.97618 22973.97619 23220.51936     3.13083    -0.00001     0.00000
  Fock        0.00000     0.00000     0.00000     0.00000     0.00000     0.00000
  vdW       -50.57428   -50.57428    -9.72734    -0.05530     0.00000    -0.00000
  Total    -154.55311  -154.55311    30.86309    -0.16804     0.00000     0.00000
  in kB     -25.05881   -25.05881     5.00406    -0.02725     0.00000     0.00000

 VOLUME and BASIS-vectors are now :
  energy-cutoff  :      520.00
  volume of cell :     9881.61
      direct lattice vectors                 reciprocal lattice vectors
    21.138852197  0.000000000  0.000000000     0.047306258  0.000000000  0.000000000
     0.000000000 21.138852197  0.000000000     0.000000000  0.047306258  0.000000000
     0.000000000  0.000000000 22.113885220     0.000000000  0.000000000  0.045220457

  length of vectors
    21.138852197 21.138852197 22.113885220     0.047306258  0.047306258  0.045220457

 FORCES acting on ions:
    Electron-Ion                     Ewald-Force                    Non-Local-Force
   -.190E+03 0.190E+03 -.198E+04   0.185E+03 -.185E+03 0.198E+04   0.508E+01 -.508E+01 0.127E+00
   0.190E+03 -.190E+03 -.198E+04   -.185E+03 0.185E+03 0.198E+04   -.508E+01 0.508E+01 0.127E+00
   0.171E+01 0.171E+01 0.931E+03   -.170E+01 -.170E+01 -.923E+03   -.181E-02 -.181E-02 -.752E+01
   0.612E+01 0.612E+01 0.933E+03   -.611E+01 -.611E+01 -.925E+03   -.404E-02 -.404E-02 -.752E+01
   0.257E+01 0.593E+01 -.922E+03   -.256E+01 -.593E+01 0.914E+03   -.868E-02 -.378E-03 0.750E+01
   0.593E+01 0.257E+01 -.922E+03   -.593E+01 -.256E+01 0.914E+03   -.378E-03 -.868E-02 0.750E+01
   0.287E+01 0.628E+01 0.933E+03   -.285E+01 -.629E+01 -.926E+03   -.108E-01 0.252E-02 -.752E+01
   0.126E+02 0.789E+01 0.939E+03   -.126E+02 -.790E+01 -.931E+03   -.108E-01 0.110E-01 -.752E+01
   0.567E+01 0.707E+01 -.919E+03   -.566E+01 -.707E+01 0.911E+03   -.128E-01 0.452E-02 0.750E+01
   0.124E+02 0.115E+02 -.919E+03   -.124E+02 -.115E+02 0.911E+03   -.157E-01 0.865E-03 0.750E+01
   0.510E+01 0.230E+01 0.936E+03   -.509E+01 -.230E+01 -.929E+03   -.148E-02 0.484E-02 -.752E+01
   0.163E+02 -.259E+01 0.942E+03   -.163E+02 0.258E+01 -.934E+03   0.330E-01 0.109E-01 -.752E+01
   0.808E+01 -.253E+01 -.918E+03   -.810E+01 0.252E+01 0.910E+03   0.118E-01 0.338E-02 0.750E+01
   0.249E+02 0.574E+01 -.912E+03   -.249E+02 -.577E+01 0.905E+03   -.860E-03 0.186E-01 0.750E+01
   0.485E+01 -.534E+01 0.935E+03   -.487E+01 0.534E+01 -.928E+03   0.163E-01 -.109E-02 -.752E+01
   0.986E+01 -.883E+01 0.936E+03   -.988E+01 0.884E+01 -.929E+03   0.180E-01 -.903E-02 -.752E+01
   0.514E+01 -.811E+01 -.920E+03   -.516E+01 0.812E+01 0.913E+03   0.171E-01 -.365E-02 0.750E+01
   0.213E+02 -.109E+02 -.914E+03   -.213E+02 0.109E+02 0.906E+03   0.395E-01 0.161E-02 0.750E+01
   0.259E+01 -.494E+01 0.932E+03   -.260E+01 0.495E+01 -.924E+03   0.889E-02 -.446E-02 -.752E+01
   0.494E+01 -.259E+01 0.932E+03   -.495E+01 0.260E+01 -.924E+03   0.446E-02 -.889E-02 -.752E+01
   0.236E+01 -.236E+01 -.923E+03   -.237E+01 0.237E+01 0.915E+03   0.386E-02 -.386E-02 0.750E+01
   0.889E+01 -.889E+01 -.920E+03   -.890E+01 0.890E+01 0.913E+03   0.124E-01 -.124E-01 0.750E+01
   0.628E+01 0.287E+01 0.933E+03   -.629E+01 -.285E+01 -.926E+03   0.252E-02 -.108E-01 -.752E+01
   0.789E+01 0.126E+02 0.939E+03   -.790E+01 -.126E+02 -.931E+03   0.110E-01 -.108E-01 -.752E+01
   0.115E+02 0.124E+02 -.919E+03   -.115E+02 -.124E+02 0.911E+03   0.865E-03 -.157E-01 0.750E+01
   0.707E+01 0.567E+01 -.919E+03   -.707E+01 -.566E+01 0.911E+03   0.452E-02 -.128E-01 0.750E+01
   0.131E+02 0.131E+02 0.940E+03   -.131E+02 -.131E+02 -.932E+03   -.249E-02 -.249E-02 -.753E+01
   0.215E+02 0.215E+02 0.961E+03   -.215E+02 -.215E+02 -.953E+03   0.162E-01 0.162E-01 -.757E+01
   0.332E+02 0.221E+02 -.905E+03   -.331E+02 -.221E+02 0.898E+03   -.465E-01 0.230E-01 0.749E+01
   0.221E+02 0.332E+02 -.905E+03   -.221E+02 -.331E+02 0.898E+03   0.230E-01 -.465E-01 0.749E+01
   0.257E+02 0.679E+01 0.954E+03   -.257E+02 -.685E+01 -.946E+03   -.707E-02 0.424E-01 -.752E+01
   0.299E+02 -.817E+01 0.979E+03   -.298E+02 0.812E+01 -.971E+03   -.400E-01 0.403E-01 -.733E+01
   0.520E+02 -.741E+01 -.893E+03   -.522E+02 0.736E+01 0.885E+03   0.116E+00 0.392E-01 0.751E+01
   0.745E+02 0.331E+02 -.849E+03   -.743E+02 -.333E+02 0.842E+03   -.133E+00 0.185E+00 0.744E+01
   0.212E+02 -.129E+02 0.950E+03   -.212E+02 0.129E+02 -.942E+03   0.318E-01 -.105E-01 -.750E+01
   0.129E+02 -.212E+02 0.950E+03   -.129E+02 0.212E+02 -.942E+03   0.105E-01 -.318E-01 -.750E+01
   0.220E+02 -.220E+02 -.911E+03   -.221E+02 0.221E+02 0.904E+03   0.297E-01 -.297E-01 0.751E+01
   0.498E+02 -.498E+02 -.870E+03   -.499E+02 0.499E+02 0.862E+03   0.882E-01 -.882E-01 0.755E+01
   0.883E+01 -.986E+01 0.936E+03   -.884E+01 0.988E+01 -.929E+03   0.903E-02 -.180E-01 -.752E+01
   0.534E+01 -.485E+01 0.935E+03   -.534E+01 0.487E+01 -.928E+03   0.109E-02 -.163E-01 -.752E+01
   0.811E+01 -.514E+01 -.920E+03   -.812E+01 0.516E+01 0.913E+03   0.365E-02 -.171E-01 0.750E+01
   0.109E+02 -.213E+02 -.914E+03   -.109E+02 0.213E+02 0.906E+03   -.161E-02 -.395E-01 0.750E+01
   0.230E+01 0.510E+01 0.936E+03   -.230E+01 -.509E+01 -.929E+03   0.484E-02 -.148E-02 -.752E+01
   -.259E+01 0.163E+02 0.942E+03   0.258E+01 -.163E+02 -.934E+03   0.109E-01 0.330E-01 -.752E+01
   0.574E+01 0.249E+02 -.912E+03   -.577E+01 -.249E+02 0.905E+03   0.186E-01 -.860E-03 0.750E+01
   -.253E+01 0.808E+01 -.918E+03   0.252E+01 -.810E+01 0.910E+03   0.338E-02 0.118E-01 0.750E+01
   0.679E+01 0.257E+02 0.954E+03   -.685E+01 -.257E+02 -.946E+03   0.424E-01 -.707E-02 -.752E+01
   -.817E+01 0.299E+02 0.979E+03   0.812E+01 -.298E+02 -.971E+03   0.403E-01 -.400E-01 -.733E+01
   0.331E+02 0.745E+02 -.849E+03   -.333E+02 -.743E+02 0.842E+03   0.185E+00 -.133E+00 0.744E+01
   -.741E+01 0.520E+02 -.893E+03   0.736E+01 -.522E+02 0.885E+03   0.392E-01 0.116E+00 0.751E+01
   0.154E+02 0.154E+02 0.100E+04   -.154E+02 -.154E+02 -.992E+03   0.146E-01 0.146E-01 -.769E+01
   -.154E+02 -.154E+02 0.100E+04   0.154E+02 0.154E+02 -.992E+03   -.146E-01 -.146E-01 -.769E+01
   0.430E+02 -.430E+02 -.731E+03   -.426E+02 0.426E+02 0.724E+03   -.297E+00 0.297E+00 0.617E+01
   -.430E+02 0.430E+02 -.731E+03   0.426E+02 -.426E+02 0.724E+03   0.297E+00 -.297E+00 0.617E+01
   0.817E+01 -.299E+02 0.979E+03   -.812E+01 0.298E+02 -.971E+03   -.403E-01 0.400E-01 -.733E+01
   -.679E+01 -.257E+02 0.954E+03   0.685E+01 0.257E+02 -.946E+03   -.424E-01 0.707E-02 -.752E+01
   0.741E+01 -.520E+02 -.893E+03   -.736E+01 0.522E+02 0.885E+03   -.392E-01 -.116E+00 0.751E+01
   -.331E+02 -.745E+02 -.849E+03   0.333E+02 0.743E+02 0.842E+03   -.185E+00 0.133E+00 0.744E+01
   0.259E+01 -.163E+02 0.942E+03   -.258E+01 0.163E+02 -.934E+03   -.109E-01 -.330E-01 -.752E+01
   -.230E+01 -.510E+01 0.936E+03   0.230E+01 0.509E+01 -.929E+03   -.484E-02 0.148E-02 -.752E+01
[...]
   -.103E+02 0.568E+01 0.706E+03   0.103E+02 -.568E+01 -.710E+03   -.262E-01 0.407E-02 0.347E+01
   -.278E+01 0.477E+01 0.702E+03   0.278E+01 -.478E+01 -.706E+03   -.132E-01 0.508E-02 0.346E+01
   -.196E+02 0.270E+01 -.685E+03   0.197E+02 -.268E+01 0.690E+03   -.233E-01 -.194E-01 -.348E+01
   -.559E+01 -.230E+01 -.690E+03   0.559E+01 0.231E+01 0.694E+03   0.128E-02 -.707E-02 -.348E+01
   -.118E+02 -.279E+01 0.708E+03   0.118E+02 0.280E+01 -.712E+03   -.422E-02 -.225E-01 0.346E+01
   -.409E+01 0.148E+01 0.704E+03   0.410E+01 -.148E+01 -.708E+03   -.862E-02 -.328E-02 0.346E+01
   -.141E+02 -.846E+01 -.688E+03   0.141E+02 0.847E+01 0.692E+03   0.978E-02 -.118E-01 -.349E+01
   -.286E+01 -.596E+01 -.692E+03   0.285E+01 0.596E+01 0.696E+03   0.106E-01 -.205E-02 -.348E+01
   -.667E+01 -.636E+01 0.703E+03   0.667E+01 0.636E+01 -.707E+03   0.918E-02 0.345E-03 0.346E+01
   -.302E+01 -.409E+01 0.703E+03   0.301E+01 0.410E+01 -.707E+03   0.776E-02 -.536E-02 0.346E+01
   -.597E+01 -.597E+01 -.692E+03   0.596E+01 0.596E+01 0.696E+03   0.712E-02 0.712E-02 -.348E+01
   -.157E+01 -.157E+01 -.693E+03   0.156E+01 0.156E+01 0.698E+03   0.225E-02 0.225E-02 -.348E+01
   -.358E+01 -.153E+01 0.700E+03   0.358E+01 0.152E+01 -.705E+03   0.190E-04 0.668E-02 0.346E+01
   -.153E+01 -.358E+01 0.700E+03   0.152E+01 0.358E+01 -.705E+03   0.668E-02 0.190E-04 0.346E+01
   -.308E-01 0.152E-01 0.621E+01   0.309E-11 -.100E-11 -.261E-11   -.286E-16 0.130E-16 -.685E+01

 POSITION                                       TOTAL-FORCE (eV/Angst)
     10.42106      8.60391     14.09831         0.156030     -0.156030     -0.096488
      8.60390     10.42106     14.09831        -0.156030      0.156030     -0.096488
      0.00000      0.00000      9.00000         0.000507      0.000507      0.228395
      2.11389      2.11389      9.00000         0.001202      0.001202      0.228932
      0.00000      2.11389     11.11389         0.002374      0.000159     -0.226961
      2.11389      0.00000     11.11389         0.000159      0.002374     -0.226961
      0.00000      4.22777      9.00000         0.002872     -0.000642      0.228538
      2.11389      6.34166      9.00000         0.002812     -0.002868      0.229100
      0.00000      6.34166     11.11389         0.003503     -0.001199     -0.226439
      2.11389      4.22777     11.11389         0.004485      0.000146     -0.225667
      0.00000      8.45554      9.00000         0.000349     -0.001408      0.228443
      2.11389     10.56943      9.00000        -0.008038     -0.003246      0.228948
      0.00000     10.56943     11.11389        -0.002888     -0.001015     -0.226731
      2.11389      8.45554     11.11389         0.001344     -0.005306     -0.225014
      0.00000     12.68331      9.00000        -0.004226      0.000320      0.228183
      2.11389     14.79720      9.00000        -0.004865      0.002566      0.227211
      0.00000     14.79720     11.11389        -0.004553      0.001017     -0.227199
      2.11389     12.68331     11.11389        -0.010007     -0.000524     -0.227774
      0.00000     16.91108      9.00000        -0.002401      0.001223      0.228153
      2.11389     19.02497      9.00000        -0.001223      0.002401      0.228153
      0.00000     19.02497     11.11389        -0.001038      0.001038     -0.227218
      2.11389     16.91108     11.11389        -0.003334      0.003334     -0.227538
      4.22777      0.00000      9.00000        -0.000642      0.002872      0.228538
      6.34166      2.11389      9.00000        -0.002868      0.002812      0.229100
      4.22777      2.11389     11.11389         0.000146      0.004485     -0.225667
      6.34166      0.00000     11.11389        -0.001199      0.003503     -0.226439
      4.22777      4.22777      9.00000         0.001298      0.001298      0.231278
      6.34166      6.34166      9.00000        -0.000970     -0.000970      0.244293
      4.22777      6.34166     11.11389         0.015827     -0.003514     -0.218868
      6.34166      4.22777     11.11389        -0.003514      0.015827     -0.218868
      4.22777      8.45554      9.00000         0.000909     -0.012898      0.229306
      6.34166     10.56943      9.00000         0.017464     -0.013691      0.191723
      4.22777     10.56943     11.11389        -0.028866     -0.013216     -0.219346
      6.34166      8.45554     11.11389         0.109639     -0.009455     -0.104007
      4.22777     12.68331      9.00000        -0.008529      0.003582      0.223901
      6.34166     14.79720      9.00000        -0.003582      0.008529      0.223901
      4.22777     14.79720     11.11389        -0.007443      0.007443     -0.229498
      6.34166     12.68331     11.11389         0.010226     -0.010226     -0.202084
      4.22777     16.91108      9.00000        -0.002566      0.004865      0.227211
      6.34166     19.02497      9.00000        -0.000320      0.004226      0.228183
      4.22777     19.02497     11.11389        -0.001017      0.004553     -0.227199
      6.34166     16.91108     11.11389         0.000524      0.010007     -0.227774
      8.45554      0.00000      9.00000        -0.001408      0.000349      0.228443
     10.56943      2.11389      9.00000        -0.003246     -0.008038      0.228948
      8.45554      2.11389     11.11389        -0.005306      0.001344     -0.225014
     10.56943      0.00000     11.11389        -0.001015     -0.002888     -0.226731
      8.45554      4.22777      9.00000        -0.012898      0.000909      0.229306
     10.56943      6.34166      9.00000        -0.013691      0.017464      0.191723
      8.45554      6.34166     11.11389        -0.009455      0.109639     -0.104007
     10.56943      4.22777     11.11389        -0.013216     -0.028866     -0.219346
      8.45554      8.45554      9.00000         0.003045      0.003045      0.268863
     10.56943     10.56943      9.00000        -0.003045     -0.003045      0.268863
      8.45554     10.56943     11.11389         0.156294     -0.156294     -0.314212
     10.56943      8.45554     11.11389        -0.156294      0.156294     -0.314212
      8.45554     12.68331      9.00000         0.013691     -0.017464      0.191723
     10.56943     14.79720      9.00000         0.012898     -0.000909      0.229306
      8.45554     14.79720     11.11389         0.013216      0.028866     -0.219346
     10.56943     12.68331     11.11389         0.009455     -0.109639     -0.104007
      8.45554     16.91108      9.00000         0.003246      0.008038      0.228948
     10.56943     19.02497      9.00000         0.001408     -0.000349      0.228443
[...]
     19.02497      6.34166     11.11389        -0.004147      0.000425      0.574665
     16.91108      6.34166      9.00000        -0.007498      0.001237     -0.574765
     19.02497      4.22777      9.00000        -0.003691      0.001471     -0.576091
     16.91108      8.45554     11.11389        -0.006954     -0.005334      0.574756
     19.02497     10.56943     11.11389         0.000285     -0.001972      0.574054
     16.91108     10.56943      9.00000        -0.001490     -0.006300     -0.577061
     19.02497      8.45554      9.00000        -0.002470     -0.000883     -0.576166
     16.91108     12.68331     11.11389         0.002469     -0.003378      0.572642
     19.02497     14.79720     11.11389         0.002918     -0.000607      0.574293
     16.91108     14.79720      9.00000         0.002448      0.000002     -0.577298
     19.02497     12.68331      9.00000         0.002114     -0.001540     -0.576604
     16.91108     16.91108     11.11389         0.001915      0.001915      0.573988
     19.02497     19.02497     11.11389         0.000612      0.000612      0.574739
     16.91108     19.02497      9.00000        -0.000024      0.001834     -0.576558
     19.02497     16.91108      9.00000         0.001834     -0.000024     -0.576558
    total drift:                               -0.030792      0.015166     -0.646675

  FREE ENERGIE OF THE ION-ELECTRON SYSTEM (eV)
  free  energy   TOTEN  =     -1124.83669871 eV

  energy  without entropy=    -1124.83669871  energy(sigma->0) =    -1124.83669871