 vasp.6.3.0 20Jan22 (build Apr  1 2022 16:44:48) complex
 executed on        HPECrayEX_GCC date 2023.01.09  17:51:58

 INCAR:
   SYSTEM = MgO-rocksalt
   ISMEAR = 0
   SIGMA = 0.05
   EDIFF = 1E-6
   ALGO = ALL
   ISTART = 0
   IBRION = -1
   NSW = 0
   ISYM = 2
   DIPOL = 0.5 0.5 0.5
   IDIPOL = 3
   LDIPOL = .TRUE.
   GGA = PS
   ENCUT = 520
   PREC = Accurate
   LASPH = .TRUE.
   LREAL = Auto
   ISPIN = 1
   NELM = 200
   NELMIN = 8
   NCORE = 4
   KPAR = 2
   LWAVE = .FALSE.
   LCHARG = .FALSE.

 POTCAR:    PAW_PBE Au 04Oct2007
 POTCAR:    PAW_PBE Mg_pv 13Apr2007
 POTCAR:    PAW_PBE O 08Apr2002
 POTCAR:    PAW_PBE Au 04Oct2007
   VRHFIN =Au: s1d10

   TITEL  = PAW_PBE Au 04Oct2007
   POMASS =  196.966; ZVAL   =   11.000    mass and valenz
   ENMAX  =  229.943; ENMIN  =  172.457 eV

   TITEL  = PAW_PBE Mg_pv 13Apr2007
   POMASS =   24.305; ZVAL   =    8.000    mass and valenz
   ENMAX  =  403.929; ENMIN  =  302.947 eV

   TITEL  = PAW_PBE O 08Apr2002
   POMASS =   16.000; ZVAL   =    6.000    mass and valenz
   ENMAX  =  400.000; ENMIN  =  300.000 eV

 Optimization of the real space projectors (new method)

 maximal supplied QI-value         = 15.12
 optimisation between [QCUT,QGAM] = [ 11.64, 23.28] = [ 37.95,151.78] Ry
 Optimized for a Real-space Cutoff    1.49 Angstroem

   l    n(q)    QCUT    max X(q) W(low)/X(q) W(high)/X(q)  e(spline)
   2      9    11.641    60.898    0.24E-03    0.10E-03    0.19E-06
   2      9    11.641    58.894    0.25E-03    0.10E-03    0.19E-06
   0     10    11.641   109.617    0.73E-04    0.33E-04    0.11E-06
   0     10    11.641    75.026    0.71E-04    0.32E-04    0.11E-06
   1     10    11.641    16.344    0.27E-04    0.97E-04    0.16E-06
   1     10    11.641    10.160    0.23E-04    0.77E-04    0.13E-06
 Optimization of the real space projectors (new method)

[...]

   l    n(q)    QCUT    max X(q) W(low)/X(q) W(high)/X(q)  e(spline)
   1      8    11.527     2.974    0.44E-04    0.56E-04    0.12E-06
   1      8    11.527     4.279    0.12E-03    0.12E-03    0.26E-06
   0      9    11.527    16.381    0.46E-04    0.64E-04    0.78E-07
   0      9    11.527     5.611    0.26E-04    0.43E-04    0.55E-07
   2      8    11.527     4.652    0.22E-03    0.72E-04    0.47E-07
 Optimization of the real space projectors (new method)

 maximal supplied QI-value         = 24.76
 optimisation between [QCUT,QGAM] = [ 11.64, 23.27] = [ 37.91,151.63] Ry
 Optimized for a Real-space Cutoff    1.14 Angstroem

   l    n(q)    QCUT    max X(q) W(low)/X(q) W(high)/X(q)  e(spline)
   0      8    11.635    20.381    0.10E-03    0.33E-03    0.24E-06
   0      8    11.635    15.268    0.11E-03    0.35E-03    0.26E-06
   1      7    11.635     5.964    0.24E-03    0.31E-03    0.30E-06
   1      7    11.635     5.382    0.22E-03    0.25E-03    0.26E-06
|               ----> ADVICE to this user running VASP <----                  |
|     You enforced a specific xc type in the INCAR file but a different       |
|     type was found in the POTCAR file.                                      |
|     I HOPE YOU KNOW WHAT YOU ARE DOING!                                     |

  PAW_PBE Au 04Oct2007                  :
  PAW_PBE Mg_pv 13Apr2007               :
  PAW_PBE O 08Apr2002                   :

 POSCAR: Au Mg  O
  positions in direct lattice
  velocities in cartesian coordinates
 exchange correlation table for  LEXCH =       14
   RHO(1)=    0.500       N(1)  =     2000
   RHO(2)=  100.500       N(2)  =     4000

 ion  position               nearest neighbor table
   1  0.404  0.596  0.665-   2 2.57   4 2.74
   2  0.332  0.668  0.602- 138 2.40   1 2.57  59 2.71  40 2.71
   3  0.568  0.432  0.602- 173 2.40   4 2.57  75 2.71  56 2.71
   4  0.496  0.504  0.665-   3 2.57   1 2.74
   5  0.000  0.000  0.407- 107 2.11 108 2.11 123 2.11 188 2.11 105 2.11
   6  0.100  0.100  0.407- 107 2.11 108 2.11 112 2.11 127 2.11 106 2.11
   7  0.000  0.100  0.503- 105 2.11 106 2.11 109 2.11 186 2.11 107 2.11
   8  0.100  0.000  0.503- 105 2.11 106 2.11 122 2.11 125 2.11 108 2.11
   9  0.000  0.200  0.407- 111 2.11 107 2.11 112 2.11 192 2.11 109 2.11
  10  0.100  0.300  0.407- 112 2.11 111 2.11 116 2.11 131 2.11 110 2.11
  11  0.000  0.300  0.503- 109 2.11 110 2.11 113 2.11 190 2.11 111 2.11
  12  0.100  0.200  0.503- 110 2.11 109 2.11 106 2.11 129 2.11 112 2.11
  13  0.000  0.400  0.407- 111 2.11 115 2.11 116 2.11 196 2.11 113 2.11
  14  0.100  0.500  0.407- 115 2.11 116 2.11 120 2.11 135 2.11 114 2.11
  15  0.000  0.500  0.503- 113 2.11 114 2.11 117 2.11 194 2.11 115 2.11
  16  0.100  0.400  0.503- 110 2.11 113 2.11 114 2.11 133 2.11 116 2.11
  17  0.000  0.600  0.407- 115 2.11 119 2.11 120 2.11 200 2.11 117 2.11
  18  0.100  0.700  0.407- 124 2.11 120 2.11 119 2.11 139 2.11 118 2.11
  19  0.000  0.700  0.503- 121 2.11 118 2.11 117 2.11 198 2.11 119 2.11
  20  0.100  0.600  0.503- 114 2.11 117 2.11 118 2.11 137 2.11 120 2.11
  21  0.000  0.800  0.407- 119 2.11 123 2.11 124 2.11 204 2.11 121 2.11
  22  0.100  0.900  0.407- 108 2.11 123 2.11 124 2.11 143 2.11 122 2.11
  23  0.000  0.900  0.503- 105 2.11 121 2.11 122 2.11 202 2.11 123 2.11
  24  0.100  0.800  0.503- 118 2.11 121 2.11 122 2.11 141 2.11 124 2.11
  25  0.200  0.000  0.407- 128 2.11 127 2.11 108 2.11 143 2.11 125 2.11
  26  0.300  0.100  0.407- 127 2.11 128 2.11 132 2.11 147 2.11 126 2.11
  27  0.200  0.100  0.503- 126 2.11 125 2.11 106 2.11 129 2.11 127 2.11
  28  0.300  0.000  0.503- 125 2.11 126 2.11 142 2.11 145 2.11 128 2.11
  29  0.200  0.200  0.407- 131 2.11 132 2.11 112 2.11 127 2.11 129 2.11
  30  0.300  0.300  0.407- 131 2.11 132 2.11 136 2.11 151 2.11 130 2.11
  31  0.200  0.300  0.503- 129 2.11 130 2.11 110 2.11 133 2.11 131 2.11
  32  0.300  0.200  0.503- 129 2.11 130 2.11 126 2.11 149 2.11 132 2.11
  33  0.200  0.400  0.407- 136 2.11 131 2.11 135 2.11 116 2.11 133 2.11
  34  0.300  0.500  0.407- 135 2.11 136 2.11 140 2.11 155 2.11 134 2.11
  35  0.200  0.500  0.503- 134 2.11 133 2.11 114 2.11 137 2.11 135 2.11
  36  0.300  0.400  0.503- 133 2.11 130 2.11 134 2.11 153 2.11 136 2.11
  37  0.200  0.600  0.407- 140 2.11 135 2.11 139 2.11 120 2.11 137 2.11
  38  0.300  0.700  0.407- 139 2.11 144 2.11 140 2.11 159 2.11 138 2.11
  39  0.200  0.700  0.503- 138 2.11 141 2.11 118 2.11 137 2.11 139 2.11
  40  0.300  0.600  0.503- 137 2.11 134 2.11 138 2.11 157 2.11 140 2.11   2 2.71
  41  0.200  0.800  0.407- 139 2.11 144 2.11 143 2.11 124 2.11 141 2.11
  42  0.300  0.900  0.407- 143 2.11 128 2.11 144 2.11 163 2.11 142 2.11
  43  0.200  0.900  0.503- 142 2.11 125 2.11 141 2.11 122 2.11 143 2.11
  44  0.300  0.800  0.503- 138 2.11 141 2.11 142 2.11 161 2.11 144 2.11
  45  0.400  0.000  0.407- 128 2.11 147 2.11 148 2.11 163 2.11 145 2.11
  46  0.500  0.100  0.407- 147 2.11 148 2.11 152 2.11 167 2.11 146 2.11
  47  0.400  0.100  0.503- 126 2.11 145 2.11 146 2.11 149 2.11 147 2.11
  48  0.500  0.000  0.503- 145 2.11 146 2.11 162 2.11 165 2.11 148 2.11
  49  0.400  0.200  0.407- 151 2.11 147 2.11 132 2.11 152 2.11 149 2.11
  50  0.500  0.300  0.407- 152 2.11 151 2.11 156 2.11 171 2.11 150 2.11
  51  0.400  0.300  0.503- 149 2.11 130 2.11 150 2.11 153 2.11 151 2.11
  52  0.500  0.200  0.503- 150 2.11 149 2.11 146 2.11 169 2.11 152 2.11
  53  0.400  0.400  0.407- 136 2.11 151 2.11 155 2.11 156 2.11 153 2.11
  54  0.500  0.500  0.407- 155 2.11 156 2.11 160 2.11 175 2.11 154 2.11
  55  0.400  0.500  0.503- 134 2.11 153 2.11 154 2.11 157 2.11 155 2.11
  56  0.500  0.400  0.503- 150 2.11 153 2.11 154 2.11 173 2.11 156 2.11   3 2.71
  57  0.400  0.600  0.407- 140 2.11 155 2.11 159 2.11 160 2.11 157 2.11
  58  0.500  0.700  0.407- 164 2.11 160 2.11 159 2.11 179 2.11 158 2.11
  59  0.400  0.700  0.503- 161 2.11 157 2.11 158 2.11 138 2.11 159 2.11   2 2.71
  60  0.500  0.600  0.503- 154 2.11 157 2.11 158 2.11 177 2.11 160 2.11
[...]
 190  0.900  0.300  0.503-  92 2.11  91 2.11  11 2.11  96 2.11  90 2.11
 191  0.800  0.300  0.407-  70 2.11  89 2.11  90 2.11  93 2.11  91 2.11
 192  0.900  0.200  0.407-  90 2.11  86 2.11  89 2.11   9 2.11  92 2.11
 193  0.800  0.400  0.503-  76 2.11  91 2.11  95 2.11  96 2.11  93 2.11
 194  0.900  0.500  0.503-  15 2.11  95 2.11  96 2.11 100 2.11  94 2.11
 195  0.800  0.500  0.407-  74 2.11  93 2.11  94 2.11  97 2.11  95 2.11
 196  0.900  0.400  0.407-  13 2.11  90 2.11  93 2.11  94 2.11  96 2.11
 197  0.800  0.600  0.503-  80 2.11  95 2.11  99 2.11 100 2.11  97 2.11
 198  0.900  0.700  0.503- 104 2.11  99 2.11 100 2.11  19 2.11  98 2.11
 199  0.800  0.700  0.407-  78 2.11 101 2.11  98 2.11  97 2.11  99 2.11
 200  0.900  0.600  0.407-  17 2.11  94 2.11  97 2.11  98 2.11 100 2.11
 201  0.800  0.800  0.503-  84 2.11  99 2.11 103 2.11 104 2.11 101 2.11
 202  0.900  0.900  0.503-  23 2.11  88 2.11 103 2.11 104 2.11 102 2.11
 203  0.800  0.900  0.407-  82 2.11  85 2.11 101 2.11 102 2.11 103 2.11
 204  0.900  0.800  0.407-  98 2.11  21 2.11 101 2.11 102 2.11 104 2.11

  LATTYP: Found a simple tetragonal cell.
 ALAT       =    21.1388521970
 C/A-ratio  =     1.0461251639

  Lattice vectors:

 A1 = (  21.1388521970,   0.0000000000,   0.0000000000)
 A2 = (   0.0000000000,  21.1388521970,   0.0000000000)
 A3 = (   0.0000000000,   0.0000000000,  22.1138852197)

Analysis of symmetry for initial positions (statically):
 Subroutine PRICEL returns:
 Original cell was already a primitive cell.

 Routine SETGRP: Setting up the symmetry group for a
 simple tetragonal supercell.

 Subroutine GETGRP returns: Found  2 space group operations
 (whereof  1 operations were pure point group operations)
 out of a pool of 16 trial point group operations.

The static configuration has the point symmetry C_1 .
 The point group associated with its full space group is C_1h.

Analysis of symmetry for dynamics (positions and initial velocities):
 Subroutine PRICEL returns:
 Original cell was already a primitive cell.

[...]

The dynamic configuration has the point symmetry C_1 .
 The point group associated with its full space group is C_1h.

Analysis of constrained symmetry for selective dynamics:
 Subroutine PRICEL returns:
 Original cell was already a primitive cell.

 Routine SETGRP: Setting up the symmetry group for a
 simple tetragonal supercell.

 Subroutine GETGRP returns: Found  2 space group operations
 (whereof  1 operations were pure point group operations)
 out of a pool of 16 trial point group operations.

The constrained configuration has the point symmetry C_1 .
 The point group associated with its full space group is C_1h.

 Subroutine INISYM returns: Found  2 space group operations
 (whereof  1 operations are pure point group operations),
 and found     1 'primitive' translations

                                     Primitive cell

  volume of cell :    9881.6133

  direct lattice vectors                    reciprocal lattice vectors
    21.138852197  0.000000000  0.000000000     0.047306258  0.000000000  0.000000000
     0.000000000 21.138852197  0.000000000     0.000000000  0.047306258  0.000000000
     0.000000000  0.000000000 22.113885220     0.000000000  0.000000000  0.045220457

  length of vectors
    21.138852197 21.138852197 22.113885220     0.047306258  0.047306258  0.045220457

[...]
     52     -42.8835      2.00000
     53     -42.8788      2.00000
     54     -42.8758      2.00000
     55     -42.8755      2.00000
     56     -42.8754      2.00000
     57     -42.8748      2.00000
     58     -42.8743      2.00000
     59     -42.8728      2.00000
     60     -42.8728      2.00000
[...]
    946       6.2006      0.00000
    947       6.2416      0.00000
    948       6.2698      0.00000
    949       6.3193      0.00000
    950       6.3427      0.00000
    951       6.4201      0.00000
    952       6.4797      0.00000
    953       6.4841      0.00000
    954       6.5333      0.00000
    955       6.6015      0.00000
    956       6.6695      0.00000
    957       6.6888      0.00000
    958       6.7122      0.00000
    959       6.7581      0.00000
    960       6.8191      0.00000

 soft charge-density along one line, spin component           1
         0         1         2         3         4         5         6         7         8         9
 total charge-density along one line

------------------------ aborting loop because EDIFF is reached ----------------------------------------

  FORCE on cell =-STRESS in cart. coord.  units (eV):
  Direction    XX          YY          ZZ          XY          YZ          ZX
  Alpha Z  1417.83424  1417.83424  1417.83424
  Ewald  482423.15860482423.15974************ -1155.82133    -0.02915    -0.03097
  Hartree511534.73827511534.73867************  -910.04062    -0.01316    -0.01372
  E(xc)   -7691.92697 -7691.92697 -7709.64550    -0.64813     0.00009     0.00010
  Local  ************************************  2049.12309     0.04098     0.04314
  n-local -8807.06486 -8807.06482 -8926.18506    11.15585    -0.00282    -0.00307
  augment  3485.29117  3485.29117  3425.47738     1.96742     0.00128     0.00128
  Kinetic 23248.93670 23248.93668 23512.91409     6.83268    -0.00030    -0.00009
  Fock        0.00000     0.00000     0.00000     0.00000     0.00000     0.00000
  Total    -197.25649  -197.25649    -9.36493     2.56897    -0.00321    -0.00321
  in kB     -31.98262   -31.98262    -1.51840     0.41652    -0.00052    -0.00052

 VOLUME and BASIS-vectors are now :
  energy-cutoff  :      520.00
  volume of cell :     9881.61
      direct lattice vectors                 reciprocal lattice vectors
    21.138852197  0.000000000  0.000000000     0.047306258  0.000000000  0.000000000
     0.000000000 21.138852197  0.000000000     0.000000000  0.047306258  0.000000000
     0.000000000  0.000000000 22.113885220     0.000000000  0.000000000  0.045220457

  length of vectors
    21.138852197 21.138852197 22.113885220     0.047306258  0.047306258  0.045220457

 FORCES acting on ions:
    Electron-Ion                     Ewald-Force                    Non-Local-Force
   0.492E+02 -.492E+02 -.197E+04   -.510E+02 0.510E+02 0.197E+04   0.184E+01 -.184E+01 0.267E+01
   0.221E+03 -.221E+03 -.203E+04   -.218E+03 0.218E+03 0.203E+04   -.252E+01 0.252E+01 -.212E+01
   -.221E+03 0.221E+03 -.203E+04   0.218E+03 -.218E+03 0.203E+04   0.252E+01 -.252E+01 -.212E+01
   -.492E+02 0.492E+02 -.197E+04   0.510E+02 -.510E+02 0.197E+04   -.184E+01 0.184E+01 0.267E+01
   0.457E+01 -.457E+01 0.938E+03   -.461E+01 0.461E+01 -.929E+03   0.307E-01 -.307E-01 -.771E+01
   0.896E+01 0.203E+01 0.939E+03   -.895E+01 -.195E+01 -.930E+03   -.506E-02 -.584E-01 -.772E+01
   0.331E+01 0.331E+01 -.919E+03   -.328E+01 -.328E+01 0.911E+03   -.211E-01 -.211E-01 0.763E+01
   0.139E+02 -.104E+02 -.916E+03   -.139E+02 0.105E+02 0.908E+03   0.238E-01 -.980E-01 0.763E+01
   0.202E+01 0.896E+01 0.939E+03   -.195E+01 -.895E+01 -.930E+03   -.584E-01 -.506E-02 -.772E+01
   0.143E+02 0.155E+02 0.944E+03   -.142E+02 -.155E+02 -.936E+03   -.529E-01 0.533E-04 -.773E+01
   0.314E+01 0.155E+02 -.915E+03   -.302E+01 -.155E+02 0.907E+03   -.918E-01 -.118E-02 0.763E+01
   0.132E+02 0.132E+02 -.916E+03   -.132E+02 -.132E+02 0.908E+03   -.421E-01 -.421E-01 0.763E+01
   0.487E+01 0.110E+02 0.945E+03   -.477E+01 -.110E+02 -.937E+03   -.802E-01 0.197E-01 -.773E+01
   0.281E+02 0.111E+02 0.957E+03   -.281E+02 -.113E+02 -.949E+03   -.583E-02 0.123E+00 -.774E+01
   0.128E+02 0.788E+01 -.909E+03   -.128E+02 -.792E+01 0.901E+03   -.306E-01 0.260E-01 0.762E+01
   0.306E+02 0.233E+02 -.906E+03   -.304E+02 -.233E+02 0.898E+03   -.110E+00 0.428E-01 0.761E+01
   0.121E+02 -.242E+01 0.949E+03   -.122E+02 0.238E+01 -.941E+03   0.853E-01 0.314E-01 -.774E+01
   0.317E+02 -.129E+02 0.960E+03   -.323E+02 0.128E+02 -.952E+03   0.415E+00 0.466E-01 -.780E+01
   0.203E+02 -.128E+02 -.909E+03   -.205E+02 0.128E+02 0.901E+03   0.142E+00 0.200E-01 0.762E+01
   0.581E+02 0.285E+01 -.893E+03   -.583E+02 -.301E+01 0.885E+03   0.143E+00 0.119E+00 0.759E+01
   0.108E+02 -.130E+02 0.944E+03   -.110E+02 0.130E+02 -.936E+03   0.154E+00 -.155E-01 -.773E+01
   0.158E+02 -.158E+02 0.945E+03   -.159E+02 0.159E+02 -.937E+03   0.111E+00 -.111E+00 -.771E+01
   0.104E+02 -.139E+02 -.916E+03   -.105E+02 0.139E+02 0.908E+03   0.980E-01 -.238E-01 0.763E+01
   0.387E+02 -.287E+02 -.903E+03   -.391E+02 0.288E+02 0.896E+03   0.332E+00 -.215E-01 0.762E+01
   0.130E+02 -.109E+02 0.944E+03   -.130E+02 0.110E+02 -.936E+03   0.155E-01 -.154E+00 -.773E+01
   0.110E+02 0.487E+01 0.945E+03   -.110E+02 -.477E+01 -.937E+03   0.197E-01 -.802E-01 -.773E+01
   0.155E+02 0.314E+01 -.915E+03   -.155E+02 -.302E+01 0.907E+03   -.118E-02 -.918E-01 0.763E+01
   0.128E+02 -.203E+02 -.909E+03   -.128E+02 0.205E+02 0.901E+03   -.201E-01 -.142E+00 0.762E+01
   0.155E+02 0.143E+02 0.944E+03   -.155E+02 -.142E+02 -.936E+03   0.533E-04 -.529E-01 -.773E+01
   0.252E+02 0.322E+02 0.964E+03   -.253E+02 -.321E+02 -.955E+03   0.784E-01 -.400E-01 -.779E+01
   0.329E+02 0.329E+02 -.905E+03   -.328E+02 -.328E+02 0.897E+03   -.628E-01 -.628E-01 0.761E+01
   0.233E+02 0.306E+02 -.906E+03   -.233E+02 -.304E+02 0.898E+03   0.428E-01 -.110E+00 0.761E+01
   0.322E+02 0.252E+02 0.964E+03   -.321E+02 -.253E+02 -.955E+03   -.400E-01 0.784E-01 -.779E+01
   0.425E+02 0.277E+02 0.101E+04   -.426E+02 -.282E+02 -.100E+04   0.148E-01 0.364E+00 -.808E+01
   0.792E+02 0.416E+02 -.869E+03   -.788E+02 -.419E+02 0.862E+03   -.274E+00 0.289E+00 0.752E+01
   0.671E+02 0.671E+02 -.862E+03   -.669E+02 -.669E+02 0.854E+03   -.153E+00 -.153E+00 0.749E+01
   0.499E+02 0.288E+01 0.992E+03   -.501E+02 -.338E+01 -.984E+03   0.141E+00 0.379E+00 -.773E+01
   0.342E+02 -.342E+02 0.103E+04   -.339E+02 0.339E+02 -.102E+04   -.209E+00 0.208E+00 -.523E+01
   0.109E+03 -.430E+02 -.840E+03   -.112E+03 0.427E+02 0.832E+03   0.183E+01 0.215E+00 0.761E+01
   0.120E+03 0.627E+02 -.698E+03   -.120E+03 -.655E+02 0.692E+03   -.487E+00 0.185E+01 0.540E+01
   0.312E+02 -.312E+02 0.970E+03   -.315E+02 0.315E+02 -.962E+03   0.252E+00 -.252E+00 -.763E+01
   0.129E+02 -.318E+02 0.960E+03   -.128E+02 0.323E+02 -.952E+03   -.466E-01 -.415E+00 -.780E+01
   0.288E+02 -.387E+02 -.903E+03   -.288E+02 0.391E+02 0.896E+03   0.215E-01 -.332E+00 0.762E+01
   0.431E+02 -.109E+03 -.840E+03   -.428E+02 0.112E+03 0.832E+03   -.215E+00 -.183E+01 0.761E+01
   0.242E+01 -.121E+02 0.949E+03   -.238E+01 0.122E+02 -.941E+03   -.315E-01 -.852E-01 -.774E+01
   -.242E+01 0.121E+02 0.949E+03   0.238E+01 -.122E+02 -.941E+03   0.314E-01 0.853E-01 -.774E+01
   0.788E+01 0.128E+02 -.909E+03   -.792E+01 -.128E+02 0.901E+03   0.260E-01 -.306E-01 0.762E+01
   -.788E+01 -.129E+02 -.909E+03   0.792E+01 0.128E+02 0.901E+03   -.261E-01 0.308E-01 0.762E+01
   0.111E+02 0.281E+02 0.957E+03   -.113E+02 -.281E+02 -.949E+03   0.123E+00 -.583E-02 -.774E+01
   0.287E+01 0.499E+02 0.992E+03   -.338E+01 -.501E+02 -.984E+03   0.379E+00 0.141E+00 -.773E+01
   0.416E+02 0.792E+02 -.869E+03   -.419E+02 -.788E+02 0.862E+03   0.289E+00 -.274E+00 0.752E+01
   0.285E+01 0.581E+02 -.893E+03   -.301E+01 -.583E+02 0.885E+03   0.119E+00 0.143E+00 0.759E+01
   0.277E+02 0.425E+02 0.101E+04   -.282E+02 -.426E+02 -.100E+04   0.364E+00 0.148E-01 -.808E+01
   -.764E+01 0.767E+01 0.105E+04   0.734E+01 -.737E+01 -.104E+04   0.226E+00 -.226E+00 -.798E+01
   0.665E+02 0.665E+02 -.737E+03   -.667E+02 -.667E+02 0.730E+03   0.153E+00 0.153E+00 0.694E+01
   0.627E+02 0.120E+03 -.698E+03   -.655E+02 -.120E+03 0.692E+03   0.185E+01 -.487E+00 0.540E+01
   0.766E+01 -.764E+01 0.105E+04   -.737E+01 0.734E+01 -.104E+04   -.226E+00 0.226E+00 -.798E+01
   -.277E+02 -.425E+02 0.101E+04   0.282E+02 0.426E+02 -.100E+04   -.364E+00 -.149E-01 -.808E+01
   -.627E+02 -.120E+03 -.698E+03   0.655E+02 0.120E+03 0.692E+03   -.185E+01 0.487E+00 0.540E+01
   -.665E+02 -.665E+02 -.736E+03   0.667E+02 0.667E+02 0.730E+03   -.153E+00 -.153E+00 0.694E+01
[...]
   -.181E+02 0.142E+02 0.716E+03   0.182E+02 -.143E+02 -.720E+03   -.254E+00 0.115E+00 0.355E+01
   -.563E+01 0.799E+01 0.706E+03   0.569E+01 -.802E+01 -.710E+03   -.905E-01 0.465E-01 0.353E+01
   -.423E+02 0.143E+02 -.672E+03   0.424E+02 -.143E+02 0.676E+03   -.264E+00 -.942E-01 -.376E+01
   -.142E+02 0.197E+01 -.682E+03   0.143E+02 -.193E+01 0.687E+03   -.563E-01 -.471E-01 -.370E+01
   -.251E+02 -.325E-02 0.723E+03   0.252E+02 0.151E+00 -.727E+03   -.165E+00 -.193E+00 0.350E+01
   -.984E+01 0.738E+01 0.712E+03   0.992E+01 -.736E+01 -.716E+03   -.125E+00 -.148E-01 0.352E+01
   -.339E+02 -.138E+02 -.676E+03   0.339E+02 0.139E+02 0.680E+03   -.361E-02 -.143E+00 -.375E+01
   -.496E+01 -.108E+02 -.685E+03   0.491E+01 0.108E+02 0.689E+03   0.645E-01 -.125E-01 -.369E+01
   -.155E+02 -.121E+02 0.714E+03   0.154E+02 0.122E+02 -.718E+03   0.471E-01 -.436E-01 0.350E+01
   -.646E+01 -.420E+01 0.713E+03   0.645E+01 0.424E+01 -.716E+03   0.714E-02 -.404E-01 0.351E+01
   -.147E+02 -.156E+02 -.686E+03   0.147E+02 0.156E+02 0.690E+03   0.697E-01 0.256E-01 -.369E+01
   -.171E+01 -.840E+01 -.690E+03   0.166E+01 0.840E+01 0.694E+03   0.557E-01 0.761E-02 -.366E+01
   -.770E+01 -.769E+01 0.707E+03   0.767E+01 0.767E+01 -.711E+03   0.314E-01 0.314E-01 0.352E+01
   -.194E+01 -.909E+01 0.708E+03   0.188E+01 0.910E+01 -.712E+03   0.729E-01 -.609E-02 0.352E+01
   -.728E+00 0.725E+00 0.163E+02   0.199E-11 0.119E-11 0.146E-10   0.291E-02 0.291E-02 -.168E+02

 POSITION                                       TOTAL-FORCE (eV/Angst)
      8.54545     12.59441     14.71338        -0.005593      0.006443     -0.140637
      7.02105     14.11881     13.31306         0.153254     -0.154002     -0.085613
     12.00492      9.13494     13.31306        -0.154002      0.153254     -0.085613
     10.48052     10.65934     14.71338         0.006443     -0.005593     -0.140637
      0.00000      0.00000      9.00000        -0.008531      0.008508      0.450733
      2.11389      2.11389      9.00000         0.001308      0.015579      0.452596
      0.00000      2.11389     11.11389         0.005544      0.005544     -0.419572
      2.11389      0.00000     11.11389        -0.006921      0.025869     -0.417287
      0.00000      4.22777      9.00000         0.015579      0.001308      0.452596
      2.11389      6.34166      9.00000         0.014482      0.000738      0.456852
      0.00000      6.34166     11.11389         0.024240      0.000713     -0.416183
      2.11389      4.22777     11.11389         0.011636      0.011636     -0.417181
      0.00000      8.45554      9.00000         0.020742     -0.005016      0.454578
      2.11389     10.56943      9.00000        -0.000549     -0.034352      0.457817
      0.00000     10.56943     11.11389         0.008383     -0.007128     -0.409838
      2.11389      8.45554     11.11389         0.029949     -0.009689     -0.406403
      0.00000     12.68331      9.00000        -0.022559     -0.009409      0.455850
      2.11389     14.79720      9.00000        -0.103797     -0.013844      0.464880
      0.00000     14.79720     11.11389        -0.035867     -0.006064     -0.410640
      2.11389     12.68331     11.11389        -0.037785     -0.035245     -0.388450
      0.00000     16.91108      9.00000        -0.040469      0.004590      0.453193
      2.11389     19.02497      9.00000        -0.031778      0.031765      0.446503
      0.00000     19.02497     11.11389        -0.025893      0.006903     -0.417288
      2.11389     16.91108     11.11389        -0.086418      0.007540     -0.405335
      4.22777      0.00000      9.00000        -0.004603      0.040437      0.453195
      6.34166      2.11389      9.00000        -0.005016      0.020742      0.454578
      4.22777      2.11389     11.11389         0.000713      0.024240     -0.416183
      6.34166      0.00000     11.11389         0.006055      0.035817     -0.410641
      4.22777      4.22777      9.00000         0.000738      0.014482      0.456852
      6.34166      6.34166      9.00000        -0.018056      0.012289      0.473512
      4.22777      6.34166     11.11389         0.018848      0.018848     -0.404414
      6.34166      4.22777     11.11389        -0.009689      0.029949     -0.406403
      4.22777      8.45554      9.00000         0.012289     -0.018056      0.473512
      6.34166     10.56943      9.00000         0.000373     -0.088151      0.537368
      4.22777     10.56943     11.11389         0.087000     -0.064869     -0.343234
      6.34166      8.45554     11.11389         0.050453      0.050453     -0.338643
      4.22777     12.68331      9.00000        -0.051686     -0.122250      0.436385
      6.34166     14.79720      9.00000         0.070774     -0.070676     -0.124103
      4.22777     14.79720     11.11389        -0.559715     -0.075321     -0.353713
      6.34166     12.68331     11.11389         0.000324     -0.949057     -0.367721
      4.22777     16.91108      9.00000        -0.086319      0.086336      0.409212
      6.34166     19.02497      9.00000         0.013841      0.103750      0.464897
      4.22777     19.02497     11.11389        -0.007535      0.086399     -0.405334
      6.34166     16.91108     11.11389         0.075378      0.559711     -0.353708
      8.45554      0.00000      9.00000         0.009401      0.022518      0.455855
     10.56943      2.11389      9.00000        -0.009409     -0.022559      0.455850
      8.45554      2.11389     11.11389        -0.007128      0.008383     -0.409838
     10.56943      0.00000     11.11389         0.007120     -0.008438     -0.409833
      8.45554      4.22777      9.00000        -0.034352     -0.000549      0.457817
     10.56943      6.34166      9.00000        -0.122250     -0.051686      0.436385
      8.45554      6.34166     11.11389        -0.064869      0.087000     -0.343234
     10.56943      4.22777     11.11389        -0.035245     -0.037785     -0.388450
      8.45554      8.45554      9.00000        -0.088151      0.000373      0.537368
     10.56943     10.56943      9.00000        -0.071674      0.071736      0.475899
      8.45554     10.56943     11.11389        -0.023639     -0.023639     -0.007557
     10.56943      8.45554     11.11389        -0.949057      0.000324     -0.367721
      8.45554     12.68331      9.00000         0.071736     -0.071674      0.475899
     10.56943     14.79720      9.00000         0.088152     -0.000389      0.537439
      8.45554     14.79720     11.11389         0.950099      0.000014     -0.368815
     10.56943     12.68331     11.11389         0.023748      0.023748     -0.007271
[...]
     19.02497      6.34166     11.11389        -0.034015      0.004256      0.380598
     16.91108      6.34166      9.00000        -0.069206      0.030601     -0.414762
     19.02497      4.22777      9.00000        -0.024752      0.012617     -0.419218
     16.91108      8.45554     11.11389        -0.075218     -0.025668      0.361051
     19.02497     10.56943     11.11389        -0.015685     -0.013062      0.374788
     16.91108     10.56943      9.00000        -0.044770     -0.052078     -0.426489
     19.02497      8.45554      9.00000        -0.034496     -0.004286     -0.422191
     16.91108     12.68331     11.11389        -0.001164     -0.039601      0.363549
     19.02497     14.79720     11.11389         0.017905     -0.003200      0.379407
     16.91108     14.79720      9.00000         0.013025     -0.011935     -0.428076
     19.02497     12.68331      9.00000         0.002092     -0.010967     -0.424257
     16.91108     16.91108     11.11389         0.019174      0.007053      0.379212
     19.02497     19.02497     11.11389         0.015251      0.002093      0.385440
     16.91108     19.02497      9.00000         0.008600      0.008600     -0.422061
     19.02497     16.91108      9.00000         0.020044     -0.001612     -0.421677
    total drift:                               -0.724917      0.728266     -0.436627

  FREE ENERGIE OF THE ION-ELECTRON SYSTEM (eV)
  free  energy   TOTEN  =     -1196.94805885 eV

  energy  without entropy=    -1196.94805885  energy(sigma->0) =    -1196.94805885