 vasp.6.3.0 20Jan22 (build Apr  1 2022 16:44:48) complex
 executed on        HPECrayEX_GCC date 2022.12.11  19:10:51

 INCAR:
   SYSTEM = MgO-rocksalt
   ISMEAR = 0
   SIGMA = 0.05
   EDIFF = 1E-6
   ALGO = ALL
   ISTART = 0
   IBRION = -1
   NSW = 0
   ISYM = 2
   DIPOL = 0.5 0.5 0.5
   IDIPOL = 3
   LDIPOL = .TRUE.
   METAGGA = M06L
   ENCUT = 520
   PREC = Accurate
   LASPH = .TRUE.
   LREAL = Auto
   ISPIN = 1
   NELM = 200
   NELMIN = 8
   NCORE = 4
   KPAR = 2
   LWAVE = .FALSE.
   LCHARG = .FALSE.

 POTCAR:    PAW_PBE Cu 22Jun2005
 POTCAR:    PAW_PBE Mg_pv 13Apr2007
 POTCAR:    PAW_PBE O 08Apr2002
 POTCAR:    PAW_PBE Cu 22Jun2005
   VRHFIN =Cu: d10 p1

   TITEL  = PAW_PBE Cu 22Jun2005
   POMASS =   63.546; ZVAL   =   11.000    mass and valenz
   ENMAX  =  295.446; ENMIN  =  221.585 eV

   TITEL  = PAW_PBE Mg_pv 13Apr2007
   POMASS =   24.305; ZVAL   =    8.000    mass and valenz
   ENMAX  =  403.929; ENMIN  =  302.947 eV

   TITEL  = PAW_PBE O 08Apr2002
   POMASS =   16.000; ZVAL   =    6.000    mass and valenz
   ENMAX  =  400.000; ENMIN  =  300.000 eV

 Optimization of the real space projectors (new method)

 maximal supplied QI-value         = 16.25
 optimisation between [QCUT,QGAM] = [ 11.54, 23.24] = [ 37.28,151.24] Ry
 Optimized for a Real-space Cutoff    1.53 Angstroem

   l    n(q)    QCUT    max X(q) W(low)/X(q) W(high)/X(q)  e(spline)
   2     10    11.539     4.610    0.96E-04    0.13E-03    0.19E-06
   2     10    11.539     8.522    0.16E-03    0.21E-03    0.28E-06
   0     11    11.539    51.609    0.45E-04    0.31E-04    0.11E-06
   0     11    11.539    27.747    0.39E-04    0.29E-04    0.10E-06
   1     10    11.539    20.408    0.70E-05    0.38E-04    0.18E-06
   1     10    11.539    13.425    0.66E-05    0.34E-04    0.17E-06
 Optimization of the real space projectors (new method)

[...]

   l    n(q)    QCUT    max X(q) W(low)/X(q) W(high)/X(q)  e(spline)
   1      8    11.527     2.974    0.44E-04    0.56E-04    0.12E-06
   1      8    11.527     4.279    0.12E-03    0.12E-03    0.26E-06
   0      9    11.527    16.381    0.46E-04    0.64E-04    0.78E-07
   0      9    11.527     5.611    0.26E-04    0.43E-04    0.55E-07
   2      8    11.527     4.652    0.22E-03    0.72E-04    0.47E-07
 Optimization of the real space projectors (new method)

 maximal supplied QI-value         = 24.76
 optimisation between [QCUT,QGAM] = [ 11.64, 23.27] = [ 37.91,151.63] Ry
 Optimized for a Real-space Cutoff    1.14 Angstroem

   l    n(q)    QCUT    max X(q) W(low)/X(q) W(high)/X(q)  e(spline)
   0      8    11.635    20.381    0.10E-03    0.33E-03    0.24E-06
   0      8    11.635    15.268    0.11E-03    0.35E-03    0.26E-06
   1      7    11.635     5.964    0.24E-03    0.31E-03    0.30E-06
   1      7    11.635     5.382    0.22E-03    0.25E-03    0.26E-06
  PAW_PBE Cu 22Jun2005                  :
  PAW_PBE Mg_pv 13Apr2007               :
  PAW_PBE O 08Apr2002                   :

 POSCAR: Cu Mg  O
  positions in direct lattice

 METAGGA = M06L     LMAXTAU =  6    LMIXTAU =  F

 ion  position               nearest neighbor table
   1  0.500  0.500  0.691-   2 2.22
   2  0.500  0.500  0.590- 152 1.94   1 2.22
   3  0.000  0.000  0.407- 105 2.11 106 2.11 121 2.11 186 2.11 103 2.11
   4  0.100  0.100  0.407- 105 2.11 106 2.11 110 2.11 125 2.11 104 2.11
   5  0.000  0.100  0.503- 103 2.11 104 2.11 107 2.11 184 2.11 105 2.11
   6  0.100  0.000  0.503- 103 2.11 104 2.11 120 2.11 123 2.11 106 2.11
   7  0.000  0.200  0.407- 109 2.11 105 2.11 110 2.11 190 2.11 107 2.11
   8  0.100  0.300  0.407- 110 2.11 109 2.11 114 2.11 129 2.11 108 2.11
   9  0.000  0.300  0.503- 107 2.11 108 2.11 111 2.11 188 2.11 109 2.11
  10  0.100  0.200  0.503- 108 2.11 107 2.11 104 2.11 127 2.11 110 2.11
  11  0.000  0.400  0.407- 109 2.11 113 2.11 114 2.11 194 2.11 111 2.11
  12  0.100  0.500  0.407- 113 2.11 114 2.11 118 2.11 133 2.11 112 2.11
  13  0.000  0.500  0.503- 111 2.11 112 2.11 115 2.11 192 2.11 113 2.11
  14  0.100  0.400  0.503- 108 2.11 111 2.11 112 2.11 131 2.11 114 2.11
  15  0.000  0.600  0.407- 113 2.11 117 2.11 118 2.11 198 2.11 115 2.11
  16  0.100  0.700  0.407- 122 2.11 118 2.11 117 2.11 137 2.11 116 2.11
  17  0.000  0.700  0.503- 119 2.11 116 2.11 115 2.11 196 2.11 117 2.11
  18  0.100  0.600  0.503- 112 2.11 115 2.11 116 2.11 135 2.11 118 2.11
  19  0.000  0.800  0.407- 117 2.11 121 2.11 122 2.11 202 2.11 119 2.11
  20  0.100  0.900  0.407- 106 2.11 121 2.11 122 2.11 141 2.11 120 2.11
  21  0.000  0.900  0.503- 103 2.11 119 2.11 120 2.11 200 2.11 121 2.11
  22  0.100  0.800  0.503- 116 2.11 119 2.11 120 2.11 139 2.11 122 2.11
  23  0.200  0.000  0.407- 126 2.11 125 2.11 106 2.11 141 2.11 123 2.11
  24  0.300  0.100  0.407- 125 2.11 126 2.11 130 2.11 145 2.11 124 2.11
  25  0.200  0.100  0.503- 124 2.11 123 2.11 104 2.11 127 2.11 125 2.11
  26  0.300  0.000  0.503- 123 2.11 124 2.11 140 2.11 143 2.11 126 2.11
  27  0.200  0.200  0.407- 129 2.11 130 2.11 110 2.11 125 2.11 127 2.11
  28  0.300  0.300  0.407- 129 2.11 130 2.11 134 2.11 149 2.11 128 2.11
  29  0.200  0.300  0.503- 127 2.11 128 2.11 108 2.11 131 2.11 129 2.11
  30  0.300  0.200  0.503- 127 2.11 128 2.11 124 2.11 147 2.11 130 2.11
  31  0.200  0.400  0.407- 134 2.11 129 2.11 133 2.11 114 2.11 131 2.11
  32  0.300  0.500  0.407- 133 2.11 134 2.11 138 2.11 153 2.11 132 2.11
  33  0.200  0.500  0.503- 132 2.11 131 2.11 112 2.11 135 2.11 133 2.11
  34  0.300  0.400  0.503- 131 2.11 128 2.11 132 2.11 151 2.11 134 2.11
  35  0.200  0.600  0.407- 138 2.11 133 2.11 137 2.11 118 2.11 135 2.11
  36  0.300  0.700  0.407- 137 2.11 142 2.11 138 2.11 157 2.11 136 2.11
  37  0.200  0.700  0.503- 136 2.11 139 2.11 116 2.11 135 2.11 137 2.11
  38  0.300  0.600  0.503- 135 2.11 132 2.11 136 2.11 155 2.11 138 2.11
  39  0.200  0.800  0.407- 137 2.11 142 2.11 141 2.11 122 2.11 139 2.11
  40  0.300  0.900  0.407- 141 2.11 126 2.11 142 2.11 161 2.11 140 2.11
  41  0.200  0.900  0.503- 140 2.11 123 2.11 139 2.11 120 2.11 141 2.11
  42  0.300  0.800  0.503- 136 2.11 139 2.11 140 2.11 159 2.11 142 2.11
  43  0.400  0.000  0.407- 126 2.11 145 2.11 146 2.11 161 2.11 143 2.11
  44  0.500  0.100  0.407- 145 2.11 146 2.11 150 2.11 165 2.11 144 2.11
  45  0.400  0.100  0.503- 124 2.11 143 2.11 144 2.11 147 2.11 145 2.11
  46  0.500  0.000  0.503- 143 2.11 144 2.11 160 2.11 163 2.11 146 2.11
  47  0.400  0.200  0.407- 149 2.11 145 2.11 130 2.11 150 2.11 147 2.11
  48  0.500  0.300  0.407- 150 2.11 149 2.11 154 2.11 169 2.11 148 2.11
  49  0.400  0.300  0.503- 147 2.11 128 2.11 148 2.11 151 2.11 149 2.11
  50  0.500  0.200  0.503- 148 2.11 147 2.11 144 2.11 167 2.11 150 2.11
  51  0.400  0.400  0.407- 134 2.11 149 2.11 153 2.11 154 2.11 151 2.11
  52  0.500  0.500  0.407- 153 2.11 154 2.11 158 2.11 173 2.11 152 2.11
  53  0.400  0.500  0.503- 132 2.11 151 2.11 152 2.11 155 2.11 153 2.11
  54  0.500  0.400  0.503- 148 2.11 151 2.11 152 2.11 171 2.11 154 2.11
  55  0.400  0.600  0.407- 138 2.11 153 2.11 157 2.11 158 2.11 155 2.11
  56  0.500  0.700  0.407- 162 2.11 158 2.11 157 2.11 177 2.11 156 2.11
  57  0.400  0.700  0.503- 159 2.11 155 2.11 156 2.11 136 2.11 157 2.11
  58  0.500  0.600  0.503- 152 2.11 155 2.11 156 2.11 175 2.11 158 2.11
  59  0.400  0.800  0.407- 157 2.11 142 2.11 161 2.11 162 2.11 159 2.11
  60  0.500  0.900  0.407- 146 2.11 161 2.11 162 2.11 181 2.11 160 2.11
[...]
 188  0.900  0.300  0.503-  90 2.11  89 2.11   9 2.11  94 2.11  88 2.11
 189  0.800  0.300  0.407-  68 2.11  87 2.11  88 2.11  91 2.11  89 2.11
 190  0.900  0.200  0.407-  88 2.11  84 2.11  87 2.11   7 2.11  90 2.11
 191  0.800  0.400  0.503-  74 2.11  89 2.11  93 2.11  94 2.11  91 2.11
 192  0.900  0.500  0.503-  13 2.11  93 2.11  94 2.11  98 2.11  92 2.11
 193  0.800  0.500  0.407-  72 2.11  91 2.11  92 2.11  95 2.11  93 2.11
 194  0.900  0.400  0.407-  11 2.11  88 2.11  91 2.11  92 2.11  94 2.11
 195  0.800  0.600  0.503-  78 2.11  93 2.11  97 2.11  98 2.11  95 2.11
 196  0.900  0.700  0.503- 102 2.11  97 2.11  98 2.11  17 2.11  96 2.11
 197  0.800  0.700  0.407-  76 2.11  99 2.11  96 2.11  95 2.11  97 2.11
 198  0.900  0.600  0.407-  15 2.11  92 2.11  95 2.11  96 2.11  98 2.11
 199  0.800  0.800  0.503-  82 2.11  97 2.11 101 2.11 102 2.11  99 2.11
 200  0.900  0.900  0.503-  21 2.11  86 2.11 101 2.11 102 2.11 100 2.11
 201  0.800  0.900  0.407-  80 2.11  83 2.11  99 2.11 100 2.11 101 2.11
 202  0.900  0.800  0.407-  96 2.11  19 2.11  99 2.11 100 2.11 102 2.11

  LATTYP: Found a simple tetragonal cell.
 ALAT       =    21.1388521970
 C/A-ratio  =     1.0461251639

  Lattice vectors:

 A1 = (  21.1388521970,   0.0000000000,   0.0000000000)
 A2 = (   0.0000000000,  21.1388521970,   0.0000000000)
 A3 = (   0.0000000000,   0.0000000000,  22.1138852197)

Analysis of symmetry for initial positions (statically):
 Subroutine PRICEL returns:
 Original cell was already a primitive cell.

 Routine SETGRP: Setting up the symmetry group for a
 simple tetragonal supercell.

 Subroutine GETGRP returns: Found  8 space group operations
 (whereof  8 operations were pure point group operations)
 out of a pool of 16 trial point group operations.

The static configuration has the point symmetry C_4v.

Analysis of symmetry for dynamics (positions and initial velocities):
 Subroutine PRICEL returns:
 Original cell was already a primitive cell.

 Routine SETGRP: Setting up the symmetry group for a
 simple tetragonal supercell.

 Subroutine GETGRP returns: Found  8 space group operations
 (whereof  8 operations were pure point group operations)
 out of a pool of 16 trial point group operations.

The dynamic configuration has the point symmetry C_4v.

 Subroutine INISYM returns: Found  8 space group operations
 (whereof  8 operations are pure point group operations),
 and found     1 'primitive' translations

                                     Primitive cell

  volume of cell :    9881.6133

  direct lattice vectors                    reciprocal lattice vectors
    21.138852197  0.000000000  0.000000000     0.047306258  0.000000000  0.000000000
     0.000000000 21.138852197  0.000000000     0.000000000  0.047306258  0.000000000
     0.000000000  0.000000000 22.113885220     0.000000000  0.000000000  0.045220457

  length of vectors
    21.138852197 21.138852197 22.113885220     0.047306258  0.047306258  0.045220457

  position of ions in fractional coordinates (direct lattice)
     0.500000000  0.500000000  0.690978901
     0.500000000  0.500000000  0.590413244
     0.000000000  0.000000000  0.406984115
     0.100000000  0.100000000  0.406984115
     0.000000000  0.100000000  0.502574971
     0.100000000  0.000000000  0.502574971
     0.000000000  0.200000000  0.406984115
     0.100000000  0.300000000  0.406984115
     0.000000000  0.300000000  0.502574971
     0.100000000  0.200000000  0.502574971
     0.000000000  0.400000000  0.406984115
     0.100000000  0.500000000  0.406984115
     0.000000000  0.500000000  0.502574971
     0.100000000  0.400000000  0.502574971
     0.000000000  0.600000000  0.406984115
     0.100000000  0.700000000  0.406984115
     0.000000000  0.700000000  0.502574971
     0.100000000  0.600000000  0.502574971
     0.000000000  0.800000000  0.406984115
[...]
     52     -44.6656      2.00000
     53     -44.6653      2.00000
     54     -44.6653      2.00000
     55     -44.6651      2.00000
     56     -44.6625      2.00000
     57     -44.6624      2.00000
     58     -44.6624      2.00000
     59     -44.6624      2.00000
     60     -44.6605      2.00000
[...]
    882       7.5704      0.00000
    883       7.5899      0.00000
    884       7.6872      0.00000
    885       7.6876      0.00000
    886       7.7845      0.00000
    887       7.8916      0.00000
    888       7.9290      0.00000
    889       8.0538      0.00000
    890       8.1472      0.00000
    891       8.2548      0.00000
    892       8.5315      0.00000
    893       8.6692      0.00000
    894      10.3053      0.00000
    895      10.9656      0.00000
    896      11.5341      0.00000

 soft charge-density along one line, spin component           1
         0         1         2         3         4         5         6         7         8         9
 total charge-density along one line

------------------------ aborting loop EDIFF was not reached (unconverged)  ----------------------------

  FORCE on cell =-STRESS in cart. coord.  units (eV):
  Direction    XX          YY          ZZ          XY          YZ          ZX
  Alpha Z  1354.41543  1354.41543  1354.41543
  Ewald  477997.21262477997.21262************    -0.00000     0.00000    -0.00000
  Hartree507180.33427507180.33427************    -0.00000    -0.00000    -0.00000
  E(xc)   -8817.72146 -8817.71557 -8810.60616     0.00277     0.00178     0.00231
  Local  ************************************    -0.00000    -0.00000     0.00000
  n-local -8699.89025 -8699.88693 -8836.61776    -0.02198     0.02868    -0.00521
  augment  4238.74357  4238.74357  4206.95023     0.00000    -0.00000    -0.00000
  Kinetic 23039.41776 23039.33200 23244.08848    -0.01147     0.01279    -0.04923
  Fock        0.00000     0.00000     0.00000     0.00000     0.00000     0.00000
  Total    -222.34934  -222.34934    22.93315     0.00000     0.00000    -0.00000
  in kB     -36.05110   -36.05110     3.71832     0.00000     0.00000    -0.00000

 VOLUME and BASIS-vectors are now :
  energy-cutoff  :      520.00
  volume of cell :     9881.61
      direct lattice vectors                 reciprocal lattice vectors
    21.138852197  0.000000000  0.000000000     0.047306258  0.000000000  0.000000000
     0.000000000 21.138852197  0.000000000     0.000000000  0.047306258  0.000000000
     0.000000000  0.000000000 22.113885220     0.000000000  0.000000000  0.045220457

  length of vectors
    21.138852197 21.138852197 22.113885220     0.047306258  0.047306258  0.045220457

 FORCES acting on ions:
    Electron-Ion                     Ewald-Force                    Non-Local-Force
   -.667E-12 -.151E-11 -.201E+04   0.322E-13 0.284E-13 0.200E+04   0.347E-17 0.000E+00 0.109E+02
   -.419E-12 -.176E-11 -.192E+04   -.568E-13 -.426E-13 0.193E+04   -.217E-18 0.000E+00 -.645E+01
   0.131E-12 -.242E-12 0.932E+03   0.764E-13 0.213E-12 -.923E+03   -.678E-20 0.000E+00 -.669E+01
   0.380E+01 0.380E+01 0.933E+03   -.383E+01 -.383E+01 -.924E+03   0.191E-01 0.191E-01 -.666E+01
   0.136E-12 0.399E+01 -.924E+03   0.103E-12 -.402E+01 0.915E+03   0.000E+00 0.191E-01 0.945E+01
   0.399E+01 -.264E-12 -.924E+03   -.402E+01 0.107E-12 0.915E+03   0.191E-01 0.813E-19 0.945E+01
   0.136E-12 0.554E+01 0.933E+03   0.153E-10 -.558E+01 -.924E+03   -.271E-19 0.144E-01 -.646E+01
   0.763E+01 0.707E+01 0.936E+03   -.770E+01 -.711E+01 -.927E+03   0.405E-01 0.267E-01 -.656E+01
   0.140E-12 0.729E+01 -.922E+03   0.181E-11 -.730E+01 0.913E+03   0.000E+00 0.211E-02 0.941E+01
   0.696E+01 0.829E+01 -.923E+03   -.703E+01 -.831E+01 0.913E+03   0.218E-01 0.111E-02 0.101E+02
   0.131E-12 0.377E+01 0.936E+03   -.174E-10 -.379E+01 -.927E+03   0.610E-19 0.176E-01 -.651E+01
   0.109E+02 -.796E-12 0.939E+03   -.110E+02 0.228E-12 -.930E+03   0.602E-01 -.949E-19 -.690E+01
   0.148E-12 -.285E-12 -.920E+03   0.120E-12 0.126E-12 0.911E+03   0.000E+00 0.000E+00 0.911E+01
   0.143E+02 0.620E+01 -.919E+03   -.144E+02 -.623E+01 0.910E+03   0.372E-01 0.159E-01 0.926E+01
   0.145E-12 -.377E+01 0.936E+03   0.116E-11 0.379E+01 -.927E+03   -.271E-19 -.176E-01 -.651E+01
   0.763E+01 -.707E+01 0.936E+03   -.770E+01 0.711E+01 -.927E+03   0.405E-01 -.267E-01 -.656E+01
   0.149E-12 -.729E+01 -.922E+03   -.785E-12 0.730E+01 0.913E+03   -.136E-19 -.211E-02 0.941E+01
   0.143E+02 -.620E+01 -.919E+03   -.144E+02 0.623E+01 0.910E+03   0.372E-01 -.159E-01 0.926E+01
   0.143E-12 -.554E+01 0.933E+03   0.853E-12 0.558E+01 -.924E+03   0.000E+00 -.144E-01 -.646E+01
   0.380E+01 -.380E+01 0.933E+03   -.383E+01 0.383E+01 -.924E+03   0.191E-01 -.191E-01 -.666E+01
   0.126E-12 -.399E+01 -.924E+03   -.867E-12 0.402E+01 0.915E+03   0.000E+00 -.191E-01 0.945E+01
   0.696E+01 -.829E+01 -.923E+03   -.703E+01 0.831E+01 0.913E+03   0.218E-01 -.111E-02 0.101E+02
   0.554E+01 -.344E-12 0.933E+03   -.558E+01 0.101E-12 -.924E+03   0.144E-01 0.271E-19 -.646E+01
   0.707E+01 0.763E+01 0.936E+03   -.711E+01 -.770E+01 -.927E+03   0.267E-01 0.405E-01 -.656E+01
   0.829E+01 0.696E+01 -.923E+03   -.831E+01 -.703E+01 0.913E+03   0.111E-02 0.218E-01 0.101E+02
   0.729E+01 -.274E-12 -.922E+03   -.730E+01 0.941E-13 0.913E+03   0.211E-02 0.000E+00 0.941E+01
   0.958E+01 0.958E+01 0.937E+03   -.966E+01 -.966E+01 -.928E+03   0.501E-01 0.501E-01 -.664E+01
   0.187E+02 0.187E+02 0.949E+03   -.189E+02 -.189E+02 -.940E+03   0.129E+00 0.129E+00 -.735E+01
   0.216E+02 0.160E+02 -.916E+03   -.217E+02 -.161E+02 0.907E+03   0.624E-01 0.303E-01 0.954E+01
   0.160E+02 0.216E+02 -.916E+03   -.161E+02 -.217E+02 0.907E+03   0.303E-01 0.624E-01 0.954E+01
   0.201E+02 0.786E+01 0.945E+03   -.204E+02 -.792E+01 -.936E+03   0.161E+00 0.364E-01 -.646E+01
   0.342E+02 -.123E-11 0.967E+03   -.348E+02 0.218E-12 -.958E+03   0.499E+00 0.000E+00 -.688E+01
   0.374E+02 -.218E-11 -.909E+03   -.376E+02 0.107E-13 0.900E+03   0.109E+00 -.122E-18 0.866E+01
   0.563E+02 0.288E+02 -.890E+03   -.568E+02 -.289E+02 0.881E+03   0.340E+00 0.321E-01 0.934E+01
   0.201E+02 -.786E+01 0.945E+03   -.204E+02 0.792E+01 -.936E+03   0.161E+00 -.364E-01 -.646E+01
   0.187E+02 -.187E+02 0.949E+03   -.189E+02 0.189E+02 -.940E+03   0.129E+00 -.129E+00 -.735E+01
   0.216E+02 -.160E+02 -.916E+03   -.217E+02 0.161E+02 0.907E+03   0.624E-01 -.303E-01 0.954E+01
   0.563E+02 -.288E+02 -.890E+03   -.568E+02 0.289E+02 0.881E+03   0.340E+00 -.321E-01 0.934E+01
   0.958E+01 -.958E+01 0.937E+03   -.966E+01 0.966E+01 -.928E+03   0.501E-01 -.501E-01 -.664E+01
   0.707E+01 -.763E+01 0.936E+03   -.711E+01 0.770E+01 -.927E+03   0.267E-01 -.405E-01 -.656E+01
   0.829E+01 -.696E+01 -.923E+03   -.831E+01 0.703E+01 0.913E+03   0.111E-02 -.218E-01 0.101E+02
   0.160E+02 -.216E+02 -.916E+03   -.161E+02 0.217E+02 0.907E+03   0.303E-01 -.624E-01 0.954E+01
   0.377E+01 0.441E-12 0.936E+03   -.379E+01 0.449E-13 -.927E+03   0.176E-01 -.542E-19 -.651E+01
   -.234E-12 0.109E+02 0.939E+03   0.387E-11 -.110E+02 -.930E+03   0.000E+00 0.602E-01 -.690E+01
   0.620E+01 0.143E+02 -.919E+03   -.623E+01 -.144E+02 0.910E+03   0.159E-01 0.372E-01 0.926E+01
   -.227E-12 0.952E-12 -.920E+03   0.622E-14 0.933E-13 0.911E+03   0.000E+00 0.000E+00 0.911E+01
   0.786E+01 0.201E+02 0.945E+03   -.792E+01 -.204E+02 -.936E+03   0.364E-01 0.161E+00 -.646E+01
   -.233E-12 0.342E+02 0.967E+03   -.579E-11 -.348E+02 -.958E+03   -.610E-19 0.499E+00 -.688E+01
   0.288E+02 0.563E+02 -.890E+03   -.289E+02 -.568E+02 0.881E+03   0.321E-01 0.340E+00 0.934E+01
   -.192E-12 0.374E+02 -.909E+03   -.193E-10 -.376E+02 0.900E+03   0.542E-19 0.109E+00 0.866E+01
   0.266E+02 0.266E+02 0.986E+03   -.271E+02 -.271E+02 -.977E+03   0.329E+00 0.329E+00 -.737E+01
   -.260E-12 0.211E-11 0.103E+04   -.104E-12 0.214E-12 -.102E+04   -.203E-19 0.000E+00 -.488E+01
   0.134E+03 0.133E-10 -.774E+03   -.137E+03 0.933E-14 0.766E+03   0.255E+01 -.271E-19 0.818E+01
   -.220E-12 0.134E+03 -.774E+03   0.215E-10 -.137E+03 0.766E+03   0.000E+00 0.255E+01 0.818E+01
   0.266E+02 -.266E+02 0.986E+03   -.271E+02 0.271E+02 -.977E+03   0.329E+00 -.329E+00 -.737E+01
   -.235E-12 -.342E+02 0.967E+03   -.183E-10 0.348E+02 -.958E+03   0.000E+00 -.499E+00 -.688E+01
   0.288E+02 -.563E+02 -.890E+03   -.289E+02 0.568E+02 0.881E+03   0.321E-01 -.340E+00 0.934E+01
   -.218E-12 -.134E+03 -.774E+03   0.183E-10 0.137E+03 0.766E+03   0.000E+00 -.255E+01 0.818E+01
   0.786E+01 -.201E+02 0.945E+03   -.792E+01 0.204E+02 -.936E+03   0.364E-01 -.161E+00 -.646E+01
   -.250E-12 -.109E+02 0.939E+03   0.203E-10 0.110E+02 -.930E+03   0.136E-18 -.602E-01 -.690E+01
[...]
   -.110E+02 0.831E+01 0.707E+03   0.111E+02 -.839E+01 -.710E+03   -.857E-01 0.697E-01 0.355E+01
   -.400E+01 0.490E+01 0.702E+03   0.403E+01 -.493E+01 -.705E+03   -.283E-01 0.283E-01 0.362E+01
   -.240E+02 0.903E+01 -.685E+03   0.242E+02 -.905E+01 0.688E+03   -.978E-01 0.274E-01 -.304E+01
   -.120E+02 -.555E-11 -.690E+03   0.121E+02 0.103E-10 0.693E+03   -.400E-01 0.000E+00 -.305E+01
   -.171E+02 0.466E-11 0.712E+03   0.173E+02 -.169E-11 -.715E+03   -.137E+00 -.136E-19 0.329E+01
   -.746E+01 0.350E+01 0.705E+03   0.752E+01 -.352E+01 -.708E+03   -.484E-01 0.239E-01 0.361E+01
   -.240E+02 -.903E+01 -.685E+03   0.242E+02 0.905E+01 0.688E+03   -.978E-01 -.274E-01 -.304E+01
   -.790E+01 -.693E+01 -.692E+03   0.797E+01 0.691E+01 0.695E+03   -.292E-01 -.305E-01 -.301E+01
   -.110E+02 -.831E+01 0.707E+03   0.111E+02 0.839E+01 -.710E+03   -.857E-01 -.697E-01 0.355E+01
   -.746E+01 -.350E+01 0.705E+03   0.752E+01 0.352E+01 -.708E+03   -.484E-01 -.239E-01 0.361E+01
   -.980E+01 -.980E+01 -.691E+03   0.982E+01 0.982E+01 0.695E+03   -.569E-01 -.569E-01 -.307E+01
   -.350E+01 -.350E+01 -.694E+03   0.357E+01 0.357E+01 0.697E+03   -.105E-01 -.105E-01 -.305E+01
   -.490E+01 -.400E+01 0.702E+03   0.493E+01 0.403E+01 -.705E+03   -.283E-01 -.283E-01 0.362E+01
   -.400E+01 -.490E+01 0.702E+03   0.403E+01 0.493E+01 -.705E+03   -.283E-01 -.283E-01 0.362E+01
   -.280E-07 0.294E-07 -.109E+03   0.181E-11 0.597E-12 0.171E-10   0.468E-15 -.146E-15 0.170E+03

 POSITION                                       TOTAL-FORCE (eV/Angst)
     10.56943     10.56943     15.28023        -0.000000     -0.000000     -0.921252
     10.56943     10.56943     13.05633        -0.000000     -0.000000     -0.764088
      0.00000      0.00000      9.00000        -0.000000     -0.000000      1.616603
      2.11389      2.11389      9.00000        -0.016929     -0.016929      1.821350
      0.00000      2.11389     11.11389        -0.000000     -0.018116     -0.549616
      2.11389      0.00000     11.11389        -0.018116     -0.000000     -0.549616
      0.00000      4.22777      9.00000        -0.000000     -0.028726      1.733715
      2.11389      6.34166      9.00000        -0.032067     -0.011995      1.926976
      0.00000      6.34166     11.11389        -0.000000     -0.002292     -2.330706
      2.11389      4.22777     11.11389        -0.034385     -0.004751     -2.704119
      0.00000      8.45554      9.00000        -0.000000     -0.005339      1.940466
      2.11389     10.56943      9.00000        -0.041625     -0.000000      1.702534
      0.00000     10.56943     11.11389        -0.000000     -0.000000     -1.468732
      2.11389      8.45554     11.11389        -0.039080     -0.019781     -1.628666
      0.00000     12.68331      9.00000        -0.000000      0.005339      1.940466
      2.11389     14.79720      9.00000        -0.032067      0.011995      1.926976
      0.00000     14.79720     11.11389        -0.000000      0.002292     -2.330706
      2.11389     12.68331     11.11389        -0.039080      0.019781     -1.628666
      0.00000     16.91108      9.00000        -0.000000      0.028726      1.733715
      2.11389     19.02497      9.00000        -0.016929      0.016929      1.821350
      0.00000     19.02497     11.11389        -0.000000      0.018116     -0.549616
      2.11389     16.91108     11.11389        -0.034385      0.004751     -2.704119
      4.22777      0.00000      9.00000        -0.028726     -0.000000      1.733715
      6.34166      2.11389      9.00000        -0.011995     -0.032067      1.926976
      4.22777      2.11389     11.11389        -0.004751     -0.034385     -2.704119
      6.34166      0.00000     11.11389        -0.002292     -0.000000     -2.330706
      4.22777      4.22777      9.00000        -0.031939     -0.031939      1.755640
      6.34166      6.34166      9.00000        -0.071437     -0.071437      0.982035
      4.22777      6.34166     11.11389         0.031829     -0.054479     -1.617701
      6.34166      4.22777     11.11389        -0.054479      0.031829     -1.617701
      4.22777      8.45554      9.00000        -0.071195     -0.008787      1.966377
      6.34166     10.56943      9.00000        -0.175456     -0.000000      1.527372
      4.22777     10.56943     11.11389        -0.092661     -0.000000     -0.851025
      6.34166      8.45554     11.11389        -0.094152     -0.026380     -0.589770
      4.22777     12.68331      9.00000        -0.071195      0.008787      1.966377
      6.34166     14.79720      9.00000        -0.071437      0.071437      0.982035
      4.22777     14.79720     11.11389         0.031829      0.054479     -1.617701
      6.34166     12.68331     11.11389        -0.094152      0.026380     -0.589770
      4.22777     16.91108      9.00000        -0.031939      0.031939      1.755640
      6.34166     19.02497      9.00000        -0.011995      0.032067      1.926976
      4.22777     19.02497     11.11389        -0.004751      0.034385     -2.704119
      6.34166     16.91108     11.11389        -0.054479     -0.031829     -1.617701
      8.45554      0.00000      9.00000        -0.005339     -0.000000      1.940466
     10.56943      2.11389      9.00000        -0.000000     -0.041625      1.702534
      8.45554      2.11389     11.11389        -0.019781     -0.039080     -1.628666
     10.56943      0.00000     11.11389        -0.000000     -0.000000     -1.468732
      8.45554      4.22777      9.00000        -0.008787     -0.071195      1.966377
     10.56943      6.34166      9.00000        -0.000000     -0.175456      1.527372
      8.45554      6.34166     11.11389        -0.026380     -0.094152     -0.589770
     10.56943      4.22777     11.11389        -0.000000     -0.092661     -0.851025
      8.45554      8.45554      9.00000        -0.149193     -0.149193      0.928589
     10.56943     10.56943      9.00000        -0.000000     -0.000000      0.239674
      8.45554     10.56943     11.11389        -1.140603     -0.000000     -0.785067
     10.56943      8.45554     11.11389        -0.000000     -1.140603     -0.785067
      8.45554     12.68331      9.00000        -0.149193      0.149193      0.928589
     10.56943     14.79720      9.00000        -0.000000      0.175456      1.527372
      8.45554     14.79720     11.11389        -0.026380      0.094152     -0.589770
     10.56943     12.68331     11.11389        -0.000000      1.140603     -0.785067
      8.45554     16.91108      9.00000        -0.008787      0.071195      1.966377
     10.56943     19.02497      9.00000        -0.000000      0.041625      1.702534
[...]
     19.02497      6.34166     11.11389         0.043097      0.051980      0.079013
     16.91108      6.34166      9.00000         0.031004      0.002311     -0.130508
     19.02497      4.22777      9.00000        -0.003035     -0.012204     -0.134627
     16.91108      8.45554     11.11389         0.034867      0.009626      0.062802
     19.02497     10.56943     11.11389         0.018236     -0.000000      0.105236
     16.91108     10.56943      9.00000         0.011817     -0.000000     -0.489040
     19.02497      8.45554      9.00000         0.012525      0.000244     -0.088975
     16.91108     12.68331     11.11389         0.034867     -0.009626      0.062802
     19.02497     14.79720     11.11389         0.043097     -0.051980      0.079013
     16.91108     14.79720      9.00000         0.031004     -0.002311     -0.130508
     19.02497     12.68331      9.00000         0.012525     -0.000244     -0.088975
     16.91108     16.91108     11.11389        -0.036338     -0.036338      0.030357
     19.02497     19.02497     11.11389         0.055407      0.055407      0.054053
     16.91108     19.02497      9.00000         0.012204     -0.003035     -0.134627
     19.02497     16.91108      9.00000        -0.003035      0.012204     -0.134627
    total drift:                               -0.000000      0.000000     61.876532

  FREE ENERGIE OF THE ION-ELECTRON SYSTEM (eV)
  free  energy   TOTEN  =     -1672.55252948 eV

  energy  without entropy=    -1672.55162747  energy(sigma->0) =    -1672.55207848