 vasp.6.3.0 20Jan22 (build Apr  1 2022 16:44:48) complex
 executed on        HPECrayEX_GCC date 2022.08.15  22:41:56

 INCAR:
   SYSTEM = MgO-rocksalt
   ISMEAR = 0
   SIGMA = 0.05
   EDIFF = 1E-6
   ALGO = ALL
   ISTART = 0
   IBRION = -1
   NSW = 0
   ISYM = 2
   DIPOL = 0.5 0.5 0.5
   IDIPOL = 3
   LDIPOL = .TRUE.
   METAGGA = SCAN
   LUSE_VDW = .TRUE.
   BPARAM = 15.7
   CPARAM = 0.0093
   ENCUT = 520
   PREC = Accurate
   LASPH = .TRUE.
   LREAL = Auto
   ISPIN = 1
   NELM = 200
   NELMIN = 8
   NCORE = 4
   KPAR = 2
   LWAVE = .FALSE.
   LCHARG = .FALSE.

 POTCAR:    PAW_PBE Ag 02Apr2005
 POTCAR:    PAW_PBE Mg_pv 13Apr2007
 POTCAR:    PAW_PBE O 08Apr2002
|               ----> ADVICE to this user running VASP <----                  |
|     You have switched on vdW-DFT.                                           |
|     This routine was written and supplied by Jiri Klimes. We recommend      |
|     that you carefully read and cite the following publications:            |
|       J. Klimes, D.R. Bowler, A. Michelides                                 |
|          J. Phys.: Cond Matt. 22 022201 (2010)                              |
|       J. Klimes, D.R. Bowler, A. Michelides                                 |
|          Phys. Rev. B. 83, 195131 (2011)                                    |
|     and references therein.                                                 |

   TITEL  = PAW_PBE Ag 02Apr2005
   POMASS =  107.868; ZVAL   =   11.000    mass and valenz
   ENMAX  =  249.844; ENMIN  =  187.383 eV

   TITEL  = PAW_PBE Mg_pv 13Apr2007
   POMASS =   24.305; ZVAL   =    8.000    mass and valenz
   ENMAX  =  403.929; ENMIN  =  302.947 eV

   TITEL  = PAW_PBE O 08Apr2002
   POMASS =   16.000; ZVAL   =    6.000    mass and valenz
   ENMAX  =  400.000; ENMIN  =  300.000 eV

 Optimization of the real space projectors (new method)

 maximal supplied QI-value         = 15.12
 optimisation between [QCUT,QGAM] = [ 11.64, 23.28] = [ 37.95,151.78] Ry
 Optimized for a Real-space Cutoff    1.45 Angstroem

   l    n(q)    QCUT    max X(q) W(low)/X(q) W(high)/X(q)  e(spline)
   2      9    11.641    53.897    0.22E-03    0.42E-04    0.28E-06
   2      9    11.641    52.416    0.23E-03    0.44E-04    0.29E-06
   0     10    11.641   122.045    0.51E-04    0.25E-04    0.16E-06
   0     10    11.641    73.629    0.49E-04    0.24E-04    0.16E-06
   1     10    11.641    15.255    0.99E-04    0.55E-04    0.11E-06
   1     10    11.641     9.562    0.81E-04    0.47E-04    0.95E-07
 Optimization of the real space projectors (new method)

[...]

   l    n(q)    QCUT    max X(q) W(low)/X(q) W(high)/X(q)  e(spline)
   1      8    11.527     2.974    0.44E-04    0.56E-04    0.12E-06
   1      8    11.527     4.279    0.12E-03    0.12E-03    0.26E-06
   0      9    11.527    16.381    0.46E-04    0.64E-04    0.78E-07
   0      9    11.527     5.611    0.26E-04    0.43E-04    0.55E-07
   2      8    11.527     4.652    0.22E-03    0.72E-04    0.47E-07
 Optimization of the real space projectors (new method)

 maximal supplied QI-value         = 24.76
 optimisation between [QCUT,QGAM] = [ 11.64, 23.27] = [ 37.91,151.63] Ry
 Optimized for a Real-space Cutoff    1.14 Angstroem

   l    n(q)    QCUT    max X(q) W(low)/X(q) W(high)/X(q)  e(spline)
   0      8    11.635    20.381    0.10E-03    0.33E-03    0.24E-06
   0      8    11.635    15.268    0.11E-03    0.35E-03    0.26E-06
   1      7    11.635     5.964    0.24E-03    0.31E-03    0.30E-06
   1      7    11.635     5.382    0.22E-03    0.25E-03    0.26E-06
  PAW_PBE Ag 02Apr2005                  :
  PAW_PBE Mg_pv 13Apr2007               :
  PAW_PBE O 08Apr2002                   :

 POSCAR: Ag Mg  O
  positions in direct lattice

 METAGGA = SCAN     LMAXTAU =  6    LMIXTAU =  F

 ion  position               nearest neighbor table
   1  0.543  0.557  0.623-   2 2.59  58 2.97
   2  0.457  0.643  0.623-   1 2.59  58 2.97
   3  0.000  0.000  0.407- 105 2.11 106 2.11 121 2.11 186 2.11 103 2.11
   4  0.100  0.100  0.407- 105 2.11 106 2.11 110 2.11 125 2.11 104 2.11
   5  0.000  0.100  0.503- 103 2.11 104 2.11 107 2.11 184 2.11 105 2.11
   6  0.100  0.000  0.503- 103 2.11 104 2.11 120 2.11 123 2.11 106 2.11
   7  0.000  0.200  0.407- 109 2.11 105 2.11 110 2.11 190 2.11 107 2.11
   8  0.100  0.300  0.407- 110 2.11 109 2.11 114 2.11 129 2.11 108 2.11
   9  0.000  0.300  0.503- 107 2.11 108 2.11 111 2.11 188 2.11 109 2.11
  10  0.100  0.200  0.503- 108 2.11 107 2.11 104 2.11 127 2.11 110 2.11
  11  0.000  0.400  0.407- 109 2.11 113 2.11 114 2.11 194 2.11 111 2.11
  12  0.100  0.500  0.407- 113 2.11 114 2.11 118 2.11 133 2.11 112 2.11
  13  0.000  0.500  0.503- 111 2.11 112 2.11 115 2.11 192 2.11 113 2.11
  14  0.100  0.400  0.503- 108 2.11 111 2.11 112 2.11 131 2.11 114 2.11
  15  0.000  0.600  0.407- 113 2.11 117 2.11 118 2.11 198 2.11 115 2.11
  16  0.100  0.700  0.407- 122 2.11 118 2.11 117 2.11 137 2.11 116 2.11
  17  0.000  0.700  0.503- 119 2.11 116 2.11 115 2.11 196 2.11 117 2.11
  18  0.100  0.600  0.503- 112 2.11 115 2.11 116 2.11 135 2.11 118 2.11
  19  0.000  0.800  0.407- 117 2.11 121 2.11 122 2.11 202 2.11 119 2.11
  20  0.100  0.900  0.407- 106 2.11 121 2.11 122 2.11 141 2.11 120 2.11
  21  0.000  0.900  0.503- 103 2.11 119 2.11 120 2.11 200 2.11 121 2.11
  22  0.100  0.800  0.503- 116 2.11 119 2.11 120 2.11 139 2.11 122 2.11
  23  0.200  0.000  0.407- 126 2.11 125 2.11 106 2.11 141 2.11 123 2.11
  24  0.300  0.100  0.407- 125 2.11 126 2.11 130 2.11 145 2.11 124 2.11
  25  0.200  0.100  0.503- 124 2.11 123 2.11 104 2.11 127 2.11 125 2.11
  26  0.300  0.000  0.503- 123 2.11 124 2.11 140 2.11 143 2.11 126 2.11
  27  0.200  0.200  0.407- 129 2.11 130 2.11 110 2.11 125 2.11 127 2.11
  28  0.300  0.300  0.407- 129 2.11 130 2.11 134 2.11 149 2.11 128 2.11
  29  0.200  0.300  0.503- 127 2.11 128 2.11 108 2.11 131 2.11 129 2.11
  30  0.300  0.200  0.503- 127 2.11 128 2.11 124 2.11 147 2.11 130 2.11
  31  0.200  0.400  0.407- 134 2.11 129 2.11 133 2.11 114 2.11 131 2.11
  32  0.300  0.500  0.407- 133 2.11 134 2.11 138 2.11 153 2.11 132 2.11
  33  0.200  0.500  0.503- 132 2.11 131 2.11 112 2.11 135 2.11 133 2.11
  34  0.300  0.400  0.503- 131 2.11 128 2.11 132 2.11 151 2.11 134 2.11
  35  0.200  0.600  0.407- 138 2.11 133 2.11 137 2.11 118 2.11 135 2.11
  36  0.300  0.700  0.407- 137 2.11 142 2.11 138 2.11 157 2.11 136 2.11
  37  0.200  0.700  0.503- 136 2.11 139 2.11 116 2.11 135 2.11 137 2.11
  38  0.300  0.600  0.503- 135 2.11 132 2.11 136 2.11 155 2.11 138 2.11
  39  0.200  0.800  0.407- 137 2.11 142 2.11 141 2.11 122 2.11 139 2.11
  40  0.300  0.900  0.407- 141 2.11 126 2.11 142 2.11 161 2.11 140 2.11
  41  0.200  0.900  0.503- 140 2.11 123 2.11 139 2.11 120 2.11 141 2.11
  42  0.300  0.800  0.503- 136 2.11 139 2.11 140 2.11 159 2.11 142 2.11
  43  0.400  0.000  0.407- 126 2.11 145 2.11 146 2.11 161 2.11 143 2.11
  44  0.500  0.100  0.407- 145 2.11 146 2.11 150 2.11 165 2.11 144 2.11
  45  0.400  0.100  0.503- 124 2.11 143 2.11 144 2.11 147 2.11 145 2.11
  46  0.500  0.000  0.503- 143 2.11 144 2.11 160 2.11 163 2.11 146 2.11
  47  0.400  0.200  0.407- 149 2.11 145 2.11 130 2.11 150 2.11 147 2.11
  48  0.500  0.300  0.407- 150 2.11 149 2.11 154 2.11 169 2.11 148 2.11
  49  0.400  0.300  0.503- 147 2.11 128 2.11 148 2.11 151 2.11 149 2.11
  50  0.500  0.200  0.503- 148 2.11 147 2.11 144 2.11 167 2.11 150 2.11
  51  0.400  0.400  0.407- 134 2.11 149 2.11 153 2.11 154 2.11 151 2.11
  52  0.500  0.500  0.407- 153 2.11 154 2.11 158 2.11 173 2.11 152 2.11
  53  0.400  0.500  0.503- 132 2.11 151 2.11 152 2.11 155 2.11 153 2.11
  54  0.500  0.400  0.503- 148 2.11 151 2.11 152 2.11 171 2.11 154 2.11
  55  0.400  0.600  0.407- 138 2.11 153 2.11 157 2.11 158 2.11 155 2.11
  56  0.500  0.700  0.407- 162 2.11 158 2.11 157 2.11 177 2.11 156 2.11
  57  0.400  0.700  0.503- 159 2.11 155 2.11 156 2.11 136 2.11 157 2.11
  58  0.500  0.600  0.503- 152 2.11 155 2.11 156 2.11 175 2.11 158 2.11   2 2.97   1 2.97
  59  0.400  0.800  0.407- 157 2.11 142 2.11 161 2.11 162 2.11 159 2.11
  60  0.500  0.900  0.407- 146 2.11 161 2.11 162 2.11 181 2.11 160 2.11
[...]
 188  0.900  0.300  0.503-  90 2.11  89 2.11   9 2.11  94 2.11  88 2.11
 189  0.800  0.300  0.407-  68 2.11  87 2.11  88 2.11  91 2.11  89 2.11
 190  0.900  0.200  0.407-  88 2.11  84 2.11  87 2.11   7 2.11  90 2.11
 191  0.800  0.400  0.503-  74 2.11  89 2.11  93 2.11  94 2.11  91 2.11
 192  0.900  0.500  0.503-  13 2.11  93 2.11  94 2.11  98 2.11  92 2.11
 193  0.800  0.500  0.407-  72 2.11  91 2.11  92 2.11  95 2.11  93 2.11
 194  0.900  0.400  0.407-  11 2.11  88 2.11  91 2.11  92 2.11  94 2.11
 195  0.800  0.600  0.503-  78 2.11  93 2.11  97 2.11  98 2.11  95 2.11
 196  0.900  0.700  0.503- 102 2.11  97 2.11  98 2.11  17 2.11  96 2.11
 197  0.800  0.700  0.407-  76 2.11  99 2.11  96 2.11  95 2.11  97 2.11
 198  0.900  0.600  0.407-  15 2.11  92 2.11  95 2.11  96 2.11  98 2.11
 199  0.800  0.800  0.503-  82 2.11  97 2.11 101 2.11 102 2.11  99 2.11
 200  0.900  0.900  0.503-  21 2.11  86 2.11 101 2.11 102 2.11 100 2.11
 201  0.800  0.900  0.407-  80 2.11  83 2.11  99 2.11 100 2.11 101 2.11
 202  0.900  0.800  0.407-  96 2.11  19 2.11  99 2.11 100 2.11 102 2.11

  LATTYP: Found a simple tetragonal cell.
 ALAT       =    21.1388521970
 C/A-ratio  =     1.0461251639

  Lattice vectors:

 A1 = (  21.1388521970,   0.0000000000,   0.0000000000)
 A2 = (   0.0000000000,  21.1388521970,   0.0000000000)
 A3 = (   0.0000000000,   0.0000000000,  22.1138852197)

Analysis of symmetry for initial positions (statically):
 Subroutine PRICEL returns:
 Original cell was already a primitive cell.

 Routine SETGRP: Setting up the symmetry group for a
 simple tetragonal supercell.

 Subroutine GETGRP returns: Found  4 space group operations
 (whereof  1 operations were pure point group operations)
 out of a pool of 16 trial point group operations.

The static configuration has the point symmetry C_1 .
 The point group associated with its full space group is C_2v.

Analysis of symmetry for dynamics (positions and initial velocities):
 Subroutine PRICEL returns:
 Original cell was already a primitive cell.

 Routine SETGRP: Setting up the symmetry group for a
 simple tetragonal supercell.

 Subroutine GETGRP returns: Found  4 space group operations
 (whereof  1 operations were pure point group operations)
 out of a pool of 16 trial point group operations.

The dynamic configuration has the point symmetry C_1 .
 The point group associated with its full space group is C_2v.

 Subroutine INISYM returns: Found  4 space group operations
 (whereof  1 operations are pure point group operations),
 and found     1 'primitive' translations

                                     Primitive cell

  volume of cell :    9881.6133

  direct lattice vectors                    reciprocal lattice vectors
    21.138852197  0.000000000  0.000000000     0.047306258  0.000000000  0.000000000
     0.000000000 21.138852197  0.000000000     0.000000000  0.047306258  0.000000000
     0.000000000  0.000000000 22.113885220     0.000000000  0.000000000  0.045220457

  length of vectors
    21.138852197 21.138852197 22.113885220     0.047306258  0.047306258  0.045220457

[...]
     52     -44.4699      2.00000
     53     -44.4694      2.00000
     54     -44.4693      2.00000
     55     -44.4688      2.00000
     56     -44.4685      2.00000
     57     -44.4677      2.00000
     58     -44.4675      2.00000
     59     -44.4674      2.00000
     60     -44.4666      2.00000
[...]
    882       5.4606      0.00000
    883       5.5693      0.00000
    884       5.5709      0.00000
    885       5.6488      0.00000
    886       5.7791      0.00000
    887       5.7791      0.00000
    888       5.9463      0.00000
    889       5.9898      0.00000
    890       6.0309      0.00000
    891       6.0804      0.00000
    892       6.0934      0.00000
    893       6.1027      0.00000
    894       6.1093      0.00000
    895       6.1399      0.00000
    896       6.1403      0.00000

 soft charge-density along one line, spin component           1
         0         1         2         3         4         5         6         7         8         9
 total charge-density along one line

------------------------ aborting loop because EDIFF is reached ----------------------------------------

  FORCE on cell =-STRESS in cart. coord.  units (eV):
  Direction    XX          YY          ZZ          XY          YZ          ZX
  Alpha Z  1357.53553  1357.53553  1357.53553
  Ewald  479540.84319479540.84319************  -342.47633     0.00001    -0.00001
  Hartree508369.39490508369.39490************  -246.89110     0.00000    -0.00002
  E(xc)   -8401.31018 -8401.31019 -8393.52041    -0.14064     0.00002     0.00000
  Local  ************************************   583.76820    -0.00001     0.00003
  n-local -8728.36291 -8728.36290 -8850.55281     0.80754    -0.00002     0.00005
  augment  3884.96990  3884.96980  3825.65369     1.23389     0.00008     0.00000
  Kinetic 23008.19156 23008.19146 23241.15588     3.52278     0.00036     0.00003
  Fock        0.00000     0.00000     0.00000     0.00000     0.00000     0.00000
  Total    -243.67314  -243.67314   -28.63767    -0.17566     0.00000     0.00000
  in kB     -39.50849   -39.50849    -4.64323    -0.02848     0.00000     0.00000

 VOLUME and BASIS-vectors are now :
  energy-cutoff  :      520.00
  volume of cell :     9881.61
      direct lattice vectors                 reciprocal lattice vectors
    21.138852197  0.000000000  0.000000000     0.047306258  0.000000000  0.000000000
     0.000000000 21.138852197  0.000000000     0.000000000  0.047306258  0.000000000
     0.000000000  0.000000000 22.113885220     0.000000000  0.000000000  0.045220457

  length of vectors
    21.138852197 21.138852197 22.113885220     0.047306258  0.047306258  0.045220457

 FORCES acting on ions:
    Electron-Ion                     Ewald-Force                    Non-Local-Force
   -.190E+03 0.190E+03 -.206E+04   0.184E+03 -.184E+03 0.206E+04   0.592E+01 -.592E+01 -.187E+00
   0.190E+03 -.190E+03 -.206E+04   -.184E+03 0.184E+03 0.206E+04   -.592E+01 0.592E+01 -.187E+00
   0.203E+00 -.345E+01 0.931E+03   -.207E+00 0.346E+01 -.923E+03   0.351E-02 -.305E-02 -.745E+01
   0.345E+01 -.203E+00 0.931E+03   -.346E+01 0.207E+00 -.923E+03   0.305E-02 -.351E-02 -.745E+01
   -.111E-07 -.184E-03 -.923E+03   0.103E-06 -.158E-05 0.915E+03   0.000E+00 0.000E+00 0.742E+01
   0.531E+01 -.531E+01 -.922E+03   -.532E+01 0.532E+01 0.914E+03   0.794E-02 -.794E-02 0.742E+01
   -.203E+00 0.345E+01 0.931E+03   0.207E+00 -.346E+01 -.923E+03   -.351E-02 0.305E-02 -.745E+01
   0.523E+01 0.671E+01 0.933E+03   -.523E+01 -.671E+01 -.925E+03   0.557E-03 0.467E-02 -.745E+01
   -.567E+00 0.716E+01 -.922E+03   0.579E+00 -.717E+01 0.914E+03   -.924E-02 0.414E-02 0.742E+01
   0.470E+01 0.470E+01 -.923E+03   -.470E+01 -.470E+01 0.915E+03   -.113E-02 -.113E-02 0.742E+01
   -.468E+00 0.613E+01 0.934E+03   0.479E+00 -.613E+01 -.926E+03   -.870E-02 0.530E-02 -.745E+01
   0.101E+02 0.518E+01 0.938E+03   -.102E+02 -.519E+01 -.930E+03   0.109E-01 0.923E-02 -.745E+01
   -.544E+00 0.501E+01 -.920E+03   0.555E+00 -.501E+01 0.912E+03   -.885E-02 0.265E-02 0.742E+01
   0.104E+02 0.967E+01 -.920E+03   -.104E+02 -.968E+01 0.912E+03   -.368E-02 0.638E-02 0.742E+01
   0.242E-06 -.187E-03 0.936E+03   -.147E-06 0.154E-05 -.928E+03   0.000E+00 0.000E+00 -.745E+01
   0.110E+02 -.464E+01 0.938E+03   -.110E+02 0.464E+01 -.930E+03   0.295E-01 -.832E-03 -.745E+01
   0.544E+00 -.501E+01 -.920E+03   -.555E+00 0.501E+01 0.912E+03   0.885E-02 -.265E-02 0.742E+01
   0.173E+02 0.744E+00 -.917E+03   -.174E+02 -.755E+00 0.909E+03   0.186E-01 0.804E-02 0.742E+01
   0.468E+00 -.613E+01 0.934E+03   -.479E+00 0.613E+01 -.926E+03   0.870E-02 -.530E-02 -.745E+01
   0.605E+01 -.704E+01 0.934E+03   -.607E+01 0.705E+01 -.926E+03   0.139E-01 -.953E-02 -.745E+01
   0.567E+00 -.716E+01 -.922E+03   -.579E+00 0.717E+01 0.914E+03   0.924E-02 -.414E-02 0.742E+01
   0.123E+02 -.980E+01 -.919E+03   -.124E+02 0.981E+01 0.911E+03   0.265E-01 -.534E-02 0.742E+01
   0.704E+01 -.605E+01 0.934E+03   -.705E+01 0.607E+01 -.926E+03   0.953E-02 -.139E-01 -.745E+01
   0.613E+01 -.468E+00 0.934E+03   -.613E+01 0.479E+00 -.926E+03   0.530E-02 -.870E-02 -.745E+01
   0.716E+01 -.567E+00 -.922E+03   -.717E+01 0.579E+00 0.914E+03   0.414E-02 -.924E-02 0.742E+01
   0.980E+01 -.123E+02 -.919E+03   -.981E+01 0.124E+02 0.911E+03   0.534E-02 -.265E-01 0.742E+01
   0.671E+01 0.523E+01 0.933E+03   -.671E+01 -.523E+01 -.925E+03   0.467E-02 0.557E-03 -.745E+01
   0.116E+02 0.148E+02 0.940E+03   -.116E+02 -.148E+02 -.932E+03   0.157E-01 0.182E-01 -.746E+01
   0.132E+02 0.132E+02 -.919E+03   -.132E+02 -.132E+02 0.911E+03   0.181E-02 0.181E-02 0.742E+01
   0.967E+01 0.104E+02 -.920E+03   -.968E+01 -.104E+02 0.912E+03   0.638E-02 -.368E-02 0.742E+01
   0.148E+02 0.116E+02 0.940E+03   -.148E+02 -.116E+02 -.932E+03   0.182E-01 0.157E-01 -.746E+01
   0.285E+02 0.160E+02 0.961E+03   -.286E+02 -.160E+02 -.953E+03   0.876E-01 0.473E-01 -.748E+01
   0.330E+02 0.140E+02 -.910E+03   -.330E+02 -.140E+02 0.902E+03   0.150E-01 0.231E-01 0.741E+01
   0.317E+02 0.317E+02 -.905E+03   -.317E+02 -.317E+02 0.897E+03   0.191E-01 0.191E-01 0.740E+01
   0.239E+02 0.112E+01 0.948E+03   -.240E+02 -.114E+01 -.940E+03   0.567E-01 0.164E-01 -.746E+01
   0.303E+02 -.142E+02 0.965E+03   -.304E+02 0.142E+02 -.957E+03   0.563E-01 -.193E-01 -.739E+01
   0.370E+02 -.119E+02 -.907E+03   -.371E+02 0.119E+02 0.900E+03   0.883E-01 0.627E-02 0.742E+01
   0.778E+02 0.813E+01 -.871E+03   -.781E+02 -.823E+01 0.863E+03   0.189E+00 0.772E-01 0.740E+01
   0.162E+02 -.119E+02 0.942E+03   -.163E+02 0.119E+02 -.934E+03   0.359E-01 -.189E-01 -.744E+01
   0.119E+02 -.162E+02 0.942E+03   -.119E+02 0.163E+02 -.934E+03   0.189E-01 -.359E-01 -.744E+01
   0.148E+02 -.148E+02 -.918E+03   -.148E+02 0.148E+02 0.910E+03   0.220E-01 -.220E-01 0.742E+01
   0.365E+02 -.365E+02 -.899E+03   -.366E+02 0.366E+02 0.891E+03   0.679E-01 -.679E-01 0.743E+01
   0.464E+01 -.110E+02 0.938E+03   -.464E+01 0.110E+02 -.930E+03   0.832E-03 -.295E-01 -.745E+01
   0.237E-06 -.181E-03 0.936E+03   -.140E-06 -.411E-05 -.928E+03   0.000E+00 0.000E+00 -.745E+01
   0.501E+01 -.544E+00 -.920E+03   -.501E+01 0.555E+00 0.912E+03   0.265E-02 -.885E-02 0.742E+01
   -.745E+00 -.173E+02 -.917E+03   0.755E+00 0.174E+02 0.909E+03   -.804E-02 -.186E-01 0.742E+01
   0.518E+01 0.101E+02 0.938E+03   -.519E+01 -.102E+02 -.930E+03   0.923E-02 0.109E-01 -.745E+01
   0.112E+01 0.239E+02 0.948E+03   -.114E+01 -.240E+02 -.940E+03   0.164E-01 0.567E-01 -.746E+01
   0.140E+02 0.330E+02 -.910E+03   -.140E+02 -.330E+02 0.902E+03   0.231E-01 0.150E-01 0.741E+01
   0.745E+00 0.173E+02 -.917E+03   -.755E+00 -.174E+02 0.909E+03   0.804E-02 0.186E-01 0.742E+01
   0.160E+02 0.285E+02 0.961E+03   -.160E+02 -.286E+02 -.953E+03   0.473E-01 0.876E-01 -.748E+01
   0.304E+01 0.302E+02 0.100E+04   -.301E+01 -.303E+02 -.994E+03   -.260E-01 0.755E-01 -.724E+01
   0.691E+02 0.691E+02 -.838E+03   -.694E+02 -.694E+02 0.830E+03   0.210E+00 0.210E+00 0.719E+01
   0.813E+01 0.778E+02 -.871E+03   -.823E+01 -.781E+02 0.863E+03   0.772E-01 0.189E+00 0.740E+01
   0.302E+02 0.304E+01 0.100E+04   -.303E+02 -.301E+01 -.994E+03   0.755E-01 -.260E-01 -.724E+01
   -.304E+01 -.302E+02 0.100E+04   0.301E+01 0.303E+02 -.994E+03   0.260E-01 -.755E-01 -.724E+01
   0.754E+02 -.754E+02 -.795E+03   -.756E+02 0.756E+02 0.788E+03   0.881E-01 -.881E-01 0.712E+01
   -.207E-04 -.239E-03 -.667E+03   0.210E-04 0.517E-04 0.662E+03   0.000E+00 0.000E+00 0.484E+01
   0.142E+02 -.303E+02 0.965E+03   -.142E+02 0.304E+02 -.957E+03   0.193E-01 -.563E-01 -.739E+01
   -.112E+01 -.239E+02 0.948E+03   0.114E+01 0.240E+02 -.940E+03   -.164E-01 -.567E-01 -.746E+01
[...]
   -.792E+01 0.792E+01 0.704E+03   0.794E+01 -.794E+01 -.708E+03   -.224E-01 0.224E-01 0.355E+01
   -.316E+01 0.316E+01 0.701E+03   0.316E+01 -.316E+01 -.705E+03   -.844E-02 0.844E-02 0.355E+01
   -.189E+02 0.133E+02 -.687E+03   0.189E+02 -.134E+02 0.690E+03   -.459E-01 0.285E-01 -.359E+01
   -.122E+02 0.463E+01 -.690E+03   0.123E+02 -.463E+01 0.693E+03   -.240E-01 -.113E-02 -.359E+01
   -.165E+02 0.572E+01 0.712E+03   0.166E+02 -.573E+01 -.716E+03   -.591E-01 0.506E-02 0.356E+01
   -.651E+01 0.558E+01 0.704E+03   0.652E+01 -.559E+01 -.708E+03   -.226E-01 0.107E-01 0.355E+01
   -.306E+02 -.183E+01 -.681E+03   0.306E+02 0.186E+01 0.685E+03   -.443E-01 -.346E-01 -.361E+01
   -.110E+02 -.527E+01 -.690E+03   0.110E+02 0.528E+01 0.694E+03   -.643E-02 -.120E-01 -.359E+01
   -.154E+02 -.663E+01 0.711E+03   0.155E+02 0.665E+01 -.714E+03   -.287E-01 -.256E-01 0.354E+01
   -.873E+01 -.323E+00 0.706E+03   0.875E+01 0.328E+00 -.710E+03   -.196E-01 -.857E-02 0.355E+01
   -.163E+02 -.125E+02 -.688E+03   0.163E+02 0.126E+02 0.692E+03   -.782E-02 -.125E-01 -.361E+01
   -.510E+01 -.636E+01 -.693E+03   0.510E+01 0.636E+01 0.697E+03   0.205E-02 -.314E-02 -.359E+01
   -.730E+01 -.730E+01 0.704E+03   0.730E+01 0.730E+01 -.707E+03   -.895E-02 -.895E-02 0.354E+01
   -.568E+01 -.557E+01 0.703E+03   0.568E+01 0.557E+01 -.707E+03   -.331E-02 -.954E-02 0.354E+01
   -.148E-04 -.110E+00 0.940E+01   0.753E-12 0.270E-12 0.830E-11   0.394E-15 0.805E-15 -.867E+01

 POSITION                                       TOTAL-FORCE (eV/Angst)
     11.48398     11.76876     13.78517        -0.193515      0.193515     -0.117130
      9.65487     13.59787     13.78517         0.193515     -0.193515     -0.117130
      0.00000      0.00000      9.00000        -0.001130      0.001033      0.588134
      2.11389      2.11389      9.00000        -0.001033      0.001130      0.588134
      0.00000      2.11389     11.11389        -0.000000     -0.000000     -0.577040
      2.11389      0.00000     11.11389        -0.002098      0.002098     -0.576913
      0.00000      4.22777      9.00000         0.001130     -0.001033      0.588134
      2.11389      6.34166      9.00000        -0.000237     -0.001576      0.588807
      0.00000      6.34166     11.11389         0.002413     -0.001081     -0.576543
      2.11389      4.22777     11.11389         0.000322      0.000322     -0.576559
      0.00000      8.45554      9.00000         0.002777     -0.001816      0.588571
      2.11389     10.56943      9.00000        -0.003749     -0.003164      0.589455
      0.00000     10.56943     11.11389         0.002250     -0.000663     -0.575276
      2.11389      8.45554     11.11389         0.001115     -0.001600     -0.574637
      0.00000     12.68331      9.00000        -0.000000     -0.000000      0.588904
      2.11389     14.79720      9.00000        -0.009542      0.000340      0.589100
      0.00000     14.79720     11.11389        -0.002250      0.000663     -0.575276
      2.11389     12.68331     11.11389        -0.004455     -0.002311     -0.574146
      0.00000     16.91108      9.00000        -0.002777      0.001816      0.588571
      2.11389     19.02497      9.00000        -0.004600      0.003245      0.588001
      0.00000     19.02497     11.11389        -0.002413      0.001081     -0.576543
      2.11389     16.91108     11.11389        -0.006792      0.001508     -0.575985
      4.22777      0.00000      9.00000        -0.003245      0.004600      0.588001
      6.34166      2.11389      9.00000        -0.001816      0.002777      0.588571
      4.22777      2.11389     11.11389        -0.001081      0.002413     -0.576543
      6.34166      0.00000     11.11389        -0.001508      0.006792     -0.575985
      4.22777      4.22777      9.00000        -0.001576     -0.000237      0.588807
      6.34166      6.34166      9.00000        -0.005344     -0.006119      0.591141
      4.22777      6.34166     11.11389        -0.000226     -0.000226     -0.573765
      6.34166      4.22777     11.11389        -0.001600      0.001115     -0.574637
      4.22777      8.45554      9.00000        -0.006119     -0.005344      0.591141
      6.34166     10.56943      9.00000        -0.029884     -0.017121      0.595593
      4.22777     10.56943     11.11389        -0.002172     -0.005967     -0.567446
      6.34166      8.45554     11.11389        -0.002534     -0.002534     -0.558990
      4.22777     12.68331      9.00000        -0.019098     -0.005725      0.590414
      6.34166     14.79720      9.00000        -0.019359      0.007457      0.568896
      4.22777     14.79720     11.11389        -0.024614     -0.001940     -0.571778
      6.34166     12.68331     11.11389        -0.058655     -0.022768     -0.547420
      4.22777     16.91108      9.00000        -0.012168      0.006756      0.587024
      6.34166     19.02497      9.00000        -0.006756      0.012168      0.587024
      4.22777     19.02497     11.11389        -0.005817      0.005817     -0.576370
      6.34166     16.91108     11.11389        -0.017757      0.017757     -0.572738
      8.45554      0.00000      9.00000        -0.000340      0.009542      0.589100
     10.56943      2.11389      9.00000        -0.000000     -0.000000      0.588904
      8.45554      2.11389     11.11389        -0.000663      0.002250     -0.575276
     10.56943      0.00000     11.11389         0.002311      0.004455     -0.574146
      8.45554      4.22777      9.00000        -0.003164     -0.003749      0.589455
     10.56943      6.34166      9.00000        -0.005725     -0.019098      0.590414
      8.45554      6.34166     11.11389        -0.005967     -0.002172     -0.567446
     10.56943      4.22777     11.11389        -0.002311     -0.004455     -0.574146
      8.45554      8.45554      9.00000        -0.017121     -0.029884      0.595593
     10.56943     10.56943      9.00000         0.011580     -0.025278      0.507258
      8.45554     10.56943     11.11389        -0.033624     -0.033624     -0.415363
     10.56943      8.45554     11.11389        -0.022768     -0.058655     -0.547420
      8.45554     12.68331      9.00000        -0.025278      0.011580      0.507258
     10.56943     14.79720      9.00000        -0.011580      0.025278      0.507258
      8.45554     14.79720     11.11389        -0.088546      0.088546     -0.663531
     10.56943     12.68331     11.11389        -0.000000     -0.000000     -0.258278
      8.45554     16.91108      9.00000        -0.007457      0.019359      0.568896
     10.56943     19.02497      9.00000         0.005725      0.019098      0.590414
[...]
     19.02497      6.34166     11.11389        -0.004546      0.003349      0.294626
     16.91108      6.34166      9.00000        -0.006240      0.006240     -0.305474
     19.02497      4.22777      9.00000        -0.002343      0.002343     -0.306140
     16.91108      8.45554     11.11389        -0.013301      0.008298      0.294450
     19.02497     10.56943     11.11389        -0.006867     -0.000321      0.292958
     16.91108     10.56943      9.00000        -0.017104      0.001529     -0.301715
     19.02497      8.45554      9.00000        -0.006278      0.003013     -0.306002
     16.91108     12.68331     11.11389        -0.013551     -0.009869      0.287900
     19.02497     14.79720     11.11389        -0.001842     -0.003368      0.291698
     16.91108     14.79720      9.00000        -0.008426     -0.007293     -0.309134
     19.02497     12.68331      9.00000        -0.005476     -0.002351     -0.306864
     16.91108     16.91108     11.11389        -0.002393     -0.003634      0.288441
     19.02497     19.02497     11.11389         0.000561     -0.000899      0.293598
     16.91108     19.02497      9.00000        -0.002503     -0.002503     -0.307723
     19.02497     16.91108      9.00000        -0.000925     -0.002689     -0.307275
    total drift:                               -0.000015     -0.109775      0.727804

  FREE ENERGIE OF THE ION-ELECTRON SYSTEM (eV)
  free  energy   TOTEN  =     -1684.57104434 eV

  energy  without entropy=    -1684.57104434  energy(sigma->0) =    -1684.57104434