 vasp.6.3.0 20Jan22 (build Apr  1 2022 16:44:48) complex
 executed on        HPECrayEX_GCC date 2023.01.09  11:48:28

 INCAR:
   SYSTEM = MgO-rocksalt
   ISMEAR = 0
   SIGMA = 0.05
   EDIFF = 1E-6
   ALGO = ALL
   ISTART = 0
   IBRION = -1
   NSW = 0
   ISYM = 2
   DIPOL = 0.5 0.5 0.5
   IDIPOL = 3
   LDIPOL = .TRUE.
   GGA = PE
   IVDW = 212
   LVDWEXPANSION = .TRUE.
   ENCUT = 520
   PREC = Accurate
   LASPH = .TRUE.
   LREAL = Auto
   ISPIN = 1
   NELM = 200
   NELMIN = 8
   NCORE = 4
   KPAR = 2
   LWAVE = .FALSE.
   LCHARG = .FALSE.

 POTCAR:    PAW_PBE Cu 22Jun2005
 POTCAR:    PAW_PBE Mg_pv 13Apr2007
 POTCAR:    PAW_PBE O 08Apr2002
 POTCAR:    PAW_PBE Cu 22Jun2005
   VRHFIN =Cu: d10 p1

   TITEL  = PAW_PBE Cu 22Jun2005
   POMASS =   63.546; ZVAL   =   11.000    mass and valenz
   ENMAX  =  295.446; ENMIN  =  221.585 eV

   TITEL  = PAW_PBE Mg_pv 13Apr2007
   POMASS =   24.305; ZVAL   =    8.000    mass and valenz
   ENMAX  =  403.929; ENMIN  =  302.947 eV

   TITEL  = PAW_PBE O 08Apr2002
   POMASS =   16.000; ZVAL   =    6.000    mass and valenz
   ENMAX  =  400.000; ENMIN  =  300.000 eV

 Optimization of the real space projectors (new method)

 maximal supplied QI-value         = 16.25
 optimisation between [QCUT,QGAM] = [ 11.54, 23.24] = [ 37.28,151.24] Ry
 Optimized for a Real-space Cutoff    1.53 Angstroem

   l    n(q)    QCUT    max X(q) W(low)/X(q) W(high)/X(q)  e(spline)
   2     10    11.539     4.610    0.96E-04    0.13E-03    0.19E-06
   2     10    11.539     8.522    0.16E-03    0.21E-03    0.28E-06
   0     11    11.539    51.609    0.45E-04    0.31E-04    0.11E-06
   0     11    11.539    27.747    0.39E-04    0.29E-04    0.10E-06
   1     10    11.539    20.408    0.70E-05    0.38E-04    0.18E-06
   1     10    11.539    13.425    0.66E-05    0.34E-04    0.17E-06
 Optimization of the real space projectors (new method)

[...]

   l    n(q)    QCUT    max X(q) W(low)/X(q) W(high)/X(q)  e(spline)
   1      8    11.527     2.974    0.44E-04    0.56E-04    0.12E-06
   1      8    11.527     4.279    0.12E-03    0.12E-03    0.26E-06
   0      9    11.527    16.381    0.46E-04    0.64E-04    0.78E-07
   0      9    11.527     5.611    0.26E-04    0.43E-04    0.55E-07
   2      8    11.527     4.652    0.22E-03    0.72E-04    0.47E-07
 Optimization of the real space projectors (new method)

 maximal supplied QI-value         = 24.76
 optimisation between [QCUT,QGAM] = [ 11.64, 23.27] = [ 37.91,151.63] Ry
 Optimized for a Real-space Cutoff    1.14 Angstroem

   l    n(q)    QCUT    max X(q) W(low)/X(q) W(high)/X(q)  e(spline)
   0      8    11.635    20.381    0.10E-03    0.33E-03    0.24E-06
   0      8    11.635    15.268    0.11E-03    0.35E-03    0.26E-06
   1      7    11.635     5.964    0.24E-03    0.31E-03    0.30E-06
   1      7    11.635     5.382    0.22E-03    0.25E-03    0.26E-06
  PAW_PBE Cu 22Jun2005                  :
  PAW_PBE Mg_pv 13Apr2007               :
  PAW_PBE O 08Apr2002                   :

 POSCAR: Cu Mg  O
  positions in direct lattice
  velocities in cartesian coordinates
 exchange correlation table for  LEXCH =        8
   RHO(1)=    0.500       N(1)  =     2000
   RHO(2)=  100.500       N(2)  =     4000

 ion  position               nearest neighbor table
   1  0.398  0.602  0.598- 157 2.11   2 2.32
   2  0.321  0.679  0.599- 138 2.22   1 2.32
   3  0.579  0.421  0.599- 173 2.22   4 2.32
   4  0.502  0.498  0.598- 154 2.11   3 2.32
   5  0.000  0.000  0.407- 107 2.11 108 2.11 123 2.11 188 2.11 105 2.11
   6  0.100  0.100  0.407- 107 2.11 108 2.11 112 2.11 127 2.11 106 2.11
   7  0.000  0.100  0.503- 105 2.11 106 2.11 109 2.11 186 2.11 107 2.11
   8  0.100  0.000  0.503- 105 2.11 106 2.11 122 2.11 125 2.11 108 2.11
   9  0.000  0.200  0.407- 111 2.11 107 2.11 112 2.11 192 2.11 109 2.11
  10  0.100  0.300  0.407- 112 2.11 111 2.11 116 2.11 131 2.11 110 2.11
  11  0.000  0.300  0.503- 109 2.11 110 2.11 113 2.11 190 2.11 111 2.11
  12  0.100  0.200  0.503- 110 2.11 109 2.11 106 2.11 129 2.11 112 2.11
  13  0.000  0.400  0.407- 111 2.11 115 2.11 116 2.11 196 2.11 113 2.11
  14  0.100  0.500  0.407- 115 2.11 116 2.11 120 2.11 135 2.11 114 2.11
  15  0.000  0.500  0.503- 113 2.11 114 2.11 117 2.11 194 2.11 115 2.11
  16  0.100  0.400  0.503- 110 2.11 113 2.11 114 2.11 133 2.11 116 2.11
  17  0.000  0.600  0.407- 115 2.11 119 2.11 120 2.11 200 2.11 117 2.11
  18  0.100  0.700  0.407- 124 2.11 120 2.11 119 2.11 139 2.11 118 2.11
  19  0.000  0.700  0.503- 121 2.11 118 2.11 117 2.11 198 2.11 119 2.11
  20  0.100  0.600  0.503- 114 2.11 117 2.11 118 2.11 137 2.11 120 2.11
  21  0.000  0.800  0.407- 119 2.11 123 2.11 124 2.11 204 2.11 121 2.11
  22  0.100  0.900  0.407- 108 2.11 123 2.11 124 2.11 143 2.11 122 2.11
  23  0.000  0.900  0.503- 105 2.11 121 2.11 122 2.11 202 2.11 123 2.11
  24  0.100  0.800  0.503- 118 2.11 121 2.11 122 2.11 141 2.11 124 2.11
  25  0.200  0.000  0.407- 128 2.11 127 2.11 108 2.11 143 2.11 125 2.11
  26  0.300  0.100  0.407- 127 2.11 128 2.11 132 2.11 147 2.11 126 2.11
  27  0.200  0.100  0.503- 126 2.11 125 2.11 106 2.11 129 2.11 127 2.11
  28  0.300  0.000  0.503- 125 2.11 126 2.11 142 2.11 145 2.11 128 2.11
  29  0.200  0.200  0.407- 131 2.11 132 2.11 112 2.11 127 2.11 129 2.11
  30  0.300  0.300  0.407- 131 2.11 132 2.11 136 2.11 151 2.11 130 2.11
  31  0.200  0.300  0.503- 129 2.11 130 2.11 110 2.11 133 2.11 131 2.11
  32  0.300  0.200  0.503- 129 2.11 130 2.11 126 2.11 149 2.11 132 2.11
  33  0.200  0.400  0.407- 136 2.11 131 2.11 135 2.11 116 2.11 133 2.11
  34  0.300  0.500  0.407- 135 2.11 136 2.11 140 2.11 155 2.11 134 2.11
  35  0.200  0.500  0.503- 134 2.11 133 2.11 114 2.11 137 2.11 135 2.11
  36  0.300  0.400  0.503- 133 2.11 130 2.11 134 2.11 153 2.11 136 2.11
  37  0.200  0.600  0.407- 140 2.11 135 2.11 139 2.11 120 2.11 137 2.11
  38  0.300  0.700  0.407- 139 2.11 144 2.11 140 2.11 159 2.11 138 2.11
  39  0.200  0.700  0.503- 138 2.11 141 2.11 118 2.11 137 2.11 139 2.11
  40  0.300  0.600  0.503- 137 2.11 134 2.11 138 2.11 157 2.11 140 2.11
  41  0.200  0.800  0.407- 139 2.11 144 2.11 143 2.11 124 2.11 141 2.11
  42  0.300  0.900  0.407- 143 2.11 128 2.11 144 2.11 163 2.11 142 2.11
  43  0.200  0.900  0.503- 142 2.11 125 2.11 141 2.11 122 2.11 143 2.11
  44  0.300  0.800  0.503- 138 2.11 141 2.11 142 2.11 161 2.11 144 2.11
  45  0.400  0.000  0.407- 128 2.11 147 2.11 148 2.11 163 2.11 145 2.11
  46  0.500  0.100  0.407- 147 2.11 148 2.11 152 2.11 167 2.11 146 2.11
  47  0.400  0.100  0.503- 126 2.11 145 2.11 146 2.11 149 2.11 147 2.11
  48  0.500  0.000  0.503- 145 2.11 146 2.11 162 2.11 165 2.11 148 2.11
  49  0.400  0.200  0.407- 151 2.11 147 2.11 132 2.11 152 2.11 149 2.11
  50  0.500  0.300  0.407- 152 2.11 151 2.11 156 2.11 171 2.11 150 2.11
  51  0.400  0.300  0.503- 149 2.11 130 2.11 150 2.11 153 2.11 151 2.11
  52  0.500  0.200  0.503- 150 2.11 149 2.11 146 2.11 169 2.11 152 2.11
  53  0.400  0.400  0.407- 136 2.11 151 2.11 155 2.11 156 2.11 153 2.11
  54  0.500  0.500  0.407- 155 2.11 156 2.11 160 2.11 175 2.11 154 2.11
  55  0.400  0.500  0.503- 134 2.11 153 2.11 154 2.11 157 2.11 155 2.11
  56  0.500  0.400  0.503- 150 2.11 153 2.11 154 2.11 173 2.11 156 2.11
  57  0.400  0.600  0.407- 140 2.11 155 2.11 159 2.11 160 2.11 157 2.11
  58  0.500  0.700  0.407- 164 2.11 160 2.11 159 2.11 179 2.11 158 2.11
  59  0.400  0.700  0.503- 161 2.11 157 2.11 158 2.11 138 2.11 159 2.11
  60  0.500  0.600  0.503- 154 2.11 157 2.11 158 2.11 177 2.11 160 2.11
[...]
 190  0.900  0.300  0.503-  92 2.11  91 2.11  11 2.11  96 2.11  90 2.11
 191  0.800  0.300  0.407-  70 2.11  89 2.11  90 2.11  93 2.11  91 2.11
 192  0.900  0.200  0.407-  90 2.11  86 2.11  89 2.11   9 2.11  92 2.11
 193  0.800  0.400  0.503-  76 2.11  91 2.11  95 2.11  96 2.11  93 2.11
 194  0.900  0.500  0.503-  15 2.11  95 2.11  96 2.11 100 2.11  94 2.11
 195  0.800  0.500  0.407-  74 2.11  93 2.11  94 2.11  97 2.11  95 2.11
 196  0.900  0.400  0.407-  13 2.11  90 2.11  93 2.11  94 2.11  96 2.11
 197  0.800  0.600  0.503-  80 2.11  95 2.11  99 2.11 100 2.11  97 2.11
 198  0.900  0.700  0.503- 104 2.11  99 2.11 100 2.11  19 2.11  98 2.11
 199  0.800  0.700  0.407-  78 2.11 101 2.11  98 2.11  97 2.11  99 2.11
 200  0.900  0.600  0.407-  17 2.11  94 2.11  97 2.11  98 2.11 100 2.11
 201  0.800  0.800  0.503-  84 2.11  99 2.11 103 2.11 104 2.11 101 2.11
 202  0.900  0.900  0.503-  23 2.11  88 2.11 103 2.11 104 2.11 102 2.11
 203  0.800  0.900  0.407-  82 2.11  85 2.11 101 2.11 102 2.11 103 2.11
 204  0.900  0.800  0.407-  98 2.11  21 2.11 101 2.11 102 2.11 104 2.11

  LATTYP: Found a simple tetragonal cell.
 ALAT       =    21.1388521970
 C/A-ratio  =     1.0461251639

  Lattice vectors:

 A1 = (  21.1388521970,   0.0000000000,   0.0000000000)
 A2 = (   0.0000000000,  21.1388521970,   0.0000000000)
 A3 = (   0.0000000000,   0.0000000000,  22.1138852197)

Analysis of symmetry for initial positions (statically):
 Subroutine PRICEL returns:
 Original cell was already a primitive cell.

 Routine SETGRP: Setting up the symmetry group for a
 simple tetragonal supercell.

 Subroutine GETGRP returns: Found  2 space group operations
 (whereof  1 operations were pure point group operations)
 out of a pool of 16 trial point group operations.

The static configuration has the point symmetry C_1 .
 The point group associated with its full space group is C_1h.

Analysis of symmetry for dynamics (positions and initial velocities):
 Subroutine PRICEL returns:
 Original cell was already a primitive cell.

[...]

The dynamic configuration has the point symmetry C_1 .
 The point group associated with its full space group is C_1h.

Analysis of constrained symmetry for selective dynamics:
 Subroutine PRICEL returns:
 Original cell was already a primitive cell.

 Routine SETGRP: Setting up the symmetry group for a
 simple tetragonal supercell.

 Subroutine GETGRP returns: Found  2 space group operations
 (whereof  1 operations were pure point group operations)
 out of a pool of 16 trial point group operations.

The constrained configuration has the point symmetry C_1 .
 The point group associated with its full space group is C_1h.

 Subroutine INISYM returns: Found  2 space group operations
 (whereof  1 operations are pure point group operations),
 and found     1 'primitive' translations

                                     Primitive cell

  volume of cell :    9881.6133

  direct lattice vectors                    reciprocal lattice vectors
    21.138852197  0.000000000  0.000000000     0.047306258  0.000000000  0.000000000
     0.000000000 21.138852197  0.000000000     0.000000000  0.047306258  0.000000000
     0.000000000  0.000000000 22.113885220     0.000000000  0.000000000  0.045220457

  length of vectors
    21.138852197 21.138852197 22.113885220     0.047306258  0.047306258  0.045220457

  position of ions in fractional coordinates (direct lattice)
     0.398329241  0.601718395  0.597737471
     0.320617240  0.679428851  0.599224153
     0.579428377  0.420617713  0.599224153
     0.501717922  0.498329241  0.597737471
     0.000000000  0.000000000  0.406984115
     0.100000000  0.100000000  0.406984115
     0.000000000  0.100000000  0.502574971
[...]
   O         167.070          4.741         17.672          4.745         17.706          3.273
   O         167.714          4.745         17.706          4.745         17.712          3.279
   O         169.110          4.751         17.779          4.754         17.815          3.292
   O         169.078          4.751         17.778          4.754         17.816          3.292
   O         167.742          4.745         17.707          4.745         17.714          3.279
   O         167.947          4.746         17.718          4.746         17.726          3.281
   O         169.038          4.751         17.776          4.753         17.803          3.292
   O         169.032          4.751         17.775          4.753         17.805          3.292

  vdW correction parametrized for the method pbe

  IVDW = 212
  VDW_RADIUS =    50.000 A
  VDW_SR =     0.820
  VDW_D =     6.000
  SCSRAD =   120.000 A
  LVDWSCS = T
  LSCSGRAD = T
  LSCALER0 = T
  ITIM = -1
  Edisp (eV):  -10.17850

  FORCE on cell =-STRESS in cart. coord.  units (eV):
  Direction    XX          YY          ZZ          XY          YZ          ZX
  Alpha Z  1394.80054  1394.80054  1394.80054
  Ewald  488949.61640488949.61538************ -1381.09674     0.00920     0.00911
  Hartree518464.71128518464.71086************ -1165.94986     0.00761     0.00829
  E(xc)   -7906.43699 -7906.43699 -7936.94163    -0.56794     0.00019     0.00019
  Local  ************************************  2542.01302    -0.01627    -0.01712
  n-local -8857.30371 -8857.30369 -8979.31035     0.19615    -0.00153    -0.00164
  augment  3656.25375  3656.25377  3600.42466     2.44882     0.00042     0.00049
  Kinetic 23043.16748 23043.16753 23293.90892     3.45320    -0.00226    -0.00231
  Fock        0.00000     0.00000     0.00000     0.00000     0.00000     0.00000
  vdW       -10.38988   -10.39166    -3.58835     0.09372    -0.00007    -0.00007
  Total    -156.51634  -156.51634    15.53329     0.59036    -0.00289    -0.00288
  in kB     -25.37712   -25.37712     2.51852     0.09572    -0.00047    -0.00047

 VOLUME and BASIS-vectors are now :
  energy-cutoff  :      520.00
  volume of cell :     9881.61
      direct lattice vectors                 reciprocal lattice vectors
    21.138852197  0.000000000  0.000000000     0.047306258  0.000000000  0.000000000
     0.000000000 21.138852197  0.000000000     0.000000000  0.047306258  0.000000000
     0.000000000  0.000000000 22.113885220     0.000000000  0.000000000  0.045220457

  length of vectors
    21.138852197 21.138852197 22.113885220     0.047306258  0.047306258  0.045220457

 FORCES acting on ions:
    Electron-Ion                     Ewald-Force                    Non-Local-Force
   -.647E+02 0.647E+02 -.222E+04   0.602E+02 -.602E+02 0.222E+04   0.460E+01 -.460E+01 -.160E+01
   0.287E+03 -.287E+03 -.222E+04   -.281E+03 0.281E+03 0.222E+04   -.632E+01 0.632E+01 -.149E+01
   -.287E+03 0.287E+03 -.222E+04   0.281E+03 -.281E+03 0.222E+04   0.632E+01 -.632E+01 -.149E+01
   0.647E+02 -.647E+02 -.222E+04   -.602E+02 0.602E+02 0.222E+04   -.460E+01 0.460E+01 -.160E+01
   0.519E+01 -.519E+01 0.937E+03   -.521E+01 0.522E+01 -.930E+03   0.192E-01 -.191E-01 -.744E+01
   0.962E+01 0.175E+01 0.938E+03   -.963E+01 -.171E+01 -.931E+03   0.568E-02 -.241E-01 -.745E+01
   0.326E+01 0.326E+01 -.920E+03   -.325E+01 -.325E+01 0.912E+03   -.862E-02 -.862E-02 0.735E+01
   0.151E+02 -.121E+02 -.917E+03   -.151E+02 0.122E+02 0.910E+03   0.155E-01 -.562E-01 0.735E+01
   0.174E+01 0.962E+01 0.938E+03   -.171E+01 -.963E+01 -.931E+03   -.241E-01 0.568E-02 -.745E+01
   0.156E+02 0.171E+02 0.944E+03   -.156E+02 -.171E+02 -.936E+03   0.716E-02 0.222E-01 -.746E+01
   0.234E+01 0.163E+02 -.916E+03   -.230E+01 -.163E+02 0.909E+03   -.357E-01 0.320E-02 0.734E+01
   0.136E+02 0.136E+02 -.918E+03   -.136E+02 -.136E+02 0.910E+03   -.920E-02 -.920E-02 0.735E+01
   0.497E+01 0.121E+02 0.945E+03   -.495E+01 -.121E+02 -.937E+03   -.206E-01 0.160E-01 -.746E+01
   0.327E+02 0.134E+02 0.958E+03   -.329E+02 -.135E+02 -.950E+03   0.972E-01 0.661E-01 -.749E+01
   0.137E+02 0.882E+01 -.911E+03   -.137E+02 -.883E+01 0.904E+03   -.337E-02 0.123E-01 0.733E+01
   0.328E+02 0.257E+02 -.909E+03   -.328E+02 -.257E+02 0.902E+03   -.547E-02 0.217E-01 0.732E+01
   0.143E+02 -.228E+01 0.949E+03   -.144E+02 0.226E+01 -.942E+03   0.637E-01 0.140E-01 -.746E+01
   0.382E+02 -.141E+02 0.963E+03   -.386E+02 0.141E+02 -.955E+03   0.294E+00 0.115E-01 -.750E+01
   0.238E+02 -.133E+02 -.911E+03   -.239E+02 0.133E+02 0.903E+03   0.810E-01 0.858E-02 0.734E+01
   0.668E+02 0.553E+01 -.895E+03   -.669E+02 -.560E+01 0.888E+03   0.968E-01 0.580E-01 0.730E+01
   0.131E+02 -.143E+02 0.944E+03   -.132E+02 0.143E+02 -.936E+03   0.941E-01 -.166E-01 -.746E+01
   0.182E+02 -.182E+02 0.945E+03   -.183E+02 0.183E+02 -.938E+03   0.759E-01 -.760E-01 -.744E+01
   0.121E+02 -.151E+02 -.917E+03   -.122E+02 0.151E+02 0.910E+03   0.563E-01 -.155E-01 0.735E+01
   0.455E+02 -.324E+02 -.904E+03   -.458E+02 0.324E+02 0.896E+03   0.233E+00 -.139E-01 0.734E+01
   0.143E+02 -.131E+02 0.944E+03   -.143E+02 0.132E+02 -.936E+03   0.165E-01 -.941E-01 -.746E+01
   0.121E+02 0.497E+01 0.945E+03   -.121E+02 -.494E+01 -.937E+03   0.160E-01 -.206E-01 -.746E+01
   0.163E+02 0.234E+01 -.916E+03   -.163E+02 -.230E+01 0.909E+03   0.320E-02 -.357E-01 0.734E+01
   0.133E+02 -.238E+02 -.911E+03   -.133E+02 0.239E+02 0.903E+03   -.862E-02 -.808E-01 0.734E+01
   0.171E+02 0.156E+02 0.944E+03   -.171E+02 -.156E+02 -.936E+03   0.222E-01 0.716E-02 -.746E+01
   0.300E+02 0.382E+02 0.965E+03   -.302E+02 -.383E+02 -.957E+03   0.106E+00 0.968E-01 -.750E+01
   0.357E+02 0.357E+02 -.908E+03   -.357E+02 -.357E+02 0.901E+03   0.760E-02 0.760E-02 0.732E+01
   0.257E+02 0.328E+02 -.909E+03   -.257E+02 -.328E+02 0.902E+03   0.217E-01 -.547E-02 0.732E+01
   0.382E+02 0.300E+02 0.965E+03   -.383E+02 -.302E+02 -.957E+03   0.968E-01 0.106E+00 -.750E+01
   0.576E+02 0.372E+02 0.102E+04   -.581E+02 -.377E+02 -.102E+04   0.391E+00 0.402E+00 -.769E+01
   0.928E+02 0.506E+02 -.874E+03   -.929E+02 -.507E+02 0.867E+03   0.704E-01 0.119E+00 0.722E+01
   0.820E+02 0.820E+02 -.869E+03   -.821E+02 -.821E+02 0.861E+03   0.706E-01 0.706E-01 0.724E+01
   0.619E+02 0.499E+01 0.100E+04   -.624E+02 -.523E+01 -.992E+03   0.435E+00 0.184E+00 -.759E+01
   0.431E+02 -.431E+02 0.104E+04   -.433E+02 0.433E+02 -.104E+04   0.189E+00 -.190E+00 -.587E+01
   0.136E+03 -.474E+02 -.829E+03   -.138E+03 0.472E+02 0.822E+03   0.141E+01 0.154E+00 0.725E+01
   0.176E+03 0.723E+02 -.668E+03   -.178E+03 -.740E+02 0.663E+03   0.135E+01 0.119E+01 0.494E+01
   0.373E+02 -.373E+02 0.975E+03   -.375E+02 0.375E+02 -.967E+03   0.201E+00 -.201E+00 -.738E+01
   0.141E+02 -.382E+02 0.963E+03   -.141E+02 0.386E+02 -.955E+03   -.116E-01 -.294E+00 -.750E+01
   0.324E+02 -.455E+02 -.904E+03   -.324E+02 0.458E+02 0.896E+03   0.138E-01 -.233E+00 0.734E+01
   0.475E+02 -.137E+03 -.829E+03   -.473E+02 0.138E+03 0.821E+03   -.154E+00 -.141E+01 0.725E+01
   0.228E+01 -.143E+02 0.949E+03   -.227E+01 0.144E+02 -.942E+03   -.141E-01 -.635E-01 -.746E+01
   -.228E+01 0.143E+02 0.949E+03   0.226E+01 -.144E+02 -.942E+03   0.140E-01 0.637E-01 -.746E+01
   0.882E+01 0.137E+02 -.911E+03   -.883E+01 -.137E+02 0.904E+03   0.123E-01 -.337E-02 0.733E+01
   -.882E+01 -.138E+02 -.911E+03   0.883E+01 0.137E+02 0.904E+03   -.123E-01 0.359E-02 0.733E+01
   0.134E+02 0.327E+02 0.958E+03   -.135E+02 -.329E+02 -.950E+03   0.661E-01 0.972E-01 -.749E+01
   0.499E+01 0.619E+02 0.100E+04   -.523E+01 -.624E+02 -.992E+03   0.184E+00 0.435E+00 -.759E+01
   0.506E+02 0.928E+02 -.874E+03   -.507E+02 -.929E+02 0.867E+03   0.119E+00 0.704E-01 0.722E+01
   0.553E+01 0.668E+02 -.895E+03   -.560E+01 -.669E+02 0.888E+03   0.580E-01 0.968E-01 0.730E+01
   0.372E+02 0.576E+02 0.102E+04   -.377E+02 -.581E+02 -.102E+04   0.402E+00 0.391E+00 -.769E+01
   -.134E+02 0.135E+02 0.109E+04   0.134E+02 -.134E+02 -.108E+04   0.523E-01 -.527E-01 -.589E+01
   0.120E+03 0.120E+03 -.680E+03   -.122E+03 -.122E+03 0.673E+03   0.152E+01 0.152E+01 0.634E+01
   0.723E+02 0.176E+03 -.668E+03   -.740E+02 -.178E+03 0.663E+03   0.119E+01 0.135E+01 0.494E+01
   0.135E+02 -.134E+02 0.109E+04   -.134E+02 0.134E+02 -.108E+04   -.527E-01 0.523E-01 -.589E+01
   -.372E+02 -.576E+02 0.102E+04   0.377E+02 0.581E+02 -.102E+04   -.402E+00 -.391E+00 -.769E+01
   -.722E+02 -.176E+03 -.668E+03   0.740E+02 0.178E+03 0.663E+03   -.119E+01 -.135E+01 0.494E+01
   -.120E+03 -.120E+03 -.679E+03   0.122E+03 0.122E+03 0.673E+03   -.152E+01 -.152E+01 0.634E+01
[...]
   -.215E+02 0.163E+02 0.718E+03   0.216E+02 -.163E+02 -.722E+03   -.174E+00 0.813E-01 0.350E+01
   -.665E+01 0.888E+01 0.707E+03   0.669E+01 -.890E+01 -.711E+03   -.533E-01 0.342E-01 0.349E+01
   -.498E+02 0.150E+02 -.673E+03   0.499E+02 -.149E+02 0.677E+03   -.171E+00 -.585E-01 -.376E+01
   -.162E+02 0.159E+01 -.684E+03   0.162E+02 -.157E+01 0.688E+03   -.382E-01 -.227E-01 -.368E+01
   -.299E+02 -.829E+00 0.725E+03   0.300E+02 0.895E+00 -.729E+03   -.136E+00 -.844E-01 0.344E+01
   -.118E+02 0.793E+01 0.713E+03   0.118E+02 -.793E+01 -.717E+03   -.765E-01 -.133E-02 0.348E+01
   -.376E+02 -.162E+02 -.678E+03   0.377E+02 0.163E+02 0.683E+03   -.469E-01 -.601E-01 -.374E+01
   -.470E+01 -.116E+02 -.687E+03   0.468E+01 0.116E+02 0.691E+03   0.202E-01 -.786E-02 -.366E+01
   -.175E+02 -.139E+02 0.715E+03   0.175E+02 0.139E+02 -.719E+03   -.340E-01 -.473E-01 0.346E+01
   -.728E+01 -.481E+01 0.713E+03   0.728E+01 0.483E+01 -.717E+03   -.135E-01 -.210E-01 0.347E+01
   -.153E+02 -.166E+02 -.687E+03   0.153E+02 0.166E+02 0.692E+03   0.497E-02 -.792E-02 -.366E+01
   -.129E+01 -.877E+01 -.691E+03   0.127E+01 0.878E+01 0.695E+03   0.219E-01 -.387E-02 -.364E+01
   -.824E+01 -.823E+01 0.707E+03   0.823E+01 0.823E+01 -.711E+03   -.269E-02 -.269E-02 0.349E+01
   -.171E+01 -.987E+01 0.708E+03   0.168E+01 0.989E+01 -.712E+03   0.249E-01 -.154E-01 0.349E+01
   -.731E+00 0.727E+00 0.177E+02   0.165E-11 -.114E-12 0.819E-11   0.243E-02 0.243E-02 -.183E+02

 POSITION                                       TOTAL-FORCE (eV/Angst)
      8.42022     12.71964     13.21830         0.068054     -0.068263     -0.047723
      6.77748     14.36235     13.25117        -0.044783      0.044117     -0.029235
     12.24845      8.89138     13.25117         0.044117     -0.044783     -0.029235
     10.60574     10.53411     13.21830        -0.068263      0.068054     -0.047723
      0.00000      0.00000      9.00000        -0.005366      0.005354      0.346026
      2.11389      2.11389      9.00000        -0.001695      0.006360      0.347208
      0.00000      2.11389     11.11389         0.002218      0.002218     -0.313081
      2.11389      0.00000     11.11389        -0.004514      0.014741     -0.310779
      0.00000      4.22777      9.00000         0.006360     -0.001695      0.347208
      2.11389      6.34166      9.00000        -0.001975     -0.005923      0.350449
      0.00000      6.34166     11.11389         0.009358     -0.000738     -0.309329
      2.11389      4.22777     11.11389         0.002589      0.002589     -0.310440
      0.00000      8.45554      9.00000         0.005272     -0.004293      0.350149
      2.11389     10.56943      9.00000        -0.026427     -0.018317      0.356689
      0.00000     10.56943     11.11389         0.001461     -0.003123     -0.302462
      2.11389      8.45554     11.11389         0.002540     -0.004955     -0.298378
      0.00000     12.68331      9.00000        -0.017228     -0.004253      0.351401
      2.11389     14.79720      9.00000        -0.075059     -0.003869      0.357796
      0.00000     14.79720     11.11389        -0.019859     -0.002861     -0.303455
      2.11389     12.68331     11.11389        -0.023106     -0.016477     -0.278750
      0.00000     16.91108      9.00000        -0.024717      0.004858      0.348849
      2.11389     19.02497      9.00000        -0.022023      0.022021      0.344071
      0.00000     19.02497     11.11389        -0.014755      0.004509     -0.310780
      2.11389     16.91108     11.11389        -0.060429      0.004275     -0.297338
      4.22777      0.00000      9.00000        -0.004856      0.024700      0.348851
      6.34166      2.11389      9.00000        -0.004293      0.005272      0.350149
      4.22777      2.11389     11.11389        -0.000738      0.009358     -0.309329
      6.34166      0.00000     11.11389         0.002870      0.019811     -0.303449
      4.22777      4.22777      9.00000        -0.005923     -0.001975      0.350449
      6.34166      6.34166      9.00000        -0.028448     -0.026232      0.361993
      4.22777      6.34166     11.11389        -0.000696     -0.000696     -0.297136
      6.34166      4.22777     11.11389        -0.004955      0.002540     -0.298378
      4.22777      8.45554      9.00000        -0.026232     -0.028448      0.361993
      6.34166     10.56943      9.00000        -0.111614     -0.114748      0.383173
      4.22777     10.56943     11.11389        -0.001048     -0.016979     -0.223284
      6.34166      8.45554     11.11389        -0.010990     -0.010990     -0.233011
      4.22777     12.68331      9.00000        -0.121749     -0.061186      0.361997
      6.34166     14.79720      9.00000        -0.060784      0.060878     -0.022110
      4.22777     14.79720     11.11389        -0.444423     -0.056397     -0.264388
      6.34166     12.68331     11.11389        -0.520259     -0.580662      0.015771
      4.22777     16.91108      9.00000        -0.065667      0.065693      0.315406
      6.34166     19.02497      9.00000         0.003890      0.075032      0.357811
      4.22777     19.02497     11.11389        -0.004246      0.060428     -0.297330
      6.34166     16.91108     11.11389         0.056499      0.444493     -0.264362
      8.45554      0.00000      9.00000         0.004257      0.017183      0.351404
     10.56943      2.11389      9.00000        -0.004253     -0.017228      0.351401
      8.45554      2.11389     11.11389        -0.003123      0.001461     -0.302462
     10.56943      0.00000     11.11389         0.003123     -0.001528     -0.302463
      8.45554      4.22777      9.00000        -0.018317     -0.026427      0.356689
     10.56943      6.34166      9.00000        -0.061186     -0.121749      0.361997
      8.45554      6.34166     11.11389        -0.016979     -0.001048     -0.223284
     10.56943      4.22777     11.11389        -0.016477     -0.023106     -0.278750
      8.45554      8.45554      9.00000        -0.114748     -0.111614      0.383173
     10.56943     10.56943      9.00000        -0.016887      0.017004     -0.034193
      8.45554     10.56943     11.11389        -0.555059     -0.555059     -0.193765
     10.56943      8.45554     11.11389        -0.580662     -0.520259      0.015771
      8.45554     12.68331      9.00000         0.017004     -0.016887     -0.034193
     10.56943     14.79720      9.00000         0.114766      0.111606      0.383104
      8.45554     14.79720     11.11389         0.581351      0.520656      0.015338
     10.56943     12.68331     11.11389         0.555450      0.555450     -0.193952
[...]
     19.02497      6.34166     11.11389        -0.019913      0.003808      0.491824
     16.91108      6.34166      9.00000        -0.051017      0.023780     -0.529119
     19.02497      4.22777      9.00000        -0.014907      0.009581     -0.532328
     16.91108      8.45554     11.11389        -0.056292     -0.014861      0.469423
     19.02497     10.56943     11.11389        -0.011327     -0.006502      0.485024
     16.91108     10.56943      9.00000        -0.043145     -0.024419     -0.545686
     19.02497      8.45554      9.00000        -0.021915     -0.000138     -0.535700
     16.91108     12.68331     11.11389        -0.015722     -0.018588      0.471221
     19.02497     14.79720     11.11389         0.005665     -0.002279      0.489945
     16.91108     14.79720      9.00000        -0.010024     -0.013638     -0.539761
     19.02497     12.68331      9.00000        -0.004053     -0.006045     -0.537516
     16.91108     16.91108     11.11389         0.001220     -0.002358      0.490364
     19.02497     19.02497     11.11389         0.006080     -0.001147      0.496718
     16.91108     19.02497      9.00000        -0.000823     -0.000823     -0.533996
     19.02497     16.91108      9.00000         0.006933     -0.004367     -0.534181
    total drift:                               -0.728535      0.729316     -0.584091

  FREE ENERGIE OF THE ION-ELECTRON SYSTEM (eV)
  free  energy   TOTEN  =     -1155.62672167 eV

  energy  without entropy=    -1155.62672167  energy(sigma->0) =    -1155.62672167