 vasp.6.3.0 20Jan22 (build Apr  1 2022 16:44:48) complex
 executed on        HPECrayEX_GCC date 2022.08.15  21:57:53

 INCAR:
   SYSTEM = MgO-rocksalt
   ISMEAR = 0
   SIGMA = 0.05
   EDIFF = 1E-6
   ALGO = ALL
   ISTART = 0
   IBRION = -1
   NSW = 0
   ISYM = 2
   DIPOL = 0.5 0.5 0.5
   IDIPOL = 3
   LDIPOL = .TRUE.
   METAGGA = R2SCAN
   IVDW = 13
   VDW_S8 = 0.6019
   VDW_A1 = 0.5156
   VDW_A2 = 5.7734
   ENCUT = 520
   PREC = Accurate
   LASPH = .TRUE.
   LREAL = Auto
   ISPIN = 1
   NELM = 200
   NELMIN = 8
   NCORE = 4
   KPAR = 2
   LWAVE = .FALSE.
   LCHARG = .FALSE.

 POTCAR:    PAW_PBE Ag 02Apr2005
 POTCAR:    PAW_PBE Mg_pv 13Apr2007
 POTCAR:    PAW_PBE O 08Apr2002
 POTCAR:    PAW_PBE Ag 02Apr2005
   VRHFIN =Ag : s1 d10

   TITEL  = PAW_PBE Ag 02Apr2005
   POMASS =  107.868; ZVAL   =   11.000    mass and valenz
   ENMAX  =  249.844; ENMIN  =  187.383 eV

   TITEL  = PAW_PBE Mg_pv 13Apr2007
   POMASS =   24.305; ZVAL   =    8.000    mass and valenz
   ENMAX  =  403.929; ENMIN  =  302.947 eV

   TITEL  = PAW_PBE O 08Apr2002
   POMASS =   16.000; ZVAL   =    6.000    mass and valenz
   ENMAX  =  400.000; ENMIN  =  300.000 eV

 Optimization of the real space projectors (new method)

 maximal supplied QI-value         = 15.12
 optimisation between [QCUT,QGAM] = [ 11.64, 23.28] = [ 37.95,151.78] Ry
 Optimized for a Real-space Cutoff    1.45 Angstroem

   l    n(q)    QCUT    max X(q) W(low)/X(q) W(high)/X(q)  e(spline)
   2      9    11.641    53.897    0.22E-03    0.42E-04    0.28E-06
   2      9    11.641    52.416    0.23E-03    0.44E-04    0.29E-06
   0     10    11.641   122.045    0.51E-04    0.25E-04    0.16E-06
   0     10    11.641    73.629    0.49E-04    0.24E-04    0.16E-06
   1     10    11.641    15.255    0.99E-04    0.55E-04    0.11E-06
   1     10    11.641     9.562    0.81E-04    0.47E-04    0.95E-07
 Optimization of the real space projectors (new method)

[...]

   l    n(q)    QCUT    max X(q) W(low)/X(q) W(high)/X(q)  e(spline)
   1      8    11.527     2.974    0.44E-04    0.56E-04    0.12E-06
   1      8    11.527     4.279    0.12E-03    0.12E-03    0.26E-06
   0      9    11.527    16.381    0.46E-04    0.64E-04    0.78E-07
   0      9    11.527     5.611    0.26E-04    0.43E-04    0.55E-07
   2      8    11.527     4.652    0.22E-03    0.72E-04    0.47E-07
 Optimization of the real space projectors (new method)

 maximal supplied QI-value         = 24.76
 optimisation between [QCUT,QGAM] = [ 11.64, 23.27] = [ 37.91,151.63] Ry
 Optimized for a Real-space Cutoff    1.14 Angstroem

   l    n(q)    QCUT    max X(q) W(low)/X(q) W(high)/X(q)  e(spline)
   0      8    11.635    20.381    0.10E-03    0.33E-03    0.24E-06
   0      8    11.635    15.268    0.11E-03    0.35E-03    0.26E-06
   1      7    11.635     5.964    0.24E-03    0.31E-03    0.30E-06
   1      7    11.635     5.382    0.22E-03    0.25E-03    0.26E-06
  PAW_PBE Ag 02Apr2005                  :
  PAW_PBE Mg_pv 13Apr2007               :
  PAW_PBE O 08Apr2002                   :

 POSCAR: Ag Mg  O
  positions in direct lattice

 METAGGA = R2SCA    LMAXTAU =  6    LMIXTAU =  F

 WARNING: Using user supplied parameters
     VDW_S8 = 0.602
     VDW_A1 = 0.516
     VDW_A2 = 5.773
     because the xc functional is not supported. Required parameters not
     defined in the INCAR file will be replaced with PBE defaults ones.

 ion  position               nearest neighbor table
   1  0.493  0.407  0.638-   2 2.57  54 2.99
   2  0.407  0.493  0.638-   1 2.57  53 2.99
   3  0.000  0.000  0.407- 105 2.11 106 2.11 121 2.11 186 2.11 103 2.11
   4  0.100  0.100  0.407- 105 2.11 106 2.11 110 2.11 125 2.11 104 2.11
   5  0.000  0.100  0.503- 103 2.11 104 2.11 107 2.11 184 2.11 105 2.11
   6  0.100  0.000  0.503- 103 2.11 104 2.11 120 2.11 123 2.11 106 2.11
   7  0.000  0.200  0.407- 109 2.11 105 2.11 110 2.11 190 2.11 107 2.11
   8  0.100  0.300  0.407- 110 2.11 109 2.11 114 2.11 129 2.11 108 2.11
   9  0.000  0.300  0.503- 107 2.11 108 2.11 111 2.11 188 2.11 109 2.11
  10  0.100  0.200  0.503- 108 2.11 107 2.11 104 2.11 127 2.11 110 2.11
  11  0.000  0.400  0.407- 109 2.11 113 2.11 114 2.11 194 2.11 111 2.11
  12  0.100  0.500  0.407- 113 2.11 114 2.11 118 2.11 133 2.11 112 2.11
  13  0.000  0.500  0.503- 111 2.11 112 2.11 115 2.11 192 2.11 113 2.11
  14  0.100  0.400  0.503- 108 2.11 111 2.11 112 2.11 131 2.11 114 2.11
  15  0.000  0.600  0.407- 113 2.11 117 2.11 118 2.11 198 2.11 115 2.11
  16  0.100  0.700  0.407- 122 2.11 118 2.11 117 2.11 137 2.11 116 2.11
  17  0.000  0.700  0.503- 119 2.11 116 2.11 115 2.11 196 2.11 117 2.11
  18  0.100  0.600  0.503- 112 2.11 115 2.11 116 2.11 135 2.11 118 2.11
  19  0.000  0.800  0.407- 117 2.11 121 2.11 122 2.11 202 2.11 119 2.11
  20  0.100  0.900  0.407- 106 2.11 121 2.11 122 2.11 141 2.11 120 2.11
  21  0.000  0.900  0.503- 103 2.11 119 2.11 120 2.11 200 2.11 121 2.11
  22  0.100  0.800  0.503- 116 2.11 119 2.11 120 2.11 139 2.11 122 2.11
  23  0.200  0.000  0.407- 126 2.11 125 2.11 106 2.11 141 2.11 123 2.11
  24  0.300  0.100  0.407- 125 2.11 126 2.11 130 2.11 145 2.11 124 2.11
  25  0.200  0.100  0.503- 124 2.11 123 2.11 104 2.11 127 2.11 125 2.11
  26  0.300  0.000  0.503- 123 2.11 124 2.11 140 2.11 143 2.11 126 2.11
  27  0.200  0.200  0.407- 129 2.11 130 2.11 110 2.11 125 2.11 127 2.11
  28  0.300  0.300  0.407- 129 2.11 130 2.11 134 2.11 149 2.11 128 2.11
  29  0.200  0.300  0.503- 127 2.11 128 2.11 108 2.11 131 2.11 129 2.11
  30  0.300  0.200  0.503- 127 2.11 128 2.11 124 2.11 147 2.11 130 2.11
  31  0.200  0.400  0.407- 134 2.11 129 2.11 133 2.11 114 2.11 131 2.11
  32  0.300  0.500  0.407- 133 2.11 134 2.11 138 2.11 153 2.11 132 2.11
  33  0.200  0.500  0.503- 132 2.11 131 2.11 112 2.11 135 2.11 133 2.11
  34  0.300  0.400  0.503- 131 2.11 128 2.11 132 2.11 151 2.11 134 2.11
  35  0.200  0.600  0.407- 138 2.11 133 2.11 137 2.11 118 2.11 135 2.11
  36  0.300  0.700  0.407- 137 2.11 142 2.11 138 2.11 157 2.11 136 2.11
  37  0.200  0.700  0.503- 136 2.11 139 2.11 116 2.11 135 2.11 137 2.11
  38  0.300  0.600  0.503- 135 2.11 132 2.11 136 2.11 155 2.11 138 2.11
  39  0.200  0.800  0.407- 137 2.11 142 2.11 141 2.11 122 2.11 139 2.11
  40  0.300  0.900  0.407- 141 2.11 126 2.11 142 2.11 161 2.11 140 2.11
  41  0.200  0.900  0.503- 140 2.11 123 2.11 139 2.11 120 2.11 141 2.11
  42  0.300  0.800  0.503- 136 2.11 139 2.11 140 2.11 159 2.11 142 2.11
  43  0.400  0.000  0.407- 126 2.11 145 2.11 146 2.11 161 2.11 143 2.11
  44  0.500  0.100  0.407- 145 2.11 146 2.11 150 2.11 165 2.11 144 2.11
  45  0.400  0.100  0.503- 124 2.11 143 2.11 144 2.11 147 2.11 145 2.11
  46  0.500  0.000  0.503- 143 2.11 144 2.11 160 2.11 163 2.11 146 2.11
  47  0.400  0.200  0.407- 149 2.11 145 2.11 130 2.11 150 2.11 147 2.11
  48  0.500  0.300  0.407- 150 2.11 149 2.11 154 2.11 169 2.11 148 2.11
  49  0.400  0.300  0.503- 147 2.11 128 2.11 148 2.11 151 2.11 149 2.11
  50  0.500  0.200  0.503- 148 2.11 147 2.11 144 2.11 167 2.11 150 2.11
  51  0.400  0.400  0.407- 134 2.11 149 2.11 153 2.11 154 2.11 151 2.11
  52  0.500  0.500  0.407- 153 2.11 154 2.11 158 2.11 173 2.11 152 2.11
  53  0.400  0.500  0.503- 132 2.11 151 2.11 152 2.11 155 2.11 153 2.11   2 2.99
  54  0.500  0.400  0.503- 148 2.11 151 2.11 152 2.11 171 2.11 154 2.11   1 2.99
  55  0.400  0.600  0.407- 138 2.11 153 2.11 157 2.11 158 2.11 155 2.11
  56  0.500  0.700  0.407- 162 2.11 158 2.11 157 2.11 177 2.11 156 2.11
  57  0.400  0.700  0.503- 159 2.11 155 2.11 156 2.11 136 2.11 157 2.11
  58  0.500  0.600  0.503- 152 2.11 155 2.11 156 2.11 175 2.11 158 2.11
  59  0.400  0.800  0.407- 157 2.11 142 2.11 161 2.11 162 2.11 159 2.11
  60  0.500  0.900  0.407- 146 2.11 161 2.11 162 2.11 181 2.11 160 2.11
[...]
 188  0.900  0.300  0.503-  90 2.11  89 2.11   9 2.11  94 2.11  88 2.11
 189  0.800  0.300  0.407-  68 2.11  87 2.11  88 2.11  91 2.11  89 2.11
 190  0.900  0.200  0.407-  88 2.11  84 2.11  87 2.11   7 2.11  90 2.11
 191  0.800  0.400  0.503-  74 2.11  89 2.11  93 2.11  94 2.11  91 2.11
 192  0.900  0.500  0.503-  13 2.11  93 2.11  94 2.11  98 2.11  92 2.11
 193  0.800  0.500  0.407-  72 2.11  91 2.11  92 2.11  95 2.11  93 2.11
 194  0.900  0.400  0.407-  11 2.11  88 2.11  91 2.11  92 2.11  94 2.11
 195  0.800  0.600  0.503-  78 2.11  93 2.11  97 2.11  98 2.11  95 2.11
 196  0.900  0.700  0.503- 102 2.11  97 2.11  98 2.11  17 2.11  96 2.11
 197  0.800  0.700  0.407-  76 2.11  99 2.11  96 2.11  95 2.11  97 2.11
 198  0.900  0.600  0.407-  15 2.11  92 2.11  95 2.11  96 2.11  98 2.11
 199  0.800  0.800  0.503-  82 2.11  97 2.11 101 2.11 102 2.11  99 2.11
 200  0.900  0.900  0.503-  21 2.11  86 2.11 101 2.11 102 2.11 100 2.11
 201  0.800  0.900  0.407-  80 2.11  83 2.11  99 2.11 100 2.11 101 2.11
 202  0.900  0.800  0.407-  96 2.11  19 2.11  99 2.11 100 2.11 102 2.11

  LATTYP: Found a simple tetragonal cell.
 ALAT       =    21.1388521970
 C/A-ratio  =     1.0461251639

  Lattice vectors:

 A1 = (  21.1388521970,   0.0000000000,   0.0000000000)
 A2 = (   0.0000000000,  21.1388521970,   0.0000000000)
 A3 = (   0.0000000000,   0.0000000000,  22.1138852197)

Analysis of symmetry for initial positions (statically):
 Subroutine PRICEL returns:
 Original cell was already a primitive cell.

 Routine SETGRP: Setting up the symmetry group for a
 simple tetragonal supercell.

 Subroutine GETGRP returns: Found  4 space group operations
 (whereof  2 operations were pure point group operations)
 out of a pool of 16 trial point group operations.

The static configuration has the point symmetry C_1h.
 The point group associated with its full space group is C_2v.

Analysis of symmetry for dynamics (positions and initial velocities):
 Subroutine PRICEL returns:
 Original cell was already a primitive cell.

 Routine SETGRP: Setting up the symmetry group for a
 simple tetragonal supercell.

 Subroutine GETGRP returns: Found  4 space group operations
 (whereof  2 operations were pure point group operations)
 out of a pool of 16 trial point group operations.

The dynamic configuration has the point symmetry C_1h.
 The point group associated with its full space group is C_2v.

 Subroutine INISYM returns: Found  4 space group operations
 (whereof  2 operations are pure point group operations),
 and found     1 'primitive' translations

                                     Primitive cell

  volume of cell :    9881.6133

  direct lattice vectors                    reciprocal lattice vectors
    21.138852197  0.000000000  0.000000000     0.047306258  0.000000000  0.000000000
     0.000000000 21.138852197  0.000000000     0.000000000  0.047306258  0.000000000
     0.000000000  0.000000000 22.113885220     0.000000000  0.000000000  0.045220457

  length of vectors
    21.138852197 21.138852197 22.113885220     0.047306258  0.047306258  0.045220457

  position of ions in fractional coordinates (direct lattice)
     0.492981444  0.407018562  0.637532147
     0.407018532  0.492981474  0.637532147
     0.000000000  0.000000000  0.406984115
     0.100000000  0.100000000  0.406984115
     0.000000000  0.100000000  0.502574971
     0.100000000  0.000000000  0.502574971
     0.000000000  0.200000000  0.406984115
     0.100000000  0.300000000  0.406984115
[...]
     54     -44.3765      2.00000
     55     -44.3763      2.00000
     56     -44.3760      2.00000
     57     -44.3749      2.00000
     58     -44.3741      2.00000
     59     -44.3734      2.00000
     60     -44.3733      2.00000
[...]
    882       5.1886      0.00000
    883       5.3312      0.00000
    884       5.3840      0.00000
    885       5.4798      0.00000
    886       5.5037      0.00000
    887       5.5141      0.00000
    888       5.6359      0.00000
    889       5.8040      0.00000
    890       5.8669      0.00000
    891       6.0128      0.00000
    892       6.0464      0.00000
    893       6.0961      0.00000
    894       6.1340      0.00000
    895       6.1635      0.00000
    896       6.1921      0.00000

 soft charge-density along one line, spin component           1
         0         1         2         3         4         5         6         7         8         9
 total charge-density along one line

------------------------ aborting loop because EDIFF is reached ----------------------------------------

  FORCE on cell =-STRESS in cart. coord.  units (eV):
  Direction    XX          YY          ZZ          XY          YZ          ZX
  Alpha Z  1357.53553  1357.53553  1357.53553
  Ewald  478265.93745478265.93745************  -335.41996     0.00001    -0.00000
  Hartree507156.70331507156.70333************  -245.22729     0.00000    -0.00000
  E(xc)   -8397.74203 -8397.74205 -8398.63426    -0.16721     0.00000     0.00000
  Local  ************************************   575.40532    -0.00001     0.00001
  n-local -8706.13432 -8706.13433 -8828.55802     1.64400     0.00000     0.00000
  augment  3884.60147  3884.60089  3825.66900     0.91218     0.00001     0.00002
  Kinetic 23011.93501 23011.93503 23239.73791     3.19583     0.00000    -0.00000
  Fock        0.00000     0.00000     0.00000     0.00000     0.00000     0.00000
  vdW        -7.94899    -7.94899    -1.96356     0.00036     0.00000    -0.00000
  Total    -230.91244  -230.91244   -19.20574     0.34322    -0.00000     0.00000
  in kB     -37.43950   -37.43950    -3.11397     0.05565    -0.00000     0.00000

 VOLUME and BASIS-vectors are now :
  energy-cutoff  :      520.00
  volume of cell :     9881.61
      direct lattice vectors                 reciprocal lattice vectors
    21.138852197  0.000000000  0.000000000     0.047306258  0.000000000  0.000000000
     0.000000000 21.138852197  0.000000000     0.000000000  0.047306258  0.000000000
     0.000000000  0.000000000 22.113885220     0.000000000  0.000000000  0.045220457

  length of vectors
    21.138852197 21.138852197 22.113885220     0.047306258  0.047306258  0.045220457

 FORCES acting on ions:
    Electron-Ion                     Ewald-Force                    Non-Local-Force
   -.190E+03 0.190E+03 -.198E+04   0.185E+03 -.185E+03 0.198E+04   0.558E+01 -.558E+01 0.601E-01
   0.190E+03 -.190E+03 -.198E+04   -.185E+03 0.185E+03 0.198E+04   -.558E+01 0.558E+01 0.601E-01
   0.171E+01 0.171E+01 0.931E+03   -.170E+01 -.170E+01 -.923E+03   -.207E-02 -.207E-02 -.753E+01
   0.612E+01 0.612E+01 0.933E+03   -.611E+01 -.611E+01 -.925E+03   -.475E-02 -.475E-02 -.753E+01
   0.258E+01 0.593E+01 -.922E+03   -.256E+01 -.593E+01 0.914E+03   -.956E-02 -.839E-03 0.757E+01
   0.593E+01 0.258E+01 -.922E+03   -.593E+01 -.256E+01 0.914E+03   -.839E-03 -.956E-02 0.757E+01
   0.287E+01 0.628E+01 0.934E+03   -.285E+01 -.629E+01 -.926E+03   -.116E-01 0.214E-02 -.753E+01
   0.126E+02 0.789E+01 0.939E+03   -.126E+02 -.790E+01 -.931E+03   -.117E-01 0.107E-01 -.753E+01
   0.567E+01 0.707E+01 -.919E+03   -.566E+01 -.707E+01 0.911E+03   -.145E-01 0.441E-02 0.757E+01
   0.124E+02 0.115E+02 -.919E+03   -.124E+02 -.115E+02 0.911E+03   -.177E-01 -.295E-03 0.757E+01
   0.510E+01 0.230E+01 0.937E+03   -.509E+01 -.230E+01 -.929E+03   -.204E-02 0.509E-02 -.753E+01
   0.163E+02 -.259E+01 0.942E+03   -.163E+02 0.258E+01 -.934E+03   0.304E-01 0.122E-01 -.753E+01
   0.808E+01 -.253E+01 -.918E+03   -.810E+01 0.252E+01 0.910E+03   0.120E-01 0.397E-02 0.757E+01
   0.249E+02 0.574E+01 -.913E+03   -.249E+02 -.577E+01 0.905E+03   -.295E-02 0.202E-01 0.757E+01
   0.485E+01 -.534E+01 0.936E+03   -.487E+01 0.534E+01 -.928E+03   0.169E-01 -.702E-03 -.753E+01
   0.986E+01 -.883E+01 0.937E+03   -.988E+01 0.884E+01 -.929E+03   0.187E-01 -.884E-02 -.752E+01
   0.514E+01 -.811E+01 -.921E+03   -.516E+01 0.812E+01 0.913E+03   0.185E-01 -.348E-02 0.757E+01
   0.213E+02 -.109E+02 -.914E+03   -.213E+02 0.109E+02 0.906E+03   0.421E-01 0.279E-02 0.757E+01
   0.259E+01 -.494E+01 0.932E+03   -.260E+01 0.495E+01 -.924E+03   0.940E-02 -.443E-02 -.753E+01
   0.494E+01 -.259E+01 0.932E+03   -.495E+01 0.260E+01 -.924E+03   0.443E-02 -.940E-02 -.753E+01
   0.236E+01 -.236E+01 -.923E+03   -.237E+01 0.237E+01 0.915E+03   0.407E-02 -.407E-02 0.757E+01
   0.889E+01 -.889E+01 -.921E+03   -.890E+01 0.890E+01 0.913E+03   0.131E-01 -.131E-01 0.757E+01
   0.628E+01 0.287E+01 0.934E+03   -.629E+01 -.285E+01 -.926E+03   0.214E-02 -.116E-01 -.753E+01
   0.789E+01 0.126E+02 0.939E+03   -.790E+01 -.126E+02 -.931E+03   0.107E-01 -.117E-01 -.753E+01
   0.115E+02 0.124E+02 -.919E+03   -.115E+02 -.124E+02 0.911E+03   -.295E-03 -.177E-01 0.757E+01
   0.707E+01 0.567E+01 -.919E+03   -.707E+01 -.566E+01 0.911E+03   0.441E-02 -.145E-01 0.757E+01
   0.131E+02 0.131E+02 0.941E+03   -.131E+02 -.131E+02 -.932E+03   -.346E-02 -.346E-02 -.754E+01
   0.215E+02 0.215E+02 0.961E+03   -.215E+02 -.215E+02 -.953E+03   0.121E-01 0.121E-01 -.758E+01
   0.332E+02 0.221E+02 -.906E+03   -.331E+02 -.221E+02 0.898E+03   -.511E-01 0.219E-01 0.755E+01
   0.221E+02 0.332E+02 -.906E+03   -.221E+02 -.331E+02 0.898E+03   0.219E-01 -.511E-01 0.755E+01
   0.257E+02 0.679E+01 0.954E+03   -.257E+02 -.685E+01 -.946E+03   -.103E-01 0.423E-01 -.753E+01
   0.299E+02 -.818E+01 0.979E+03   -.298E+02 0.812E+01 -.971E+03   -.411E-01 0.453E-01 -.734E+01
   0.520E+02 -.742E+01 -.893E+03   -.522E+02 0.736E+01 0.885E+03   0.118E+00 0.455E-01 0.758E+01
   0.745E+02 0.331E+02 -.850E+03   -.743E+02 -.333E+02 0.842E+03   -.161E+00 0.184E+00 0.745E+01
   0.212E+02 -.129E+02 0.950E+03   -.212E+02 0.129E+02 -.942E+03   0.312E-01 -.811E-02 -.751E+01
   0.129E+02 -.212E+02 0.950E+03   -.129E+02 0.212E+02 -.942E+03   0.811E-02 -.312E-01 -.751E+01
   0.220E+02 -.220E+02 -.912E+03   -.221E+02 0.221E+02 0.904E+03   0.313E-01 -.313E-01 0.758E+01
   0.498E+02 -.498E+02 -.870E+03   -.499E+02 0.499E+02 0.862E+03   0.807E-01 -.807E-01 0.760E+01
   0.883E+01 -.986E+01 0.937E+03   -.884E+01 0.988E+01 -.929E+03   0.884E-02 -.187E-01 -.752E+01
   0.534E+01 -.485E+01 0.936E+03   -.534E+01 0.487E+01 -.928E+03   0.702E-03 -.169E-01 -.753E+01
   0.811E+01 -.514E+01 -.921E+03   -.812E+01 0.516E+01 0.913E+03   0.348E-02 -.185E-01 0.757E+01
   0.109E+02 -.213E+02 -.914E+03   -.109E+02 0.213E+02 0.906E+03   -.279E-02 -.421E-01 0.757E+01
   0.230E+01 0.510E+01 0.937E+03   -.230E+01 -.509E+01 -.929E+03   0.509E-02 -.204E-02 -.753E+01
   -.259E+01 0.163E+02 0.942E+03   0.258E+01 -.163E+02 -.934E+03   0.122E-01 0.304E-01 -.753E+01
   0.574E+01 0.249E+02 -.913E+03   -.577E+01 -.249E+02 0.905E+03   0.202E-01 -.295E-02 0.757E+01
   -.253E+01 0.808E+01 -.918E+03   0.252E+01 -.810E+01 0.910E+03   0.397E-02 0.120E-01 0.757E+01
   0.679E+01 0.257E+02 0.954E+03   -.685E+01 -.257E+02 -.946E+03   0.423E-01 -.103E-01 -.753E+01
   -.818E+01 0.299E+02 0.979E+03   0.812E+01 -.298E+02 -.971E+03   0.453E-01 -.411E-01 -.734E+01
   0.331E+02 0.745E+02 -.850E+03   -.333E+02 -.743E+02 0.842E+03   0.184E+00 -.161E+00 0.745E+01
   -.742E+01 0.520E+02 -.893E+03   0.736E+01 -.522E+02 0.885E+03   0.455E-01 0.118E+00 0.758E+01
   0.154E+02 0.154E+02 0.100E+04   -.154E+02 -.154E+02 -.992E+03   0.148E-01 0.148E-01 -.772E+01
   -.154E+02 -.154E+02 0.100E+04   0.154E+02 0.154E+02 -.992E+03   -.148E-01 -.148E-01 -.772E+01
   0.431E+02 -.431E+02 -.731E+03   -.426E+02 0.426E+02 0.724E+03   -.324E+00 0.324E+00 0.632E+01
   -.431E+02 0.431E+02 -.731E+03   0.426E+02 -.426E+02 0.724E+03   0.324E+00 -.324E+00 0.632E+01
   0.818E+01 -.299E+02 0.979E+03   -.812E+01 0.298E+02 -.971E+03   -.453E-01 0.411E-01 -.734E+01
   -.679E+01 -.257E+02 0.954E+03   0.685E+01 0.257E+02 -.946E+03   -.423E-01 0.103E-01 -.753E+01
   0.742E+01 -.520E+02 -.893E+03   -.736E+01 0.522E+02 0.885E+03   -.455E-01 -.118E+00 0.758E+01
   -.331E+02 -.745E+02 -.850E+03   0.333E+02 0.743E+02 0.842E+03   -.184E+00 0.161E+00 0.745E+01
   0.259E+01 -.163E+02 0.942E+03   -.258E+01 0.163E+02 -.934E+03   -.122E-01 -.304E-01 -.753E+01
   -.230E+01 -.510E+01 0.937E+03   0.230E+01 0.509E+01 -.929E+03   -.509E-02 0.204E-02 -.753E+01
[...]
   -.103E+02 0.568E+01 0.707E+03   0.103E+02 -.568E+01 -.710E+03   -.275E-01 0.269E-02 0.346E+01
   -.277E+01 0.477E+01 0.702E+03   0.278E+01 -.478E+01 -.706E+03   -.142E-01 0.489E-02 0.346E+01
   -.196E+02 0.270E+01 -.686E+03   0.197E+02 -.268E+01 0.690E+03   -.232E-01 -.222E-01 -.347E+01
   -.559E+01 -.230E+01 -.690E+03   0.559E+01 0.231E+01 0.694E+03   0.214E-02 -.752E-02 -.347E+01
   -.118E+02 -.279E+01 0.708E+03   0.118E+02 0.280E+01 -.712E+03   -.322E-02 -.229E-01 0.345E+01
   -.409E+01 0.148E+01 0.704E+03   0.410E+01 -.148E+01 -.708E+03   -.888E-02 -.380E-02 0.345E+01
   -.141E+02 -.846E+01 -.688E+03   0.141E+02 0.847E+01 0.692E+03   0.126E-01 -.117E-01 -.347E+01
   -.286E+01 -.596E+01 -.692E+03   0.285E+01 0.596E+01 0.696E+03   0.122E-01 -.155E-02 -.347E+01
   -.668E+01 -.636E+01 0.704E+03   0.667E+01 0.636E+01 -.707E+03   0.104E-01 0.885E-03 0.345E+01
   -.302E+01 -.410E+01 0.703E+03   0.301E+01 0.410E+01 -.707E+03   0.894E-02 -.519E-02 0.345E+01
   -.597E+01 -.597E+01 -.692E+03   0.596E+01 0.596E+01 0.696E+03   0.827E-02 0.827E-02 -.347E+01
   -.157E+01 -.157E+01 -.694E+03   0.156E+01 0.156E+01 0.698E+03   0.261E-02 0.261E-02 -.347E+01
   -.358E+01 -.153E+01 0.701E+03   0.358E+01 0.152E+01 -.705E+03   0.371E-03 0.741E-02 0.345E+01
   -.153E+01 -.358E+01 0.701E+03   0.152E+01 0.358E+01 -.705E+03   0.741E-02 0.371E-03 0.345E+01
   -.307E-01 0.151E-01 0.658E+01   0.129E-11 0.142E-11 0.716E-11   -.114E-14 -.250E-15 -.392E+01

 POSITION                                       TOTAL-FORCE (eV/Angst)
     10.42106      8.60391     14.09831        -0.093357      0.093357     -0.050572
      8.60390     10.42106     14.09831         0.093357     -0.093357     -0.050572
      0.00000      0.00000      9.00000         0.000592      0.000592      0.517958
      2.11389      2.11389      9.00000         0.001416      0.001416      0.518571
      0.00000      2.11389     11.11389         0.002708      0.000277     -0.491535
      2.11389      0.00000     11.11389         0.000277      0.002708     -0.491535
      0.00000      4.22777      9.00000         0.003184     -0.000561      0.518126
      2.11389      6.34166      9.00000         0.003054     -0.002928      0.518865
      0.00000      6.34166     11.11389         0.004064     -0.001224     -0.491034
      2.11389      4.22777     11.11389         0.005111      0.000370     -0.490113
      0.00000      8.45554      9.00000         0.000493     -0.001465      0.517977
      2.11389     10.56943      9.00000        -0.007788     -0.003731      0.517951
      0.00000     10.56943     11.11389        -0.003151     -0.001255     -0.491471
      2.11389      8.45554     11.11389         0.001256     -0.006036     -0.489592
      0.00000     12.68331      9.00000        -0.004545      0.000221      0.517636
      2.11389     14.79720      9.00000        -0.005268      0.002633      0.516454
      0.00000     14.79720     11.11389        -0.005147      0.001039     -0.491889
      2.11389     12.68331     11.11389        -0.011729     -0.000710     -0.492882
      0.00000     16.91108      9.00000        -0.002610      0.001255      0.517659
      2.11389     19.02497      9.00000        -0.001255      0.002610      0.517659
      0.00000     19.02497     11.11389        -0.001140      0.001140     -0.491836
      2.11389     16.91108     11.11389        -0.003730      0.003730     -0.492276
      4.22777      0.00000      9.00000        -0.000561      0.003184      0.518126
      6.34166      2.11389      9.00000        -0.002928      0.003054      0.518865
      4.22777      2.11389     11.11389         0.000370      0.005111     -0.490113
      6.34166      0.00000     11.11389        -0.001224      0.004064     -0.491034
      4.22777      4.22777      9.00000         0.001438      0.001438      0.521194
      6.34166      6.34166      9.00000        -0.000956     -0.000956      0.532330
      4.22777      6.34166     11.11389         0.015985     -0.004477     -0.482484
      6.34166      4.22777     11.11389        -0.004477      0.015985     -0.482484
      4.22777      8.45554      9.00000         0.001115     -0.013277      0.517710
      6.34166     10.56943      9.00000         0.013699     -0.014733      0.468791
      4.22777     10.56943     11.11389        -0.039934     -0.014986     -0.490289
      6.34166      8.45554     11.11389         0.058742     -0.051456     -0.425537
      4.22777     12.68331      9.00000        -0.009066      0.003154      0.511283
      6.34166     14.79720      9.00000        -0.003154      0.009066      0.511283
      4.22777     14.79720     11.11389        -0.009051      0.009051     -0.495153
      6.34166     12.68331     11.11389        -0.024072      0.024072     -0.512010
      4.22777     16.91108      9.00000        -0.002633      0.005268      0.516454
      6.34166     19.02497      9.00000        -0.000221      0.004545      0.517636
      4.22777     19.02497     11.11389        -0.001039      0.005147     -0.491889
      6.34166     16.91108     11.11389         0.000710      0.011729     -0.492882
      8.45554      0.00000      9.00000        -0.001465      0.000493      0.517977
     10.56943      2.11389      9.00000        -0.003731     -0.007788      0.517951
      8.45554      2.11389     11.11389        -0.006036      0.001256     -0.489592
     10.56943      0.00000     11.11389        -0.001255     -0.003151     -0.491471
      8.45554      4.22777      9.00000        -0.013277      0.001115      0.517710
     10.56943      6.34166      9.00000        -0.014733      0.013699      0.468791
      8.45554      6.34166     11.11389        -0.051456      0.058742     -0.425537
     10.56943      4.22777     11.11389        -0.014986     -0.039934     -0.490289
      8.45554      8.45554      9.00000        -0.001358     -0.001358      0.543023
     10.56943     10.56943      9.00000         0.001358      0.001358      0.543023
      8.45554     10.56943     11.11389         0.127617     -0.127617     -0.434788
     10.56943      8.45554     11.11389        -0.127617      0.127617     -0.434788
      8.45554     12.68331      9.00000         0.014733     -0.013699      0.468791
     10.56943     14.79720      9.00000         0.013277     -0.001115      0.517710
      8.45554     14.79720     11.11389         0.014986      0.039934     -0.490289
     10.56943     12.68331     11.11389         0.051456     -0.058742     -0.425537
      8.45554     16.91108      9.00000         0.003731      0.007788      0.517951
     10.56943     19.02497      9.00000         0.001465     -0.000493      0.517977
[...]
     19.02497      6.34166     11.11389        -0.004504      0.000247      0.341060
     16.91108      6.34166      9.00000        -0.007757      0.000783     -0.363688
     19.02497      4.22777      9.00000        -0.003969      0.001387     -0.365398
     16.91108      8.45554     11.11389        -0.006900     -0.006132      0.341222
     19.02497     10.56943     11.11389         0.000543     -0.002108      0.340367
     16.91108     10.56943      9.00000        -0.001064     -0.006353     -0.366454
     19.02497      8.45554      9.00000        -0.002511     -0.001041     -0.365526
     16.91108     12.68331     11.11389         0.003320     -0.003336      0.338534
     19.02497     14.79720     11.11389         0.003367     -0.000456      0.340521
     16.91108     14.79720      9.00000         0.002839      0.000194     -0.366896
     19.02497     12.68331      9.00000         0.002475     -0.001470     -0.366056
     16.91108     16.91108     11.11389         0.002261      0.002261      0.340143
     19.02497     19.02497     11.11389         0.000716      0.000716      0.341019
     16.91108     19.02497      9.00000         0.000087      0.002049     -0.365953
     19.02497     16.91108      9.00000         0.002049      0.000087     -0.365953
    total drift:                               -0.030676      0.015050      2.657784

  FREE ENERGIE OF THE ION-ELECTRON SYSTEM (eV)
  free  energy   TOTEN  =     -1595.76557725 eV

  energy  without entropy=    -1595.76557725  energy(sigma->0) =    -1595.76557725