 vasp.6.3.0 20Jan22 (build Apr  1 2022 16:44:48) complex
 executed on        HPECrayEX_GCC date 2023.02.08  14:54:54

 INCAR:
   SYSTEM = MgO-rocksalt
   ISMEAR = 0
   SIGMA = 0.05
   EDIFF = 1E-5
   ALGO = ALL
   ISTART = 0
   IBRION = -1
   NSW = 0
   ISYM = 2
   DIPOL = 0.5 0.5 0.5
   IDIPOL = 3
   LDIPOL = .TRUE.
   LHFCALC = .TRUE.
   HFSCREEN = 0.2
   GGA = PE
   ENCUT = 520
   PREC = Accurate
   LASPH = .TRUE.
   LREAL = Auto
   ISPIN = 1
   NELM = 200
   NELMIN = 8
   NCORE = 4
   KPAR = 2
   LWAVE = .FALSE.
   LCHARG = .FALSE.

 POTCAR:    PAW_PBE Au 04Oct2007
 POTCAR:    PAW_PBE Mg_pv 13Apr2007
 POTCAR:    PAW_PBE O 08Apr2002
|           W    W    AA    RRRRR   N    N  II  N    N   GGGG   !!!           |
|           W    W   A  A   R    R  NN   N  II  NN   N  G    G  !!!           |
|           W    W  A    A  R    R  N N  N  II  N N  N  G       !!!           |
|           W WW W  AAAAAA  RRRRR   N  N N  II  N  N N  G  GGG   !            |
|           WW  WW  A    A  R   R   N   NN  II  N   NN  G    G                |
|           W    W  A    A  R    R  N    N  II  N    N   GGGG   !!!           |
|     You have selected ISYM=2 for a HF type calculation. This will           |
|     symmetrize the charge density but not the exchange potential. I         |
|     suggest to use ISYM=3 instead. This uses symmetry to obtain the         |
|     orbitals at all k-points in the Brillouin zone, but does not apply      |
|     symmetry to the Hartree potential directly. The resultant charge        |
|     might have lower symmetry than the crystal but, at least, Hartree       |
|     and exchange are fully compatible.                                      |

   TITEL  = PAW_PBE Au 04Oct2007
   POMASS =  196.966; ZVAL   =   11.000    mass and valenz
   ENMAX  =  229.943; ENMIN  =  172.457 eV

   TITEL  = PAW_PBE Mg_pv 13Apr2007
   POMASS =   24.305; ZVAL   =    8.000    mass and valenz
   ENMAX  =  403.929; ENMIN  =  302.947 eV

   TITEL  = PAW_PBE O 08Apr2002
   POMASS =   16.000; ZVAL   =    6.000    mass and valenz
   ENMAX  =  400.000; ENMIN  =  300.000 eV

 Optimization of the real space projectors (new method)

 maximal supplied QI-value         = 15.12
 optimisation between [QCUT,QGAM] = [ 11.64, 23.28] = [ 37.95,151.78] Ry
 Optimized for a Real-space Cutoff    1.49 Angstroem

   l    n(q)    QCUT    max X(q) W(low)/X(q) W(high)/X(q)  e(spline)
   2      9    11.641    60.898    0.24E-03    0.10E-03    0.19E-06
   2      9    11.641    58.894    0.25E-03    0.10E-03    0.19E-06
   0     10    11.641   109.617    0.73E-04    0.33E-04    0.11E-06
   0     10    11.641    75.026    0.71E-04    0.32E-04    0.11E-06
   1     10    11.641    16.344    0.27E-04    0.97E-04    0.16E-06
   1     10    11.641    10.160    0.23E-04    0.77E-04    0.13E-06
 Optimization of the real space projectors (new method)

[...]

   l    n(q)    QCUT    max X(q) W(low)/X(q) W(high)/X(q)  e(spline)
   1      8    11.527     2.974    0.44E-04    0.56E-04    0.12E-06
   1      8    11.527     4.279    0.12E-03    0.12E-03    0.26E-06
   0      9    11.527    16.381    0.46E-04    0.64E-04    0.78E-07
   0      9    11.527     5.611    0.26E-04    0.43E-04    0.55E-07
   2      8    11.527     4.652    0.22E-03    0.72E-04    0.47E-07
 Optimization of the real space projectors (new method)

 maximal supplied QI-value         = 24.76
 optimisation between [QCUT,QGAM] = [ 11.64, 23.27] = [ 37.91,151.63] Ry
 Optimized for a Real-space Cutoff    1.14 Angstroem

   l    n(q)    QCUT    max X(q) W(low)/X(q) W(high)/X(q)  e(spline)
   0      8    11.635    20.381    0.10E-03    0.33E-03    0.24E-06
   0      8    11.635    15.268    0.11E-03    0.35E-03    0.26E-06
   1      7    11.635     5.964    0.24E-03    0.31E-03    0.30E-06
   1      7    11.635     5.382    0.22E-03    0.25E-03    0.26E-06
  PAW_PBE Au 04Oct2007                  :
  PAW_PBE Mg_pv 13Apr2007               :
  PAW_PBE O 08Apr2002                   :

 POSCAR: Au Mg  O
  positions in direct lattice
  velocities in cartesian coordinates
 exchange correlation table for  LEXCH =        8
   RHO(1)=    0.500       N(1)  =     2000
   RHO(2)=  100.500       N(2)  =     4000

 ion  position               nearest neighbor table
   1  0.400  0.565  0.604- 157 2.36   3 2.61  55 2.63   4 2.77
   2  0.400  0.500  0.818-   3 2.52
   3  0.400  0.500  0.704-   2 2.52   4 2.61   1 2.61
   4  0.400  0.434  0.604- 153 2.35   3 2.61  55 2.64   1 2.77
   5  0.000  0.000  0.407- 107 2.11 108 2.11 123 2.11 188 2.11 105 2.11
   6  0.100  0.100  0.407- 107 2.11 108 2.11 112 2.11 127 2.11 106 2.11
   7  0.000  0.100  0.503- 105 2.11 106 2.11 109 2.11 186 2.11 107 2.11
   8  0.100  0.000  0.503- 105 2.11 106 2.11 122 2.11 125 2.11 108 2.11
   9  0.000  0.200  0.407- 111 2.11 107 2.11 112 2.11 192 2.11 109 2.11
  10  0.100  0.300  0.407- 112 2.11 111 2.11 116 2.11 131 2.11 110 2.11
  11  0.000  0.300  0.503- 109 2.11 110 2.11 113 2.11 190 2.11 111 2.11
  12  0.100  0.200  0.503- 110 2.11 109 2.11 106 2.11 129 2.11 112 2.11
  13  0.000  0.400  0.407- 111 2.11 115 2.11 116 2.11 196 2.11 113 2.11
  14  0.100  0.500  0.407- 115 2.11 116 2.11 120 2.11 135 2.11 114 2.11
  15  0.000  0.500  0.503- 113 2.11 114 2.11 117 2.11 194 2.11 115 2.11
  16  0.100  0.400  0.503- 110 2.11 113 2.11 114 2.11 133 2.11 116 2.11
  17  0.000  0.600  0.407- 115 2.11 119 2.11 120 2.11 200 2.11 117 2.11
  18  0.100  0.700  0.407- 124 2.11 120 2.11 119 2.11 139 2.11 118 2.11
  19  0.000  0.700  0.503- 121 2.11 118 2.11 117 2.11 198 2.11 119 2.11
  20  0.100  0.600  0.503- 114 2.11 117 2.11 118 2.11 137 2.11 120 2.11
  21  0.000  0.800  0.407- 119 2.11 123 2.11 124 2.11 204 2.11 121 2.11
  22  0.100  0.900  0.407- 108 2.11 123 2.11 124 2.11 143 2.11 122 2.11
  23  0.000  0.900  0.503- 105 2.11 121 2.11 122 2.11 202 2.11 123 2.11
  24  0.100  0.800  0.503- 118 2.11 121 2.11 122 2.11 141 2.11 124 2.11
  25  0.200  0.000  0.407- 128 2.11 127 2.11 108 2.11 143 2.11 125 2.11
  26  0.300  0.100  0.407- 127 2.11 128 2.11 132 2.11 147 2.11 126 2.11
  27  0.200  0.100  0.503- 126 2.11 125 2.11 106 2.11 129 2.11 127 2.11
  28  0.300  0.000  0.503- 125 2.11 126 2.11 142 2.11 145 2.11 128 2.11
  29  0.200  0.200  0.407- 131 2.11 132 2.11 112 2.11 127 2.11 129 2.11
  30  0.300  0.300  0.407- 131 2.11 132 2.11 136 2.11 151 2.11 130 2.11
  31  0.200  0.300  0.503- 129 2.11 130 2.11 110 2.11 133 2.11 131 2.11
  32  0.300  0.200  0.503- 129 2.11 130 2.11 126 2.11 149 2.11 132 2.11
  33  0.200  0.400  0.407- 136 2.11 131 2.11 135 2.11 116 2.11 133 2.11
  34  0.300  0.500  0.407- 135 2.11 136 2.11 140 2.11 155 2.11 134 2.11
  35  0.200  0.500  0.503- 134 2.11 133 2.11 114 2.11 137 2.11 135 2.11
  36  0.300  0.400  0.503- 133 2.11 130 2.11 134 2.11 153 2.11 136 2.11
  37  0.200  0.600  0.407- 140 2.11 135 2.11 139 2.11 120 2.11 137 2.11
  38  0.300  0.700  0.407- 139 2.11 144 2.11 140 2.11 159 2.11 138 2.11
  39  0.200  0.700  0.503- 138 2.11 141 2.11 118 2.11 137 2.11 139 2.11
  40  0.300  0.600  0.503- 137 2.11 134 2.11 138 2.11 157 2.11 140 2.11
  41  0.200  0.800  0.407- 139 2.11 144 2.11 143 2.11 124 2.11 141 2.11
  42  0.300  0.900  0.407- 143 2.11 128 2.11 144 2.11 163 2.11 142 2.11
  43  0.200  0.900  0.503- 142 2.11 125 2.11 141 2.11 122 2.11 143 2.11
  44  0.300  0.800  0.503- 138 2.11 141 2.11 142 2.11 161 2.11 144 2.11
  45  0.400  0.000  0.407- 128 2.11 147 2.11 148 2.11 163 2.11 145 2.11
  46  0.500  0.100  0.407- 147 2.11 148 2.11 152 2.11 167 2.11 146 2.11
  47  0.400  0.100  0.503- 126 2.11 145 2.11 146 2.11 149 2.11 147 2.11
  48  0.500  0.000  0.503- 145 2.11 146 2.11 162 2.11 165 2.11 148 2.11
  49  0.400  0.200  0.407- 151 2.11 147 2.11 132 2.11 152 2.11 149 2.11
  50  0.500  0.300  0.407- 152 2.11 151 2.11 156 2.11 171 2.11 150 2.11
  51  0.400  0.300  0.503- 149 2.11 130 2.11 150 2.11 153 2.11 151 2.11
  52  0.500  0.200  0.503- 150 2.11 149 2.11 146 2.11 169 2.11 152 2.11
  53  0.400  0.400  0.407- 136 2.11 151 2.11 155 2.11 156 2.11 153 2.11
  54  0.500  0.500  0.407- 155 2.11 156 2.11 160 2.11 175 2.11 154 2.11
  55  0.400  0.500  0.503- 134 2.11 153 2.11 154 2.11 157 2.11 155 2.11   1 2.63   4 2.64
  56  0.500  0.400  0.503- 150 2.11 153 2.11 154 2.11 173 2.11 156 2.11
  57  0.400  0.600  0.407- 140 2.11 155 2.11 159 2.11 160 2.11 157 2.11
  58  0.500  0.700  0.407- 164 2.11 160 2.11 159 2.11 179 2.11 158 2.11
  59  0.400  0.700  0.503- 161 2.11 157 2.11 158 2.11 138 2.11 159 2.11
  60  0.500  0.600  0.503- 154 2.11 157 2.11 158 2.11 177 2.11 160 2.11
[...]
 190  0.900  0.300  0.503-  92 2.11  91 2.11  11 2.11  96 2.11  90 2.11
 191  0.800  0.300  0.407-  70 2.11  89 2.11  90 2.11  93 2.11  91 2.11
 192  0.900  0.200  0.407-  90 2.11  86 2.11  89 2.11   9 2.11  92 2.11
 193  0.800  0.400  0.503-  76 2.11  91 2.11  95 2.11  96 2.11  93 2.11
 194  0.900  0.500  0.503-  15 2.11  95 2.11  96 2.11 100 2.11  94 2.11
 195  0.800  0.500  0.407-  74 2.11  93 2.11  94 2.11  97 2.11  95 2.11
 196  0.900  0.400  0.407-  13 2.11  90 2.11  93 2.11  94 2.11  96 2.11
 197  0.800  0.600  0.503-  80 2.11  95 2.11  99 2.11 100 2.11  97 2.11
 198  0.900  0.700  0.503- 104 2.11  99 2.11 100 2.11  19 2.11  98 2.11
 199  0.800  0.700  0.407-  78 2.11 101 2.11  98 2.11  97 2.11  99 2.11
 200  0.900  0.600  0.407-  17 2.11  94 2.11  97 2.11  98 2.11 100 2.11
 201  0.800  0.800  0.503-  84 2.11  99 2.11 103 2.11 104 2.11 101 2.11
 202  0.900  0.900  0.503-  23 2.11  88 2.11 103 2.11 104 2.11 102 2.11
 203  0.800  0.900  0.407-  82 2.11  85 2.11 101 2.11 102 2.11 103 2.11
 204  0.900  0.800  0.407-  98 2.11  21 2.11 101 2.11 102 2.11 104 2.11

  LATTYP: Found a simple tetragonal cell.
 ALAT       =    21.1388521970
 C/A-ratio  =     1.0461251639

  Lattice vectors:

 A1 = (  21.1388521970,   0.0000000000,   0.0000000000)
 A2 = (   0.0000000000,  21.1388521970,   0.0000000000)
 A3 = (   0.0000000000,   0.0000000000,  22.1138852197)

Analysis of symmetry for initial positions (statically):
 Subroutine PRICEL returns:
 Original cell was already a primitive cell.

 Routine SETGRP: Setting up the symmetry group for a
 simple tetragonal supercell.

 Subroutine GETGRP returns: Found  1 space group operations
 (whereof  1 operations were pure point group operations)
 out of a pool of 16 trial point group operations.

The static configuration has the point symmetry C_1 .

Analysis of symmetry for dynamics (positions and initial velocities):
 Subroutine PRICEL returns:
 Original cell was already a primitive cell.

[...]

The dynamic configuration has the point symmetry C_1 .

Analysis of constrained symmetry for selective dynamics:
 Subroutine PRICEL returns:
 Original cell was already a primitive cell.

 Routine SETGRP: Setting up the symmetry group for a
 simple tetragonal supercell.

 Subroutine GETGRP returns: Found  1 space group operations
 (whereof  1 operations were pure point group operations)
 out of a pool of 16 trial point group operations.

The constrained configuration has the point symmetry C_1 .

 Subroutine INISYM returns: Found  1 space group operations
 (whereof  1 operations are pure point group operations),
 and found     1 'primitive' translations

                                     Primitive cell

[...]
     22     -46.9321      2.00000
     23     -46.9188      2.00000
     24     -46.9158      2.00000
     25     -46.9135      2.00000
     26     -46.9118      2.00000
     27     -46.9035      2.00000
     28     -46.8805      2.00000
     29     -46.8633      2.00000
     30     -46.8628      2.00000
     31     -46.8624      2.00000
     32     -46.8620      2.00000
     33     -46.8359      2.00000
     34     -46.8339      2.00000
     35     -46.8336      2.00000
     36     -46.8334      2.00000
     37     -46.8187      2.00000
     38     -46.8018      2.00000
     39     -46.8013      2.00000
     40     -46.7934      2.00000
     41     -46.7932      2.00000
     42     -46.7930      2.00000
     43     -46.7928      2.00000
     44     -46.7723      2.00000
     45     -46.7716      2.00000
     46     -46.7715      2.00000
     47     -46.7708      2.00000
     48     -46.7699      2.00000
     49     -46.7692      2.00000
     50     -46.7691      2.00000
     51     -46.7684      2.00000
     52     -46.7496      2.00000
     53     -46.7491      2.00000
     54     -46.7485      2.00000
     55     -46.7480      2.00000
     56     -46.7354      2.00000
     57     -46.7352      2.00000
     58     -46.7340      2.00000
     59     -46.7339      2.00000
     60     -46.7329      2.00000
[...]
   1138       8.1169      0.00000
   1139       8.1178      0.00000
   1140       8.1896      0.00000
   1141       8.2584      0.00000
   1142       8.3612      0.00000
   1143       8.3650      0.00000
   1144       8.3905      0.00000
   1145       8.4093      0.00000
   1146       8.4113      0.00000
   1147       8.6048      0.00000
   1148       8.8821      0.00000
   1149       8.8838      0.00000
   1150       8.9020      0.00000
   1151       8.9064      0.00000
   1152       8.9187      0.00000

 soft charge-density along one line, spin component           1
         0         1         2         3         4         5         6         7         8         9
 total charge-density along one line

------------------------ aborting loop because EDIFF is reached ----------------------------------------

 VOLUME and BASIS-vectors are now :
  energy-cutoff  :      520.00
  volume of cell :     9881.61
      direct lattice vectors                 reciprocal lattice vectors
    21.138852197  0.000000000  0.000000000     0.047306258  0.000000000  0.000000000
     0.000000000 21.138852197  0.000000000     0.000000000  0.047306258  0.000000000
     0.000000000  0.000000000 22.113885220     0.000000000  0.000000000  0.045220457

  length of vectors
    21.138852197 21.138852197 22.113885220     0.047306258  0.047306258  0.045220457

 FORCES acting on ions:
    Electron-Ion                     Ewald-Force                    Non-Local-Force
   -.145E+00 -.385E+03 -.190E+04   0.143E+00 0.380E+03 0.191E+04   0.316E-02 0.450E+01 -.296E+01
   0.316E-01 -.107E+00 -.126E+04   -.320E-01 0.987E-01 0.126E+04   0.470E-03 0.696E-02 0.759E+01
   0.161E+00 0.645E+00 -.172E+04   -.160E+00 -.643E+00 0.172E+04   -.113E-02 0.225E-02 0.196E+01
   -.295E-01 0.384E+03 -.190E+04   0.285E-01 -.379E+03 0.191E+04   0.215E-02 -.445E+01 -.296E+01
   0.633E+01 0.232E-01 0.936E+03   -.637E+01 -.232E-01 -.927E+03   0.267E-01 0.500E-04 -.722E+01
   0.124E+02 0.940E+01 0.939E+03   -.125E+02 -.943E+01 -.930E+03   0.589E-01 0.242E-01 -.722E+01
   0.906E+01 0.847E+01 -.918E+03   -.910E+01 -.848E+01 0.910E+03   0.303E-01 0.409E-02 0.709E+01
   0.132E+02 0.415E-01 -.917E+03   -.133E+02 -.416E-01 0.909E+03   0.422E-01 0.806E-04 0.709E+01
   0.979E+01 0.114E+02 0.939E+03   -.986E+01 -.114E+02 -.930E+03   0.474E-01 0.124E-01 -.723E+01
   0.257E+02 0.183E+02 0.950E+03   -.259E+02 -.184E+02 -.941E+03   0.155E+00 0.315E-01 -.725E+01
   0.189E+02 0.157E+02 -.913E+03   -.189E+02 -.157E+02 0.904E+03   0.521E-01 0.184E-02 0.708E+01
   0.243E+02 0.227E+02 -.911E+03   -.244E+02 -.227E+02 0.903E+03   0.977E-01 0.199E-01 0.708E+01
   0.170E+02 0.780E+01 0.945E+03   -.172E+02 -.781E+01 -.936E+03   0.755E-01 0.556E-02 -.724E+01
   0.374E+02 -.459E-01 0.960E+03   -.377E+02 0.461E-01 -.951E+03   0.192E+00 -.142E-03 -.726E+01
   0.272E+02 -.373E-01 -.908E+03   -.272E+02 0.374E-01 0.900E+03   0.535E-01 -.263E-04 0.707E+01
   0.539E+02 0.187E+02 -.896E+03   -.541E+02 -.187E+02 0.887E+03   0.145E+00 0.743E-03 0.705E+01
   0.170E+02 -.784E+01 0.945E+03   -.171E+02 0.785E+01 -.936E+03   0.754E-01 -.565E-02 -.724E+01
   0.256E+02 -.184E+02 0.950E+03   -.258E+02 0.184E+02 -.941E+03   0.154E+00 -.316E-01 -.725E+01
   0.188E+02 -.157E+02 -.913E+03   -.189E+02 0.157E+02 0.904E+03   0.520E-01 -.186E-02 0.708E+01
   0.539E+02 -.188E+02 -.896E+03   -.541E+02 0.188E+02 0.887E+03   0.145E+00 -.865E-03 0.705E+01
   0.977E+01 -.114E+02 0.939E+03   -.984E+01 0.114E+02 -.930E+03   0.472E-01 -.124E-01 -.723E+01
   0.124E+02 -.934E+01 0.939E+03   -.125E+02 0.938E+01 -.930E+03   0.588E-01 -.240E-01 -.722E+01
   0.904E+01 -.842E+01 -.918E+03   -.909E+01 0.843E+01 0.910E+03   0.302E-01 -.404E-02 0.709E+01
   0.242E+02 -.226E+02 -.911E+03   -.243E+02 0.227E+02 0.903E+03   0.973E-01 -.198E-01 0.708E+01
   0.113E+02 0.446E-01 0.940E+03   -.114E+02 -.449E-01 -.932E+03   0.497E-01 0.188E-03 -.723E+01
   0.896E+01 0.176E+02 0.947E+03   -.903E+01 -.178E+02 -.938E+03   0.461E-01 0.112E+00 -.723E+01
   0.178E+02 0.190E+02 -.912E+03   -.179E+02 -.191E+02 0.904E+03   0.616E-01 0.586E-01 0.708E+01
   0.934E+01 0.817E-01 -.912E+03   -.939E+01 -.820E-01 0.904E+03   0.300E-01 0.211E-03 0.708E+01
   0.205E+02 0.249E+02 0.951E+03   -.207E+02 -.251E+02 -.942E+03   0.134E+00 0.104E+00 -.723E+01
   0.263E+02 0.455E+02 0.986E+03   -.267E+02 -.460E+02 -.977E+03   0.291E+00 0.294E+00 -.714E+01
   0.564E+02 0.507E+02 -.884E+03   -.569E+02 -.507E+02 0.876E+03   0.349E+00 0.346E-01 0.705E+01
   0.238E+02 0.576E+02 -.892E+03   -.239E+02 -.580E+02 0.884E+03   0.950E-01 0.306E+00 0.707E+01
   0.468E+02 0.217E+02 0.982E+03   -.474E+02 -.217E+02 -.973E+03   0.431E+00 0.474E-01 -.732E+01
   0.497E+02 -.146E+00 0.104E+04   -.504E+02 0.149E+00 -.103E+04   0.473E+00 -.176E-02 -.734E+01
   0.110E+03 -.160E+00 -.847E+03   -.111E+03 0.160E+00 0.839E+03   0.303E+00 -.140E-03 0.699E+01
   0.128E+03 0.923E+02 -.760E+03   -.131E+03 -.922E+02 0.752E+03   0.179E+01 -.322E-01 0.679E+01
   0.467E+02 -.218E+02 0.981E+03   -.474E+02 0.218E+02 -.973E+03   0.429E+00 -.480E-01 -.732E+01
   0.262E+02 -.455E+02 0.986E+03   -.266E+02 0.460E+02 -.977E+03   0.290E+00 -.293E+00 -.714E+01
   0.562E+02 -.507E+02 -.885E+03   -.567E+02 0.507E+02 0.876E+03   0.347E+00 -.349E-01 0.705E+01
   0.128E+03 -.927E+02 -.761E+03   -.130E+03 0.926E+02 0.753E+03   0.178E+01 0.305E-01 0.680E+01
   0.204E+02 -.249E+02 0.951E+03   -.206E+02 0.250E+02 -.942E+03   0.134E+00 -.103E+00 -.722E+01
   0.894E+01 -.175E+02 0.947E+03   -.901E+01 0.176E+02 -.938E+03   0.460E-01 -.111E+00 -.723E+01
   0.177E+02 -.189E+02 -.912E+03   -.178E+02 0.190E+02 0.904E+03   0.614E-01 -.582E-01 0.708E+01
   0.236E+02 -.573E+02 -.892E+03   -.238E+02 0.578E+02 0.884E+03   0.948E-01 -.304E+00 0.707E+01
   -.638E-02 0.626E-01 0.944E+03   0.633E-02 -.631E-01 -.935E+03   0.348E-04 0.326E-03 -.723E+01
   -.898E+01 0.176E+02 0.947E+03   0.904E+01 -.178E+02 -.938E+03   -.460E-01 0.112E+00 -.723E+01
   -.111E-01 0.296E+02 -.906E+03   0.110E-01 -.298E+02 0.898E+03   0.497E-04 0.139E+00 0.708E+01
   -.936E+01 0.812E-01 -.912E+03   0.940E+01 -.815E-01 0.904E+03   -.300E-01 0.212E-03 0.708E+01
   -.134E-01 0.391E+02 0.964E+03   0.133E-01 -.396E+02 -.955E+03   0.607E-04 0.387E+00 -.726E+01
   -.263E+02 0.455E+02 0.986E+03   0.268E+02 -.460E+02 -.977E+03   -.291E+00 0.294E+00 -.714E+01
   -.632E-01 0.130E+03 -.821E+03   0.629E-01 -.132E+03 0.812E+03   0.187E-03 0.177E+01 0.721E+01
   -.238E+02 0.575E+02 -.892E+03   0.239E+02 -.580E+02 0.884E+03   -.949E-01 0.306E+00 0.707E+01
   -.417E-01 0.441E+02 0.104E+04   0.411E-01 -.444E+02 -.104E+04   0.414E-03 0.221E+00 -.512E+01
   -.497E+02 -.143E+00 0.104E+04   0.504E+02 0.146E+00 -.103E+04   -.472E+00 -.180E-02 -.734E+01
   -.224E+00 -.540E+00 -.531E+03   0.224E+00 0.562E+00 0.527E+03   0.929E-03 -.185E-01 0.330E+01
   -.128E+03 0.922E+02 -.760E+03   0.131E+03 -.921E+02 0.752E+03   -.179E+01 -.318E-01 0.680E+01
   -.384E-01 -.443E+02 0.104E+04   0.379E-01 0.446E+02 -.104E+04   0.307E-03 -.223E+00 -.514E+01
   -.262E+02 -.455E+02 0.986E+03   0.267E+02 0.459E+02 -.977E+03   -.290E+00 -.293E+00 -.714E+01
   -.542E-01 -.129E+03 -.821E+03   0.540E-01 0.132E+03 0.813E+03   0.187E-03 -.175E+01 0.721E+01
   -.128E+03 -.926E+02 -.761E+03   0.130E+03 0.925E+02 0.753E+03   -.178E+01 0.302E-01 0.680E+01
[...]
   -.101E+02 0.905E+01 0.708E+03   0.102E+02 -.906E+01 -.712E+03   -.567E-01 0.139E-01 0.308E+01
   0.618E-02 0.733E+01 0.704E+03   -.613E-02 -.734E+01 -.708E+03   -.535E-04 0.934E-02 0.309E+01
   -.185E+02 0.775E+01 -.683E+03   0.185E+02 -.775E+01 0.687E+03   -.527E-01 0.347E-03 -.332E+01
   0.157E-01 -.216E-01 -.685E+03   -.156E-01 0.217E-01 0.689E+03   -.110E-03 -.271E-04 -.331E+01
   -.139E+02 -.208E-01 0.711E+03   0.140E+02 0.209E-01 -.715E+03   -.662E-01 -.705E-04 0.308E+01
   0.102E-01 0.484E+01 0.707E+03   -.101E-01 -.484E+01 -.711E+03   -.889E-04 0.372E-02 0.308E+01
   -.185E+02 -.779E+01 -.683E+03   0.185E+02 0.779E+01 0.687E+03   -.527E-01 -.419E-03 -.332E+01
   0.110E-01 -.949E+01 -.688E+03   -.110E-01 0.949E+01 0.692E+03   -.815E-04 -.189E-02 -.329E+01
   -.101E+02 -.905E+01 0.708E+03   0.102E+02 0.907E+01 -.712E+03   -.566E-01 -.140E-01 0.308E+01
   0.100E-01 -.487E+01 0.707E+03   -.994E-02 0.487E+01 -.711E+03   -.876E-04 -.378E-02 0.308E+01
   -.969E+01 -.109E+02 -.688E+03   0.972E+01 0.109E+02 0.692E+03   -.398E-01 -.991E-02 -.329E+01
   0.564E-02 -.534E+01 -.691E+03   -.560E-02 0.535E+01 0.695E+03   -.437E-04 -.369E-02 -.328E+01
   -.541E+01 -.504E+01 0.703E+03   0.543E+01 0.505E+01 -.707E+03   -.336E-01 -.113E-01 0.309E+01
   0.595E-02 -.732E+01 0.704E+03   -.591E-02 0.733E+01 -.708E+03   -.527E-04 -.931E-02 0.309E+01
   0.641E-02 -.424E-01 0.433E+01   0.152E-11 0.136E-11 0.200E-10   -.431E-02 0.386E-01 -.390E+01

 POSITION                                       TOTAL-FORCE (eV/Angst)
      8.45440     11.94847     13.35506         0.000833     -0.102441     -0.001935
      8.45328     10.56231     18.09008        -0.000028     -0.001112      0.146904
      8.45334     10.56083     15.56737         0.000370      0.003306     -0.009061
      8.45399      9.17859     13.35199         0.001277      0.113601     -0.003684
      0.00000      0.00000      9.00000        -0.008474     -0.000009      0.580542
      2.11389      2.11389      9.00000        -0.018820     -0.007874      0.581171
      0.00000      2.11389     11.11389        -0.009409     -0.001310     -0.525960
      2.11389      0.00000     11.11389        -0.013472     -0.000017     -0.524823
      0.00000      4.22777      9.00000        -0.014677     -0.004013      0.582254
      2.11389      6.34166      9.00000        -0.047418     -0.010146      0.585808
      0.00000      6.34166     11.11389        -0.015395     -0.000324     -0.519213
      2.11389      4.22777     11.11389        -0.029674     -0.006294     -0.518552
      0.00000      8.45554      9.00000        -0.023098     -0.001655      0.585328
      2.11389     10.56943      9.00000        -0.060058      0.000053      0.590971
      0.00000     10.56943     11.11389        -0.015326      0.000013     -0.513849
      2.11389      8.45554     11.11389        -0.041214      0.000725     -0.500779
      0.00000     12.68331      9.00000        -0.023061      0.001693      0.585379
      2.11389     14.79720      9.00000        -0.047225      0.010163      0.585239
      0.00000     14.79720     11.11389        -0.015363      0.000338     -0.519237
      2.11389     12.68331     11.11389        -0.041173     -0.000679     -0.501001
      0.00000     16.91108      9.00000        -0.014633      0.004011      0.582155
      2.11389     19.02497      9.00000        -0.018776      0.007827      0.581151
      0.00000     19.02497     11.11389        -0.009392      0.001312     -0.525982
      2.11389     16.91108     11.11389        -0.029572      0.006292     -0.518529
      4.22777      0.00000      9.00000        -0.016102     -0.000052      0.581157
      6.34166      2.11389      9.00000        -0.015392     -0.034410      0.581839
      4.22777      2.11389     11.11389        -0.019788     -0.017625     -0.520562
      6.34166      0.00000     11.11389        -0.009792     -0.000059     -0.521216
      4.22777      4.22777      9.00000        -0.043895     -0.034177      0.578859
      6.34166      6.34166      9.00000        -0.107571     -0.106875      0.535280
      4.22777      6.34166     11.11389        -0.103799     -0.009672     -0.492963
      6.34166      4.22777     11.11389        -0.032271     -0.092215     -0.507277
      4.22777      8.45554      9.00000        -0.128493     -0.013768      0.600117
      6.34166     10.56943      9.00000        -0.176994      0.000683      0.555713
      4.22777     10.56943     11.11389        -0.089252      0.000044     -0.442672
      6.34166      8.45554     11.11389        -0.680608      0.022351     -0.449015
      4.22777     12.68331      9.00000        -0.127989      0.013985      0.599673
      6.34166     14.79720      9.00000        -0.107101      0.106471      0.535591
      4.22777     14.79720     11.11389        -0.103300      0.009777     -0.493250
      6.34166     12.68331     11.11389        -0.674391     -0.022050     -0.448823
      4.22777     16.91108      9.00000        -0.043724      0.034042      0.579024
      6.34166     19.02497      9.00000        -0.015354      0.034194      0.581800
      4.22777     19.02497     11.11389        -0.019750      0.017530     -0.520611
      6.34166     16.91108     11.11389        -0.032201      0.091731     -0.507515
      8.45554      0.00000      9.00000        -0.000016     -0.000091      0.581738
     10.56943      2.11389      9.00000         0.015368     -0.034413      0.581830
      8.45554      2.11389     11.11389        -0.000019     -0.040793     -0.516817
     10.56943      0.00000     11.11389         0.009765     -0.000057     -0.521180
      8.45554      4.22777      9.00000        -0.000021     -0.114722      0.582828
     10.56943      6.34166      9.00000         0.107524     -0.106946      0.535312
      8.45554      6.34166     11.11389        -0.000073     -0.621775     -0.536654
     10.56943      4.22777     11.11389         0.032223     -0.092249     -0.507296
      8.45554      8.45554      9.00000        -0.000164     -0.051005      0.027328
     10.56943     10.56943      9.00000         0.176836      0.000701      0.555519
      8.45554     10.56943     11.11389         0.000603      0.001265     -1.110849
     10.56943      8.45554     11.11389         0.679887      0.022480     -0.448850
      8.45554     12.68331      9.00000        -0.000120      0.051208      0.031189
     10.56943     14.79720      9.00000         0.107050      0.106525      0.535581
      8.45554     14.79720     11.11389        -0.000077      0.616923     -0.536128
     10.56943     12.68331     11.11389         0.673985     -0.022109     -0.448959
[...]
     19.02497      6.34166     11.11389        -0.000028      0.000633      0.398075
     16.91108      6.34166      9.00000        -0.018463      0.004587     -0.460226
     19.02497      4.22777      9.00000        -0.000021      0.003021     -0.458810
     16.91108      8.45554     11.11389        -0.017321      0.000143      0.390941
     19.02497     10.56943     11.11389        -0.000038     -0.000002      0.394372
     16.91108     10.56943      9.00000        -0.021588     -0.000013     -0.462340
     19.02497      8.45554      9.00000        -0.000030      0.001221     -0.460617
     16.91108     12.68331     11.11389        -0.017298     -0.000156      0.390969
     19.02497     14.79720     11.11389        -0.000027     -0.000630      0.398098
     16.91108     14.79720      9.00000        -0.018425     -0.004584     -0.460219
     19.02497     12.68331      9.00000        -0.000028     -0.001233     -0.460610
     16.91108     16.91108     11.11389        -0.013003     -0.003215      0.399419
     19.02497     19.02497     11.11389        -0.000017     -0.001171      0.403227
     16.91108     19.02497      9.00000        -0.010938     -0.003642     -0.458229
     19.02497     16.91108      9.00000        -0.000020     -0.002997     -0.458797
    total drift:                                0.000599     -0.001085     -0.612971

  FREE ENERGIE OF THE ION-ELECTRON SYSTEM (eV)
  free  energy   TOTEN  =     -1373.15184640 eV

  energy  without entropy=    -1373.15184640  energy(sigma->0) =    -1373.15184640