 vasp.6.3.0 20Jan22 (build Apr  1 2022 16:44:48) complex
 executed on        HPECrayEX_GCC date 2023.01.09  21:28:19

 INCAR:
   SYSTEM = MgO-rocksalt
   ISMEAR = 0
   SIGMA = 0.05
   EDIFF = 1E-6
   ALGO = ALL
   ISTART = 0
   IBRION = -1
   NSW = 0
   ISYM = 2
   DIPOL = 0.5 0.5 0.5
   IDIPOL = 3
   LDIPOL = .TRUE.
   GGA = ML
   LUSE_VDW = .TRUE.
   ZAB_VDW = -1.8867
   AGGAC = 0.0000
   ENCUT = 520
   PREC = Accurate
   LASPH = .TRUE.
   LREAL = Auto
   ISPIN = 1
   NELM = 200
   NELMIN = 8
   NCORE = 4
   KPAR = 2
   LWAVE = .FALSE.
   LCHARG = .FALSE.

 POTCAR:    PAW_PBE Cu 22Jun2005
 POTCAR:    PAW_PBE Mg_pv 13Apr2007
 POTCAR:    PAW_PBE O 08Apr2002
|               ----> ADVICE to this user running VASP <----                  |
|     You have switched on vdW-DFT.                                           |
|     This routine was written and supplied by Jiri Klimes. We recommend      |
|     that you carefully read and cite the following publications:            |
|       J. Klimes, D.R. Bowler, A. Michelides                                 |
|          J. Phys.: Cond Matt. 22 022201 (2010)                              |
|       J. Klimes, D.R. Bowler, A. Michelides                                 |
|          Phys. Rev. B. 83, 195131 (2011)                                    |
|     and references therein.                                                 |

   TITEL  = PAW_PBE Cu 22Jun2005
   POMASS =   63.546; ZVAL   =   11.000    mass and valenz
   ENMAX  =  295.446; ENMIN  =  221.585 eV

   TITEL  = PAW_PBE Mg_pv 13Apr2007
   POMASS =   24.305; ZVAL   =    8.000    mass and valenz
   ENMAX  =  403.929; ENMIN  =  302.947 eV

   TITEL  = PAW_PBE O 08Apr2002
   POMASS =   16.000; ZVAL   =    6.000    mass and valenz
   ENMAX  =  400.000; ENMIN  =  300.000 eV

 Optimization of the real space projectors (new method)

 maximal supplied QI-value         = 16.25
 optimisation between [QCUT,QGAM] = [ 11.54, 23.24] = [ 37.28,151.24] Ry
 Optimized for a Real-space Cutoff    1.53 Angstroem

   l    n(q)    QCUT    max X(q) W(low)/X(q) W(high)/X(q)  e(spline)
   2     10    11.539     4.610    0.96E-04    0.13E-03    0.19E-06
   2     10    11.539     8.522    0.16E-03    0.21E-03    0.28E-06
   0     11    11.539    51.609    0.45E-04    0.31E-04    0.11E-06
   0     11    11.539    27.747    0.39E-04    0.29E-04    0.10E-06
   1     10    11.539    20.408    0.70E-05    0.38E-04    0.18E-06
   1     10    11.539    13.425    0.66E-05    0.34E-04    0.17E-06
 Optimization of the real space projectors (new method)

[...]

   l    n(q)    QCUT    max X(q) W(low)/X(q) W(high)/X(q)  e(spline)
   1      8    11.527     2.974    0.44E-04    0.56E-04    0.12E-06
   1      8    11.527     4.279    0.12E-03    0.12E-03    0.26E-06
   0      9    11.527    16.381    0.46E-04    0.64E-04    0.78E-07
   0      9    11.527     5.611    0.26E-04    0.43E-04    0.55E-07
   2      8    11.527     4.652    0.22E-03    0.72E-04    0.47E-07
 Optimization of the real space projectors (new method)

 maximal supplied QI-value         = 24.76
 optimisation between [QCUT,QGAM] = [ 11.64, 23.27] = [ 37.91,151.63] Ry
 Optimized for a Real-space Cutoff    1.14 Angstroem

   l    n(q)    QCUT    max X(q) W(low)/X(q) W(high)/X(q)  e(spline)
   0      8    11.635    20.381    0.10E-03    0.33E-03    0.24E-06
   0      8    11.635    15.268    0.11E-03    0.35E-03    0.26E-06
   1      7    11.635     5.964    0.24E-03    0.31E-03    0.30E-06
   1      7    11.635     5.382    0.22E-03    0.25E-03    0.26E-06
|               ----> ADVICE to this user running VASP <----                  |
|     You enforced a specific xc type in the INCAR file but a different       |
|     type was found in the POTCAR file.                                      |
|     I HOPE YOU KNOW WHAT YOU ARE DOING!                                     |

  PAW_PBE Cu 22Jun2005                  :
  PAW_PBE Mg_pv 13Apr2007               :
  PAW_PBE O 08Apr2002                   :

 POSCAR: Cu Mg  O
  positions in direct lattice
  velocities in cartesian coordinates
 exchange correlation table for  LEXCH =       44
   RHO(1)=    0.500       N(1)  =     2000
   RHO(2)=  100.500       N(2)  =     4000

 ion  position               nearest neighbor table
   1  0.400  0.421  0.593- 153 2.05   2 2.27  55 2.60
   2  0.401  0.506  0.657-   1 2.27   4 2.38   3 2.40
   3  0.401  0.614  0.691-   4 2.27   2 2.40
   4  0.400  0.594  0.590- 157 1.94   3 2.27   2 2.38
   5  0.000  0.000  0.407- 107 2.11 108 2.11 123 2.11 188 2.11 105 2.11
   6  0.100  0.100  0.407- 107 2.11 108 2.11 112 2.11 127 2.11 106 2.11
   7  0.000  0.100  0.503- 105 2.11 106 2.11 109 2.11 186 2.11 107 2.11
   8  0.100  0.000  0.503- 105 2.11 106 2.11 122 2.11 125 2.11 108 2.11
   9  0.000  0.200  0.407- 111 2.11 107 2.11 112 2.11 192 2.11 109 2.11
  10  0.100  0.300  0.407- 112 2.11 111 2.11 116 2.11 131 2.11 110 2.11
  11  0.000  0.300  0.503- 109 2.11 110 2.11 113 2.11 190 2.11 111 2.11
  12  0.100  0.200  0.503- 110 2.11 109 2.11 106 2.11 129 2.11 112 2.11
  13  0.000  0.400  0.407- 111 2.11 115 2.11 116 2.11 196 2.11 113 2.11
  14  0.100  0.500  0.407- 115 2.11 116 2.11 120 2.11 135 2.11 114 2.11
  15  0.000  0.500  0.503- 113 2.11 114 2.11 117 2.11 194 2.11 115 2.11
  16  0.100  0.400  0.503- 110 2.11 113 2.11 114 2.11 133 2.11 116 2.11
  17  0.000  0.600  0.407- 115 2.11 119 2.11 120 2.11 200 2.11 117 2.11
  18  0.100  0.700  0.407- 124 2.11 120 2.11 119 2.11 139 2.11 118 2.11
  19  0.000  0.700  0.503- 121 2.11 118 2.11 117 2.11 198 2.11 119 2.11
  20  0.100  0.600  0.503- 114 2.11 117 2.11 118 2.11 137 2.11 120 2.11
  21  0.000  0.800  0.407- 119 2.11 123 2.11 124 2.11 204 2.11 121 2.11
  22  0.100  0.900  0.407- 108 2.11 123 2.11 124 2.11 143 2.11 122 2.11
  23  0.000  0.900  0.503- 105 2.11 121 2.11 122 2.11 202 2.11 123 2.11
  24  0.100  0.800  0.503- 118 2.11 121 2.11 122 2.11 141 2.11 124 2.11
  25  0.200  0.000  0.407- 128 2.11 127 2.11 108 2.11 143 2.11 125 2.11
  26  0.300  0.100  0.407- 127 2.11 128 2.11 132 2.11 147 2.11 126 2.11
  27  0.200  0.100  0.503- 126 2.11 125 2.11 106 2.11 129 2.11 127 2.11
  28  0.300  0.000  0.503- 125 2.11 126 2.11 142 2.11 145 2.11 128 2.11
  29  0.200  0.200  0.407- 131 2.11 132 2.11 112 2.11 127 2.11 129 2.11
  30  0.300  0.300  0.407- 131 2.11 132 2.11 136 2.11 151 2.11 130 2.11
  31  0.200  0.300  0.503- 129 2.11 130 2.11 110 2.11 133 2.11 131 2.11
  32  0.300  0.200  0.503- 129 2.11 130 2.11 126 2.11 149 2.11 132 2.11
  33  0.200  0.400  0.407- 136 2.11 131 2.11 135 2.11 116 2.11 133 2.11
  34  0.300  0.500  0.407- 135 2.11 136 2.11 140 2.11 155 2.11 134 2.11
  35  0.200  0.500  0.503- 134 2.11 133 2.11 114 2.11 137 2.11 135 2.11
  36  0.300  0.400  0.503- 133 2.11 130 2.11 134 2.11 153 2.11 136 2.11
  37  0.200  0.600  0.407- 140 2.11 135 2.11 139 2.11 120 2.11 137 2.11
  38  0.300  0.700  0.407- 139 2.11 144 2.11 140 2.11 159 2.11 138 2.11
  39  0.200  0.700  0.503- 138 2.11 141 2.11 118 2.11 137 2.11 139 2.11
  40  0.300  0.600  0.503- 137 2.11 134 2.11 138 2.11 157 2.11 140 2.11
  41  0.200  0.800  0.407- 139 2.11 144 2.11 143 2.11 124 2.11 141 2.11
  42  0.300  0.900  0.407- 143 2.11 128 2.11 144 2.11 163 2.11 142 2.11
  43  0.200  0.900  0.503- 142 2.11 125 2.11 141 2.11 122 2.11 143 2.11
  44  0.300  0.800  0.503- 138 2.11 141 2.11 142 2.11 161 2.11 144 2.11
  45  0.400  0.000  0.407- 128 2.11 147 2.11 148 2.11 163 2.11 145 2.11
  46  0.500  0.100  0.407- 147 2.11 148 2.11 152 2.11 167 2.11 146 2.11
  47  0.400  0.100  0.503- 126 2.11 145 2.11 146 2.11 149 2.11 147 2.11
  48  0.500  0.000  0.503- 145 2.11 146 2.11 162 2.11 165 2.11 148 2.11
  49  0.400  0.200  0.407- 151 2.11 147 2.11 132 2.11 152 2.11 149 2.11
  50  0.500  0.300  0.407- 152 2.11 151 2.11 156 2.11 171 2.11 150 2.11
  51  0.400  0.300  0.503- 149 2.11 130 2.11 150 2.11 153 2.11 151 2.11
  52  0.500  0.200  0.503- 150 2.11 149 2.11 146 2.11 169 2.11 152 2.11
  53  0.400  0.400  0.407- 136 2.11 151 2.11 155 2.11 156 2.11 153 2.11
  54  0.500  0.500  0.407- 155 2.11 156 2.11 160 2.11 175 2.11 154 2.11
  55  0.400  0.500  0.503- 134 2.11 153 2.11 154 2.11 157 2.11 155 2.11   1 2.60
  56  0.500  0.400  0.503- 150 2.11 153 2.11 154 2.11 173 2.11 156 2.11
  57  0.400  0.600  0.407- 140 2.11 155 2.11 159 2.11 160 2.11 157 2.11
  58  0.500  0.700  0.407- 164 2.11 160 2.11 159 2.11 179 2.11 158 2.11
  59  0.400  0.700  0.503- 161 2.11 157 2.11 158 2.11 138 2.11 159 2.11
  60  0.500  0.600  0.503- 154 2.11 157 2.11 158 2.11 177 2.11 160 2.11
[...]
 190  0.900  0.300  0.503-  92 2.11  91 2.11  11 2.11  96 2.11  90 2.11
 191  0.800  0.300  0.407-  70 2.11  89 2.11  90 2.11  93 2.11  91 2.11
 192  0.900  0.200  0.407-  90 2.11  86 2.11  89 2.11   9 2.11  92 2.11
 193  0.800  0.400  0.503-  76 2.11  91 2.11  95 2.11  96 2.11  93 2.11
 194  0.900  0.500  0.503-  15 2.11  95 2.11  96 2.11 100 2.11  94 2.11
 195  0.800  0.500  0.407-  74 2.11  93 2.11  94 2.11  97 2.11  95 2.11
 196  0.900  0.400  0.407-  13 2.11  90 2.11  93 2.11  94 2.11  96 2.11
 197  0.800  0.600  0.503-  80 2.11  95 2.11  99 2.11 100 2.11  97 2.11
 198  0.900  0.700  0.503- 104 2.11  99 2.11 100 2.11  19 2.11  98 2.11
 199  0.800  0.700  0.407-  78 2.11 101 2.11  98 2.11  97 2.11  99 2.11
 200  0.900  0.600  0.407-  17 2.11  94 2.11  97 2.11  98 2.11 100 2.11
 201  0.800  0.800  0.503-  84 2.11  99 2.11 103 2.11 104 2.11 101 2.11
 202  0.900  0.900  0.503-  23 2.11  88 2.11 103 2.11 104 2.11 102 2.11
 203  0.800  0.900  0.407-  82 2.11  85 2.11 101 2.11 102 2.11 103 2.11
 204  0.900  0.800  0.407-  98 2.11  21 2.11 101 2.11 102 2.11 104 2.11

  LATTYP: Found a simple tetragonal cell.
 ALAT       =    21.1388521970
 C/A-ratio  =     1.0461251639

  Lattice vectors:

 A1 = (  21.1388521970,   0.0000000000,   0.0000000000)
 A2 = (   0.0000000000,  21.1388521970,   0.0000000000)
 A3 = (   0.0000000000,   0.0000000000,  22.1138852197)

Analysis of symmetry for initial positions (statically):
 Subroutine PRICEL returns:
 Original cell was already a primitive cell.

 Routine SETGRP: Setting up the symmetry group for a
 simple tetragonal supercell.

 Subroutine GETGRP returns: Found  1 space group operations
 (whereof  1 operations were pure point group operations)
 out of a pool of 16 trial point group operations.

The static configuration has the point symmetry C_1 .

Analysis of symmetry for dynamics (positions and initial velocities):
 Subroutine PRICEL returns:
 Original cell was already a primitive cell.

[...]

The dynamic configuration has the point symmetry C_1 .

Analysis of constrained symmetry for selective dynamics:
 Subroutine PRICEL returns:
 Original cell was already a primitive cell.

 Routine SETGRP: Setting up the symmetry group for a
 simple tetragonal supercell.

 Subroutine GETGRP returns: Found  1 space group operations
 (whereof  1 operations were pure point group operations)
 out of a pool of 16 trial point group operations.

The constrained configuration has the point symmetry C_1 .

 Subroutine INISYM returns: Found  1 space group operations
 (whereof  1 operations are pure point group operations),
 and found     1 'primitive' translations

                                     Primitive cell

[...]
     52     -44.0338      2.00000
     53     -44.0329      2.00000
     54     -44.0298      2.00000
     55     -44.0297      2.00000
     56     -44.0288      2.00000
     57     -44.0283      2.00000
     58     -44.0281      2.00000
     59     -44.0272      2.00000
     60     -44.0232      2.00000
[...]
    946       5.2746      0.00000
    947       5.2777      0.00000
    948       5.3175      0.00000
    949       5.3186      0.00000
    950       5.3290      0.00000
    951       5.3681      0.00000
    952       5.3987      0.00000
    953       5.4321      0.00000
    954       5.4488      0.00000
    955       5.4946      0.00000
    956       5.5844      0.00000
    957       5.6236      0.00000
    958       5.6463      0.00000
    959       5.7420      0.00000
    960       5.9493      0.00000

 soft charge-density along one line, spin component           1
         0         1         2         3         4         5         6         7         8         9
 total charge-density along one line

------------------------ aborting loop because EDIFF is reached ----------------------------------------

  FORCE on cell =-STRESS in cart. coord.  units (eV):
  Direction    XX          YY          ZZ          XY          YZ          ZX
  Alpha Z  1394.80054  1394.80054  1394.80054
  Ewald  481518.80809483945.56047************     3.30592   512.32742     8.74192
  Hartree511169.62109513185.26484************     2.73931   417.15304     6.62470
  E(xc)   -8212.72751 -8211.65914 -8219.07186     0.00231     0.38431     0.00876
  Local  ************************************    -6.03100  -925.95574   -15.24813
  n-local -8926.20552 -8925.59762 -9032.58605     0.00005    -0.11677    -0.00765
  augment  3824.27815  3817.51051  3758.49881    -0.00801    -1.92121    -0.05298
  Kinetic 23169.83635 23163.84027 23367.32571    -0.00317    -1.45022    -0.07123
  Fock        0.00000     0.00000     0.00000     0.00000     0.00000     0.00000
  Total    -121.37440  -119.91083    43.60769     0.00541     0.42084    -0.00460
  in kB     -19.67931   -19.44201     7.07043     0.00088     0.06823    -0.00075

 VOLUME and BASIS-vectors are now :
  energy-cutoff  :      520.00
  volume of cell :     9881.61
      direct lattice vectors                 reciprocal lattice vectors
    21.138852197  0.000000000  0.000000000     0.047306258  0.000000000  0.000000000
     0.000000000 21.138852197  0.000000000     0.000000000  0.047306258  0.000000000
     0.000000000  0.000000000 22.113885220     0.000000000  0.000000000  0.045220457

  length of vectors
    21.138852197 21.138852197 22.113885220     0.047306258  0.047306258  0.045220457

 FORCES acting on ions:
    Electron-Ion                     Ewald-Force                    Non-Local-Force
   0.144E+01 0.461E+03 -.201E+04   -.141E+01 -.456E+03 0.201E+04   -.328E-01 -.542E+01 -.736E+01
   -.173E+01 0.259E+03 -.217E+04   0.169E+01 -.262E+03 0.216E+04   0.364E-01 0.279E+01 0.540E+01
   -.275E+01 -.418E+03 -.212E+04   0.270E+01 0.413E+03 0.211E+04   0.440E-01 0.450E+01 0.901E+01
   0.284E+01 -.305E+03 -.175E+04   -.282E+01 0.306E+03 0.176E+04   -.354E-01 -.150E+00 -.578E+01
   0.744E+01 -.228E+01 0.935E+03   -.746E+01 0.229E+01 -.928E+03   0.146E-01 -.657E-02 -.618E+01
   0.138E+02 0.747E+01 0.938E+03   -.138E+02 -.748E+01 -.932E+03   0.299E-01 0.863E-02 -.619E+01
   0.982E+01 0.630E+01 -.917E+03   -.984E+01 -.629E+01 0.911E+03   0.125E-01 -.370E-02 0.611E+01
   0.159E+02 -.427E+01 -.915E+03   -.160E+02 0.429E+01 0.909E+03   0.172E-01 -.889E-02 0.611E+01
   0.105E+02 0.110E+02 0.937E+03   -.105E+02 -.110E+02 -.931E+03   0.252E-01 0.617E-02 -.619E+01
   0.281E+02 0.202E+02 0.949E+03   -.282E+02 -.203E+02 -.943E+03   0.935E-01 0.250E-01 -.621E+01
   0.198E+02 0.167E+02 -.912E+03   -.198E+02 -.167E+02 0.906E+03   0.176E-01 0.157E-02 0.610E+01
   0.257E+02 0.221E+02 -.911E+03   -.257E+02 -.221E+02 0.905E+03   0.411E-01 0.143E-02 0.610E+01
   0.188E+02 0.100E+02 0.944E+03   -.189E+02 -.100E+02 -.938E+03   0.452E-01 0.107E-01 -.620E+01
   0.436E+02 0.414E+01 0.962E+03   -.438E+02 -.416E+01 -.956E+03   0.146E+00 0.167E-01 -.623E+01
   0.305E+02 0.365E+01 -.907E+03   -.306E+02 -.366E+01 0.901E+03   0.231E-01 0.792E-02 0.609E+01
   0.589E+02 0.237E+02 -.896E+03   -.590E+02 -.237E+02 0.890E+03   0.455E-01 0.827E-02 0.607E+01
   0.204E+02 -.594E+01 0.946E+03   -.205E+02 0.593E+01 -.940E+03   0.575E-01 0.180E-02 -.620E+01
   0.332E+02 -.189E+02 0.954E+03   -.334E+02 0.189E+02 -.948E+03   0.127E+00 -.234E-01 -.621E+01
   0.238E+02 -.153E+02 -.910E+03   -.239E+02 0.153E+02 0.904E+03   0.302E-01 0.130E-02 0.610E+01
   0.666E+02 -.144E+02 -.891E+03   -.667E+02 0.144E+02 0.885E+03   0.915E-01 0.128E-01 0.606E+01
   0.125E+02 -.128E+02 0.939E+03   -.126E+02 0.128E+02 -.933E+03   0.343E-01 -.121E-01 -.619E+01
   0.160E+02 -.130E+02 0.940E+03   -.160E+02 0.130E+02 -.934E+03   0.374E-01 -.270E-01 -.619E+01
   0.116E+02 -.114E+02 -.916E+03   -.116E+02 0.114E+02 0.910E+03   0.160E-01 -.710E-02 0.611E+01
   0.332E+02 -.271E+02 -.906E+03   -.333E+02 0.271E+02 0.900E+03   0.573E-01 -.136E-01 0.609E+01
   0.137E+02 -.439E+01 0.941E+03   -.138E+02 0.441E+01 -.935E+03   0.254E-01 -.144E-01 -.619E+01
   0.102E+02 0.154E+02 0.947E+03   -.102E+02 -.155E+02 -.940E+03   0.231E-01 0.605E-01 -.620E+01
   0.197E+02 0.157E+02 -.911E+03   -.198E+02 -.157E+02 0.905E+03   0.233E-01 0.196E-01 0.610E+01
   0.118E+02 -.866E+01 -.909E+03   -.118E+02 0.867E+01 0.902E+03   0.106E-01 -.956E-02 0.610E+01
   0.227E+02 0.256E+02 0.951E+03   -.228E+02 -.257E+02 -.944E+03   0.758E-01 0.673E-01 -.620E+01
   0.309E+02 0.526E+02 0.991E+03   -.312E+02 -.530E+02 -.984E+03   0.206E+00 0.259E+00 -.620E+01
   0.624E+02 0.559E+02 -.886E+03   -.627E+02 -.559E+02 0.880E+03   0.183E+00 -.528E-02 0.604E+01
   0.267E+02 0.610E+02 -.893E+03   -.268E+02 -.612E+02 0.887E+03   0.362E-01 0.160E+00 0.607E+01
   0.539E+02 0.279E+02 0.985E+03   -.543E+02 -.279E+02 -.979E+03   0.333E+00 0.670E-01 -.632E+01
   0.605E+02 0.107E+02 0.106E+04   -.612E+02 -.108E+02 -.105E+04   0.468E+00 0.961E-01 -.638E+01
   0.129E+03 0.134E+02 -.843E+03   -.129E+03 -.135E+02 0.837E+03   0.212E+00 0.434E-01 0.596E+01
   0.157E+03 0.107E+03 -.747E+03   -.160E+03 -.107E+03 0.741E+03   0.170E+01 0.694E-01 0.566E+01
   0.600E+02 -.181E+02 0.993E+03   -.605E+02 0.181E+02 -.987E+03   0.433E+00 -.208E-01 -.632E+01
   0.385E+02 -.528E+02 0.101E+04   -.389E+02 0.532E+02 -.100E+04   0.297E+00 -.315E+00 -.620E+01
   0.819E+02 -.570E+02 -.869E+03   -.822E+02 0.570E+02 0.863E+03   0.258E+00 -.117E-01 0.603E+01
   0.186E+03 -.721E+02 -.704E+03   -.189E+03 0.720E+02 0.698E+03   0.250E+01 0.107E-01 0.592E+01
   0.285E+02 -.310E+02 0.958E+03   -.286E+02 0.311E+02 -.952E+03   0.103E+00 -.984E-01 -.620E+01
   0.124E+02 -.263E+02 0.952E+03   -.124E+02 0.264E+02 -.946E+03   0.262E-01 -.108E+00 -.621E+01
   0.248E+02 -.284E+02 -.906E+03   -.248E+02 0.284E+02 0.900E+03   0.229E-01 -.471E-01 0.609E+01
   0.387E+02 -.816E+02 -.873E+03   -.387E+02 0.819E+02 0.867E+03   0.129E-01 -.250E+00 0.603E+01
   0.453E-01 -.620E+01 0.946E+03   -.449E-01 0.622E+01 -.940E+03   -.321E-03 -.179E-01 -.620E+01
   -.101E+02 0.154E+02 0.947E+03   0.102E+02 -.155E+02 -.941E+03   -.236E-01 0.602E-01 -.620E+01
   0.639E-01 0.261E+02 -.905E+03   -.634E-01 -.262E+02 0.899E+03   -.404E-03 0.581E-01 0.609E+01
   -.117E+02 -.868E+01 -.909E+03   0.117E+02 0.870E+01 0.902E+03   -.111E-01 -.942E-02 0.610E+01
   0.734E-01 0.422E+02 0.965E+03   -.727E-01 -.426E+02 -.959E+03   -.586E-03 0.274E+00 -.625E+01
   -.307E+02 0.528E+02 0.991E+03   0.310E+02 -.531E+02 -.985E+03   -.207E+00 0.258E+00 -.620E+01
   0.338E+00 0.159E+03 -.810E+03   -.335E+00 -.161E+03 0.803E+03   -.183E-02 0.165E+01 0.616E+01
   -.266E+02 0.611E+02 -.893E+03   0.266E+02 -.613E+02 0.887E+03   -.373E-01 0.158E+00 0.607E+01
   0.237E+00 0.551E+02 0.106E+04   -.235E+00 -.555E+02 -.106E+04   -.180E-02 0.364E+00 -.455E+01
   -.603E+02 0.108E+02 0.106E+04   0.609E+02 -.109E+02 -.105E+04   -.470E+00 0.957E-01 -.638E+01
   0.127E+01 0.260E+02 -.513E+03   -.127E+01 -.271E+02 0.509E+03   -.487E-02 0.963E+00 0.406E+01
   -.157E+03 0.108E+03 -.746E+03   0.160E+03 -.108E+03 0.740E+03   -.170E+01 0.661E-01 0.564E+01
   0.296E+00 -.378E+02 0.108E+04   -.293E+00 0.380E+02 -.108E+04   -.233E-02 -.200E+00 -.367E+01
   -.383E+02 -.530E+02 0.101E+04   0.387E+02 0.534E+02 -.100E+04   -.299E+00 -.314E+00 -.620E+01
   0.620E+00 -.187E+03 -.740E+03   -.616E+00 0.190E+03 0.734E+03   -.340E-02 -.243E+01 0.584E+01
   -.186E+03 -.724E+02 -.702E+03   0.189E+03 0.724E+02 0.696E+03   -.251E+01 0.117E-01 0.590E+01
[...]
   -.110E+02 0.981E+01 0.708E+03   0.110E+02 -.982E+01 -.712E+03   -.290E-01 0.115E-01 0.358E+01
   -.348E-01 0.694E+01 0.705E+03   0.344E-01 -.694E+01 -.709E+03   0.431E-03 0.410E-02 0.359E+01
   -.201E+02 0.992E+01 -.684E+03   0.201E+02 -.992E+01 0.689E+03   -.212E-01 0.699E-02 -.373E+01
   -.101E+00 0.216E+01 -.686E+03   0.100E+00 -.216E+01 0.690E+03   0.858E-03 0.760E-02 -.371E+01
   -.161E+02 0.200E+01 0.713E+03   0.161E+02 -.201E+01 -.717E+03   -.410E-01 0.109E-01 0.357E+01
   -.611E-01 0.620E+01 0.708E+03   0.606E-01 -.621E+01 -.712E+03   0.710E-03 0.897E-02 0.358E+01
   -.223E+02 -.576E+01 -.683E+03   0.223E+02 0.576E+01 0.687E+03   -.291E-01 0.759E-02 -.373E+01
   -.855E-01 -.906E+01 -.687E+03   0.850E-01 0.906E+01 0.691E+03   0.708E-03 0.536E-03 -.371E+01
   -.128E+02 -.891E+01 0.710E+03   0.129E+02 0.891E+01 -.714E+03   -.398E-01 -.946E-02 0.358E+01
   -.701E-01 -.360E+01 0.709E+03   0.695E-01 0.360E+01 -.713E+03   0.753E-03 0.279E-02 0.358E+01
   -.128E+02 -.123E+02 -.687E+03   0.128E+02 0.123E+02 0.692E+03   -.232E-01 -.866E-02 -.371E+01
   -.444E-01 -.707E+01 -.690E+03   0.441E-01 0.708E+01 0.695E+03   0.399E-03 -.710E-02 -.369E+01
   -.686E+01 -.675E+01 0.705E+03   0.687E+01 0.676E+01 -.709E+03   -.213E-01 -.146E-01 0.359E+01
   -.463E-01 -.805E+01 0.706E+03   0.459E-01 0.805E+01 -.710E+03   0.497E-03 -.968E-02 0.359E+01
   -.725E-01 -.218E+01 -.842E+00   0.165E-11 0.682E-12 0.364E-11   0.555E-01 0.218E+01 0.340E+00

 POSITION                                       TOTAL-FORCE (eV/Angst)
      8.46039      8.90641     13.11119        -0.003351     -0.231283      0.405628
      8.46878     10.69052     14.51992        -0.006438     -0.259892      0.374782
      8.47353     12.97033     15.28534        -0.006458      0.314098      0.431920
      8.46080     12.56080     13.05418        -0.005015      0.228243      0.184371
      0.00000      0.00000      9.00000        -0.003984      0.001858      0.093312
      2.11389      2.11389      9.00000        -0.008298     -0.002471      0.094266
      0.00000      2.11389     11.11389        -0.003236      0.001070     -0.066314
      2.11389      0.00000     11.11389        -0.004710      0.002424     -0.064871
      0.00000      4.22777      9.00000        -0.006697     -0.001716      0.094715
      2.11389      6.34166      9.00000        -0.024884     -0.006879      0.100334
      0.00000      6.34166     11.11389        -0.004098     -0.000240     -0.061516
      2.11389      4.22777     11.11389        -0.010396     -0.000222     -0.059143
      0.00000      8.45554      9.00000        -0.012101     -0.002987      0.097257
      2.11389     10.56943      9.00000        -0.039933     -0.005004      0.104512
      0.00000     10.56943     11.11389        -0.005127     -0.002342     -0.057654
      2.11389      8.45554     11.11389        -0.008273     -0.001721     -0.042258
      0.00000     12.68331      9.00000        -0.015169     -0.000610      0.097343
      2.11389     14.79720      9.00000        -0.033990      0.006829      0.100274
      0.00000     14.79720     11.11389        -0.007400     -0.000440     -0.061041
      2.11389     12.68331     11.11389        -0.019917     -0.004150     -0.041731
      0.00000     16.91108      9.00000        -0.009179      0.003484      0.094787
      2.11389     19.02497      9.00000        -0.010426      0.007625      0.094390
      0.00000     19.02497     11.11389        -0.004174      0.002009     -0.066008
      2.11389     16.91108     11.11389        -0.014547      0.003733     -0.057428
      4.22777      0.00000      9.00000        -0.007160      0.003908      0.095318
      6.34166      2.11389      9.00000        -0.006751     -0.016318      0.097144
      4.22777      2.11389     11.11389        -0.006385     -0.004692     -0.059804
      6.34166      0.00000     11.11389        -0.002885      0.002403     -0.059169
      4.22777      4.22777      9.00000        -0.021668     -0.019264      0.096262
      6.34166      6.34166      9.00000        -0.069037     -0.082270      0.081719
      4.22777      6.34166     11.11389        -0.043059      0.004558     -0.022283
      6.34166      4.22777     11.11389        -0.010868     -0.039239     -0.037313
      4.22777      8.45554      9.00000        -0.086011     -0.017777      0.122139
      6.34166     10.56943      9.00000        -0.159423     -0.031795      0.092435
      4.22777     10.56943     11.11389        -0.045278     -0.014667      0.023686
      6.34166      8.45554     11.11389        -0.621366     -0.008402      0.035929
      4.22777     12.68331      9.00000        -0.109640      0.004487      0.121429
      6.34166     14.79720      9.00000        -0.099334      0.103923      0.072039
      4.22777     14.79720     11.11389        -0.061776      0.002563     -0.015595
      6.34166     12.68331     11.11389        -0.912920     -0.002339     -0.106599
      4.22777     16.91108      9.00000        -0.029616      0.028182      0.096651
      6.34166     19.02497      9.00000        -0.007539      0.028951      0.099838
      4.22777     19.02497     11.11389        -0.006251      0.011848     -0.057250
      6.34166     16.91108     11.11389        -0.002154      0.058489     -0.014919
      8.45554      0.00000      9.00000         0.000182      0.004880      0.096879
     10.56943      2.11389      9.00000         0.007074     -0.016240      0.097155
      8.45554      2.11389     11.11389         0.000209     -0.013312     -0.054121
     10.56943      0.00000     11.11389         0.003219      0.002370     -0.059133
      8.45554      4.22777      9.00000         0.000263     -0.070233      0.104407
     10.56943      6.34166      9.00000         0.069575     -0.082019      0.082041
      8.45554      6.34166     11.11389         0.000613     -0.540137     -0.068973
     10.56943      4.22777     11.11389         0.011329     -0.038771     -0.037196
      8.45554      8.45554      9.00000         0.000629     -0.084160     -0.265400
     10.56943     10.56943      9.00000         0.160251     -0.031704      0.093292
      8.45554     10.56943     11.11389         0.000083     -0.137968     -0.167331
     10.56943      8.45554     11.11389         0.625615     -0.008026      0.036399
      8.45554     12.68331      9.00000         0.000729      0.043256     -0.443271
     10.56943     14.79720      9.00000         0.099986      0.103661      0.072711
      8.45554     14.79720     11.11389         0.001015      0.840530     -0.019269
     10.56943     12.68331     11.11389         0.919012     -0.002111     -0.107329
[...]
     19.02497      6.34166     11.11389         0.000261      0.000641      0.458518
     16.91108      6.34166      9.00000        -0.008153      0.003317     -0.491812
     19.02497      4.22777      9.00000         0.000203      0.001225     -0.489609
     16.91108      8.45554     11.11389        -0.005891      0.001955      0.452687
     19.02497     10.56943     11.11389         0.000325      0.002145      0.455982
     16.91108     10.56943      9.00000        -0.011516      0.003046     -0.493860
     19.02497      8.45554      9.00000         0.000287      0.002555     -0.491444
     16.91108     12.68331     11.11389        -0.008093      0.002134      0.452257
     19.02497     14.79720     11.11389         0.000284      0.000152      0.458121
     16.91108     14.79720      9.00000        -0.011124     -0.002715     -0.491846
     19.02497     12.68331      9.00000         0.000289      0.000752     -0.491435
     16.91108     16.91108     11.11389        -0.006425     -0.002421      0.458289
     19.02497     19.02497     11.11389         0.000194     -0.001983      0.461670
     16.91108     19.02497      9.00000        -0.005873     -0.004108     -0.489335
     19.02497     16.91108      9.00000         0.000228     -0.002745     -0.489660
    total drift:                               -0.017057     -0.002734     -0.501261

  FREE ENERGIE OF THE ION-ELECTRON SYSTEM (eV)
  free  energy   TOTEN  =      -749.47741592 eV

  energy  without entropy=     -749.47741592  energy(sigma->0) =     -749.47741592