 vasp.6.3.0 20Jan22 (build Apr  1 2022 16:44:48) complex
 executed on        HPECrayEX_GCC date 2023.01.16  07:40:10

 INCAR:
   SYSTEM = MgO-rocksalt
   ISMEAR = 0
   SIGMA = 0.05
   EDIFF = 1E-6
   ALGO = ALL
   ISTART = 0
   IBRION = -1
   NSW = 0
   ISYM = 2
   DIPOL = 0.5 0.5 0.5
   IDIPOL = 3
   LDIPOL = .TRUE.
   LHFCALC = .TRUE.
   GGA = PE
   IVDW = 12
   VDW_S8 = 1.2177
   VDW_A1 = 0.4145
   VDW_A2 = 4.8593
   ENCUT = 520
   PREC = Accurate
   LASPH = .TRUE.
   LREAL = Auto
   ISPIN = 1
   NELM = 200
   NELMIN = 8
   NCORE = 4
   KPAR = 2
   LWAVE = .FALSE.
   LCHARG = .FALSE.

 POTCAR:    PAW_PBE Ag 02Apr2005
 POTCAR:    PAW_PBE Mg_pv 13Apr2007
 POTCAR:    PAW_PBE O 08Apr2002
|           W    W    AA    RRRRR   N    N  II  N    N   GGGG   !!!           |
|           W    W   A  A   R    R  NN   N  II  NN   N  G    G  !!!           |
|           W    W  A    A  R    R  N N  N  II  N N  N  G       !!!           |
|           W WW W  AAAAAA  RRRRR   N  N N  II  N  N N  G  GGG   !            |
|           WW  WW  A    A  R   R   N   NN  II  N   NN  G    G                |
|           W    W  A    A  R    R  N    N  II  N    N   GGGG   !!!           |
|     You have selected ISYM=2 for a HF type calculation. This will           |
|     symmetrize the charge density but not the exchange potential. I         |
|     suggest to use ISYM=3 instead. This uses symmetry to obtain the         |
|     orbitals at all k-points in the Brillouin zone, but does not apply      |
|     symmetry to the Hartree potential directly. The resultant charge        |
|     might have lower symmetry than the crystal but, at least, Hartree       |
|     and exchange are fully compatible.                                      |

   TITEL  = PAW_PBE Ag 02Apr2005
   POMASS =  107.868; ZVAL   =   11.000    mass and valenz
   ENMAX  =  249.844; ENMIN  =  187.383 eV

   TITEL  = PAW_PBE Mg_pv 13Apr2007
   POMASS =   24.305; ZVAL   =    8.000    mass and valenz
   ENMAX  =  403.929; ENMIN  =  302.947 eV

   TITEL  = PAW_PBE O 08Apr2002
   POMASS =   16.000; ZVAL   =    6.000    mass and valenz
   ENMAX  =  400.000; ENMIN  =  300.000 eV

 Optimization of the real space projectors (new method)

 maximal supplied QI-value         = 15.12
 optimisation between [QCUT,QGAM] = [ 11.64, 23.28] = [ 37.95,151.78] Ry
 Optimized for a Real-space Cutoff    1.45 Angstroem

   l    n(q)    QCUT    max X(q) W(low)/X(q) W(high)/X(q)  e(spline)
   2      9    11.641    53.897    0.22E-03    0.42E-04    0.28E-06
   2      9    11.641    52.416    0.23E-03    0.44E-04    0.29E-06
   0     10    11.641   122.045    0.51E-04    0.25E-04    0.16E-06
   0     10    11.641    73.629    0.49E-04    0.24E-04    0.16E-06
   1     10    11.641    15.255    0.99E-04    0.55E-04    0.11E-06
   1     10    11.641     9.562    0.81E-04    0.47E-04    0.95E-07
 Optimization of the real space projectors (new method)

[...]

   l    n(q)    QCUT    max X(q) W(low)/X(q) W(high)/X(q)  e(spline)
   1      8    11.527     2.974    0.44E-04    0.56E-04    0.12E-06
   1      8    11.527     4.279    0.12E-03    0.12E-03    0.26E-06
   0      9    11.527    16.381    0.46E-04    0.64E-04    0.78E-07
   0      9    11.527     5.611    0.26E-04    0.43E-04    0.55E-07
   2      8    11.527     4.652    0.22E-03    0.72E-04    0.47E-07
 Optimization of the real space projectors (new method)

 maximal supplied QI-value         = 24.76
 optimisation between [QCUT,QGAM] = [ 11.64, 23.27] = [ 37.91,151.63] Ry
 Optimized for a Real-space Cutoff    1.14 Angstroem

   l    n(q)    QCUT    max X(q) W(low)/X(q) W(high)/X(q)  e(spline)
   0      8    11.635    20.381    0.10E-03    0.33E-03    0.24E-06
   0      8    11.635    15.268    0.11E-03    0.35E-03    0.26E-06
   1      7    11.635     5.964    0.24E-03    0.31E-03    0.30E-06
   1      7    11.635     5.382    0.22E-03    0.25E-03    0.26E-06
  PAW_PBE Ag 02Apr2005                  :
  PAW_PBE Mg_pv 13Apr2007               :
  PAW_PBE O 08Apr2002                   :

 POSCAR: Ag Mg  O
  positions in direct lattice
  velocities in cartesian coordinates
 exchange correlation table for  LEXCH =        8
   RHO(1)=    0.500       N(1)  =     2000
   RHO(2)=  100.500       N(2)  =     4000

 ion  position               nearest neighbor table
   1  0.400  0.563  0.612- 157 2.54   4 2.67   3 2.71  55 2.75
   2  0.400  0.500  0.835-   3 2.58
   3  0.400  0.499  0.718-   2 2.58   1 2.71   4 2.71
   4  0.400  0.436  0.612- 153 2.53   1 2.67   3 2.71  55 2.76
   5  0.000  0.000  0.407- 107 2.11 108 2.11 123 2.11 188 2.11 105 2.11
   6  0.100  0.100  0.407- 107 2.11 108 2.11 112 2.11 127 2.11 106 2.11
   7  0.000  0.100  0.503- 105 2.11 106 2.11 109 2.11 186 2.11 107 2.11
   8  0.100  0.000  0.503- 105 2.11 106 2.11 122 2.11 125 2.11 108 2.11
   9  0.000  0.200  0.407- 111 2.11 107 2.11 112 2.11 192 2.11 109 2.11
  10  0.100  0.300  0.407- 112 2.11 111 2.11 116 2.11 131 2.11 110 2.11
  11  0.000  0.300  0.503- 109 2.11 110 2.11 113 2.11 190 2.11 111 2.11
  12  0.100  0.200  0.503- 110 2.11 109 2.11 106 2.11 129 2.11 112 2.11
  13  0.000  0.400  0.407- 111 2.11 115 2.11 116 2.11 196 2.11 113 2.11
  14  0.100  0.500  0.407- 115 2.11 116 2.11 120 2.11 135 2.11 114 2.11
  15  0.000  0.500  0.503- 113 2.11 114 2.11 117 2.11 194 2.11 115 2.11
  16  0.100  0.400  0.503- 110 2.11 113 2.11 114 2.11 133 2.11 116 2.11
  17  0.000  0.600  0.407- 115 2.11 119 2.11 120 2.11 200 2.11 117 2.11
  18  0.100  0.700  0.407- 124 2.11 120 2.11 119 2.11 139 2.11 118 2.11
  19  0.000  0.700  0.503- 121 2.11 118 2.11 117 2.11 198 2.11 119 2.11
  20  0.100  0.600  0.503- 114 2.11 117 2.11 118 2.11 137 2.11 120 2.11
  21  0.000  0.800  0.407- 119 2.11 123 2.11 124 2.11 204 2.11 121 2.11
  22  0.100  0.900  0.407- 108 2.11 123 2.11 124 2.11 143 2.11 122 2.11
  23  0.000  0.900  0.503- 105 2.11 121 2.11 122 2.11 202 2.11 123 2.11
  24  0.100  0.800  0.503- 118 2.11 121 2.11 122 2.11 141 2.11 124 2.11
  25  0.200  0.000  0.407- 128 2.11 127 2.11 108 2.11 143 2.11 125 2.11
  26  0.300  0.100  0.407- 127 2.11 128 2.11 132 2.11 147 2.11 126 2.11
  27  0.200  0.100  0.503- 126 2.11 125 2.11 106 2.11 129 2.11 127 2.11
  28  0.300  0.000  0.503- 125 2.11 126 2.11 142 2.11 145 2.11 128 2.11
  29  0.200  0.200  0.407- 131 2.11 132 2.11 112 2.11 127 2.11 129 2.11
  30  0.300  0.300  0.407- 131 2.11 132 2.11 136 2.11 151 2.11 130 2.11
  31  0.200  0.300  0.503- 129 2.11 130 2.11 110 2.11 133 2.11 131 2.11
  32  0.300  0.200  0.503- 129 2.11 130 2.11 126 2.11 149 2.11 132 2.11
  33  0.200  0.400  0.407- 136 2.11 131 2.11 135 2.11 116 2.11 133 2.11
  34  0.300  0.500  0.407- 135 2.11 136 2.11 140 2.11 155 2.11 134 2.11
  35  0.200  0.500  0.503- 134 2.11 133 2.11 114 2.11 137 2.11 135 2.11
  36  0.300  0.400  0.503- 133 2.11 130 2.11 134 2.11 153 2.11 136 2.11
  37  0.200  0.600  0.407- 140 2.11 135 2.11 139 2.11 120 2.11 137 2.11
  38  0.300  0.700  0.407- 139 2.11 144 2.11 140 2.11 159 2.11 138 2.11
  39  0.200  0.700  0.503- 138 2.11 141 2.11 118 2.11 137 2.11 139 2.11
  40  0.300  0.600  0.503- 137 2.11 134 2.11 138 2.11 157 2.11 140 2.11
  41  0.200  0.800  0.407- 139 2.11 144 2.11 143 2.11 124 2.11 141 2.11
  42  0.300  0.900  0.407- 143 2.11 128 2.11 144 2.11 163 2.11 142 2.11
  43  0.200  0.900  0.503- 142 2.11 125 2.11 141 2.11 122 2.11 143 2.11
  44  0.300  0.800  0.503- 138 2.11 141 2.11 142 2.11 161 2.11 144 2.11
  45  0.400  0.000  0.407- 128 2.11 147 2.11 148 2.11 163 2.11 145 2.11
  46  0.500  0.100  0.407- 147 2.11 148 2.11 152 2.11 167 2.11 146 2.11
  47  0.400  0.100  0.503- 126 2.11 145 2.11 146 2.11 149 2.11 147 2.11
  48  0.500  0.000  0.503- 145 2.11 146 2.11 162 2.11 165 2.11 148 2.11
  49  0.400  0.200  0.407- 151 2.11 147 2.11 132 2.11 152 2.11 149 2.11
  50  0.500  0.300  0.407- 152 2.11 151 2.11 156 2.11 171 2.11 150 2.11
  51  0.400  0.300  0.503- 149 2.11 130 2.11 150 2.11 153 2.11 151 2.11
  52  0.500  0.200  0.503- 150 2.11 149 2.11 146 2.11 169 2.11 152 2.11
  53  0.400  0.400  0.407- 136 2.11 151 2.11 155 2.11 156 2.11 153 2.11
  54  0.500  0.500  0.407- 155 2.11 156 2.11 160 2.11 175 2.11 154 2.11
  55  0.400  0.500  0.503- 134 2.11 153 2.11 154 2.11 157 2.11 155 2.11   1 2.75   4 2.76
  56  0.500  0.400  0.503- 150 2.11 153 2.11 154 2.11 173 2.11 156 2.11
  57  0.400  0.600  0.407- 140 2.11 155 2.11 159 2.11 160 2.11 157 2.11
  58  0.500  0.700  0.407- 164 2.11 160 2.11 159 2.11 179 2.11 158 2.11
  59  0.400  0.700  0.503- 161 2.11 157 2.11 158 2.11 138 2.11 159 2.11
  60  0.500  0.600  0.503- 154 2.11 157 2.11 158 2.11 177 2.11 160 2.11
[...]
 190  0.900  0.300  0.503-  92 2.11  91 2.11  11 2.11  96 2.11  90 2.11
 191  0.800  0.300  0.407-  70 2.11  89 2.11  90 2.11  93 2.11  91 2.11
 192  0.900  0.200  0.407-  90 2.11  86 2.11  89 2.11   9 2.11  92 2.11
 193  0.800  0.400  0.503-  76 2.11  91 2.11  95 2.11  96 2.11  93 2.11
 194  0.900  0.500  0.503-  15 2.11  95 2.11  96 2.11 100 2.11  94 2.11
 195  0.800  0.500  0.407-  74 2.11  93 2.11  94 2.11  97 2.11  95 2.11
 196  0.900  0.400  0.407-  13 2.11  90 2.11  93 2.11  94 2.11  96 2.11
 197  0.800  0.600  0.503-  80 2.11  95 2.11  99 2.11 100 2.11  97 2.11
 198  0.900  0.700  0.503- 104 2.11  99 2.11 100 2.11  19 2.11  98 2.11
 199  0.800  0.700  0.407-  78 2.11 101 2.11  98 2.11  97 2.11  99 2.11
 200  0.900  0.600  0.407-  17 2.11  94 2.11  97 2.11  98 2.11 100 2.11
 201  0.800  0.800  0.503-  84 2.11  99 2.11 103 2.11 104 2.11 101 2.11
 202  0.900  0.900  0.503-  23 2.11  88 2.11 103 2.11 104 2.11 102 2.11
 203  0.800  0.900  0.407-  82 2.11  85 2.11 101 2.11 102 2.11 103 2.11
 204  0.900  0.800  0.407-  98 2.11  21 2.11 101 2.11 102 2.11 104 2.11

  LATTYP: Found a simple tetragonal cell.
 ALAT       =    21.1388521970
 C/A-ratio  =     1.0461251639

  Lattice vectors:

 A1 = (  21.1388521970,   0.0000000000,   0.0000000000)
 A2 = (   0.0000000000,  21.1388521970,   0.0000000000)
 A3 = (   0.0000000000,   0.0000000000,  22.1138852197)

Analysis of symmetry for initial positions (statically):
 Subroutine PRICEL returns:
 Original cell was already a primitive cell.

 Routine SETGRP: Setting up the symmetry group for a
 simple tetragonal supercell.

 Subroutine GETGRP returns: Found  1 space group operations
 (whereof  1 operations were pure point group operations)
 out of a pool of 16 trial point group operations.

The static configuration has the point symmetry C_1 .

Analysis of symmetry for dynamics (positions and initial velocities):
 Subroutine PRICEL returns:
 Original cell was already a primitive cell.

[...]

The dynamic configuration has the point symmetry C_1 .

Analysis of constrained symmetry for selective dynamics:
 Subroutine PRICEL returns:
 Original cell was already a primitive cell.

 Routine SETGRP: Setting up the symmetry group for a
 simple tetragonal supercell.

 Subroutine GETGRP returns: Found  1 space group operations
 (whereof  1 operations were pure point group operations)
 out of a pool of 16 trial point group operations.

The constrained configuration has the point symmetry C_1 .

 Subroutine INISYM returns: Found  1 space group operations
 (whereof  1 operations are pure point group operations),
 and found     1 'primitive' translations

[...]
[...]
   1010       7.2043      0.00000
   1011       7.5072      0.00000
   1012       7.5437      0.00000
   1013       7.5799      0.00000
   1014       7.5801      0.00000
   1015       7.6326      0.00000
   1016       7.7206      0.00000
   1017       7.8362      0.00000
   1018       7.8999      0.00000
   1019       7.9533      0.00000
   1020       7.9626      0.00000
   1021       8.0105      0.00000
   1022       8.1117      0.00000
   1023       8.2205      0.00000
   1024       8.2451      0.00000

 soft charge-density along one line, spin component           1
         0         1         2         3         4         5         6         7         8         9
 total charge-density along one line

------------------------ aborting loop because EDIFF is reached ----------------------------------------

|           W    W    AA    RRRRR   N    N  II  N    N   GGGG   !!!           |
|           W    W   A  A   R    R  NN   N  II  NN   N  G    G  !!!           |
|           W    W  A    A  R    R  N N  N  II  N N  N  G       !!!           |
|           W WW W  AAAAAA  RRRRR   N  N N  II  N  N N  G  GGG   !            |
|           WW  WW  A    A  R   R   N   NN  II  N   NN  G    G                |
|           W    W  A    A  R    R  N    N  II  N    N   GGGG   !!!           |
|     Specifying the vdW parameters                                           |
|     VDW_A1 = 0.414                                                          |
|     VDW_A2 = 4.859                                                          |
|     VDW_S8 = 1.218                                                          |
|     in the INCAR file will overwrite the defaults for pbe0. Please make     |
|     sure that is what you intended.                                         |

         DFTD3 V3.0 Rev 1
 IVDW         = 12
 DF pbe0
 parameters
 VDW_S6       =    1.0000
 VDW_S8       =    1.2177
 VDW_A1       =    0.4145
 VDW_A2       =    4.8593
 k1-k3        =   16.0000    1.3333   -4.0000
 VDW_RADIUS   =   50.2022 A
 VDW_CNRADIUS =   21.1671 A
 Edisp (eV)  -32.88110

 E6    (eV) :   -16.2460
 E8    (eV) :   -16.6351
 % E8        : 50.59

 VOLUME and BASIS-vectors are now :
  energy-cutoff  :      520.00
  volume of cell :     9881.61
      direct lattice vectors                 reciprocal lattice vectors
    21.138852197  0.000000000  0.000000000     0.047306258  0.000000000  0.000000000
     0.000000000 21.138852197  0.000000000     0.000000000  0.047306258  0.000000000
     0.000000000  0.000000000 22.113885220     0.000000000  0.000000000  0.045220457

  length of vectors
    21.138852197 21.138852197 22.113885220     0.047306258  0.047306258  0.045220457

 FORCES acting on ions:
    Electron-Ion                     Ewald-Force                    Non-Local-Force
   -.477E+00 -.384E+03 -.187E+04   0.464E+00 0.376E+03 0.187E+04   0.862E-02 0.771E+01 -.186E+01
   -.148E+00 -.993E+00 -.113E+04   0.141E+00 0.967E+00 0.113E+04   0.504E-02 0.256E-01 0.752E+01
   0.648E+00 0.109E+01 -.162E+04   -.637E+00 -.107E+01 0.162E+04   -.973E-02 -.223E-01 -.140E+01
   -.801E-01 0.383E+03 -.187E+04   0.760E-01 -.376E+03 0.187E+04   0.792E-03 -.769E+01 -.185E+01
   0.615E+01 0.323E-01 0.935E+03   -.618E+01 -.325E-01 -.927E+03   0.232E-01 0.158E-03 -.713E+01
   0.120E+02 0.911E+01 0.939E+03   -.121E+02 -.914E+01 -.930E+03   0.504E-01 0.197E-01 -.713E+01
   0.880E+01 0.829E+01 -.918E+03   -.884E+01 -.829E+01 0.910E+03   0.279E-01 0.417E-02 0.702E+01
   0.129E+02 0.588E-01 -.917E+03   -.129E+02 -.592E-01 0.909E+03   0.393E-01 0.283E-03 0.702E+01
   0.945E+01 0.111E+02 0.938E+03   -.950E+01 -.111E+02 -.930E+03   0.400E-01 0.102E-01 -.714E+01
   0.245E+02 0.176E+02 0.949E+03   -.247E+02 -.177E+02 -.941E+03   0.124E+00 0.250E-01 -.715E+01
   0.182E+02 0.153E+02 -.913E+03   -.182E+02 -.153E+02 0.904E+03   0.493E-01 0.214E-02 0.702E+01
   0.234E+02 0.220E+02 -.911E+03   -.235E+02 -.220E+02 0.903E+03   0.889E-01 0.203E-01 0.702E+01
   0.163E+02 0.757E+01 0.944E+03   -.164E+02 -.757E+01 -.936E+03   0.623E-01 0.422E-02 -.715E+01
   0.355E+02 -.655E-01 0.958E+03   -.357E+02 0.660E-01 -.950E+03   0.149E+00 -.325E-03 -.716E+01
   0.261E+02 -.527E-01 -.908E+03   -.262E+02 0.530E-01 0.900E+03   0.516E-01 -.153E-03 0.701E+01
   0.515E+02 0.180E+02 -.896E+03   -.517E+02 -.180E+02 0.887E+03   0.141E+00 0.194E-02 0.700E+01
   0.163E+02 -.763E+01 0.944E+03   -.164E+02 0.763E+01 -.936E+03   0.621E-01 -.448E-02 -.715E+01
   0.244E+02 -.177E+02 0.949E+03   -.246E+02 0.177E+02 -.940E+03   0.123E+00 -.252E-01 -.715E+01
   0.181E+02 -.153E+02 -.913E+03   -.182E+02 0.153E+02 0.904E+03   0.490E-01 -.224E-02 0.702E+01
   0.514E+02 -.181E+02 -.896E+03   -.516E+02 0.181E+02 0.887E+03   0.140E+00 -.241E-02 0.700E+01
   0.941E+01 -.111E+02 0.938E+03   -.947E+01 0.111E+02 -.930E+03   0.397E-01 -.101E-01 -.714E+01
   0.120E+02 -.903E+01 0.939E+03   -.121E+02 0.905E+01 -.930E+03   0.501E-01 -.192E-01 -.713E+01
   0.878E+01 -.821E+01 -.918E+03   -.882E+01 0.822E+01 0.910E+03   0.277E-01 -.392E-02 0.702E+01
   0.233E+02 -.219E+02 -.911E+03   -.234E+02 0.219E+02 0.903E+03   0.881E-01 -.201E-01 0.702E+01
   0.109E+02 0.636E-01 0.940E+03   -.110E+02 -.642E-01 -.931E+03   0.435E-01 0.440E-03 -.713E+01
   0.864E+01 0.168E+02 0.946E+03   -.870E+01 -.170E+02 -.937E+03   0.395E-01 0.863E-01 -.713E+01
   0.172E+02 0.184E+02 -.912E+03   -.173E+02 -.185E+02 0.903E+03   0.580E-01 0.530E-01 0.702E+01
   0.908E+01 0.118E+00 -.912E+03   -.912E+01 -.119E+00 0.904E+03   0.282E-01 0.700E-03 0.702E+01
   0.196E+02 0.238E+02 0.950E+03   -.197E+02 -.240E+02 -.941E+03   0.107E+00 0.797E-01 -.713E+01
   0.246E+02 0.427E+02 0.982E+03   -.248E+02 -.430E+02 -.974E+03   0.193E+00 0.193E+00 -.701E+01
   0.534E+02 0.482E+02 -.885E+03   -.538E+02 -.483E+02 0.876E+03   0.305E+00 0.445E-01 0.702E+01
   0.226E+02 0.547E+02 -.892E+03   -.227E+02 -.551E+02 0.884E+03   0.937E-01 0.267E+00 0.703E+01
   0.439E+02 0.205E+02 0.979E+03   -.444E+02 -.205E+02 -.970E+03   0.296E+00 0.327E-01 -.717E+01
   0.455E+02 -.205E+00 0.103E+04   -.460E+02 0.208E+00 -.102E+04   0.312E+00 -.200E-02 -.714E+01
   0.103E+03 -.235E+00 -.849E+03   -.104E+03 0.236E+00 0.841E+03   0.274E+00 -.631E-03 0.697E+01
   0.115E+03 0.853E+02 -.769E+03   -.117E+03 -.852E+02 0.760E+03   0.119E+01 -.978E-02 0.702E+01
   0.438E+02 -.206E+02 0.979E+03   -.442E+02 0.207E+02 -.970E+03   0.294E+00 -.338E-01 -.717E+01
   0.244E+02 -.426E+02 0.982E+03   -.247E+02 0.429E+02 -.974E+03   0.192E+00 -.193E+00 -.701E+01
   0.530E+02 -.481E+02 -.885E+03   -.535E+02 0.482E+02 0.877E+03   0.302E+00 -.450E-01 0.702E+01
   0.114E+03 -.858E+02 -.770E+03   -.116E+03 0.858E+02 0.761E+03   0.118E+01 0.557E-02 0.702E+01
   0.195E+02 -.238E+02 0.950E+03   -.197E+02 0.239E+02 -.941E+03   0.106E+00 -.790E-01 -.713E+01
   0.861E+01 -.167E+02 0.946E+03   -.867E+01 0.168E+02 -.937E+03   0.393E-01 -.849E-01 -.713E+01
   0.172E+02 -.182E+02 -.912E+03   -.172E+02 0.183E+02 0.904E+03   0.576E-01 -.520E-01 0.702E+01
   0.224E+02 -.543E+02 -.893E+03   -.225E+02 0.547E+02 0.884E+03   0.927E-01 -.264E+00 0.703E+01
   0.151E-01 0.896E-01 0.943E+03   -.152E-01 -.907E-01 -.935E+03   0.371E-04 0.704E-03 -.714E+01
   -.862E+01 0.169E+02 0.946E+03   0.868E+01 -.170E+02 -.937E+03   -.395E-01 0.864E-01 -.713E+01
   0.250E-01 0.284E+02 -.906E+03   -.251E-01 -.285E+02 0.898E+03   0.441E-04 0.129E+00 0.703E+01
   -.905E+01 0.117E+00 -.912E+03   0.909E+01 -.118E+00 0.904E+03   -.281E-01 0.678E-03 0.702E+01
   0.307E-01 0.370E+02 0.962E+03   -.309E-01 -.373E+02 -.953E+03   0.951E-04 0.254E+00 -.712E+01
   -.245E+02 0.427E+02 0.982E+03   0.248E+02 -.430E+02 -.974E+03   -.193E+00 0.193E+00 -.701E+01
   0.144E+00 0.119E+03 -.825E+03   -.144E+00 -.121E+03 0.816E+03   0.471E-03 0.114E+01 0.725E+01
   -.225E+02 0.547E+02 -.892E+03   0.227E+02 -.551E+02 0.884E+03   -.936E-01 0.268E+00 0.703E+01
   0.101E+00 0.406E+02 0.104E+04   -.101E+00 -.408E+02 -.103E+04   -.594E-04 0.155E+00 -.586E+01
   -.454E+02 -.198E+00 0.103E+04   0.459E+02 0.201E+00 -.102E+04   -.311E+00 -.204E-02 -.714E+01
   0.615E+00 -.671E+00 -.564E+03   -.618E+00 0.681E+00 0.558E+03   0.665E-03 -.117E-01 0.440E+01
   -.115E+03 0.855E+02 -.768E+03   0.117E+03 -.855E+02 0.760E+03   -.119E+01 -.865E-02 0.701E+01
   0.109E+00 -.409E+02 0.104E+04   -.109E+00 0.411E+02 -.103E+04   -.176E-03 -.156E+00 -.587E+01
   -.243E+02 -.427E+02 0.982E+03   0.246E+02 0.430E+02 -.974E+03   -.192E+00 -.193E+00 -.701E+01
   0.165E+00 -.119E+03 -.826E+03   -.167E+00 0.120E+03 0.818E+03   0.719E-03 -.113E+01 0.724E+01
   -.114E+03 -.861E+02 -.769E+03   0.116E+03 0.861E+02 0.761E+03   -.118E+01 0.473E-02 0.702E+01
[...]
   -.979E+01 0.881E+01 0.707E+03   0.983E+01 -.882E+01 -.711E+03   -.482E-01 0.109E-01 0.304E+01
   -.140E-01 0.717E+01 0.704E+03   0.140E-01 -.718E+01 -.708E+03   -.281E-04 0.755E-02 0.304E+01
   -.179E+02 0.755E+01 -.683E+03   0.179E+02 -.755E+01 0.687E+03   -.487E-01 0.463E-03 -.323E+01
   -.368E-01 -.301E-01 -.685E+03   0.369E-01 0.302E-01 0.689E+03   -.394E-04 -.131E-03 -.322E+01
   -.134E+02 -.289E-01 0.710E+03   0.134E+02 0.291E-01 -.714E+03   -.556E-01 -.181E-03 0.303E+01
   -.239E-01 0.472E+01 0.707E+03   0.240E-01 -.472E+01 -.711E+03   -.409E-04 0.266E-02 0.303E+01
   -.178E+02 -.761E+01 -.683E+03   0.179E+02 0.761E+01 0.687E+03   -.486E-01 -.736E-03 -.323E+01
   -.269E-01 -.930E+01 -.687E+03   0.269E-01 0.930E+01 0.692E+03   -.484E-04 -.196E-02 -.321E+01
   -.976E+01 -.882E+01 0.707E+03   0.980E+01 0.883E+01 -.711E+03   -.479E-01 -.110E-01 0.304E+01
   -.245E-01 -.476E+01 0.707E+03   0.245E-01 0.476E+01 -.711E+03   -.545E-04 -.289E-02 0.303E+01
   -.941E+01 -.106E+02 -.688E+03   0.944E+01 0.106E+02 0.692E+03   -.363E-01 -.943E-02 -.321E+01
   -.135E-01 -.523E+01 -.691E+03   0.135E-01 0.524E+01 0.695E+03   -.324E-04 -.338E-02 -.320E+01
   -.526E+01 -.491E+01 0.703E+03   0.529E+01 0.492E+01 -.707E+03   -.289E-01 -.902E-02 0.304E+01
   -.146E-01 -.716E+01 0.704E+03   0.147E-01 0.716E+01 -.708E+03   -.422E-04 -.746E-02 0.304E+01
   -.269E-01 -.527E-02 0.457E+01   0.232E-11 0.119E-11 0.182E-11   0.185E-01 0.115E-01 -.408E+01

 POSITION                                       TOTAL-FORCE (eV/Angst)
      8.46109     11.89365     13.52833        -0.003675      0.082343     -0.108683
      8.45935     10.56642     18.47179        -0.001095      0.000431      0.119640
      8.45769     10.55816     15.88881         0.000772     -0.000965      0.003304
      8.45973      9.22287     13.52627        -0.002206     -0.065541     -0.114799
      0.00000      0.00000      9.00000        -0.007470     -0.000060      0.619080
      2.11389      2.11389      9.00000        -0.016253     -0.006425      0.618001
      0.00000      2.11389     11.11389        -0.008707     -0.001295     -0.571900
      2.11389      0.00000     11.11389        -0.012598     -0.000096     -0.571327
      0.00000      4.22777      9.00000        -0.012455     -0.003277      0.619606
      2.11389      6.34166      9.00000        -0.037984     -0.007930      0.619972
      0.00000      6.34166     11.11389        -0.014616     -0.000312     -0.566751
      2.11389      4.22777     11.11389        -0.027238     -0.006182     -0.566920
      0.00000      8.45554      9.00000        -0.019037     -0.001197      0.621279
      2.11389     10.56943      9.00000        -0.046163      0.000093      0.622992
      0.00000     10.56943     11.11389        -0.014596      0.000039     -0.562202
      2.11389      8.45554     11.11389        -0.039111      0.001068     -0.552713
      0.00000     12.68331      9.00000        -0.018972      0.001263      0.621301
      2.11389     14.79720      9.00000        -0.037720      0.007969      0.619959
      0.00000     14.79720     11.11389        -0.014521      0.000328     -0.566776
      2.11389     12.68331     11.11389        -0.038977     -0.000935     -0.552768
      0.00000     16.91108      9.00000        -0.012367      0.003228      0.619605
      2.11389     19.02497      9.00000        -0.016162      0.006254      0.618031
      0.00000     19.02497     11.11389        -0.008658      0.001195     -0.571917
      2.11389     16.91108     11.11389        -0.027001      0.006105     -0.566927
      4.22777      0.00000      9.00000        -0.014244     -0.000153      0.617549
      6.34166      2.11389      9.00000        -0.013255     -0.026602      0.616023
      4.22777      2.11389     11.11389        -0.018716     -0.016058     -0.568522
      6.34166      0.00000     11.11389        -0.009263     -0.000225     -0.568774
      4.22777      4.22777      9.00000        -0.035341     -0.026313      0.612579
      6.34166      6.34166      9.00000        -0.068775     -0.066616      0.569938
      4.22777      6.34166     11.11389        -0.090295     -0.009855     -0.554098
      6.34166      4.22777     11.11389        -0.030603     -0.080129     -0.566560
      4.22777      8.45554      9.00000        -0.087512     -0.008296      0.622315
      6.34166     10.56943      9.00000        -0.108638      0.000695      0.590903
      4.22777     10.56943     11.11389        -0.069309      0.000124     -0.505662
      6.34166      8.45554     11.11389        -0.461815      0.026490     -0.622349
      4.22777     12.68331      9.00000        -0.087035      0.008640      0.622347
      6.34166     14.79720      9.00000        -0.068432      0.066437      0.570782
      4.22777     14.79720     11.11389        -0.089358      0.010063     -0.554365
      6.34166     12.68331     11.11389        -0.456484     -0.024705     -0.621544
      4.22777     16.91108      9.00000        -0.035055      0.026070      0.612721
      6.34166     19.02497      9.00000        -0.013175      0.026160      0.616039
      4.22777     19.02497     11.11389        -0.018592      0.015719     -0.568569
      6.34166     16.91108     11.11389        -0.030313      0.079157     -0.566469
      8.45554      0.00000      9.00000         0.000004     -0.000231      0.617406
     10.56943      2.11389      9.00000         0.013265     -0.026624      0.616029
      8.45554      2.11389     11.11389        -0.000001     -0.038096     -0.567751
     10.56943      0.00000     11.11389         0.009271     -0.000216     -0.568778
      8.45554      4.22777      9.00000        -0.000020     -0.075986      0.607113
     10.56943      6.34166      9.00000         0.068744     -0.066593      0.569778
      8.45554      6.34166     11.11389        -0.000175     -0.415942     -0.676044
     10.56943      4.22777     11.11389         0.030593     -0.080262     -0.566540
      8.45554      8.45554      9.00000         0.000071     -0.033005      0.277089
     10.56943     10.56943      9.00000         0.108567      0.000720      0.590303
      8.45554     10.56943     11.11389        -0.002274     -0.002938     -0.897381
     10.56943      8.45554     11.11389         0.462968      0.025701     -0.624047
      8.45554     12.68331      9.00000         0.000120      0.033173      0.280148
     10.56943     14.79720      9.00000         0.068375      0.066385      0.570589
      8.45554     14.79720     11.11389        -0.000276      0.411229     -0.672358
     10.56943     12.68331     11.11389         0.458050     -0.023799     -0.624235
[...]
     19.02497      6.34166     11.11389         0.000001      0.000664      0.379773
     16.91108      6.34166      9.00000        -0.016010      0.003648     -0.431772
     19.02497      4.22777      9.00000         0.000002      0.002486     -0.431461
     16.91108      8.45554     11.11389        -0.016351      0.000202      0.374601
     19.02497     10.56943     11.11389        -0.000001     -0.000053      0.376695
     16.91108     10.56943      9.00000        -0.018534     -0.000070     -0.433058
     19.02497      8.45554      9.00000        -0.000004      0.000896     -0.432450
     16.91108     12.68331     11.11389        -0.016308     -0.000309      0.374626
     19.02497     14.79720     11.11389        -0.000005     -0.000704      0.379790
     16.91108     14.79720      9.00000        -0.015938     -0.003698     -0.431771
     19.02497     12.68331      9.00000        -0.000005     -0.000989     -0.432450
     16.91108     16.91108     11.11389        -0.012070     -0.003174      0.381184
     19.02497     19.02497     11.11389         0.000002     -0.001141      0.383901
     16.91108     19.02497      9.00000        -0.009566     -0.002999     -0.430993
     19.02497     16.91108      9.00000        -0.000003     -0.002468     -0.431465
    total drift:                               -0.002476      0.001650     -0.537599

  FREE ENERGIE OF THE ION-ELECTRON SYSTEM (eV)
  free  energy   TOTEN  =     -1459.57034545 eV

  energy  without entropy=    -1459.57034545  energy(sigma->0) =    -1459.57034545