 vasp.6.3.0 20Jan22 (build Apr  1 2022 16:44:48) complex
 executed on        HPECrayEX_GCC date 2022.11.18  13:55:26

 INCAR:
   SYSTEM = MgO-rocksalt
   ISMEAR = 0
   SIGMA = 0.05
   EDIFF = 1E-6
   ALGO = ALL
   ISTART = 0
   IBRION = -1
   NSW = 0
   ISYM = 2
   DIPOL = 0.5 0.5 0.5
   IDIPOL = 3
   LDIPOL = .TRUE.
   GGA = MK
   LUSE_VDW = .TRUE.
   PARAM1 = 0.1234
   PARAM2 = 0.711357
   ZAB_VDW = -1.8867
   AGGAC = 0.0
   ENCUT = 520
   PREC = Accurate
   LASPH = .TRUE.
   LREAL = Auto
   ISPIN = 1
   NELM = 200
   NELMIN = 8
   NCORE = 4
   KPAR = 2
   LWAVE = .FALSE.
   LCHARG = .FALSE.

 POTCAR:    PAW_PBE Cu 22Jun2005
 POTCAR:    PAW_PBE Mg_pv 13Apr2007
 POTCAR:    PAW_PBE O 08Apr2002
|               ----> ADVICE to this user running VASP <----                  |
|     You have switched on vdW-DFT.                                           |
|     This routine was written and supplied by Jiri Klimes. We recommend      |
|     that you carefully read and cite the following publications:            |
|       J. Klimes, D.R. Bowler, A. Michelides                                 |
|          J. Phys.: Cond Matt. 22 022201 (2010)                              |
|       J. Klimes, D.R. Bowler, A. Michelides                                 |
|          Phys. Rev. B. 83, 195131 (2011)                                    |
|     and references therein.                                                 |

   TITEL  = PAW_PBE Cu 22Jun2005
   POMASS =   63.546; ZVAL   =   11.000    mass and valenz
   ENMAX  =  295.446; ENMIN  =  221.585 eV

   TITEL  = PAW_PBE Mg_pv 13Apr2007
   POMASS =   24.305; ZVAL   =    8.000    mass and valenz
   ENMAX  =  403.929; ENMIN  =  302.947 eV

   TITEL  = PAW_PBE O 08Apr2002
   POMASS =   16.000; ZVAL   =    6.000    mass and valenz
   ENMAX  =  400.000; ENMIN  =  300.000 eV

 Optimization of the real space projectors (new method)

 maximal supplied QI-value         = 16.25
 optimisation between [QCUT,QGAM] = [ 11.54, 23.24] = [ 37.28,151.24] Ry
 Optimized for a Real-space Cutoff    1.53 Angstroem

   l    n(q)    QCUT    max X(q) W(low)/X(q) W(high)/X(q)  e(spline)
   2     10    11.539     4.610    0.96E-04    0.13E-03    0.19E-06
   2     10    11.539     8.522    0.16E-03    0.21E-03    0.28E-06
   0     11    11.539    51.609    0.45E-04    0.31E-04    0.11E-06
   0     11    11.539    27.747    0.39E-04    0.29E-04    0.10E-06
   1     10    11.539    20.408    0.70E-05    0.38E-04    0.18E-06
   1     10    11.539    13.425    0.66E-05    0.34E-04    0.17E-06
 Optimization of the real space projectors (new method)

[...]

   l    n(q)    QCUT    max X(q) W(low)/X(q) W(high)/X(q)  e(spline)
   1      8    11.527     2.974    0.44E-04    0.56E-04    0.12E-06
   1      8    11.527     4.279    0.12E-03    0.12E-03    0.26E-06
   0      9    11.527    16.381    0.46E-04    0.64E-04    0.78E-07
   0      9    11.527     5.611    0.26E-04    0.43E-04    0.55E-07
   2      8    11.527     4.652    0.22E-03    0.72E-04    0.47E-07
 Optimization of the real space projectors (new method)

 maximal supplied QI-value         = 24.76
 optimisation between [QCUT,QGAM] = [ 11.64, 23.27] = [ 37.91,151.63] Ry
 Optimized for a Real-space Cutoff    1.14 Angstroem

   l    n(q)    QCUT    max X(q) W(low)/X(q) W(high)/X(q)  e(spline)
   0      8    11.635    20.381    0.10E-03    0.33E-03    0.24E-06
   0      8    11.635    15.268    0.11E-03    0.35E-03    0.26E-06
   1      7    11.635     5.964    0.24E-03    0.31E-03    0.30E-06
   1      7    11.635     5.382    0.22E-03    0.25E-03    0.26E-06
|               ----> ADVICE to this user running VASP <----                  |
|     You enforced a specific xc type in the INCAR file but a different       |
|     type was found in the POTCAR file.                                      |
|     I HOPE YOU KNOW WHAT YOU ARE DOING!                                     |

  PAW_PBE Cu 22Jun2005                  :
  PAW_PBE Mg_pv 13Apr2007               :
  PAW_PBE O 08Apr2002                   :

 POSCAR: Cu Mg  O
  positions in direct lattice
 exchange correlation table for  LEXCH =       43
   RHO(1)=    0.500       N(1)  =     2000
   RHO(2)=  100.500       N(2)  =     4000

 ion  position               nearest neighbor table
   1  0.553  0.500  0.630-   2 2.23
   2  0.447  0.500  0.630-   1 2.23
   3  0.000  0.000  0.407- 105 2.11 106 2.11 121 2.11 186 2.11 103 2.11
   4  0.100  0.100  0.407- 105 2.11 106 2.11 110 2.11 125 2.11 104 2.11
   5  0.000  0.100  0.503- 103 2.11 104 2.11 107 2.11 184 2.11 105 2.11
   6  0.100  0.000  0.503- 103 2.11 104 2.11 120 2.11 123 2.11 106 2.11
   7  0.000  0.200  0.407- 109 2.11 105 2.11 110 2.11 190 2.11 107 2.11
   8  0.100  0.300  0.407- 110 2.11 109 2.11 114 2.11 129 2.11 108 2.11
   9  0.000  0.300  0.503- 107 2.11 108 2.11 111 2.11 188 2.11 109 2.11
  10  0.100  0.200  0.503- 108 2.11 107 2.11 104 2.11 127 2.11 110 2.11
  11  0.000  0.400  0.407- 109 2.11 113 2.11 114 2.11 194 2.11 111 2.11
  12  0.100  0.500  0.407- 113 2.11 114 2.11 118 2.11 133 2.11 112 2.11
  13  0.000  0.500  0.503- 111 2.11 112 2.11 115 2.11 192 2.11 113 2.11
  14  0.100  0.400  0.503- 108 2.11 111 2.11 112 2.11 131 2.11 114 2.11
  15  0.000  0.600  0.407- 113 2.11 117 2.11 118 2.11 198 2.11 115 2.11
  16  0.100  0.700  0.407- 122 2.11 118 2.11 117 2.11 137 2.11 116 2.11
  17  0.000  0.700  0.503- 119 2.11 116 2.11 115 2.11 196 2.11 117 2.11
  18  0.100  0.600  0.503- 112 2.11 115 2.11 116 2.11 135 2.11 118 2.11
  19  0.000  0.800  0.407- 117 2.11 121 2.11 122 2.11 202 2.11 119 2.11
  20  0.100  0.900  0.407- 106 2.11 121 2.11 122 2.11 141 2.11 120 2.11
  21  0.000  0.900  0.503- 103 2.11 119 2.11 120 2.11 200 2.11 121 2.11
  22  0.100  0.800  0.503- 116 2.11 119 2.11 120 2.11 139 2.11 122 2.11
  23  0.200  0.000  0.407- 126 2.11 125 2.11 106 2.11 141 2.11 123 2.11
  24  0.300  0.100  0.407- 125 2.11 126 2.11 130 2.11 145 2.11 124 2.11
  25  0.200  0.100  0.503- 124 2.11 123 2.11 104 2.11 127 2.11 125 2.11
  26  0.300  0.000  0.503- 123 2.11 124 2.11 140 2.11 143 2.11 126 2.11
  27  0.200  0.200  0.407- 129 2.11 130 2.11 110 2.11 125 2.11 127 2.11
  28  0.300  0.300  0.407- 129 2.11 130 2.11 134 2.11 149 2.11 128 2.11
  29  0.200  0.300  0.503- 127 2.11 128 2.11 108 2.11 131 2.11 129 2.11
  30  0.300  0.200  0.503- 127 2.11 128 2.11 124 2.11 147 2.11 130 2.11
  31  0.200  0.400  0.407- 134 2.11 129 2.11 133 2.11 114 2.11 131 2.11
  32  0.300  0.500  0.407- 133 2.11 134 2.11 138 2.11 153 2.11 132 2.11
  33  0.200  0.500  0.503- 132 2.11 131 2.11 112 2.11 135 2.11 133 2.11
  34  0.300  0.400  0.503- 131 2.11 128 2.11 132 2.11 151 2.11 134 2.11
  35  0.200  0.600  0.407- 138 2.11 133 2.11 137 2.11 118 2.11 135 2.11
  36  0.300  0.700  0.407- 137 2.11 142 2.11 138 2.11 157 2.11 136 2.11
  37  0.200  0.700  0.503- 136 2.11 139 2.11 116 2.11 135 2.11 137 2.11
  38  0.300  0.600  0.503- 135 2.11 132 2.11 136 2.11 155 2.11 138 2.11
  39  0.200  0.800  0.407- 137 2.11 142 2.11 141 2.11 122 2.11 139 2.11
  40  0.300  0.900  0.407- 141 2.11 126 2.11 142 2.11 161 2.11 140 2.11
  41  0.200  0.900  0.503- 140 2.11 123 2.11 139 2.11 120 2.11 141 2.11
  42  0.300  0.800  0.503- 136 2.11 139 2.11 140 2.11 159 2.11 142 2.11
  43  0.400  0.000  0.407- 126 2.11 145 2.11 146 2.11 161 2.11 143 2.11
  44  0.500  0.100  0.407- 145 2.11 146 2.11 150 2.11 165 2.11 144 2.11
  45  0.400  0.100  0.503- 124 2.11 143 2.11 144 2.11 147 2.11 145 2.11
  46  0.500  0.000  0.503- 143 2.11 144 2.11 160 2.11 163 2.11 146 2.11
  47  0.400  0.200  0.407- 149 2.11 145 2.11 130 2.11 150 2.11 147 2.11
  48  0.500  0.300  0.407- 150 2.11 149 2.11 154 2.11 169 2.11 148 2.11
  49  0.400  0.300  0.503- 147 2.11 128 2.11 148 2.11 151 2.11 149 2.11
  50  0.500  0.200  0.503- 148 2.11 147 2.11 144 2.11 167 2.11 150 2.11
  51  0.400  0.400  0.407- 134 2.11 149 2.11 153 2.11 154 2.11 151 2.11
  52  0.500  0.500  0.407- 153 2.11 154 2.11 158 2.11 173 2.11 152 2.11
  53  0.400  0.500  0.503- 132 2.11 151 2.11 152 2.11 155 2.11 153 2.11
  54  0.500  0.400  0.503- 148 2.11 151 2.11 152 2.11 171 2.11 154 2.11
  55  0.400  0.600  0.407- 138 2.11 153 2.11 157 2.11 158 2.11 155 2.11
  56  0.500  0.700  0.407- 162 2.11 158 2.11 157 2.11 177 2.11 156 2.11
  57  0.400  0.700  0.503- 159 2.11 155 2.11 156 2.11 136 2.11 157 2.11
  58  0.500  0.600  0.503- 152 2.11 155 2.11 156 2.11 175 2.11 158 2.11
  59  0.400  0.800  0.407- 157 2.11 142 2.11 161 2.11 162 2.11 159 2.11
  60  0.500  0.900  0.407- 146 2.11 161 2.11 162 2.11 181 2.11 160 2.11
[...]
 188  0.900  0.300  0.503-  90 2.11  89 2.11   9 2.11  94 2.11  88 2.11
 189  0.800  0.300  0.407-  68 2.11  87 2.11  88 2.11  91 2.11  89 2.11
 190  0.900  0.200  0.407-  88 2.11  84 2.11  87 2.11   7 2.11  90 2.11
 191  0.800  0.400  0.503-  74 2.11  89 2.11  93 2.11  94 2.11  91 2.11
 192  0.900  0.500  0.503-  13 2.11  93 2.11  94 2.11  98 2.11  92 2.11
 193  0.800  0.500  0.407-  72 2.11  91 2.11  92 2.11  95 2.11  93 2.11
 194  0.900  0.400  0.407-  11 2.11  88 2.11  91 2.11  92 2.11  94 2.11
 195  0.800  0.600  0.503-  78 2.11  93 2.11  97 2.11  98 2.11  95 2.11
 196  0.900  0.700  0.503- 102 2.11  97 2.11  98 2.11  17 2.11  96 2.11
 197  0.800  0.700  0.407-  76 2.11  99 2.11  96 2.11  95 2.11  97 2.11
 198  0.900  0.600  0.407-  15 2.11  92 2.11  95 2.11  96 2.11  98 2.11
 199  0.800  0.800  0.503-  82 2.11  97 2.11 101 2.11 102 2.11  99 2.11
 200  0.900  0.900  0.503-  21 2.11  86 2.11 101 2.11 102 2.11 100 2.11
 201  0.800  0.900  0.407-  80 2.11  83 2.11  99 2.11 100 2.11 101 2.11
 202  0.900  0.800  0.407-  96 2.11  19 2.11  99 2.11 100 2.11 102 2.11

  LATTYP: Found a simple tetragonal cell.
 ALAT       =    21.1388521970
 C/A-ratio  =     1.0461251639

  Lattice vectors:

 A1 = (  21.1388521970,   0.0000000000,   0.0000000000)
 A2 = (   0.0000000000,  21.1388521970,   0.0000000000)
 A3 = (   0.0000000000,   0.0000000000,  22.1138852197)

Analysis of symmetry for initial positions (statically):
 Subroutine PRICEL returns:
 Original cell was already a primitive cell.

 Routine SETGRP: Setting up the symmetry group for a
 simple tetragonal supercell.

 Subroutine GETGRP returns: Found  4 space group operations
 (whereof  4 operations were pure point group operations)
 out of a pool of 16 trial point group operations.

The static configuration has the point symmetry C_2v.

Analysis of symmetry for dynamics (positions and initial velocities):
 Subroutine PRICEL returns:
 Original cell was already a primitive cell.

 Routine SETGRP: Setting up the symmetry group for a
 simple tetragonal supercell.

 Subroutine GETGRP returns: Found  4 space group operations
 (whereof  4 operations were pure point group operations)
 out of a pool of 16 trial point group operations.

The dynamic configuration has the point symmetry C_2v.

 Subroutine INISYM returns: Found  4 space group operations
 (whereof  4 operations are pure point group operations),
 and found     1 'primitive' translations

                                     Primitive cell

  volume of cell :    9881.6133

  direct lattice vectors                    reciprocal lattice vectors
    21.138852197  0.000000000  0.000000000     0.047306258  0.000000000  0.000000000
[...]
     52     -43.2630      2.00000
     53     -43.2617      2.00000
     54     -43.2617      2.00000
     55     -43.2616      2.00000
     56     -43.2616      2.00000
     57     -43.2610      2.00000
     58     -43.2610      2.00000
     59     -43.2605      2.00000
     60     -43.2604      2.00000
[...]
   1010       6.8510      0.00000
   1011       6.8739      0.00000
   1012       6.8806      0.00000
   1013       7.0220      0.00000
   1014       7.1280      0.00000
   1015       7.1499      0.00000
   1016       7.1658      0.00000
   1017       7.1726      0.00000
   1018       7.2507      0.00000
   1019       7.4435      0.00000
   1020       7.4775      0.00000
   1021       7.5514      0.00000
   1022       7.6031      0.00000
   1023       7.6550      0.00000
   1024       7.7354      0.00000

 soft charge-density along one line, spin component           1
         0         1         2         3         4         5         6         7         8         9
 total charge-density along one line

------------------------ aborting loop because EDIFF is reached ----------------------------------------

  FORCE on cell =-STRESS in cart. coord.  units (eV):
  Direction    XX          YY          ZZ          XY          YZ          ZX
  Alpha Z  1354.41543  1354.41543  1354.41543
  Ewald  479351.43510478555.77928************    -0.00000     0.00000    -0.00000
  Hartree507911.37405507318.29483************    -0.00000     0.00000    -0.00000
  E(xc)   -7777.83961 -7778.20214 -7780.06607    -0.00000     0.00000     0.00000
  Local  ************************************    -0.00000    -0.00000     0.00000
  n-local -8876.50033 -8873.87454 -8987.05721    -0.00000     0.00000    -0.00000
  augment  3477.65087  3483.35384  3424.95835     0.00000     0.00000    -0.00000
  Kinetic 22862.44212 22868.34910 23106.24462    -0.00000     0.00000     0.00000
  Fock        0.00000     0.00000     0.00000     0.00000     0.00000     0.00000
  Total    -184.18995  -184.43890     1.84798     0.00000     0.00000     0.00000
  in kB     -29.86405   -29.90441     0.29963     0.00000     0.00000     0.00000

 VOLUME and BASIS-vectors are now :
  energy-cutoff  :      520.00
  volume of cell :     9881.61
      direct lattice vectors                 reciprocal lattice vectors
    21.138852197  0.000000000  0.000000000     0.047306258  0.000000000  0.000000000
     0.000000000 21.138852197  0.000000000     0.000000000  0.047306258  0.000000000
     0.000000000  0.000000000 22.113885220     0.000000000  0.000000000  0.045220457

  length of vectors
    21.138852197 21.138852197 22.113885220     0.047306258  0.047306258  0.045220457

 FORCES acting on ions:
    Electron-Ion                     Ewald-Force                    Non-Local-Force
   -.359E+03 -.155E-05 -.202E+04   0.348E+03 0.874E-08 0.202E+04   0.114E+02 0.000E+00 0.421E-01
   0.359E+03 -.155E-05 -.202E+04   -.348E+03 0.874E-08 0.202E+04   -.114E+02 0.000E+00 0.421E-01
   0.110E-12 -.454E-08 0.930E+03   0.764E-13 0.700E-08 -.923E+03   0.000E+00 0.000E+00 -.713E+01
   0.378E+01 0.407E+01 0.931E+03   -.378E+01 -.408E+01 -.924E+03   -.115E-02 0.608E-02 -.713E+01
   0.119E-12 0.434E+01 -.922E+03   0.103E-12 -.434E+01 0.915E+03   0.000E+00 0.555E-02 0.712E+01
   0.396E+01 -.647E-08 -.922E+03   -.396E+01 0.998E-08 0.915E+03   -.246E-02 0.000E+00 0.712E+01
   0.108E-12 0.599E+01 0.932E+03   0.153E-10 -.601E+01 -.925E+03   0.000E+00 0.963E-02 -.713E+01
   0.785E+01 0.769E+01 0.935E+03   -.786E+01 -.770E+01 -.928E+03   0.489E-02 0.138E-01 -.713E+01
   0.122E-12 0.804E+01 -.920E+03   0.181E-11 -.806E+01 0.912E+03   -.662E-23 0.109E-01 0.712E+01
   0.716E+01 0.904E+01 -.920E+03   -.716E+01 -.906E+01 0.913E+03   -.669E-03 0.120E-01 0.712E+01
   0.103E-12 0.414E+01 0.935E+03   -.174E-10 -.415E+01 -.928E+03   0.000E+00 0.708E-02 -.713E+01
   0.115E+02 0.692E-08 0.939E+03   -.115E+02 -.107E-07 -.931E+03   0.218E-01 0.000E+00 -.713E+01
   0.118E-12 0.711E-08 -.918E+03   0.120E-12 -.110E-07 0.911E+03   0.000E+00 0.000E+00 0.712E+01
   0.155E+02 0.705E+01 -.916E+03   -.156E+02 -.706E+01 0.909E+03   0.167E-01 0.102E-01 0.712E+01
   0.106E-12 -.414E+01 0.935E+03   0.116E-11 0.415E+01 -.928E+03   0.000E+00 -.708E-02 -.713E+01
   0.785E+01 -.769E+01 0.935E+03   -.786E+01 0.770E+01 -.928E+03   0.489E-02 -.138E-01 -.713E+01
   0.124E-12 -.804E+01 -.920E+03   -.785E-12 0.806E+01 0.912E+03   0.662E-23 -.109E-01 0.712E+01
   0.155E+02 -.705E+01 -.916E+03   -.156E+02 0.706E+01 0.909E+03   0.167E-01 -.102E-01 0.712E+01
   0.111E-12 -.599E+01 0.932E+03   0.739E-12 0.601E+01 -.925E+03   0.207E-24 -.963E-02 -.713E+01
   0.378E+01 -.407E+01 0.931E+03   -.378E+01 0.408E+01 -.924E+03   -.115E-02 -.608E-02 -.713E+01
   0.119E-12 -.434E+01 -.922E+03   -.867E-12 0.434E+01 0.915E+03   0.000E+00 -.555E-02 0.712E+01
   0.716E+01 -.904E+01 -.920E+03   -.716E+01 0.906E+01 0.913E+03   -.669E-03 -.120E-01 0.712E+01
   0.544E+01 -.706E-08 0.932E+03   -.544E+01 0.109E-07 -.925E+03   -.304E-02 0.000E+00 -.713E+01
   0.687E+01 0.794E+01 0.935E+03   -.687E+01 -.795E+01 -.927E+03   -.365E-02 0.100E-01 -.714E+01
   0.821E+01 0.747E+01 -.921E+03   -.820E+01 -.748E+01 0.913E+03   -.494E-02 0.763E-02 0.711E+01
   0.708E+01 -.133E-07 -.920E+03   -.708E+01 0.205E-07 0.913E+03   -.530E-02 0.000E+00 0.711E+01
   0.955E+01 0.102E+02 0.936E+03   -.955E+01 -.102E+02 -.928E+03   0.427E-03 0.160E-01 -.713E+01
   0.181E+02 0.196E+02 0.949E+03   -.182E+02 -.197E+02 -.942E+03   0.930E-02 0.361E-01 -.714E+01
   0.226E+02 0.179E+02 -.913E+03   -.226E+02 -.180E+02 0.906E+03   0.507E-02 0.279E-01 0.711E+01
   0.157E+02 0.230E+02 -.914E+03   -.157E+02 -.230E+02 0.906E+03   -.112E-01 0.231E-01 0.711E+01
   0.207E+02 0.861E+01 0.946E+03   -.207E+02 -.864E+01 -.938E+03   0.223E-01 0.210E-01 -.713E+01
   0.330E+02 0.229E-07 0.969E+03   -.330E+02 -.354E-07 -.962E+03   0.152E-01 0.000E+00 -.705E+01
   0.414E+02 0.204E-07 -.903E+03   -.415E+02 -.315E-07 0.896E+03   0.724E-01 -.662E-23 0.712E+01
   0.586E+02 0.339E+02 -.880E+03   -.587E+02 -.340E+02 0.873E+03   0.449E-01 0.766E-01 0.712E+01
   0.207E+02 -.861E+01 0.946E+03   -.207E+02 0.864E+01 -.938E+03   0.223E-01 -.210E-01 -.713E+01
   0.181E+02 -.196E+02 0.949E+03   -.182E+02 0.197E+02 -.942E+03   0.930E-02 -.361E-01 -.714E+01
   0.226E+02 -.179E+02 -.913E+03   -.226E+02 0.180E+02 0.906E+03   0.507E-02 -.279E-01 0.711E+01
   0.586E+02 -.339E+02 -.880E+03   -.587E+02 0.340E+02 0.873E+03   0.449E-01 -.766E-01 0.712E+01
   0.955E+01 -.102E+02 0.936E+03   -.955E+01 0.102E+02 -.928E+03   0.427E-03 -.160E-01 -.713E+01
   0.687E+01 -.794E+01 0.935E+03   -.687E+01 0.795E+01 -.927E+03   -.365E-02 -.100E-01 -.714E+01
   0.821E+01 -.747E+01 -.921E+03   -.820E+01 0.748E+01 0.913E+03   -.494E-02 -.763E-02 0.711E+01
   0.157E+02 -.230E+02 -.914E+03   -.157E+02 0.230E+02 0.906E+03   -.112E-01 -.231E-01 0.711E+01
   0.364E+01 -.123E-07 0.935E+03   -.364E+01 0.189E-07 -.927E+03   -.253E-02 0.662E-23 -.714E+01
   -.179E-12 0.111E+02 0.938E+03   0.387E-11 -.111E+02 -.930E+03   -.662E-23 0.781E-02 -.714E+01
   0.597E+01 0.147E+02 -.917E+03   -.596E+01 -.147E+02 0.910E+03   -.498E-02 0.245E-02 0.711E+01
   -.253E-12 -.189E-07 -.919E+03   0.622E-14 0.292E-07 0.911E+03   0.000E+00 0.000E+00 0.711E+01
   0.742E+01 0.204E+02 0.944E+03   -.742E+01 -.205E+02 -.937E+03   -.324E-02 0.329E-01 -.715E+01
   -.173E-12 0.330E+02 0.965E+03   -.579E-11 -.331E+02 -.958E+03   0.662E-23 0.435E-01 -.718E+01
   0.259E+02 0.581E+02 -.886E+03   -.258E+02 -.582E+02 0.879E+03   -.367E-01 0.865E-01 0.708E+01
   -.229E-12 0.378E+02 -.907E+03   -.193E-10 -.378E+02 0.899E+03   0.000E+00 -.102E-01 0.710E+01
   0.224E+02 0.254E+02 0.985E+03   -.224E+02 -.254E+02 -.977E+03   0.110E-01 0.242E-01 -.705E+01
   -.183E-12 0.479E-07 0.102E+04   -.104E-12 -.740E-07 -.101E+04   0.000E+00 0.000E+00 -.711E+01
   0.964E+02 0.160E-06 -.750E+03   -.964E+02 -.246E-06 0.743E+03   -.354E-01 0.000E+00 0.629E+01
   -.245E-12 0.103E+03 -.787E+03   0.215E-10 -.103E+03 0.780E+03   0.264E-22 0.112E+00 0.679E+01
   0.224E+02 -.254E+02 0.985E+03   -.224E+02 0.254E+02 -.977E+03   0.110E-01 -.242E-01 -.705E+01
   -.179E-12 -.330E+02 0.965E+03   -.183E-10 0.331E+02 -.958E+03   0.000E+00 -.435E-01 -.718E+01
   0.259E+02 -.581E+02 -.886E+03   -.258E+02 0.582E+02 0.879E+03   -.367E-01 -.865E-01 0.708E+01
   -.242E-12 -.103E+03 -.787E+03   0.183E-10 0.103E+03 0.780E+03   0.000E+00 -.112E+00 0.679E+01
   0.742E+01 -.204E+02 0.944E+03   -.742E+01 0.205E+02 -.937E+03   -.324E-02 -.329E-01 -.715E+01
   -.171E-12 -.111E+02 0.938E+03   0.203E-10 0.111E+02 -.930E+03   0.132E-22 -.781E-02 -.714E+01
[...]
   -.111E+02 0.900E+01 0.707E+03   0.111E+02 -.901E+01 -.711E+03   -.861E-02 0.246E-01 0.365E+01
   -.403E+01 0.528E+01 0.702E+03   0.403E+01 -.529E+01 -.706E+03   -.114E-02 0.124E-01 0.365E+01
   -.261E+02 0.106E+02 -.682E+03   0.261E+02 -.106E+02 0.686E+03   -.306E-01 0.344E-01 -.367E+01
   -.132E+02 0.722E-08 -.688E+03   0.132E+02 -.111E-07 0.692E+03   -.174E-01 0.000E+00 -.367E+01
   -.176E+02 0.899E-08 0.713E+03   0.176E+02 -.139E-07 -.717E+03   -.397E-01 0.000E+00 0.368E+01
   -.779E+01 0.385E+01 0.705E+03   0.780E+01 -.386E+01 -.709E+03   -.132E-01 0.134E-01 0.366E+01
   -.261E+02 -.106E+02 -.682E+03   0.261E+02 0.106E+02 0.686E+03   -.306E-01 -.344E-01 -.367E+01
   -.836E+01 -.766E+01 -.691E+03   0.837E+01 0.767E+01 0.695E+03   -.660E-02 -.178E-01 -.368E+01
   -.111E+02 -.900E+01 0.707E+03   0.111E+02 0.901E+01 -.711E+03   -.861E-02 -.246E-01 0.365E+01
   -.779E+01 -.385E+01 0.705E+03   0.780E+01 0.386E+01 -.709E+03   -.132E-01 -.134E-01 0.366E+01
   -.989E+01 -.106E+02 -.690E+03   0.989E+01 0.106E+02 0.694E+03   0.565E-03 -.164E-01 -.368E+01
   -.355E+01 -.384E+01 -.693E+03   0.355E+01 0.385E+01 0.697E+03   0.153E-02 -.635E-02 -.367E+01
   -.483E+01 -.423E+01 0.702E+03   0.483E+01 0.424E+01 -.706E+03   0.225E-02 -.769E-02 0.365E+01
   -.403E+01 -.528E+01 0.702E+03   0.403E+01 0.529E+01 -.706E+03   -.114E-02 -.124E-01 0.365E+01
   0.325E-11 -.313E-05 0.642E+01   0.144E-11 0.113E-11 0.224E-10   -.134E-14 0.173E-17 -.677E+01

 POSITION                                       TOTAL-FORCE (eV/Angst)
     11.68311     10.56943     13.94080        -0.000522     -0.000000      0.000285
      9.45574     10.56943     13.94080         0.000522     -0.000000      0.000285
      0.00000      0.00000      9.00000         0.000000     -0.000000      0.333095
      2.11389      2.11389      9.00000         0.000289     -0.001676      0.333126
      0.00000      2.11389     11.11389         0.000000     -0.001543     -0.328865
      2.11389      0.00000     11.11389         0.000668     -0.000000     -0.328801
      0.00000      4.22777      9.00000         0.000000     -0.002719      0.332878
      2.11389      6.34166      9.00000        -0.001473     -0.003950      0.332435
      0.00000      6.34166     11.11389         0.000000     -0.003141     -0.328632
      2.11389      4.22777     11.11389         0.000165     -0.003333     -0.328533
      0.00000      8.45554      9.00000         0.000000     -0.002088      0.332436
      2.11389     10.56943      9.00000        -0.005721     -0.000000      0.332344
      0.00000     10.56943     11.11389         0.000000     -0.000000     -0.328687
      2.11389      8.45554     11.11389        -0.004644     -0.003031     -0.328479
      0.00000     12.68331      9.00000         0.000000      0.002088      0.332436
      2.11389     14.79720      9.00000        -0.001473      0.003950      0.332435
      0.00000     14.79720     11.11389         0.000000      0.003141     -0.328632
      2.11389     12.68331     11.11389        -0.004644      0.003031     -0.328479
      0.00000     16.91108      9.00000         0.000000      0.002719      0.332878
      2.11389     19.02497      9.00000         0.000289      0.001676      0.333126
      0.00000     19.02497     11.11389         0.000000      0.001543     -0.328865
      2.11389     16.91108     11.11389         0.000165      0.003333     -0.328533
      4.22777      0.00000      9.00000         0.000845     -0.000000      0.333406
      6.34166      2.11389      9.00000         0.001042     -0.002660      0.333925
      4.22777      2.11389     11.11389         0.001353     -0.002066     -0.328228
      6.34166      0.00000     11.11389         0.001514     -0.000000     -0.327845
      4.22777      4.22777      9.00000        -0.000218     -0.004433      0.333128
      6.34166      6.34166      9.00000        -0.003319     -0.010386      0.332304
      4.22777      6.34166     11.11389        -0.001479     -0.007880     -0.327369
      6.34166      4.22777     11.11389         0.003256     -0.006088     -0.325284
      4.22777      8.45554      9.00000        -0.006735     -0.006439      0.330090
      6.34166     10.56943      9.00000        -0.004198     -0.000000      0.309670
      4.22777     10.56943     11.11389        -0.024390     -0.000000     -0.328871
      6.34166      8.45554     11.11389        -0.013265     -0.021872     -0.326015
      4.22777     12.68331      9.00000        -0.006735      0.006439      0.330090
      6.34166     14.79720      9.00000        -0.003319      0.010386      0.332304
      4.22777     14.79720     11.11389        -0.001479      0.007880     -0.327369
      6.34166     12.68331     11.11389        -0.013265      0.021872     -0.326015
      4.22777     16.91108      9.00000        -0.000218      0.004433      0.333128
      6.34166     19.02497      9.00000         0.001042      0.002660      0.333925
      4.22777     19.02497     11.11389         0.001353      0.002066     -0.328228
      6.34166     16.91108     11.11389         0.003256      0.006088     -0.325284
      8.45554      0.00000      9.00000         0.000748     -0.000000      0.334008
     10.56943      2.11389      9.00000         0.000000     -0.002293      0.334511
      8.45554      2.11389     11.11389         0.001529     -0.000418     -0.326249
     10.56943      0.00000     11.11389         0.000000     -0.000000     -0.327092
      8.45554      4.22777      9.00000         0.001145     -0.008623      0.336477
     10.56943      6.34166      9.00000         0.000000     -0.014091      0.341328
      8.45554      6.34166     11.11389         0.014166     -0.026500     -0.303277
     10.56943      4.22777     11.11389         0.000000      0.003792     -0.318985
      8.45554      8.45554      9.00000        -0.002527     -0.005569      0.305979
     10.56943     10.56943      9.00000         0.000000     -0.000000      0.279301
      8.45554     10.56943     11.11389        -0.029845     -0.000000     -0.354199
     10.56943      8.45554     11.11389         0.000000     -0.016038     -0.151446
      8.45554     12.68331      9.00000        -0.002527      0.005569      0.305979
     10.56943     14.79720      9.00000         0.000000      0.014091      0.341328
      8.45554     14.79720     11.11389         0.014166      0.026500     -0.303277
     10.56943     12.68331     11.11389         0.000000      0.016038     -0.151446
      8.45554     16.91108      9.00000         0.001145      0.008623      0.336477
     10.56943     19.02497      9.00000         0.000000      0.002293      0.334511
[...]
     19.02497      6.34166     11.11389        -0.001852      0.004969      0.386304
     16.91108      6.34166      9.00000        -0.002541      0.006935     -0.390426
     19.02497      4.22777      9.00000        -0.000332      0.003451     -0.390877
     16.91108      8.45554     11.11389        -0.009341      0.009923      0.388638
     19.02497     10.56943     11.11389        -0.004958     -0.000000      0.386729
     16.91108     10.56943      9.00000        -0.012156     -0.000000     -0.383840
     19.02497      8.45554      9.00000        -0.003701      0.003751     -0.390014
     16.91108     12.68331     11.11389        -0.009341     -0.009923      0.388638
     19.02497     14.79720     11.11389        -0.001852     -0.004969      0.386304
     16.91108     14.79720      9.00000        -0.002541     -0.006935     -0.390426
     19.02497     12.68331      9.00000        -0.003701     -0.003751     -0.390014
     16.91108     16.91108     11.11389         0.000099     -0.004610      0.385455
     19.02497     19.02497     11.11389         0.000413     -0.001768      0.386376
     16.91108     19.02497      9.00000         0.000588     -0.002148     -0.391255
     19.02497     16.91108      9.00000        -0.000332     -0.003451     -0.390877
    total drift:                                0.000000     -0.000003     -0.341619

  FREE ENERGIE OF THE ION-ELECTRON SYSTEM (eV)
  free  energy   TOTEN  =      -793.90403954 eV

  energy  without entropy=     -793.90403954  energy(sigma->0) =     -793.90403954