 vasp.6.4.1 05Apr23 (build May 06 2023 19:47:20) complex

 executed on             LinuxIFC date 2023.07.05  10:59:26

 INCAR:
   SYSTEM = MgO-rocksalt
   ISMEAR = 0
   SIGMA = 0.05
   EDIFF = 1E-6
   ALGO = ALL
   ISTART = 0
   IBRION = -1
   NSW = 0
   ISYM = 2
   DIPOL = 0.5 0.5 0.5
   IDIPOL = 3
   LDIPOL = .TRUE.
   GGA = RE
   IVDW = 11
   ENCUT = 520
   PREC = Accurate
   LASPH = .TRUE.
   LREAL = Auto
   ISPIN = 1
   NELM = 200
   NELMIN = 8
   NCORE = 16
   KPAR = 1
   LWAVE = .FALSE.
   LCHARG = .FALSE.

 POTCAR:    PAW_PBE Ag 02Apr2005
 POTCAR:    PAW_PBE Mg_pv 13Apr2007
 POTCAR:    PAW_PBE O 08Apr2002
 POTCAR:    PAW_PBE Ag 02Apr2005
   VRHFIN =Ag : s1 d10

   TITEL  = PAW_PBE Ag 02Apr2005
   POMASS =  107.868; ZVAL   =   11.000    mass and valenz
   ENMAX  =  249.844; ENMIN  =  187.383 eV

   TITEL  = PAW_PBE Mg_pv 13Apr2007
   POMASS =   24.305; ZVAL   =    8.000    mass and valenz
   ENMAX  =  403.929; ENMIN  =  302.947 eV

   TITEL  = PAW_PBE O 08Apr2002
   POMASS =   16.000; ZVAL   =    6.000    mass and valenz
   ENMAX  =  400.000; ENMIN  =  300.000 eV

 Optimization of the real space projectors (new method)

 maximal supplied QI-value         = 15.12
 optimisation between [QCUT,QGAM] = [ 11.64, 23.28] = [ 37.95,151.78] Ry
 Optimized for a Real-space Cutoff    1.45 Angstroem

   l    n(q)    QCUT    max X(q) W(low)/X(q) W(high)/X(q)  e(spline)
   2      9    11.641    53.897    0.22E-03    0.42E-04    0.28E-06
   2      9    11.641    52.416    0.23E-03    0.44E-04    0.29E-06
   0     10    11.641   122.045    0.51E-04    0.25E-04    0.16E-06
   0     10    11.641    73.629    0.49E-04    0.24E-04    0.16E-06
   1     10    11.641    15.255    0.99E-04    0.55E-04    0.11E-06
   1     10    11.641     9.562    0.81E-04    0.47E-04    0.95E-07
 Optimization of the real space projectors (new method)

[...]

   l    n(q)    QCUT    max X(q) W(low)/X(q) W(high)/X(q)  e(spline)
   1      8    11.527     2.974    0.44E-04    0.56E-04    0.12E-06
   1      8    11.527     4.279    0.12E-03    0.12E-03    0.26E-06
   0      9    11.527    16.381    0.46E-04    0.64E-04    0.78E-07
   0      9    11.527     5.611    0.26E-04    0.43E-04    0.55E-07
   2      8    11.527     4.652    0.22E-03    0.72E-04    0.47E-07
 Optimization of the real space projectors (new method)

 maximal supplied QI-value         = 24.76
 optimisation between [QCUT,QGAM] = [ 11.64, 23.27] = [ 37.91,151.63] Ry
 Optimized for a Real-space Cutoff    1.14 Angstroem

   l    n(q)    QCUT    max X(q) W(low)/X(q) W(high)/X(q)  e(spline)
   0      8    11.635    20.381    0.10E-03    0.33E-03    0.24E-06
   0      8    11.635    15.268    0.11E-03    0.35E-03    0.26E-06
   1      7    11.635     5.964    0.24E-03    0.31E-03    0.30E-06
   1      7    11.635     5.382    0.22E-03    0.25E-03    0.26E-06
|               ----> ADVICE to this user running VASP <----                  |
|     You enforced a specific xc type in the INCAR file but a different       |
|     type was found in the POTCAR file.                                      |
|     I HOPE YOU KNOW WHAT YOU ARE DOING!                                     |

  PAW_PBE Ag 02Apr2005                  :
  PAW_PBE Mg_pv 13Apr2007               :
  PAW_PBE O 08Apr2002                   :

 POSCAR: Ag Mg  O
  positions in direct lattice
  velocities in cartesian coordinates
 exchange correlation table for  LEXCH =       40
   RHO(1)=    0.500       N(1)  =     2000
   RHO(2)=  100.500       N(2)  =     4000

 ion  position               nearest neighbor table
   1  0.286  0.505  0.630-   2 2.73   3 2.73
   2  0.398  0.441  0.622-   3 2.68   4 2.73   1 2.73 153 2.78  55 2.91
   3  0.398  0.568  0.615- 157 2.59   2 2.68   1 2.73   4 2.73  55 2.88
   4  0.510  0.505  0.629-   2 2.73   3 2.73
   5  0.000  0.000  0.407- 107 2.11 108 2.11 123 2.11 188 2.11 105 2.11
   6  0.100  0.100  0.407- 107 2.11 108 2.11 112 2.11 127 2.11 106 2.11
   7  0.000  0.100  0.503- 105 2.11 106 2.11 109 2.11 186 2.11 107 2.11
   8  0.100  0.000  0.503- 105 2.11 106 2.11 122 2.11 125 2.11 108 2.11
   9  0.000  0.200  0.407- 111 2.11 107 2.11 112 2.11 192 2.11 109 2.11
  10  0.100  0.300  0.407- 112 2.11 111 2.11 116 2.11 131 2.11 110 2.11
  11  0.000  0.300  0.503- 109 2.11 110 2.11 113 2.11 190 2.11 111 2.11
  12  0.100  0.200  0.503- 110 2.11 109 2.11 106 2.11 129 2.11 112 2.11
  13  0.000  0.400  0.407- 111 2.11 115 2.11 116 2.11 196 2.11 113 2.11
  14  0.100  0.500  0.407- 115 2.11 116 2.11 120 2.11 135 2.11 114 2.11
  15  0.000  0.500  0.503- 113 2.11 114 2.11 117 2.11 194 2.11 115 2.11
  16  0.100  0.400  0.503- 110 2.11 113 2.11 114 2.11 133 2.11 116 2.11
  17  0.000  0.600  0.407- 115 2.11 119 2.11 120 2.11 200 2.11 117 2.11
  18  0.100  0.700  0.407- 124 2.11 120 2.11 119 2.11 139 2.11 118 2.11
  19  0.000  0.700  0.503- 121 2.11 118 2.11 117 2.11 198 2.11 119 2.11
  20  0.100  0.600  0.503- 114 2.11 117 2.11 118 2.11 137 2.11 120 2.11
  21  0.000  0.800  0.407- 119 2.11 123 2.11 124 2.11 204 2.11 121 2.11
  22  0.100  0.900  0.407- 108 2.11 123 2.11 124 2.11 143 2.11 122 2.11
  23  0.000  0.900  0.503- 105 2.11 121 2.11 122 2.11 202 2.11 123 2.11
  24  0.100  0.800  0.503- 118 2.11 121 2.11 122 2.11 141 2.11 124 2.11
  25  0.200  0.000  0.407- 128 2.11 127 2.11 108 2.11 143 2.11 125 2.11
  26  0.300  0.100  0.407- 127 2.11 128 2.11 132 2.11 147 2.11 126 2.11
  27  0.200  0.100  0.503- 126 2.11 125 2.11 106 2.11 129 2.11 127 2.11
  28  0.300  0.000  0.503- 125 2.11 126 2.11 142 2.11 145 2.11 128 2.11
  29  0.200  0.200  0.407- 131 2.11 132 2.11 112 2.11 127 2.11 129 2.11
  30  0.300  0.300  0.407- 131 2.11 132 2.11 136 2.11 151 2.11 130 2.11
  31  0.200  0.300  0.503- 129 2.11 130 2.11 110 2.11 133 2.11 131 2.11
  32  0.300  0.200  0.503- 129 2.11 130 2.11 126 2.11 149 2.11 132 2.11
  33  0.200  0.400  0.407- 136 2.11 131 2.11 135 2.11 116 2.11 133 2.11
  34  0.300  0.500  0.407- 135 2.11 136 2.11 140 2.11 155 2.11 134 2.11
  35  0.200  0.500  0.503- 134 2.11 133 2.11 114 2.11 137 2.11 135 2.11
  36  0.300  0.400  0.503- 133 2.11 130 2.11 134 2.11 153 2.11 136 2.11
  37  0.200  0.600  0.407- 140 2.11 135 2.11 139 2.11 120 2.11 137 2.11
  38  0.300  0.700  0.407- 139 2.11 144 2.11 140 2.11 159 2.11 138 2.11
  39  0.200  0.700  0.503- 138 2.11 141 2.11 118 2.11 137 2.11 139 2.11
  40  0.300  0.600  0.503- 137 2.11 134 2.11 138 2.11 157 2.11 140 2.11
  41  0.200  0.800  0.407- 139 2.11 144 2.11 143 2.11 124 2.11 141 2.11
  42  0.300  0.900  0.407- 143 2.11 128 2.11 144 2.11 163 2.11 142 2.11
  43  0.200  0.900  0.503- 142 2.11 125 2.11 141 2.11 122 2.11 143 2.11
  44  0.300  0.800  0.503- 138 2.11 141 2.11 142 2.11 161 2.11 144 2.11
  45  0.400  0.000  0.407- 128 2.11 147 2.11 148 2.11 163 2.11 145 2.11
  46  0.500  0.100  0.407- 147 2.11 148 2.11 152 2.11 167 2.11 146 2.11
  47  0.400  0.100  0.503- 126 2.11 145 2.11 146 2.11 149 2.11 147 2.11
  48  0.500  0.000  0.503- 145 2.11 146 2.11 162 2.11 165 2.11 148 2.11
  49  0.400  0.200  0.407- 151 2.11 147 2.11 132 2.11 152 2.11 149 2.11
  50  0.500  0.300  0.407- 152 2.11 151 2.11 156 2.11 171 2.11 150 2.11
  51  0.400  0.300  0.503- 149 2.11 130 2.11 150 2.11 153 2.11 151 2.11
  52  0.500  0.200  0.503- 150 2.11 149 2.11 146 2.11 169 2.11 152 2.11
  53  0.400  0.400  0.407- 136 2.11 151 2.11 155 2.11 156 2.11 153 2.11
  54  0.500  0.500  0.407- 155 2.11 156 2.11 160 2.11 175 2.11 154 2.11
  55  0.400  0.500  0.503- 134 2.11 153 2.11 154 2.11 157 2.11 155 2.11   3 2.88   2 2.91
  56  0.500  0.400  0.503- 150 2.11 153 2.11 154 2.11 173 2.11 156 2.11
  57  0.400  0.600  0.407- 140 2.11 155 2.11 159 2.11 160 2.11 157 2.11
  58  0.500  0.700  0.407- 164 2.11 160 2.11 159 2.11 179 2.11 158 2.11
  59  0.400  0.700  0.503- 161 2.11 157 2.11 158 2.11 138 2.11 159 2.11
  60  0.500  0.600  0.503- 154 2.11 157 2.11 158 2.11 177 2.11 160 2.11
[...]
 190  0.900  0.300  0.503-  92 2.11  91 2.11  11 2.11  96 2.11  90 2.11
 191  0.800  0.300  0.407-  70 2.11  89 2.11  90 2.11  93 2.11  91 2.11
 192  0.900  0.200  0.407-  90 2.11  86 2.11  89 2.11   9 2.11  92 2.11
 193  0.800  0.400  0.503-  76 2.11  91 2.11  95 2.11  96 2.11  93 2.11
 194  0.900  0.500  0.503-  15 2.11  95 2.11  96 2.11 100 2.11  94 2.11
 195  0.800  0.500  0.407-  74 2.11  93 2.11  94 2.11  97 2.11  95 2.11
 196  0.900  0.400  0.407-  13 2.11  90 2.11  93 2.11  94 2.11  96 2.11
 197  0.800  0.600  0.503-  80 2.11  95 2.11  99 2.11 100 2.11  97 2.11
 198  0.900  0.700  0.503- 104 2.11  99 2.11 100 2.11  19 2.11  98 2.11
 199  0.800  0.700  0.407-  78 2.11 101 2.11  98 2.11  97 2.11  99 2.11
 200  0.900  0.600  0.407-  17 2.11  94 2.11  97 2.11  98 2.11 100 2.11
 201  0.800  0.800  0.503-  84 2.11  99 2.11 103 2.11 104 2.11 101 2.11
 202  0.900  0.900  0.503-  23 2.11  88 2.11 103 2.11 104 2.11 102 2.11
 203  0.800  0.900  0.407-  82 2.11  85 2.11 101 2.11 102 2.11 103 2.11
 204  0.900  0.800  0.407-  98 2.11  21 2.11 101 2.11 102 2.11 104 2.11

  LATTYP: Found a simple tetragonal cell.
 ALAT       =    21.1388521970
 C/A-ratio  =     1.0461251639

  Lattice vectors:

 A1 = (  21.1388521970,   0.0000000000,   0.0000000000)
 A2 = (   0.0000000000,  21.1388521970,   0.0000000000)
 A3 = (   0.0000000000,   0.0000000000,  22.1138852197)

Analysis of symmetry for initial positions (statically):
 Subroutine PRICEL returns:
 Original cell was already a primitive cell.

 Routine SETGRP: Setting up the symmetry group for a
 simple tetragonal supercell.

 Subroutine GETGRP returns: Found  1 space group operations
 (whereof  1 operations were pure point group operations)
 out of a pool of 16 trial point group operations.

The static configuration has the point symmetry C_1 .

Analysis of symmetry for dynamics (positions and initial velocities):
 Subroutine PRICEL returns:
 Original cell was already a primitive cell.

[...]

The dynamic configuration has the point symmetry C_1 .

Analysis of constrained symmetry for selective dynamics:
 Subroutine PRICEL returns:
 Original cell was already a primitive cell.

 Routine SETGRP: Setting up the symmetry group for a
 simple tetragonal supercell.

 Subroutine GETGRP returns: Found  1 space group operations
 (whereof  1 operations were pure point group operations)
 out of a pool of 16 trial point group operations.

The constrained configuration has the point symmetry C_1 .

 Subroutine INISYM returns: Found  1 space group operations
 (whereof  1 operations are pure point group operations),
 and found     1 'primitive' translations

                                     Primitive cell

  volume of cell :    9881.6133

  direct lattice vectors                    reciprocal lattice vectors
    21.138852197  0.000000000  0.000000000     0.047306258  0.000000000  0.000000000
     0.000000000 21.138852197  0.000000000     0.000000000  0.047306258  0.000000000
     0.000000000  0.000000000 22.113885220     0.000000000  0.000000000  0.045220457

  length of vectors
    21.138852197 21.138852197 22.113885220     0.047306258  0.047306258  0.045220457

  position of ions in fractional coordinates (direct lattice)
     0.285624611  0.505285429  0.629857969
     0.397515318  0.441309787  0.621723730
     0.397782759  0.567771369  0.615378518
[...]
    903       5.2377      0.00000
    904       5.3249      0.00000
    905       5.4487      0.00000
    906       5.6034      0.00000
    907       5.6608      0.00000
    908       5.7151      0.00000
    909       5.7443      0.00000
    910       5.7767      0.00000
    911       5.8255      0.00000
    912       5.8526      0.00000

 soft charge-density along one line, spin component           1
         0         1         2         3         4         5         6         7         8         9
 total charge-density along one line

------------------------ aborting loop because EDIFF is reached ----------------------------------------

         DFTD3 V3.0 Rev 1
 IVDW         = 11
 DF revpbe
 parameters
 VDW_S6       =    1.0000
 VDW_S8       =    1.0100
 VDW_SR       =    0.9230
 rs18     =    1.0000
 alpha6   =   14.0000
 alpha8   =   16.0000
 k1-k3    =   16.0000    1.3333   -4.0000
 VDW_RADIUS   =   50.2022 A
 VDW_CNRADIUS =   21.1671 A
 Edisp (eV)  -38.75964

 E6    (eV) :   -21.9054
 E8    (eV) :   -16.8542
 % E8        : 43.48

  FORCE on cell =-STRESS in cart. coord.  units (eV):
  Direction    XX          YY          ZZ          XY          YZ          ZX
  Alpha Z  1401.13727  1401.13727  1401.13727
  Ewald  484953.40071483912.36336************    -3.45277   -66.40944   -12.81358
  Hartree514201.00232513300.73921************    -3.23456   -48.85355   -10.09587
  E(xc)   -7907.51857 -7908.36588 -7957.98864    -0.00206    -0.09276    -0.02058
  Local  ************************************     6.73844   114.42944    22.89483
  n-local -8747.69176 -8750.48000 -8869.54595    -0.02000     0.15881     0.04290
  augment  3644.80509  3645.22802  3590.94977    -0.00574     0.20780    -0.02480
  Kinetic 23247.61113 23246.81055 23499.60390    -0.02362     0.53175     0.04910
  Fock        0.00000     0.00000     0.00000     0.00000     0.00000     0.00000
  vdW       -51.57547   -51.68360   -11.90659     0.00625    -0.22704     0.14410
  Total    -152.37468  -153.63267    30.17196     0.00595    -0.25499     0.17611
  in kB     -24.70561   -24.90957     4.89200     0.00096    -0.04134     0.02855

 VOLUME and BASIS-vectors are now :
  energy-cutoff  :      520.00
  volume of cell :     9881.61
      direct lattice vectors                 reciprocal lattice vectors
    21.138852197  0.000000000  0.000000000     0.047306258  0.000000000  0.000000000
     0.000000000 21.138852197  0.000000000     0.000000000  0.047306258  0.000000000
     0.000000000  0.000000000 22.113885220     0.000000000  0.000000000  0.045220457

  length of vectors
    21.138852197 21.138852197 22.113885220     0.047306258  0.047306258  0.045220457

 FORCES acting on ions:
    Electron-Ion                     Ewald-Force                    Non-Local-Force
   0.479E+03 -.317E+01 -.207E+04   -.474E+03 0.321E+01 0.207E+04   -.541E+01 -.334E-01 -.174E-02
   0.197E+01 0.477E+03 -.206E+04   -.191E+01 -.471E+03 0.206E+04   -.624E-01 -.656E+01 0.395E-01
   -.110E+01 -.472E+03 -.205E+04   0.107E+01 0.466E+03 0.205E+04   0.320E-01 0.615E+01 -.191E+00
   -.480E+03 -.529E+00 -.207E+04   0.475E+03 0.553E+00 0.207E+04   0.549E+01 -.300E-01 -.989E-01
   0.656E+01 -.442E+00 0.937E+03   -.659E+01 0.445E+00 -.929E+03   0.181E-01 -.228E-02 -.754E+01
   0.126E+02 0.111E+02 0.941E+03   -.127E+02 -.111E+02 -.933E+03   0.378E-01 -.472E-03 -.754E+01
   0.948E+01 0.103E+02 -.918E+03   -.951E+01 -.103E+02 0.910E+03   0.192E-01 -.111E-01 0.748E+01
   0.134E+02 -.781E+00 -.917E+03   -.134E+02 0.786E+00 0.909E+03   0.317E-01 -.361E-02 0.748E+01
   0.107E+02 0.145E+02 0.941E+03   -.108E+02 -.145E+02 -.933E+03   0.261E-01 -.109E-01 -.754E+01
   0.289E+02 0.252E+02 0.957E+03   -.291E+02 -.251E+02 -.949E+03   0.873E-01 -.712E-02 -.757E+01
   0.229E+02 0.221E+02 -.910E+03   -.229E+02 -.221E+02 0.903E+03   0.155E-01 -.261E-01 0.747E+01
   0.259E+02 0.293E+02 -.910E+03   -.260E+02 -.292E+02 0.902E+03   0.568E-01 -.239E-01 0.747E+01
   0.213E+02 0.114E+02 0.952E+03   -.213E+02 -.114E+02 -.944E+03   0.331E-01 -.892E-02 -.756E+01
   0.473E+02 0.111E+01 0.975E+03   -.474E+02 -.112E+01 -.967E+03   0.116E+00 0.544E-02 -.761E+01
   0.382E+02 0.889E+00 -.902E+03   -.382E+02 -.892E+00 0.895E+03   -.225E-01 0.168E-02 0.746E+01
   0.719E+02 0.329E+02 -.883E+03   -.719E+02 -.328E+02 0.876E+03   0.353E-01 -.474E-01 0.743E+01
   0.218E+02 -.105E+02 0.952E+03   -.218E+02 0.105E+02 -.944E+03   0.373E-01 0.127E-01 -.756E+01
   0.303E+02 -.251E+02 0.958E+03   -.304E+02 0.251E+02 -.950E+03   0.104E+00 0.883E-02 -.757E+01
   0.239E+02 -.220E+02 -.910E+03   -.240E+02 0.220E+02 0.902E+03   0.185E-01 0.274E-01 0.747E+01
   0.747E+02 -.309E+02 -.882E+03   -.748E+02 0.308E+02 0.874E+03   0.418E-01 0.522E-01 0.743E+01
   0.112E+02 -.150E+02 0.941E+03   -.112E+02 0.150E+02 -.934E+03   0.305E-01 0.942E-02 -.754E+01
   0.130E+02 -.122E+02 0.941E+03   -.131E+02 0.123E+02 -.933E+03   0.424E-01 -.665E-02 -.754E+01
   0.982E+01 -.113E+02 -.918E+03   -.985E+01 0.112E+02 0.910E+03   0.213E-01 0.818E-02 0.748E+01
   0.274E+02 -.306E+02 -.909E+03   -.275E+02 0.306E+02 0.902E+03   0.673E-01 0.227E-01 0.747E+01
   0.112E+02 -.838E+00 0.942E+03   -.112E+02 0.846E+00 -.934E+03   0.363E-01 -.693E-02 -.754E+01
   0.854E+01 0.195E+02 0.948E+03   -.858E+01 -.196E+02 -.940E+03   0.312E-01 0.458E-01 -.754E+01
   0.174E+02 0.217E+02 -.912E+03   -.174E+02 -.218E+02 0.904E+03   0.437E-01 0.123E-01 0.748E+01
   0.894E+01 -.145E+01 -.913E+03   -.897E+01 0.146E+01 0.905E+03   0.244E-01 -.955E-02 0.748E+01
   0.207E+02 0.305E+02 0.955E+03   -.208E+02 -.305E+02 -.947E+03   0.802E-01 0.345E-01 -.754E+01
   0.247E+02 0.559E+02 0.995E+03   -.249E+02 -.561E+02 -.987E+03   0.158E+00 0.148E+00 -.751E+01
   0.597E+02 0.712E+02 -.877E+03   -.599E+02 -.712E+02 0.869E+03   0.195E+00 -.542E-01 0.744E+01
   0.217E+02 0.657E+02 -.892E+03   -.218E+02 -.658E+02 0.885E+03   0.666E-01 0.125E+00 0.748E+01
   0.519E+02 0.328E+02 0.100E+04   -.522E+02 -.328E+02 -.994E+03   0.258E+00 0.223E-01 -.764E+01
   0.471E+02 0.348E+01 0.107E+04   -.476E+02 -.354E+01 -.106E+04   0.346E+00 0.438E-01 -.757E+01
   0.154E+03 0.590E+01 -.775E+03   -.154E+03 -.590E+01 0.768E+03   0.299E+00 0.423E-03 0.687E+01
   0.103E+03 0.138E+03 -.725E+03   -.105E+03 -.138E+03 0.718E+03   0.928E+00 0.868E-01 0.694E+01
   0.538E+02 -.306E+02 0.100E+04   -.542E+02 0.306E+02 -.996E+03   0.300E+00 -.253E-02 -.765E+01
   0.264E+02 -.570E+02 0.999E+03   -.267E+02 0.573E+02 -.992E+03   0.191E+00 -.165E+00 -.749E+01
   0.643E+02 -.736E+02 -.873E+03   -.646E+02 0.735E+02 0.865E+03   0.243E+00 0.603E-01 0.743E+01
   0.113E+03 -.135E+03 -.706E+03   -.115E+03 0.135E+03 0.699E+03   0.122E+01 -.164E-01 0.670E+01
   0.219E+02 -.319E+02 0.956E+03   -.220E+02 0.320E+02 -.949E+03   0.959E-01 -.473E-01 -.754E+01
   0.891E+01 -.217E+02 0.949E+03   -.895E+01 0.218E+02 -.941E+03   0.357E-01 -.696E-01 -.754E+01
   0.182E+02 -.241E+02 -.911E+03   -.183E+02 0.242E+02 0.904E+03   0.491E-01 -.256E-01 0.748E+01
   0.236E+02 -.705E+02 -.890E+03   -.237E+02 0.707E+02 0.882E+03   0.797E-01 -.166E+00 0.748E+01
   -.177E+00 -.113E+01 0.945E+03   0.176E+00 0.115E+01 -.938E+03   0.104E-02 -.121E-01 -.754E+01
   -.886E+01 0.194E+02 0.948E+03   0.889E+01 -.194E+02 -.940E+03   -.294E-01 0.460E-01 -.754E+01
   -.282E+00 0.315E+02 -.907E+03   0.281E+00 -.316E+02 0.900E+03   0.110E-02 0.651E-01 0.748E+01
   -.928E+01 -.142E+01 -.913E+03   0.931E+01 0.143E+01 0.905E+03   -.226E-01 -.100E-01 0.748E+01
   -.334E+00 0.442E+02 0.967E+03   0.332E+00 -.445E+02 -.959E+03   0.144E-02 0.189E+00 -.755E+01
   -.254E+02 0.553E+02 0.994E+03   0.256E+02 -.555E+02 -.986E+03   -.152E+00 0.159E+00 -.752E+01
   -.132E+01 0.139E+03 -.825E+03   0.132E+01 -.140E+03 0.818E+03   -.355E-04 0.841E+00 0.760E+01
   -.224E+02 0.650E+02 -.893E+03   0.225E+02 -.651E+02 0.885E+03   -.639E-01 0.124E+00 0.748E+01
   -.929E+00 0.558E+02 0.106E+04   0.910E+00 -.560E+02 -.105E+04   0.145E-01 0.200E+00 -.652E+01
   -.485E+02 0.336E+01 0.107E+04   0.489E+02 -.342E+01 -.106E+04   -.336E+00 0.436E-01 -.752E+01
   -.349E+01 0.173E+02 -.518E+03   0.345E+01 -.177E+02 0.512E+03   0.404E-01 0.315E+00 0.550E+01
   -.105E+03 0.137E+03 -.729E+03   0.106E+03 -.137E+03 0.722E+03   -.905E+00 0.132E+00 0.695E+01
   -.104E+01 -.521E+02 0.107E+04   0.102E+01 0.523E+02 -.106E+04   0.152E-01 -.143E+00 -.617E+01
   -.273E+02 -.564E+02 0.998E+03   0.275E+02 0.567E+02 -.991E+03   -.184E+00 -.176E+00 -.750E+01
   -.166E+01 -.149E+03 -.813E+03   0.165E+01 0.151E+03 0.805E+03   0.377E-02 -.111E+01 0.764E+01
   -.115E+03 -.133E+03 -.711E+03   0.116E+03 0.133E+03 0.705E+03   -.119E+01 -.590E-01 0.675E+01
[...]
   -.114E+02 0.121E+02 0.711E+03   0.114E+02 -.121E+02 -.715E+03   -.306E-01 -.108E-01 0.342E+01
   0.178E+00 0.927E+01 0.706E+03   -.177E+00 -.926E+01 -.710E+03   -.216E-02 -.114E-01 0.343E+01
   -.236E+02 0.118E+02 -.681E+03   0.236E+02 -.118E+02 0.685E+03   -.134E-01 -.211E-01 -.356E+01
   0.590E+00 0.464E+00 -.683E+03   -.586E+00 -.466E+00 0.688E+03   -.595E-02 0.183E-02 -.355E+01
   -.172E+02 0.444E+00 0.717E+03   0.173E+02 -.447E+00 -.721E+03   -.270E-01 0.348E-02 0.341E+01
   0.339E+00 0.683E+01 0.711E+03   -.336E+00 -.683E+01 -.715E+03   -.461E-02 -.881E-02 0.342E+01
   -.242E+02 -.110E+02 -.680E+03   0.242E+02 0.110E+02 0.685E+03   -.160E-01 0.254E-01 -.356E+01
   0.403E+00 -.128E+02 -.687E+03   -.400E+00 0.128E+02 0.691E+03   -.422E-02 0.228E-01 -.353E+01
   -.118E+02 -.119E+02 0.711E+03   0.119E+02 0.119E+02 -.716E+03   -.351E-01 0.122E-01 0.342E+01
   0.356E+00 -.630E+01 0.712E+03   -.353E+00 0.629E+01 -.716E+03   -.488E-02 0.125E-01 0.342E+01
   -.108E+02 -.144E+02 -.688E+03   0.109E+02 0.144E+02 0.692E+03   -.263E-01 0.139E-01 -.353E+01
   0.177E+00 -.711E+01 -.691E+03   -.175E+00 0.711E+01 0.695E+03   -.176E-02 0.651E-02 -.352E+01
   -.560E+01 -.658E+01 0.705E+03   0.562E+01 0.658E+01 -.709E+03   -.256E-01 -.316E-03 0.344E+01
   0.196E+00 -.952E+01 0.706E+03   -.195E+00 0.951E+01 -.710E+03   -.249E-02 0.990E-02 0.343E+01
   0.345E-01 0.553E+00 0.124E+02   0.217E-11 -.112E-11 -.853E-11   -.350E-01 -.560E+00 -.131E+02

 POSITION                                       TOTAL-FORCE (eV/Angst)
      6.03778     10.68115     13.92861        -0.249467     -0.031138     -0.205348
      8.40302      9.32878     13.74873         0.012332     -0.535378     -0.037254
      8.40867     12.00204     13.60841         0.028034      0.531937      0.059738
     10.77601     10.66514     13.90267         0.274891     -0.035679     -0.198278
      0.00000      0.00000      9.00000        -0.004945      0.000660      0.234129
      2.11389      2.11389      9.00000        -0.010389      0.000112      0.234328
      0.00000      2.11389     11.11389        -0.005091      0.003141     -0.216597
      2.11389      0.00000     11.11389        -0.008718      0.000979     -0.216468
      0.00000      4.22777      9.00000        -0.006747      0.003183      0.235859
      2.11389      6.34166      9.00000        -0.022005      0.002778      0.242339
      0.00000      6.34166     11.11389        -0.002861      0.008018     -0.211074
      2.11389      4.22777     11.11389        -0.014330      0.007346     -0.211800
      0.00000      8.45554      9.00000        -0.008076      0.003055      0.240791
      2.11389     10.56943      9.00000        -0.027713     -0.001461      0.256673
      0.00000     10.56943     11.11389         0.009157     -0.000381     -0.203375
      2.11389      8.45554     11.11389         0.007805      0.023541     -0.176096
      0.00000     12.68331      9.00000        -0.009139     -0.004029      0.241075
      2.11389     14.79720      9.00000        -0.026251     -0.003204      0.243375
      0.00000     14.79720     11.11389        -0.003449     -0.008362     -0.210385
      2.11389     12.68331     11.11389         0.007570     -0.025235     -0.172415
      0.00000     16.91108      9.00000        -0.007884     -0.002699      0.236066
      2.11389     19.02497      9.00000        -0.011612      0.001906      0.234372
      0.00000     19.02497     11.11389        -0.005608     -0.002268     -0.216355
      2.11389     16.91108     11.11389        -0.016858     -0.007043     -0.210666
      4.22777      0.00000      9.00000        -0.010227      0.001872      0.233967
      6.34166      2.11389      9.00000        -0.009056     -0.011757      0.234111
      4.22777      2.11389     11.11389        -0.012138     -0.002619     -0.214741
      6.34166      0.00000     11.11389        -0.006932      0.002489     -0.215616
      4.22777      4.22777      9.00000        -0.022325     -0.009532      0.234906
      6.34166      6.34166      9.00000        -0.048575     -0.040856      0.225086
      4.22777      6.34166     11.11389        -0.039021      0.031420     -0.175480
      6.34166      4.22777     11.11389        -0.018843     -0.028123     -0.209085
      4.22777      8.45554      9.00000        -0.061195     -0.001121      0.264964
      6.34166     10.56943      9.00000        -0.096792     -0.012097      0.229320
      4.22777     10.56943     11.11389        -0.077459     -0.000323     -0.054545
      6.34166      8.45554     11.11389        -0.258102      0.116102      0.132093
      4.22777     12.68331      9.00000        -0.070413     -0.004605      0.266939
      6.34166     14.79720      9.00000        -0.058658      0.046567      0.219564
      4.22777     14.79720     11.11389        -0.046736     -0.037376     -0.164362
      6.34166     12.68331     11.11389        -0.419729     -0.063911      0.038143
      4.22777     16.91108      9.00000        -0.026740      0.013254      0.234833
      6.34166     19.02497      9.00000        -0.010370      0.018087      0.234214
      4.22777     19.02497     11.11389        -0.013599      0.006053     -0.214046
      6.34166     16.91108     11.11389        -0.022144      0.037715     -0.205900
      8.45554      0.00000      9.00000        -0.000292      0.003178      0.234063
     10.56943      2.11389      9.00000         0.008545     -0.011863      0.234071
      8.45554      2.11389     11.11389        -0.000300     -0.015600     -0.214852
     10.56943      0.00000     11.11389         0.006434      0.002622     -0.215641
      8.45554      4.22777      9.00000        -0.000391     -0.045734      0.235615
     10.56943      6.34166      9.00000         0.046983     -0.043890      0.226254
      8.45554      6.34166     11.11389        -0.000840     -0.157437     -0.168000
     10.56943      4.22777     11.11389         0.018031     -0.027777     -0.208987
      8.45554      8.45554      9.00000        -0.004920     -0.032693      0.040693
     10.56943     10.56943      9.00000         0.093977     -0.012183      0.218366
      8.45554     10.56943     11.11389         0.002479     -0.136380     -0.416734
     10.56943      8.45554     11.11389         0.215561      0.101578      0.155493
      8.45554     12.68331      9.00000        -0.005265      0.019119     -0.024199
     10.56943     14.79720      9.00000         0.056797      0.049642      0.219870
      8.45554     14.79720     11.11389        -0.002456      0.223155     -0.170914
     10.56943     12.68331     11.11389         0.367717     -0.052148      0.063287
[...]
     19.02497      6.34166     11.11389        -0.001032     -0.005968      0.561630
     16.91108      6.34166      9.00000        -0.008660     -0.002913     -0.586708
     19.02497      4.22777      9.00000        -0.000587     -0.003109     -0.584369
     16.91108      8.45554     11.11389        -0.004354     -0.005690      0.554965
     19.02497     10.56943     11.11389        -0.001642      0.000535      0.558100
     16.91108     10.56943      9.00000        -0.008154      0.000984     -0.591235
     19.02497      8.45554      9.00000        -0.001262     -0.002536     -0.587363
     16.91108     12.68331     11.11389        -0.005096      0.006916      0.554420
     19.02497     14.79720     11.11389        -0.001164      0.006381      0.561210
     16.91108     14.79720      9.00000        -0.009910      0.003369     -0.586913
     19.02497     12.68331      9.00000        -0.001352      0.003593     -0.587468
     16.91108     16.91108     11.11389        -0.007344      0.003846      0.562553
     19.02497     19.02497     11.11389        -0.000464      0.001840      0.565261
     16.91108     19.02497      9.00000        -0.007093     -0.000050     -0.583568
     19.02497     16.91108      9.00000        -0.000675      0.002783     -0.584474
    total drift:                               -0.000557     -0.006494     -0.664803

  FREE ENERGIE OF THE ION-ELECTRON SYSTEM (eV)
  free  energy   TOTEN  =     -1130.02809210 eV

  energy  without entropy=    -1130.02809210  energy(sigma->0) =    -1130.02809210