 vasp.6.3.0 20Jan22 (build Apr  1 2022 16:44:48) complex
 executed on        HPECrayEX_GCC date 2023.01.09  21:07:52

 INCAR:
   SYSTEM = MgO-rocksalt
   ISMEAR = 0
   SIGMA = 0.05
   EDIFF = 1E-6
   ALGO = ALL
   ISTART = 0
   IBRION = -1
   NSW = 0
   ISYM = 2
   DIPOL = 0.5 0.5 0.5
   IDIPOL = 3
   LDIPOL = .TRUE.
   GGA = RE
   LUSE_VDW = .TRUE.
   AGGAC = 0.0
   ENCUT = 520
   PREC = Accurate
   LASPH = .TRUE.
   LREAL = Auto
   ISPIN = 1
   NELM = 200
   NELMIN = 8
   NCORE = 4
   KPAR = 2
   LWAVE = .FALSE.
   LCHARG = .FALSE.

 POTCAR:    PAW_PBE Ag 02Apr2005
 POTCAR:    PAW_PBE Mg_pv 13Apr2007
 POTCAR:    PAW_PBE O 08Apr2002
|               ----> ADVICE to this user running VASP <----                  |
|     You have switched on vdW-DFT.                                           |
|     This routine was written and supplied by Jiri Klimes. We recommend      |
|     that you carefully read and cite the following publications:            |
|       J. Klimes, D.R. Bowler, A. Michelides                                 |
|          J. Phys.: Cond Matt. 22 022201 (2010)                              |
|       J. Klimes, D.R. Bowler, A. Michelides                                 |
|          Phys. Rev. B. 83, 195131 (2011)                                    |
|     and references therein.                                                 |

   TITEL  = PAW_PBE Ag 02Apr2005
   POMASS =  107.868; ZVAL   =   11.000    mass and valenz
   ENMAX  =  249.844; ENMIN  =  187.383 eV

   TITEL  = PAW_PBE Mg_pv 13Apr2007
   POMASS =   24.305; ZVAL   =    8.000    mass and valenz
   ENMAX  =  403.929; ENMIN  =  302.947 eV

   TITEL  = PAW_PBE O 08Apr2002
   POMASS =   16.000; ZVAL   =    6.000    mass and valenz
   ENMAX  =  400.000; ENMIN  =  300.000 eV

 Optimization of the real space projectors (new method)

 maximal supplied QI-value         = 15.12
 optimisation between [QCUT,QGAM] = [ 11.64, 23.28] = [ 37.95,151.78] Ry
 Optimized for a Real-space Cutoff    1.45 Angstroem

   l    n(q)    QCUT    max X(q) W(low)/X(q) W(high)/X(q)  e(spline)
   2      9    11.641    53.897    0.22E-03    0.42E-04    0.28E-06
   2      9    11.641    52.416    0.23E-03    0.44E-04    0.29E-06
   0     10    11.641   122.045    0.51E-04    0.25E-04    0.16E-06
   0     10    11.641    73.629    0.49E-04    0.24E-04    0.16E-06
   1     10    11.641    15.255    0.99E-04    0.55E-04    0.11E-06
   1     10    11.641     9.562    0.81E-04    0.47E-04    0.95E-07
 Optimization of the real space projectors (new method)

[...]

   l    n(q)    QCUT    max X(q) W(low)/X(q) W(high)/X(q)  e(spline)
   1      8    11.527     2.974    0.44E-04    0.56E-04    0.12E-06
   1      8    11.527     4.279    0.12E-03    0.12E-03    0.26E-06
   0      9    11.527    16.381    0.46E-04    0.64E-04    0.78E-07
   0      9    11.527     5.611    0.26E-04    0.43E-04    0.55E-07
   2      8    11.527     4.652    0.22E-03    0.72E-04    0.47E-07
 Optimization of the real space projectors (new method)

 maximal supplied QI-value         = 24.76
 optimisation between [QCUT,QGAM] = [ 11.64, 23.27] = [ 37.91,151.63] Ry
 Optimized for a Real-space Cutoff    1.14 Angstroem

   l    n(q)    QCUT    max X(q) W(low)/X(q) W(high)/X(q)  e(spline)
   0      8    11.635    20.381    0.10E-03    0.33E-03    0.24E-06
   0      8    11.635    15.268    0.11E-03    0.35E-03    0.26E-06
   1      7    11.635     5.964    0.24E-03    0.31E-03    0.30E-06
   1      7    11.635     5.382    0.22E-03    0.25E-03    0.26E-06
|               ----> ADVICE to this user running VASP <----                  |
|     You enforced a specific xc type in the INCAR file but a different       |
|     type was found in the POTCAR file.                                      |
|     I HOPE YOU KNOW WHAT YOU ARE DOING!                                     |

  PAW_PBE Ag 02Apr2005                  :
  PAW_PBE Mg_pv 13Apr2007               :
  PAW_PBE O 08Apr2002                   :

 POSCAR: Ag Mg  O
  positions in direct lattice
  velocities in cartesian coordinates
 exchange correlation table for  LEXCH =       40
   RHO(1)=    0.500       N(1)  =     2000
   RHO(2)=  100.500       N(2)  =     4000

 ion  position               nearest neighbor table
   1  0.400  0.563  0.612- 157 2.54   4 2.67   3 2.71  55 2.75
   2  0.400  0.500  0.835-   3 2.58
   3  0.400  0.499  0.718-   2 2.58   1 2.71   4 2.71
   4  0.400  0.436  0.612- 153 2.53   1 2.67   3 2.71  55 2.76
   5  0.000  0.000  0.407- 107 2.11 108 2.11 123 2.11 188 2.11 105 2.11
   6  0.100  0.100  0.407- 107 2.11 108 2.11 112 2.11 127 2.11 106 2.11
   7  0.000  0.100  0.503- 105 2.11 106 2.11 109 2.11 186 2.11 107 2.11
   8  0.100  0.000  0.503- 105 2.11 106 2.11 122 2.11 125 2.11 108 2.11
   9  0.000  0.200  0.407- 111 2.11 107 2.11 112 2.11 192 2.11 109 2.11
  10  0.100  0.300  0.407- 112 2.11 111 2.11 116 2.11 131 2.11 110 2.11
  11  0.000  0.300  0.503- 109 2.11 110 2.11 113 2.11 190 2.11 111 2.11
  12  0.100  0.200  0.503- 110 2.11 109 2.11 106 2.11 129 2.11 112 2.11
  13  0.000  0.400  0.407- 111 2.11 115 2.11 116 2.11 196 2.11 113 2.11
  14  0.100  0.500  0.407- 115 2.11 116 2.11 120 2.11 135 2.11 114 2.11
  15  0.000  0.500  0.503- 113 2.11 114 2.11 117 2.11 194 2.11 115 2.11
  16  0.100  0.400  0.503- 110 2.11 113 2.11 114 2.11 133 2.11 116 2.11
  17  0.000  0.600  0.407- 115 2.11 119 2.11 120 2.11 200 2.11 117 2.11
  18  0.100  0.700  0.407- 124 2.11 120 2.11 119 2.11 139 2.11 118 2.11
  19  0.000  0.700  0.503- 121 2.11 118 2.11 117 2.11 198 2.11 119 2.11
  20  0.100  0.600  0.503- 114 2.11 117 2.11 118 2.11 137 2.11 120 2.11
  21  0.000  0.800  0.407- 119 2.11 123 2.11 124 2.11 204 2.11 121 2.11
  22  0.100  0.900  0.407- 108 2.11 123 2.11 124 2.11 143 2.11 122 2.11
  23  0.000  0.900  0.503- 105 2.11 121 2.11 122 2.11 202 2.11 123 2.11
  24  0.100  0.800  0.503- 118 2.11 121 2.11 122 2.11 141 2.11 124 2.11
  25  0.200  0.000  0.407- 128 2.11 127 2.11 108 2.11 143 2.11 125 2.11
  26  0.300  0.100  0.407- 127 2.11 128 2.11 132 2.11 147 2.11 126 2.11
  27  0.200  0.100  0.503- 126 2.11 125 2.11 106 2.11 129 2.11 127 2.11
  28  0.300  0.000  0.503- 125 2.11 126 2.11 142 2.11 145 2.11 128 2.11
  29  0.200  0.200  0.407- 131 2.11 132 2.11 112 2.11 127 2.11 129 2.11
  30  0.300  0.300  0.407- 131 2.11 132 2.11 136 2.11 151 2.11 130 2.11
  31  0.200  0.300  0.503- 129 2.11 130 2.11 110 2.11 133 2.11 131 2.11
  32  0.300  0.200  0.503- 129 2.11 130 2.11 126 2.11 149 2.11 132 2.11
  33  0.200  0.400  0.407- 136 2.11 131 2.11 135 2.11 116 2.11 133 2.11
  34  0.300  0.500  0.407- 135 2.11 136 2.11 140 2.11 155 2.11 134 2.11
  35  0.200  0.500  0.503- 134 2.11 133 2.11 114 2.11 137 2.11 135 2.11
  36  0.300  0.400  0.503- 133 2.11 130 2.11 134 2.11 153 2.11 136 2.11
  37  0.200  0.600  0.407- 140 2.11 135 2.11 139 2.11 120 2.11 137 2.11
  38  0.300  0.700  0.407- 139 2.11 144 2.11 140 2.11 159 2.11 138 2.11
  39  0.200  0.700  0.503- 138 2.11 141 2.11 118 2.11 137 2.11 139 2.11
  40  0.300  0.600  0.503- 137 2.11 134 2.11 138 2.11 157 2.11 140 2.11
  41  0.200  0.800  0.407- 139 2.11 144 2.11 143 2.11 124 2.11 141 2.11
  42  0.300  0.900  0.407- 143 2.11 128 2.11 144 2.11 163 2.11 142 2.11
  43  0.200  0.900  0.503- 142 2.11 125 2.11 141 2.11 122 2.11 143 2.11
  44  0.300  0.800  0.503- 138 2.11 141 2.11 142 2.11 161 2.11 144 2.11
  45  0.400  0.000  0.407- 128 2.11 147 2.11 148 2.11 163 2.11 145 2.11
  46  0.500  0.100  0.407- 147 2.11 148 2.11 152 2.11 167 2.11 146 2.11
  47  0.400  0.100  0.503- 126 2.11 145 2.11 146 2.11 149 2.11 147 2.11
  48  0.500  0.000  0.503- 145 2.11 146 2.11 162 2.11 165 2.11 148 2.11
  49  0.400  0.200  0.407- 151 2.11 147 2.11 132 2.11 152 2.11 149 2.11
  50  0.500  0.300  0.407- 152 2.11 151 2.11 156 2.11 171 2.11 150 2.11
  51  0.400  0.300  0.503- 149 2.11 130 2.11 150 2.11 153 2.11 151 2.11
  52  0.500  0.200  0.503- 150 2.11 149 2.11 146 2.11 169 2.11 152 2.11
  53  0.400  0.400  0.407- 136 2.11 151 2.11 155 2.11 156 2.11 153 2.11
  54  0.500  0.500  0.407- 155 2.11 156 2.11 160 2.11 175 2.11 154 2.11
  55  0.400  0.500  0.503- 134 2.11 153 2.11 154 2.11 157 2.11 155 2.11   1 2.75   4 2.76
  56  0.500  0.400  0.503- 150 2.11 153 2.11 154 2.11 173 2.11 156 2.11
  57  0.400  0.600  0.407- 140 2.11 155 2.11 159 2.11 160 2.11 157 2.11
  58  0.500  0.700  0.407- 164 2.11 160 2.11 159 2.11 179 2.11 158 2.11
  59  0.400  0.700  0.503- 161 2.11 157 2.11 158 2.11 138 2.11 159 2.11
  60  0.500  0.600  0.503- 154 2.11 157 2.11 158 2.11 177 2.11 160 2.11
[...]
 190  0.900  0.300  0.503-  92 2.11  91 2.11  11 2.11  96 2.11  90 2.11
 191  0.800  0.300  0.407-  70 2.11  89 2.11  90 2.11  93 2.11  91 2.11
 192  0.900  0.200  0.407-  90 2.11  86 2.11  89 2.11   9 2.11  92 2.11
 193  0.800  0.400  0.503-  76 2.11  91 2.11  95 2.11  96 2.11  93 2.11
 194  0.900  0.500  0.503-  15 2.11  95 2.11  96 2.11 100 2.11  94 2.11
 195  0.800  0.500  0.407-  74 2.11  93 2.11  94 2.11  97 2.11  95 2.11
 196  0.900  0.400  0.407-  13 2.11  90 2.11  93 2.11  94 2.11  96 2.11
 197  0.800  0.600  0.503-  80 2.11  95 2.11  99 2.11 100 2.11  97 2.11
 198  0.900  0.700  0.503- 104 2.11  99 2.11 100 2.11  19 2.11  98 2.11
 199  0.800  0.700  0.407-  78 2.11 101 2.11  98 2.11  97 2.11  99 2.11
 200  0.900  0.600  0.407-  17 2.11  94 2.11  97 2.11  98 2.11 100 2.11
 201  0.800  0.800  0.503-  84 2.11  99 2.11 103 2.11 104 2.11 101 2.11
 202  0.900  0.900  0.503-  23 2.11  88 2.11 103 2.11 104 2.11 102 2.11
 203  0.800  0.900  0.407-  82 2.11  85 2.11 101 2.11 102 2.11 103 2.11
 204  0.900  0.800  0.407-  98 2.11  21 2.11 101 2.11 102 2.11 104 2.11

  LATTYP: Found a simple tetragonal cell.
 ALAT       =    21.1388521970
 C/A-ratio  =     1.0461251639

  Lattice vectors:

 A1 = (  21.1388521970,   0.0000000000,   0.0000000000)
 A2 = (   0.0000000000,  21.1388521970,   0.0000000000)
 A3 = (   0.0000000000,   0.0000000000,  22.1138852197)

Analysis of symmetry for initial positions (statically):
 Subroutine PRICEL returns:
 Original cell was already a primitive cell.

 Routine SETGRP: Setting up the symmetry group for a
 simple tetragonal supercell.

 Subroutine GETGRP returns: Found  1 space group operations
 (whereof  1 operations were pure point group operations)
 out of a pool of 16 trial point group operations.

The static configuration has the point symmetry C_1 .

Analysis of symmetry for dynamics (positions and initial velocities):
 Subroutine PRICEL returns:
 Original cell was already a primitive cell.

[...]

The dynamic configuration has the point symmetry C_1 .

Analysis of constrained symmetry for selective dynamics:
 Subroutine PRICEL returns:
 Original cell was already a primitive cell.

 Routine SETGRP: Setting up the symmetry group for a
 simple tetragonal supercell.

 Subroutine GETGRP returns: Found  1 space group operations
 (whereof  1 operations were pure point group operations)
 out of a pool of 16 trial point group operations.

The constrained configuration has the point symmetry C_1 .

 Subroutine INISYM returns: Found  1 space group operations
 (whereof  1 operations are pure point group operations),
 and found     1 'primitive' translations

                                     Primitive cell

[...]
     52     -43.6697      2.00000
     53     -43.6695      2.00000
     54     -43.6553      2.00000
     55     -43.6531      2.00000
     56     -43.6531      2.00000
     57     -43.6526      2.00000
     58     -43.6525      2.00000
     59     -43.6520      2.00000
     60     -43.6510      2.00000
[...]
    946       5.4764      0.00000
    947       5.4867      0.00000
    948       5.4985      0.00000
    949       5.5122      0.00000
    950       5.5251      0.00000
    951       5.5323      0.00000
    952       5.5438      0.00000
    953       5.5451      0.00000
    954       5.5921      0.00000
    955       5.6438      0.00000
    956       5.7661      0.00000
    957       5.7894      0.00000
    958       5.9180      0.00000
    959       6.0118      0.00000
    960       6.1255      0.00000

 soft charge-density along one line, spin component           1
         0         1         2         3         4         5         6         7         8         9
 total charge-density along one line

------------------------ aborting loop because EDIFF is reached ----------------------------------------

  FORCE on cell =-STRESS in cart. coord.  units (eV):
  Direction    XX          YY          ZZ          XY          YZ          ZX
  Alpha Z  1401.13727  1401.13727  1401.13727
  Ewald  473476.01013474520.77188************     0.52185     3.38727    -0.69588
  Hartree502860.35735503647.94200************     0.38647     2.58473    -0.59286
  E(xc)   -8094.38576 -8093.41419 -8109.35912     0.00040     0.00289     0.00045
  Local  ************************************    -0.90072    -5.93972     1.29380
  n-local -8803.48483 -8805.61723 -8918.84399    -0.00015     0.00708    -0.00526
  augment  3750.03751  3747.23189  3690.35552    -0.00230    -0.01459     0.00324
  Kinetic 23312.67975 23305.67562 23512.33640    -0.00426     0.00003    -0.01066
  Fock        0.00000     0.00000     0.00000     0.00000     0.00000     0.00000
  Total    -118.96315  -118.10498    40.96161     0.00130     0.02769    -0.00717
  in kB     -19.28835   -19.14921     6.64140     0.00021     0.00449    -0.00116

 VOLUME and BASIS-vectors are now :
  energy-cutoff  :      520.00
  volume of cell :     9881.61
      direct lattice vectors                 reciprocal lattice vectors
    21.138852197  0.000000000  0.000000000     0.047306258  0.000000000  0.000000000
     0.000000000 21.138852197  0.000000000     0.000000000  0.047306258  0.000000000
     0.000000000  0.000000000 22.113885220     0.000000000  0.000000000  0.045220457

  length of vectors
    21.138852197 21.138852197 22.113885220     0.047306258  0.047306258  0.045220457

 FORCES acting on ions:
    Electron-Ion                     Ewald-Force                    Non-Local-Force
   -.473E+00 -.382E+03 -.187E+04   0.464E+00 0.376E+03 0.187E+04   0.629E-02 0.629E+01 -.178E+01
   -.147E+00 -.987E+00 -.113E+04   0.141E+00 0.967E+00 0.113E+04   0.547E-02 0.217E-01 0.644E+01
   0.645E+00 0.108E+01 -.162E+04   -.637E+00 -.107E+01 0.162E+04   -.758E-02 -.200E-01 -.134E+01
   -.786E-01 0.381E+03 -.187E+04   0.760E-01 -.376E+03 0.187E+04   0.606E-03 -.627E+01 -.177E+01
   0.615E+01 0.323E-01 0.934E+03   -.618E+01 -.325E-01 -.927E+03   0.242E-01 0.161E-03 -.684E+01
   0.120E+02 0.911E+01 0.937E+03   -.121E+02 -.914E+01 -.930E+03   0.526E-01 0.214E-01 -.685E+01
   0.880E+01 0.829E+01 -.917E+03   -.884E+01 -.829E+01 0.910E+03   0.288E-01 0.475E-02 0.673E+01
   0.129E+02 0.589E-01 -.916E+03   -.129E+02 -.592E-01 0.909E+03   0.399E-01 0.282E-03 0.673E+01
   0.945E+01 0.111E+02 0.937E+03   -.950E+01 -.111E+02 -.930E+03   0.422E-01 0.116E-01 -.685E+01
   0.245E+02 0.176E+02 0.948E+03   -.247E+02 -.177E+02 -.941E+03   0.132E+00 0.281E-01 -.686E+01
   0.182E+02 0.153E+02 -.911E+03   -.182E+02 -.153E+02 0.904E+03   0.516E-01 0.376E-02 0.672E+01
   0.234E+02 0.220E+02 -.910E+03   -.235E+02 -.220E+02 0.903E+03   0.922E-01 0.223E-01 0.672E+01
   0.163E+02 0.757E+01 0.943E+03   -.164E+02 -.757E+01 -.936E+03   0.666E-01 0.545E-02 -.686E+01
   0.355E+02 -.655E-01 0.957E+03   -.357E+02 0.660E-01 -.950E+03   0.159E+00 -.336E-03 -.687E+01
   0.261E+02 -.528E-01 -.906E+03   -.262E+02 0.530E-01 0.900E+03   0.567E-01 -.151E-03 0.671E+01
   0.515E+02 0.180E+02 -.894E+03   -.517E+02 -.180E+02 0.887E+03   0.150E+00 0.507E-02 0.670E+01
   0.163E+02 -.763E+01 0.943E+03   -.164E+02 0.763E+01 -.936E+03   0.664E-01 -.572E-02 -.686E+01
   0.244E+02 -.177E+02 0.948E+03   -.246E+02 0.177E+02 -.940E+03   0.131E+00 -.283E-01 -.686E+01
   0.181E+02 -.153E+02 -.911E+03   -.182E+02 0.153E+02 0.904E+03   0.513E-01 -.386E-02 0.672E+01
   0.514E+02 -.181E+02 -.894E+03   -.516E+02 0.181E+02 0.887E+03   0.149E+00 -.555E-02 0.670E+01
   0.942E+01 -.111E+02 0.937E+03   -.947E+01 0.111E+02 -.930E+03   0.419E-01 -.115E-01 -.685E+01
   0.120E+02 -.903E+01 0.937E+03   -.121E+02 0.905E+01 -.930E+03   0.523E-01 -.209E-01 -.685E+01
   0.878E+01 -.821E+01 -.917E+03   -.882E+01 0.822E+01 0.910E+03   0.286E-01 -.450E-02 0.673E+01
   0.233E+02 -.219E+02 -.910E+03   -.234E+02 0.219E+02 0.903E+03   0.914E-01 -.221E-01 0.672E+01
   0.109E+02 0.637E-01 0.938E+03   -.110E+02 -.642E-01 -.931E+03   0.448E-01 0.446E-03 -.685E+01
   0.865E+01 0.169E+02 0.944E+03   -.870E+01 -.170E+02 -.937E+03   0.408E-01 0.930E-01 -.685E+01
   0.172E+02 0.184E+02 -.910E+03   -.173E+02 -.185E+02 0.903E+03   0.583E-01 0.562E-01 0.672E+01
   0.908E+01 0.118E+00 -.911E+03   -.912E+01 -.119E+00 0.904E+03   0.282E-01 0.682E-03 0.672E+01
   0.196E+02 0.239E+02 0.948E+03   -.197E+02 -.240E+02 -.941E+03   0.113E+00 0.862E-01 -.684E+01
   0.246E+02 0.427E+02 0.981E+03   -.248E+02 -.430E+02 -.974E+03   0.208E+00 0.212E+00 -.672E+01
   0.534E+02 0.482E+02 -.883E+03   -.538E+02 -.483E+02 0.876E+03   0.317E+00 0.500E-01 0.671E+01
   0.226E+02 0.547E+02 -.891E+03   -.227E+02 -.551E+02 0.884E+03   0.928E-01 0.281E+00 0.673E+01
   0.440E+02 0.205E+02 0.977E+03   -.444E+02 -.205E+02 -.970E+03   0.323E+00 0.386E-01 -.688E+01
   0.455E+02 -.205E+00 0.103E+04   -.460E+02 0.208E+00 -.102E+04   0.341E+00 -.214E-02 -.687E+01
   0.104E+03 -.235E+00 -.847E+03   -.104E+03 0.236E+00 0.841E+03   0.294E+00 -.643E-03 0.666E+01
   0.115E+03 0.852E+02 -.767E+03   -.117E+03 -.852E+02 0.760E+03   0.134E+01 0.305E-01 0.677E+01
   0.438E+02 -.206E+02 0.977E+03   -.442E+02 0.207E+02 -.970E+03   0.321E+00 -.397E-01 -.688E+01
   0.244E+02 -.426E+02 0.981E+03   -.247E+02 0.429E+02 -.974E+03   0.207E+00 -.211E+00 -.672E+01
   0.531E+02 -.481E+02 -.883E+03   -.535E+02 0.482E+02 0.877E+03   0.313E+00 -.504E-01 0.671E+01
   0.114E+03 -.857E+02 -.768E+03   -.116E+03 0.858E+02 0.761E+03   0.133E+01 -.349E-01 0.677E+01
   0.195E+02 -.238E+02 0.948E+03   -.197E+02 0.239E+02 -.941E+03   0.112E+00 -.855E-01 -.684E+01
   0.862E+01 -.167E+02 0.944E+03   -.867E+01 0.168E+02 -.937E+03   0.405E-01 -.916E-01 -.685E+01
   0.172E+02 -.182E+02 -.910E+03   -.172E+02 0.183E+02 0.904E+03   0.580E-01 -.551E-01 0.672E+01
   0.224E+02 -.544E+02 -.891E+03   -.225E+02 0.547E+02 0.884E+03   0.920E-01 -.277E+00 0.673E+01
   0.151E-01 0.898E-01 0.942E+03   -.152E-01 -.907E-01 -.935E+03   0.187E-04 0.711E-03 -.685E+01
   -.862E+01 0.169E+02 0.944E+03   0.868E+01 -.170E+02 -.937E+03   -.407E-01 0.931E-01 -.685E+01
   0.251E-01 0.284E+02 -.905E+03   -.251E-01 -.285E+02 0.898E+03   0.212E-04 0.133E+00 0.672E+01
   -.906E+01 0.117E+00 -.911E+03   0.909E+01 -.118E+00 0.904E+03   -.282E-01 0.667E-03 0.672E+01
   0.308E-01 0.370E+02 0.960E+03   -.309E-01 -.373E+02 -.953E+03   0.661E-04 0.280E+00 -.684E+01
   -.245E+02 0.427E+02 0.981E+03   0.248E+02 -.430E+02 -.974E+03   -.208E+00 0.212E+00 -.672E+01
   0.144E+00 0.119E+03 -.824E+03   -.144E+00 -.121E+03 0.816E+03   0.376E-03 0.127E+01 0.696E+01
   -.225E+02 0.548E+02 -.891E+03   0.227E+02 -.551E+02 0.884E+03   -.928E-01 0.281E+00 0.673E+01
   0.101E+00 0.406E+02 0.103E+04   -.101E+00 -.408E+02 -.103E+04   -.221E-03 0.175E+00 -.541E+01
   -.454E+02 -.198E+00 0.103E+04   0.459E+02 0.201E+00 -.102E+04   -.340E+00 -.223E-02 -.686E+01
   0.615E+00 -.668E+00 -.563E+03   -.618E+00 0.681E+00 0.558E+03   0.108E-02 -.152E-01 0.443E+01
   -.115E+03 0.855E+02 -.767E+03   0.117E+03 -.855E+02 0.760E+03   -.134E+01 0.319E-01 0.677E+01
   0.109E+00 -.409E+02 0.103E+04   -.109E+00 0.411E+02 -.103E+04   -.394E-03 -.176E+00 -.542E+01
   -.244E+02 -.427E+02 0.981E+03   0.246E+02 0.430E+02 -.974E+03   -.206E+00 -.211E+00 -.672E+01
   0.166E+00 -.119E+03 -.825E+03   -.167E+00 0.120E+03 0.818E+03   0.593E-03 -.126E+01 0.695E+01
   -.114E+03 -.860E+02 -.768E+03   0.116E+03 0.861E+02 0.761E+03   -.133E+01 -.360E-01 0.677E+01
[...]
   -.979E+01 0.881E+01 0.707E+03   0.983E+01 -.882E+01 -.711E+03   -.521E-01 0.132E-01 0.353E+01
   -.140E-01 0.717E+01 0.704E+03   0.140E-01 -.718E+01 -.708E+03   -.875E-05 0.912E-02 0.353E+01
   -.179E+02 0.755E+01 -.683E+03   0.179E+02 -.755E+01 0.687E+03   -.534E-01 0.249E-02 -.373E+01
   -.369E-01 -.301E-01 -.685E+03   0.369E-01 0.302E-01 0.689E+03   0.250E-05 -.144E-03 -.372E+01
   -.134E+02 -.289E-01 0.710E+03   0.134E+02 0.291E-01 -.714E+03   -.611E-01 -.193E-03 0.353E+01
   -.240E-01 0.472E+01 0.707E+03   0.240E-01 -.472E+01 -.711E+03   -.838E-05 0.379E-02 0.353E+01
   -.178E+02 -.760E+01 -.683E+03   0.179E+02 0.761E+01 0.687E+03   -.532E-01 -.279E-02 -.373E+01
   -.269E-01 -.930E+01 -.687E+03   0.269E-01 0.930E+01 0.692E+03   -.102E-04 -.378E-02 -.371E+01
   -.977E+01 -.882E+01 0.707E+03   0.980E+01 0.883E+01 -.711E+03   -.519E-01 -.133E-01 0.353E+01
   -.245E-01 -.476E+01 0.707E+03   0.245E-01 0.476E+01 -.711E+03   -.108E-04 -.404E-02 0.353E+01
   -.941E+01 -.106E+02 -.688E+03   0.944E+01 0.106E+02 0.692E+03   -.388E-01 -.115E-01 -.371E+01
   -.135E-01 -.523E+01 -.690E+03   0.135E-01 0.524E+01 0.695E+03   -.122E-04 -.422E-02 -.370E+01
   -.526E+01 -.491E+01 0.703E+03   0.529E+01 0.492E+01 -.707E+03   -.311E-01 -.104E-01 0.353E+01
   -.146E-01 -.716E+01 0.704E+03   0.147E-01 0.716E+01 -.708E+03   -.166E-04 -.901E-02 0.353E+01
   -.215E-01 -.610E-02 0.439E+01   0.232E-11 0.119E-11 0.182E-11   0.197E-01 0.683E-02 -.537E+01

 POSITION                                       TOTAL-FORCE (eV/Angst)
      8.46109     11.89365     13.52833        -0.002804      0.408020      0.120749
      8.45935     10.56642     18.47179        -0.000784      0.000985      0.382275
      8.45769     10.55816     15.88881         0.000486     -0.002790      0.123707
      8.45973      9.22287     13.52627        -0.001817     -0.391990      0.118595
      0.00000      0.00000      9.00000        -0.006719     -0.000041      0.176102
      2.11389      2.11389      9.00000        -0.014719     -0.006076      0.175552
      0.00000      2.11389     11.11389        -0.007801     -0.001306     -0.137602
      2.11389      0.00000     11.11389        -0.011101     -0.000081     -0.137156
      0.00000      4.22777      9.00000        -0.011394     -0.003290      0.176767
      2.11389      6.34166      9.00000        -0.035380     -0.008004      0.177344
      0.00000      6.34166     11.11389        -0.013419     -0.000816     -0.133041
      2.11389      4.22777     11.11389        -0.024648     -0.006151     -0.133054
      0.00000      8.45554      9.00000        -0.017811     -0.001446      0.178115
      2.11389     10.56943      9.00000        -0.044109      0.000098      0.178713
      0.00000     10.56943     11.11389        -0.014390      0.000045     -0.129066
      2.11389      8.45554     11.11389        -0.038093     -0.000554     -0.120572
      0.00000     12.68331      9.00000        -0.017754      0.001519      0.178114
      2.11389     14.79720      9.00000        -0.035146      0.008046      0.177336
      0.00000     14.79720     11.11389        -0.013339      0.000832     -0.133074
      2.11389     12.68331     11.11389        -0.037959      0.000685     -0.120618
      0.00000     16.91108      9.00000        -0.011312      0.003246      0.176753
      2.11389     19.02497      9.00000        -0.014638      0.005930      0.175571
      0.00000     19.02497     11.11389        -0.007746      0.001230     -0.137616
      2.11389     16.91108     11.11389        -0.024442      0.006086     -0.133079
      4.22777      0.00000      9.00000        -0.012707     -0.000117      0.175510
      6.34166      2.11389      9.00000        -0.011925     -0.024992      0.174361
      4.22777      2.11389     11.11389        -0.016433     -0.014936     -0.134356
      6.34166      0.00000     11.11389        -0.008065     -0.000187     -0.134711
      4.22777      4.22777      9.00000        -0.032559     -0.025078      0.170685
      6.34166      6.34166      9.00000        -0.067069     -0.067435      0.127692
      4.22777      6.34166     11.11389        -0.085674     -0.013664     -0.121029
      6.34166      4.22777     11.11389        -0.027827     -0.076373     -0.130901
      4.22777      8.45554      9.00000        -0.085249     -0.009901      0.176227
      6.34166     10.56943      9.00000        -0.111394      0.000699      0.138223
      4.22777     10.56943     11.11389        -0.083294      0.000175     -0.090304
      6.34166      8.45554     11.11389        -0.459600     -0.000369     -0.191970
      4.22777     12.68331      9.00000        -0.084789      0.010215      0.176206
      6.34166     14.79720      9.00000        -0.066746      0.067203      0.128468
      4.22777     14.79720     11.11389        -0.084758      0.013789     -0.121137
      6.34166     12.68331     11.11389        -0.454132      0.001784     -0.190817
      4.22777     16.91108      9.00000        -0.032308      0.024858      0.170775
      6.34166     19.02497      9.00000        -0.011855      0.024613      0.174384
      4.22777     19.02497     11.11389        -0.016322      0.014648     -0.134370
      6.34166     16.91108     11.11389        -0.027561      0.075471     -0.130857
      8.45554      0.00000      9.00000         0.000004     -0.000195      0.175454
     10.56943      2.11389      9.00000         0.011944     -0.025011      0.174362
      8.45554      2.11389     11.11389         0.000003     -0.034733     -0.132837
     10.56943      0.00000     11.11389         0.008079     -0.000177     -0.134708
      8.45554      4.22777      9.00000        -0.000016     -0.073643      0.166916
     10.56943      6.34166      9.00000         0.067064     -0.067404      0.127601
      8.45554      6.34166     11.11389        -0.000128     -0.415556     -0.228304
     10.56943      4.22777     11.11389         0.027837     -0.076479     -0.130891
      8.45554      8.45554      9.00000         0.000104     -0.037565     -0.168864
     10.56943     10.56943      9.00000         0.111354      0.000729      0.137682
      8.45554     10.56943     11.11389        -0.002283     -0.002179     -0.601019
     10.56943      8.45554     11.11389         0.460714     -0.001173     -0.193355
      8.45554     12.68331      9.00000         0.000161      0.037635     -0.165781
     10.56943     14.79720      9.00000         0.066726      0.067148      0.128311
      8.45554     14.79720     11.11389        -0.000211      0.410847     -0.224962
     10.56943     12.68331     11.11389         0.455608      0.002656     -0.192962
[...]
     19.02497      6.34166     11.11389         0.000013      0.001047      0.522356
     16.91108      6.34166      9.00000        -0.014568      0.003727     -0.565547
     19.02497      4.22777      9.00000         0.000013      0.002552     -0.565235
     16.91108      8.45554     11.11389        -0.014984      0.000697      0.517787
     19.02497     10.56943     11.11389         0.000009     -0.000041      0.519696
     16.91108     10.56943      9.00000        -0.017152     -0.000057     -0.566498
     19.02497      8.45554      9.00000         0.000010      0.001075     -0.566037
     16.91108     12.68331     11.11389        -0.014947     -0.000789      0.517804
     19.02497     14.79720     11.11389         0.000006     -0.001082      0.522370
     16.91108     14.79720      9.00000        -0.014504     -0.003750     -0.565554
     19.02497     12.68331      9.00000         0.000005     -0.001145     -0.566036
     16.91108     16.91108     11.11389        -0.010838     -0.003240      0.523517
     19.02497     19.02497     11.11389         0.000006     -0.001202      0.525996
     16.91108     19.02497      9.00000        -0.008660     -0.002916     -0.564882
     19.02497     16.91108      9.00000         0.000009     -0.002540     -0.565242
    total drift:                               -0.001863      0.000736     -0.983702

  FREE ENERGIE OF THE ION-ELECTRON SYSTEM (eV)
  free  energy   TOTEN  =      -676.25203692 eV

  energy  without entropy=     -676.25203692  energy(sigma->0) =     -676.25203692