 vasp.6.4.0 14Feb23 (build Mar 22 2023 21:21:37) complex

 executed on           IFC15_impi date 2023.05.05  19:03:03

 INCAR:
   SYSTEM = MgO-rocksalt
   ISMEAR = 0
   SIGMA = 0.05
   EDIFF = 1E-6
   ALGO = ALL
   ISTART = 0
   IBRION = -1
   NSW = 0
   ISYM = 2
   DIPOL = 0.5 0.5 0.5
   IDIPOL = 3
   LDIPOL = .TRUE.
   GGA = RE
   IVDW = 21
   VDW_SR = 0.6
   ENCUT = 520
   PREC = Accurate
   LASPH = .TRUE.
   LREAL = Auto
   ISPIN = 1
   NELM = 200
   NELMIN = 8
   NCORE = 4
   KPAR = 2
   LWAVE = .FALSE.
   LCHARG = .FALSE.

 POTCAR:    PAW_PBE Au 04Oct2007
 POTCAR:    PAW_PBE Mg_pv 13Apr2007
 POTCAR:    PAW_PBE O 08Apr2002
 POTCAR:    PAW_PBE Au 04Oct2007
   VRHFIN =Au: s1d10

   TITEL  = PAW_PBE Au 04Oct2007
   POMASS =  196.966; ZVAL   =   11.000    mass and valenz
   ENMAX  =  229.943; ENMIN  =  172.457 eV

   TITEL  = PAW_PBE Mg_pv 13Apr2007
   POMASS =   24.305; ZVAL   =    8.000    mass and valenz
   ENMAX  =  403.929; ENMIN  =  302.947 eV

   TITEL  = PAW_PBE O 08Apr2002
   POMASS =   16.000; ZVAL   =    6.000    mass and valenz
   ENMAX  =  400.000; ENMIN  =  300.000 eV

 Optimization of the real space projectors (new method)

 maximal supplied QI-value         = 15.12
 optimisation between [QCUT,QGAM] = [ 11.64, 23.28] = [ 37.95,151.78] Ry
 Optimized for a Real-space Cutoff    1.49 Angstroem

   l    n(q)    QCUT    max X(q) W(low)/X(q) W(high)/X(q)  e(spline)
   2      9    11.641    60.898    0.24E-03    0.10E-03    0.19E-06
   2      9    11.641    58.894    0.25E-03    0.10E-03    0.19E-06
   0     10    11.641   109.617    0.73E-04    0.33E-04    0.11E-06
   0     10    11.641    75.026    0.71E-04    0.32E-04    0.11E-06
   1     10    11.641    16.344    0.27E-04    0.97E-04    0.16E-06
   1     10    11.641    10.160    0.23E-04    0.77E-04    0.13E-06
 Optimization of the real space projectors (new method)

[...]

   l    n(q)    QCUT    max X(q) W(low)/X(q) W(high)/X(q)  e(spline)
   1      8    11.527     2.974    0.44E-04    0.56E-04    0.12E-06
   1      8    11.527     4.279    0.12E-03    0.12E-03    0.26E-06
   0      9    11.527    16.381    0.46E-04    0.64E-04    0.78E-07
   0      9    11.527     5.611    0.26E-04    0.43E-04    0.55E-07
   2      8    11.527     4.652    0.22E-03    0.72E-04    0.47E-07
 Optimization of the real space projectors (new method)

 maximal supplied QI-value         = 24.76
 optimisation between [QCUT,QGAM] = [ 11.64, 23.27] = [ 37.91,151.63] Ry
 Optimized for a Real-space Cutoff    1.14 Angstroem

   l    n(q)    QCUT    max X(q) W(low)/X(q) W(high)/X(q)  e(spline)
   0      8    11.635    20.381    0.10E-03    0.33E-03    0.24E-06
   0      8    11.635    15.268    0.11E-03    0.35E-03    0.26E-06
   1      7    11.635     5.964    0.24E-03    0.31E-03    0.30E-06
   1      7    11.635     5.382    0.22E-03    0.25E-03    0.26E-06
|               ----> ADVICE to this user running VASP <----                  |
|     You enforced a specific xc type in the INCAR file but a different       |
|     type was found in the POTCAR file.                                      |
|     I HOPE YOU KNOW WHAT YOU ARE DOING!                                     |

  PAW_PBE Au 04Oct2007                  :
  PAW_PBE Mg_pv 13Apr2007               :
  PAW_PBE O 08Apr2002                   :

 POSCAR: Mg  O
  positions in direct lattice
  velocities in cartesian coordinates
 exchange correlation table for  LEXCH =       40
   RHO(1)=    0.500       N(1)  =     2000
   RHO(2)=  100.500       N(2)  =     4000

 ion  position               nearest neighbor table
   1  0.498  0.433  0.611-  11 2.70  17 2.71  13 2.72   3 2.73   4 2.76   8 2.78
   2  0.326  0.314  0.579- 246 2.42  14 2.70  13 2.70  19 2.73  11 2.77  67 2.88  52 3.07
   3  0.558  0.545  0.592-   9 2.71   8 2.73   1 2.73  17 2.75  91 3.03
   4  0.567  0.324  0.619-  17 2.70   7 2.70  15 2.71  13 2.71   6 2.75   1 2.76
   5  0.449  0.096  0.604-  10 2.66  19 2.71   7 2.81
   6  0.637  0.214  0.618-   7 2.71  15 2.71  16 2.72   4 2.75  20 2.77  10 2.77
   7  0.510  0.210  0.625-  19 2.68   4 2.70   6 2.71  10 2.74  13 2.76   5 2.81
   8  0.428  0.542  0.592-  11 2.69   3 2.73   1 2.78  71 2.93
   9  0.685  0.549  0.597-  18 2.67   3 2.71  17 2.72
  10  0.574  0.099  0.611-  16 2.63   5 2.66   7 2.74   6 2.77
  11  0.370  0.431  0.607-  14 2.65   8 2.69   1 2.70   2 2.77  13 2.80
  12  0.820  0.335  0.592-  18 2.67  15 2.70  20 2.75 107 2.87
  13  0.439  0.320  0.621-   2 2.70   4 2.71   1 2.72   7 2.76  19 2.76  11 2.80
  14  0.251  0.417  0.581- 249 2.61  11 2.65   2 2.70  52 2.70
  15  0.695  0.328  0.609-  12 2.70  17 2.71   4 2.71   6 2.71  20 2.75  18 2.80
  16  0.687  0.112  0.575- 282 2.27  10 2.63   6 2.72  20 2.76  83 2.93  88 2.98
  17  0.626  0.436  0.607-   4 2.70  15 2.71   1 2.71   9 2.72   3 2.75  18 2.78
  18  0.756  0.444  0.596-   9 2.67  12 2.67  17 2.78  15 2.80
  19  0.403  0.210  0.577- 265 2.29   7 2.68   5 2.71   2 2.73  13 2.76  67 3.04
  20  0.759  0.221  0.584- 305 2.65  12 2.75  15 2.75  16 2.76   6 2.77  88 2.86
  21  0.000  1.000  0.430- 239 2.11 224 2.11 304 2.11 321 2.12 223 2.12 221 2.13
  22  0.100  0.100  0.430- 224 2.11 223 2.11 243 2.11 322 2.12 228 2.12 222 2.13
  23  0.000  0.099  0.500- 302 2.10 222 2.11 223 2.11 221 2.11 225 2.12
  24  0.100  0.999  0.500- 224 2.11 238 2.11 221 2.11 241 2.11 222 2.12
  25  1.000  0.200  0.430- 227 2.11 228 2.11 223 2.11 308 2.12 325 2.12 225 2.14
  26  0.100  0.300  0.430- 227 2.11 232 2.11 228 2.11 247 2.12 326 2.12 226 2.14
  27  0.000  0.300  0.500- 226 2.11 227 2.11 306 2.11 229 2.11 225 2.12
  28  0.099  0.200  0.500- 225 2.10 228 2.11 245 2.11 222 2.11 226 2.13
  29  1.000  0.400  0.430- 312 2.10 231 2.11 227 2.12 329 2.12 232 2.13 229 2.14
  30  0.100  0.500  0.430- 231 2.11 236 2.11 251 2.11 232 2.12 330 2.12 230 2.13
  31  1.000  0.501  0.500- 310 2.10 233 2.10 231 2.11 230 2.12 229 2.12
  32  0.098  0.401  0.500- 229 2.08 230 2.10 232 2.11 249 2.12 226 2.13
  33  1.000  0.600  0.430- 316 2.11 235 2.11 231 2.12 236 2.12 333 2.12 233 2.13
  34  0.100  0.700  0.430- 235 2.11 240 2.11 255 2.11 236 2.11 334 2.12 234 2.13
  35  1.000  0.700  0.500- 235 2.11 314 2.11 233 2.11 237 2.11 234 2.11
  36  0.100  0.601  0.500- 234 2.11 233 2.11 236 2.11 253 2.12 230 2.12
  37  1.000  0.800  0.430- 235 2.11 320 2.11 240 2.11 239 2.12 337 2.12 237 2.13
  38  0.100  0.900  0.430- 240 2.11 239 2.11 259 2.11 224 2.12 338 2.12 238 2.13
  39  0.000  0.899  0.500- 239 2.10 237 2.11 238 2.11 318 2.11 221 2.12
  40  0.100  0.800  0.500- 240 2.11 234 2.11 237 2.11 257 2.11 238 2.11
  41  0.200  1.000  0.430- 259 2.11 224 2.11 244 2.11 341 2.12 243 2.12 241 2.13
  42  0.300  0.099  0.430- 244 2.10 263 2.11 243 2.11 342 2.12 248 2.13 242 2.13
  43  0.199  0.099  0.500- 241 2.10 222 2.10 243 2.11 242 2.12 245 2.13
  44  0.300  0.999  0.500- 258 2.10 244 2.11 241 2.11 261 2.12 242 2.12
  45  0.199  0.200  0.430- 228 2.10 243 2.11 345 2.12 248 2.12 247 2.13 245 2.14
  46  0.300  0.300  0.429- 267 2.10 252 2.10 346 2.11 248 2.11 247 2.11 246 2.16
  47  0.198  0.299  0.500- 226 2.08 247 2.11 245 2.11 246 2.12 249 2.13
  48  0.297  0.198  0.500- 245 2.08 242 2.08 248 2.09 246 2.13 265 2.13
  49  0.200  0.400  0.429- 251 2.10 232 2.10 252 2.11 349 2.11 247 2.11 249 2.21
  50  0.300  0.501  0.430- 250 2.10 271 2.10 256 2.11 350 2.12 251 2.12 252 2.14
  51  0.200  0.502  0.500- 253 2.09 251 2.11 250 2.11 230 2.11 249 2.15
  52  0.302  0.402  0.499- 269 2.08 252 2.08 250 2.09 249 2.19 246 2.20  14 2.70   2 3.07
  53  0.200  0.600  0.430- 255 2.11 256 2.11 236 2.11 353 2.12 251 2.13 253 2.13
  54  0.300  0.700  0.430- 256 2.11 275 2.11 260 2.11 255 2.12 354 2.12 254 2.13
  55  0.200  0.700  0.500- 255 2.11 253 2.11 257 2.11 254 2.11 234 2.11
  56  0.300  0.601  0.500- 250 2.10 254 2.11 273 2.11 256 2.11 253 2.12
  57  0.200  0.800  0.430- 255 2.11 260 2.11 240 2.11 259 2.12 357 2.12 257 2.13
  58  0.300  0.900  0.430- 260 2.11 279 2.11 259 2.11 244 2.12 358 2.12 258 2.13
  59  0.200  0.900  0.500- 259 2.11 257 2.11 238 2.11 258 2.11 241 2.12
  60  0.300  0.800  0.500- 260 2.11 254 2.11 258 2.11 277 2.11 257 2.12
[...]
 406  0.900  0.300  0.359- 208 2.11 207 2.11 127 2.11 212 2.11 206 2.11 106 2.12
 407  0.800  0.300  0.289- 186 2.11 205 2.11 206 2.11 209 2.11 207 2.11
 408  0.900  0.200  0.289- 206 2.11 202 2.11 205 2.11 125 2.11 208 2.11
 409  0.800  0.400  0.359- 109 2.11 192 2.11 207 2.11 211 2.11 212 2.11 209 2.11
 410  0.900  0.500  0.359- 131 2.11 211 2.11 212 2.11 216 2.11 210 2.11 110 2.12
 411  0.800  0.500  0.289- 190 2.11 209 2.11 210 2.11 213 2.11 211 2.11
 412  0.900  0.400  0.289- 129 2.11 206 2.11 209 2.11 210 2.11 212 2.11
 413  0.800  0.600  0.359- 196 2.11 211 2.11 215 2.11 216 2.11 213 2.11 113 2.12
 414  0.900  0.700  0.359- 220 2.11 215 2.11 216 2.11 135 2.11 214 2.11 114 2.12
 415  0.800  0.700  0.289- 194 2.11 217 2.11 214 2.11 213 2.11 215 2.11
 416  0.900  0.600  0.289- 133 2.11 210 2.11 213 2.11 214 2.11 216 2.11
 417  0.800  0.800  0.359- 200 2.11 215 2.11 219 2.11 220 2.11 217 2.11 117 2.12
 418  0.900  0.900  0.359- 139 2.11 204 2.11 219 2.11 220 2.11 218 2.11 118 2.12
 419  0.800  0.900  0.289- 198 2.11 201 2.11 217 2.11 218 2.11 219 2.11
 420  0.900  0.800  0.289- 214 2.11 137 2.11 217 2.11 218 2.11 220 2.11

  LATTYP: Found a simple tetragonal cell.
 ALAT       =    21.1388521970
 C/A-ratio  =     1.4191877459

  Lattice vectors:

 A1 = (  21.1388521970,   0.0000000000,   0.0000000000)
 A2 = (   0.0000000000,  21.1388521970,   0.0000000000)
 A3 = (   0.0000000000,   0.0000000000,  30.0000000000)

Analysis of symmetry for initial positions (statically):
 Subroutine PRICEL returns:
 Original cell was already a primitive cell.

 Routine SETGRP: Setting up the symmetry group for a
 simple tetragonal supercell.

 Subroutine GETGRP returns: Found  1 space group operations
 (whereof  1 operations were pure point group operations)
 out of a pool of 16 trial point group operations.

The static configuration has the point symmetry C_1 .

Analysis of symmetry for dynamics (positions and initial velocities):
 Subroutine PRICEL returns:
 Original cell was already a primitive cell.

[...]

The dynamic configuration has the point symmetry C_1 .

Analysis of constrained symmetry for selective dynamics:
 Subroutine PRICEL returns:
 Original cell was already a primitive cell.

 Routine SETGRP: Setting up the symmetry group for a
 simple tetragonal supercell.

 Subroutine GETGRP returns: Found  1 space group operations
 (whereof  1 operations were pure point group operations)
 out of a pool of 16 trial point group operations.

The constrained configuration has the point symmetry C_1 .

 Subroutine INISYM returns: Found  1 space group operations
 (whereof  1 operations are pure point group operations),
 and found     1 'primitive' translations

                                     Primitive cell

  volume of cell :   13405.5322

  direct lattice vectors                    reciprocal lattice vectors
    21.138852197  0.000000000  0.000000000     0.047306258  0.000000000  0.000000000
     0.000000000 21.138852197  0.000000000     0.000000000  0.047306258  0.000000000
[...]
  339          m_sumb_d                              0.000925                         10   4
  340        m_sumb_d                            246.061628                           48   3
  341        fft3d_mpi                             0.407095                           18   3
  342          fftbrc_mpi                            0.384372                         18   4
  343            fftbas_plan_mpi                       0.384308                       18   5
  344              dfftw_execute                         0.123187                     54   6
  345              map_forward                           0.120104                     18   6
  346                map_gather                            0.026884                    9   7
  347                m_alltoallv_z                         0.076758                    9   7
  348                map_scatter                           0.016146                    9   7
  349              map_backward                          0.126955                     18   6
  350                map_gather                            0.014343                    9   7
  351                m_alltoallv_z                         0.082387                    9   7
  352                map_scatter                           0.029976                    9   7
  353        ggaall_grid                           0.384107                            1   3
  354        forhar                                2.997292                            1   3
  355          m_sumb_d                              0.011375                          1   4
  356        strehar                               0.033100                            1   3
  357          m_sumb_d                              0.000125                          1   4
  358        augmentation_charge                   0.105461                            1   3
  359          m_sumb_d                              0.001603                          1   4
  360          fft3d_mpi                             0.023263                          1   4
  361            fftbrc_mpi                            0.022102                        1   5
  362              fftbas_plan_mpi                       0.022099                      1   6
  363                dfftw_execute                         0.006098                    3   7
  364                map_backward                          0.015224                    2   7
  365                  map_gather                            0.001539                  1   8
  366                  m_alltoallv_z                         0.010313                  1   8
  367                  map_scatter                           0.003348                  1   8
  368        m_bcast_d                            14.634094                            2   3
  369      potlok                                0.801437                              1   2
  370        fft3d_mpi                             0.311106                           13   3
  371          fftbrc_mpi                            0.291801                         13   4
  372            fftbas_plan_mpi                       0.291752                       13   5
  373              dfftw_execute                         0.096221                     39   6
  374              map_forward                           0.091823                     14   6
  375                map_gather                            0.018488                    8   7
  376                m_alltoallv_z                         0.054351                    8   7
  377                map_scatter                           0.018735                    8   7
  378              map_backward                          0.092094                     12   6
  379                map_gather                            0.009550                    6   7
  380                m_alltoallv_z                         0.062772                    6   7
  381                map_scatter                           0.019605                    6   7
  382        ggaall_grid                           0.385239                            1   3
  383        m_sumb_d                              0.002773                            7   3
  384        fewald                                0.001647                            2   3
  385          rsp                                   0.001425                          2   4
  386          rcp                                   0.000124                          2   4
  387        pothar                                0.006290                            1   3
  388          m_sumb_d                              0.002561                          1   4
  389        m_bcast_d                             0.013274                            1   3
  390      potlok_metagga                        0.000009                              1   2
  391      set_dd_magatom                        0.000008                              1   2
  392      set_dd_paw                            1.071247                              1   2
  393        set_rsgf_all                          0.000019                            1   3
  394        m_sumb_d                              0.783526                            8   3

 Flat profile

 force_and_stress                     2854.418957           1
 edwav                                 882.490413          50
 lincom                                346.370680         157
 m_sumb_d                              333.621474       29719
 dfftw_execute                         308.901161       41517
 orth1                                 187.818032        7287
 eddav                                 117.873827           5
 wfinit                                 91.681467           1
 m_alltoall_d                           55.928289       56124
 ggemm                                  53.836413        1251
 map_scatter                            53.811244       13942
 fftwav_mpi                             43.770163        9168
 map_gather                             41.633207       13942
 choleski                               34.042254          51
 m_alltoallv_z                          33.975814       13942
 eccp                                   33.305855        5985
 map_forward                            32.418944       19084
 total_time                             29.100301           1
 eddiag                                 24.972179          26
 ggaall_grid                            20.756305          53
 crrexp_mul_work_add                    20.163551     1004220
 m_bcast_z                              18.870479        2881
 racc0                                  18.590833        2391
 crrexp_mul_wave                        15.868186     1195740
 m_bcast_d                              15.521760        1988
 set_dd_paw                             15.201415          53
 vhamil                                 14.915455        2448
 rpro1                                  14.406427        2106
 pw_charge                              13.596479        2448
 fftbas_plan_mpi                         9.113218       13839
 lapack                                  7.233322         966
 w1_dscal                                5.882034        1425
 redis_pw                                5.856686        8565
 fftext_mpi                              4.860251        3873
 potlok                                  4.819592          52
 setdij_                                 4.418792          79
 augmentation_charge                     4.341969          52
 rspher_all                              3.730389          14
 phaser                                  3.307211          43
 forloc                                  2.997975           1
 forhar                                  2.985917           1
 rpromu_gemm                             2.696156       81900
 stufak                                  1.828652           1
 fft3d_mpi                               1.354417       13839
 orthch                                  1.237747          51
 kinhamil                                1.026315        2448
 overl                                   0.947958        3174
 w1_copy                                 0.872708        2898
 elmin_all                               0.867518           1
 rpromu                                  0.864645         195
 soft_charge                             0.407931          51
 redis_proj                              0.377278        8135
 setup_precond                           0.270146         285
 apply_precond                           0.252797         681
 depsum                                  0.220741          51
 pothar                                  0.191147          52
 inisym                                  0.183244           1
 overl1                                  0.129459         966
 map_backward                            0.124156        8594
 fft_gq                                  0.091999          51
 rsp                                     0.079860         105
 set_charge                              0.058549          51
 strnlr                                  0.054756           1
 fftbas_mpi                              0.053540       13041
 densta                                  0.052851          62
 strehar                                 0.032975           1
 strkin                                  0.031632           1
 strelo                                  0.026047           1
 hamilt_local                            0.023558        1482
 hamiltmu                                0.022944         966
 newband                                 0.020185         971
 fornlr                                  0.019639           1
 fewald                                  0.011732         105
 raccmu_                                 0.011124         966
 rpro_isp                                0.010449          13
 rcp                                     0.006294         105
 w1_projall                              0.004931         681
 fftbrc_mpi                              0.002957         798
 brgrid                                  0.002938           1
 truncate_high_frequency_w1              0.001455        1251
 fordep                                  0.000840           1
 redis_pw_all                            0.000521          50
 redis_pw_over_bands                     0.000359          51
 crpa_reader                             0.000350           1
 posmap                                  0.000324           2
 set_rsgf_all                            0.000130          53
 proall                                  0.000078           1
 potlok_metagga                          0.000069          52
 vectorpot                               0.000025           1
 rotate_active_occupied_orbital          0.000019           1
 set_dd_magatom                          0.000016           2
 shift_bands_between_low_high            0.000008           1
  summed up times    5801.88509297371

 Accumulative profile

 total_time                           5801.885093           1
 force_and_stress                     3164.517957           1
 elmin_all                            2483.868082           1
 edwav                                1751.936054          50
 fft3d_mpi                             481.388658       13839
 fftbas_plan_mpi                       479.977744       13839
 fftbas_mpi                            461.332086       13041
 eddav                                 400.936727           5
 fftwav_mpi                            378.268753        9168
 lincom                                346.370680         157
 m_sumb_d                              333.621474       29719
 dfftw_execute                         308.901161       41517
 orthch                                206.430298          51
 orth1                                 187.818032        7287
 fftext_mpi                            131.752504        3873
 set_charge                            127.698957          51
 map_forward                           120.948439       19084
 soft_charge                           120.851198          51
 wfinit                                112.306292           1
 eddiag                                101.975281          26
 kinhamil                               83.550946        2448
 hamilt_local                           59.325526        1482
 set_dd_paw                             56.925094          53
 m_alltoall_d                           55.928289       56124
 hamiltmu                               55.179467         966
 ggemm                                  53.836413        1251
 map_scatter                            53.811244       13942
 redis_pw                               49.141488        8565
 potlok                                 42.673214          52
 map_gather                             41.633207       13942
 map_backward                           41.014926        8594
 racc0                                  39.803381        2391
 rpro_isp                               38.398181          13
 choleski                               34.042254          51
 m_alltoallv_z                          33.975814       13942
 eccp                                   33.615267        5985
 strnlr                                 29.745564           1
 rpro1                                  26.673436        2106
 ggaall_grid                            20.756305          53
 crrexp_mul_work_add                    20.163551     1004220
 m_bcast_z                              18.870479        2881
 fftbrc_mpi                             18.702155         798
 raccmu_                                15.992090         966
 crrexp_mul_wave                        15.868186     1195740
 m_bcast_d                              15.521760        1988
 vhamil                                 14.915455        2448
 newband                                14.720115         971
 pw_charge                              13.596479        2448
 redis_proj                             13.020765        8135
 fornlr                                  9.965417           1
 w1_projall                              8.693037         681
 rpromu                                  7.781445         195
 redis_pw_over_bands                     7.539473          51
 redis_pw_all                            7.539114          50
 lapack                                  7.233322         966
 augmentation_charge                     6.533412          52
 w1_dscal                                5.882034        1425
 setdij_                                 4.882412          79
 rspher_all                              3.730389          14
 phaser                                  3.307211          43
 proall                                  3.118961           1
 forloc                                  2.998175           1
 forhar                                  2.997292           1
 rpromu_gemm                             2.696156       81900
 stufak                                  1.828652           1
 fft_gq                                  1.257412          51
 overl                                   0.947958        3174
 w1_copy                                 0.872708        2898
 densta                                  0.592161          62
 depsum                                  0.361259          51
 fordep                                  0.358879           1
 setup_precond                           0.280590         285
 pothar                                  0.276669          52
 apply_precond                           0.252797         681
 inisym                                  0.183568           1
 fewald                                  0.143879         105
 overl1                                  0.129459         966
 rsp                                     0.079860         105
 strkin                                  0.041240           1
 strelo                                  0.034762           1
 strehar                                 0.033100           1
 rcp                                     0.006294         105
 brgrid                                  0.002938           1
 truncate_high_frequency_w1              0.001455        1251
 crpa_reader                             0.000350           1
 posmap                                  0.000324           2
 set_rsgf_all                            0.000130          53
 potlok_metagga                          0.000069          52
 vectorpot                               0.000025           1
 rotate_active_occupied_orbital          0.000019           1
 set_dd_magatom                          0.000016           2
 shift_bands_between_low_high            0.000008           1

Profiling took   2.450003  0.827915  0.006384  0.006134 seconds
Profiling took   2.036167 seconds