 vasp.6.4.0 14Feb23 (build Dec 05 2023 14:15:48) complex

 executed on             LinuxIFC date 2023.12.06  03:26:56

 INCAR:
   SYSTEM = MgO-rocksalt
   ISMEAR = 0
   SIGMA = 0.05
   EDIFF = 1E-4
   ALGO = ALL
   ISTART = 0
   IBRION = -1
   NSW = 0
   ISYM = 0
   DIPOL = 0.5 0.5 0.5
   IDIPOL = 3
   LDIPOL = .TRUE.
   METAGGA = TPSS
   ENCUT = 520
   PREC = Accurate
   LASPH = .TRUE.
   LREAL = Auto
   ISPIN = 1
   NELM = 2000
   NELMIN = 8
   NCORE = 8
   KPAR = 1
   LWAVE = .FALSE.
   LCHARG = .FALSE.

 POTCAR:    PAW_PBE Cu 22Jun2005
 POTCAR:    PAW_PBE Mg_pv 13Apr2007
 POTCAR:    PAW_PBE O 08Apr2002
 POTCAR:    PAW_PBE Cu 22Jun2005
   VRHFIN =Cu: d10 p1

   TITEL  = PAW_PBE Cu 22Jun2005
   POMASS =   63.546; ZVAL   =   11.000    mass and valenz
   ENMAX  =  295.446; ENMIN  =  221.585 eV

   TITEL  = PAW_PBE Mg_pv 13Apr2007
   POMASS =   24.305; ZVAL   =    8.000    mass and valenz
   ENMAX  =  403.929; ENMIN  =  302.947 eV

   TITEL  = PAW_PBE O 08Apr2002
   POMASS =   16.000; ZVAL   =    6.000    mass and valenz
   ENMAX  =  400.000; ENMIN  =  300.000 eV

 Optimization of the real space projectors (new method)

 maximal supplied QI-value         = 16.25
 optimisation between [QCUT,QGAM] = [ 11.54, 23.24] = [ 37.28,151.24] Ry
 Optimized for a Real-space Cutoff    1.53 Angstroem

   l    n(q)    QCUT    max X(q) W(low)/X(q) W(high)/X(q)  e(spline)
   2     10    11.539     4.610    0.96E-04    0.13E-03    0.19E-06
   2     10    11.539     8.522    0.16E-03    0.21E-03    0.28E-06
   0     11    11.539    51.609    0.45E-04    0.31E-04    0.11E-06
   0     11    11.539    27.747    0.39E-04    0.29E-04    0.10E-06
   1     10    11.539    20.408    0.70E-05    0.38E-04    0.18E-06
   1     10    11.539    13.425    0.66E-05    0.34E-04    0.17E-06
 Optimization of the real space projectors (new method)

[...]

   l    n(q)    QCUT    max X(q) W(low)/X(q) W(high)/X(q)  e(spline)
   1      8    11.527     2.974    0.44E-04    0.56E-04    0.12E-06
   1      8    11.527     4.279    0.12E-03    0.12E-03    0.26E-06
   0      9    11.527    16.381    0.46E-04    0.64E-04    0.78E-07
   0      9    11.527     5.611    0.26E-04    0.43E-04    0.55E-07
   2      8    11.527     4.652    0.22E-03    0.72E-04    0.47E-07
 Optimization of the real space projectors (new method)

 maximal supplied QI-value         = 24.76
 optimisation between [QCUT,QGAM] = [ 11.64, 23.27] = [ 37.91,151.63] Ry
 Optimized for a Real-space Cutoff    1.14 Angstroem

   l    n(q)    QCUT    max X(q) W(low)/X(q) W(high)/X(q)  e(spline)
   0      8    11.635    20.381    0.10E-03    0.33E-03    0.24E-06
   0      8    11.635    15.268    0.11E-03    0.35E-03    0.26E-06
   1      7    11.635     5.964    0.24E-03    0.31E-03    0.30E-06
   1      7    11.635     5.382    0.22E-03    0.25E-03    0.26E-06
  PAW_PBE Cu 22Jun2005                  :
  PAW_PBE Mg_pv 13Apr2007               :
  PAW_PBE O 08Apr2002                   :

 POSCAR: Cu Mg  O
  positions in direct lattice

 METAGGA = TPSS                                        LMAXTAU =  6    LMIXTAU =  F

 ion  position               nearest neighbor table
   1  0.553  0.500  0.630-   2 2.23
   2  0.447  0.500  0.630-   1 2.23
   3  0.000  0.000  0.407- 105 2.11 106 2.11 121 2.11 186 2.11 103 2.11
   4  0.100  0.100  0.407- 105 2.11 106 2.11 110 2.11 125 2.11 104 2.11
   5  0.000  0.100  0.503- 103 2.11 104 2.11 107 2.11 184 2.11 105 2.11
   6  0.100  0.000  0.503- 103 2.11 104 2.11 120 2.11 123 2.11 106 2.11
   7  0.000  0.200  0.407- 109 2.11 105 2.11 110 2.11 190 2.11 107 2.11
   8  0.100  0.300  0.407- 110 2.11 109 2.11 114 2.11 129 2.11 108 2.11
   9  0.000  0.300  0.503- 107 2.11 108 2.11 111 2.11 188 2.11 109 2.11
  10  0.100  0.200  0.503- 108 2.11 107 2.11 104 2.11 127 2.11 110 2.11
  11  0.000  0.400  0.407- 109 2.11 113 2.11 114 2.11 194 2.11 111 2.11
  12  0.100  0.500  0.407- 113 2.11 114 2.11 118 2.11 133 2.11 112 2.11
  13  0.000  0.500  0.503- 111 2.11 112 2.11 115 2.11 192 2.11 113 2.11
  14  0.100  0.400  0.503- 108 2.11 111 2.11 112 2.11 131 2.11 114 2.11
  15  0.000  0.600  0.407- 113 2.11 117 2.11 118 2.11 198 2.11 115 2.11
  16  0.100  0.700  0.407- 122 2.11 118 2.11 117 2.11 137 2.11 116 2.11
  17  0.000  0.700  0.503- 119 2.11 116 2.11 115 2.11 196 2.11 117 2.11
  18  0.100  0.600  0.503- 112 2.11 115 2.11 116 2.11 135 2.11 118 2.11
  19  0.000  0.800  0.407- 117 2.11 121 2.11 122 2.11 202 2.11 119 2.11
  20  0.100  0.900  0.407- 106 2.11 121 2.11 122 2.11 141 2.11 120 2.11
  21  0.000  0.900  0.503- 103 2.11 119 2.11 120 2.11 200 2.11 121 2.11
  22  0.100  0.800  0.503- 116 2.11 119 2.11 120 2.11 139 2.11 122 2.11
  23  0.200  0.000  0.407- 126 2.11 125 2.11 106 2.11 141 2.11 123 2.11
  24  0.300  0.100  0.407- 125 2.11 126 2.11 130 2.11 145 2.11 124 2.11
  25  0.200  0.100  0.503- 124 2.11 123 2.11 104 2.11 127 2.11 125 2.11
  26  0.300  0.000  0.503- 123 2.11 124 2.11 140 2.11 143 2.11 126 2.11
  27  0.200  0.200  0.407- 129 2.11 130 2.11 110 2.11 125 2.11 127 2.11
  28  0.300  0.300  0.407- 129 2.11 130 2.11 134 2.11 149 2.11 128 2.11
  29  0.200  0.300  0.503- 127 2.11 128 2.11 108 2.11 131 2.11 129 2.11
  30  0.300  0.200  0.503- 127 2.11 128 2.11 124 2.11 147 2.11 130 2.11
  31  0.200  0.400  0.407- 134 2.11 129 2.11 133 2.11 114 2.11 131 2.11
  32  0.300  0.500  0.407- 133 2.11 134 2.11 138 2.11 153 2.11 132 2.11
  33  0.200  0.500  0.503- 132 2.11 131 2.11 112 2.11 135 2.11 133 2.11
  34  0.300  0.400  0.503- 131 2.11 128 2.11 132 2.11 151 2.11 134 2.11
  35  0.200  0.600  0.407- 138 2.11 133 2.11 137 2.11 118 2.11 135 2.11
  36  0.300  0.700  0.407- 137 2.11 142 2.11 138 2.11 157 2.11 136 2.11
  37  0.200  0.700  0.503- 136 2.11 139 2.11 116 2.11 135 2.11 137 2.11
  38  0.300  0.600  0.503- 135 2.11 132 2.11 136 2.11 155 2.11 138 2.11
  39  0.200  0.800  0.407- 137 2.11 142 2.11 141 2.11 122 2.11 139 2.11
  40  0.300  0.900  0.407- 141 2.11 126 2.11 142 2.11 161 2.11 140 2.11
  41  0.200  0.900  0.503- 140 2.11 123 2.11 139 2.11 120 2.11 141 2.11
  42  0.300  0.800  0.503- 136 2.11 139 2.11 140 2.11 159 2.11 142 2.11
  43  0.400  0.000  0.407- 126 2.11 145 2.11 146 2.11 161 2.11 143 2.11
  44  0.500  0.100  0.407- 145 2.11 146 2.11 150 2.11 165 2.11 144 2.11
  45  0.400  0.100  0.503- 124 2.11 143 2.11 144 2.11 147 2.11 145 2.11
  46  0.500  0.000  0.503- 143 2.11 144 2.11 160 2.11 163 2.11 146 2.11
  47  0.400  0.200  0.407- 149 2.11 145 2.11 130 2.11 150 2.11 147 2.11
  48  0.500  0.300  0.407- 150 2.11 149 2.11 154 2.11 169 2.11 148 2.11
  49  0.400  0.300  0.503- 147 2.11 128 2.11 148 2.11 151 2.11 149 2.11
  50  0.500  0.200  0.503- 148 2.11 147 2.11 144 2.11 167 2.11 150 2.11
  51  0.400  0.400  0.407- 134 2.11 149 2.11 153 2.11 154 2.11 151 2.11
  52  0.500  0.500  0.407- 153 2.11 154 2.11 158 2.11 173 2.11 152 2.11
  53  0.400  0.500  0.503- 132 2.11 151 2.11 152 2.11 155 2.11 153 2.11
  54  0.500  0.400  0.503- 148 2.11 151 2.11 152 2.11 171 2.11 154 2.11
  55  0.400  0.600  0.407- 138 2.11 153 2.11 157 2.11 158 2.11 155 2.11
  56  0.500  0.700  0.407- 162 2.11 158 2.11 157 2.11 177 2.11 156 2.11
  57  0.400  0.700  0.503- 159 2.11 155 2.11 156 2.11 136 2.11 157 2.11
  58  0.500  0.600  0.503- 152 2.11 155 2.11 156 2.11 175 2.11 158 2.11
  59  0.400  0.800  0.407- 157 2.11 142 2.11 161 2.11 162 2.11 159 2.11
  60  0.500  0.900  0.407- 146 2.11 161 2.11 162 2.11 181 2.11 160 2.11
[...]
 188  0.900  0.300  0.503-  90 2.11  89 2.11   9 2.11  94 2.11  88 2.11
 189  0.800  0.300  0.407-  68 2.11  87 2.11  88 2.11  91 2.11  89 2.11
 190  0.900  0.200  0.407-  88 2.11  84 2.11  87 2.11   7 2.11  90 2.11
 191  0.800  0.400  0.503-  74 2.11  89 2.11  93 2.11  94 2.11  91 2.11
 192  0.900  0.500  0.503-  13 2.11  93 2.11  94 2.11  98 2.11  92 2.11
 193  0.800  0.500  0.407-  72 2.11  91 2.11  92 2.11  95 2.11  93 2.11
 194  0.900  0.400  0.407-  11 2.11  88 2.11  91 2.11  92 2.11  94 2.11
 195  0.800  0.600  0.503-  78 2.11  93 2.11  97 2.11  98 2.11  95 2.11
 196  0.900  0.700  0.503- 102 2.11  97 2.11  98 2.11  17 2.11  96 2.11
 197  0.800  0.700  0.407-  76 2.11  99 2.11  96 2.11  95 2.11  97 2.11
 198  0.900  0.600  0.407-  15 2.11  92 2.11  95 2.11  96 2.11  98 2.11
 199  0.800  0.800  0.503-  82 2.11  97 2.11 101 2.11 102 2.11  99 2.11
 200  0.900  0.900  0.503-  21 2.11  86 2.11 101 2.11 102 2.11 100 2.11
 201  0.800  0.900  0.407-  80 2.11  83 2.11  99 2.11 100 2.11 101 2.11
 202  0.900  0.800  0.407-  96 2.11  19 2.11  99 2.11 100 2.11 102 2.11

IMPORTANT INFORMATION: All symmetrisations will be switched off!
NOSYMM: (Re-)initialisation of all symmetry stuff for point group C_1.

                                     Primitive cell

  volume of cell :    9881.6133

  direct lattice vectors                    reciprocal lattice vectors
    21.138852197  0.000000000  0.000000000     0.047306258  0.000000000  0.000000000
     0.000000000 21.138852197  0.000000000     0.000000000  0.047306258  0.000000000
     0.000000000  0.000000000 22.113885220     0.000000000  0.000000000  0.045220457

  length of vectors
    21.138852197 21.138852197 22.113885220     0.047306258  0.047306258  0.045220457

  position of ions in fractional coordinates (direct lattice)
     0.552684359  0.500000000  0.630409391
     0.447315641  0.500000000  0.630409391
     0.000000000  0.000000000  0.406984115
     0.100000000  0.100000000  0.406984115
     0.000000000  0.100000000  0.502574971
     0.100000000  0.000000000  0.502574971
     0.000000000  0.200000000  0.406984115
     0.100000000  0.300000000  0.406984115
     0.000000000  0.300000000  0.502574971
     0.100000000  0.200000000  0.502574971
     0.000000000  0.400000000  0.406984115
     0.100000000  0.500000000  0.406984115
     0.000000000  0.500000000  0.502574971
     0.100000000  0.400000000  0.502574971
     0.000000000  0.600000000  0.406984115
     0.100000000  0.700000000  0.406984115
     0.000000000  0.700000000  0.502574971
     0.100000000  0.600000000  0.502574971
     0.000000000  0.800000000  0.406984115
     0.100000000  0.900000000  0.406984115
     0.000000000  0.900000000  0.502574971
     0.100000000  0.800000000  0.502574971
     0.200000000  0.000000000  0.406984115
     0.300000000  0.100000000  0.406984115
     0.200000000  0.100000000  0.502574971
     0.300000000  0.000000000  0.502574971
     0.200000000  0.200000000  0.406984115
     0.300000000  0.300000000  0.406984115
     0.200000000  0.300000000  0.502574971
     0.300000000  0.200000000  0.502574971
     0.200000000  0.400000000  0.406984115
     0.300000000  0.500000000  0.406984115
     0.200000000  0.500000000  0.502574971
     0.300000000  0.400000000  0.502574971
     0.200000000  0.600000000  0.406984115
     0.300000000  0.700000000  0.406984115
     0.200000000  0.700000000  0.502574971
     0.300000000  0.600000000  0.502574971
     0.200000000  0.800000000  0.406984115
     0.300000000  0.900000000  0.406984115
     0.200000000  0.900000000  0.502574971
     0.300000000  0.800000000  0.502574971
     0.400000000  0.000000000  0.406984115
     0.500000000  0.100000000  0.406984115
     0.400000000  0.100000000  0.502574971
     0.500000000  0.000000000  0.502574971
[...]
     52     -43.2910      2.00000
     53     -43.2899      2.00000
     54     -43.2899      2.00000
     55     -43.2898      2.00000
     56     -43.2892      2.00000
     57     -43.2888      2.00000
     58     -43.2886      2.00000
     59     -43.2885      2.00000
     60     -43.2883      2.00000
[...]
    850       4.2800      0.00000
    851       4.2938      0.00000
    852       4.3436      0.00000
    853       4.3732      0.00000
    854       4.4096      0.00000
    855       4.4430      0.00000
    856       4.4576      0.00000
    857       4.4682      0.00000
    858       4.4908      0.00000
    859       4.5242      0.00000
    860       4.5500      0.00000
    861       4.6048      0.00000
    862       4.6189      0.00000
    863       4.6602      0.00000
    864       4.6788      0.00000

 soft charge-density along one line, spin component           1
         0         1         2         3         4         5         6         7         8         9
 total charge-density along one line

------------------------ aborting loop because EDIFF is reached ----------------------------------------

  FORCE on cell =-STRESS in cart. coord.  units (eV):
  Direction    XX          YY          ZZ          XY          YZ          ZX
  Alpha Z  1354.41543  1354.41543  1354.41543
  Ewald  479351.43510478555.77928************     0.00000     0.00000    -0.00000
  Hartree508257.77031507665.36117************    -0.00114     0.00069    -0.00331
  E(xc)   -8232.19027 -8232.22347 -8257.95315     0.00002    -0.00001    -0.00000
  Local  ************************************     0.00148    -0.00056     0.00415
  n-local -8995.16553 -8992.17828 -9116.96359     0.00213     0.00240    -0.00014
  augment  3992.33620  3998.03289  3942.01915     0.00044    -0.00001    -0.00004
  Kinetic 22891.06972 22896.79469 23144.31744    -0.00119    -0.00073    -0.00001
  Fock        0.00000     0.00000     0.00000     0.00000     0.00000     0.00000
  Total    -167.53768  -167.61303     7.69790     0.00174     0.00178     0.00064
  in kB     -27.16409   -27.17631     1.24812     0.00028     0.00029     0.00010

 VOLUME and BASIS-vectors are now :
  energy-cutoff  :      520.00
  volume of cell :     9881.61
      direct lattice vectors                 reciprocal lattice vectors
    21.138852197  0.000000000  0.000000000     0.047306258  0.000000000  0.000000000
     0.000000000 21.138852197  0.000000000     0.000000000  0.047306258  0.000000000
     0.000000000  0.000000000 22.113885220     0.000000000  0.000000000  0.045220457

  length of vectors
    21.138852197 21.138852197 22.113885220     0.047306258  0.047306258  0.045220457

 FORCES acting on ions:
    Electron-Ion                     Ewald-Force                    Non-Local-Force
   -.360E+03 0.463E-04 -.202E+04   0.348E+03 0.874E-08 0.202E+04   0.125E+02 -.546E-03 0.397E-01
   0.360E+03 0.111E-03 -.202E+04   -.348E+03 0.874E-08 0.202E+04   -.125E+02 -.372E-03 0.372E-01
   0.537E-03 -.630E-03 0.931E+03   0.941E-13 0.700E-08 -.923E+03   -.259E-04 -.128E-03 -.791E+01
   0.378E+01 0.407E+01 0.932E+03   -.378E+01 -.408E+01 -.924E+03   -.170E-02 0.665E-02 -.792E+01
   0.568E-04 0.434E+01 -.923E+03   0.131E-12 -.434E+01 0.915E+03   0.304E-04 0.636E-02 0.789E+01
   0.396E+01 0.381E-03 -.923E+03   -.396E+01 0.998E-08 0.915E+03   -.311E-02 -.401E-04 0.789E+01
   -.252E-03 0.599E+01 0.933E+03   0.155E-10 -.601E+01 -.925E+03   -.376E-04 0.107E-01 -.791E+01
   0.785E+01 0.769E+01 0.936E+03   -.786E+01 -.770E+01 -.928E+03   0.497E-02 0.151E-01 -.791E+01
   -.138E-03 0.804E+01 -.921E+03   0.207E-11 -.806E+01 0.912E+03   0.347E-04 0.125E-01 0.789E+01
   0.716E+01 0.904E+01 -.921E+03   -.716E+01 -.906E+01 0.913E+03   -.102E-02 0.135E-01 0.789E+01
   -.126E-03 0.413E+01 0.936E+03   -.175E-10 -.415E+01 -.928E+03   -.433E-05 0.800E-02 -.791E+01
   0.115E+02 -.687E-04 0.940E+03   -.115E+02 -.107E-07 -.931E+03   0.240E-01 0.469E-04 -.792E+01
   -.208E-03 -.207E-04 -.919E+03   0.229E-12 -.110E-07 0.911E+03   -.230E-03 0.114E-03 0.790E+01
   0.155E+02 0.705E+01 -.917E+03   -.156E+02 -.706E+01 0.909E+03   0.177E-01 0.117E-01 0.790E+01
   -.209E-03 -.413E+01 0.936E+03   0.114E-11 0.415E+01 -.928E+03   -.575E-04 -.797E-02 -.791E+01
   0.785E+01 -.769E+01 0.936E+03   -.786E+01 0.770E+01 -.928E+03   0.496E-02 -.151E-01 -.791E+01
   -.188E-03 -.804E+01 -.921E+03   -.927E-12 0.806E+01 0.912E+03   -.704E-04 -.125E-01 0.789E+01
   0.155E+02 -.705E+01 -.917E+03   -.156E+02 0.706E+01 0.909E+03   0.177E-01 -.116E-01 0.790E+01
   -.231E-03 -.599E+01 0.933E+03   0.909E-12 0.601E+01 -.925E+03   0.148E-04 -.106E-01 -.791E+01
   0.378E+01 -.407E+01 0.932E+03   -.378E+01 0.408E+01 -.924E+03   -.170E-02 -.676E-02 -.792E+01
   -.530E-03 -.434E+01 -.923E+03   -.899E-12 0.434E+01 0.915E+03   -.628E-05 -.629E-02 0.789E+01
   0.716E+01 -.904E+01 -.921E+03   -.716E+01 0.906E+01 0.913E+03   -.105E-02 -.136E-01 0.789E+01
   0.545E+01 0.392E-04 0.933E+03   -.544E+01 0.109E-07 -.925E+03   -.413E-02 -.448E-04 -.792E+01
   0.688E+01 0.794E+01 0.936E+03   -.687E+01 -.795E+01 -.927E+03   -.505E-02 0.109E-01 -.792E+01
   0.821E+01 0.747E+01 -.921E+03   -.820E+01 -.748E+01 0.913E+03   -.614E-02 0.864E-02 0.789E+01
   0.709E+01 0.269E-04 -.921E+03   -.708E+01 0.205E-07 0.913E+03   -.631E-02 -.265E-04 0.789E+01
   0.955E+01 0.102E+02 0.937E+03   -.955E+01 -.102E+02 -.928E+03   -.477E-03 0.176E-01 -.792E+01
   0.182E+02 0.196E+02 0.950E+03   -.182E+02 -.197E+02 -.942E+03   0.941E-02 0.406E-01 -.792E+01
   0.226E+02 0.179E+02 -.914E+03   -.226E+02 -.180E+02 0.906E+03   0.404E-02 0.312E-01 0.789E+01
   0.158E+02 0.230E+02 -.915E+03   -.157E+02 -.230E+02 0.906E+03   -.141E-01 0.249E-01 0.789E+01
   0.207E+02 0.861E+01 0.947E+03   -.207E+02 -.864E+01 -.938E+03   0.249E-01 0.238E-01 -.791E+01
   0.330E+02 0.638E-04 0.970E+03   -.330E+02 -.354E-07 -.962E+03   0.160E-01 0.853E-04 -.783E+01
   0.414E+02 -.350E-04 -.904E+03   -.415E+02 -.315E-07 0.896E+03   0.792E-01 0.586E-04 0.790E+01
   0.586E+02 0.339E+02 -.881E+03   -.587E+02 -.340E+02 0.873E+03   0.465E-01 0.839E-01 0.791E+01
   0.207E+02 -.861E+01 0.947E+03   -.207E+02 0.864E+01 -.938E+03   0.250E-01 -.237E-01 -.791E+01
   0.182E+02 -.196E+02 0.950E+03   -.182E+02 0.197E+02 -.942E+03   0.937E-02 -.405E-01 -.792E+01
   0.226E+02 -.179E+02 -.914E+03   -.226E+02 0.180E+02 0.906E+03   0.400E-02 -.312E-01 0.789E+01
   0.586E+02 -.339E+02 -.881E+03   -.587E+02 0.340E+02 0.873E+03   0.467E-01 -.839E-01 0.791E+01
   0.955E+01 -.102E+02 0.937E+03   -.955E+01 0.102E+02 -.928E+03   -.495E-03 -.176E-01 -.792E+01
   0.688E+01 -.794E+01 0.936E+03   -.687E+01 0.795E+01 -.927E+03   -.506E-02 -.109E-01 -.792E+01
   0.821E+01 -.747E+01 -.921E+03   -.820E+01 0.748E+01 0.913E+03   -.610E-02 -.863E-02 0.789E+01
   0.158E+02 -.230E+02 -.915E+03   -.157E+02 0.230E+02 0.906E+03   -.142E-01 -.249E-01 0.789E+01
   0.364E+01 0.717E-04 0.936E+03   -.364E+01 0.189E-07 -.927E+03   -.323E-02 0.393E-05 -.792E+01
   -.441E-04 0.111E+02 0.938E+03   0.435E-11 -.111E+02 -.930E+03   -.145E-05 0.737E-02 -.792E+01
   0.597E+01 0.147E+02 -.918E+03   -.596E+01 -.147E+02 0.910E+03   -.588E-02 0.147E-02 0.789E+01
   0.762E-05 -.292E-04 -.920E+03   0.875E-13 0.292E-07 0.911E+03   -.595E-04 0.423E-05 0.789E+01
   0.742E+01 0.204E+02 0.945E+03   -.742E+01 -.205E+02 -.937E+03   -.491E-02 0.368E-01 -.793E+01
   0.127E-03 0.330E+02 0.966E+03   -.558E-11 -.331E+02 -.958E+03   0.151E-04 0.510E-01 -.797E+01
   0.259E+02 0.581E+02 -.887E+03   -.258E+02 -.582E+02 0.879E+03   -.464E-01 0.986E-01 0.786E+01
   0.238E-03 0.378E+02 -.908E+03   -.191E-10 -.378E+02 0.899E+03   0.854E-04 -.205E-01 0.788E+01
   0.224E+02 0.254E+02 0.986E+03   -.224E+02 -.254E+02 -.977E+03   0.108E-01 0.262E-01 -.781E+01
   0.283E-04 0.166E-03 0.102E+04   -.457E-13 -.740E-07 -.101E+04   0.634E-04 0.592E-04 -.785E+01
   0.965E+02 0.568E-03 -.750E+03   -.964E+02 -.246E-06 0.743E+03   -.770E-01 -.858E-04 0.676E+01
   0.150E-03 0.103E+03 -.787E+03   0.216E-10 -.103E+03 0.780E+03   -.775E-04 0.854E-01 0.736E+01
   0.224E+02 -.254E+02 0.986E+03   -.224E+02 0.254E+02 -.977E+03   0.108E-01 -.261E-01 -.781E+01
   -.439E-04 -.330E+02 0.966E+03   -.183E-10 0.331E+02 -.958E+03   0.447E-04 -.512E-01 -.797E+01
   0.259E+02 -.581E+02 -.887E+03   -.258E+02 0.582E+02 0.879E+03   -.465E-01 -.988E-01 0.786E+01
   -.551E-03 -.103E+03 -.787E+03   0.182E-10 0.103E+03 0.780E+03   0.266E-03 -.855E-01 0.736E+01
   0.742E+01 -.204E+02 0.945E+03   -.742E+01 0.205E+02 -.937E+03   -.496E-02 -.367E-01 -.793E+01
   -.152E-03 -.111E+02 0.938E+03   0.205E-10 0.111E+02 -.930E+03   0.559E-04 -.743E-02 -.792E+01
[...]
   -.111E+02 0.900E+01 0.707E+03   0.111E+02 -.901E+01 -.711E+03   -.819E-02 0.273E-01 0.353E+01
   -.403E+01 0.528E+01 0.702E+03   0.403E+01 -.529E+01 -.706E+03   -.872E-03 0.138E-01 0.353E+01
   -.261E+02 0.106E+02 -.682E+03   0.261E+02 -.106E+02 0.686E+03   -.327E-01 0.384E-01 -.354E+01
   -.132E+02 0.176E-03 -.688E+03   0.132E+02 -.111E-07 0.692E+03   -.193E-01 -.133E-03 -.355E+01
   -.176E+02 -.441E-04 0.713E+03   0.176E+02 -.139E-07 -.717E+03   -.442E-01 0.692E-04 0.356E+01
   -.779E+01 0.385E+01 0.705E+03   0.780E+01 -.386E+01 -.709E+03   -.138E-01 0.151E-01 0.353E+01
   -.261E+02 -.106E+02 -.682E+03   0.261E+02 0.106E+02 0.686E+03   -.327E-01 -.383E-01 -.354E+01
   -.836E+01 -.766E+01 -.691E+03   0.837E+01 0.767E+01 0.695E+03   -.690E-02 -.202E-01 -.355E+01
   -.111E+02 -.900E+01 0.707E+03   0.111E+02 0.901E+01 -.711E+03   -.821E-02 -.273E-01 0.353E+01
   -.779E+01 -.385E+01 0.705E+03   0.780E+01 0.386E+01 -.709E+03   -.138E-01 -.150E-01 0.353E+01
   -.989E+01 -.106E+02 -.690E+03   0.989E+01 0.106E+02 0.694E+03   0.158E-02 -.182E-01 -.356E+01
   -.355E+01 -.384E+01 -.693E+03   0.355E+01 0.385E+01 0.697E+03   0.190E-02 -.721E-02 -.355E+01
   -.483E+01 -.423E+01 0.702E+03   0.483E+01 0.424E+01 -.706E+03   0.308E-02 -.845E-02 0.352E+01
   -.403E+01 -.528E+01 0.702E+03   0.403E+01 0.529E+01 -.706E+03   -.751E-03 -.138E-01 0.353E+01
   -.119E-02 0.966E-03 0.745E+01   0.387E-11 -.142E-11 -.671E-11   0.334E-02 -.186E-02 -.827E+01

 POSITION                                       TOTAL-FORCE (eV/Angst)
     11.68311     10.56943     13.94080        -0.076845     -0.000481      0.011131
      9.45574     10.56943     13.94080         0.079813     -0.000257      0.009605
      0.00000      0.00000      9.00000         0.000499     -0.000752      0.399768
      2.11389      2.11389      9.00000         0.001889     -0.002068      0.400207
      0.00000      2.11389     11.11389         0.000077     -0.001278     -0.397012
      2.11389      0.00000     11.11389         0.001521      0.000344     -0.397916
      0.00000      4.22777      9.00000        -0.000299     -0.001155      0.399916
      2.11389      6.34166      9.00000        -0.001364     -0.002840      0.400699
      0.00000      6.34166     11.11389        -0.000112     -0.001886     -0.399211
      2.11389      4.22777     11.11389         0.000795     -0.002844     -0.397583
      0.00000      8.45554      9.00000        -0.000140     -0.002124      0.402241
      2.11389     10.56943      9.00000        -0.005045     -0.000016      0.402312
      0.00000     10.56943     11.11389        -0.000450      0.000097     -0.399816
      2.11389      8.45554     11.11389        -0.004478     -0.002139     -0.399916
      0.00000     12.68331      9.00000        -0.000275      0.002258      0.402156
      2.11389     14.79720      9.00000        -0.001799      0.003468      0.400562
      0.00000     14.79720     11.11389        -0.000268      0.001989     -0.399343
      2.11389     12.68331     11.11389        -0.004620      0.002129     -0.399843
      0.00000     16.91108      9.00000        -0.000228      0.001686      0.400358
      2.11389     19.02497      9.00000         0.001109      0.001724      0.400018
      0.00000     19.02497     11.11389        -0.000545      0.001176     -0.397886
      2.11389     16.91108     11.11389         0.000440      0.002577     -0.397924
      4.22777      0.00000      9.00000         0.002038     -0.000002      0.401341
      6.34166      2.11389      9.00000         0.002144     -0.002364      0.402729
      4.22777      2.11389     11.11389         0.002522     -0.002008     -0.398293
      6.34166      0.00000     11.11389         0.002946      0.000004     -0.398309
      4.22777      4.22777      9.00000         0.001409     -0.004260      0.401139
      6.34166      6.34166      9.00000        -0.002221     -0.011080      0.402371
      4.22777      6.34166     11.11389         0.000219     -0.007172     -0.398534
      6.34166      4.22777     11.11389         0.005411     -0.005273     -0.396410
      4.22777      8.45554      9.00000        -0.006650     -0.005946      0.399726
      6.34166     10.56943      9.00000        -0.003058      0.000156      0.378549
      4.22777     10.56943     11.11389        -0.025369      0.000029     -0.401988
      6.34166      8.45554     11.11389        -0.010170     -0.020620     -0.396389
      4.22777     12.68331      9.00000        -0.006601      0.005770      0.399562
      6.34166     14.79720      9.00000        -0.002038      0.010833      0.401676
      4.22777     14.79720     11.11389        -0.000255      0.007063     -0.398080
      6.34166     12.68331     11.11389        -0.009661      0.020117     -0.396074
      4.22777     16.91108      9.00000         0.000703      0.004491      0.400842
      6.34166     19.02497      9.00000         0.001982      0.002597      0.402607
      4.22777     19.02497     11.11389         0.002899      0.002042     -0.398129
      6.34166     16.91108     11.11389         0.005563      0.005691     -0.395933
      8.45554      0.00000      9.00000         0.000937      0.000080      0.403303
     10.56943      2.11389      9.00000        -0.000056     -0.000702      0.404427
      8.45554      2.11389     11.11389         0.002637      0.000651     -0.397066
     10.56943      0.00000     11.11389        -0.000061     -0.000022     -0.397303
      8.45554      4.22777      9.00000         0.002868     -0.008105      0.407116
     10.56943      6.34166      9.00000         0.000131     -0.015571      0.415213
      8.45554      6.34166     11.11389         0.019879     -0.026991     -0.372743
     10.56943      4.22777     11.11389         0.000313      0.008083     -0.390996
      8.45554      8.45554      9.00000        -0.001326     -0.005643      0.374090
     10.56943     10.56943      9.00000         0.000084      0.000231      0.335642
      8.45554     10.56943     11.11389        -0.023463      0.000486     -0.410336
     10.56943      8.45554     11.11389         0.000065     -0.001122     -0.151588
      8.45554     12.68331      9.00000        -0.001252      0.005484      0.374736
     10.56943     14.79720      9.00000        -0.000010      0.015031      0.414505
      8.45554     14.79720     11.11389         0.019733      0.026292     -0.372286
     10.56943     12.68331     11.11389        -0.000294      0.000548     -0.151665
      8.45554     16.91108      9.00000         0.002777      0.008338      0.406719
     10.56943     19.02497      9.00000        -0.000108      0.001031      0.404312
[...]
     19.02497      6.34166     11.11389        -0.001821      0.007006      0.512063
     16.91108      6.34166      9.00000        -0.002645      0.008671     -0.514761
     19.02497      4.22777      9.00000        -0.000589      0.004627     -0.515744
     16.91108      8.45554     11.11389        -0.009266      0.011627      0.513358
     19.02497     10.56943     11.11389        -0.005960      0.000048      0.511729
     16.91108     10.56943      9.00000        -0.012478      0.000030     -0.505838
     19.02497      8.45554      9.00000        -0.004029      0.004988     -0.513665
     16.91108     12.68331     11.11389        -0.009477     -0.011659      0.513499
     19.02497     14.79720     11.11389        -0.001908     -0.006957      0.512063
     16.91108     14.79720      9.00000        -0.002626     -0.008501     -0.514433
     19.02497     12.68331      9.00000        -0.004042     -0.005001     -0.513232
     16.91108     16.91108     11.11389        -0.000164     -0.005395      0.511530
     19.02497     19.02497     11.11389         0.000087     -0.002472      0.513079
     16.91108     19.02497      9.00000        -0.000014     -0.002491     -0.515794
     19.02497     16.91108      9.00000        -0.000467     -0.004500     -0.515545
    total drift:                                0.002153     -0.000890     -0.817865

  FREE ENERGIE OF THE ION-ELECTRON SYSTEM (eV)
  free  energy   TOTEN  =     -1776.35320385 eV

  energy  without entropy=    -1776.35320385  energy(sigma->0) =    -1776.35320385