 vasp.6.3.0 20Jan22 (build Apr  1 2022 16:44:48) complex
 executed on        HPECrayEX_GCC date 2022.08.15  19:12:40

 INCAR:
   SYSTEM = MgO-rocksalt
   ISMEAR = 0
   SIGMA = 0.05
   EDIFF = 1E-6
   ALGO = ALL
   ISTART = 0
   IBRION = -1
   NSW = 0
   ISYM = 2
   DIPOL = 0.5 0.5 0.5
   IDIPOL = 3
   LDIPOL = .TRUE.
   GGA = RE
   LUSE_VDW = .TRUE.
   AGGAC = 0.0
   ENCUT = 520
   PREC = Accurate
   LASPH = .TRUE.
   LREAL = Auto
   ISPIN = 1
   NELM = 200
   NELMIN = 8
   NCORE = 4
   KPAR = 2
   LWAVE = .FALSE.
   LCHARG = .FALSE.

 POTCAR:    PAW_PBE Au 04Oct2007
 POTCAR:    PAW_PBE Mg_pv 13Apr2007
 POTCAR:    PAW_PBE O 08Apr2002
|               ----> ADVICE to this user running VASP <----                  |
|     You have switched on vdW-DFT.                                           |
|     This routine was written and supplied by Jiri Klimes. We recommend      |
|     that you carefully read and cite the following publications:            |
|       J. Klimes, D.R. Bowler, A. Michelides                                 |
|          J. Phys.: Cond Matt. 22 022201 (2010)                              |
|       J. Klimes, D.R. Bowler, A. Michelides                                 |
|          Phys. Rev. B. 83, 195131 (2011)                                    |
|     and references therein.                                                 |

   TITEL  = PAW_PBE Au 04Oct2007
   POMASS =  196.966; ZVAL   =   11.000    mass and valenz
   ENMAX  =  229.943; ENMIN  =  172.457 eV

   TITEL  = PAW_PBE Mg_pv 13Apr2007
   POMASS =   24.305; ZVAL   =    8.000    mass and valenz
   ENMAX  =  403.929; ENMIN  =  302.947 eV

   TITEL  = PAW_PBE O 08Apr2002
   POMASS =   16.000; ZVAL   =    6.000    mass and valenz
   ENMAX  =  400.000; ENMIN  =  300.000 eV

 Optimization of the real space projectors (new method)

 maximal supplied QI-value         = 15.12
 optimisation between [QCUT,QGAM] = [ 11.64, 23.28] = [ 37.95,151.78] Ry
 Optimized for a Real-space Cutoff    1.49 Angstroem

   l    n(q)    QCUT    max X(q) W(low)/X(q) W(high)/X(q)  e(spline)
   2      9    11.641    60.898    0.24E-03    0.10E-03    0.19E-06
   2      9    11.641    58.894    0.25E-03    0.10E-03    0.19E-06
   0     10    11.641   109.617    0.73E-04    0.33E-04    0.11E-06
   0     10    11.641    75.026    0.71E-04    0.32E-04    0.11E-06
   1     10    11.641    16.344    0.27E-04    0.97E-04    0.16E-06
   1     10    11.641    10.160    0.23E-04    0.77E-04    0.13E-06
 Optimization of the real space projectors (new method)

[...]

   l    n(q)    QCUT    max X(q) W(low)/X(q) W(high)/X(q)  e(spline)
   1      8    11.527     2.974    0.44E-04    0.56E-04    0.12E-06
   1      8    11.527     4.279    0.12E-03    0.12E-03    0.26E-06
   0      9    11.527    16.381    0.46E-04    0.64E-04    0.78E-07
   0      9    11.527     5.611    0.26E-04    0.43E-04    0.55E-07
   2      8    11.527     4.652    0.22E-03    0.72E-04    0.47E-07
 Optimization of the real space projectors (new method)

 maximal supplied QI-value         = 24.76
 optimisation between [QCUT,QGAM] = [ 11.64, 23.27] = [ 37.91,151.63] Ry
 Optimized for a Real-space Cutoff    1.14 Angstroem

   l    n(q)    QCUT    max X(q) W(low)/X(q) W(high)/X(q)  e(spline)
   0      8    11.635    20.381    0.10E-03    0.33E-03    0.24E-06
   0      8    11.635    15.268    0.11E-03    0.35E-03    0.26E-06
   1      7    11.635     5.964    0.24E-03    0.31E-03    0.30E-06
   1      7    11.635     5.382    0.22E-03    0.25E-03    0.26E-06
|               ----> ADVICE to this user running VASP <----                  |
|     You enforced a specific xc type in the INCAR file but a different       |
|     type was found in the POTCAR file.                                      |
|     I HOPE YOU KNOW WHAT YOU ARE DOING!                                     |

  PAW_PBE Au 04Oct2007                  :
  PAW_PBE Mg_pv 13Apr2007               :
  PAW_PBE O 08Apr2002                   :

 POSCAR: Au Mg  O
  positions in direct lattice
 exchange correlation table for  LEXCH =       40
   RHO(1)=    0.500       N(1)  =     2000
   RHO(2)=  100.500       N(2)  =     4000

 ion  position               nearest neighbor table
   1  0.560  0.500  0.629-   2 2.54  73 2.92
   2  0.440  0.500  0.629-   1 2.54  53 2.92
   3  0.000  0.000  0.407- 105 2.11 106 2.11 121 2.11 186 2.11 103 2.11
   4  0.100  0.100  0.407- 105 2.11 106 2.11 110 2.11 125 2.11 104 2.11
   5  0.000  0.100  0.503- 103 2.11 104 2.11 107 2.11 184 2.11 105 2.11
   6  0.100  0.000  0.503- 103 2.11 104 2.11 120 2.11 123 2.11 106 2.11
   7  0.000  0.200  0.407- 109 2.11 105 2.11 110 2.11 190 2.11 107 2.11
   8  0.100  0.300  0.407- 110 2.11 109 2.11 114 2.11 129 2.11 108 2.11
   9  0.000  0.300  0.503- 107 2.11 108 2.11 111 2.11 188 2.11 109 2.11
  10  0.100  0.200  0.503- 108 2.11 107 2.11 104 2.11 127 2.11 110 2.11
  11  0.000  0.400  0.407- 109 2.11 113 2.11 114 2.11 194 2.11 111 2.11
  12  0.100  0.500  0.407- 113 2.11 114 2.11 118 2.11 133 2.11 112 2.11
  13  0.000  0.500  0.503- 111 2.11 112 2.11 115 2.11 192 2.11 113 2.11
  14  0.100  0.400  0.503- 108 2.11 111 2.11 112 2.11 131 2.11 114 2.11
  15  0.000  0.600  0.407- 113 2.11 117 2.11 118 2.11 198 2.11 115 2.11
  16  0.100  0.700  0.407- 122 2.11 118 2.11 117 2.11 137 2.11 116 2.11
  17  0.000  0.700  0.503- 119 2.11 116 2.11 115 2.11 196 2.11 117 2.11
  18  0.100  0.600  0.503- 112 2.11 115 2.11 116 2.11 135 2.11 118 2.11
  19  0.000  0.800  0.407- 117 2.11 121 2.11 122 2.11 202 2.11 119 2.11
  20  0.100  0.900  0.407- 106 2.11 121 2.11 122 2.11 141 2.11 120 2.11
  21  0.000  0.900  0.503- 103 2.11 119 2.11 120 2.11 200 2.11 121 2.11
  22  0.100  0.800  0.503- 116 2.11 119 2.11 120 2.11 139 2.11 122 2.11
  23  0.200  0.000  0.407- 126 2.11 125 2.11 106 2.11 141 2.11 123 2.11
  24  0.300  0.100  0.407- 125 2.11 126 2.11 130 2.11 145 2.11 124 2.11
  25  0.200  0.100  0.503- 124 2.11 123 2.11 104 2.11 127 2.11 125 2.11
  26  0.300  0.000  0.503- 123 2.11 124 2.11 140 2.11 143 2.11 126 2.11
  27  0.200  0.200  0.407- 129 2.11 130 2.11 110 2.11 125 2.11 127 2.11
  28  0.300  0.300  0.407- 129 2.11 130 2.11 134 2.11 149 2.11 128 2.11
  29  0.200  0.300  0.503- 127 2.11 128 2.11 108 2.11 131 2.11 129 2.11
  30  0.300  0.200  0.503- 127 2.11 128 2.11 124 2.11 147 2.11 130 2.11
  31  0.200  0.400  0.407- 134 2.11 129 2.11 133 2.11 114 2.11 131 2.11
  32  0.300  0.500  0.407- 133 2.11 134 2.11 138 2.11 153 2.11 132 2.11
  33  0.200  0.500  0.503- 132 2.11 131 2.11 112 2.11 135 2.11 133 2.11
  34  0.300  0.400  0.503- 131 2.11 128 2.11 132 2.11 151 2.11 134 2.11
  35  0.200  0.600  0.407- 138 2.11 133 2.11 137 2.11 118 2.11 135 2.11
  36  0.300  0.700  0.407- 137 2.11 142 2.11 138 2.11 157 2.11 136 2.11
  37  0.200  0.700  0.503- 136 2.11 139 2.11 116 2.11 135 2.11 137 2.11
  38  0.300  0.600  0.503- 135 2.11 132 2.11 136 2.11 155 2.11 138 2.11
  39  0.200  0.800  0.407- 137 2.11 142 2.11 141 2.11 122 2.11 139 2.11
  40  0.300  0.900  0.407- 141 2.11 126 2.11 142 2.11 161 2.11 140 2.11
  41  0.200  0.900  0.503- 140 2.11 123 2.11 139 2.11 120 2.11 141 2.11
  42  0.300  0.800  0.503- 136 2.11 139 2.11 140 2.11 159 2.11 142 2.11
  43  0.400  0.000  0.407- 126 2.11 145 2.11 146 2.11 161 2.11 143 2.11
  44  0.500  0.100  0.407- 145 2.11 146 2.11 150 2.11 165 2.11 144 2.11
  45  0.400  0.100  0.503- 124 2.11 143 2.11 144 2.11 147 2.11 145 2.11
  46  0.500  0.000  0.503- 143 2.11 144 2.11 160 2.11 163 2.11 146 2.11
  47  0.400  0.200  0.407- 149 2.11 145 2.11 130 2.11 150 2.11 147 2.11
  48  0.500  0.300  0.407- 150 2.11 149 2.11 154 2.11 169 2.11 148 2.11
  49  0.400  0.300  0.503- 147 2.11 128 2.11 148 2.11 151 2.11 149 2.11
  50  0.500  0.200  0.503- 148 2.11 147 2.11 144 2.11 167 2.11 150 2.11
  51  0.400  0.400  0.407- 134 2.11 149 2.11 153 2.11 154 2.11 151 2.11
  52  0.500  0.500  0.407- 153 2.11 154 2.11 158 2.11 173 2.11 152 2.11
  53  0.400  0.500  0.503- 132 2.11 151 2.11 152 2.11 155 2.11 153 2.11   2 2.92
  54  0.500  0.400  0.503- 148 2.11 151 2.11 152 2.11 171 2.11 154 2.11
  55  0.400  0.600  0.407- 138 2.11 153 2.11 157 2.11 158 2.11 155 2.11
  56  0.500  0.700  0.407- 162 2.11 158 2.11 157 2.11 177 2.11 156 2.11
  57  0.400  0.700  0.503- 159 2.11 155 2.11 156 2.11 136 2.11 157 2.11
  58  0.500  0.600  0.503- 152 2.11 155 2.11 156 2.11 175 2.11 158 2.11
  59  0.400  0.800  0.407- 157 2.11 142 2.11 161 2.11 162 2.11 159 2.11
  60  0.500  0.900  0.407- 146 2.11 161 2.11 162 2.11 181 2.11 160 2.11
[...]
 188  0.900  0.300  0.503-  90 2.11  89 2.11   9 2.11  94 2.11  88 2.11
 189  0.800  0.300  0.407-  68 2.11  87 2.11  88 2.11  91 2.11  89 2.11
 190  0.900  0.200  0.407-  88 2.11  84 2.11  87 2.11   7 2.11  90 2.11
 191  0.800  0.400  0.503-  74 2.11  89 2.11  93 2.11  94 2.11  91 2.11
 192  0.900  0.500  0.503-  13 2.11  93 2.11  94 2.11  98 2.11  92 2.11
 193  0.800  0.500  0.407-  72 2.11  91 2.11  92 2.11  95 2.11  93 2.11
 194  0.900  0.400  0.407-  11 2.11  88 2.11  91 2.11  92 2.11  94 2.11
 195  0.800  0.600  0.503-  78 2.11  93 2.11  97 2.11  98 2.11  95 2.11
 196  0.900  0.700  0.503- 102 2.11  97 2.11  98 2.11  17 2.11  96 2.11
 197  0.800  0.700  0.407-  76 2.11  99 2.11  96 2.11  95 2.11  97 2.11
 198  0.900  0.600  0.407-  15 2.11  92 2.11  95 2.11  96 2.11  98 2.11
 199  0.800  0.800  0.503-  82 2.11  97 2.11 101 2.11 102 2.11  99 2.11
 200  0.900  0.900  0.503-  21 2.11  86 2.11 101 2.11 102 2.11 100 2.11
 201  0.800  0.900  0.407-  80 2.11  83 2.11  99 2.11 100 2.11 101 2.11
 202  0.900  0.800  0.407-  96 2.11  19 2.11  99 2.11 100 2.11 102 2.11

  LATTYP: Found a simple tetragonal cell.
 ALAT       =    21.1388521970
 C/A-ratio  =     1.0461251639

  Lattice vectors:

 A1 = (  21.1388521970,   0.0000000000,   0.0000000000)
 A2 = (   0.0000000000,  21.1388521970,   0.0000000000)
 A3 = (   0.0000000000,   0.0000000000,  22.1138852197)

Analysis of symmetry for initial positions (statically):
 Subroutine PRICEL returns:
 Original cell was already a primitive cell.

 Routine SETGRP: Setting up the symmetry group for a
 simple tetragonal supercell.

 Subroutine GETGRP returns: Found  4 space group operations
 (whereof  4 operations were pure point group operations)
 out of a pool of 16 trial point group operations.

The static configuration has the point symmetry C_2v.

Analysis of symmetry for dynamics (positions and initial velocities):
 Subroutine PRICEL returns:
 Original cell was already a primitive cell.

 Routine SETGRP: Setting up the symmetry group for a
 simple tetragonal supercell.

 Subroutine GETGRP returns: Found  4 space group operations
 (whereof  4 operations were pure point group operations)
 out of a pool of 16 trial point group operations.

The dynamic configuration has the point symmetry C_2v.

 Subroutine INISYM returns: Found  4 space group operations
 (whereof  4 operations are pure point group operations),
 and found     1 'primitive' translations

                                     Primitive cell

  volume of cell :    9881.6133

  direct lattice vectors                    reciprocal lattice vectors
    21.138852197  0.000000000  0.000000000     0.047306258  0.000000000  0.000000000
[...]
     52     -43.5403      2.00000
     53     -43.5396      2.00000
     54     -43.5391      2.00000
     55     -43.5389      2.00000
     56     -43.5387      2.00000
     57     -43.5387      2.00000
     58     -43.5386      2.00000
     59     -43.5374      2.00000
     60     -43.5372      2.00000
[...]
    882       4.5744      0.00000
    883       4.5956      0.00000
    884       4.6167      0.00000
    885       4.6225      0.00000
    886       4.6957      0.00000
    887       4.7071      0.00000
    888       4.7574      0.00000
    889       5.0398      0.00000
    890       5.1934      0.00000
    891       5.2646      0.00000
    892       5.3621      0.00000
    893       5.3749      0.00000
    894       5.4110      0.00000
    895       5.4478      0.00000
    896       5.5080      0.00000

 soft charge-density along one line, spin component           1
         0         1         2         3         4         5         6         7         8         9
 total charge-density along one line

------------------------ aborting loop because EDIFF is reached ----------------------------------------

  FORCE on cell =-STRESS in cart. coord.  units (eV):
  Direction    XX          YY          ZZ          XY          YZ          ZX
  Alpha Z  1365.75682  1365.75682  1365.75682
  Ewald  479365.16978478663.75728************    -0.00000     0.00000    -0.00000
  Hartree507700.24547507224.66687************    -0.00000     0.00000    -0.00000
  E(xc)   -7957.10750 -7958.07938 -7975.07935    -0.00000     0.00000    -0.00000
  Local  ************************************    -0.00000    -0.00000    -0.00000
  n-local -8781.20932 -8766.91602 -8878.26736     0.00000     0.00001     0.00001
  augment  3511.24103  3514.85421  3458.60411    -0.00000     0.00000     0.00000
  Kinetic 23061.75264 23071.46013 23280.68611    -0.00003    -0.00001    -0.00001
  Fock        0.00000     0.00000     0.00000     0.00000     0.00000     0.00000
  Total    -118.90247  -120.33034    38.29063     0.00000     0.00000     0.00000
  in kB     -19.27852   -19.51003     6.20834     0.00000     0.00000     0.00000

 VOLUME and BASIS-vectors are now :
  energy-cutoff  :      520.00
  volume of cell :     9881.61
      direct lattice vectors                 reciprocal lattice vectors
    21.138852197  0.000000000  0.000000000     0.047306258  0.000000000  0.000000000
     0.000000000 21.138852197  0.000000000     0.000000000  0.047306258  0.000000000
     0.000000000  0.000000000 22.113885220     0.000000000  0.000000000  0.045220457

  length of vectors
    21.138852197 21.138852197 22.113885220     0.047306258  0.047306258  0.045220457

 FORCES acting on ions:
    Electron-Ion                     Ewald-Force                    Non-Local-Force
   -.272E+03 -.247E-05 -.203E+04   0.267E+03 0.118E-07 0.203E+04   0.574E+01 0.000E+00 0.309E+00
   0.272E+03 -.247E-05 -.203E+04   -.267E+03 0.118E-07 0.203E+04   -.574E+01 0.000E+00 0.309E+00
   0.125E-12 -.263E-08 0.930E+03   0.764E-13 0.711E-08 -.923E+03   0.000E+00 0.000E+00 -.681E+01
   0.375E+01 0.413E+01 0.931E+03   -.375E+01 -.414E+01 -.924E+03   -.516E-04 0.903E-02 -.681E+01
   0.108E-12 0.441E+01 -.922E+03   0.103E-12 -.442E+01 0.915E+03   0.265E-22 0.752E-02 0.677E+01
   0.392E+01 -.375E-08 -.922E+03   -.392E+01 0.101E-07 0.915E+03   -.212E-02 0.000E+00 0.677E+01
   0.125E-12 0.609E+01 0.932E+03   0.153E-10 -.611E+01 -.925E+03   -.331E-23 0.142E-01 -.681E+01
   0.786E+01 0.783E+01 0.935E+03   -.787E+01 -.786E+01 -.928E+03   0.104E-01 0.214E-01 -.681E+01
   0.116E-12 0.822E+01 -.919E+03   0.181E-11 -.824E+01 0.912E+03   0.000E+00 0.148E-01 0.677E+01
   0.714E+01 0.921E+01 -.920E+03   -.714E+01 -.923E+01 0.913E+03   0.334E-03 0.163E-01 0.677E+01
   0.130E-12 0.422E+01 0.935E+03   -.174E-10 -.424E+01 -.928E+03   0.000E+00 0.102E-01 -.681E+01
   0.116E+02 0.405E-08 0.938E+03   -.116E+02 -.109E-07 -.932E+03   0.438E-01 0.265E-22 -.681E+01
   0.125E-12 0.418E-08 -.917E+03   0.120E-12 -.113E-07 0.910E+03   0.000E+00 0.000E+00 0.677E+01
   0.158E+02 0.726E+01 -.915E+03   -.158E+02 -.727E+01 0.909E+03   0.240E-01 0.139E-01 0.676E+01
   0.123E-12 -.422E+01 0.935E+03   0.116E-11 0.424E+01 -.928E+03   0.000E+00 -.102E-01 -.681E+01
   0.786E+01 -.783E+01 0.935E+03   -.787E+01 0.786E+01 -.928E+03   0.104E-01 -.214E-01 -.681E+01
   0.126E-12 -.822E+01 -.919E+03   -.785E-12 0.824E+01 0.912E+03   0.265E-22 -.148E-01 0.677E+01
   0.158E+02 -.726E+01 -.915E+03   -.158E+02 0.727E+01 0.909E+03   0.240E-01 -.139E-01 0.676E+01
   0.136E-12 -.609E+01 0.932E+03   0.853E-12 0.611E+01 -.925E+03   0.000E+00 -.142E-01 -.681E+01
   0.375E+01 -.413E+01 0.931E+03   -.375E+01 0.414E+01 -.924E+03   -.516E-04 -.903E-02 -.681E+01
   0.128E-12 -.441E+01 -.922E+03   -.867E-12 0.442E+01 0.915E+03   -.265E-22 -.752E-02 0.677E+01
   0.714E+01 -.921E+01 -.920E+03   -.714E+01 0.923E+01 0.913E+03   0.334E-03 -.163E-01 0.677E+01
   0.537E+01 -.408E-08 0.931E+03   -.537E+01 0.110E-07 -.925E+03   -.176E-02 0.000E+00 -.681E+01
   0.677E+01 0.797E+01 0.934E+03   -.677E+01 -.799E+01 -.927E+03   -.146E-02 0.164E-01 -.681E+01
   0.811E+01 0.755E+01 -.920E+03   -.811E+01 -.756E+01 0.913E+03   -.400E-02 0.103E-01 0.677E+01
   0.697E+01 -.763E-08 -.920E+03   -.696E+01 0.206E-07 0.913E+03   -.462E-02 0.414E-24 0.676E+01
   0.947E+01 0.103E+02 0.935E+03   -.948E+01 -.104E+02 -.928E+03   0.501E-02 0.252E-01 -.681E+01
   0.179E+02 0.199E+02 0.949E+03   -.180E+02 -.200E+02 -.942E+03   0.239E-01 0.610E-01 -.682E+01
   0.226E+02 0.184E+02 -.912E+03   -.226E+02 -.184E+02 0.905E+03   0.890E-02 0.381E-01 0.676E+01
   0.155E+02 0.232E+02 -.913E+03   -.155E+02 -.232E+02 0.906E+03   -.874E-02 0.307E-01 0.676E+01
   0.207E+02 0.881E+01 0.946E+03   -.208E+02 -.885E+01 -.939E+03   0.441E-01 0.365E-01 -.681E+01
   0.328E+02 0.135E-07 0.969E+03   -.328E+02 -.363E-07 -.963E+03   0.156E-01 0.000E+00 -.667E+01
   0.422E+02 0.122E-07 -.902E+03   -.423E+02 -.330E-07 0.895E+03   0.113E+00 0.265E-22 0.676E+01
   0.588E+02 0.353E+02 -.878E+03   -.589E+02 -.355E+02 0.871E+03   0.728E-01 0.124E+00 0.676E+01
   0.207E+02 -.881E+01 0.946E+03   -.208E+02 0.885E+01 -.939E+03   0.441E-01 -.365E-01 -.681E+01
   0.179E+02 -.199E+02 0.949E+03   -.180E+02 0.200E+02 -.942E+03   0.239E-01 -.610E-01 -.682E+01
   0.226E+02 -.184E+02 -.912E+03   -.226E+02 0.184E+02 0.905E+03   0.890E-02 -.381E-01 0.676E+01
   0.588E+02 -.353E+02 -.878E+03   -.589E+02 0.355E+02 0.871E+03   0.728E-01 -.124E+00 0.676E+01
   0.947E+01 -.103E+02 0.935E+03   -.948E+01 0.104E+02 -.928E+03   0.501E-02 -.252E-01 -.681E+01
   0.677E+01 -.797E+01 0.934E+03   -.677E+01 0.799E+01 -.927E+03   -.146E-02 -.164E-01 -.681E+01
   0.811E+01 -.755E+01 -.920E+03   -.811E+01 0.756E+01 0.913E+03   -.400E-02 -.103E-01 0.677E+01
   0.155E+02 -.232E+02 -.913E+03   -.155E+02 0.232E+02 0.906E+03   -.874E-02 -.307E-01 0.676E+01
   0.358E+01 -.701E-08 0.934E+03   -.358E+01 0.189E-07 -.927E+03   -.167E-02 0.000E+00 -.681E+01
   -.205E-12 0.110E+02 0.937E+03   0.387E-11 -.111E+02 -.930E+03   0.265E-22 0.176E-01 -.681E+01
   0.584E+01 0.147E+02 -.917E+03   -.583E+01 -.147E+02 0.910E+03   -.434E-02 0.714E-02 0.676E+01
   -.240E-12 -.108E-07 -.918E+03   0.622E-14 0.291E-07 0.911E+03   0.000E+00 0.000E+00 0.676E+01
   0.725E+01 0.204E+02 0.944E+03   -.726E+01 -.205E+02 -.937E+03   0.183E-02 0.569E-01 -.683E+01
   -.195E-12 0.329E+02 0.964E+03   -.579E-11 -.329E+02 -.957E+03   -.662E-23 0.583E-01 -.685E+01
   0.249E+02 0.582E+02 -.886E+03   -.248E+02 -.583E+02 0.879E+03   -.304E-01 0.112E+00 0.671E+01
   -.238E-12 0.375E+02 -.907E+03   -.193E-10 -.375E+02 0.900E+03   0.000E+00 0.220E-02 0.674E+01
   0.217E+02 0.255E+02 0.984E+03   -.217E+02 -.256E+02 -.977E+03   0.157E-01 0.279E-01 -.668E+01
   -.211E-12 0.272E-07 0.102E+04   -.104E-12 -.735E-07 -.101E+04   0.000E+00 0.000E+00 -.693E+01
   0.912E+02 0.950E-07 -.743E+03   -.911E+02 -.257E-06 0.737E+03   -.163E+00 -.529E-22 0.541E+01
   -.254E-12 0.101E+03 -.791E+03   0.215E-10 -.101E+03 0.784E+03   0.000E+00 0.870E-01 0.657E+01
   0.217E+02 -.255E+02 0.984E+03   -.217E+02 0.256E+02 -.977E+03   0.157E-01 -.279E-01 -.668E+01
   -.198E-12 -.329E+02 0.964E+03   -.183E-10 0.329E+02 -.957E+03   0.000E+00 -.583E-01 -.685E+01
   0.249E+02 -.582E+02 -.886E+03   -.248E+02 0.583E+02 0.879E+03   -.304E-01 -.112E+00 0.671E+01
   -.257E-12 -.101E+03 -.791E+03   0.183E-10 0.101E+03 0.784E+03   0.000E+00 -.870E-01 0.657E+01
   0.725E+01 -.204E+02 0.944E+03   -.726E+01 0.205E+02 -.937E+03   0.183E-02 -.569E-01 -.683E+01
   -.198E-12 -.110E+02 0.937E+03   0.203E-10 0.111E+02 -.930E+03   0.000E+00 -.176E-01 -.681E+01
[...]
   -.110E+02 0.915E+01 0.707E+03   0.111E+02 -.918E+01 -.711E+03   -.194E-01 0.390E-01 0.358E+01
   -.402E+01 0.536E+01 0.702E+03   0.402E+01 -.538E+01 -.706E+03   -.384E-02 0.183E-01 0.358E+01
   -.265E+02 0.109E+02 -.681E+03   0.265E+02 -.110E+02 0.686E+03   -.493E-01 0.516E-01 -.363E+01
   -.134E+02 0.426E-08 -.688E+03   0.134E+02 -.115E-07 0.692E+03   -.268E-01 0.000E+00 -.363E+01
   -.177E+02 0.529E-08 0.713E+03   0.178E+02 -.143E-07 -.718E+03   -.741E-01 0.000E+00 0.362E+01
   -.784E+01 0.394E+01 0.705E+03   0.786E+01 -.395E+01 -.709E+03   -.240E-01 0.219E-01 0.358E+01
   -.265E+02 -.109E+02 -.681E+03   0.265E+02 0.110E+02 0.686E+03   -.493E-01 -.516E-01 -.363E+01
   -.841E+01 -.784E+01 -.690E+03   0.842E+01 0.785E+01 0.695E+03   -.107E-01 -.245E-01 -.363E+01
   -.110E+02 -.915E+01 0.707E+03   0.111E+02 0.918E+01 -.711E+03   -.194E-01 -.390E-01 0.358E+01
   -.784E+01 -.394E+01 0.705E+03   0.786E+01 0.395E+01 -.709E+03   -.240E-01 -.219E-01 0.358E+01
   -.983E+01 -.108E+02 -.690E+03   0.983E+01 0.108E+02 0.694E+03   -.208E-02 -.225E-01 -.363E+01
   -.352E+01 -.390E+01 -.693E+03   0.352E+01 0.390E+01 0.697E+03   0.773E-03 -.865E-02 -.362E+01
   -.477E+01 -.427E+01 0.701E+03   0.477E+01 0.428E+01 -.706E+03   -.166E-03 -.117E-01 0.358E+01
   -.402E+01 -.536E+01 0.702E+03   0.402E+01 0.538E+01 -.706E+03   -.384E-02 -.183E-01 0.358E+01
   0.101E-10 -.499E-05 0.100E+02   0.810E-12 0.973E-12 0.148E-10   -.173E-15 -.347E-17 -.110E+02

 POSITION                                       TOTAL-FORCE (eV/Angst)
     11.83780     10.56943     13.91372         0.512516     -0.000000      0.233243
      9.30105     10.56943     13.91372        -0.512516     -0.000000      0.233243
      0.00000      0.00000      9.00000         0.000000     -0.000000      0.162475
      2.11389      2.11389      9.00000         0.000015     -0.002474      0.162594
      0.00000      2.11389     11.11389         0.000000     -0.002059     -0.157959
      2.11389      0.00000     11.11389         0.000602     -0.000000     -0.157912
      0.00000      4.22777      9.00000         0.000000     -0.003980      0.162454
      2.11389      6.34166      9.00000        -0.002939     -0.006068      0.162326
      0.00000      6.34166     11.11389         0.000000     -0.004226     -0.157130
      2.11389      4.22777     11.11389        -0.000065     -0.004465     -0.157162
      0.00000      8.45554      9.00000         0.000000     -0.002996      0.162463
      2.11389     10.56943      9.00000        -0.011302     -0.000000      0.163414
      0.00000     10.56943     11.11389         0.000000     -0.000000     -0.156785
      2.11389      8.45554     11.11389        -0.006412     -0.004112     -0.155810
      0.00000     12.68331      9.00000         0.000000      0.002996      0.162463
      2.11389     14.79720      9.00000        -0.002939      0.006068      0.162326
      0.00000     14.79720     11.11389         0.000000      0.004226     -0.157130
      2.11389     12.68331     11.11389        -0.006412      0.004112     -0.155810
      0.00000     16.91108      9.00000         0.000000      0.003980      0.162454
      2.11389     19.02497      9.00000         0.000015      0.002474      0.162594
      0.00000     19.02497     11.11389         0.000000      0.002059     -0.157959
      2.11389     16.91108     11.11389        -0.000065      0.004465     -0.157162
      4.22777      0.00000      9.00000         0.000506     -0.000000      0.162888
      6.34166      2.11389      9.00000         0.000454     -0.004338      0.163650
      4.22777      2.11389     11.11389         0.001140     -0.002739     -0.156873
      6.34166      0.00000     11.11389         0.001355     -0.000000     -0.156449
      4.22777      4.22777      9.00000        -0.001423     -0.006899      0.163063
      6.34166      6.34166      9.00000        -0.007513     -0.017455      0.164189
      4.22777      6.34166     11.11389        -0.002221     -0.010480     -0.153757
      6.34166      4.22777     11.11389         0.002673     -0.007760     -0.151939
      4.22777      8.45554      9.00000        -0.012961     -0.011111      0.161245
      6.34166     10.56943      9.00000        -0.003671     -0.000000      0.124438
      4.22777     10.56943     11.11389        -0.038345     -0.000000     -0.152583
      6.34166      8.45554     11.11389        -0.018480     -0.033727     -0.143851
      4.22777     12.68331      9.00000        -0.012961      0.011111      0.161245
      6.34166     14.79720      9.00000        -0.007513      0.017455      0.164189
      4.22777     14.79720     11.11389        -0.002221      0.010480     -0.153757
      6.34166     12.68331     11.11389        -0.018480      0.033727     -0.143851
      4.22777     16.91108      9.00000        -0.001423      0.006899      0.163063
      6.34166     19.02497      9.00000         0.000454      0.004338      0.163650
      4.22777     19.02497     11.11389         0.001140      0.002739     -0.156873
      6.34166     16.91108     11.11389         0.002673      0.007760     -0.151939
      8.45554      0.00000      9.00000         0.000505     -0.000000      0.163608
     10.56943      2.11389      9.00000         0.000000     -0.004903      0.164486
      8.45554      2.11389     11.11389         0.001375     -0.001524     -0.153966
     10.56943      0.00000     11.11389         0.000000     -0.000000     -0.155281
      8.45554      4.22777      9.00000        -0.000351     -0.015037      0.167764
     10.56943      6.34166      9.00000         0.000000     -0.019389      0.172151
      8.45554      6.34166     11.11389         0.012323     -0.037512     -0.124166
     10.56943      4.22777     11.11389         0.000000      0.001194     -0.144143
      8.45554      8.45554      9.00000        -0.002714     -0.004416      0.125591
     10.56943     10.56943      9.00000         0.000000     -0.000000      0.143076
      8.45554     10.56943     11.11389        -0.011156     -0.000000     -0.130842
     10.56943      8.45554     11.11389         0.000000     -0.003712      0.005867
      8.45554     12.68331      9.00000        -0.002714      0.004416      0.125591
     10.56943     14.79720      9.00000         0.000000      0.019389      0.172151
      8.45554     14.79720     11.11389         0.012323      0.037512     -0.124166
     10.56943     12.68331     11.11389         0.000000      0.003712      0.005867
      8.45554     16.91108      9.00000        -0.000351      0.015037      0.167764
     10.56943     19.02497      9.00000         0.000000      0.004903      0.164486
[...]
     19.02497      6.34166     11.11389        -0.002991      0.006890      0.544930
     16.91108      6.34166      9.00000        -0.005510      0.010951     -0.552088
     19.02497      4.22777      9.00000        -0.001095      0.005151     -0.551644
     16.91108      8.45554     11.11389        -0.015045      0.014959      0.545336
     19.02497     10.56943     11.11389        -0.007709     -0.000000      0.544317
     16.91108     10.56943      9.00000        -0.021425     -0.000000     -0.541545
     19.02497      8.45554      9.00000        -0.006692      0.006194     -0.551371
     16.91108     12.68331     11.11389        -0.015045     -0.014959      0.545336
     19.02497     14.79720     11.11389        -0.002991     -0.006890      0.544930
     16.91108     14.79720      9.00000        -0.005510     -0.010951     -0.552088
     19.02497     12.68331      9.00000        -0.006692     -0.006194     -0.551371
     16.91108     16.91108     11.11389        -0.000670     -0.006339      0.544048
     19.02497     19.02497     11.11389         0.000206     -0.002414      0.546129
     16.91108     19.02497      9.00000        -0.000068     -0.003269     -0.552010
     19.02497     16.91108      9.00000        -0.001095     -0.005151     -0.551644
    total drift:                                0.000000     -0.000005     -0.974538

  FREE ENERGIE OF THE ION-ELECTRON SYSTEM (eV)
  free  energy   TOTEN  =      -681.42357221 eV

  energy  without entropy=     -681.42357221  energy(sigma->0) =     -681.42357221