 vasp.6.3.0 20Jan22 (build Apr  1 2022 16:44:48) complex
 executed on        HPECrayEX_GCC date 2022.11.18  23:51:27

 INCAR:
   SYSTEM = MgO-rocksalt
   ISMEAR = 0
   SIGMA = 0.05
   EDIFF = 1E-6
   ALGO = ALL
   ISTART = 0
   IBRION = -1
   NSW = 0
   ISYM = 2
   DIPOL = 0.5 0.5 0.5
   IDIPOL = 3
   LDIPOL = .TRUE.
   LHFCALC = .TRUE.
   GGA = PE
   IVDW = 13
   VDW_S8 = 1.2007
   VDW_A1 = 0.4009
   VDW_A2 = 5.0293
   ENCUT = 520
   PREC = Accurate
   LASPH = .TRUE.
   LREAL = Auto
   ISPIN = 1
   NELM = 200
   NELMIN = 8
   NCORE = 4
   KPAR = 2
   LWAVE = .FALSE.
   LCHARG = .FALSE.

 POTCAR:    PAW_PBE Cu 22Jun2005
 POTCAR:    PAW_PBE Mg_pv 13Apr2007
 POTCAR:    PAW_PBE O 08Apr2002
|           W    W    AA    RRRRR   N    N  II  N    N   GGGG   !!!           |
|           W    W   A  A   R    R  NN   N  II  NN   N  G    G  !!!           |
|           W    W  A    A  R    R  N N  N  II  N N  N  G       !!!           |
|           W WW W  AAAAAA  RRRRR   N  N N  II  N  N N  G  GGG   !            |
|           WW  WW  A    A  R   R   N   NN  II  N   NN  G    G                |
|           W    W  A    A  R    R  N    N  II  N    N   GGGG   !!!           |
|     You have selected ISYM=2 for a HF type calculation. This will           |
|     symmetrize the charge density but not the exchange potential. I         |
|     suggest to use ISYM=3 instead. This uses symmetry to obtain the         |
|     orbitals at all k-points in the Brillouin zone, but does not apply      |
|     symmetry to the Hartree potential directly. The resultant charge        |
|     might have lower symmetry than the crystal but, at least, Hartree       |
|     and exchange are fully compatible.                                      |

   TITEL  = PAW_PBE Cu 22Jun2005
   POMASS =   63.546; ZVAL   =   11.000    mass and valenz
   ENMAX  =  295.446; ENMIN  =  221.585 eV

   TITEL  = PAW_PBE Mg_pv 13Apr2007
   POMASS =   24.305; ZVAL   =    8.000    mass and valenz
   ENMAX  =  403.929; ENMIN  =  302.947 eV

   TITEL  = PAW_PBE O 08Apr2002
   POMASS =   16.000; ZVAL   =    6.000    mass and valenz
   ENMAX  =  400.000; ENMIN  =  300.000 eV

 Optimization of the real space projectors (new method)

 maximal supplied QI-value         = 16.25
 optimisation between [QCUT,QGAM] = [ 11.54, 23.24] = [ 37.28,151.24] Ry
 Optimized for a Real-space Cutoff    1.53 Angstroem

   l    n(q)    QCUT    max X(q) W(low)/X(q) W(high)/X(q)  e(spline)
   2     10    11.539     4.610    0.96E-04    0.13E-03    0.19E-06
   2     10    11.539     8.522    0.16E-03    0.21E-03    0.28E-06
   0     11    11.539    51.609    0.45E-04    0.31E-04    0.11E-06
   0     11    11.539    27.747    0.39E-04    0.29E-04    0.10E-06
   1     10    11.539    20.408    0.70E-05    0.38E-04    0.18E-06
   1     10    11.539    13.425    0.66E-05    0.34E-04    0.17E-06
 Optimization of the real space projectors (new method)

[...]

   l    n(q)    QCUT    max X(q) W(low)/X(q) W(high)/X(q)  e(spline)
   1      8    11.527     2.974    0.44E-04    0.56E-04    0.12E-06
   1      8    11.527     4.279    0.12E-03    0.12E-03    0.26E-06
   0      9    11.527    16.381    0.46E-04    0.64E-04    0.78E-07
   0      9    11.527     5.611    0.26E-04    0.43E-04    0.55E-07
   2      8    11.527     4.652    0.22E-03    0.72E-04    0.47E-07
 Optimization of the real space projectors (new method)

 maximal supplied QI-value         = 24.76
 optimisation between [QCUT,QGAM] = [ 11.64, 23.27] = [ 37.91,151.63] Ry
 Optimized for a Real-space Cutoff    1.14 Angstroem

   l    n(q)    QCUT    max X(q) W(low)/X(q) W(high)/X(q)  e(spline)
   0      8    11.635    20.381    0.10E-03    0.33E-03    0.24E-06
   0      8    11.635    15.268    0.11E-03    0.35E-03    0.26E-06
   1      7    11.635     5.964    0.24E-03    0.31E-03    0.30E-06
   1      7    11.635     5.382    0.22E-03    0.25E-03    0.26E-06
  PAW_PBE Cu 22Jun2005                  :
  PAW_PBE Mg_pv 13Apr2007               :
  PAW_PBE O 08Apr2002                   :

 POSCAR: Cu Mg  O
  positions in direct lattice
|           W    W    AA    RRRRR   N    N  II  N    N   GGGG   !!!           |
|           W    W   A  A   R    R  NN   N  II  NN   N  G    G  !!!           |
|           W    W  A    A  R    R  N N  N  II  N N  N  G       !!!           |
|           W WW W  AAAAAA  RRRRR   N  N N  II  N  N N  G  GGG   !            |
|           WW  WW  A    A  R   R   N   NN  II  N   NN  G    G                |
|           W    W  A    A  R    R  N    N  II  N    N   GGGG   !!!           |
|     Specifying the vdW parameters                                           |
|     VDW_S8 = 1.201                                                          |
|     VDW_A1 = 0.401                                                          |
|     VDW_A2 = 5.029                                                          |
|     in the INCAR file will overwrite the defaults for pbe0. Please make     |
|     sure that is what you intended.                                         |

 ion  position               nearest neighbor table
   1  0.450  0.450  0.699-   2 2.23
   2  0.450  0.450  0.598-   1 2.23  53 2.59  54 2.59
   3  0.000  0.000  0.407- 105 2.11 106 2.11 121 2.11 186 2.11 103 2.11
   4  0.100  0.100  0.407- 105 2.11 106 2.11 110 2.11 125 2.11 104 2.11
   5  0.000  0.100  0.503- 103 2.11 104 2.11 107 2.11 184 2.11 105 2.11
   6  0.100  0.000  0.503- 103 2.11 104 2.11 120 2.11 123 2.11 106 2.11
   7  0.000  0.200  0.407- 109 2.11 105 2.11 110 2.11 190 2.11 107 2.11
   8  0.100  0.300  0.407- 110 2.11 109 2.11 114 2.11 129 2.11 108 2.11
   9  0.000  0.300  0.503- 107 2.11 108 2.11 111 2.11 188 2.11 109 2.11
  10  0.100  0.200  0.503- 108 2.11 107 2.11 104 2.11 127 2.11 110 2.11
  11  0.000  0.400  0.407- 109 2.11 113 2.11 114 2.11 194 2.11 111 2.11
  12  0.100  0.500  0.407- 113 2.11 114 2.11 118 2.11 133 2.11 112 2.11
  13  0.000  0.500  0.503- 111 2.11 112 2.11 115 2.11 192 2.11 113 2.11
  14  0.100  0.400  0.503- 108 2.11 111 2.11 112 2.11 131 2.11 114 2.11
  15  0.000  0.600  0.407- 113 2.11 117 2.11 118 2.11 198 2.11 115 2.11
  16  0.100  0.700  0.407- 122 2.11 118 2.11 117 2.11 137 2.11 116 2.11
  17  0.000  0.700  0.503- 119 2.11 116 2.11 115 2.11 196 2.11 117 2.11
  18  0.100  0.600  0.503- 112 2.11 115 2.11 116 2.11 135 2.11 118 2.11
  19  0.000  0.800  0.407- 117 2.11 121 2.11 122 2.11 202 2.11 119 2.11
  20  0.100  0.900  0.407- 106 2.11 121 2.11 122 2.11 141 2.11 120 2.11
  21  0.000  0.900  0.503- 103 2.11 119 2.11 120 2.11 200 2.11 121 2.11
  22  0.100  0.800  0.503- 116 2.11 119 2.11 120 2.11 139 2.11 122 2.11
  23  0.200  0.000  0.407- 126 2.11 125 2.11 106 2.11 141 2.11 123 2.11
  24  0.300  0.100  0.407- 125 2.11 126 2.11 130 2.11 145 2.11 124 2.11
  25  0.200  0.100  0.503- 124 2.11 123 2.11 104 2.11 127 2.11 125 2.11
  26  0.300  0.000  0.503- 123 2.11 124 2.11 140 2.11 143 2.11 126 2.11
  27  0.200  0.200  0.407- 129 2.11 130 2.11 110 2.11 125 2.11 127 2.11
  28  0.300  0.300  0.407- 129 2.11 130 2.11 134 2.11 149 2.11 128 2.11
  29  0.200  0.300  0.503- 127 2.11 128 2.11 108 2.11 131 2.11 129 2.11
  30  0.300  0.200  0.503- 127 2.11 128 2.11 124 2.11 147 2.11 130 2.11
  31  0.200  0.400  0.407- 134 2.11 129 2.11 133 2.11 114 2.11 131 2.11
  32  0.300  0.500  0.407- 133 2.11 134 2.11 138 2.11 153 2.11 132 2.11
  33  0.200  0.500  0.503- 132 2.11 131 2.11 112 2.11 135 2.11 133 2.11
  34  0.300  0.400  0.503- 131 2.11 128 2.11 132 2.11 151 2.11 134 2.11
  35  0.200  0.600  0.407- 138 2.11 133 2.11 137 2.11 118 2.11 135 2.11
  36  0.300  0.700  0.407- 137 2.11 142 2.11 138 2.11 157 2.11 136 2.11
  37  0.200  0.700  0.503- 136 2.11 139 2.11 116 2.11 135 2.11 137 2.11
  38  0.300  0.600  0.503- 135 2.11 132 2.11 136 2.11 155 2.11 138 2.11
  39  0.200  0.800  0.407- 137 2.11 142 2.11 141 2.11 122 2.11 139 2.11
  40  0.300  0.900  0.407- 141 2.11 126 2.11 142 2.11 161 2.11 140 2.11
  41  0.200  0.900  0.503- 140 2.11 123 2.11 139 2.11 120 2.11 141 2.11
  42  0.300  0.800  0.503- 136 2.11 139 2.11 140 2.11 159 2.11 142 2.11
  43  0.400  0.000  0.407- 126 2.11 145 2.11 146 2.11 161 2.11 143 2.11
  44  0.500  0.100  0.407- 145 2.11 146 2.11 150 2.11 165 2.11 144 2.11
  45  0.400  0.100  0.503- 124 2.11 143 2.11 144 2.11 147 2.11 145 2.11
  46  0.500  0.000  0.503- 143 2.11 144 2.11 160 2.11 163 2.11 146 2.11
  47  0.400  0.200  0.407- 149 2.11 145 2.11 130 2.11 150 2.11 147 2.11
  48  0.500  0.300  0.407- 150 2.11 149 2.11 154 2.11 169 2.11 148 2.11
  49  0.400  0.300  0.503- 147 2.11 128 2.11 148 2.11 151 2.11 149 2.11
  50  0.500  0.200  0.503- 148 2.11 147 2.11 144 2.11 167 2.11 150 2.11
  51  0.400  0.400  0.407- 134 2.11 149 2.11 153 2.11 154 2.11 151 2.11
  52  0.500  0.500  0.407- 153 2.11 154 2.11 158 2.11 173 2.11 152 2.11
  53  0.400  0.500  0.503- 132 2.11 151 2.11 152 2.11 155 2.11 153 2.11   2 2.59
  54  0.500  0.400  0.503- 148 2.11 151 2.11 152 2.11 171 2.11 154 2.11   2 2.59
  55  0.400  0.600  0.407- 138 2.11 153 2.11 157 2.11 158 2.11 155 2.11
  56  0.500  0.700  0.407- 162 2.11 158 2.11 157 2.11 177 2.11 156 2.11
  57  0.400  0.700  0.503- 159 2.11 155 2.11 156 2.11 136 2.11 157 2.11
  58  0.500  0.600  0.503- 152 2.11 155 2.11 156 2.11 175 2.11 158 2.11
  59  0.400  0.800  0.407- 157 2.11 142 2.11 161 2.11 162 2.11 159 2.11
  60  0.500  0.900  0.407- 146 2.11 161 2.11 162 2.11 181 2.11 160 2.11
[...]
 188  0.900  0.300  0.503-  90 2.11  89 2.11   9 2.11  94 2.11  88 2.11
 189  0.800  0.300  0.407-  68 2.11  87 2.11  88 2.11  91 2.11  89 2.11
 190  0.900  0.200  0.407-  88 2.11  84 2.11  87 2.11   7 2.11  90 2.11
 191  0.800  0.400  0.503-  74 2.11  89 2.11  93 2.11  94 2.11  91 2.11
 192  0.900  0.500  0.503-  13 2.11  93 2.11  94 2.11  98 2.11  92 2.11
 193  0.800  0.500  0.407-  72 2.11  91 2.11  92 2.11  95 2.11  93 2.11
 194  0.900  0.400  0.407-  11 2.11  88 2.11  91 2.11  92 2.11  94 2.11
 195  0.800  0.600  0.503-  78 2.11  93 2.11  97 2.11  98 2.11  95 2.11
 196  0.900  0.700  0.503- 102 2.11  97 2.11  98 2.11  17 2.11  96 2.11
 197  0.800  0.700  0.407-  76 2.11  99 2.11  96 2.11  95 2.11  97 2.11
 198  0.900  0.600  0.407-  15 2.11  92 2.11  95 2.11  96 2.11  98 2.11
 199  0.800  0.800  0.503-  82 2.11  97 2.11 101 2.11 102 2.11  99 2.11
 200  0.900  0.900  0.503-  21 2.11  86 2.11 101 2.11 102 2.11 100 2.11
 201  0.800  0.900  0.407-  80 2.11  83 2.11  99 2.11 100 2.11 101 2.11
 202  0.900  0.800  0.407-  96 2.11  19 2.11  99 2.11 100 2.11 102 2.11

  LATTYP: Found a simple tetragonal cell.
 ALAT       =    21.1388521970
 C/A-ratio  =     1.0461251639

  Lattice vectors:

 A1 = (  21.1388521970,   0.0000000000,   0.0000000000)
 A2 = (   0.0000000000,  21.1388521970,   0.0000000000)
 A3 = (   0.0000000000,   0.0000000000,  22.1138852197)

Analysis of symmetry for initial positions (statically):
 Subroutine PRICEL returns:
 Original cell was already a primitive cell.

 Routine SETGRP: Setting up the symmetry group for a
 simple tetragonal supercell.

 Subroutine GETGRP returns: Found  4 space group operations
 (whereof  2 operations were pure point group operations)
 out of a pool of 16 trial point group operations.

The static configuration has the point symmetry C_1h.
[...]
     22     -47.0722      2.00000
     23     -47.0647      2.00000
     24     -47.0621      2.00000
     25     -47.0550      2.00000
     26     -47.0523      2.00000
     27     -47.0472      2.00000
     28     -47.0451      2.00000
     29     -47.0423      2.00000
     30     -47.0416      2.00000
     31     -47.0415      2.00000
     32     -47.0402      2.00000
     33     -47.0379      2.00000
     34     -47.0373      2.00000
     35     -47.0268      2.00000
     36     -47.0267      2.00000
     37     -47.0225      2.00000
     38     -47.0223      2.00000
     39     -47.0221      2.00000
     40     -47.0217      2.00000
     41     -47.0183      2.00000
     42     -47.0181      2.00000
     43     -47.0157      2.00000
     44     -47.0148      2.00000
     45     -47.0148      2.00000
     46     -47.0143      2.00000
     47     -47.0143      2.00000
     48     -47.0136      2.00000
     49     -47.0126      2.00000
     50     -47.0126      2.00000
     51     -47.0113      2.00000
     52     -47.0109      2.00000
     53     -47.0100      2.00000
     54     -47.0094      2.00000
     55     -47.0091      2.00000
     56     -47.0087      2.00000
     57     -47.0081      2.00000
     58     -47.0080      2.00000
     59     -47.0077      2.00000
     60     -47.0064      2.00000
[...]
   1010       7.5242      0.00000
   1011       7.6107      0.00000
   1012       7.6634      0.00000
   1013       7.6696      0.00000
   1014       7.7149      0.00000
   1015       7.7931      0.00000
   1016       7.8103      0.00000
   1017       7.9334      0.00000
   1018       7.9821      0.00000
   1019       8.0218      0.00000
   1020       8.0373      0.00000
   1021       8.1004      0.00000
   1022       8.2247      0.00000
   1023       8.2606      0.00000
   1024       8.4058      0.00000

 soft charge-density along one line, spin component           1
         0         1         2         3         4         5         6         7         8         9
 total charge-density along one line

------------------------ aborting loop because EDIFF is reached ----------------------------------------

 VOLUME and BASIS-vectors are now :
  energy-cutoff  :      520.00
  volume of cell :     9881.61
      direct lattice vectors                 reciprocal lattice vectors
    21.138852197  0.000000000  0.000000000     0.047306258  0.000000000  0.000000000
     0.000000000 21.138852197  0.000000000     0.000000000  0.047306258  0.000000000
     0.000000000  0.000000000 22.113885220     0.000000000  0.000000000  0.045220457

  length of vectors
    21.138852197 21.138852197 22.113885220     0.047306258  0.047306258  0.045220457

 FORCES acting on ions:
    Electron-Ion                     Ewald-Force                    Non-Local-Force
   0.224E-04 -.984E-04 -.196E+04   0.441E-07 -.340E-07 0.195E+04   0.000E+00 0.000E+00 0.133E+02
   0.157E-04 -.899E-04 -.185E+04   0.798E-05 -.860E-05 0.186E+04   0.000E+00 0.000E+00 -.117E+02
   0.175E+01 0.175E+01 0.931E+03   -.176E+01 -.176E+01 -.923E+03   0.346E-02 0.346E-02 -.710E+01
   0.621E+01 0.621E+01 0.934E+03   -.623E+01 -.623E+01 -.925E+03   0.142E-01 0.142E-01 -.710E+01
   0.286E+01 0.585E+01 -.923E+03   -.287E+01 -.585E+01 0.914E+03   0.724E-02 0.419E-02 0.706E+01
   0.585E+01 0.286E+01 -.923E+03   -.585E+01 -.287E+01 0.914E+03   0.419E-02 0.724E-02 0.706E+01
   0.318E+01 0.617E+01 0.934E+03   -.320E+01 -.618E+01 -.925E+03   0.139E-01 0.707E-02 -.710E+01
   0.129E+02 0.759E+01 0.939E+03   -.129E+02 -.760E+01 -.930E+03   0.514E-01 0.876E-02 -.711E+01
   0.604E+01 0.673E+01 -.920E+03   -.606E+01 -.673E+01 0.912E+03   0.135E-01 0.169E-02 0.706E+01
   0.126E+02 0.113E+02 -.919E+03   -.127E+02 -.113E+02 0.911E+03   0.257E-01 0.817E-02 0.706E+01
   0.513E+01 0.209E+01 0.936E+03   -.516E+01 -.209E+01 -.928E+03   0.170E-01 0.107E-03 -.710E+01
   0.158E+02 -.310E+01 0.941E+03   -.158E+02 0.312E+01 -.932E+03   0.467E-01 -.123E-01 -.711E+01
   0.738E+01 -.269E+01 -.919E+03   -.739E+01 0.270E+01 0.911E+03   0.302E-02 -.314E-02 0.705E+01
   0.242E+02 0.449E+01 -.914E+03   -.242E+02 -.448E+01 0.906E+03   0.357E-01 -.655E-02 0.705E+01
   0.433E+01 -.527E+01 0.935E+03   -.434E+01 0.528E+01 -.927E+03   0.339E-02 -.649E-02 -.710E+01
   0.914E+01 -.845E+01 0.936E+03   -.916E+01 0.847E+01 -.927E+03   0.118E-01 -.116E-01 -.710E+01
   0.429E+01 -.774E+01 -.921E+03   -.428E+01 0.774E+01 0.913E+03   -.384E-02 -.314E-02 0.706E+01
   0.190E+02 -.106E+02 -.916E+03   -.190E+02 0.106E+02 0.908E+03   0.614E-02 -.796E-02 0.705E+01
   0.226E+01 -.474E+01 0.932E+03   -.226E+01 0.475E+01 -.924E+03   -.987E-03 -.414E-02 -.710E+01
   0.474E+01 -.226E+01 0.932E+03   -.475E+01 0.226E+01 -.924E+03   0.414E-02 0.987E-03 -.710E+01
   0.215E+01 -.215E+01 -.923E+03   -.215E+01 0.215E+01 0.915E+03   -.400E-03 0.400E-03 0.706E+01
   0.808E+01 -.808E+01 -.922E+03   -.808E+01 0.808E+01 0.913E+03   0.923E-03 -.923E-03 0.706E+01
   0.617E+01 0.318E+01 0.934E+03   -.618E+01 -.320E+01 -.925E+03   0.707E-02 0.139E-01 -.710E+01
   0.759E+01 0.129E+02 0.939E+03   -.760E+01 -.129E+02 -.930E+03   0.876E-02 0.514E-01 -.711E+01
   0.113E+02 0.126E+02 -.919E+03   -.113E+02 -.127E+02 0.911E+03   0.817E-02 0.257E-01 0.706E+01
   0.673E+01 0.604E+01 -.920E+03   -.673E+01 -.606E+01 0.912E+03   0.169E-02 0.135E-01 0.706E+01
   0.133E+02 0.133E+02 0.941E+03   -.134E+02 -.134E+02 -.932E+03   0.425E-01 0.425E-01 -.710E+01
   0.226E+02 0.227E+02 0.962E+03   -.228E+02 -.228E+02 -.953E+03   0.127E+00 0.127E+00 -.710E+01
   0.338E+02 0.213E+02 -.907E+03   -.340E+02 -.214E+02 0.898E+03   0.113E+00 0.343E-02 0.704E+01
   0.213E+02 0.338E+02 -.907E+03   -.214E+02 -.340E+02 0.898E+03   0.343E-02 0.113E+00 0.704E+01
   0.265E+02 0.578E+01 0.953E+03   -.268E+02 -.577E+01 -.944E+03   0.179E+00 -.434E-02 -.715E+01
   0.330E+02 -.111E+02 0.977E+03   -.333E+02 0.113E+02 -.969E+03   0.203E+00 -.118E+00 -.718E+01
   0.483E+02 -.101E+02 -.899E+03   -.484E+02 0.102E+02 0.890E+03   0.656E-01 -.255E-01 0.702E+01
   0.849E+02 0.290E+02 -.853E+03   -.861E+02 -.289E+02 0.845E+03   0.845E+00 -.730E-01 0.698E+01
   0.204E+02 -.131E+02 0.947E+03   -.205E+02 0.131E+02 -.939E+03   0.562E-01 -.401E-01 -.713E+01
   0.131E+02 -.204E+02 0.947E+03   -.131E+02 0.205E+02 -.939E+03   0.401E-01 -.562E-01 -.713E+01
   0.198E+02 -.198E+02 -.914E+03   -.198E+02 0.198E+02 0.906E+03   0.810E-02 -.810E-02 0.705E+01
   0.463E+02 -.463E+02 -.885E+03   -.464E+02 0.464E+02 0.877E+03   0.600E-01 -.600E-01 0.698E+01
   0.845E+01 -.914E+01 0.936E+03   -.847E+01 0.916E+01 -.927E+03   0.116E-01 -.118E-01 -.710E+01
   0.527E+01 -.433E+01 0.935E+03   -.528E+01 0.434E+01 -.927E+03   0.649E-02 -.339E-02 -.710E+01
   0.774E+01 -.429E+01 -.921E+03   -.774E+01 0.428E+01 0.913E+03   0.314E-02 0.384E-02 0.706E+01
   0.106E+02 -.190E+02 -.916E+03   -.106E+02 0.190E+02 0.908E+03   0.796E-02 -.614E-02 0.705E+01
   0.209E+01 0.513E+01 0.936E+03   -.209E+01 -.516E+01 -.928E+03   0.107E-03 0.170E-01 -.710E+01
   -.310E+01 0.158E+02 0.941E+03   0.312E+01 -.158E+02 -.932E+03   -.123E-01 0.467E-01 -.711E+01
   0.449E+01 0.242E+02 -.914E+03   -.448E+01 -.242E+02 0.906E+03   -.655E-02 0.357E-01 0.705E+01
   -.269E+01 0.738E+01 -.919E+03   0.270E+01 -.739E+01 0.911E+03   -.314E-02 0.302E-02 0.705E+01
   0.578E+01 0.265E+02 0.953E+03   -.577E+01 -.268E+02 -.944E+03   -.434E-02 0.179E+00 -.715E+01
   -.111E+02 0.330E+02 0.977E+03   0.113E+02 -.333E+02 -.969E+03   -.118E+00 0.203E+00 -.718E+01
   0.290E+02 0.849E+02 -.853E+03   -.289E+02 -.861E+02 0.845E+03   -.730E-01 0.845E+00 0.698E+01
   -.101E+02 0.483E+02 -.899E+03   0.102E+02 -.484E+02 0.890E+03   -.255E-01 0.656E-01 0.702E+01
   0.186E+02 0.186E+02 0.101E+04   -.186E+02 -.186E+02 -.100E+04   0.232E-01 0.232E-01 -.629E+01
   -.186E+02 -.186E+02 0.101E+04   0.186E+02 0.186E+02 -.100E+04   -.232E-01 -.232E-01 -.629E+01
   0.887E+02 -.887E+02 -.718E+03   -.903E+02 0.903E+02 0.710E+03   0.765E+00 -.765E+00 0.621E+01
   -.887E+02 0.887E+02 -.718E+03   0.903E+02 -.903E+02 0.710E+03   -.765E+00 0.765E+00 0.621E+01
   0.111E+02 -.330E+02 0.977E+03   -.113E+02 0.333E+02 -.969E+03   0.118E+00 -.203E+00 -.718E+01
   -.578E+01 -.265E+02 0.953E+03   0.577E+01 0.268E+02 -.944E+03   0.434E-02 -.179E+00 -.715E+01
   0.101E+02 -.483E+02 -.899E+03   -.102E+02 0.484E+02 0.890E+03   0.255E-01 -.656E-01 0.702E+01
   -.290E+02 -.849E+02 -.853E+03   0.289E+02 0.861E+02 0.845E+03   0.730E-01 -.845E+00 0.698E+01
   0.310E+01 -.158E+02 0.941E+03   -.312E+01 0.158E+02 -.932E+03   0.123E-01 -.467E-01 -.711E+01
   -.209E+01 -.513E+01 0.936E+03   0.209E+01 0.516E+01 -.928E+03   -.107E-03 -.170E-01 -.710E+01
[...]
   -.968E+01 0.569E+01 0.705E+03   0.970E+01 -.570E+01 -.709E+03   -.218E-01 0.185E-01 0.307E+01
   -.240E+01 0.463E+01 0.701E+03   0.240E+01 -.464E+01 -.705E+03   0.329E-04 0.756E-02 0.308E+01
   -.182E+02 0.335E+01 -.687E+03   0.182E+02 -.336E+01 0.691E+03   -.208E-01 0.143E-01 -.316E+01
   -.553E+01 -.202E+01 -.690E+03   0.554E+01 0.202E+01 0.694E+03   -.925E-02 0.134E-02 -.314E+01
   -.118E+02 -.234E+01 0.707E+03   0.119E+02 0.234E+01 -.711E+03   -.447E-01 0.312E-02 0.307E+01
   -.386E+01 0.156E+01 0.703E+03   0.387E+01 -.157E+01 -.707E+03   -.795E-02 0.536E-02 0.308E+01
   -.143E+02 -.795E+01 -.688E+03   0.143E+02 0.796E+01 0.692E+03   -.318E-01 -.511E-02 -.315E+01
   -.320E+01 -.580E+01 -.692E+03   0.321E+01 0.581E+01 0.696E+03   -.104E-01 -.565E-02 -.314E+01
   -.685E+01 -.633E+01 0.703E+03   0.687E+01 0.635E+01 -.707E+03   -.290E-01 -.197E-01 0.308E+01
   -.324E+01 -.396E+01 0.703E+03   0.325E+01 0.396E+01 -.707E+03   -.144E-01 -.612E-02 0.308E+01
   -.605E+01 -.605E+01 -.692E+03   0.606E+01 0.606E+01 0.696E+03   -.136E-01 -.136E-01 -.313E+01
   -.161E+01 -.161E+01 -.694E+03   0.161E+01 0.161E+01 0.698E+03   -.319E-02 -.319E-02 -.313E+01
   -.355E+01 -.169E+01 0.700E+03   0.356E+01 0.169E+01 -.704E+03   -.763E-02 -.786E-02 0.308E+01
   -.169E+01 -.355E+01 0.700E+03   0.169E+01 0.356E+01 -.704E+03   -.786E-02 -.763E-02 0.308E+01
   -.300E-01 0.150E-01 0.320E+01   0.298E-12 0.127E-11 0.114E-10   -.590E-16 0.529E-16 -.338E+01

 POSITION                                       TOTAL-FORCE (eV/Angst)
      9.51248      9.51248     15.45078        -0.000000     -0.000000      0.154039
      9.51248      9.51248     13.22359        -0.000000     -0.000000     -0.155187
      0.00000      0.00000      9.00000        -0.001110     -0.001110      0.579385
      2.11389      2.11389      9.00000        -0.004572     -0.004572      0.579771
      0.00000      2.11389     11.11389        -0.002239     -0.001334     -0.567345
      2.11389      0.00000     11.11389        -0.001334     -0.002239     -0.567345
      0.00000      4.22777      9.00000        -0.004268     -0.002301      0.580175
      2.11389      6.34166      9.00000        -0.015666     -0.002948      0.582392
      0.00000      6.34166     11.11389        -0.003942     -0.000514     -0.564985
      2.11389      4.22777     11.11389        -0.007612     -0.002639     -0.564058
      0.00000      8.45554      9.00000        -0.005131     -0.000009      0.581417
      2.11389     10.56943      9.00000        -0.014259      0.004191      0.584049
      0.00000     10.56943     11.11389        -0.000633      0.001024     -0.564065
      2.11389      8.45554     11.11389        -0.008938      0.002367     -0.558412
      0.00000     12.68331      9.00000        -0.001040      0.002100      0.581016
      2.11389     14.79720      9.00000        -0.003632      0.003620      0.581536
      0.00000     14.79720     11.11389         0.001273      0.000956     -0.566234
      2.11389     12.68331     11.11389        -0.000990      0.002359     -0.560652
      0.00000     16.91108      9.00000         0.000315      0.001319      0.579758
      2.11389     19.02497      9.00000        -0.001319     -0.000315      0.579758
      0.00000     19.02497     11.11389         0.000134     -0.000134     -0.567928
      2.11389     16.91108     11.11389        -0.000183      0.000183     -0.566247
      4.22777      0.00000      9.00000        -0.002301     -0.004268      0.580175
      6.34166      2.11389      9.00000        -0.002948     -0.015666      0.582392
      4.22777      2.11389     11.11389        -0.002639     -0.007612     -0.564058
      6.34166      0.00000     11.11389        -0.000514     -0.003942     -0.564985
      4.22777      4.22777      9.00000        -0.014008     -0.014008      0.580399
      6.34166      6.34166      9.00000        -0.047853     -0.047853      0.570233
      4.22777      6.34166     11.11389        -0.030925     -0.000635     -0.549520
      6.34166      4.22777     11.11389        -0.000635     -0.030925     -0.549520
      4.22777      8.45554      9.00000        -0.051925      0.001782      0.592581
      6.34166     10.56943      9.00000        -0.065251      0.043948      0.592534
      4.22777     10.56943     11.11389        -0.013471      0.008070     -0.535294
      6.34166      8.45554     11.11389        -0.263441      0.035788     -0.466367
      4.22777     12.68331      9.00000        -0.017436      0.012777      0.587555
      6.34166     14.79720      9.00000        -0.012777      0.017436      0.587555
      4.22777     14.79720     11.11389        -0.001544      0.001544     -0.558045
      6.34166     12.68331     11.11389        -0.005107      0.005107     -0.505335
      4.22777     16.91108      9.00000        -0.003620      0.003632      0.581536
      6.34166     19.02497      9.00000        -0.002100      0.001040      0.581016
      4.22777     19.02497     11.11389        -0.000956     -0.001273     -0.566234
      6.34166     16.91108     11.11389        -0.002359      0.000990     -0.560652
      8.45554      0.00000      9.00000        -0.000009     -0.005131      0.581417
     10.56943      2.11389      9.00000         0.004191     -0.014259      0.584049
      8.45554      2.11389     11.11389         0.002367     -0.008938     -0.558412
     10.56943      0.00000     11.11389         0.001024     -0.000633     -0.564065
      8.45554      4.22777      9.00000         0.001782     -0.051925      0.592581
     10.56943      6.34166      9.00000         0.043948     -0.065251      0.592534
      8.45554      6.34166     11.11389         0.035788     -0.263441     -0.466367
     10.56943      4.22777     11.11389         0.008070     -0.013471     -0.535294
      8.45554      8.45554      9.00000        -0.005724     -0.005724      0.340993
     10.56943     10.56943      9.00000         0.005724      0.005724      0.340993
      8.45554     10.56943     11.11389        -0.614469      0.614469     -0.987327
     10.56943      8.45554     11.11389         0.614469     -0.614469     -0.987327
      8.45554     12.68331      9.00000        -0.043948      0.065251      0.592534
     10.56943     14.79720      9.00000        -0.001782      0.051925      0.592581
      8.45554     14.79720     11.11389        -0.008070      0.013471     -0.535294
     10.56943     12.68331     11.11389        -0.035788      0.263441     -0.466367
      8.45554     16.91108      9.00000        -0.004191      0.014259      0.584049
     10.56943     19.02497      9.00000         0.000009      0.005131      0.581417
[...]
     19.02497      6.34166     11.11389         0.000061      0.001638      0.391404
     16.91108      6.34166      9.00000        -0.007238      0.006134     -0.410456
     19.02497      4.22777      9.00000         0.000007      0.002509     -0.407634
     16.91108      8.45554     11.11389        -0.007227      0.004770      0.383973
     19.02497     10.56943     11.11389        -0.003138      0.000436      0.390342
     16.91108     10.56943      9.00000        -0.014894      0.001015     -0.410877
     19.02497      8.45554      9.00000        -0.002645      0.001776     -0.408774
     16.91108     12.68331     11.11389        -0.010761     -0.001763      0.387202
     19.02497     14.79720     11.11389        -0.003487     -0.001885      0.392932
     16.91108     14.79720      9.00000        -0.009607     -0.006518     -0.407904
     19.02497     12.68331      9.00000        -0.004768     -0.002039     -0.408101
     16.91108     16.91108     11.11389        -0.004522     -0.004522      0.393128
     19.02497     19.02497     11.11389        -0.001058     -0.001058      0.394808
     16.91108     19.02497      9.00000        -0.002525     -0.002614     -0.406886
     19.02497     16.91108      9.00000        -0.002614     -0.002525     -0.406886
    total drift:                               -0.030001      0.014951     -0.524031

  FREE ENERGIE OF THE ION-ELECTRON SYSTEM (eV)
  free  energy   TOTEN  =     -1441.05439146 eV

  energy  without entropy=    -1441.05439146  energy(sigma->0) =    -1441.05439146