 vasp.6.4.1 05Apr23 (build May 06 2023 19:47:20) complex

 executed on             LinuxIFC date 2023.07.05  09:09:10

 INCAR:
   SYSTEM = MgO-rocksalt
   ISMEAR = 0
   SIGMA = 0.05
   EDIFF = 1E-6
   ALGO = ALL
   ISTART = 0
   IBRION = -1
   NSW = 0
   ISYM = 2
   DIPOL = 0.5 0.5 0.5
   IDIPOL = 3
   LDIPOL = .TRUE.
   LHFCALC = .TRUE.
   GGA = PE
   IVDW = 11
   VDW_S6 = 1.0
   VDW_SR = 1.287
   VDW_S8 = 0.928
   ENCUT = 520
   PREC = Accurate
   LASPH = .TRUE.
   LREAL = Auto
   ISPIN = 1
   NELM = 200
   NELMIN = 8
   NCORE = 16
   KPAR = 1
   LWAVE = .FALSE.
   LCHARG = .FALSE.

 POTCAR:    PAW_PBE Au 04Oct2007
 POTCAR:    PAW_PBE Mg_pv 13Apr2007
 POTCAR:    PAW_PBE O 08Apr2002
|           W    W    AA    RRRRR   N    N  II  N    N   GGGG   !!!           |
|           W    W   A  A   R    R  NN   N  II  NN   N  G    G  !!!           |
|           W    W  A    A  R    R  N N  N  II  N N  N  G       !!!           |
|           W WW W  AAAAAA  RRRRR   N  N N  II  N  N N  G  GGG   !            |
|           WW  WW  A    A  R   R   N   NN  II  N   NN  G    G                |
|           W    W  A    A  R    R  N    N  II  N    N   GGGG   !!!           |
|     You have selected ISYM=2 for a HF type calculation. This will           |
|     symmetrize the charge density but not the exchange potential. I         |
|     suggest to use ISYM=3 instead. This uses symmetry to obtain the         |
|     orbitals at all k-points in the Brillouin zone, but does not apply      |
|     symmetry to the Hartree potential directly. The resultant charge        |
|     might have lower symmetry than the crystal but, at least, Hartree       |
|     and exchange are fully compatible.                                      |

   TITEL  = PAW_PBE Au 04Oct2007
   POMASS =  196.966; ZVAL   =   11.000    mass and valenz
   ENMAX  =  229.943; ENMIN  =  172.457 eV

   TITEL  = PAW_PBE Mg_pv 13Apr2007
   POMASS =   24.305; ZVAL   =    8.000    mass and valenz
   ENMAX  =  403.929; ENMIN  =  302.947 eV

   TITEL  = PAW_PBE O 08Apr2002
   POMASS =   16.000; ZVAL   =    6.000    mass and valenz
   ENMAX  =  400.000; ENMIN  =  300.000 eV

 Optimization of the real space projectors (new method)

 maximal supplied QI-value         = 15.12
 optimisation between [QCUT,QGAM] = [ 11.64, 23.28] = [ 37.95,151.78] Ry
 Optimized for a Real-space Cutoff    1.49 Angstroem

   l    n(q)    QCUT    max X(q) W(low)/X(q) W(high)/X(q)  e(spline)
   2      9    11.641    60.898    0.24E-03    0.10E-03    0.19E-06
   2      9    11.641    58.894    0.25E-03    0.10E-03    0.19E-06
   0     10    11.641   109.617    0.73E-04    0.33E-04    0.11E-06
   0     10    11.641    75.026    0.71E-04    0.32E-04    0.11E-06
   1     10    11.641    16.344    0.27E-04    0.97E-04    0.16E-06
   1     10    11.641    10.160    0.23E-04    0.77E-04    0.13E-06
 Optimization of the real space projectors (new method)

[...]

   l    n(q)    QCUT    max X(q) W(low)/X(q) W(high)/X(q)  e(spline)
   1      8    11.527     2.974    0.44E-04    0.56E-04    0.12E-06
   1      8    11.527     4.279    0.12E-03    0.12E-03    0.26E-06
   0      9    11.527    16.381    0.46E-04    0.64E-04    0.78E-07
   0      9    11.527     5.611    0.26E-04    0.43E-04    0.55E-07
   2      8    11.527     4.652    0.22E-03    0.72E-04    0.47E-07
 Optimization of the real space projectors (new method)

 maximal supplied QI-value         = 24.76
 optimisation between [QCUT,QGAM] = [ 11.64, 23.27] = [ 37.91,151.63] Ry
 Optimized for a Real-space Cutoff    1.14 Angstroem

   l    n(q)    QCUT    max X(q) W(low)/X(q) W(high)/X(q)  e(spline)
   0      8    11.635    20.381    0.10E-03    0.33E-03    0.24E-06
   0      8    11.635    15.268    0.11E-03    0.35E-03    0.26E-06
   1      7    11.635     5.964    0.24E-03    0.31E-03    0.30E-06
   1      7    11.635     5.382    0.22E-03    0.25E-03    0.26E-06
  PAW_PBE Au 04Oct2007                  :
  PAW_PBE Mg_pv 13Apr2007               :
  PAW_PBE O 08Apr2002                   :

 POSCAR: Au Mg  O
  positions in direct lattice
  velocities in cartesian coordinates
 exchange correlation table for  LEXCH =        8
   RHO(1)=    0.500       N(1)  =     2000
   RHO(2)=  100.500       N(2)  =     4000

 ion  position               nearest neighbor table
   1  0.400  0.565  0.604- 157 2.36   3 2.61  55 2.63   4 2.77
   2  0.400  0.500  0.818-   3 2.52
   3  0.400  0.500  0.704-   2 2.52   4 2.61   1 2.61
   4  0.400  0.434  0.604- 153 2.35   3 2.61  55 2.64   1 2.77
   5  0.000  0.000  0.407- 107 2.11 108 2.11 123 2.11 188 2.11 105 2.11
   6  0.100  0.100  0.407- 107 2.11 108 2.11 112 2.11 127 2.11 106 2.11
   7  0.000  0.100  0.503- 105 2.11 106 2.11 109 2.11 186 2.11 107 2.11
   8  0.100  0.000  0.503- 105 2.11 106 2.11 122 2.11 125 2.11 108 2.11
   9  0.000  0.200  0.407- 111 2.11 107 2.11 112 2.11 192 2.11 109 2.11
  10  0.100  0.300  0.407- 112 2.11 111 2.11 116 2.11 131 2.11 110 2.11
  11  0.000  0.300  0.503- 109 2.11 110 2.11 113 2.11 190 2.11 111 2.11
  12  0.100  0.200  0.503- 110 2.11 109 2.11 106 2.11 129 2.11 112 2.11
  13  0.000  0.400  0.407- 111 2.11 115 2.11 116 2.11 196 2.11 113 2.11
  14  0.100  0.500  0.407- 115 2.11 116 2.11 120 2.11 135 2.11 114 2.11
  15  0.000  0.500  0.503- 113 2.11 114 2.11 117 2.11 194 2.11 115 2.11
  16  0.100  0.400  0.503- 110 2.11 113 2.11 114 2.11 133 2.11 116 2.11
  17  0.000  0.600  0.407- 115 2.11 119 2.11 120 2.11 200 2.11 117 2.11
  18  0.100  0.700  0.407- 124 2.11 120 2.11 119 2.11 139 2.11 118 2.11
  19  0.000  0.700  0.503- 121 2.11 118 2.11 117 2.11 198 2.11 119 2.11
  20  0.100  0.600  0.503- 114 2.11 117 2.11 118 2.11 137 2.11 120 2.11
  21  0.000  0.800  0.407- 119 2.11 123 2.11 124 2.11 204 2.11 121 2.11
  22  0.100  0.900  0.407- 108 2.11 123 2.11 124 2.11 143 2.11 122 2.11
  23  0.000  0.900  0.503- 105 2.11 121 2.11 122 2.11 202 2.11 123 2.11
  24  0.100  0.800  0.503- 118 2.11 121 2.11 122 2.11 141 2.11 124 2.11
  25  0.200  0.000  0.407- 128 2.11 127 2.11 108 2.11 143 2.11 125 2.11
  26  0.300  0.100  0.407- 127 2.11 128 2.11 132 2.11 147 2.11 126 2.11
  27  0.200  0.100  0.503- 126 2.11 125 2.11 106 2.11 129 2.11 127 2.11
  28  0.300  0.000  0.503- 125 2.11 126 2.11 142 2.11 145 2.11 128 2.11
  29  0.200  0.200  0.407- 131 2.11 132 2.11 112 2.11 127 2.11 129 2.11
  30  0.300  0.300  0.407- 131 2.11 132 2.11 136 2.11 151 2.11 130 2.11
  31  0.200  0.300  0.503- 129 2.11 130 2.11 110 2.11 133 2.11 131 2.11
  32  0.300  0.200  0.503- 129 2.11 130 2.11 126 2.11 149 2.11 132 2.11
  33  0.200  0.400  0.407- 136 2.11 131 2.11 135 2.11 116 2.11 133 2.11
  34  0.300  0.500  0.407- 135 2.11 136 2.11 140 2.11 155 2.11 134 2.11
  35  0.200  0.500  0.503- 134 2.11 133 2.11 114 2.11 137 2.11 135 2.11
  36  0.300  0.400  0.503- 133 2.11 130 2.11 134 2.11 153 2.11 136 2.11
  37  0.200  0.600  0.407- 140 2.11 135 2.11 139 2.11 120 2.11 137 2.11
  38  0.300  0.700  0.407- 139 2.11 144 2.11 140 2.11 159 2.11 138 2.11
  39  0.200  0.700  0.503- 138 2.11 141 2.11 118 2.11 137 2.11 139 2.11
  40  0.300  0.600  0.503- 137 2.11 134 2.11 138 2.11 157 2.11 140 2.11
  41  0.200  0.800  0.407- 139 2.11 144 2.11 143 2.11 124 2.11 141 2.11
  42  0.300  0.900  0.407- 143 2.11 128 2.11 144 2.11 163 2.11 142 2.11
  43  0.200  0.900  0.503- 142 2.11 125 2.11 141 2.11 122 2.11 143 2.11
  44  0.300  0.800  0.503- 138 2.11 141 2.11 142 2.11 161 2.11 144 2.11
  45  0.400  0.000  0.407- 128 2.11 147 2.11 148 2.11 163 2.11 145 2.11
  46  0.500  0.100  0.407- 147 2.11 148 2.11 152 2.11 167 2.11 146 2.11
  47  0.400  0.100  0.503- 126 2.11 145 2.11 146 2.11 149 2.11 147 2.11
  48  0.500  0.000  0.503- 145 2.11 146 2.11 162 2.11 165 2.11 148 2.11
  49  0.400  0.200  0.407- 151 2.11 147 2.11 132 2.11 152 2.11 149 2.11
  50  0.500  0.300  0.407- 152 2.11 151 2.11 156 2.11 171 2.11 150 2.11
  51  0.400  0.300  0.503- 149 2.11 130 2.11 150 2.11 153 2.11 151 2.11
  52  0.500  0.200  0.503- 150 2.11 149 2.11 146 2.11 169 2.11 152 2.11
  53  0.400  0.400  0.407- 136 2.11 151 2.11 155 2.11 156 2.11 153 2.11
  54  0.500  0.500  0.407- 155 2.11 156 2.11 160 2.11 175 2.11 154 2.11
  55  0.400  0.500  0.503- 134 2.11 153 2.11 154 2.11 157 2.11 155 2.11   1 2.63   4 2.64
  56  0.500  0.400  0.503- 150 2.11 153 2.11 154 2.11 173 2.11 156 2.11
  57  0.400  0.600  0.407- 140 2.11 155 2.11 159 2.11 160 2.11 157 2.11
  58  0.500  0.700  0.407- 164 2.11 160 2.11 159 2.11 179 2.11 158 2.11
  59  0.400  0.700  0.503- 161 2.11 157 2.11 158 2.11 138 2.11 159 2.11
  60  0.500  0.600  0.503- 154 2.11 157 2.11 158 2.11 177 2.11 160 2.11
[...]
 190  0.900  0.300  0.503-  92 2.11  91 2.11  11 2.11  96 2.11  90 2.11
 191  0.800  0.300  0.407-  70 2.11  89 2.11  90 2.11  93 2.11  91 2.11
 192  0.900  0.200  0.407-  90 2.11  86 2.11  89 2.11   9 2.11  92 2.11
 193  0.800  0.400  0.503-  76 2.11  91 2.11  95 2.11  96 2.11  93 2.11
 194  0.900  0.500  0.503-  15 2.11  95 2.11  96 2.11 100 2.11  94 2.11
 195  0.800  0.500  0.407-  74 2.11  93 2.11  94 2.11  97 2.11  95 2.11
 196  0.900  0.400  0.407-  13 2.11  90 2.11  93 2.11  94 2.11  96 2.11
 197  0.800  0.600  0.503-  80 2.11  95 2.11  99 2.11 100 2.11  97 2.11
 198  0.900  0.700  0.503- 104 2.11  99 2.11 100 2.11  19 2.11  98 2.11
 199  0.800  0.700  0.407-  78 2.11 101 2.11  98 2.11  97 2.11  99 2.11
 200  0.900  0.600  0.407-  17 2.11  94 2.11  97 2.11  98 2.11 100 2.11
 201  0.800  0.800  0.503-  84 2.11  99 2.11 103 2.11 104 2.11 101 2.11
 202  0.900  0.900  0.503-  23 2.11  88 2.11 103 2.11 104 2.11 102 2.11
 203  0.800  0.900  0.407-  82 2.11  85 2.11 101 2.11 102 2.11 103 2.11
 204  0.900  0.800  0.407-  98 2.11  21 2.11 101 2.11 102 2.11 104 2.11

  LATTYP: Found a simple tetragonal cell.
 ALAT       =    21.1388521970
 C/A-ratio  =     1.0461251639

  Lattice vectors:

 A1 = (  21.1388521970,   0.0000000000,   0.0000000000)
 A2 = (   0.0000000000,  21.1388521970,   0.0000000000)
 A3 = (   0.0000000000,   0.0000000000,  22.1138852197)

Analysis of symmetry for initial positions (statically):
 Subroutine PRICEL returns:
 Original cell was already a primitive cell.

 Routine SETGRP: Setting up the symmetry group for a
 simple tetragonal supercell.

 Subroutine GETGRP returns: Found  1 space group operations
 (whereof  1 operations were pure point group operations)
 out of a pool of 16 trial point group operations.

The static configuration has the point symmetry C_1 .

Analysis of symmetry for dynamics (positions and initial velocities):
 Subroutine PRICEL returns:
 Original cell was already a primitive cell.

[...]

The dynamic configuration has the point symmetry C_1 .

Analysis of constrained symmetry for selective dynamics:
 Subroutine PRICEL returns:
 Original cell was already a primitive cell.

 Routine SETGRP: Setting up the symmetry group for a
 simple tetragonal supercell.

 Subroutine GETGRP returns: Found  1 space group operations
 (whereof  1 operations were pure point group operations)
 out of a pool of 16 trial point group operations.

The constrained configuration has the point symmetry C_1 .

 Subroutine INISYM returns: Found  1 space group operations
 (whereof  1 operations are pure point group operations),
 and found     1 'primitive' translations

[...]
     60     -47.1385      2.00000
[...]
    898       5.2308      0.00000
    899       5.3089      0.00000
    900       5.3527      0.00000
    901       5.3673      0.00000
    902       5.3938      0.00000
    903       5.4888      0.00000
    904       5.5437      0.00000
    905       5.6377      0.00000
    906       5.7312      0.00000
    907       5.8095      0.00000
    908       5.8509      0.00000
    909       5.9369      0.00000
    910       5.9752      0.00000
    911       6.0213      0.00000
    912       6.1254      0.00000

 soft charge-density along one line, spin component           1
         0         1         2         3         4         5         6         7         8         9
 total charge-density along one line

------------------------ aborting loop because EDIFF is reached ----------------------------------------

|           W    W    AA    RRRRR   N    N  II  N    N   GGGG   !!!           |
|           W    W   A  A   R    R  NN   N  II  NN   N  G    G  !!!           |
|           W    W  A    A  R    R  N N  N  II  N N  N  G       !!!           |
|           W WW W  AAAAAA  RRRRR   N  N N  II  N  N N  G  GGG   !            |
|           WW  WW  A    A  R   R   N   NN  II  N   NN  G    G                |
|           W    W  A    A  R    R  N    N  II  N    N   GGGG   !!!           |
|     Specifying the vdW parameters                                           |
|     VDW_S8 = 0.928                                                          |
|     VDW_SR = 1.287                                                          |
|     in the INCAR file will overwrite the defaults for pbe0. Please make     |
|     sure that is what you intended.                                         |

         DFTD3 V3.0 Rev 1
 IVDW         = 11
 DF pbe0
 parameters
 VDW_S6       =    1.0000
 VDW_S8       =    0.9280
 VDW_SR       =    1.2870
 rs18     =    1.0000
 alpha6   =   14.0000
 alpha8   =   16.0000
 k1-k3    =   16.0000    1.3333   -4.0000
 VDW_RADIUS   =   50.2022 A
 VDW_CNRADIUS =   21.1671 A
 Edisp (eV)  -21.49271

 E6    (eV) :    -6.6661
 E8    (eV) :   -14.8266
 % E8        : 68.98

 VOLUME and BASIS-vectors are now :
  energy-cutoff  :      520.00
  volume of cell :     9881.61
      direct lattice vectors                 reciprocal lattice vectors
    21.138852197  0.000000000  0.000000000     0.047306258  0.000000000  0.000000000
     0.000000000 21.138852197  0.000000000     0.000000000  0.047306258  0.000000000
     0.000000000  0.000000000 22.113885220     0.000000000  0.000000000  0.045220457

  length of vectors
    21.138852197 21.138852197 22.113885220     0.047306258  0.047306258  0.045220457

 FORCES acting on ions:
    Electron-Ion                     Ewald-Force                    Non-Local-Force
   -.145E+00 -.385E+03 -.190E+04   0.143E+00 0.380E+03 0.191E+04   0.317E-02 0.453E+01 -.295E+01
   0.316E-01 -.107E+00 -.126E+04   -.320E-01 0.987E-01 0.126E+04   0.485E-03 0.694E-02 0.760E+01
   0.161E+00 0.645E+00 -.172E+04   -.160E+00 -.643E+00 0.172E+04   -.111E-02 0.213E-02 0.198E+01
   -.295E-01 0.384E+03 -.190E+04   0.285E-01 -.379E+03 0.191E+04   0.209E-02 -.449E+01 -.294E+01
   0.633E+01 0.232E-01 0.936E+03   -.637E+01 -.232E-01 -.927E+03   0.264E-01 0.464E-04 -.714E+01
   0.124E+02 0.940E+01 0.939E+03   -.125E+02 -.943E+01 -.930E+03   0.582E-01 0.240E-01 -.714E+01
   0.906E+01 0.847E+01 -.918E+03   -.910E+01 -.848E+01 0.910E+03   0.300E-01 0.409E-02 0.701E+01
   0.132E+02 0.415E-01 -.917E+03   -.133E+02 -.416E-01 0.909E+03   0.418E-01 0.747E-04 0.701E+01
   0.979E+01 0.114E+02 0.939E+03   -.986E+01 -.114E+02 -.930E+03   0.468E-01 0.123E-01 -.715E+01
   0.257E+02 0.183E+02 0.950E+03   -.259E+02 -.184E+02 -.941E+03   0.153E+00 0.312E-01 -.717E+01
   0.189E+02 0.157E+02 -.913E+03   -.189E+02 -.157E+02 0.904E+03   0.516E-01 0.185E-02 0.700E+01
   0.243E+02 0.227E+02 -.911E+03   -.244E+02 -.227E+02 0.903E+03   0.966E-01 0.198E-01 0.700E+01
   0.170E+02 0.780E+01 0.945E+03   -.172E+02 -.781E+01 -.936E+03   0.747E-01 0.551E-02 -.716E+01
   0.374E+02 -.459E-01 0.960E+03   -.377E+02 0.461E-01 -.951E+03   0.190E+00 -.137E-03 -.718E+01
   0.272E+02 -.373E-01 -.908E+03   -.272E+02 0.374E-01 0.900E+03   0.530E-01 -.227E-04 0.700E+01
   0.539E+02 0.187E+02 -.896E+03   -.541E+02 -.187E+02 0.887E+03   0.144E+00 0.773E-03 0.698E+01
   0.170E+02 -.784E+01 0.945E+03   -.171E+02 0.785E+01 -.936E+03   0.746E-01 -.559E-02 -.716E+01
   0.256E+02 -.184E+02 0.950E+03   -.258E+02 0.184E+02 -.941E+03   0.153E+00 -.313E-01 -.717E+01
   0.188E+02 -.157E+02 -.913E+03   -.189E+02 0.157E+02 0.904E+03   0.515E-01 -.187E-02 0.700E+01
   0.538E+02 -.188E+02 -.896E+03   -.541E+02 0.188E+02 0.887E+03   0.144E+00 -.887E-03 0.698E+01
   0.977E+01 -.114E+02 0.939E+03   -.984E+01 0.114E+02 -.930E+03   0.467E-01 -.123E-01 -.715E+01
   0.124E+02 -.934E+01 0.939E+03   -.125E+02 0.938E+01 -.930E+03   0.581E-01 -.238E-01 -.714E+01
   0.904E+01 -.842E+01 -.918E+03   -.909E+01 0.843E+01 0.910E+03   0.299E-01 -.405E-02 0.701E+01
   0.242E+02 -.226E+02 -.911E+03   -.243E+02 0.227E+02 0.903E+03   0.963E-01 -.197E-01 0.700E+01
   0.113E+02 0.446E-01 0.940E+03   -.114E+02 -.449E-01 -.932E+03   0.492E-01 0.184E-03 -.715E+01
   0.896E+01 0.176E+02 0.947E+03   -.903E+01 -.178E+02 -.938E+03   0.456E-01 0.111E+00 -.715E+01
   0.178E+02 0.190E+02 -.912E+03   -.179E+02 -.191E+02 0.904E+03   0.610E-01 0.580E-01 0.701E+01
   0.934E+01 0.817E-01 -.912E+03   -.939E+01 -.820E-01 0.904E+03   0.297E-01 0.208E-03 0.701E+01
   0.205E+02 0.249E+02 0.951E+03   -.207E+02 -.251E+02 -.942E+03   0.133E+00 0.102E+00 -.715E+01
   0.263E+02 0.455E+02 0.986E+03   -.267E+02 -.460E+02 -.977E+03   0.287E+00 0.290E+00 -.706E+01
   0.564E+02 0.507E+02 -.884E+03   -.569E+02 -.507E+02 0.876E+03   0.346E+00 0.347E-01 0.698E+01
   0.238E+02 0.576E+02 -.892E+03   -.239E+02 -.580E+02 0.884E+03   0.942E-01 0.303E+00 0.700E+01
   0.468E+02 0.217E+02 0.982E+03   -.474E+02 -.217E+02 -.973E+03   0.425E+00 0.468E-01 -.724E+01
   0.496E+02 -.146E+00 0.104E+04   -.504E+02 0.149E+00 -.103E+04   0.467E+00 -.172E-02 -.725E+01
   0.110E+03 -.160E+00 -.847E+03   -.111E+03 0.160E+00 0.839E+03   0.301E+00 -.135E-03 0.692E+01
   0.128E+03 0.923E+02 -.760E+03   -.131E+03 -.922E+02 0.752E+03   0.177E+01 -.302E-01 0.673E+01
   0.467E+02 -.218E+02 0.981E+03   -.474E+02 0.218E+02 -.973E+03   0.423E+00 -.474E-01 -.724E+01
   0.262E+02 -.455E+02 0.986E+03   -.266E+02 0.460E+02 -.977E+03   0.286E+00 -.289E+00 -.706E+01
   0.562E+02 -.507E+02 -.885E+03   -.567E+02 0.507E+02 0.876E+03   0.344E+00 -.349E-01 0.698E+01
   0.128E+03 -.927E+02 -.761E+03   -.130E+03 0.926E+02 0.753E+03   0.176E+01 0.285E-01 0.673E+01
   0.204E+02 -.249E+02 0.951E+03   -.206E+02 0.250E+02 -.942E+03   0.132E+00 -.102E+00 -.715E+01
   0.894E+01 -.175E+02 0.947E+03   -.901E+01 0.176E+02 -.938E+03   0.455E-01 -.110E+00 -.715E+01
   0.177E+02 -.189E+02 -.912E+03   -.178E+02 0.190E+02 0.904E+03   0.609E-01 -.576E-01 0.701E+01
   0.236E+02 -.573E+02 -.892E+03   -.238E+02 0.578E+02 0.884E+03   0.939E-01 -.302E+00 0.700E+01
   -.638E-02 0.626E-01 0.944E+03   0.633E-02 -.631E-01 -.935E+03   0.333E-04 0.317E-03 -.715E+01
   -.898E+01 0.176E+02 0.947E+03   0.904E+01 -.178E+02 -.938E+03   -.455E-01 0.111E+00 -.715E+01
   -.111E-01 0.296E+02 -.906E+03   0.110E-01 -.298E+02 0.898E+03   0.453E-04 0.138E+00 0.701E+01
   -.936E+01 0.812E-01 -.912E+03   0.940E+01 -.815E-01 0.904E+03   -.297E-01 0.207E-03 0.701E+01
   -.134E-01 0.391E+02 0.964E+03   0.133E-01 -.396E+02 -.955E+03   0.587E-04 0.381E+00 -.718E+01
   -.263E+02 0.455E+02 0.986E+03   0.268E+02 -.460E+02 -.977E+03   -.287E+00 0.290E+00 -.706E+01
   -.632E-01 0.130E+03 -.821E+03   0.629E-01 -.132E+03 0.812E+03   0.185E-03 0.174E+01 0.713E+01
   -.238E+02 0.575E+02 -.892E+03   0.239E+02 -.580E+02 0.884E+03   -.940E-01 0.303E+00 0.700E+01
   -.417E-01 0.441E+02 0.104E+04   0.411E-01 -.444E+02 -.104E+04   0.406E-03 0.219E+00 -.507E+01
   -.497E+02 -.143E+00 0.104E+04   0.504E+02 0.146E+00 -.103E+04   -.466E+00 -.176E-02 -.725E+01
   -.224E+00 -.540E+00 -.532E+03   0.224E+00 0.562E+00 0.527E+03   0.915E-03 -.182E-01 0.328E+01
   -.128E+03 0.922E+02 -.760E+03   0.131E+03 -.921E+02 0.752E+03   -.177E+01 -.298E-01 0.673E+01
   -.384E-01 -.443E+02 0.104E+04   0.379E-01 0.446E+02 -.104E+04   0.304E-03 -.220E+00 -.508E+01
   -.262E+02 -.455E+02 0.986E+03   0.267E+02 0.459E+02 -.977E+03   -.285E+00 -.289E+00 -.706E+01
   -.542E-01 -.129E+03 -.821E+03   0.540E-01 0.132E+03 0.813E+03   0.185E-03 -.173E+01 0.713E+01
   -.128E+03 -.926E+02 -.761E+03   0.130E+03 0.925E+02 0.753E+03   -.176E+01 0.282E-01 0.673E+01
[...]
   -.101E+02 0.905E+01 0.708E+03   0.102E+02 -.906E+01 -.712E+03   -.559E-01 0.138E-01 0.302E+01
   0.618E-02 0.733E+01 0.704E+03   -.613E-02 -.734E+01 -.708E+03   -.511E-04 0.922E-02 0.303E+01
   -.185E+02 0.775E+01 -.683E+03   0.185E+02 -.775E+01 0.687E+03   -.521E-01 0.347E-03 -.325E+01
   0.157E-01 -.216E-01 -.685E+03   -.156E-01 0.217E-01 0.689E+03   -.105E-03 -.225E-04 -.324E+01
   -.139E+02 -.208E-01 0.711E+03   0.140E+02 0.209E-01 -.715E+03   -.654E-01 -.645E-04 0.301E+01
   0.102E-01 0.484E+01 0.707E+03   -.101E-01 -.484E+01 -.711E+03   -.890E-04 0.367E-02 0.302E+01
   -.185E+02 -.779E+01 -.683E+03   0.185E+02 0.779E+01 0.687E+03   -.520E-01 -.412E-03 -.325E+01
   0.110E-01 -.949E+01 -.688E+03   -.110E-01 0.949E+01 0.692E+03   -.787E-04 -.190E-02 -.323E+01
   -.101E+02 -.905E+01 0.708E+03   0.102E+02 0.907E+01 -.712E+03   -.558E-01 -.138E-01 0.302E+01
   0.100E-01 -.487E+01 0.707E+03   -.994E-02 0.487E+01 -.711E+03   -.872E-04 -.374E-02 0.302E+01
   -.969E+01 -.109E+02 -.688E+03   0.972E+01 0.109E+02 0.692E+03   -.393E-01 -.983E-02 -.323E+01
   0.564E-02 -.534E+01 -.691E+03   -.560E-02 0.535E+01 0.695E+03   -.435E-04 -.367E-02 -.321E+01
   -.541E+01 -.504E+01 0.703E+03   0.543E+01 0.505E+01 -.707E+03   -.331E-01 -.111E-01 0.303E+01
   0.594E-02 -.732E+01 0.704E+03   -.591E-02 0.733E+01 -.708E+03   -.476E-04 -.920E-02 0.303E+01
   0.647E-02 -.425E-01 0.421E+01   0.161E-11 -.110E-11 -.762E-11   -.406E-02 0.378E-01 -.358E+01

 POSITION                                       TOTAL-FORCE (eV/Angst)
      8.45440     11.94847     13.35506         0.000982     -0.043677     -0.072302
      8.45328     10.56231     18.09008        -0.000025     -0.001053      0.130977
      8.45334     10.56083     15.56737         0.000348      0.003229     -0.101349
      8.45399      9.17859     13.35199         0.001440      0.055593     -0.071420
      0.00000      0.00000      9.00000        -0.008477     -0.000007      0.570773
      2.11389      2.11389      9.00000        -0.018758     -0.007780      0.570605
      0.00000      2.11389     11.11389        -0.009354     -0.001256     -0.515102
      2.11389      0.00000     11.11389        -0.013407     -0.000016     -0.514056
      0.00000      4.22777      9.00000        -0.014565     -0.003959      0.571988
      2.11389      6.34166      9.00000        -0.046768     -0.009832      0.575652
      0.00000      6.34166     11.11389        -0.015121     -0.000174     -0.508489
      2.11389      4.22777     11.11389        -0.029266     -0.005917     -0.507224
      0.00000      8.45554      9.00000        -0.022802     -0.001586      0.574793
      2.11389     10.56943      9.00000        -0.058517      0.000059      0.580989
      0.00000     10.56943     11.11389        -0.014710      0.000014     -0.502990
      2.11389      8.45554     11.11389        -0.038006      0.001589     -0.487570
      0.00000     12.68331      9.00000        -0.022763      0.001629      0.574806
      2.11389     14.79720      9.00000        -0.046613      0.009847      0.575613
      0.00000     14.79720     11.11389        -0.015090      0.000186     -0.508530
      2.11389     12.68331     11.11389        -0.037967     -0.001540     -0.487669
      0.00000     16.91108      9.00000        -0.014519      0.003960      0.571981
      2.11389     19.02497      9.00000        -0.018717      0.007734      0.570607
      0.00000     19.02497     11.11389        -0.009337      0.001255     -0.515114
      2.11389     16.91108     11.11389        -0.029171      0.005920     -0.507315
      4.22777      0.00000      9.00000        -0.016100     -0.000054      0.570666
      6.34166      2.11389      9.00000        -0.015313     -0.033963      0.571317
      4.22777      2.11389     11.11389        -0.019632     -0.017253     -0.508753
      6.34166      0.00000     11.11389        -0.009764     -0.000053     -0.509408
      4.22777      4.22777      9.00000        -0.043357     -0.033513      0.568123
      6.34166      6.34166      9.00000        -0.103354     -0.100849      0.531748
      4.22777      6.34166     11.11389        -0.095400     -0.003364     -0.475992
      6.34166      4.22777     11.11389        -0.029658     -0.085656     -0.491758
      4.22777      8.45554      9.00000        -0.123340     -0.012046      0.592902
      6.34166     10.56943      9.00000        -0.161153      0.000636      0.578233
      4.22777     10.56943     11.11389        -0.053502      0.000005     -0.409971
      6.34166      8.45554     11.11389        -0.735383      0.022675     -0.492607
      4.22777     12.68331      9.00000        -0.122842      0.012249      0.592693
      6.34166     14.79720      9.00000        -0.102920      0.100487      0.531991
      4.22777     14.79720     11.11389        -0.095004      0.003512     -0.476307
      6.34166     12.68331     11.11389        -0.728540     -0.022136     -0.491695
      4.22777     16.91108      9.00000        -0.043200      0.033383      0.568056
      6.34166     19.02497      9.00000        -0.015274      0.033763      0.571294
      4.22777     19.02497     11.11389        -0.019598      0.017165     -0.508819
      6.34166     16.91108     11.11389        -0.029633      0.085266     -0.491850
      8.45554      0.00000      9.00000        -0.000015     -0.000085      0.571493
     10.56943      2.11389      9.00000         0.015280     -0.033972      0.571279
      8.45554      2.11389     11.11389        -0.000023     -0.039598     -0.504721
     10.56943      0.00000     11.11389         0.009734     -0.000051     -0.509407
      8.45554      4.22777      9.00000        -0.000025     -0.111642      0.572584
     10.56943      6.34166      9.00000         0.103307     -0.100932      0.531744
      8.45554      6.34166     11.11389        -0.000102     -0.559260     -0.479349
     10.56943      4.22777     11.11389         0.029607     -0.085696     -0.491748
      8.45554      8.45554      9.00000        -0.000178     -0.038734      0.064538
     10.56943     10.56943      9.00000         0.161073      0.000657      0.578109
      8.45554     10.56943     11.11389         0.000658      0.001683     -1.189643
     10.56943      8.45554     11.11389         0.734453      0.022873     -0.492095
      8.45554     12.68331      9.00000        -0.000133      0.038903      0.068021
     10.56943     14.79720      9.00000         0.102864      0.100545      0.531963
      8.45554     14.79720     11.11389        -0.000096      0.552458     -0.477312
     10.56943     12.68331     11.11389         0.727884     -0.022233     -0.491469
[...]
     19.02497      6.34166     11.11389        -0.000029      0.000672      0.369759
     16.91108      6.34166      9.00000        -0.018578      0.004597     -0.432388
     19.02497      4.22777      9.00000        -0.000019      0.003071     -0.431059
     16.91108      8.45554     11.11389        -0.017498      0.000169      0.362602
     19.02497     10.56943     11.11389        -0.000039     -0.000006      0.366009
     16.91108     10.56943      9.00000        -0.021731     -0.000017     -0.434454
     19.02497      8.45554      9.00000        -0.000031      0.001232     -0.432746
     16.91108     12.68331     11.11389        -0.017476     -0.000181      0.362632
     19.02497     14.79720     11.11389        -0.000028     -0.000672      0.369783
     16.91108     14.79720      9.00000        -0.018542     -0.004592     -0.432379
     19.02497     12.68331      9.00000        -0.000033     -0.001247     -0.432745
     16.91108     16.91108     11.11389        -0.013096     -0.003309      0.371097
     19.02497     19.02497     11.11389        -0.000018     -0.001230      0.374957
     16.91108     19.02497      9.00000        -0.010980     -0.003669     -0.430474
     19.02497     16.91108      9.00000        -0.000023     -0.003047     -0.431059
    total drift:                                0.000931     -0.001239     -0.536171

  FREE ENERGIE OF THE ION-ELECTRON SYSTEM (eV)
  free  energy   TOTEN  =     -1450.55992867 eV

  energy  without entropy=    -1450.55992867  energy(sigma->0) =    -1450.55992867