 vasp.6.3.0 20Jan22 (build Apr  1 2022 16:44:48) complex
 executed on        HPECrayEX_GCC date 2022.08.15  17:58:56

 INCAR:
   SYSTEM = MgO-rocksalt
   ISMEAR = 0
   SIGMA = 0.05
   EDIFF = 1E-6
   ALGO = ALL
   ISTART = 0
   IBRION = -1
   NSW = 0
   ISYM = 2
   DIPOL = 0.5 0.5 0.5
   IDIPOL = 3
   LDIPOL = .TRUE.
   GGA = PE
   IVDW = 20
   ENCUT = 520
   PREC = Accurate
   LASPH = .TRUE.
   LREAL = Auto
   ISPIN = 1
   NELM = 200
   NELMIN = 8
   NCORE = 4
   KPAR = 2
   LWAVE = .FALSE.
   LCHARG = .FALSE.

 POTCAR:    PAW_PBE Ag 02Apr2005
 POTCAR:    PAW_PBE Mg_pv 13Apr2007
 POTCAR:    PAW_PBE O 08Apr2002
 POTCAR:    PAW_PBE Ag 02Apr2005
   VRHFIN =Ag : s1 d10

   TITEL  = PAW_PBE Ag 02Apr2005
   POMASS =  107.868; ZVAL   =   11.000    mass and valenz
   ENMAX  =  249.844; ENMIN  =  187.383 eV

   TITEL  = PAW_PBE Mg_pv 13Apr2007
   POMASS =   24.305; ZVAL   =    8.000    mass and valenz
   ENMAX  =  403.929; ENMIN  =  302.947 eV

   TITEL  = PAW_PBE O 08Apr2002
   POMASS =   16.000; ZVAL   =    6.000    mass and valenz
   ENMAX  =  400.000; ENMIN  =  300.000 eV

 Optimization of the real space projectors (new method)

 maximal supplied QI-value         = 15.12
 optimisation between [QCUT,QGAM] = [ 11.64, 23.28] = [ 37.95,151.78] Ry
 Optimized for a Real-space Cutoff    1.45 Angstroem

   l    n(q)    QCUT    max X(q) W(low)/X(q) W(high)/X(q)  e(spline)
   2      9    11.641    53.897    0.22E-03    0.42E-04    0.28E-06
   2      9    11.641    52.416    0.23E-03    0.44E-04    0.29E-06
   0     10    11.641   122.045    0.51E-04    0.25E-04    0.16E-06
   0     10    11.641    73.629    0.49E-04    0.24E-04    0.16E-06
   1     10    11.641    15.255    0.99E-04    0.55E-04    0.11E-06
   1     10    11.641     9.562    0.81E-04    0.47E-04    0.95E-07
 Optimization of the real space projectors (new method)

[...]

   l    n(q)    QCUT    max X(q) W(low)/X(q) W(high)/X(q)  e(spline)
   1      8    11.527     2.974    0.44E-04    0.56E-04    0.12E-06
   1      8    11.527     4.279    0.12E-03    0.12E-03    0.26E-06
   0      9    11.527    16.381    0.46E-04    0.64E-04    0.78E-07
   0      9    11.527     5.611    0.26E-04    0.43E-04    0.55E-07
   2      8    11.527     4.652    0.22E-03    0.72E-04    0.47E-07
 Optimization of the real space projectors (new method)

 maximal supplied QI-value         = 24.76
 optimisation between [QCUT,QGAM] = [ 11.64, 23.27] = [ 37.91,151.63] Ry
 Optimized for a Real-space Cutoff    1.14 Angstroem

   l    n(q)    QCUT    max X(q) W(low)/X(q) W(high)/X(q)  e(spline)
   0      8    11.635    20.381    0.10E-03    0.33E-03    0.24E-06
   0      8    11.635    15.268    0.11E-03    0.35E-03    0.26E-06
   1      7    11.635     5.964    0.24E-03    0.31E-03    0.30E-06
   1      7    11.635     5.382    0.22E-03    0.25E-03    0.26E-06
  PAW_PBE Ag 02Apr2005                  :
  PAW_PBE Mg_pv 13Apr2007               :
  PAW_PBE O 08Apr2002                   :

 POSCAR: Ag Mg  O
  positions in direct lattice
 exchange correlation table for  LEXCH =        8
   RHO(1)=    0.500       N(1)  =     2000
   RHO(2)=  100.500       N(2)  =     4000

 ion  position               nearest neighbor table
   1  0.500  0.500  0.720-   2 2.55
   2  0.500  0.500  0.605- 152 2.27   1 2.55
   3  0.000  0.000  0.407- 105 2.11 106 2.11 121 2.11 186 2.11 103 2.11
   4  0.100  0.100  0.407- 105 2.11 106 2.11 110 2.11 125 2.11 104 2.11
   5  0.000  0.100  0.503- 103 2.11 104 2.11 107 2.11 184 2.11 105 2.11
   6  0.100  0.000  0.503- 103 2.11 104 2.11 120 2.11 123 2.11 106 2.11
   7  0.000  0.200  0.407- 109 2.11 105 2.11 110 2.11 190 2.11 107 2.11
   8  0.100  0.300  0.407- 110 2.11 109 2.11 114 2.11 129 2.11 108 2.11
   9  0.000  0.300  0.503- 107 2.11 108 2.11 111 2.11 188 2.11 109 2.11
  10  0.100  0.200  0.503- 108 2.11 107 2.11 104 2.11 127 2.11 110 2.11
  11  0.000  0.400  0.407- 109 2.11 113 2.11 114 2.11 194 2.11 111 2.11
  12  0.100  0.500  0.407- 113 2.11 114 2.11 118 2.11 133 2.11 112 2.11
  13  0.000  0.500  0.503- 111 2.11 112 2.11 115 2.11 192 2.11 113 2.11
  14  0.100  0.400  0.503- 108 2.11 111 2.11 112 2.11 131 2.11 114 2.11
  15  0.000  0.600  0.407- 113 2.11 117 2.11 118 2.11 198 2.11 115 2.11
  16  0.100  0.700  0.407- 122 2.11 118 2.11 117 2.11 137 2.11 116 2.11
  17  0.000  0.700  0.503- 119 2.11 116 2.11 115 2.11 196 2.11 117 2.11
  18  0.100  0.600  0.503- 112 2.11 115 2.11 116 2.11 135 2.11 118 2.11
  19  0.000  0.800  0.407- 117 2.11 121 2.11 122 2.11 202 2.11 119 2.11
  20  0.100  0.900  0.407- 106 2.11 121 2.11 122 2.11 141 2.11 120 2.11
  21  0.000  0.900  0.503- 103 2.11 119 2.11 120 2.11 200 2.11 121 2.11
  22  0.100  0.800  0.503- 116 2.11 119 2.11 120 2.11 139 2.11 122 2.11
  23  0.200  0.000  0.407- 126 2.11 125 2.11 106 2.11 141 2.11 123 2.11
  24  0.300  0.100  0.407- 125 2.11 126 2.11 130 2.11 145 2.11 124 2.11
  25  0.200  0.100  0.503- 124 2.11 123 2.11 104 2.11 127 2.11 125 2.11
  26  0.300  0.000  0.503- 123 2.11 124 2.11 140 2.11 143 2.11 126 2.11
  27  0.200  0.200  0.407- 129 2.11 130 2.11 110 2.11 125 2.11 127 2.11
  28  0.300  0.300  0.407- 129 2.11 130 2.11 134 2.11 149 2.11 128 2.11
  29  0.200  0.300  0.503- 127 2.11 128 2.11 108 2.11 131 2.11 129 2.11
  30  0.300  0.200  0.503- 127 2.11 128 2.11 124 2.11 147 2.11 130 2.11
  31  0.200  0.400  0.407- 134 2.11 129 2.11 133 2.11 114 2.11 131 2.11
  32  0.300  0.500  0.407- 133 2.11 134 2.11 138 2.11 153 2.11 132 2.11
  33  0.200  0.500  0.503- 132 2.11 131 2.11 112 2.11 135 2.11 133 2.11
  34  0.300  0.400  0.503- 131 2.11 128 2.11 132 2.11 151 2.11 134 2.11
  35  0.200  0.600  0.407- 138 2.11 133 2.11 137 2.11 118 2.11 135 2.11
  36  0.300  0.700  0.407- 137 2.11 142 2.11 138 2.11 157 2.11 136 2.11
  37  0.200  0.700  0.503- 136 2.11 139 2.11 116 2.11 135 2.11 137 2.11
  38  0.300  0.600  0.503- 135 2.11 132 2.11 136 2.11 155 2.11 138 2.11
  39  0.200  0.800  0.407- 137 2.11 142 2.11 141 2.11 122 2.11 139 2.11
  40  0.300  0.900  0.407- 141 2.11 126 2.11 142 2.11 161 2.11 140 2.11
  41  0.200  0.900  0.503- 140 2.11 123 2.11 139 2.11 120 2.11 141 2.11
  42  0.300  0.800  0.503- 136 2.11 139 2.11 140 2.11 159 2.11 142 2.11
  43  0.400  0.000  0.407- 126 2.11 145 2.11 146 2.11 161 2.11 143 2.11
  44  0.500  0.100  0.407- 145 2.11 146 2.11 150 2.11 165 2.11 144 2.11
  45  0.400  0.100  0.503- 124 2.11 143 2.11 144 2.11 147 2.11 145 2.11
  46  0.500  0.000  0.503- 143 2.11 144 2.11 160 2.11 163 2.11 146 2.11
  47  0.400  0.200  0.407- 149 2.11 145 2.11 130 2.11 150 2.11 147 2.11
  48  0.500  0.300  0.407- 150 2.11 149 2.11 154 2.11 169 2.11 148 2.11
  49  0.400  0.300  0.503- 147 2.11 128 2.11 148 2.11 151 2.11 149 2.11
  50  0.500  0.200  0.503- 148 2.11 147 2.11 144 2.11 167 2.11 150 2.11
  51  0.400  0.400  0.407- 134 2.11 149 2.11 153 2.11 154 2.11 151 2.11
  52  0.500  0.500  0.407- 153 2.11 154 2.11 158 2.11 173 2.11 152 2.11
  53  0.400  0.500  0.503- 132 2.11 151 2.11 152 2.11 155 2.11 153 2.11
  54  0.500  0.400  0.503- 148 2.11 151 2.11 152 2.11 171 2.11 154 2.11
  55  0.400  0.600  0.407- 138 2.11 153 2.11 157 2.11 158 2.11 155 2.11
  56  0.500  0.700  0.407- 162 2.11 158 2.11 157 2.11 177 2.11 156 2.11
  57  0.400  0.700  0.503- 159 2.11 155 2.11 156 2.11 136 2.11 157 2.11
  58  0.500  0.600  0.503- 152 2.11 155 2.11 156 2.11 175 2.11 158 2.11
  59  0.400  0.800  0.407- 157 2.11 142 2.11 161 2.11 162 2.11 159 2.11
  60  0.500  0.900  0.407- 146 2.11 161 2.11 162 2.11 181 2.11 160 2.11
[...]
 188  0.900  0.300  0.503-  90 2.11  89 2.11   9 2.11  94 2.11  88 2.11
 189  0.800  0.300  0.407-  68 2.11  87 2.11  88 2.11  91 2.11  89 2.11
 190  0.900  0.200  0.407-  88 2.11  84 2.11  87 2.11   7 2.11  90 2.11
 191  0.800  0.400  0.503-  74 2.11  89 2.11  93 2.11  94 2.11  91 2.11
 192  0.900  0.500  0.503-  13 2.11  93 2.11  94 2.11  98 2.11  92 2.11
 193  0.800  0.500  0.407-  72 2.11  91 2.11  92 2.11  95 2.11  93 2.11
 194  0.900  0.400  0.407-  11 2.11  88 2.11  91 2.11  92 2.11  94 2.11
 195  0.800  0.600  0.503-  78 2.11  93 2.11  97 2.11  98 2.11  95 2.11
 196  0.900  0.700  0.503- 102 2.11  97 2.11  98 2.11  17 2.11  96 2.11
 197  0.800  0.700  0.407-  76 2.11  99 2.11  96 2.11  95 2.11  97 2.11
 198  0.900  0.600  0.407-  15 2.11  92 2.11  95 2.11  96 2.11  98 2.11
 199  0.800  0.800  0.503-  82 2.11  97 2.11 101 2.11 102 2.11  99 2.11
 200  0.900  0.900  0.503-  21 2.11  86 2.11 101 2.11 102 2.11 100 2.11
 201  0.800  0.900  0.407-  80 2.11  83 2.11  99 2.11 100 2.11 101 2.11
 202  0.900  0.800  0.407-  96 2.11  19 2.11  99 2.11 100 2.11 102 2.11

  LATTYP: Found a simple tetragonal cell.
 ALAT       =    21.1388521970
 C/A-ratio  =     1.0461251639

  Lattice vectors:

 A1 = (  21.1388521970,   0.0000000000,   0.0000000000)
 A2 = (   0.0000000000,  21.1388521970,   0.0000000000)
 A3 = (   0.0000000000,   0.0000000000,  22.1138852197)

Analysis of symmetry for initial positions (statically):
 Subroutine PRICEL returns:
 Original cell was already a primitive cell.

 Routine SETGRP: Setting up the symmetry group for a
 simple tetragonal supercell.

 Subroutine GETGRP returns: Found  8 space group operations
 (whereof  8 operations were pure point group operations)
 out of a pool of 16 trial point group operations.

The static configuration has the point symmetry C_4v.

Analysis of symmetry for dynamics (positions and initial velocities):
 Subroutine PRICEL returns:
 Original cell was already a primitive cell.

 Routine SETGRP: Setting up the symmetry group for a
 simple tetragonal supercell.

 Subroutine GETGRP returns: Found  8 space group operations
 (whereof  8 operations were pure point group operations)
 out of a pool of 16 trial point group operations.

The dynamic configuration has the point symmetry C_4v.

 Subroutine INISYM returns: Found  8 space group operations
 (whereof  8 operations are pure point group operations),
 and found     1 'primitive' translations

                                     Primitive cell

  volume of cell :    9881.6133

  direct lattice vectors                    reciprocal lattice vectors
    21.138852197  0.000000000  0.000000000     0.047306258  0.000000000  0.000000000
     0.000000000 21.138852197  0.000000000     0.000000000  0.047306258  0.000000000
     0.000000000  0.000000000 22.113885220     0.000000000  0.000000000  0.045220457

  length of vectors
    21.138852197 21.138852197 22.113885220     0.047306258  0.047306258  0.045220457

  position of ions in fractional coordinates (direct lattice)
     0.500000000  0.500000000  0.720254265
     0.500000000  0.500000000  0.605068473
     0.000000000  0.000000000  0.406984115
     0.100000000  0.100000000  0.406984115
     0.000000000  0.100000000  0.502574971
     0.100000000  0.000000000  0.502574971
     0.000000000  0.200000000  0.406984115
     0.100000000  0.300000000  0.406984115
     0.000000000  0.300000000  0.502574971
     0.100000000  0.200000000  0.502574971
     0.000000000  0.400000000  0.406984115
     0.100000000  0.500000000  0.406984115
     0.000000000  0.500000000  0.502574971
     0.100000000  0.400000000  0.502574971
     0.000000000  0.600000000  0.406984115
     0.100000000  0.700000000  0.406984115
     0.000000000  0.700000000  0.502574971
[...]
   O          14.776          3.165          5.255          0.97323367
   O          14.775          3.165          5.255          0.97320655
   O          14.757          3.164          5.252          0.97259007
   O          14.765          3.164          5.253          0.97285114
   O          14.775          3.165          5.255          0.97318296
   O          14.775          3.165          5.255          0.97320655
   O          14.763          3.164          5.253          0.97281460
   O          14.767          3.165          5.254          0.97292096
   O          14.775          3.165          5.255          0.97318763
   O          14.775          3.165          5.255          0.97318763

  vdW correction parametrized for the method pbe

  IVDW =  20
  VDW_RADIUS =    50.000 A
  VDW_IDAMPF =  0
  VDW_S6 =     1.000
  VDW_SR =     0.940
  VDW_D =    20.000
  LVDW_ONECELL = F F F
  LVDW_SAMETYPE T T T
  LVDW_EWALD = F

  Number of pair interactions contributing to vdW energy: 1097068
  Edisp (eV):  -28.65998

  FORCE on cell =-STRESS in cart. coord.  units (eV):
  Direction    XX          YY          ZZ          XY          YZ          ZX
  Alpha Z  1357.53553  1357.53553  1357.53553
  Ewald  476274.59663476274.59663************    -0.00000     0.00000    -0.00000
  Hartree504942.67067504942.67067************    -0.00000    -0.00000    -0.00000
  E(xc)   -7765.52927 -7765.52927 -7796.03848    -0.00000     0.00000    -0.00000
  Local  ************************************    -0.00000    -0.00000     0.00000
  n-local -8778.03652 -8778.03651 -8902.48872    -0.00000    -0.00000     0.00000
  augment  3467.78079  3467.78080  3408.54353    -0.00000    -0.00000     0.00000
  Kinetic 22954.06610 22954.06610 23202.77698    -0.00001     0.00000    -0.00000
  Fock        0.00000     0.00000     0.00000     0.00000     0.00000     0.00000
  vdW       -37.17795   -37.17795    -2.21116    -0.00000     0.00000    -0.00000
  Total    -186.80645  -186.80645    16.18426     0.00000     0.00000     0.00000
  in kB     -30.28828   -30.28828     2.62407     0.00000     0.00000     0.00000

 VOLUME and BASIS-vectors are now :
  energy-cutoff  :      520.00
  volume of cell :     9881.61
      direct lattice vectors                 reciprocal lattice vectors
    21.138852197  0.000000000  0.000000000     0.047306258  0.000000000  0.000000000
     0.000000000 21.138852197  0.000000000     0.000000000  0.047306258  0.000000000
     0.000000000  0.000000000 22.113885220     0.000000000  0.000000000  0.045220457

  length of vectors
    21.138852197 21.138852197 22.113885220     0.047306258  0.047306258  0.045220457

 FORCES acting on ions:
    Electron-Ion                     Ewald-Force                    Non-Local-Force
   -.243E-12 -.151E-11 -.174E+04   0.115E-12 0.211E-13 0.173E+04   0.165E-23 0.000E+00 0.830E+01
   -.535E-13 -.182E-11 -.191E+04   -.289E-13 -.799E-14 0.191E+04   0.000E+00 0.000E+00 -.455E+01
   0.140E-12 0.565E-12 0.930E+03   0.764E-13 0.213E-12 -.923E+03   0.000E+00 0.000E+00 -.742E+01
   0.361E+01 0.361E+01 0.931E+03   -.362E+01 -.362E+01 -.924E+03   0.688E-02 0.688E-02 -.742E+01
   0.154E-12 0.386E+01 -.922E+03   0.103E-12 -.386E+01 0.915E+03   -.579E-23 0.291E-02 0.737E+01
   0.386E+01 -.403E-13 -.922E+03   -.386E+01 0.107E-12 0.915E+03   0.291E-02 -.662E-23 0.737E+01
   0.136E-12 0.528E+01 0.932E+03   0.153E-10 -.529E+01 -.924E+03   -.662E-23 0.768E-02 -.742E+01
   0.706E+01 0.663E+01 0.935E+03   -.709E+01 -.665E+01 -.927E+03   0.256E-01 0.115E-01 -.743E+01
   0.143E-12 0.697E+01 -.920E+03   0.181E-11 -.698E+01 0.912E+03   0.000E+00 0.433E-02 0.737E+01
   0.664E+01 0.791E+01 -.921E+03   -.665E+01 -.792E+01 0.913E+03   0.971E-02 0.636E-02 0.737E+01
   0.117E-12 0.357E+01 0.934E+03   -.174E-10 -.357E+01 -.927E+03   0.662E-23 0.471E-02 -.743E+01
   0.999E+01 -.472E-12 0.937E+03   -.100E+02 0.228E-12 -.929E+03   0.420E-01 -.132E-22 -.743E+01
   0.143E-12 -.233E-12 -.918E+03   0.120E-12 0.126E-12 0.911E+03   -.331E-23 0.000E+00 0.737E+01
   0.134E+02 0.588E+01 -.917E+03   -.134E+02 -.588E+01 0.909E+03   0.198E-01 0.341E-02 0.737E+01
   0.128E-12 -.357E+01 0.934E+03   0.116E-11 0.357E+01 -.927E+03   -.662E-23 -.471E-02 -.743E+01
   0.706E+01 -.663E+01 0.935E+03   -.709E+01 0.665E+01 -.927E+03   0.256E-01 -.115E-01 -.743E+01
   0.147E-12 -.697E+01 -.920E+03   -.785E-12 0.698E+01 0.912E+03   -.414E-23 -.433E-02 0.737E+01
   0.134E+02 -.588E+01 -.917E+03   -.134E+02 0.588E+01 0.909E+03   0.198E-01 -.341E-02 0.737E+01
   0.142E-12 -.528E+01 0.932E+03   0.853E-12 0.529E+01 -.924E+03   0.000E+00 -.768E-02 -.742E+01
   0.361E+01 -.361E+01 0.931E+03   -.362E+01 0.362E+01 -.924E+03   0.688E-02 -.688E-02 -.742E+01
   0.156E-12 -.386E+01 -.922E+03   -.867E-12 0.386E+01 0.915E+03   0.993E-23 -.291E-02 0.737E+01
   0.664E+01 -.791E+01 -.921E+03   -.665E+01 0.792E+01 0.913E+03   0.971E-02 -.636E-02 0.737E+01
   0.528E+01 0.659E-13 0.932E+03   -.529E+01 0.101E-12 -.924E+03   0.768E-02 0.000E+00 -.742E+01
   0.663E+01 0.706E+01 0.935E+03   -.665E+01 -.709E+01 -.927E+03   0.115E-01 0.256E-01 -.743E+01
   0.791E+01 0.664E+01 -.921E+03   -.792E+01 -.665E+01 0.913E+03   0.636E-02 0.971E-02 0.737E+01
   0.697E+01 -.104E-12 -.920E+03   -.698E+01 0.941E-13 0.912E+03   0.433E-02 -.662E-23 0.737E+01
   0.890E+01 0.890E+01 0.935E+03   -.893E+01 -.893E+01 -.927E+03   0.257E-01 0.257E-01 -.743E+01
   0.167E+02 0.167E+02 0.947E+03   -.168E+02 -.168E+02 -.939E+03   0.843E-01 0.843E-01 -.744E+01
   0.200E+02 0.149E+02 -.914E+03   -.201E+02 -.149E+02 0.906E+03   0.430E-01 0.115E-01 0.736E+01
   0.149E+02 0.200E+02 -.914E+03   -.149E+02 -.201E+02 0.906E+03   0.115E-01 0.430E-01 0.736E+01
   0.181E+02 0.714E+01 0.943E+03   -.182E+02 -.716E+01 -.935E+03   0.104E+00 0.188E-01 -.745E+01
   0.294E+02 -.975E-12 0.962E+03   -.299E+02 0.218E-12 -.954E+03   0.341E+00 0.132E-22 -.754E+01
   0.341E+02 -.165E-11 -.907E+03   -.341E+02 0.107E-13 0.899E+03   0.638E-01 0.000E+00 0.735E+01
   0.498E+02 0.255E+02 -.889E+03   -.501E+02 -.255E+02 0.882E+03   0.237E+00 0.724E-02 0.731E+01
   0.181E+02 -.714E+01 0.943E+03   -.182E+02 0.716E+01 -.935E+03   0.104E+00 -.188E-01 -.745E+01
   0.167E+02 -.167E+02 0.947E+03   -.168E+02 0.168E+02 -.939E+03   0.843E-01 -.843E-01 -.744E+01
   0.200E+02 -.149E+02 -.914E+03   -.201E+02 0.149E+02 0.906E+03   0.430E-01 -.115E-01 0.736E+01
   0.498E+02 -.255E+02 -.889E+03   -.501E+02 0.255E+02 0.882E+03   0.237E+00 -.724E-02 0.731E+01
   0.890E+01 -.890E+01 0.935E+03   -.893E+01 0.893E+01 -.927E+03   0.257E-01 -.257E-01 -.743E+01
   0.663E+01 -.706E+01 0.935E+03   -.665E+01 0.709E+01 -.927E+03   0.115E-01 -.256E-01 -.743E+01
   0.791E+01 -.664E+01 -.921E+03   -.792E+01 0.665E+01 0.913E+03   0.636E-02 -.971E-02 0.737E+01
   0.149E+02 -.200E+02 -.914E+03   -.149E+02 0.201E+02 0.906E+03   0.115E-01 -.430E-01 0.736E+01
   0.357E+01 -.622E-12 0.934E+03   -.357E+01 0.449E-13 -.927E+03   0.471E-02 0.000E+00 -.743E+01
   -.265E-12 0.999E+01 0.937E+03   0.387E-11 -.100E+02 -.929E+03   0.000E+00 0.420E-01 -.743E+01
   0.588E+01 0.134E+02 -.917E+03   -.588E+01 -.134E+02 0.909E+03   0.341E-02 0.198E-01 0.737E+01
   -.244E-12 -.151E-11 -.918E+03   0.622E-14 0.933E-13 0.911E+03   0.331E-23 0.000E+00 0.737E+01
   0.714E+01 0.181E+02 0.943E+03   -.716E+01 -.182E+02 -.935E+03   0.188E-01 0.104E+00 -.745E+01
   -.239E-12 0.294E+02 0.962E+03   -.579E-11 -.299E+02 -.954E+03   0.000E+00 0.341E+00 -.754E+01
   0.255E+02 0.498E+02 -.889E+03   -.255E+02 -.501E+02 0.882E+03   0.724E-02 0.237E+00 0.731E+01
   -.229E-12 0.341E+02 -.907E+03   -.193E-10 -.341E+02 0.899E+03   0.000E+00 0.638E-01 0.735E+01
   0.222E+02 0.222E+02 0.978E+03   -.225E+02 -.225E+02 -.970E+03   0.230E+00 0.230E+00 -.740E+01
   -.258E-12 0.160E-11 0.101E+04   -.104E-12 0.214E-12 -.100E+04   0.000E+00 0.000E+00 -.533E+01
   0.104E+03 0.134E-10 -.791E+03   -.106E+03 0.933E-14 0.784E+03   0.179E+01 -.827E-24 0.698E+01
   -.229E-12 0.104E+03 -.791E+03   0.215E-10 -.106E+03 0.784E+03   0.000E+00 0.179E+01 0.698E+01
   0.222E+02 -.222E+02 0.978E+03   -.225E+02 0.225E+02 -.970E+03   0.230E+00 -.230E+00 -.740E+01
   -.226E-12 -.294E+02 0.962E+03   -.183E-10 0.299E+02 -.954E+03   0.132E-22 -.341E+00 -.754E+01
   0.255E+02 -.498E+02 -.889E+03   -.255E+02 0.501E+02 0.882E+03   0.724E-02 -.237E+00 0.731E+01
   -.253E-12 -.104E+03 -.791E+03   0.183E-10 0.106E+03 0.784E+03   0.000E+00 -.179E+01 0.698E+01
   0.714E+01 -.181E+02 0.943E+03   -.716E+01 0.182E+02 -.935E+03   0.188E-01 -.104E+00 -.745E+01
   -.242E-12 -.999E+01 0.937E+03   0.203E-10 0.100E+02 -.929E+03   -.662E-23 -.420E-01 -.743E+01
[...]
   -.100E+02 0.764E+01 0.706E+03   0.100E+02 -.767E+01 -.710E+03   -.556E-01 0.385E-01 0.351E+01
   -.375E+01 0.463E+01 0.701E+03   0.376E+01 -.464E+01 -.705E+03   -.143E-01 0.142E-01 0.352E+01
   -.220E+02 0.831E+01 -.684E+03   0.221E+02 -.832E+01 0.688E+03   -.578E-01 0.126E-01 -.365E+01
   -.112E+02 -.435E-11 -.689E+03   0.112E+02 0.103E-10 0.693E+03   -.225E-01 0.000E+00 -.361E+01
   -.153E+02 0.407E-11 0.710E+03   0.154E+02 -.169E-11 -.714E+03   -.894E-01 0.662E-23 0.349E+01
   -.684E+01 0.327E+01 0.704E+03   0.686E+01 -.328E+01 -.708E+03   -.293E-01 0.998E-02 0.351E+01
   -.220E+02 -.831E+01 -.684E+03   0.221E+02 0.832E+01 0.688E+03   -.578E-01 -.126E-01 -.365E+01
   -.746E+01 -.654E+01 -.691E+03   0.747E+01 0.655E+01 0.695E+03   -.161E-01 -.922E-02 -.360E+01
   -.100E+02 -.764E+01 0.706E+03   0.100E+02 0.767E+01 -.710E+03   -.556E-01 -.385E-01 0.351E+01
   -.684E+01 -.327E+01 0.704E+03   0.686E+01 0.328E+01 -.708E+03   -.293E-01 -.998E-02 0.351E+01
   -.922E+01 -.922E+01 -.690E+03   0.923E+01 0.923E+01 0.694E+03   -.242E-01 -.242E-01 -.360E+01
   -.341E+01 -.341E+01 -.693E+03   0.342E+01 0.342E+01 0.697E+03   -.630E-02 -.630E-02 -.359E+01
   -.463E+01 -.375E+01 0.701E+03   0.464E+01 0.376E+01 -.705E+03   -.142E-01 -.143E-01 0.352E+01
   -.375E+01 -.463E+01 0.701E+03   0.376E+01 0.464E+01 -.705E+03   -.143E-01 -.142E-01 0.352E+01
   0.131E-10 -.382E-10 -.151E+01   0.956E-12 0.302E-12 -.341E-11   -.331E-15 0.576E-15 0.912E+00

 POSITION                                       TOTAL-FORCE (eV/Angst)
     10.56943     10.56943     15.92762         0.000000      0.000000      0.025614
     10.56943     10.56943     13.38041         0.000000      0.000000     -0.084647
      0.00000      0.00000      9.00000         0.000000      0.000000      0.361444
      2.11389      2.11389      9.00000        -0.001873     -0.001873      0.361739
      0.00000      2.11389     11.11389         0.000000     -0.000758     -0.348493
      2.11389      0.00000     11.11389        -0.000758      0.000000     -0.348493
      0.00000      4.22777      9.00000         0.000000     -0.002123      0.362026
      2.11389      6.34166      9.00000        -0.006473     -0.003087      0.363409
      0.00000      6.34166     11.11389         0.000000     -0.001062     -0.346454
      2.11389      4.22777     11.11389        -0.002282     -0.001560     -0.346798
      0.00000      8.45554      9.00000         0.000000     -0.001288      0.363216
      2.11389     10.56943      9.00000        -0.010420      0.000000      0.364906
      0.00000     10.56943     11.11389         0.000000      0.000000     -0.344957
      2.11389      8.45554     11.11389        -0.004673     -0.000681     -0.342983
      0.00000     12.68331      9.00000         0.000000      0.001288      0.363216
      2.11389     14.79720      9.00000        -0.006473      0.003087      0.363409
      0.00000     14.79720     11.11389         0.000000      0.001062     -0.346454
      2.11389     12.68331     11.11389        -0.004673      0.000681     -0.342983
      0.00000     16.91108      9.00000         0.000000      0.002123      0.362026
      2.11389     19.02497      9.00000        -0.001873      0.001873      0.361739
      0.00000     19.02497     11.11389         0.000000      0.000758     -0.348493
      2.11389     16.91108     11.11389        -0.002282      0.001560     -0.346798
      4.22777      0.00000      9.00000        -0.002123      0.000000      0.362026
      6.34166      2.11389      9.00000        -0.003087     -0.006473      0.363409
      4.22777      2.11389     11.11389        -0.001560     -0.002282     -0.346798
      6.34166      0.00000     11.11389        -0.001062      0.000000     -0.346454
      4.22777      4.22777      9.00000        -0.006775     -0.006775      0.363160
      6.34166      6.34166      9.00000        -0.022377     -0.022377      0.367345
      4.22777      6.34166     11.11389        -0.009808     -0.002186     -0.339085
      6.34166      4.22777     11.11389        -0.002186     -0.009808     -0.339085
      4.22777      8.45554      9.00000        -0.025417     -0.004769      0.369727
      6.34166     10.56943      9.00000        -0.080387      0.000000      0.389292
      4.22777     10.56943     11.11389        -0.016673      0.000000     -0.329123
      6.34166      8.45554     11.11389        -0.050711      0.006294     -0.294875
      4.22777     12.68331      9.00000        -0.025417      0.004769      0.369727
      6.34166     14.79720      9.00000        -0.022377      0.022377      0.367345
      4.22777     14.79720     11.11389        -0.009808      0.002186     -0.339085
      6.34166     12.68331     11.11389        -0.050711     -0.006294     -0.294875
      4.22777     16.91108      9.00000        -0.006775      0.006775      0.363160
      6.34166     19.02497      9.00000        -0.003087      0.006473      0.363409
      4.22777     19.02497     11.11389        -0.001560      0.002282     -0.346798
      6.34166     16.91108     11.11389        -0.002186      0.009808     -0.339085
      8.45554      0.00000      9.00000        -0.001288      0.000000      0.363216
     10.56943      2.11389      9.00000         0.000000     -0.010420      0.364906
      8.45554      2.11389     11.11389        -0.000681     -0.004673     -0.342983
     10.56943      0.00000     11.11389         0.000000      0.000000     -0.344957
      8.45554      4.22777      9.00000        -0.004769     -0.025417      0.369727
     10.56943      6.34166      9.00000         0.000000     -0.080387      0.389292
      8.45554      6.34166     11.11389         0.006294     -0.050711     -0.294875
     10.56943      4.22777     11.11389         0.000000     -0.016673     -0.329123
      8.45554      8.45554      9.00000        -0.070192     -0.070192      0.348721
     10.56943     10.56943      9.00000         0.000000      0.000000     -0.073531
      8.45554     10.56943     11.11389        -0.660035      0.000000     -0.313493
     10.56943      8.45554     11.11389         0.000000     -0.660035     -0.313493
      8.45554     12.68331      9.00000        -0.070192      0.070192      0.348721
     10.56943     14.79720      9.00000         0.000000      0.080387      0.389292
      8.45554     14.79720     11.11389         0.006294      0.050711     -0.294875
     10.56943     12.68331     11.11389         0.000000      0.660035     -0.313493
      8.45554     16.91108      9.00000        -0.004769      0.025417      0.369727
     10.56943     19.02497      9.00000         0.000000      0.010420      0.364906
[...]
     19.02497      6.34166     11.11389        -0.004508      0.002580      0.543682
     16.91108      6.34166      9.00000        -0.015274      0.010510     -0.564797
     19.02497      4.22777      9.00000        -0.003950      0.003935     -0.561857
     16.91108      8.45554     11.11389        -0.016826      0.003840      0.531003
     19.02497     10.56943     11.11389        -0.006411      0.000000      0.540410
     16.91108     10.56943      9.00000        -0.024977      0.000000     -0.569561
     19.02497      8.45554      9.00000        -0.008158      0.002783     -0.563792
     16.91108     12.68331     11.11389        -0.016826     -0.003840      0.531003
     19.02497     14.79720     11.11389        -0.004508     -0.002580      0.543682
     16.91108     14.79720      9.00000        -0.015274     -0.010510     -0.564797
     19.02497     12.68331      9.00000        -0.008158     -0.002783     -0.563792
     16.91108     16.91108     11.11389        -0.006721     -0.006721      0.543202
     19.02497     19.02497     11.11389        -0.001728     -0.001728      0.547210
     16.91108     19.02497      9.00000        -0.003935     -0.003950     -0.561857
     19.02497     16.91108      9.00000        -0.003950     -0.003935     -0.561857
    total drift:                                0.000000     -0.000000     -0.602210

  FREE ENERGIE OF THE ION-ELECTRON SYSTEM (eV)
  free  energy   TOTEN  =     -1169.50841799 eV

  energy  without entropy=    -1169.50841799  energy(sigma->0) =    -1169.50841799