 vasp.6.4.1 05Apr23 (build May 06 2023 19:47:20) complex

 executed on             LinuxIFC date 2023.07.05  12:49:40

 INCAR:
   SYSTEM = MgO-rocksalt
   ISMEAR = 0
   SIGMA = 0.05
   EDIFF = 1E-6
   ALGO = ALL
   ISTART = 0
   IBRION = -1
   NSW = 0
   ISYM = 2
   DIPOL = 0.5 0.5 0.5
   IDIPOL = 3
   LDIPOL = .TRUE.
   GGA = PE
   IVDW = 11
   ENCUT = 520
   PREC = Accurate
   LASPH = .TRUE.
   LREAL = Auto
   ISPIN = 1
   NELM = 200
   NELMIN = 8
   NCORE = 16
   KPAR = 1
   LWAVE = .FALSE.
   LCHARG = .FALSE.

 POTCAR:    PAW_PBE Cu 22Jun2005
 POTCAR:    PAW_PBE Mg_pv 13Apr2007
 POTCAR:    PAW_PBE O 08Apr2002
 POTCAR:    PAW_PBE Cu 22Jun2005
   VRHFIN =Cu: d10 p1

   TITEL  = PAW_PBE Cu 22Jun2005
   POMASS =   63.546; ZVAL   =   11.000    mass and valenz
   ENMAX  =  295.446; ENMIN  =  221.585 eV

   TITEL  = PAW_PBE Mg_pv 13Apr2007
   POMASS =   24.305; ZVAL   =    8.000    mass and valenz
   ENMAX  =  403.929; ENMIN  =  302.947 eV

   TITEL  = PAW_PBE O 08Apr2002
   POMASS =   16.000; ZVAL   =    6.000    mass and valenz
   ENMAX  =  400.000; ENMIN  =  300.000 eV

 Optimization of the real space projectors (new method)

 maximal supplied QI-value         = 16.25
 optimisation between [QCUT,QGAM] = [ 11.54, 23.24] = [ 37.28,151.24] Ry
 Optimized for a Real-space Cutoff    1.53 Angstroem

   l    n(q)    QCUT    max X(q) W(low)/X(q) W(high)/X(q)  e(spline)
   2     10    11.539     4.610    0.96E-04    0.13E-03    0.19E-06
   2     10    11.539     8.522    0.16E-03    0.21E-03    0.28E-06
   0     11    11.539    51.609    0.45E-04    0.31E-04    0.11E-06
   0     11    11.539    27.747    0.39E-04    0.29E-04    0.10E-06
   1     10    11.539    20.408    0.70E-05    0.38E-04    0.18E-06
   1     10    11.539    13.425    0.66E-05    0.34E-04    0.17E-06
 Optimization of the real space projectors (new method)

[...]

   l    n(q)    QCUT    max X(q) W(low)/X(q) W(high)/X(q)  e(spline)
   1      8    11.527     2.974    0.44E-04    0.56E-04    0.12E-06
   1      8    11.527     4.279    0.12E-03    0.12E-03    0.26E-06
   0      9    11.527    16.381    0.46E-04    0.64E-04    0.78E-07
   0      9    11.527     5.611    0.26E-04    0.43E-04    0.55E-07
   2      8    11.527     4.652    0.22E-03    0.72E-04    0.47E-07
 Optimization of the real space projectors (new method)

 maximal supplied QI-value         = 24.76
 optimisation between [QCUT,QGAM] = [ 11.64, 23.27] = [ 37.91,151.63] Ry
 Optimized for a Real-space Cutoff    1.14 Angstroem

   l    n(q)    QCUT    max X(q) W(low)/X(q) W(high)/X(q)  e(spline)
   0      8    11.635    20.381    0.10E-03    0.33E-03    0.24E-06
   0      8    11.635    15.268    0.11E-03    0.35E-03    0.26E-06
   1      7    11.635     5.964    0.24E-03    0.31E-03    0.30E-06
   1      7    11.635     5.382    0.22E-03    0.25E-03    0.26E-06
  PAW_PBE Cu 22Jun2005                  :
  PAW_PBE Mg_pv 13Apr2007               :
  PAW_PBE O 08Apr2002                   :

 POSCAR: Cu Mg  O
  positions in direct lattice
  velocities in cartesian coordinates
 exchange correlation table for  LEXCH =        8
   RHO(1)=    0.500       N(1)  =     2000
   RHO(2)=  100.500       N(2)  =     4000

 ion  position               nearest neighbor table
   1  0.400  0.421  0.593- 153 2.05   2 2.27  55 2.60
   2  0.401  0.506  0.657-   1 2.27   4 2.38   3 2.40
   3  0.401  0.614  0.691-   4 2.27   2 2.40
   4  0.400  0.594  0.590- 157 1.94   3 2.27   2 2.38
   5  0.000  0.000  0.407- 107 2.11 108 2.11 123 2.11 188 2.11 105 2.11
   6  0.100  0.100  0.407- 107 2.11 108 2.11 112 2.11 127 2.11 106 2.11
   7  0.000  0.100  0.503- 105 2.11 106 2.11 109 2.11 186 2.11 107 2.11
   8  0.100  0.000  0.503- 105 2.11 106 2.11 122 2.11 125 2.11 108 2.11
   9  0.000  0.200  0.407- 111 2.11 107 2.11 112 2.11 192 2.11 109 2.11
  10  0.100  0.300  0.407- 112 2.11 111 2.11 116 2.11 131 2.11 110 2.11
  11  0.000  0.300  0.503- 109 2.11 110 2.11 113 2.11 190 2.11 111 2.11
  12  0.100  0.200  0.503- 110 2.11 109 2.11 106 2.11 129 2.11 112 2.11
  13  0.000  0.400  0.407- 111 2.11 115 2.11 116 2.11 196 2.11 113 2.11
  14  0.100  0.500  0.407- 115 2.11 116 2.11 120 2.11 135 2.11 114 2.11
  15  0.000  0.500  0.503- 113 2.11 114 2.11 117 2.11 194 2.11 115 2.11
  16  0.100  0.400  0.503- 110 2.11 113 2.11 114 2.11 133 2.11 116 2.11
  17  0.000  0.600  0.407- 115 2.11 119 2.11 120 2.11 200 2.11 117 2.11
  18  0.100  0.700  0.407- 124 2.11 120 2.11 119 2.11 139 2.11 118 2.11
  19  0.000  0.700  0.503- 121 2.11 118 2.11 117 2.11 198 2.11 119 2.11
  20  0.100  0.600  0.503- 114 2.11 117 2.11 118 2.11 137 2.11 120 2.11
  21  0.000  0.800  0.407- 119 2.11 123 2.11 124 2.11 204 2.11 121 2.11
  22  0.100  0.900  0.407- 108 2.11 123 2.11 124 2.11 143 2.11 122 2.11
  23  0.000  0.900  0.503- 105 2.11 121 2.11 122 2.11 202 2.11 123 2.11
  24  0.100  0.800  0.503- 118 2.11 121 2.11 122 2.11 141 2.11 124 2.11
  25  0.200  0.000  0.407- 128 2.11 127 2.11 108 2.11 143 2.11 125 2.11
  26  0.300  0.100  0.407- 127 2.11 128 2.11 132 2.11 147 2.11 126 2.11
  27  0.200  0.100  0.503- 126 2.11 125 2.11 106 2.11 129 2.11 127 2.11
  28  0.300  0.000  0.503- 125 2.11 126 2.11 142 2.11 145 2.11 128 2.11
  29  0.200  0.200  0.407- 131 2.11 132 2.11 112 2.11 127 2.11 129 2.11
  30  0.300  0.300  0.407- 131 2.11 132 2.11 136 2.11 151 2.11 130 2.11
  31  0.200  0.300  0.503- 129 2.11 130 2.11 110 2.11 133 2.11 131 2.11
  32  0.300  0.200  0.503- 129 2.11 130 2.11 126 2.11 149 2.11 132 2.11
  33  0.200  0.400  0.407- 136 2.11 131 2.11 135 2.11 116 2.11 133 2.11
  34  0.300  0.500  0.407- 135 2.11 136 2.11 140 2.11 155 2.11 134 2.11
  35  0.200  0.500  0.503- 134 2.11 133 2.11 114 2.11 137 2.11 135 2.11
  36  0.300  0.400  0.503- 133 2.11 130 2.11 134 2.11 153 2.11 136 2.11
  37  0.200  0.600  0.407- 140 2.11 135 2.11 139 2.11 120 2.11 137 2.11
  38  0.300  0.700  0.407- 139 2.11 144 2.11 140 2.11 159 2.11 138 2.11
  39  0.200  0.700  0.503- 138 2.11 141 2.11 118 2.11 137 2.11 139 2.11
  40  0.300  0.600  0.503- 137 2.11 134 2.11 138 2.11 157 2.11 140 2.11
  41  0.200  0.800  0.407- 139 2.11 144 2.11 143 2.11 124 2.11 141 2.11
  42  0.300  0.900  0.407- 143 2.11 128 2.11 144 2.11 163 2.11 142 2.11
  43  0.200  0.900  0.503- 142 2.11 125 2.11 141 2.11 122 2.11 143 2.11
  44  0.300  0.800  0.503- 138 2.11 141 2.11 142 2.11 161 2.11 144 2.11
  45  0.400  0.000  0.407- 128 2.11 147 2.11 148 2.11 163 2.11 145 2.11
  46  0.500  0.100  0.407- 147 2.11 148 2.11 152 2.11 167 2.11 146 2.11
  47  0.400  0.100  0.503- 126 2.11 145 2.11 146 2.11 149 2.11 147 2.11
  48  0.500  0.000  0.503- 145 2.11 146 2.11 162 2.11 165 2.11 148 2.11
  49  0.400  0.200  0.407- 151 2.11 147 2.11 132 2.11 152 2.11 149 2.11
  50  0.500  0.300  0.407- 152 2.11 151 2.11 156 2.11 171 2.11 150 2.11
  51  0.400  0.300  0.503- 149 2.11 130 2.11 150 2.11 153 2.11 151 2.11
  52  0.500  0.200  0.503- 150 2.11 149 2.11 146 2.11 169 2.11 152 2.11
  53  0.400  0.400  0.407- 136 2.11 151 2.11 155 2.11 156 2.11 153 2.11
  54  0.500  0.500  0.407- 155 2.11 156 2.11 160 2.11 175 2.11 154 2.11
  55  0.400  0.500  0.503- 134 2.11 153 2.11 154 2.11 157 2.11 155 2.11   1 2.60
  56  0.500  0.400  0.503- 150 2.11 153 2.11 154 2.11 173 2.11 156 2.11
  57  0.400  0.600  0.407- 140 2.11 155 2.11 159 2.11 160 2.11 157 2.11
  58  0.500  0.700  0.407- 164 2.11 160 2.11 159 2.11 179 2.11 158 2.11
  59  0.400  0.700  0.503- 161 2.11 157 2.11 158 2.11 138 2.11 159 2.11
  60  0.500  0.600  0.503- 154 2.11 157 2.11 158 2.11 177 2.11 160 2.11
[...]
 190  0.900  0.300  0.503-  92 2.11  91 2.11  11 2.11  96 2.11  90 2.11
 191  0.800  0.300  0.407-  70 2.11  89 2.11  90 2.11  93 2.11  91 2.11
 192  0.900  0.200  0.407-  90 2.11  86 2.11  89 2.11   9 2.11  92 2.11
 193  0.800  0.400  0.503-  76 2.11  91 2.11  95 2.11  96 2.11  93 2.11
 194  0.900  0.500  0.503-  15 2.11  95 2.11  96 2.11 100 2.11  94 2.11
 195  0.800  0.500  0.407-  74 2.11  93 2.11  94 2.11  97 2.11  95 2.11
 196  0.900  0.400  0.407-  13 2.11  90 2.11  93 2.11  94 2.11  96 2.11
 197  0.800  0.600  0.503-  80 2.11  95 2.11  99 2.11 100 2.11  97 2.11
 198  0.900  0.700  0.503- 104 2.11  99 2.11 100 2.11  19 2.11  98 2.11
 199  0.800  0.700  0.407-  78 2.11 101 2.11  98 2.11  97 2.11  99 2.11
 200  0.900  0.600  0.407-  17 2.11  94 2.11  97 2.11  98 2.11 100 2.11
 201  0.800  0.800  0.503-  84 2.11  99 2.11 103 2.11 104 2.11 101 2.11
 202  0.900  0.900  0.503-  23 2.11  88 2.11 103 2.11 104 2.11 102 2.11
 203  0.800  0.900  0.407-  82 2.11  85 2.11 101 2.11 102 2.11 103 2.11
 204  0.900  0.800  0.407-  98 2.11  21 2.11 101 2.11 102 2.11 104 2.11

  LATTYP: Found a simple tetragonal cell.
 ALAT       =    21.1388521970
 C/A-ratio  =     1.0461251639

  Lattice vectors:

 A1 = (  21.1388521970,   0.0000000000,   0.0000000000)
 A2 = (   0.0000000000,  21.1388521970,   0.0000000000)
 A3 = (   0.0000000000,   0.0000000000,  22.1138852197)

Analysis of symmetry for initial positions (statically):
 Subroutine PRICEL returns:
 Original cell was already a primitive cell.

 Routine SETGRP: Setting up the symmetry group for a
 simple tetragonal supercell.

 Subroutine GETGRP returns: Found  1 space group operations
 (whereof  1 operations were pure point group operations)
 out of a pool of 16 trial point group operations.

The static configuration has the point symmetry C_1 .

Analysis of symmetry for dynamics (positions and initial velocities):
 Subroutine PRICEL returns:
 Original cell was already a primitive cell.

[...]

The dynamic configuration has the point symmetry C_1 .

Analysis of constrained symmetry for selective dynamics:
 Subroutine PRICEL returns:
 Original cell was already a primitive cell.

 Routine SETGRP: Setting up the symmetry group for a
 simple tetragonal supercell.

 Subroutine GETGRP returns: Found  1 space group operations
 (whereof  1 operations were pure point group operations)
 out of a pool of 16 trial point group operations.

The constrained configuration has the point symmetry C_1 .

 Subroutine INISYM returns: Found  1 space group operations
 (whereof  1 operations are pure point group operations),
 and found     1 'primitive' translations

                                     Primitive cell

  volume of cell :    9881.6133

  direct lattice vectors                    reciprocal lattice vectors
    21.138852197  0.000000000  0.000000000     0.047306258  0.000000000  0.000000000
     0.000000000 21.138852197  0.000000000     0.000000000  0.047306258  0.000000000
     0.000000000  0.000000000 22.113885220     0.000000000  0.000000000  0.045220457

  length of vectors
    21.138852197 21.138852197 22.113885220     0.047306258  0.047306258  0.045220457

  position of ions in fractional coordinates (direct lattice)
     0.400229282  0.421328702  0.592894010
     0.400626265  0.505728649  0.656597495
     0.400850837  0.613577871  0.691210184
     0.400248991  0.594204282  0.590315895
     0.000000000  0.000000000  0.406984115
     0.100000000  0.100000000  0.406984115
     0.000000000  0.100000000  0.502574971
     0.100000000  0.000000000  0.502574971
     0.000000000  0.200000000  0.406984115
     0.100000000  0.300000000  0.406984115
     0.000000000  0.300000000  0.502574971
[...]
    903       5.3396      0.00000
    904       5.3677      0.00000
    905       5.4352      0.00000
    906       5.5168      0.00000
    907       5.5441      0.00000
    908       5.5788      0.00000
    909       5.6129      0.00000
    910       5.6396      0.00000
    911       5.6727      0.00000
    912       5.6866      0.00000

 soft charge-density along one line, spin component           1
         0         1         2         3         4         5         6         7         8         9
 total charge-density along one line

------------------------ aborting loop because EDIFF is reached ----------------------------------------

         DFTD3 V3.0 Rev 1
 IVDW         = 11
 DF pbe
 parameters
 VDW_S6       =    1.0000
 VDW_S8       =    0.7220
 VDW_SR       =    1.2170
 rs18     =    1.0000
 alpha6   =   14.0000
 alpha8   =   16.0000
 k1-k3    =   16.0000    1.3333   -4.0000
 VDW_RADIUS   =   50.2022 A
 VDW_CNRADIUS =   21.1671 A
 Edisp (eV)  -19.27928

 E6    (eV) :    -8.1077
 E8    (eV) :   -11.1716
 % E8        : 57.95

  FORCE on cell =-STRESS in cart. coord.  units (eV):
  Direction    XX          YY          ZZ          XY          YZ          ZX
  Alpha Z  1394.80054  1394.80054  1394.80054
  Ewald  481518.80809483945.56047************     3.30592   512.32742     8.74192
  Hartree511426.15667513447.27281************     2.74315   417.73053     6.62842
  E(xc)   -7907.00673 -7905.90975 -7936.82320     0.00188     0.31409     0.00657
  Local  ************************************    -6.03892  -927.22899   -15.26137
  n-local -8851.95150 -8851.34928 -8972.89160     0.00091     0.03212    -0.00680
  augment  3663.46059  3657.17001  3596.54823    -0.00730    -1.67482    -0.05124
  Kinetic 23046.50974 23040.01103 23288.09327    -0.00267    -1.43621    -0.07302
  Fock        0.00000     0.00000     0.00000     0.00000     0.00000     0.00000
  vdW       -26.20372   -26.17974    -3.67466     0.00012     0.02034     0.00173
  Total    -173.27648  -173.40481    15.17827     0.00309     0.08447    -0.01379
  in kB     -28.09457   -28.11537     2.46096     0.00050     0.01370    -0.00224

 VOLUME and BASIS-vectors are now :
  energy-cutoff  :      520.00
  volume of cell :     9881.61
      direct lattice vectors                 reciprocal lattice vectors
    21.138852197  0.000000000  0.000000000     0.047306258  0.000000000  0.000000000
     0.000000000 21.138852197  0.000000000     0.000000000  0.047306258  0.000000000
     0.000000000  0.000000000 22.113885220     0.000000000  0.000000000  0.045220457

  length of vectors
    21.138852197 21.138852197 22.113885220     0.047306258  0.047306258  0.045220457

 FORCES acting on ions:
    Electron-Ion                     Ewald-Force                    Non-Local-Force
   0.145E+01 0.463E+03 -.201E+04   -.141E+01 -.456E+03 0.201E+04   -.405E-01 -.689E+01 -.682E+01
   -.174E+01 0.260E+03 -.217E+04   0.169E+01 -.262E+03 0.216E+04   0.520E-01 0.203E+01 0.699E+01
   -.277E+01 -.420E+03 -.212E+04   0.270E+01 0.413E+03 0.211E+04   0.676E-01 0.635E+01 0.114E+02
   0.286E+01 -.306E+03 -.175E+04   -.282E+01 0.306E+03 0.176E+04   -.486E-01 0.272E+00 -.613E+01
   0.744E+01 -.228E+01 0.936E+03   -.746E+01 0.229E+01 -.928E+03   0.150E-01 -.587E-02 -.743E+01
   0.138E+02 0.747E+01 0.940E+03   -.138E+02 -.748E+01 -.932E+03   0.314E-01 0.813E-02 -.744E+01
   0.982E+01 0.630E+01 -.918E+03   -.984E+01 -.629E+01 0.911E+03   0.136E-01 -.494E-02 0.736E+01
   0.159E+02 -.428E+01 -.916E+03   -.160E+02 0.429E+01 0.909E+03   0.180E-01 -.791E-02 0.736E+01
   0.105E+02 0.110E+02 0.939E+03   -.105E+02 -.110E+02 -.931E+03   0.264E-01 0.363E-02 -.744E+01
   0.281E+02 0.202E+02 0.951E+03   -.282E+02 -.203E+02 -.943E+03   0.989E-01 0.200E-01 -.746E+01
   0.198E+02 0.167E+02 -.914E+03   -.198E+02 -.167E+02 0.906E+03   0.168E-01 -.191E-02 0.735E+01
   0.257E+02 0.221E+02 -.913E+03   -.257E+02 -.221E+02 0.905E+03   0.445E-01 -.334E-02 0.735E+01
   0.188E+02 0.100E+02 0.946E+03   -.189E+02 -.100E+02 -.938E+03   0.447E-01 0.772E-02 -.745E+01
   0.436E+02 0.414E+01 0.963E+03   -.438E+02 -.416E+01 -.956E+03   0.149E+00 0.142E-01 -.748E+01
   0.305E+02 0.365E+01 -.908E+03   -.306E+02 -.366E+01 0.901E+03   0.167E-01 0.699E-02 0.735E+01
   0.589E+02 0.237E+02 -.898E+03   -.590E+02 -.237E+02 0.890E+03   0.333E-01 0.132E-02 0.732E+01
   0.204E+02 -.594E+01 0.947E+03   -.205E+02 0.593E+01 -.940E+03   0.553E-01 0.329E-02 -.745E+01
   0.332E+02 -.189E+02 0.956E+03   -.334E+02 0.189E+02 -.948E+03   0.129E+00 -.182E-01 -.747E+01
   0.238E+02 -.153E+02 -.911E+03   -.239E+02 0.153E+02 0.904E+03   0.270E-01 0.466E-02 0.735E+01
   0.666E+02 -.144E+02 -.893E+03   -.667E+02 0.144E+02 0.885E+03   0.705E-01 0.167E-01 0.732E+01
   0.125E+02 -.128E+02 0.941E+03   -.126E+02 0.128E+02 -.933E+03   0.342E-01 -.876E-02 -.744E+01
   0.160E+02 -.130E+02 0.942E+03   -.160E+02 0.130E+02 -.934E+03   0.374E-01 -.242E-01 -.744E+01
   0.116E+02 -.114E+02 -.917E+03   -.116E+02 0.114E+02 0.910E+03   0.165E-01 -.479E-02 0.736E+01
   0.332E+02 -.271E+02 -.908E+03   -.333E+02 0.271E+02 0.900E+03   0.572E-01 -.665E-02 0.735E+01
   0.137E+02 -.439E+01 0.943E+03   -.138E+02 0.441E+01 -.935E+03   0.256E-01 -.124E-01 -.744E+01
   0.102E+02 0.154E+02 0.948E+03   -.102E+02 -.155E+02 -.940E+03   0.238E-01 0.662E-01 -.745E+01
   0.197E+02 0.157E+02 -.912E+03   -.198E+02 -.157E+02 0.905E+03   0.244E-01 0.205E-01 0.735E+01
   0.118E+02 -.866E+01 -.910E+03   -.118E+02 0.867E+01 0.902E+03   0.111E-01 -.618E-02 0.735E+01
   0.227E+02 0.257E+02 0.952E+03   -.228E+02 -.257E+02 -.944E+03   0.809E-01 0.668E-01 -.745E+01
   0.309E+02 0.526E+02 0.992E+03   -.312E+02 -.530E+02 -.984E+03   0.214E+00 0.259E+00 -.745E+01
   0.624E+02 0.559E+02 -.887E+03   -.627E+02 -.559E+02 0.880E+03   0.199E+00 -.245E-01 0.730E+01
   0.267E+02 0.610E+02 -.894E+03   -.268E+02 -.612E+02 0.887E+03   0.331E-01 0.168E+00 0.733E+01
   0.539E+02 0.279E+02 0.987E+03   -.543E+02 -.279E+02 -.979E+03   0.357E+00 0.615E-01 -.759E+01
   0.605E+02 0.107E+02 0.106E+04   -.612E+02 -.108E+02 -.105E+04   0.472E+00 0.880E-01 -.766E+01
   0.129E+03 0.134E+02 -.844E+03   -.129E+03 -.135E+02 0.837E+03   0.197E+00 0.313E-01 0.723E+01
   0.158E+03 0.107E+03 -.748E+03   -.160E+03 -.107E+03 0.741E+03   0.158E+01 -.189E-01 0.653E+01
   0.600E+02 -.181E+02 0.995E+03   -.605E+02 0.181E+02 -.987E+03   0.457E+00 -.202E-01 -.760E+01
   0.385E+02 -.528E+02 0.101E+04   -.389E+02 0.532E+02 -.100E+04   0.299E+00 -.314E+00 -.746E+01
   0.819E+02 -.570E+02 -.871E+03   -.822E+02 0.570E+02 0.863E+03   0.260E+00 0.142E-01 0.729E+01
   0.186E+03 -.721E+02 -.705E+03   -.189E+03 0.720E+02 0.698E+03   0.234E+01 0.411E-01 0.677E+01
   0.285E+02 -.310E+02 0.960E+03   -.286E+02 0.311E+02 -.952E+03   0.104E+00 -.949E-01 -.746E+01
   0.124E+02 -.263E+02 0.954E+03   -.124E+02 0.264E+02 -.946E+03   0.253E-01 -.108E+00 -.746E+01
   0.248E+02 -.284E+02 -.908E+03   -.248E+02 0.284E+02 0.900E+03   0.216E-01 -.436E-01 0.735E+01
   0.388E+02 -.816E+02 -.875E+03   -.387E+02 0.819E+02 0.867E+03   0.106E-02 -.247E+00 0.729E+01
   0.453E-01 -.620E+01 0.948E+03   -.449E-01 0.622E+01 -.940E+03   -.319E-03 -.141E-01 -.745E+01
   -.101E+02 0.154E+02 0.948E+03   0.102E+02 -.155E+02 -.941E+03   -.243E-01 0.659E-01 -.745E+01
   0.639E-01 0.261E+02 -.907E+03   -.634E-01 -.262E+02 0.899E+03   -.408E-03 0.578E-01 0.735E+01
   -.117E+02 -.869E+01 -.910E+03   0.117E+02 0.870E+01 0.902E+03   -.117E-01 -.606E-02 0.735E+01
   0.734E-01 0.422E+02 0.967E+03   -.727E-01 -.426E+02 -.959E+03   -.580E-03 0.296E+00 -.751E+01
   -.307E+02 0.528E+02 0.992E+03   0.310E+02 -.531E+02 -.985E+03   -.216E+00 0.258E+00 -.745E+01
   0.338E+00 0.159E+03 -.811E+03   -.335E+00 -.161E+03 0.803E+03   -.213E-02 0.162E+01 0.723E+01
   -.266E+02 0.611E+02 -.894E+03   0.266E+02 -.613E+02 0.887E+03   -.342E-01 0.166E+00 0.733E+01
   0.237E+00 0.550E+02 0.106E+04   -.235E+00 -.555E+02 -.106E+04   -.189E-02 0.376E+00 -.564E+01
   -.603E+02 0.108E+02 0.106E+04   0.609E+02 -.109E+02 -.105E+04   -.474E+00 0.876E-01 -.766E+01
   0.128E+01 0.260E+02 -.513E+03   -.127E+01 -.271E+02 0.509E+03   -.750E-02 0.986E+00 0.385E+01
   -.158E+03 0.108E+03 -.747E+03   0.160E+03 -.108E+03 0.740E+03   -.158E+01 -.231E-01 0.651E+01
   0.296E+00 -.378E+02 0.109E+04   -.293E+00 0.380E+02 -.108E+04   -.245E-02 -.217E+00 -.477E+01
   -.383E+02 -.530E+02 0.101E+04   0.387E+02 0.534E+02 -.100E+04   -.301E+00 -.313E+00 -.746E+01
   0.621E+00 -.187E+03 -.741E+03   -.616E+00 0.190E+03 0.734E+03   -.413E-02 -.228E+01 0.669E+01
   -.186E+03 -.725E+02 -.703E+03   0.189E+03 0.724E+02 0.696E+03   -.234E+01 0.424E-01 0.675E+01
[...]
   -.110E+02 0.981E+01 0.708E+03   0.110E+02 -.982E+01 -.712E+03   -.290E-01 0.798E-02 0.349E+01
   -.348E-01 0.694E+01 0.705E+03   0.344E-01 -.694E+01 -.709E+03   0.445E-03 0.181E-02 0.350E+01
   -.201E+02 0.992E+01 -.685E+03   0.201E+02 -.992E+01 0.689E+03   -.186E-01 0.278E-02 -.364E+01
   -.101E+00 0.216E+01 -.686E+03   0.100E+00 -.216E+01 0.690E+03   0.888E-03 0.683E-02 -.363E+01
   -.161E+02 0.201E+01 0.713E+03   0.161E+02 -.201E+01 -.717E+03   -.380E-01 0.964E-02 0.349E+01
   -.612E-01 0.621E+01 0.708E+03   0.606E-01 -.621E+01 -.712E+03   0.742E-03 0.631E-02 0.350E+01
   -.223E+02 -.577E+01 -.683E+03   0.223E+02 0.576E+01 0.687E+03   -.251E-01 0.101E-01 -.365E+01
   -.855E-01 -.906E+01 -.687E+03   0.850E-01 0.906E+01 0.691E+03   0.716E-03 0.378E-02 -.362E+01
   -.128E+02 -.891E+01 0.710E+03   0.129E+02 0.891E+01 -.714E+03   -.380E-01 -.604E-02 0.349E+01
   -.701E-01 -.360E+01 0.709E+03   0.695E-01 0.360E+01 -.713E+03   0.784E-03 0.425E-02 0.350E+01
   -.128E+02 -.123E+02 -.687E+03   0.128E+02 0.123E+02 0.692E+03   -.224E-01 -.453E-02 -.362E+01
   -.443E-01 -.707E+01 -.690E+03   0.441E-01 0.708E+01 0.695E+03   0.398E-03 -.505E-02 -.361E+01
   -.686E+01 -.675E+01 0.705E+03   0.687E+01 0.676E+01 -.709E+03   -.217E-01 -.126E-01 0.350E+01
   -.463E-01 -.805E+01 0.706E+03   0.459E-01 0.805E+01 -.710E+03   0.504E-03 -.675E-02 0.350E+01
   -.837E-01 -.236E+01 -.175E+01   0.164E-11 -.104E-11 -.762E-11   0.797E-01 0.235E+01 0.110E+01

 POSITION                                       TOTAL-FORCE (eV/Angst)
      8.46039      8.90641     13.11119        -0.003626     -0.030215     -0.008238
      8.46878     10.69052     14.51992        -0.002224     -0.005116      0.023859
      8.47353     12.97033     15.28534         0.000561      0.030465      0.026597
      8.46080     12.56080     13.05418        -0.004406      0.017734     -0.060098
      0.00000      0.00000      9.00000        -0.004106      0.001622      0.337679
      2.11389      2.11389      9.00000        -0.008584     -0.002270      0.338699
      0.00000      2.11389     11.11389        -0.003493      0.001405     -0.313355
      2.11389      0.00000     11.11389        -0.004859      0.002112     -0.312082
      0.00000      4.22777      9.00000        -0.006885     -0.000940      0.339210
      2.11389      6.34166      9.00000        -0.025259     -0.005045      0.346037
      0.00000      6.34166     11.11389        -0.003563      0.000856     -0.308618
      2.11389      4.22777     11.11389        -0.010754      0.001330     -0.306364
      0.00000      8.45554      9.00000        -0.011577     -0.002009      0.342073
      2.11389     10.56943      9.00000        -0.038697     -0.004161      0.351882
      0.00000     10.56943     11.11389        -0.002767     -0.002016     -0.304866
      2.11389      8.45554     11.11389        -0.002439      0.000884     -0.289077
      0.00000     12.68331      9.00000        -0.014176     -0.001102      0.342297
      2.11389     14.79720      9.00000        -0.033164      0.004878      0.346447
      0.00000     14.79720     11.11389        -0.006150     -0.001531     -0.308359
      2.11389     12.68331     11.11389        -0.010956     -0.005701     -0.288472
      0.00000     16.91108      9.00000        -0.008963      0.002422      0.339312
      2.11389     19.02497      9.00000        -0.010246      0.006648      0.338848
      0.00000     19.02497     11.11389        -0.004266      0.001305     -0.313160
      2.11389     16.91108     11.11389        -0.013645      0.001402     -0.305149
      4.22777      0.00000      9.00000        -0.007115      0.003240      0.339783
      6.34166      2.11389      9.00000        -0.006790     -0.017165      0.342165
      4.22777      2.11389     11.11389        -0.006526     -0.004507     -0.307257
      6.34166      0.00000     11.11389        -0.002973      0.001379     -0.307008
      4.22777      4.22777      9.00000        -0.022522     -0.018524      0.341427
      6.34166      6.34166      9.00000        -0.068609     -0.077871      0.331892
      4.22777      6.34166     11.11389        -0.039147      0.016066     -0.265408
      6.34166      4.22777     11.11389        -0.006736     -0.035099     -0.281948
      4.22777      8.45554      9.00000        -0.086201     -0.014645      0.376278
      6.34166     10.56943      9.00000        -0.151110     -0.028817      0.360975
      4.22777     10.56943     11.11389        -0.016363     -0.010170     -0.202015
      6.34166      8.45554     11.11389        -0.597835      0.035889     -0.122258
      4.22777     12.68331      9.00000        -0.108605      0.003132      0.378621
      6.34166     14.79720      9.00000        -0.095666      0.098545      0.328210
      4.22777     14.79720     11.11389        -0.050927     -0.012236     -0.256409
      6.34166     12.68331     11.11389        -0.869988     -0.030501     -0.236475
      4.22777     16.91108      9.00000        -0.029029      0.026278      0.342475
      6.34166     19.02497      9.00000        -0.007002      0.027721      0.345288
      4.22777     19.02497     11.11389        -0.005624      0.010104     -0.305249
      6.34166     16.91108     11.11389         0.007671      0.046001     -0.256899
      8.45554      0.00000      9.00000         0.000111      0.003756      0.341502
     10.56943      2.11389      9.00000         0.006986     -0.017085      0.342191
      8.45554      2.11389     11.11389         0.000129     -0.011947     -0.301686
     10.56943      0.00000     11.11389         0.003157      0.001343     -0.306992
      8.45554      4.22777      9.00000         0.000198     -0.071722      0.353811
     10.56943      6.34166      9.00000         0.069019     -0.077567      0.332203
      8.45554      6.34166     11.11389         0.000644     -0.542065     -0.277555
     10.56943      4.22777     11.11389         0.007082     -0.034636     -0.281786
      8.45554      8.45554      9.00000         0.000635     -0.076045     -0.025879
     10.56943     10.56943      9.00000         0.151817     -0.028690      0.361875
      8.45554     10.56943     11.11389         0.000669     -0.121924     -0.149988
     10.56943      8.45554     11.11389         0.601462      0.036604     -0.120854
      8.45554     12.68331      9.00000         0.000779      0.039472     -0.197018
     10.56943     14.79720      9.00000         0.096175      0.098208      0.328875
      8.45554     14.79720     11.11389         0.001271      0.804334     -0.161951
     10.56943     12.68331     11.11389         0.875334     -0.030497     -0.235714
[...]
     19.02497      6.34166     11.11389         0.000194     -0.000306      0.497816
     16.91108      6.34166      9.00000        -0.008025      0.002260     -0.528610
     19.02497      4.22777      9.00000         0.000135      0.000555     -0.526242
     16.91108      8.45554     11.11389        -0.005198      0.000764      0.491949
     19.02497     10.56943     11.11389         0.000255      0.001876      0.495403
     16.91108     10.56943      9.00000        -0.010480      0.002627     -0.530977
     19.02497      8.45554      9.00000         0.000219      0.001762     -0.528166
     16.91108     12.68331     11.11389        -0.007000      0.002764      0.491692
     19.02497     14.79720     11.11389         0.000213      0.001018      0.497624
     16.91108     14.79720      9.00000        -0.010459     -0.001722     -0.528725
     19.02497     12.68331      9.00000         0.000229      0.001136     -0.528160
     16.91108     16.91108     11.11389        -0.006148     -0.001283      0.497827
     19.02497     19.02497     11.11389         0.000132     -0.001398      0.501056
     16.91108     19.02497      9.00000        -0.005911     -0.003452     -0.525932
     19.02497     16.91108      9.00000         0.000159     -0.001894     -0.526295
    total drift:                               -0.004014     -0.000573     -0.645160

  FREE ENERGIE OF THE ION-ELECTRON SYSTEM (eV)
  free  energy   TOTEN  =     -1166.22883181 eV

  energy  without entropy=    -1166.22883181  energy(sigma->0) =    -1166.22883181