 vasp.6.3.0 20Jan22 (build Apr  1 2022 16:44:48) complex
 executed on        HPECrayEX_GCC date 2022.10.21  15:14:05

 INCAR:
   SYSTEM = MgO-rocksalt
   ISMEAR = 0
   SIGMA = 0.05
   EDIFF = 1E-6
   ALGO = ALL
   ISTART = 0
   IBRION = -1
   NSW = 0
   ISYM = 2
   DIPOL = 0.5 0.5 0.5
   IDIPOL = 3
   LDIPOL = .TRUE.
   LHFCALC = .TRUE.
   GGA = PE
   IVDW = 21
   VDW_SR = 0.96
   ENCUT = 520
   PREC = Accurate
   LASPH = .TRUE.
   LREAL = Auto
   ISPIN = 1
   NELM = 200
   NELMIN = 8
   NCORE = 4
   KPAR = 2
   LWAVE = .FALSE.
   LCHARG = .FALSE.

 POTCAR:    PAW_PBE Ag 02Apr2005
 POTCAR:    PAW_PBE Mg_pv 13Apr2007
 POTCAR:    PAW_PBE O 08Apr2002
|           W    W    AA    RRRRR   N    N  II  N    N   GGGG   !!!           |
|           W    W   A  A   R    R  NN   N  II  NN   N  G    G  !!!           |
|           W    W  A    A  R    R  N N  N  II  N N  N  G       !!!           |
|           W WW W  AAAAAA  RRRRR   N  N N  II  N  N N  G  GGG   !            |
|           WW  WW  A    A  R   R   N   NN  II  N   NN  G    G                |
|           W    W  A    A  R    R  N    N  II  N    N   GGGG   !!!           |
|     You have selected ISYM=2 for a HF type calculation. This will           |
|     symmetrize the charge density but not the exchange potential. I         |
|     suggest to use ISYM=3 instead. This uses symmetry to obtain the         |
|     orbitals at all k-points in the Brillouin zone, but does not apply      |
|     symmetry to the Hartree potential directly. The resultant charge        |
|     might have lower symmetry than the crystal but, at least, Hartree       |
|     and exchange are fully compatible.                                      |

   TITEL  = PAW_PBE Ag 02Apr2005
   POMASS =  107.868; ZVAL   =   11.000    mass and valenz
   ENMAX  =  249.844; ENMIN  =  187.383 eV

   TITEL  = PAW_PBE Mg_pv 13Apr2007
   POMASS =   24.305; ZVAL   =    8.000    mass and valenz
   ENMAX  =  403.929; ENMIN  =  302.947 eV

   TITEL  = PAW_PBE O 08Apr2002
   POMASS =   16.000; ZVAL   =    6.000    mass and valenz
   ENMAX  =  400.000; ENMIN  =  300.000 eV

 Optimization of the real space projectors (new method)

 maximal supplied QI-value         = 15.12
 optimisation between [QCUT,QGAM] = [ 11.64, 23.28] = [ 37.95,151.78] Ry
 Optimized for a Real-space Cutoff    1.45 Angstroem

   l    n(q)    QCUT    max X(q) W(low)/X(q) W(high)/X(q)  e(spline)
   2      9    11.641    53.897    0.22E-03    0.42E-04    0.28E-06
   2      9    11.641    52.416    0.23E-03    0.44E-04    0.29E-06
   0     10    11.641   122.045    0.51E-04    0.25E-04    0.16E-06
   0     10    11.641    73.629    0.49E-04    0.24E-04    0.16E-06
   1     10    11.641    15.255    0.99E-04    0.55E-04    0.11E-06
   1     10    11.641     9.562    0.81E-04    0.47E-04    0.95E-07
 Optimization of the real space projectors (new method)

[...]

   l    n(q)    QCUT    max X(q) W(low)/X(q) W(high)/X(q)  e(spline)
   1      8    11.527     2.974    0.44E-04    0.56E-04    0.12E-06
   1      8    11.527     4.279    0.12E-03    0.12E-03    0.26E-06
   0      9    11.527    16.381    0.46E-04    0.64E-04    0.78E-07
   0      9    11.527     5.611    0.26E-04    0.43E-04    0.55E-07
   2      8    11.527     4.652    0.22E-03    0.72E-04    0.47E-07
 Optimization of the real space projectors (new method)

 maximal supplied QI-value         = 24.76
 optimisation between [QCUT,QGAM] = [ 11.64, 23.27] = [ 37.91,151.63] Ry
 Optimized for a Real-space Cutoff    1.14 Angstroem

   l    n(q)    QCUT    max X(q) W(low)/X(q) W(high)/X(q)  e(spline)
   0      8    11.635    20.381    0.10E-03    0.33E-03    0.24E-06
   0      8    11.635    15.268    0.11E-03    0.35E-03    0.26E-06
   1      7    11.635     5.964    0.24E-03    0.31E-03    0.30E-06
   1      7    11.635     5.382    0.22E-03    0.25E-03    0.26E-06
  PAW_PBE Ag 02Apr2005                  :
  PAW_PBE Mg_pv 13Apr2007               :
  PAW_PBE O 08Apr2002                   :

 POSCAR: Ag Mg  O
  positions in direct lattice
 exchange correlation table for  LEXCH =        8
   RHO(1)=    0.500       N(1)  =     2000
   RHO(2)=  100.500       N(2)  =     4000

 ion  position               nearest neighbor table
   1  0.543  0.457  0.625-   2 2.59
   2  0.457  0.543  0.625-   1 2.59
   3  0.000  0.000  0.407- 105 2.11 106 2.11 121 2.11 186 2.11 103 2.11
   4  0.100  0.100  0.407- 105 2.11 106 2.11 110 2.11 125 2.11 104 2.11
   5  0.000  0.100  0.503- 103 2.11 104 2.11 107 2.11 184 2.11 105 2.11
   6  0.100  0.000  0.503- 103 2.11 104 2.11 120 2.11 123 2.11 106 2.11
   7  0.000  0.200  0.407- 109 2.11 105 2.11 110 2.11 190 2.11 107 2.11
   8  0.100  0.300  0.407- 110 2.11 109 2.11 114 2.11 129 2.11 108 2.11
   9  0.000  0.300  0.503- 107 2.11 108 2.11 111 2.11 188 2.11 109 2.11
  10  0.100  0.200  0.503- 108 2.11 107 2.11 104 2.11 127 2.11 110 2.11
  11  0.000  0.400  0.407- 109 2.11 113 2.11 114 2.11 194 2.11 111 2.11
  12  0.100  0.500  0.407- 113 2.11 114 2.11 118 2.11 133 2.11 112 2.11
  13  0.000  0.500  0.503- 111 2.11 112 2.11 115 2.11 192 2.11 113 2.11
  14  0.100  0.400  0.503- 108 2.11 111 2.11 112 2.11 131 2.11 114 2.11
  15  0.000  0.600  0.407- 113 2.11 117 2.11 118 2.11 198 2.11 115 2.11
  16  0.100  0.700  0.407- 122 2.11 118 2.11 117 2.11 137 2.11 116 2.11
  17  0.000  0.700  0.503- 119 2.11 116 2.11 115 2.11 196 2.11 117 2.11
  18  0.100  0.600  0.503- 112 2.11 115 2.11 116 2.11 135 2.11 118 2.11
  19  0.000  0.800  0.407- 117 2.11 121 2.11 122 2.11 202 2.11 119 2.11
  20  0.100  0.900  0.407- 106 2.11 121 2.11 122 2.11 141 2.11 120 2.11
  21  0.000  0.900  0.503- 103 2.11 119 2.11 120 2.11 200 2.11 121 2.11
  22  0.100  0.800  0.503- 116 2.11 119 2.11 120 2.11 139 2.11 122 2.11
  23  0.200  0.000  0.407- 126 2.11 125 2.11 106 2.11 141 2.11 123 2.11
  24  0.300  0.100  0.407- 125 2.11 126 2.11 130 2.11 145 2.11 124 2.11
  25  0.200  0.100  0.503- 124 2.11 123 2.11 104 2.11 127 2.11 125 2.11
  26  0.300  0.000  0.503- 123 2.11 124 2.11 140 2.11 143 2.11 126 2.11
  27  0.200  0.200  0.407- 129 2.11 130 2.11 110 2.11 125 2.11 127 2.11
  28  0.300  0.300  0.407- 129 2.11 130 2.11 134 2.11 149 2.11 128 2.11
  29  0.200  0.300  0.503- 127 2.11 128 2.11 108 2.11 131 2.11 129 2.11
  30  0.300  0.200  0.503- 127 2.11 128 2.11 124 2.11 147 2.11 130 2.11
  31  0.200  0.400  0.407- 134 2.11 129 2.11 133 2.11 114 2.11 131 2.11
  32  0.300  0.500  0.407- 133 2.11 134 2.11 138 2.11 153 2.11 132 2.11
  33  0.200  0.500  0.503- 132 2.11 131 2.11 112 2.11 135 2.11 133 2.11
  34  0.300  0.400  0.503- 131 2.11 128 2.11 132 2.11 151 2.11 134 2.11
  35  0.200  0.600  0.407- 138 2.11 133 2.11 137 2.11 118 2.11 135 2.11
  36  0.300  0.700  0.407- 137 2.11 142 2.11 138 2.11 157 2.11 136 2.11
  37  0.200  0.700  0.503- 136 2.11 139 2.11 116 2.11 135 2.11 137 2.11
  38  0.300  0.600  0.503- 135 2.11 132 2.11 136 2.11 155 2.11 138 2.11
  39  0.200  0.800  0.407- 137 2.11 142 2.11 141 2.11 122 2.11 139 2.11
  40  0.300  0.900  0.407- 141 2.11 126 2.11 142 2.11 161 2.11 140 2.11
  41  0.200  0.900  0.503- 140 2.11 123 2.11 139 2.11 120 2.11 141 2.11
  42  0.300  0.800  0.503- 136 2.11 139 2.11 140 2.11 159 2.11 142 2.11
  43  0.400  0.000  0.407- 126 2.11 145 2.11 146 2.11 161 2.11 143 2.11
  44  0.500  0.100  0.407- 145 2.11 146 2.11 150 2.11 165 2.11 144 2.11
  45  0.400  0.100  0.503- 124 2.11 143 2.11 144 2.11 147 2.11 145 2.11
  46  0.500  0.000  0.503- 143 2.11 144 2.11 160 2.11 163 2.11 146 2.11
  47  0.400  0.200  0.407- 149 2.11 145 2.11 130 2.11 150 2.11 147 2.11
  48  0.500  0.300  0.407- 150 2.11 149 2.11 154 2.11 169 2.11 148 2.11
  49  0.400  0.300  0.503- 147 2.11 128 2.11 148 2.11 151 2.11 149 2.11
  50  0.500  0.200  0.503- 148 2.11 147 2.11 144 2.11 167 2.11 150 2.11
  51  0.400  0.400  0.407- 134 2.11 149 2.11 153 2.11 154 2.11 151 2.11
  52  0.500  0.500  0.407- 153 2.11 154 2.11 158 2.11 173 2.11 152 2.11
  53  0.400  0.500  0.503- 132 2.11 151 2.11 152 2.11 155 2.11 153 2.11
  54  0.500  0.400  0.503- 148 2.11 151 2.11 152 2.11 171 2.11 154 2.11
  55  0.400  0.600  0.407- 138 2.11 153 2.11 157 2.11 158 2.11 155 2.11
  56  0.500  0.700  0.407- 162 2.11 158 2.11 157 2.11 177 2.11 156 2.11
  57  0.400  0.700  0.503- 159 2.11 155 2.11 156 2.11 136 2.11 157 2.11
  58  0.500  0.600  0.503- 152 2.11 155 2.11 156 2.11 175 2.11 158 2.11
  59  0.400  0.800  0.407- 157 2.11 142 2.11 161 2.11 162 2.11 159 2.11
  60  0.500  0.900  0.407- 146 2.11 161 2.11 162 2.11 181 2.11 160 2.11
[...]
 188  0.900  0.300  0.503-  90 2.11  89 2.11   9 2.11  94 2.11  88 2.11
 189  0.800  0.300  0.407-  68 2.11  87 2.11  88 2.11  91 2.11  89 2.11
 190  0.900  0.200  0.407-  88 2.11  84 2.11  87 2.11   7 2.11  90 2.11
 191  0.800  0.400  0.503-  74 2.11  89 2.11  93 2.11  94 2.11  91 2.11
 192  0.900  0.500  0.503-  13 2.11  93 2.11  94 2.11  98 2.11  92 2.11
 193  0.800  0.500  0.407-  72 2.11  91 2.11  92 2.11  95 2.11  93 2.11
 194  0.900  0.400  0.407-  11 2.11  88 2.11  91 2.11  92 2.11  94 2.11
 195  0.800  0.600  0.503-  78 2.11  93 2.11  97 2.11  98 2.11  95 2.11
 196  0.900  0.700  0.503- 102 2.11  97 2.11  98 2.11  17 2.11  96 2.11
 197  0.800  0.700  0.407-  76 2.11  99 2.11  96 2.11  95 2.11  97 2.11
 198  0.900  0.600  0.407-  15 2.11  92 2.11  95 2.11  96 2.11  98 2.11
 199  0.800  0.800  0.503-  82 2.11  97 2.11 101 2.11 102 2.11  99 2.11
 200  0.900  0.900  0.503-  21 2.11  86 2.11 101 2.11 102 2.11 100 2.11
 201  0.800  0.900  0.407-  80 2.11  83 2.11  99 2.11 100 2.11 101 2.11
 202  0.900  0.800  0.407-  96 2.11  19 2.11  99 2.11 100 2.11 102 2.11

  LATTYP: Found a simple tetragonal cell.
 ALAT       =    21.1388521970
 C/A-ratio  =     1.0461251639

  Lattice vectors:

 A1 = (  21.1388521970,   0.0000000000,   0.0000000000)
 A2 = (   0.0000000000,  21.1388521970,   0.0000000000)
 A3 = (   0.0000000000,   0.0000000000,  22.1138852197)

Analysis of symmetry for initial positions (statically):
 Subroutine PRICEL returns:
 Original cell was already a primitive cell.

 Routine SETGRP: Setting up the symmetry group for a
 simple tetragonal supercell.

 Subroutine GETGRP returns: Found  4 space group operations
 (whereof  4 operations were pure point group operations)
 out of a pool of 16 trial point group operations.

The static configuration has the point symmetry C_2v.

Analysis of symmetry for dynamics (positions and initial velocities):
 Subroutine PRICEL returns:
 Original cell was already a primitive cell.

 Routine SETGRP: Setting up the symmetry group for a
 simple tetragonal supercell.

 Subroutine GETGRP returns: Found  4 space group operations
 (whereof  4 operations were pure point group operations)
 out of a pool of 16 trial point group operations.

The dynamic configuration has the point symmetry C_2v.

 Subroutine INISYM returns: Found  4 space group operations
 (whereof  4 operations are pure point group operations),
 and found     1 'primitive' translations

                                     Primitive cell

  volume of cell :    9881.6133

  direct lattice vectors                    reciprocal lattice vectors
    21.138852197  0.000000000  0.000000000     0.047306258  0.000000000  0.000000000
[...]
   Mg          1.377          1.540          3.327          0.04686538
   Mg          1.375          1.539          3.325          0.04682678
   Mg          1.377          1.540          3.327          0.04686531
   Mg          1.377          1.540          3.327          0.04686531
   Mg          1.376          1.540          3.327          0.04685218
   Mg          1.378          1.540          3.328          0.04687404
   Mg          1.378          1.540          3.329          0.04688846
   Mg          1.377          1.540          3.327          0.04686531
   Mg          1.377          1.540          3.328          0.04687098
   Mg          1.377          1.540          3.328          0.04687158
[...]
   O         199.627          4.884         19.317          3.57722670
   O         199.530          4.884         19.312          3.57635193
   O         199.593          4.884         19.315          3.57691857
   O         200.308          4.887         19.350          3.58332239
   O         199.584          4.884         19.315          3.57683677
   O         199.569          4.884         19.314          3.57670112
   O         199.592          4.884         19.315          3.57691246
   O         199.647          4.884         19.318          3.57740448
   O         199.562          4.884         19.314          3.57663985
   O         199.679          4.884         19.320          3.57768735
   O         199.628          4.884         19.317          3.57722982
   O         199.567          4.884         19.314          3.57668954
   O         199.620          4.884         19.317          3.57716060
   O         199.629          4.884         19.317          3.57723813
   O         199.629          4.884         19.317          3.57723813

  vdW correction parametrized for the method         

  IVDW =  21
  VDW_RADIUS =    50.000 A
  VDW_IDAMPF =  0
  VDW_S6 =     1.000
  VDW_SR =     0.960
  VDW_D =    20.000
  LVDW_ONECELL = F F F
  LVDW_SAMETYPE T T T
  LVDW_EWALD = F

  Number of pair interactions contributing to vdW energy: 1097063
  Edisp (eV):   -7.09430

 VOLUME and BASIS-vectors are now :
  energy-cutoff  :      520.00
  volume of cell :     9881.61
      direct lattice vectors                 reciprocal lattice vectors
    21.138852197  0.000000000  0.000000000     0.047306258  0.000000000  0.000000000
     0.000000000 21.138852197  0.000000000     0.000000000  0.047306258  0.000000000
     0.000000000  0.000000000 22.113885220     0.000000000  0.000000000  0.045220457

  length of vectors
    21.138852197 21.138852197 22.113885220     0.047306258  0.047306258  0.045220457

 FORCES acting on ions:
    Electron-Ion                     Ewald-Force                    Non-Local-Force
   -.188E+03 0.188E+03 -.205E+04   0.183E+03 -.183E+03 0.205E+04   0.510E+01 -.510E+01 -.460E+00
   0.188E+03 -.188E+03 -.205E+04   -.183E+03 0.183E+03 0.205E+04   -.510E+01 0.510E+01 -.460E+00
   -.474E-10 0.830E-09 0.932E+03   0.974E-10 -.170E-08 -.923E+03   0.000E+00 0.000E+00 -.709E+01
   0.379E+01 0.379E+01 0.932E+03   -.378E+01 -.378E+01 -.924E+03   -.383E-02 -.383E-02 -.709E+01
   -.280E+00 0.419E+01 -.923E+03   0.293E+00 -.419E+01 0.915E+03   -.882E-02 0.188E-02 0.707E+01
   0.419E+01 -.280E+00 -.923E+03   -.419E+01 0.293E+00 0.915E+03   0.188E-02 -.882E-02 0.707E+01
   -.369E+00 0.579E+01 0.933E+03   0.390E+00 -.579E+01 -.925E+03   -.144E-01 0.377E-02 -.709E+01
   0.753E+01 0.737E+01 0.936E+03   -.751E+01 -.738E+01 -.928E+03   -.107E-01 0.636E-02 -.710E+01
   -.701E+00 0.763E+01 -.921E+03   0.732E+00 -.764E+01 0.913E+03   -.212E-01 0.280E-02 0.707E+01
   0.679E+01 0.845E+01 -.922E+03   -.677E+01 -.845E+01 0.913E+03   -.136E-01 -.138E-02 0.706E+01
   -.325E+00 0.393E+01 0.936E+03   0.345E+00 -.394E+01 -.928E+03   -.132E-01 0.224E-02 -.709E+01
   0.115E+02 0.414E+00 0.939E+03   -.116E+02 -.432E+00 -.931E+03   0.159E-01 0.121E-01 -.710E+01
   0.146E-09 -.125E-08 -.920E+03   -.299E-09 0.256E-08 0.911E+03   0.000E+00 0.000E+00 0.706E+01
   0.146E+02 0.699E+01 -.918E+03   -.146E+02 -.701E+01 0.910E+03   -.109E-01 0.122E-01 0.706E+01
   0.325E+00 -.393E+01 0.936E+03   -.345E+00 0.394E+01 -.928E+03   0.132E-01 -.224E-02 -.709E+01
   0.857E+01 -.740E+01 0.937E+03   -.862E+01 0.740E+01 -.928E+03   0.323E-01 -.426E-02 -.709E+01
   0.701E+00 -.763E+01 -.921E+03   -.732E+00 0.764E+01 0.913E+03   0.212E-01 -.280E-02 0.707E+01
   0.162E+02 -.615E+01 -.918E+03   -.162E+02 0.614E+01 0.909E+03   0.365E-01 0.780E-02 0.707E+01
   0.369E+00 -.579E+01 0.933E+03   -.390E+00 0.579E+01 -.925E+03   0.144E-01 -.377E-02 -.709E+01
   0.418E+01 -.418E+01 0.933E+03   -.419E+01 0.419E+01 -.924E+03   0.103E-01 -.103E-01 -.709E+01
   0.280E+00 -.419E+01 -.923E+03   -.293E+00 0.419E+01 0.915E+03   0.882E-02 -.188E-02 0.707E+01
   0.806E+01 -.901E+01 -.921E+03   -.810E+01 0.902E+01 0.913E+03   0.256E-01 -.984E-02 0.707E+01
   0.579E+01 -.369E+00 0.933E+03   -.579E+01 0.390E+00 -.925E+03   0.377E-02 -.144E-01 -.709E+01
   0.737E+01 0.753E+01 0.936E+03   -.738E+01 -.751E+01 -.928E+03   0.636E-02 -.107E-01 -.710E+01
   0.845E+01 0.679E+01 -.922E+03   -.845E+01 -.677E+01 0.913E+03   -.138E-02 -.136E-01 0.706E+01
   0.763E+01 -.701E+00 -.921E+03   -.764E+01 0.732E+00 0.913E+03   0.280E-02 -.212E-01 0.707E+01
   0.967E+01 0.967E+01 0.936E+03   -.967E+01 -.967E+01 -.928E+03   -.244E-02 -.244E-02 -.710E+01
   0.189E+02 0.189E+02 0.949E+03   -.189E+02 -.189E+02 -.941E+03   0.120E-01 0.120E-01 -.712E+01
   0.217E+02 0.166E+02 -.916E+03   -.216E+02 -.166E+02 0.907E+03   -.266E-01 0.706E-02 0.706E+01
   0.166E+02 0.217E+02 -.916E+03   -.166E+02 -.216E+02 0.907E+03   0.706E-02 -.266E-01 0.706E+01
   0.204E+02 0.873E+01 0.946E+03   -.204E+02 -.878E+01 -.937E+03   0.337E-03 0.281E-01 -.710E+01
   0.338E+02 0.217E+01 0.969E+03   -.339E+02 -.228E+01 -.961E+03   0.472E-01 0.779E-01 -.709E+01
   0.404E+02 0.238E+01 -.906E+03   -.405E+02 -.244E+01 0.898E+03   0.320E-01 0.423E-01 0.706E+01
   0.554E+02 0.317E+02 -.889E+03   -.553E+02 -.318E+02 0.880E+03   -.848E-01 0.732E-01 0.702E+01
   0.217E+02 -.758E+01 0.947E+03   -.218E+02 0.756E+01 -.939E+03   0.763E-01 0.133E-01 -.710E+01
   0.199E+02 -.199E+02 0.953E+03   -.199E+02 0.199E+02 -.944E+03   0.474E-01 -.474E-01 -.705E+01
   0.249E+02 -.177E+02 -.914E+03   -.250E+02 0.177E+02 0.905E+03   0.809E-01 -.102E-01 0.707E+01
   0.654E+02 -.291E+02 -.878E+03   -.660E+02 0.290E+02 0.869E+03   0.360E+00 0.560E-01 0.711E+01
   0.105E+02 -.105E+02 0.937E+03   -.105E+02 0.105E+02 -.929E+03   0.245E-01 -.245E-01 -.709E+01
   0.740E+01 -.857E+01 0.937E+03   -.740E+01 0.862E+01 -.928E+03   0.426E-02 -.323E-01 -.709E+01
   0.901E+01 -.806E+01 -.921E+03   -.902E+01 0.810E+01 0.913E+03   0.984E-02 -.256E-01 0.707E+01
   0.177E+02 -.249E+02 -.914E+03   -.177E+02 0.250E+02 0.905E+03   0.102E-01 -.809E-01 0.707E+01
   0.393E+01 -.325E+00 0.936E+03   -.394E+01 0.345E+00 -.928E+03   0.224E-02 -.132E-01 -.709E+01
   0.414E+00 0.115E+02 0.939E+03   -.432E+00 -.116E+02 -.931E+03   0.121E-01 0.159E-01 -.710E+01
   0.699E+01 0.146E+02 -.918E+03   -.701E+01 -.146E+02 0.910E+03   0.122E-01 -.109E-01 0.706E+01
   0.146E-09 0.375E-08 -.920E+03   -.299E-09 -.769E-08 0.911E+03   0.000E+00 0.000E+00 0.706E+01
   0.873E+01 0.204E+02 0.946E+03   -.878E+01 -.204E+02 -.937E+03   0.281E-01 0.337E-03 -.710E+01
   0.217E+01 0.338E+02 0.969E+03   -.228E+01 -.339E+02 -.961E+03   0.779E-01 0.472E-01 -.709E+01
   0.317E+02 0.554E+02 -.889E+03   -.318E+02 -.553E+02 0.880E+03   0.732E-01 -.848E-01 0.702E+01
   0.238E+01 0.404E+02 -.906E+03   -.244E+01 -.405E+02 0.898E+03   0.423E-01 0.320E-01 0.706E+01
   0.250E+02 0.250E+02 0.984E+03   -.252E+02 -.252E+02 -.976E+03   0.747E-01 0.747E-01 -.723E+01
   -.982E-09 -.839E-08 0.102E+04   0.201E-08 0.172E-07 -.101E+04   0.000E+00 0.000E+00 -.709E+01
   0.101E+03 0.219E+02 -.766E+03   -.101E+03 -.227E+02 0.759E+03   0.822E-01 0.468E+00 0.647E+01
   0.219E+02 0.101E+03 -.766E+03   -.227E+02 -.101E+03 0.759E+03   0.468E+00 0.822E-01 0.647E+01
   0.237E+02 -.237E+02 0.990E+03   -.237E+02 0.237E+02 -.982E+03   -.225E-01 0.225E-01 -.664E+01
   -.217E+01 -.338E+02 0.969E+03   0.228E+01 0.339E+02 -.961E+03   -.779E-01 -.472E-01 -.709E+01
   0.291E+02 -.654E+02 -.878E+03   -.290E+02 0.660E+02 0.869E+03   -.560E-01 -.360E+00 0.711E+01
   -.219E+02 -.101E+03 -.766E+03   0.227E+02 0.101E+03 0.759E+03   -.468E+00 -.822E-01 0.647E+01
   0.758E+01 -.217E+02 0.947E+03   -.756E+01 0.218E+02 -.939E+03   -.133E-01 -.763E-01 -.710E+01
   -.414E+00 -.115E+02 0.939E+03   0.432E+00 0.116E+02 -.931E+03   -.121E-01 -.159E-01 -.710E+01
[...]
   -.120E+02 0.881E+01 0.708E+03   0.121E+02 -.883E+01 -.712E+03   -.514E-01 0.207E-01 0.310E+01
   -.450E+01 0.525E+01 0.702E+03   0.452E+01 -.526E+01 -.706E+03   -.209E-01 0.123E-01 0.309E+01
   -.275E+02 0.888E+01 -.682E+03   0.276E+02 -.886E+01 0.686E+03   -.656E-01 -.271E-01 -.312E+01
   -.129E+02 -.546E+00 -.689E+03   0.129E+02 0.562E+00 0.693E+03   -.117E-01 -.187E-01 -.313E+01
   -.178E+02 -.807E+00 0.713E+03   0.178E+02 0.843E+00 -.717E+03   -.302E-01 -.430E-01 0.309E+01
   -.818E+01 0.346E+01 0.705E+03   0.820E+01 -.346E+01 -.709E+03   -.265E-01 -.595E-02 0.309E+01
   -.246E+02 -.104E+02 -.684E+03   0.246E+02 0.105E+02 0.688E+03   0.615E-02 -.355E-01 -.315E+01
   -.779E+01 -.722E+01 -.691E+03   0.778E+01 0.723E+01 0.695E+03   0.123E-01 -.458E-02 -.313E+01
   -.110E+02 -.861E+01 0.707E+03   0.110E+02 0.862E+01 -.711E+03   0.716E-02 -.717E-02 0.308E+01
   -.755E+01 -.385E+01 0.705E+03   0.755E+01 0.386E+01 -.709E+03   0.161E-02 -.135E-01 0.309E+01
   -.985E+01 -.985E+01 -.691E+03   0.984E+01 0.984E+01 0.695E+03   0.112E-01 0.112E-01 -.313E+01
   -.352E+01 -.352E+01 -.693E+03   0.351E+01 0.351E+01 0.697E+03   0.526E-02 0.526E-02 -.312E+01
   -.501E+01 -.390E+01 0.702E+03   0.501E+01 0.390E+01 -.706E+03   -.918E-04 0.833E-02 0.309E+01
   -.390E+01 -.501E+01 0.702E+03   0.390E+01 0.501E+01 -.706E+03   0.833E-02 -.918E-04 0.309E+01
   0.105E-07 0.801E-06 0.808E+01   0.149E-11 0.146E-11 0.152E-10   -.111E-15 -.111E-15 -.757E+01

 POSITION                                       TOTAL-FORCE (eV/Angst)
     11.48437      9.65448     13.82858         0.038177     -0.038177      0.095657
      9.65448     11.48437     13.82858        -0.038177      0.038177      0.095657
      0.00000      0.00000      9.00000        -0.000000      0.000000      0.568041
      2.11389      2.11389      9.00000         0.001235      0.001235      0.568432
      0.00000      2.11389     11.11389         0.002783     -0.000613     -0.561049
      2.11389      0.00000     11.11389        -0.000613      0.002783     -0.561049
      0.00000      4.22777      9.00000         0.004515     -0.001237      0.568121
      2.11389      6.34166      9.00000         0.003285     -0.001959      0.569031
      0.00000      6.34166     11.11389         0.006588     -0.000889     -0.560207
      2.11389      4.22777     11.11389         0.004342      0.000560     -0.559913
      0.00000      8.45554      9.00000         0.003981     -0.000729      0.568264
      2.11389     10.56943      9.00000        -0.005019     -0.004136      0.568442
      0.00000     10.56943     11.11389        -0.000000      0.000000     -0.559520
      2.11389      8.45554     11.11389         0.003560     -0.003963     -0.558256
      0.00000     12.68331      9.00000        -0.003981      0.000729      0.568264
      2.11389     14.79720      9.00000        -0.010002      0.001537      0.567239
      0.00000     14.79720     11.11389        -0.006588      0.000889     -0.560207
      2.11389     12.68331     11.11389        -0.011026     -0.002659     -0.559861
      0.00000     16.91108      9.00000        -0.004515      0.001237      0.568121
      2.11389     19.02497      9.00000        -0.003347      0.003347      0.567647
      0.00000     19.02497     11.11389        -0.002783      0.000613     -0.561049
      2.11389     16.91108     11.11389        -0.008032      0.003286     -0.560936
      4.22777      0.00000      9.00000        -0.001237      0.004515      0.568121
      6.34166      2.11389      9.00000        -0.001959      0.003285      0.569031
      4.22777      2.11389     11.11389         0.000560      0.004342     -0.559913
      6.34166      0.00000     11.11389        -0.000889      0.006588     -0.560207
      4.22777      4.22777      9.00000         0.000996      0.000996      0.570223
      6.34166      6.34166      9.00000        -0.002850     -0.002850      0.577556
      4.22777      6.34166     11.11389         0.008942     -0.001485     -0.555027
      6.34166      4.22777     11.11389        -0.001485      0.008942     -0.555027
      4.22777      8.45554      9.00000        -0.000897     -0.009349      0.570616
      6.34166     10.56943      9.00000        -0.017933     -0.028984      0.562126
      4.22777     10.56943     11.11389        -0.010621     -0.014961     -0.554775
      6.34166      8.45554     11.11389         0.033925     -0.018486     -0.524556
      4.22777     12.68331      9.00000        -0.022860     -0.004442      0.566542
      6.34166     14.79720      9.00000        -0.018896      0.018896      0.551507
      4.22777     14.79720     11.11389        -0.025500      0.004084     -0.562286
      6.34166     12.68331     11.11389        -0.127840     -0.022162     -0.575036
      4.22777     16.91108      9.00000        -0.008284      0.008284      0.565183
      6.34166     19.02497      9.00000        -0.001537      0.010002      0.567239
      4.22777     19.02497     11.11389        -0.003286      0.008032     -0.560936
      6.34166     16.91108     11.11389        -0.004084      0.025500     -0.562286
      8.45554      0.00000      9.00000        -0.000729      0.003981      0.568264
     10.56943      2.11389      9.00000        -0.004136     -0.005019      0.568442
      8.45554      2.11389     11.11389        -0.003963      0.003560     -0.558256
     10.56943      0.00000     11.11389        -0.000000      0.000000     -0.559520
      8.45554      4.22777      9.00000        -0.009349     -0.000897      0.570616
     10.56943      6.34166      9.00000        -0.028984     -0.017933      0.562126
      8.45554      6.34166     11.11389        -0.018486      0.033925     -0.524556
     10.56943      4.22777     11.11389        -0.014961     -0.010621     -0.554775
      8.45554      8.45554      9.00000        -0.023558     -0.023558      0.598567
     10.56943     10.56943      9.00000        -0.000000      0.000000      0.499488
      8.45554     10.56943     11.11389        -0.076479     -0.242689     -0.513702
     10.56943      8.45554     11.11389        -0.242689     -0.076479     -0.513702
      8.45554     12.68331      9.00000         0.008073     -0.008073      0.435497
     10.56943     14.79720      9.00000         0.028984      0.017933      0.562126
      8.45554     14.79720     11.11389         0.022162      0.127840     -0.575036
     10.56943     12.68331     11.11389         0.242689      0.076479     -0.513702
      8.45554     16.91108      9.00000         0.004442      0.022860      0.566542
     10.56943     19.02497      9.00000         0.004136      0.005019      0.568442
[...]
     19.02497      6.34166     11.11389        -0.010375      0.002144      0.419400
     16.91108      6.34166      9.00000        -0.017004      0.006673     -0.422615
     19.02497      4.22777      9.00000        -0.006977      0.004141     -0.426048
     16.91108      8.45554     11.11389        -0.024813     -0.008211      0.420978
     19.02497     10.56943     11.11389        -0.004555     -0.006253      0.417315
     16.91108     10.56943      9.00000        -0.010670     -0.014114     -0.427035
     19.02497      8.45554      9.00000        -0.008897     -0.001986     -0.426017
     16.91108     12.68331     11.11389        -0.000087     -0.012636      0.411358
     19.02497     14.79720     11.11389         0.003830     -0.001685      0.417378
     16.91108     14.79720      9.00000         0.002554     -0.002270     -0.430462
     19.02497     12.68331      9.00000         0.000536     -0.004458     -0.428058
     16.91108     16.91108     11.11389         0.003379      0.003379      0.416299
     19.02497     19.02497     11.11389         0.001698      0.001698      0.419156
     16.91108     19.02497      9.00000        -0.000096      0.002708     -0.427561
     19.02497     16.91108      9.00000         0.002708     -0.000096     -0.427561
    total drift:                                0.000000      0.000001     -0.529579

  FREE ENERGIE OF THE ION-ELECTRON SYSTEM (eV)
  free  energy   TOTEN  =     -1429.57152352 eV

  energy  without entropy=    -1429.57152352  energy(sigma->0) =    -1429.57152352