 vasp.6.3.0 20Jan22 (build Apr  1 2022 16:44:48) complex
 executed on        HPECrayEX_GCC date 2022.11.18  09:04:46

 INCAR:
   SYSTEM = MgO-rocksalt
   ISMEAR = 0
   SIGMA = 0.05
   EDIFF = 1E-6
   ALGO = ALL
   ISTART = 0
   IBRION = -1
   NSW = 0
   ISYM = 2
   DIPOL = 0.5 0.5 0.5
   IDIPOL = 3
   LDIPOL = .TRUE.
   LHFCALC = .TRUE.
   GGA = B5
   AEXX = 0.2
   AGGAX = 0.72
   AGGAC = 0.81
   ALDAC = 0.19
   IVDW = 12
   VDW_S8 = 1.9889
   VDW_A1 = 0.3981
   VDW_A2 = 4.4211
   ENCUT = 520
   PREC = Accurate
   LASPH = .TRUE.
   LREAL = Auto
   ISPIN = 1
   NELM = 200
   NELMIN = 8
   NCORE = 4
   KPAR = 2
   LWAVE = .FALSE.
   LCHARG = .FALSE.

 POTCAR:    PAW_PBE Mg_pv 13Apr2007
 POTCAR:    PAW_PBE O 08Apr2002
|           W    W    AA    RRRRR   N    N  II  N    N   GGGG   !!!           |
|           W    W   A  A   R    R  NN   N  II  NN   N  G    G  !!!           |
|           W    W  A    A  R    R  N N  N  II  N N  N  G       !!!           |
|           W WW W  AAAAAA  RRRRR   N  N N  II  N  N N  G  GGG   !            |
|           WW  WW  A    A  R   R   N   NN  II  N   NN  G    G                |
|           W    W  A    A  R    R  N    N  II  N    N   GGGG   !!!           |
|     You have selected ISYM=2 for a HF type calculation. This will           |
|     symmetrize the charge density but not the exchange potential. I         |
|     suggest to use ISYM=3 instead. This uses symmetry to obtain the         |
|     orbitals at all k-points in the Brillouin zone, but does not apply      |
|     symmetry to the Hartree potential directly. The resultant charge        |
|     might have lower symmetry than the crystal but, at least, Hartree       |
|     and exchange are fully compatible.                                      |

   TITEL  = PAW_PBE Mg_pv 13Apr2007
   POMASS =   24.305; ZVAL   =    8.000    mass and valenz
   ENMAX  =  403.929; ENMIN  =  302.947 eV

   TITEL  = PAW_PBE O 08Apr2002
   POMASS =   16.000; ZVAL   =    6.000    mass and valenz
   ENMAX  =  400.000; ENMIN  =  300.000 eV

 Optimization of the real space projectors (new method)

 maximal supplied QI-value         = 18.90
 optimisation between [QCUT,QGAM] = [ 11.53, 23.24] = [ 37.21,151.29] Ry
 Optimized for a Real-space Cutoff    1.28 Angstroem

   l    n(q)    QCUT    max X(q) W(low)/X(q) W(high)/X(q)  e(spline)
   1      8    11.527     2.974    0.44E-04    0.56E-04    0.12E-06
   1      8    11.527     4.279    0.12E-03    0.12E-03    0.26E-06
   0      9    11.527    16.381    0.46E-04    0.64E-04    0.78E-07
   0      9    11.527     5.611    0.26E-04    0.43E-04    0.55E-07
   2      8    11.527     4.652    0.22E-03    0.72E-04    0.47E-07
 Optimization of the real space projectors (new method)

 maximal supplied QI-value         = 24.76
 optimisation between [QCUT,QGAM] = [ 11.64, 23.27] = [ 37.91,151.63] Ry
 Optimized for a Real-space Cutoff    1.14 Angstroem

   l    n(q)    QCUT    max X(q) W(low)/X(q) W(high)/X(q)  e(spline)
   0      8    11.635    20.381    0.10E-03    0.33E-03    0.24E-06
   0      8    11.635    15.268    0.11E-03    0.35E-03    0.26E-06
   1      7    11.635     5.964    0.24E-03    0.31E-03    0.30E-06
   1      7    11.635     5.382    0.22E-03    0.25E-03    0.26E-06
|               ----> ADVICE to this user running VASP <----                  |
|     You enforced a specific xc type in the INCAR file but a different       |
|     type was found in the POTCAR file.                                      |
|     I HOPE YOU KNOW WHAT YOU ARE DOING!                                     |

  PAW_PBE Mg_pv 13Apr2007               :
  PAW_PBE O 08Apr2002                   :

 POSCAR: Mg  O
  positions in direct lattice
 exchange correlation table for  LEXCH =       12
   RHO(1)=    0.500       N(1)  =     2000
   RHO(2)=  100.500       N(2)  =     4000

 ion  position               nearest neighbor table
   1  0.000  0.000  0.407- 103 2.11 104 2.11 119 2.11 184 2.11 101 2.11
   2  0.100  0.100  0.407- 103 2.11 104 2.11 108 2.11 123 2.11 102 2.11
   3  0.000  0.100  0.503- 101 2.11 102 2.11 105 2.11 182 2.11 103 2.11
   4  0.100  0.000  0.503- 101 2.11 102 2.11 118 2.11 121 2.11 104 2.11
   5  0.000  0.200  0.407- 107 2.11 103 2.11 108 2.11 188 2.11 105 2.11
   6  0.100  0.300  0.407- 108 2.11 107 2.11 112 2.11 127 2.11 106 2.11
   7  0.000  0.300  0.503- 105 2.11 106 2.11 109 2.11 186 2.11 107 2.11
   8  0.100  0.200  0.503- 106 2.11 105 2.11 102 2.11 125 2.11 108 2.11
   9  0.000  0.400  0.407- 107 2.11 111 2.11 112 2.11 192 2.11 109 2.11
  10  0.100  0.500  0.407- 111 2.11 112 2.11 116 2.11 131 2.11 110 2.11
  11  0.000  0.500  0.503- 109 2.11 110 2.11 113 2.11 190 2.11 111 2.11
  12  0.100  0.400  0.503- 106 2.11 109 2.11 110 2.11 129 2.11 112 2.11
  13  0.000  0.600  0.407- 111 2.11 115 2.11 116 2.11 196 2.11 113 2.11
  14  0.100  0.700  0.407- 120 2.11 116 2.11 115 2.11 135 2.11 114 2.11
  15  0.000  0.700  0.503- 117 2.11 114 2.11 113 2.11 194 2.11 115 2.11
  16  0.100  0.600  0.503- 110 2.11 113 2.11 114 2.11 133 2.11 116 2.11
  17  0.000  0.800  0.407- 115 2.11 119 2.11 120 2.11 200 2.11 117 2.11
  18  0.100  0.900  0.407- 104 2.11 119 2.11 120 2.11 139 2.11 118 2.11
  19  0.000  0.900  0.503- 101 2.11 117 2.11 118 2.11 198 2.11 119 2.11
  20  0.100  0.800  0.503- 114 2.11 117 2.11 118 2.11 137 2.11 120 2.11
  21  0.200  0.000  0.407- 124 2.11 123 2.11 104 2.11 139 2.11 121 2.11
  22  0.300  0.100  0.407- 123 2.11 124 2.11 128 2.11 143 2.11 122 2.11
  23  0.200  0.100  0.503- 122 2.11 121 2.11 102 2.11 125 2.11 123 2.11
  24  0.300  0.000  0.503- 121 2.11 122 2.11 138 2.11 141 2.11 124 2.11
  25  0.200  0.200  0.407- 127 2.11 128 2.11 108 2.11 123 2.11 125 2.11
  26  0.300  0.300  0.407- 127 2.11 128 2.11 132 2.11 147 2.11 126 2.11
  27  0.200  0.300  0.503- 125 2.11 126 2.11 106 2.11 129 2.11 127 2.11
  28  0.300  0.200  0.503- 125 2.11 126 2.11 122 2.11 145 2.11 128 2.11
  29  0.200  0.400  0.407- 132 2.11 127 2.11 131 2.11 112 2.11 129 2.11
  30  0.300  0.500  0.407- 131 2.11 132 2.11 136 2.11 151 2.11 130 2.11
  31  0.200  0.500  0.503- 130 2.11 129 2.11 110 2.11 133 2.11 131 2.11
  32  0.300  0.400  0.503- 129 2.11 126 2.11 130 2.11 149 2.11 132 2.11
  33  0.200  0.600  0.407- 136 2.11 131 2.11 135 2.11 116 2.11 133 2.11
  34  0.300  0.700  0.407- 135 2.11 140 2.11 136 2.11 155 2.11 134 2.11
  35  0.200  0.700  0.503- 134 2.11 137 2.11 114 2.11 133 2.11 135 2.11
  36  0.300  0.600  0.503- 133 2.11 130 2.11 134 2.11 153 2.11 136 2.11
  37  0.200  0.800  0.407- 135 2.11 140 2.11 139 2.11 120 2.11 137 2.11
  38  0.300  0.900  0.407- 139 2.11 124 2.11 140 2.11 159 2.11 138 2.11
  39  0.200  0.900  0.503- 138 2.11 121 2.11 137 2.11 118 2.11 139 2.11
  40  0.300  0.800  0.503- 134 2.11 137 2.11 138 2.11 157 2.11 140 2.11
  41  0.400  0.000  0.407- 124 2.11 143 2.11 144 2.11 159 2.11 141 2.11
  42  0.500  0.100  0.407- 143 2.11 144 2.11 148 2.11 163 2.11 142 2.11
  43  0.400  0.100  0.503- 122 2.11 141 2.11 142 2.11 145 2.11 143 2.11
  44  0.500  0.000  0.503- 141 2.11 142 2.11 158 2.11 161 2.11 144 2.11
  45  0.400  0.200  0.407- 147 2.11 143 2.11 128 2.11 148 2.11 145 2.11
  46  0.500  0.300  0.407- 148 2.11 147 2.11 152 2.11 167 2.11 146 2.11
  47  0.400  0.300  0.503- 145 2.11 126 2.11 146 2.11 149 2.11 147 2.11
  48  0.500  0.200  0.503- 146 2.11 145 2.11 142 2.11 165 2.11 148 2.11
  49  0.400  0.400  0.407- 132 2.11 147 2.11 151 2.11 152 2.11 149 2.11
  50  0.500  0.500  0.407- 151 2.11 152 2.11 156 2.11 171 2.11 150 2.11
  51  0.400  0.500  0.503- 130 2.11 149 2.11 150 2.11 153 2.11 151 2.11
  52  0.500  0.400  0.503- 146 2.11 149 2.11 150 2.11 169 2.11 152 2.11
  53  0.400  0.600  0.407- 136 2.11 151 2.11 155 2.11 156 2.11 153 2.11
  54  0.500  0.700  0.407- 160 2.11 156 2.11 155 2.11 175 2.11 154 2.11
  55  0.400  0.700  0.503- 157 2.11 153 2.11 154 2.11 134 2.11 155 2.11
  56  0.500  0.600  0.503- 150 2.11 153 2.11 154 2.11 173 2.11 156 2.11
  57  0.400  0.800  0.407- 155 2.11 140 2.11 159 2.11 160 2.11 157 2.11
  58  0.500  0.900  0.407- 144 2.11 159 2.11 160 2.11 179 2.11 158 2.11
  59  0.400  0.900  0.503- 138 2.11 141 2.11 157 2.11 158 2.11 159 2.11
  60  0.500  0.800  0.503- 154 2.11 157 2.11 158 2.11 177 2.11 160 2.11
[...]
 186  0.900  0.300  0.503-  88 2.11  87 2.11   7 2.11  92 2.11  86 2.11
 187  0.800  0.300  0.407-  66 2.11  85 2.11  86 2.11  89 2.11  87 2.11
 188  0.900  0.200  0.407-  86 2.11  82 2.11  85 2.11   5 2.11  88 2.11
 189  0.800  0.400  0.503-  72 2.11  87 2.11  91 2.11  92 2.11  89 2.11
 190  0.900  0.500  0.503-  11 2.11  91 2.11  92 2.11  96 2.11  90 2.11
 191  0.800  0.500  0.407-  70 2.11  89 2.11  90 2.11  93 2.11  91 2.11
 192  0.900  0.400  0.407-   9 2.11  86 2.11  89 2.11  90 2.11  92 2.11
 193  0.800  0.600  0.503-  76 2.11  91 2.11  95 2.11  96 2.11  93 2.11
 194  0.900  0.700  0.503- 100 2.11  95 2.11  96 2.11  15 2.11  94 2.11
 195  0.800  0.700  0.407-  74 2.11  97 2.11  94 2.11  93 2.11  95 2.11
 196  0.900  0.600  0.407-  13 2.11  90 2.11  93 2.11  94 2.11  96 2.11
 197  0.800  0.800  0.503-  80 2.11  95 2.11  99 2.11 100 2.11  97 2.11
 198  0.900  0.900  0.503-  19 2.11  84 2.11  99 2.11 100 2.11  98 2.11
 199  0.800  0.900  0.407-  78 2.11  81 2.11  97 2.11  98 2.11  99 2.11
 200  0.900  0.800  0.407-  94 2.11  17 2.11  97 2.11  98 2.11 100 2.11

  LATTYP: Found a simple tetragonal cell.
 ALAT       =    21.1388521970
 C/A-ratio  =     1.0461251639

  Lattice vectors:

 A1 = (  21.1388521970,   0.0000000000,   0.0000000000)
 A2 = (   0.0000000000,  21.1388521970,   0.0000000000)
 A3 = (   0.0000000000,   0.0000000000,  22.1138852197)

Analysis of symmetry for initial positions (statically):
 Subroutine PRICEL returns following result:

[...]

  50 primitive cells build up your supercell.

 Routine SETGRP: Setting up the symmetry group for a
 simple tetragonal supercell.

 Subroutine GETGRP returns: Found 16 space group operations
 (whereof  8 operations were pure point group operations)
 out of a pool of 16 trial point group operations.

The static configuration has the point symmetry C_4v.
 The point group associated with its full space group is D_4h.

Analysis of symmetry for dynamics (positions and initial velocities):
 Subroutine PRICEL returns following result:

  LATTYP: Found a simple tetragonal cell.
 ALAT       =     2.9894851470
 C/A-ratio  =     7.3972219738

  Lattice vectors:

 A1 = (   2.1138852197,  -2.1138852197,   0.0000000000)
 A2 = (   2.1138852197,   2.1138852197,   0.0000000000)
 A3 = (   0.0000000000,   0.0000000000,  22.1138852197)

  50 primitive cells build up your supercell.

 Routine SETGRP: Setting up the symmetry group for a
 simple tetragonal supercell.

 Subroutine GETGRP returns: Found 16 space group operations
 (whereof  8 operations were pure point group operations)
 out of a pool of 16 trial point group operations.

The dynamic configuration has the point symmetry C_4v.
 The point group associated with its full space group is D_4h.

 Subroutine INISYM returns: Found 16 space group operations
 (whereof  8 operations are pure point group operations),
 and found    50 'primitive' translations

                                     Primitive cell

  volume of cell :     197.6323

[...]
     40     -46.3570      2.00000
     41     -46.3570      2.00000
     42     -46.3570      2.00000
     43     -46.3570      2.00000
     44     -46.3570      2.00000
     45     -46.3570      2.00000
     46     -46.3537      2.00000
     47     -46.3537      2.00000
     48     -46.3537      2.00000
     49     -46.3537      2.00000
     50     -46.3532      2.00000
     51     -46.3532      2.00000
     52     -46.3532      2.00000
     53     -46.3532      2.00000
     54     -46.3532      2.00000
     55     -46.3532      2.00000
     56     -46.3532      2.00000
     57     -46.3532      2.00000
     58     -46.3527      2.00000
     59     -46.3527      2.00000
     60     -46.3527      2.00000
[...]
   1010       7.9909      0.00000
   1011       8.0161      0.00000
   1012       8.0800      0.00000
   1013       8.0804      0.00000
   1014       8.1116      0.00000
   1015       8.2114      0.00000
   1016       8.2546      0.00000
   1017       8.2551      0.00000
   1018       8.3854      0.00000
   1019       8.4440      0.00000
   1020       8.4891      0.00000
   1021       8.6575      0.00000
   1022       8.8350      0.00000
   1023       8.9329      0.00000
   1024       8.9606      0.00000

 soft charge-density along one line, spin component           1
         0         1         2         3         4         5         6         7         8         9
 total charge-density along one line

------------------------ aborting loop because EDIFF is reached ----------------------------------------

 WARNING: Using user supplied parameters
     VDW_A1 = 0.398
     VDW_A2 = 4.421
     VDW_S8 = 1.989
     because the xc functional is not supported. Required parameters not
     defined in the INCAR file will be replaced with PBE defaults ones.

         DFTD3 V3.0 Rev 1
 IVDW         = 12
 DF unknown
 parameters
 VDW_S6       =    1.0000
 VDW_S8       =    1.9889
 VDW_A1       =    0.3981
 VDW_A2       =    4.4211
 k1-k3        =   16.0000    1.3333   -4.0000
 VDW_RADIUS   =   50.2022 A
 VDW_CNRADIUS =   21.1671 A
 Edisp (eV)  -60.13650

 E6    (eV) :   -20.5600
 E8    (eV) :   -39.5765
 % E8        : 65.81

 VOLUME and BASIS-vectors are now :
  energy-cutoff  :      520.00
  volume of cell :     9881.61
      direct lattice vectors                 reciprocal lattice vectors
    21.138852197  0.000000000  0.000000000     0.047306258  0.000000000  0.000000000
     0.000000000 21.138852197  0.000000000     0.000000000  0.047306258  0.000000000
     0.000000000  0.000000000 22.113885220     0.000000000  0.000000000  0.045220457

  length of vectors
    21.138852197 21.138852197 22.113885220     0.047306258  0.047306258  0.045220457

 FORCES acting on ions:
    Electron-Ion                     Ewald-Force                    Non-Local-Force
   0.124E-12 0.118E-12 0.926E+03   0.764E-13 0.213E-12 -.919E+03   -.207E-23 -.579E-23 -.668E+01
   -.361E-12 -.877E-12 0.926E+03   0.101E-09 0.101E-09 -.919E+03   -.298E-22 0.273E-22 -.668E+01
   0.120E-12 -.104E-11 -.926E+03   0.103E-12 0.101E-09 0.919E+03   -.910E-23 -.211E-22 0.668E+01
   -.326E-12 0.140E-12 -.926E+03   0.101E-09 0.107E-12 0.919E+03   -.310E-22 0.124E-22 0.668E+01
   0.119E-12 -.129E-11 0.926E+03   0.153E-10 -.470E-10 -.919E+03   -.331E-23 0.149E-22 -.668E+01
   -.364E-12 0.100E-11 0.926E+03   0.988E-10 0.269E-10 -.919E+03   0.900E-23 0.827E-23 -.668E+01
   0.136E-12 0.119E-11 -.926E+03   0.181E-11 0.268E-10 0.919E+03   -.182E-22 -.366E-22 0.668E+01
   -.319E-12 -.128E-11 -.926E+03   0.852E-10 -.470E-10 0.919E+03   -.108E-22 0.124E-23 0.668E+01
   0.140E-12 0.877E-12 0.926E+03   -.174E-10 -.803E-10 -.919E+03   0.241E-22 -.414E-23 -.668E+01
   -.347E-12 -.804E-12 0.926E+03   0.101E-09 0.228E-12 -.919E+03   0.165E-23 -.331E-23 -.668E+01
   0.136E-12 -.255E-12 -.926E+03   0.120E-12 0.126E-12 0.919E+03   -.600E-23 0.385E-22 0.668E+01
   -.310E-12 0.137E-11 -.926E+03   0.118E-09 -.804E-10 0.919E+03   -.339E-22 -.682E-22 0.668E+01
   0.142E-12 -.149E-11 0.926E+03   0.116E-11 0.950E-10 -.919E+03   -.414E-24 -.101E-22 -.668E+01
   -.330E-12 -.198E-11 0.926E+03   0.861E-10 -.402E-10 -.919E+03   -.111E-22 -.523E-22 -.668E+01
   0.144E-12 -.167E-11 -.926E+03   -.785E-12 -.402E-10 0.919E+03   0.744E-23 -.141E-22 0.668E+01
   -.314E-12 -.187E-11 -.926E+03   0.115E-09 0.844E-10 0.919E+03   -.521E-22 0.467E-22 0.668E+01
   0.163E-12 0.586E-12 0.926E+03   0.853E-12 0.253E-10 -.919E+03   0.207E-23 -.264E-22 -.668E+01
   -.369E-12 0.530E-12 0.926E+03   0.117E-09 -.800E-10 -.919E+03   0.149E-22 -.256E-22 -.668E+01
   0.140E-12 0.982E-12 -.926E+03   -.867E-12 -.799E-10 0.919E+03   -.496E-23 0.364E-22 0.668E+01
   -.319E-12 0.715E-12 -.926E+03   0.841E-10 0.360E-10 0.919E+03   -.372E-23 0.168E-22 0.668E+01
   -.621E-12 0.140E-12 0.926E+03   -.487E-10 0.101E-12 -.919E+03   -.951E-23 -.414E-23 -.668E+01
   0.358E-12 -.198E-11 0.926E+03   0.268E-10 0.993E-10 -.919E+03   0.108E-22 0.827E-23 -.668E+01
   -.741E-12 -.115E-11 -.926E+03   -.294E-10 0.893E-10 0.919E+03   -.215E-22 0.308E-22 0.668E+01
   0.323E-12 0.159E-12 -.926E+03   0.231E-10 0.941E-13 0.919E+03   0.165E-23 0.248E-23 0.668E+01
   -.624E-12 -.153E-12 0.926E+03   -.526E-10 -.478E-10 -.919E+03   0.199E-22 0.124E-22 -.668E+01
   0.377E-12 0.696E-12 0.926E+03   0.176E-10 0.247E-10 -.919E+03   -.186E-22 0.242E-22 -.668E+01
   -.737E-12 0.430E-12 -.926E+03   -.663E-10 0.274E-10 0.919E+03   0.339E-22 -.307E-22 0.668E+01
   0.337E-12 0.108E-13 -.926E+03   0.388E-11 -.448E-10 0.919E+03   0.108E-22 -.366E-22 0.668E+01
   -.633E-12 0.273E-11 0.926E+03   -.469E-10 -.688E-10 -.919E+03   -.188E-22 0.124E-22 -.668E+01
   0.390E-12 -.130E-11 0.926E+03   0.229E-10 0.218E-12 -.919E+03   -.236E-22 -.186E-22 -.668E+01
   -.739E-12 -.185E-11 -.926E+03   -.490E-10 0.107E-13 0.919E+03   -.825E-23 0.215E-22 0.668E+01
   0.345E-12 0.289E-11 -.926E+03   0.442E-10 -.787E-10 0.919E+03   -.662E-23 0.494E-22 0.668E+01
   -.630E-12 -.624E-12 0.926E+03   -.287E-10 0.834E-10 -.919E+03   -.352E-23 -.263E-22 -.668E+01
   0.340E-12 -.257E-11 0.926E+03   0.460E-11 -.379E-10 -.919E+03   0.387E-22 -.920E-23 -.668E+01
   -.738E-12 -.152E-11 -.926E+03   -.694E-10 -.410E-10 0.919E+03   -.153E-23 0.430E-22 0.668E+01
   0.339E-12 0.401E-12 -.926E+03   0.411E-10 0.828E-10 0.919E+03   0.414E-23 0.298E-22 0.668E+01
   -.638E-12 0.578E-12 0.926E+03   -.674E-10 0.259E-10 -.919E+03   0.322E-22 -.281E-22 -.668E+01
   0.351E-12 0.186E-12 0.926E+03   0.432E-10 -.784E-10 -.919E+03   -.165E-23 -.232E-22 -.668E+01
   -.743E-12 0.143E-12 -.926E+03   -.304E-10 -.686E-10 0.919E+03   -.349E-22 -.285E-22 0.668E+01
   0.318E-12 0.312E-11 -.926E+03   0.270E-11 0.337E-10 0.919E+03   -.372E-23 -.243E-22 0.668E+01
   0.372E-12 0.134E-12 0.926E+03   -.749E-10 0.449E-13 -.919E+03   0.296E-22 -.827E-24 -.668E+01
   -.185E-12 -.203E-11 0.926E+03   0.387E-11 0.992E-10 -.919E+03   0.207E-23 -.465E-23 -.668E+01
   0.482E-12 -.682E-11 -.926E+03   -.544E-10 0.890E-10 0.919E+03   -.496E-23 -.271E-22 0.668E+01
   -.196E-12 0.140E-12 -.926E+03   0.622E-14 0.933E-13 0.919E+03   -.222E-22 0.662E-23 0.668E+01
   0.399E-12 -.136E-11 0.926E+03   -.799E-10 -.471E-10 -.919E+03   0.124E-22 -.116E-22 -.668E+01
   -.201E-12 -.205E-11 0.926E+03   -.579E-11 0.245E-10 -.919E+03   -.951E-23 0.207E-22 -.668E+01
   0.475E-12 0.105E-10 -.926E+03   -.934E-10 0.267E-10 0.919E+03   -.306E-22 -.227E-22 0.668E+01
   -.211E-12 -.241E-11 -.926E+03   -.193E-10 -.446E-10 0.919E+03   -.207E-22 -.331E-23 0.668E+01
   0.380E-12 -.127E-11 0.926E+03   -.720E-10 -.686E-10 -.919E+03   -.438E-22 -.786E-23 -.668E+01
   -.229E-12 0.135E-11 0.926E+03   -.104E-12 0.214E-12 -.919E+03   -.248E-23 0.765E-23 -.668E+01
   0.456E-12 0.115E-10 -.926E+03   -.749E-10 0.933E-14 0.919E+03   0.274E-23 0.447E-22 0.668E+01
   -.239E-12 -.296E-11 -.926E+03   0.215E-10 -.787E-10 0.919E+03   -.290E-23 0.250E-22 0.668E+01
   0.363E-12 -.467E-11 0.926E+03   -.535E-10 0.832E-10 -.919E+03   0.641E-23 -.215E-22 -.668E+01
   -.215E-12 -.168E-11 0.926E+03   -.183E-10 -.377E-10 -.919E+03   -.207E-22 -.339E-22 -.668E+01
   0.451E-12 0.930E-11 -.926E+03   -.962E-10 -.403E-10 0.919E+03   0.148E-22 -.186E-22 0.668E+01
   -.243E-12 -.325E-11 -.926E+03   0.183E-10 0.827E-10 0.919E+03   0.149E-22 0.507E-23 0.668E+01
   0.362E-12 0.110E-11 0.926E+03   -.942E-10 0.252E-10 -.919E+03   -.244E-22 0.149E-22 -.668E+01
   -.170E-12 -.341E-11 0.926E+03   0.203E-10 -.783E-10 -.919E+03   0.243E-23 0.227E-22 -.668E+01
   0.461E-12 -.162E-10 -.926E+03   -.555E-10 -.683E-10 0.919E+03   -.277E-22 0.455E-23 0.668E+01
   -.218E-12 -.495E-12 -.926E+03   -.204E-10 0.335E-10 0.919E+03   0.993E-23 0.422E-22 0.668E+01
[...]
   0.546E-10 0.512E-10 0.696E+03   0.434E-10 0.494E-10 -.700E+03   0.496E-23 0.844E-22 0.319E+01
   0.315E-10 -.515E-10 0.696E+03   0.206E-11 -.614E-10 -.700E+03   -.145E-22 -.827E-24 0.319E+01
   0.547E-10 0.259E-10 -.696E+03   0.507E-10 -.136E-10 0.700E+03   -.368E-22 0.232E-22 -.319E+01
   0.314E-10 -.472E-11 -.696E+03   -.507E-11 0.103E-10 0.700E+03   -.960E-22 0.215E-22 -.319E+01
   0.546E-10 0.365E-11 0.696E+03   0.512E-10 -.169E-11 -.700E+03   0.728E-22 0.562E-22 0.319E+01
   0.315E-10 0.360E-10 0.696E+03   0.178E-11 -.155E-11 -.700E+03   0.678E-22 -.182E-22 0.319E+01
   0.548E-10 -.403E-10 -.696E+03   0.609E-10 0.119E-11 0.700E+03   -.106E-21 0.438E-22 -.319E+01
   0.315E-10 -.554E-10 -.696E+03   -.438E-11 -.488E-10 0.700E+03   -.724E-22 0.827E-23 -.319E+01
   0.546E-10 -.599E-10 0.696E+03   0.410E-10 -.598E-10 -.700E+03   -.298E-22 0.207E-22 0.319E+01
   0.315E-10 -.405E-10 0.696E+03   -.719E-13 0.697E-11 -.700E+03   0.331E-23 0.993E-22 0.319E+01
   0.547E-10 0.250E-10 -.696E+03   0.416E-10 0.415E-10 0.700E+03   -.430E-22 0.827E-23 -.319E+01
   0.314E-10 0.886E-10 -.696E+03   -.259E-11 -.308E-11 0.700E+03   0.248E-23 -.215E-22 -.319E+01
   0.546E-10 0.361E-10 0.696E+03   0.619E-10 0.573E-11 -.700E+03   -.869E-22 0.165E-23 0.319E+01
   0.315E-10 0.555E-10 0.696E+03   0.249E-12 0.561E-10 -.700E+03   -.360E-22 0.248E-22 0.319E+01
   0.124E-10 -.244E-10 0.779E-02   0.113E-11 0.441E-13 -.909E-12   -.276E-20 0.109E-20 0.455E-12

 POSITION                                       TOTAL-FORCE (eV/Angst)
      0.00000      0.00000      9.00000        -0.000000     -0.000000      0.529042
      2.11389      2.11389      9.00000        -0.000000      0.000000      0.529042
      0.00000      2.11389     11.11389        -0.000000     -0.000000     -0.529042
      2.11389      0.00000     11.11389        -0.000000     -0.000000     -0.529042
      0.00000      4.22777      9.00000         0.000000     -0.000000      0.529042
      2.11389      6.34166      9.00000        -0.000000     -0.000000      0.529042
      0.00000      6.34166     11.11389         0.000000     -0.000000     -0.529042
      2.11389      4.22777     11.11389         0.000000      0.000000     -0.529042
      0.00000      8.45554      9.00000         0.000000      0.000000      0.529042
      2.11389     10.56943      9.00000        -0.000000     -0.000000      0.529042
      0.00000     10.56943     11.11389        -0.000000     -0.000000     -0.529042
      2.11389      8.45554     11.11389         0.000000      0.000000     -0.529042
      0.00000     12.68331      9.00000         0.000000      0.000000      0.529042
      2.11389     14.79720      9.00000        -0.000000      0.000000      0.529042
      0.00000     14.79720     11.11389        -0.000000     -0.000000     -0.529042
      2.11389     12.68331     11.11389        -0.000000     -0.000000     -0.529042
      0.00000     16.91108      9.00000         0.000000      0.000000      0.529042
      2.11389     19.02497      9.00000        -0.000000      0.000000      0.529042
      0.00000     19.02497     11.11389         0.000000      0.000000     -0.529042
      2.11389     16.91108     11.11389        -0.000000     -0.000000     -0.529042
      4.22777      0.00000      9.00000        -0.000000      0.000000      0.529042
      6.34166      2.11389      9.00000        -0.000000      0.000000      0.529042
      4.22777      2.11389     11.11389         0.000000     -0.000000     -0.529042
      6.34166      0.00000     11.11389        -0.000000      0.000000     -0.529042
      4.22777      4.22777      9.00000        -0.000000     -0.000000      0.529042
      6.34166      6.34166      9.00000        -0.000000      0.000000      0.529042
      4.22777      6.34166     11.11389        -0.000000      0.000000     -0.529042
      6.34166      4.22777     11.11389         0.000000     -0.000000     -0.529042
      4.22777      8.45554      9.00000        -0.000000     -0.000000      0.529042
      6.34166     10.56943      9.00000        -0.000000      0.000000      0.529042
      4.22777     10.56943     11.11389         0.000000     -0.000000     -0.529042
      6.34166      8.45554     11.11389         0.000000     -0.000000     -0.529042
      4.22777     12.68331      9.00000         0.000000      0.000000      0.529042
      6.34166     14.79720      9.00000        -0.000000      0.000000      0.529042
      4.22777     14.79720     11.11389        -0.000000     -0.000000     -0.529042
      6.34166     12.68331     11.11389         0.000000     -0.000000     -0.529042
      4.22777     16.91108      9.00000         0.000000      0.000000      0.529042
      6.34166     19.02497      9.00000        -0.000000     -0.000000      0.529042
      4.22777     19.02497     11.11389        -0.000000      0.000000     -0.529042
      6.34166     16.91108     11.11389         0.000000     -0.000000     -0.529042
      8.45554      0.00000      9.00000        -0.000000     -0.000000      0.529042
     10.56943      2.11389      9.00000        -0.000000     -0.000000      0.529042
      8.45554      2.11389     11.11389        -0.000000      0.000000     -0.529042
     10.56943      0.00000     11.11389         0.000000      0.000000     -0.529042
      8.45554      4.22777      9.00000        -0.000000     -0.000000      0.529042
     10.56943      6.34166      9.00000        -0.000000     -0.000000      0.529042
      8.45554      6.34166     11.11389        -0.000000     -0.000000     -0.529042
     10.56943      4.22777     11.11389         0.000000      0.000000     -0.529042
      8.45554      8.45554      9.00000        -0.000000     -0.000000      0.529042
     10.56943     10.56943      9.00000         0.000000     -0.000000      0.529042
      8.45554     10.56943     11.11389         0.000000      0.000000     -0.529042
     10.56943      8.45554     11.11389        -0.000000     -0.000000     -0.529042
      8.45554     12.68331      9.00000        -0.000000      0.000000      0.529042
     10.56943     14.79720      9.00000         0.000000     -0.000000      0.529042
      8.45554     14.79720     11.11389        -0.000000     -0.000000     -0.529042
     10.56943     12.68331     11.11389         0.000000      0.000000     -0.529042
      8.45554     16.91108      9.00000        -0.000000      0.000000      0.529042
     10.56943     19.02497      9.00000         0.000000     -0.000000      0.529042
      8.45554     19.02497     11.11389        -0.000000     -0.000000     -0.529042
     10.56943     16.91108     11.11389         0.000000      0.000000     -0.529042
[...]
     19.02497      6.34166     11.11389         0.000000     -0.000000      0.404071
     16.91108      6.34166      9.00000        -0.000000      0.000000     -0.404071
     19.02497      4.22777      9.00000         0.000000     -0.000000     -0.404071
     16.91108      8.45554     11.11389        -0.000000      0.000000      0.404071
     19.02497     10.56943     11.11389        -0.000000      0.000000      0.404071
     16.91108     10.56943      9.00000        -0.000000     -0.000000     -0.404071
     19.02497      8.45554      9.00000        -0.000000      0.000000     -0.404071
     16.91108     12.68331     11.11389         0.000000     -0.000000      0.404071
     19.02497     14.79720     11.11389         0.000000     -0.000000      0.404071
     16.91108     14.79720      9.00000        -0.000000      0.000000     -0.404071
     19.02497     12.68331      9.00000        -0.000000     -0.000000     -0.404071
     16.91108     16.91108     11.11389        -0.000000      0.000000      0.404071
     19.02497     19.02497     11.11389        -0.000000     -0.000000      0.404071
     16.91108     19.02497      9.00000        -0.000000      0.000000     -0.404071
     19.02497     16.91108      9.00000         0.000000      0.000000     -0.404071
    total drift:                                0.000000     -0.000000      0.007793

  FREE ENERGIE OF THE ION-ELECTRON SYSTEM (eV)
  free  energy   TOTEN  =     -1389.45025517 eV

  energy  without entropy=    -1389.45025517  energy(sigma->0) =    -1389.45025517