 vasp.6.3.0 20Jan22 (build Apr  1 2022 16:44:48) complex
 executed on        HPECrayEX_GCC date 2023.01.09  20:05:41

 INCAR:
   SYSTEM = MgO-rocksalt
   ISMEAR = 0
   SIGMA = 0.05
   EDIFF = 1E-6
   ALGO = ALL
   ISTART = 0
   IBRION = -1
   NSW = 0
   ISYM = 2
   DIPOL = 0.5 0.5 0.5
   IDIPOL = 3
   LDIPOL = .TRUE.
   GGA = RE
   LUSE_VDW = .TRUE.
   AGGAC = 0.0
   ENCUT = 520
   PREC = Accurate
   LASPH = .TRUE.
   LREAL = Auto
   ISPIN = 1
   NELM = 200
   NELMIN = 8
   NCORE = 4
   KPAR = 2
   LWAVE = .FALSE.
   LCHARG = .FALSE.

 POTCAR:    PAW_PBE Ag 02Apr2005
 POTCAR:    PAW_PBE Mg_pv 13Apr2007
 POTCAR:    PAW_PBE O 08Apr2002
|               ----> ADVICE to this user running VASP <----                  |
|     You have switched on vdW-DFT.                                           |
|     This routine was written and supplied by Jiri Klimes. We recommend      |
|     that you carefully read and cite the following publications:            |
|       J. Klimes, D.R. Bowler, A. Michelides                                 |
|          J. Phys.: Cond Matt. 22 022201 (2010)                              |
|       J. Klimes, D.R. Bowler, A. Michelides                                 |
|          Phys. Rev. B. 83, 195131 (2011)                                    |
|     and references therein.                                                 |

   TITEL  = PAW_PBE Ag 02Apr2005
   POMASS =  107.868; ZVAL   =   11.000    mass and valenz
   ENMAX  =  249.844; ENMIN  =  187.383 eV

   TITEL  = PAW_PBE Mg_pv 13Apr2007
   POMASS =   24.305; ZVAL   =    8.000    mass and valenz
   ENMAX  =  403.929; ENMIN  =  302.947 eV

   TITEL  = PAW_PBE O 08Apr2002
   POMASS =   16.000; ZVAL   =    6.000    mass and valenz
   ENMAX  =  400.000; ENMIN  =  300.000 eV

 Optimization of the real space projectors (new method)

 maximal supplied QI-value         = 15.12
 optimisation between [QCUT,QGAM] = [ 11.64, 23.28] = [ 37.95,151.78] Ry
 Optimized for a Real-space Cutoff    1.45 Angstroem

   l    n(q)    QCUT    max X(q) W(low)/X(q) W(high)/X(q)  e(spline)
   2      9    11.641    53.897    0.22E-03    0.42E-04    0.28E-06
   2      9    11.641    52.416    0.23E-03    0.44E-04    0.29E-06
   0     10    11.641   122.045    0.51E-04    0.25E-04    0.16E-06
   0     10    11.641    73.629    0.49E-04    0.24E-04    0.16E-06
   1     10    11.641    15.255    0.99E-04    0.55E-04    0.11E-06
   1     10    11.641     9.562    0.81E-04    0.47E-04    0.95E-07
 Optimization of the real space projectors (new method)

[...]

   l    n(q)    QCUT    max X(q) W(low)/X(q) W(high)/X(q)  e(spline)
   1      8    11.527     2.974    0.44E-04    0.56E-04    0.12E-06
   1      8    11.527     4.279    0.12E-03    0.12E-03    0.26E-06
   0      9    11.527    16.381    0.46E-04    0.64E-04    0.78E-07
   0      9    11.527     5.611    0.26E-04    0.43E-04    0.55E-07
   2      8    11.527     4.652    0.22E-03    0.72E-04    0.47E-07
 Optimization of the real space projectors (new method)

 maximal supplied QI-value         = 24.76
 optimisation between [QCUT,QGAM] = [ 11.64, 23.27] = [ 37.91,151.63] Ry
 Optimized for a Real-space Cutoff    1.14 Angstroem

   l    n(q)    QCUT    max X(q) W(low)/X(q) W(high)/X(q)  e(spline)
   0      8    11.635    20.381    0.10E-03    0.33E-03    0.24E-06
   0      8    11.635    15.268    0.11E-03    0.35E-03    0.26E-06
   1      7    11.635     5.964    0.24E-03    0.31E-03    0.30E-06
   1      7    11.635     5.382    0.22E-03    0.25E-03    0.26E-06
|               ----> ADVICE to this user running VASP <----                  |
|     You enforced a specific xc type in the INCAR file but a different       |
|     type was found in the POTCAR file.                                      |
|     I HOPE YOU KNOW WHAT YOU ARE DOING!                                     |

  PAW_PBE Ag 02Apr2005                  :
  PAW_PBE Mg_pv 13Apr2007               :
  PAW_PBE O 08Apr2002                   :

 POSCAR: Ag Mg  O
  positions in direct lattice
  velocities in cartesian coordinates
 exchange correlation table for  LEXCH =       40
   RHO(1)=    0.500       N(1)  =     2000
   RHO(2)=  100.500       N(2)  =     4000

 ion  position               nearest neighbor table
   1  0.400  0.429  0.610- 153 2.46   2 2.60  55 2.82   4 3.42
   2  0.400  0.512  0.697-   1 2.60   4 2.64   3 2.77
   3  0.401  0.641  0.713-   4 2.63   2 2.77
   4  0.400  0.590  0.604- 157 2.26   3 2.63   2 2.64  55 2.95   1 3.42
   5  0.000  0.000  0.407- 107 2.11 108 2.11 123 2.11 188 2.11 105 2.11
   6  0.100  0.100  0.407- 107 2.11 108 2.11 112 2.11 127 2.11 106 2.11
   7  0.000  0.100  0.503- 105 2.11 106 2.11 109 2.11 186 2.11 107 2.11
   8  0.100  0.000  0.503- 105 2.11 106 2.11 122 2.11 125 2.11 108 2.11
   9  0.000  0.200  0.407- 111 2.11 107 2.11 112 2.11 192 2.11 109 2.11
  10  0.100  0.300  0.407- 112 2.11 111 2.11 116 2.11 131 2.11 110 2.11
  11  0.000  0.300  0.503- 109 2.11 110 2.11 113 2.11 190 2.11 111 2.11
  12  0.100  0.200  0.503- 110 2.11 109 2.11 106 2.11 129 2.11 112 2.11
  13  0.000  0.400  0.407- 111 2.11 115 2.11 116 2.11 196 2.11 113 2.11
  14  0.100  0.500  0.407- 115 2.11 116 2.11 120 2.11 135 2.11 114 2.11
  15  0.000  0.500  0.503- 113 2.11 114 2.11 117 2.11 194 2.11 115 2.11
  16  0.100  0.400  0.503- 110 2.11 113 2.11 114 2.11 133 2.11 116 2.11
  17  0.000  0.600  0.407- 115 2.11 119 2.11 120 2.11 200 2.11 117 2.11
  18  0.100  0.700  0.407- 124 2.11 120 2.11 119 2.11 139 2.11 118 2.11
  19  0.000  0.700  0.503- 121 2.11 118 2.11 117 2.11 198 2.11 119 2.11
  20  0.100  0.600  0.503- 114 2.11 117 2.11 118 2.11 137 2.11 120 2.11
  21  0.000  0.800  0.407- 119 2.11 123 2.11 124 2.11 204 2.11 121 2.11
  22  0.100  0.900  0.407- 108 2.11 123 2.11 124 2.11 143 2.11 122 2.11
  23  0.000  0.900  0.503- 105 2.11 121 2.11 122 2.11 202 2.11 123 2.11
  24  0.100  0.800  0.503- 118 2.11 121 2.11 122 2.11 141 2.11 124 2.11
  25  0.200  0.000  0.407- 128 2.11 127 2.11 108 2.11 143 2.11 125 2.11
  26  0.300  0.100  0.407- 127 2.11 128 2.11 132 2.11 147 2.11 126 2.11
  27  0.200  0.100  0.503- 126 2.11 125 2.11 106 2.11 129 2.11 127 2.11
  28  0.300  0.000  0.503- 125 2.11 126 2.11 142 2.11 145 2.11 128 2.11
  29  0.200  0.200  0.407- 131 2.11 132 2.11 112 2.11 127 2.11 129 2.11
  30  0.300  0.300  0.407- 131 2.11 132 2.11 136 2.11 151 2.11 130 2.11
  31  0.200  0.300  0.503- 129 2.11 130 2.11 110 2.11 133 2.11 131 2.11
  32  0.300  0.200  0.503- 129 2.11 130 2.11 126 2.11 149 2.11 132 2.11
  33  0.200  0.400  0.407- 136 2.11 131 2.11 135 2.11 116 2.11 133 2.11
  34  0.300  0.500  0.407- 135 2.11 136 2.11 140 2.11 155 2.11 134 2.11
  35  0.200  0.500  0.503- 134 2.11 133 2.11 114 2.11 137 2.11 135 2.11
  36  0.300  0.400  0.503- 133 2.11 130 2.11 134 2.11 153 2.11 136 2.11
  37  0.200  0.600  0.407- 140 2.11 135 2.11 139 2.11 120 2.11 137 2.11
  38  0.300  0.700  0.407- 139 2.11 144 2.11 140 2.11 159 2.11 138 2.11
  39  0.200  0.700  0.503- 138 2.11 141 2.11 118 2.11 137 2.11 139 2.11
  40  0.300  0.600  0.503- 137 2.11 134 2.11 138 2.11 157 2.11 140 2.11
  41  0.200  0.800  0.407- 139 2.11 144 2.11 143 2.11 124 2.11 141 2.11
  42  0.300  0.900  0.407- 143 2.11 128 2.11 144 2.11 163 2.11 142 2.11
  43  0.200  0.900  0.503- 142 2.11 125 2.11 141 2.11 122 2.11 143 2.11
  44  0.300  0.800  0.503- 138 2.11 141 2.11 142 2.11 161 2.11 144 2.11
  45  0.400  0.000  0.407- 128 2.11 147 2.11 148 2.11 163 2.11 145 2.11
  46  0.500  0.100  0.407- 147 2.11 148 2.11 152 2.11 167 2.11 146 2.11
  47  0.400  0.100  0.503- 126 2.11 145 2.11 146 2.11 149 2.11 147 2.11
  48  0.500  0.000  0.503- 145 2.11 146 2.11 162 2.11 165 2.11 148 2.11
  49  0.400  0.200  0.407- 151 2.11 147 2.11 132 2.11 152 2.11 149 2.11
  50  0.500  0.300  0.407- 152 2.11 151 2.11 156 2.11 171 2.11 150 2.11
  51  0.400  0.300  0.503- 149 2.11 130 2.11 150 2.11 153 2.11 151 2.11
  52  0.500  0.200  0.503- 150 2.11 149 2.11 146 2.11 169 2.11 152 2.11
  53  0.400  0.400  0.407- 136 2.11 151 2.11 155 2.11 156 2.11 153 2.11
  54  0.500  0.500  0.407- 155 2.11 156 2.11 160 2.11 175 2.11 154 2.11
  55  0.400  0.500  0.503- 134 2.11 153 2.11 154 2.11 157 2.11 155 2.11   1 2.82   4 2.95
  56  0.500  0.400  0.503- 150 2.11 153 2.11 154 2.11 173 2.11 156 2.11
  57  0.400  0.600  0.407- 140 2.11 155 2.11 159 2.11 160 2.11 157 2.11
  58  0.500  0.700  0.407- 164 2.11 160 2.11 159 2.11 179 2.11 158 2.11
  59  0.400  0.700  0.503- 161 2.11 157 2.11 158 2.11 138 2.11 159 2.11
  60  0.500  0.600  0.503- 154 2.11 157 2.11 158 2.11 177 2.11 160 2.11
[...]
 190  0.900  0.300  0.503-  92 2.11  91 2.11  11 2.11  96 2.11  90 2.11
 191  0.800  0.300  0.407-  70 2.11  89 2.11  90 2.11  93 2.11  91 2.11
 192  0.900  0.200  0.407-  90 2.11  86 2.11  89 2.11   9 2.11  92 2.11
 193  0.800  0.400  0.503-  76 2.11  91 2.11  95 2.11  96 2.11  93 2.11
 194  0.900  0.500  0.503-  15 2.11  95 2.11  96 2.11 100 2.11  94 2.11
 195  0.800  0.500  0.407-  74 2.11  93 2.11  94 2.11  97 2.11  95 2.11
 196  0.900  0.400  0.407-  13 2.11  90 2.11  93 2.11  94 2.11  96 2.11
 197  0.800  0.600  0.503-  80 2.11  95 2.11  99 2.11 100 2.11  97 2.11
 198  0.900  0.700  0.503- 104 2.11  99 2.11 100 2.11  19 2.11  98 2.11
 199  0.800  0.700  0.407-  78 2.11 101 2.11  98 2.11  97 2.11  99 2.11
 200  0.900  0.600  0.407-  17 2.11  94 2.11  97 2.11  98 2.11 100 2.11
 201  0.800  0.800  0.503-  84 2.11  99 2.11 103 2.11 104 2.11 101 2.11
 202  0.900  0.900  0.503-  23 2.11  88 2.11 103 2.11 104 2.11 102 2.11
 203  0.800  0.900  0.407-  82 2.11  85 2.11 101 2.11 102 2.11 103 2.11
 204  0.900  0.800  0.407-  98 2.11  21 2.11 101 2.11 102 2.11 104 2.11

  LATTYP: Found a simple tetragonal cell.
 ALAT       =    21.1388521970
 C/A-ratio  =     1.0461251639

  Lattice vectors:

 A1 = (  21.1388521970,   0.0000000000,   0.0000000000)
 A2 = (   0.0000000000,  21.1388521970,   0.0000000000)
 A3 = (   0.0000000000,   0.0000000000,  22.1138852197)

Analysis of symmetry for initial positions (statically):
 Subroutine PRICEL returns:
 Original cell was already a primitive cell.

 Routine SETGRP: Setting up the symmetry group for a
 simple tetragonal supercell.

 Subroutine GETGRP returns: Found  1 space group operations
 (whereof  1 operations were pure point group operations)
 out of a pool of 16 trial point group operations.

The static configuration has the point symmetry C_1 .

Analysis of symmetry for dynamics (positions and initial velocities):
 Subroutine PRICEL returns:
 Original cell was already a primitive cell.

[...]

The dynamic configuration has the point symmetry C_1 .

Analysis of constrained symmetry for selective dynamics:
 Subroutine PRICEL returns:
 Original cell was already a primitive cell.

 Routine SETGRP: Setting up the symmetry group for a
 simple tetragonal supercell.

 Subroutine GETGRP returns: Found  1 space group operations
 (whereof  1 operations were pure point group operations)
 out of a pool of 16 trial point group operations.

The constrained configuration has the point symmetry C_1 .

 Subroutine INISYM returns: Found  1 space group operations
 (whereof  1 operations are pure point group operations),
 and found     1 'primitive' translations

[...]
     52     -43.5740      2.00000
     53     -43.5728      2.00000
     54     -43.5704      2.00000
     55     -43.5701      2.00000
     56     -43.5698      2.00000
     57     -43.5695      2.00000
     58     -43.5661      2.00000
     59     -43.5658      2.00000
     60     -43.5645      2.00000
[...]
    946       5.5395      0.00000
    947       5.5561      0.00000
    948       5.5749      0.00000
    949       5.5863      0.00000
    950       5.5967      0.00000
    951       5.6005      0.00000
    952       5.6122      0.00000
    953       5.6364      0.00000
    954       5.6537      0.00000
    955       5.7007      0.00000
    956       5.7988      0.00000
    957       5.8956      0.00000
    958       6.0066      0.00000
    959       6.1330      0.00000
    960       6.2433      0.00000

 soft charge-density along one line, spin component           1
         0         1         2         3         4         5         6         7         8         9
 total charge-density along one line

------------------------ aborting loop because EDIFF is reached ----------------------------------------

  FORCE on cell =-STRESS in cart. coord.  units (eV):
  Direction    XX          YY          ZZ          XY          YZ          ZX
  Alpha Z  1401.13727  1401.13727  1401.13727
  Ewald  477666.07547479799.93693************     3.84227   439.22239     3.11972
  Hartree507157.16278508890.33780************     3.07982   355.35710     2.35913
  E(xc)   -8094.56462 -8093.29496 -8109.54881     0.00253     0.39725     0.00394
  Local  ************************************    -6.90253  -792.72459    -5.44588
  n-local -8802.15833 -8803.05230 -8919.07488    -0.00013    -0.17201    -0.00797
  augment  3749.81645  3747.07016  3691.13768    -0.00595    -0.51697    -0.00529
  Kinetic 23312.13017 23305.99009 23512.54204    -0.01029    -1.05107    -0.02415
  Fock        0.00000     0.00000     0.00000     0.00000     0.00000     0.00000
  Total    -118.67223  -117.17708    40.84852     0.00572     0.51210    -0.00051
  in kB     -19.24119   -18.99877     6.62307     0.00093     0.08303    -0.00008

 VOLUME and BASIS-vectors are now :
  energy-cutoff  :      520.00
  volume of cell :     9881.61
      direct lattice vectors                 reciprocal lattice vectors
    21.138852197  0.000000000  0.000000000     0.047306258  0.000000000  0.000000000
     0.000000000 21.138852197  0.000000000     0.000000000  0.047306258  0.000000000
     0.000000000  0.000000000 22.113885220     0.000000000  0.000000000  0.045220457

  length of vectors
    21.138852197 21.138852197 22.113885220     0.047306258  0.047306258  0.045220457

 FORCES acting on ions:
    Electron-Ion                     Ewald-Force                    Non-Local-Force
   0.592E+00 0.380E+03 -.193E+04   -.587E+00 -.376E+03 0.193E+04   -.542E-02 -.400E+01 -.395E+01
   0.161E+00 0.207E+03 -.196E+04   -.167E+00 -.207E+03 0.196E+04   0.672E-02 0.356E+00 0.620E+01
   -.148E+01 -.387E+03 -.180E+04   0.146E+01 0.384E+03 0.179E+04   0.237E-01 0.415E+01 0.461E+01
   0.686E+00 -.198E+03 -.176E+04   -.677E+00 0.199E+03 0.176E+04   -.110E-01 -.476E+00 -.377E+01
   0.711E+01 -.266E+01 0.936E+03   -.712E+01 0.267E+01 -.929E+03   0.115E-01 -.706E-02 -.682E+01
   0.128E+02 0.613E+01 0.939E+03   -.128E+02 -.614E+01 -.932E+03   0.224E-01 0.844E-02 -.683E+01
   0.932E+01 0.530E+01 -.917E+03   -.933E+01 -.530E+01 0.910E+03   0.865E-02 -.641E-03 0.675E+01
   0.155E+02 -.503E+01 -.914E+03   -.155E+02 0.504E+01 0.908E+03   0.116E-01 -.936E-02 0.674E+01
   0.955E+01 0.983E+01 0.938E+03   -.957E+01 -.985E+01 -.931E+03   0.197E-01 0.100E-01 -.683E+01
   0.248E+02 0.182E+02 0.949E+03   -.249E+02 -.183E+02 -.942E+03   0.749E-01 0.320E-01 -.685E+01
   0.181E+02 0.157E+02 -.912E+03   -.181E+02 -.157E+02 0.905E+03   0.161E-01 0.809E-02 0.674E+01
   0.235E+02 0.199E+02 -.911E+03   -.235E+02 -.199E+02 0.904E+03   0.299E-01 0.909E-02 0.674E+01
   0.168E+02 0.959E+01 0.944E+03   -.169E+02 -.960E+01 -.937E+03   0.422E-01 0.149E-01 -.684E+01
   0.383E+02 0.456E+01 0.961E+03   -.385E+02 -.459E+01 -.954E+03   0.145E+00 0.200E-01 -.686E+01
   0.281E+02 0.416E+01 -.906E+03   -.281E+02 -.417E+01 0.900E+03   0.301E-01 0.792E-02 0.673E+01
   0.527E+02 0.223E+02 -.896E+03   -.527E+02 -.223E+02 0.889E+03   0.529E-01 0.191E-01 0.671E+01
   0.186E+02 -.489E+01 0.946E+03   -.186E+02 0.489E+01 -.939E+03   0.580E-01 -.118E-02 -.684E+01
   0.302E+02 -.166E+02 0.954E+03   -.304E+02 0.166E+02 -.947E+03   0.121E+00 -.303E-01 -.685E+01
   0.226E+02 -.139E+02 -.909E+03   -.226E+02 0.140E+02 0.902E+03   0.317E-01 -.543E-02 0.674E+01
   0.606E+02 -.119E+02 -.890E+03   -.608E+02 0.119E+02 0.884E+03   0.111E+00 0.390E-02 0.671E+01
   0.118E+02 -.119E+02 0.940E+03   -.118E+02 0.119E+02 -.933E+03   0.318E-01 -.167E-01 -.683E+01
   0.152E+02 -.124E+02 0.941E+03   -.152E+02 0.124E+02 -.934E+03   0.324E-01 -.301E-01 -.683E+01
   0.114E+02 -.112E+02 -.915E+03   -.114E+02 0.112E+02 0.908E+03   0.129E-01 -.994E-02 0.675E+01
   0.319E+02 -.252E+02 -.905E+03   -.319E+02 0.253E+02 0.898E+03   0.522E-01 -.227E-01 0.673E+01
   0.130E+02 -.502E+01 0.942E+03   -.130E+02 0.505E+01 -.935E+03   0.195E-01 -.176E-01 -.683E+01
   0.925E+01 0.123E+02 0.947E+03   -.927E+01 -.124E+02 -.940E+03   0.168E-01 0.471E-01 -.684E+01
   0.184E+02 0.130E+02 -.910E+03   -.184E+02 -.130E+02 0.904E+03   0.155E-01 0.172E-01 0.674E+01
   0.114E+02 -.101E+02 -.907E+03   -.114E+02 0.101E+02 0.900E+03   0.650E-02 -.106E-01 0.673E+01
   0.199E+02 0.221E+02 0.950E+03   -.200E+02 -.222E+02 -.943E+03   0.567E-01 0.606E-01 -.684E+01
   0.252E+02 0.442E+02 0.983E+03   -.254E+02 -.445E+02 -.976E+03   0.147E+00 0.217E+00 -.685E+01
   0.539E+02 0.495E+02 -.886E+03   -.541E+02 -.495E+02 0.879E+03   0.132E+00 0.231E-01 0.669E+01
   0.231E+02 0.522E+02 -.893E+03   -.231E+02 -.523E+02 0.886E+03   0.237E-01 0.127E+00 0.671E+01
   0.454E+02 0.249E+02 0.980E+03   -.457E+02 -.250E+02 -.973E+03   0.259E+00 0.838E-01 -.692E+01
   0.487E+02 0.112E+02 0.104E+04   -.492E+02 -.113E+02 -.103E+04   0.358E+00 0.120E+00 -.689E+01
   0.110E+03 0.140E+02 -.845E+03   -.111E+03 -.141E+02 0.838E+03   0.278E+00 0.524E-01 0.663E+01
   0.118E+03 0.915E+02 -.769E+03   -.120E+03 -.917E+02 0.763E+03   0.106E+01 0.182E+00 0.644E+01
   0.515E+02 -.143E+02 0.988E+03   -.519E+02 0.144E+02 -.981E+03   0.386E+00 -.247E-01 -.692E+01
   0.327E+02 -.435E+02 0.100E+04   -.330E+02 0.439E+02 -.996E+03   0.255E+00 -.281E+00 -.682E+01
   0.739E+02 -.493E+02 -.868E+03   -.742E+02 0.493E+02 0.861E+03   0.254E+00 -.426E-01 0.667E+01
   0.146E+03 -.566E+02 -.727E+03   -.149E+03 0.566E+02 0.720E+03   0.202E+01 -.576E-01 0.673E+01
   0.261E+02 -.276E+02 0.958E+03   -.262E+02 0.278E+02 -.951E+03   0.943E-01 -.101E+00 -.685E+01
   0.116E+02 -.244E+02 0.953E+03   -.116E+02 0.245E+02 -.946E+03   0.218E-01 -.110E+00 -.686E+01
   0.242E+02 -.275E+02 -.905E+03   -.242E+02 0.276E+02 0.898E+03   0.149E-01 -.508E-01 0.673E+01
   0.359E+02 -.731E+02 -.869E+03   -.359E+02 0.734E+02 0.863E+03   0.255E-02 -.265E+00 0.666E+01
   0.249E-01 -.702E+01 0.947E+03   -.247E-01 0.705E+01 -.940E+03   -.119E-03 -.232E-01 -.684E+01
   -.921E+01 0.123E+02 0.947E+03   0.924E+01 -.124E+02 -.940E+03   -.169E-01 0.471E-01 -.684E+01
   0.304E-01 0.213E+02 -.905E+03   -.303E-01 -.214E+02 0.898E+03   -.112E-03 0.446E-01 0.673E+01
   -.114E+02 -.102E+02 -.907E+03   0.114E+02 0.102E+02 0.900E+03   -.672E-02 -.104E-01 0.673E+01
   0.300E-01 0.351E+02 0.962E+03   -.299E-01 -.354E+02 -.955E+03   -.115E-03 0.215E+00 -.688E+01
   -.251E+02 0.443E+02 0.983E+03   0.253E+02 -.446E+02 -.976E+03   -.147E+00 0.217E+00 -.685E+01
   0.107E+00 0.125E+03 -.824E+03   -.107E+00 -.126E+03 0.817E+03   -.349E-03 0.106E+01 0.675E+01
   -.230E+02 0.522E+02 -.893E+03   0.230E+02 -.524E+02 0.886E+03   -.240E-01 0.126E+00 0.671E+01
   0.862E-01 0.467E+02 0.104E+04   -.858E-01 -.471E+02 -.103E+04   -.291E-03 0.324E+00 -.577E+01
   -.486E+02 0.112E+02 0.104E+04   0.490E+02 -.114E+02 -.103E+04   -.359E+00 0.120E+00 -.689E+01
   0.463E+00 0.320E+02 -.582E+03   -.463E+00 -.334E+02 0.577E+03   -.282E-03 0.110E+01 0.513E+01
   -.118E+03 0.917E+02 -.769E+03   0.120E+03 -.919E+02 0.762E+03   -.106E+01 0.182E+00 0.644E+01
   0.139E+00 -.290E+02 0.106E+04   -.137E+00 0.291E+02 -.106E+04   -.105E-02 -.125E+00 -.468E+01
   -.326E+02 -.436E+02 0.100E+04   0.329E+02 0.440E+02 -.996E+03   -.256E+00 -.281E+00 -.682E+01
   0.330E+00 -.146E+03 -.755E+03   -.328E+00 0.148E+03 0.748E+03   -.160E-02 -.199E+01 0.659E+01
   -.146E+03 -.566E+02 -.726E+03   0.149E+03 0.567E+02 0.719E+03   -.202E+01 -.591E-01 0.673E+01
[...]
   -.986E+01 0.905E+01 0.708E+03   0.988E+01 -.906E+01 -.712E+03   -.263E-01 0.177E-01 0.355E+01
   -.162E-01 0.628E+01 0.704E+03   0.161E-01 -.628E+01 -.708E+03   0.109E-03 0.829E-02 0.356E+01
   -.183E+02 0.959E+01 -.684E+03   0.183E+02 -.960E+01 0.688E+03   -.239E-01 0.136E-01 -.368E+01
   -.495E-01 0.250E+01 -.685E+03   0.493E-01 -.250E+01 0.689E+03   0.265E-03 0.770E-02 -.368E+01
   -.144E+02 0.227E+01 0.712E+03   0.144E+02 -.228E+01 -.716E+03   -.432E-01 0.123E-01 0.354E+01
   -.282E-01 0.600E+01 0.708E+03   0.281E-01 -.601E+01 -.712E+03   0.189E-03 0.130E-01 0.355E+01
   -.207E+02 -.480E+01 -.682E+03   0.207E+02 0.480E+01 0.686E+03   -.334E-01 0.178E-02 -.369E+01
   -.472E-01 -.830E+01 -.686E+03   0.470E-01 0.830E+01 0.690E+03   0.280E-03 -.581E-02 -.367E+01
   -.118E+02 -.796E+01 0.710E+03   0.118E+02 0.797E+01 -.714E+03   -.401E-01 -.158E-01 0.355E+01
   -.356E-01 -.299E+01 0.709E+03   0.354E-01 0.299E+01 -.713E+03   0.256E-03 -.481E-03 0.355E+01
   -.123E+02 -.116E+02 -.686E+03   0.123E+02 0.116E+02 0.691E+03   -.224E-01 -.152E-01 -.367E+01
   -.261E-01 -.701E+01 -.690E+03   0.259E-01 0.702E+01 0.694E+03   0.171E-03 -.988E-02 -.366E+01
   -.654E+01 -.655E+01 0.705E+03   0.655E+01 0.656E+01 -.709E+03   -.188E-01 -.175E-01 0.355E+01
   -.259E-01 -.754E+01 0.706E+03   0.257E-01 0.755E+01 -.710E+03   0.203E-03 -.144E-01 0.355E+01
   -.235E-01 -.673E-01 0.724E+00   0.702E-12 0.682E-12 0.200E-10   0.285E-01 0.681E-01 -.170E+01

 POSITION                                       TOTAL-FORCE (eV/Angst)
      8.45714      9.05883     13.49759        -0.000779     -0.284427      0.148356
      8.46060     10.81262     15.42040         0.001426     -0.219853      0.480353
      8.46768     13.55697     15.76553         0.003562      0.396598      0.328892
      8.45984     12.47141     13.36585        -0.001221      0.130364     -0.020058
      0.00000      0.00000      9.00000        -0.003210      0.001940      0.169151
      2.11389      2.11389      9.00000        -0.006240     -0.002412      0.170049
      0.00000      2.11389     11.11389        -0.002291      0.000181     -0.148362
      2.11389      0.00000     11.11389        -0.003169      0.002426     -0.146578
      0.00000      4.22777      9.00000        -0.005295     -0.002800      0.170106
      2.11389      6.34166      9.00000        -0.019980     -0.008791      0.174294
      0.00000      6.34166     11.11389        -0.003857     -0.002101     -0.144405
      2.11389      4.22777     11.11389        -0.007517     -0.002266     -0.142470
      0.00000      8.45554      9.00000        -0.011326     -0.004191      0.172082
      2.11389     10.56943      9.00000        -0.038724     -0.005958      0.177846
      0.00000     10.56943     11.11389        -0.007106     -0.002300     -0.140696
      2.11389      8.45554     11.11389        -0.010927     -0.004908     -0.128342
      0.00000     12.68331      9.00000        -0.015264      0.000279      0.172559
      2.11389     14.79720      9.00000        -0.032279      0.008804      0.174959
      0.00000     14.79720     11.11389        -0.007794      0.001485     -0.142933
      2.11389     12.68331     11.11389        -0.025431     -0.001339     -0.126429
      0.00000     16.91108      9.00000        -0.008553      0.004724      0.170492
      2.11389     19.02497      9.00000        -0.009051      0.008352      0.170409
      0.00000     19.02497     11.11389        -0.003379      0.002719     -0.147476
      2.11389     16.91108     11.11389        -0.012942      0.006073     -0.138719
      4.22777      0.00000      9.00000        -0.005499      0.004659      0.171387
      6.34166      2.11389      9.00000        -0.004915     -0.012616      0.172827
      4.22777      2.11389     11.11389        -0.004220     -0.004217     -0.142593
      6.34166      0.00000     11.11389        -0.001728      0.002334     -0.140491
      4.22777      4.22777      9.00000        -0.016176     -0.017103      0.172013
      6.34166      6.34166      9.00000        -0.048855     -0.066179      0.163254
      4.22777      6.34166     11.11389        -0.031081     -0.003288     -0.113121
      6.34166      4.22777     11.11389        -0.006997     -0.030923     -0.124505
      4.22777      8.45554      9.00000        -0.068127     -0.023364      0.187687
      6.34166     10.56943      9.00000        -0.119699     -0.039543      0.146405
      4.22777     10.56943     11.11389        -0.067800     -0.017227     -0.077072
      6.34166      8.45554     11.11389        -0.370901     -0.037976     -0.049674
      4.22777     12.68331      9.00000        -0.098161      0.006441      0.186369
      6.34166     14.79720      9.00000        -0.084549      0.091231      0.147972
      4.22777     14.79720     11.11389        -0.061847      0.011560     -0.102579
      6.34166     12.68331     11.11389        -0.714854      0.022954     -0.221505
      4.22777     16.91108      9.00000        -0.027197      0.028971      0.172276
      6.34166     19.02497      9.00000        -0.006232      0.028842      0.176468
      4.22777     19.02497     11.11389        -0.003927      0.012449     -0.137810
      6.34166     16.91108     11.11389         0.001752      0.062324     -0.095150
      8.45554      0.00000      9.00000         0.000012      0.006165      0.173210
     10.56943      2.11389      9.00000         0.004916     -0.012624      0.172833
      8.45554      2.11389     11.11389         0.000014     -0.010272     -0.137493
     10.56943      0.00000     11.11389         0.001734      0.002296     -0.140469
      8.45554      4.22777      9.00000         0.000017     -0.054853      0.178690
     10.56943      6.34166      9.00000         0.048874     -0.066151      0.163308
      8.45554      6.34166     11.11389         0.000083     -0.338919     -0.124558
     10.56943      4.22777     11.11389         0.007014     -0.030859     -0.124477
      8.45554      8.45554      9.00000         0.000070     -0.074391     -0.076914
     10.56943     10.56943      9.00000         0.119782     -0.039394      0.146331
      8.45554     10.56943     11.11389        -0.000553     -0.297140     -0.293060
     10.56943      8.45554     11.11389         0.371447     -0.038104     -0.049533
      8.45554     12.68331      9.00000         0.000306      0.025339     -0.302683
     10.56943     14.79720      9.00000         0.084675      0.091131      0.148249
      8.45554     14.79720     11.11389         0.000460      0.661510     -0.087360
     10.56943     12.68331     11.11389         0.717586      0.023803     -0.222854
[...]
     19.02497      6.34166     11.11389         0.000020      0.002314      0.534301
     16.91108      6.34166      9.00000        -0.007388      0.004953     -0.560263
     19.02497      4.22777      9.00000         0.000003      0.002325     -0.558620
     16.91108      8.45554     11.11389        -0.006713      0.003760      0.529428
     19.02497     10.56943     11.11389         0.000047      0.002133      0.531803
     16.91108     10.56943      9.00000        -0.012076      0.003385     -0.561769
     19.02497      8.45554      9.00000         0.000031      0.003640     -0.560004
     16.91108     12.68331     11.11389        -0.009365      0.000471      0.528328
     19.02497     14.79720     11.11389         0.000050     -0.001628      0.533173
     16.91108     14.79720      9.00000        -0.011156     -0.004426     -0.560561
     19.02497     12.68331      9.00000         0.000042     -0.000167     -0.560115
     16.91108     16.91108     11.11389        -0.006242     -0.004251      0.533053
     19.02497     19.02497     11.11389         0.000018     -0.002755      0.536393
     16.91108     19.02497      9.00000        -0.005236     -0.004867     -0.558662
     19.02497     16.91108      9.00000         0.000037     -0.004021     -0.558878
    total drift:                                0.005019      0.000815     -0.972864

  FREE ENERGIE OF THE ION-ELECTRON SYSTEM (eV)
  free  energy   TOTEN  =      -676.69358308 eV

  energy  without entropy=     -676.69358308  energy(sigma->0) =     -676.69358308