 vasp.6.3.0 20Jan22 (build Apr  1 2022 16:44:48) complex
 executed on        HPECrayEX_GCC date 2022.08.15  17:35:30

 INCAR:
   SYSTEM = MgO-rocksalt
   ISMEAR = 0
   SIGMA = 0.05
   EDIFF = 1E-6
   ALGO = ALL
   ISTART = 0
   IBRION = -1
   NSW = 0
   ISYM = 2
   DIPOL = 0.5 0.5 0.5
   IDIPOL = 3
   LDIPOL = .TRUE.
   GGA = PE
   IVDW = 20
   ENCUT = 520
   PREC = Accurate
   LASPH = .TRUE.
   LREAL = Auto
   ISPIN = 1
   NELM = 200
   NELMIN = 8
   NCORE = 4
   KPAR = 2
   LWAVE = .FALSE.
   LCHARG = .FALSE.

 POTCAR:    PAW_PBE Ag 02Apr2005
 POTCAR:    PAW_PBE Mg_pv 13Apr2007
 POTCAR:    PAW_PBE O 08Apr2002
 POTCAR:    PAW_PBE Ag 02Apr2005
   VRHFIN =Ag : s1 d10

   TITEL  = PAW_PBE Ag 02Apr2005
   POMASS =  107.868; ZVAL   =   11.000    mass and valenz
   ENMAX  =  249.844; ENMIN  =  187.383 eV

   TITEL  = PAW_PBE Mg_pv 13Apr2007
   POMASS =   24.305; ZVAL   =    8.000    mass and valenz
   ENMAX  =  403.929; ENMIN  =  302.947 eV

   TITEL  = PAW_PBE O 08Apr2002
   POMASS =   16.000; ZVAL   =    6.000    mass and valenz
   ENMAX  =  400.000; ENMIN  =  300.000 eV

 Optimization of the real space projectors (new method)

 maximal supplied QI-value         = 15.12
 optimisation between [QCUT,QGAM] = [ 11.64, 23.28] = [ 37.95,151.78] Ry
 Optimized for a Real-space Cutoff    1.45 Angstroem

   l    n(q)    QCUT    max X(q) W(low)/X(q) W(high)/X(q)  e(spline)
   2      9    11.641    53.897    0.22E-03    0.42E-04    0.28E-06
   2      9    11.641    52.416    0.23E-03    0.44E-04    0.29E-06
   0     10    11.641   122.045    0.51E-04    0.25E-04    0.16E-06
   0     10    11.641    73.629    0.49E-04    0.24E-04    0.16E-06
   1     10    11.641    15.255    0.99E-04    0.55E-04    0.11E-06
   1     10    11.641     9.562    0.81E-04    0.47E-04    0.95E-07
 Optimization of the real space projectors (new method)

[...]

   l    n(q)    QCUT    max X(q) W(low)/X(q) W(high)/X(q)  e(spline)
   1      8    11.527     2.974    0.44E-04    0.56E-04    0.12E-06
   1      8    11.527     4.279    0.12E-03    0.12E-03    0.26E-06
   0      9    11.527    16.381    0.46E-04    0.64E-04    0.78E-07
   0      9    11.527     5.611    0.26E-04    0.43E-04    0.55E-07
   2      8    11.527     4.652    0.22E-03    0.72E-04    0.47E-07
 Optimization of the real space projectors (new method)

 maximal supplied QI-value         = 24.76
 optimisation between [QCUT,QGAM] = [ 11.64, 23.27] = [ 37.91,151.63] Ry
 Optimized for a Real-space Cutoff    1.14 Angstroem

   l    n(q)    QCUT    max X(q) W(low)/X(q) W(high)/X(q)  e(spline)
   0      8    11.635    20.381    0.10E-03    0.33E-03    0.24E-06
   0      8    11.635    15.268    0.11E-03    0.35E-03    0.26E-06
   1      7    11.635     5.964    0.24E-03    0.31E-03    0.30E-06
   1      7    11.635     5.382    0.22E-03    0.25E-03    0.26E-06
  PAW_PBE Ag 02Apr2005                  :
  PAW_PBE Mg_pv 13Apr2007               :
  PAW_PBE O 08Apr2002                   :

 POSCAR: Ag Mg  O
  positions in direct lattice
 exchange correlation table for  LEXCH =        8
   RHO(1)=    0.500       N(1)  =     2000
   RHO(2)=  100.500       N(2)  =     4000

 ion  position               nearest neighbor table
   1  0.543  0.557  0.623-   2 2.59  58 2.97
   2  0.457  0.643  0.623-   1 2.59  58 2.97
   3  0.000  0.000  0.407- 105 2.11 106 2.11 121 2.11 186 2.11 103 2.11
   4  0.100  0.100  0.407- 105 2.11 106 2.11 110 2.11 125 2.11 104 2.11
   5  0.000  0.100  0.503- 103 2.11 104 2.11 107 2.11 184 2.11 105 2.11
   6  0.100  0.000  0.503- 103 2.11 104 2.11 120 2.11 123 2.11 106 2.11
   7  0.000  0.200  0.407- 109 2.11 105 2.11 110 2.11 190 2.11 107 2.11
   8  0.100  0.300  0.407- 110 2.11 109 2.11 114 2.11 129 2.11 108 2.11
   9  0.000  0.300  0.503- 107 2.11 108 2.11 111 2.11 188 2.11 109 2.11
  10  0.100  0.200  0.503- 108 2.11 107 2.11 104 2.11 127 2.11 110 2.11
  11  0.000  0.400  0.407- 109 2.11 113 2.11 114 2.11 194 2.11 111 2.11
  12  0.100  0.500  0.407- 113 2.11 114 2.11 118 2.11 133 2.11 112 2.11
  13  0.000  0.500  0.503- 111 2.11 112 2.11 115 2.11 192 2.11 113 2.11
  14  0.100  0.400  0.503- 108 2.11 111 2.11 112 2.11 131 2.11 114 2.11
  15  0.000  0.600  0.407- 113 2.11 117 2.11 118 2.11 198 2.11 115 2.11
  16  0.100  0.700  0.407- 122 2.11 118 2.11 117 2.11 137 2.11 116 2.11
  17  0.000  0.700  0.503- 119 2.11 116 2.11 115 2.11 196 2.11 117 2.11
  18  0.100  0.600  0.503- 112 2.11 115 2.11 116 2.11 135 2.11 118 2.11
  19  0.000  0.800  0.407- 117 2.11 121 2.11 122 2.11 202 2.11 119 2.11
  20  0.100  0.900  0.407- 106 2.11 121 2.11 122 2.11 141 2.11 120 2.11
  21  0.000  0.900  0.503- 103 2.11 119 2.11 120 2.11 200 2.11 121 2.11
  22  0.100  0.800  0.503- 116 2.11 119 2.11 120 2.11 139 2.11 122 2.11
  23  0.200  0.000  0.407- 126 2.11 125 2.11 106 2.11 141 2.11 123 2.11
  24  0.300  0.100  0.407- 125 2.11 126 2.11 130 2.11 145 2.11 124 2.11
  25  0.200  0.100  0.503- 124 2.11 123 2.11 104 2.11 127 2.11 125 2.11
  26  0.300  0.000  0.503- 123 2.11 124 2.11 140 2.11 143 2.11 126 2.11
  27  0.200  0.200  0.407- 129 2.11 130 2.11 110 2.11 125 2.11 127 2.11
  28  0.300  0.300  0.407- 129 2.11 130 2.11 134 2.11 149 2.11 128 2.11
  29  0.200  0.300  0.503- 127 2.11 128 2.11 108 2.11 131 2.11 129 2.11
  30  0.300  0.200  0.503- 127 2.11 128 2.11 124 2.11 147 2.11 130 2.11
  31  0.200  0.400  0.407- 134 2.11 129 2.11 133 2.11 114 2.11 131 2.11
  32  0.300  0.500  0.407- 133 2.11 134 2.11 138 2.11 153 2.11 132 2.11
  33  0.200  0.500  0.503- 132 2.11 131 2.11 112 2.11 135 2.11 133 2.11
  34  0.300  0.400  0.503- 131 2.11 128 2.11 132 2.11 151 2.11 134 2.11
  35  0.200  0.600  0.407- 138 2.11 133 2.11 137 2.11 118 2.11 135 2.11
  36  0.300  0.700  0.407- 137 2.11 142 2.11 138 2.11 157 2.11 136 2.11
  37  0.200  0.700  0.503- 136 2.11 139 2.11 116 2.11 135 2.11 137 2.11
  38  0.300  0.600  0.503- 135 2.11 132 2.11 136 2.11 155 2.11 138 2.11
  39  0.200  0.800  0.407- 137 2.11 142 2.11 141 2.11 122 2.11 139 2.11
  40  0.300  0.900  0.407- 141 2.11 126 2.11 142 2.11 161 2.11 140 2.11
  41  0.200  0.900  0.503- 140 2.11 123 2.11 139 2.11 120 2.11 141 2.11
  42  0.300  0.800  0.503- 136 2.11 139 2.11 140 2.11 159 2.11 142 2.11
  43  0.400  0.000  0.407- 126 2.11 145 2.11 146 2.11 161 2.11 143 2.11
  44  0.500  0.100  0.407- 145 2.11 146 2.11 150 2.11 165 2.11 144 2.11
  45  0.400  0.100  0.503- 124 2.11 143 2.11 144 2.11 147 2.11 145 2.11
  46  0.500  0.000  0.503- 143 2.11 144 2.11 160 2.11 163 2.11 146 2.11
  47  0.400  0.200  0.407- 149 2.11 145 2.11 130 2.11 150 2.11 147 2.11
  48  0.500  0.300  0.407- 150 2.11 149 2.11 154 2.11 169 2.11 148 2.11
  49  0.400  0.300  0.503- 147 2.11 128 2.11 148 2.11 151 2.11 149 2.11
  50  0.500  0.200  0.503- 148 2.11 147 2.11 144 2.11 167 2.11 150 2.11
  51  0.400  0.400  0.407- 134 2.11 149 2.11 153 2.11 154 2.11 151 2.11
  52  0.500  0.500  0.407- 153 2.11 154 2.11 158 2.11 173 2.11 152 2.11
  53  0.400  0.500  0.503- 132 2.11 151 2.11 152 2.11 155 2.11 153 2.11
  54  0.500  0.400  0.503- 148 2.11 151 2.11 152 2.11 171 2.11 154 2.11
  55  0.400  0.600  0.407- 138 2.11 153 2.11 157 2.11 158 2.11 155 2.11
  56  0.500  0.700  0.407- 162 2.11 158 2.11 157 2.11 177 2.11 156 2.11
  57  0.400  0.700  0.503- 159 2.11 155 2.11 156 2.11 136 2.11 157 2.11
  58  0.500  0.600  0.503- 152 2.11 155 2.11 156 2.11 175 2.11 158 2.11   2 2.97   1 2.97
  59  0.400  0.800  0.407- 157 2.11 142 2.11 161 2.11 162 2.11 159 2.11
  60  0.500  0.900  0.407- 146 2.11 161 2.11 162 2.11 181 2.11 160 2.11
[...]
 188  0.900  0.300  0.503-  90 2.11  89 2.11   9 2.11  94 2.11  88 2.11
 189  0.800  0.300  0.407-  68 2.11  87 2.11  88 2.11  91 2.11  89 2.11
 190  0.900  0.200  0.407-  88 2.11  84 2.11  87 2.11   7 2.11  90 2.11
 191  0.800  0.400  0.503-  74 2.11  89 2.11  93 2.11  94 2.11  91 2.11
 192  0.900  0.500  0.503-  13 2.11  93 2.11  94 2.11  98 2.11  92 2.11
 193  0.800  0.500  0.407-  72 2.11  91 2.11  92 2.11  95 2.11  93 2.11
 194  0.900  0.400  0.407-  11 2.11  88 2.11  91 2.11  92 2.11  94 2.11
 195  0.800  0.600  0.503-  78 2.11  93 2.11  97 2.11  98 2.11  95 2.11
 196  0.900  0.700  0.503- 102 2.11  97 2.11  98 2.11  17 2.11  96 2.11
 197  0.800  0.700  0.407-  76 2.11  99 2.11  96 2.11  95 2.11  97 2.11
 198  0.900  0.600  0.407-  15 2.11  92 2.11  95 2.11  96 2.11  98 2.11
 199  0.800  0.800  0.503-  82 2.11  97 2.11 101 2.11 102 2.11  99 2.11
 200  0.900  0.900  0.503-  21 2.11  86 2.11 101 2.11 102 2.11 100 2.11
 201  0.800  0.900  0.407-  80 2.11  83 2.11  99 2.11 100 2.11 101 2.11
 202  0.900  0.800  0.407-  96 2.11  19 2.11  99 2.11 100 2.11 102 2.11

  LATTYP: Found a simple tetragonal cell.
 ALAT       =    21.1388521970
 C/A-ratio  =     1.0461251639

  Lattice vectors:

 A1 = (  21.1388521970,   0.0000000000,   0.0000000000)
 A2 = (   0.0000000000,  21.1388521970,   0.0000000000)
 A3 = (   0.0000000000,   0.0000000000,  22.1138852197)

Analysis of symmetry for initial positions (statically):
 Subroutine PRICEL returns:
 Original cell was already a primitive cell.

 Routine SETGRP: Setting up the symmetry group for a
 simple tetragonal supercell.

 Subroutine GETGRP returns: Found  4 space group operations
 (whereof  1 operations were pure point group operations)
 out of a pool of 16 trial point group operations.

The static configuration has the point symmetry C_1 .
 The point group associated with its full space group is C_2v.

Analysis of symmetry for dynamics (positions and initial velocities):
 Subroutine PRICEL returns:
 Original cell was already a primitive cell.

 Routine SETGRP: Setting up the symmetry group for a
 simple tetragonal supercell.

 Subroutine GETGRP returns: Found  4 space group operations
 (whereof  1 operations were pure point group operations)
 out of a pool of 16 trial point group operations.

The dynamic configuration has the point symmetry C_1 .
 The point group associated with its full space group is C_2v.

 Subroutine INISYM returns: Found  4 space group operations
 (whereof  1 operations are pure point group operations),
 and found     1 'primitive' translations

                                     Primitive cell

  volume of cell :    9881.6133

  direct lattice vectors                    reciprocal lattice vectors
    21.138852197  0.000000000  0.000000000     0.047306258  0.000000000  0.000000000
     0.000000000 21.138852197  0.000000000     0.000000000  0.047306258  0.000000000
     0.000000000  0.000000000 22.113885220     0.000000000  0.000000000  0.045220457

  length of vectors
    21.138852197 21.138852197 22.113885220     0.047306258  0.047306258  0.045220457

  position of ions in fractional coordinates (direct lattice)
     0.543264150  0.556735814  0.623371474
     0.456735850  0.643264114  0.623371474
     0.000000000  0.000000000  0.406984115
     0.100000000  0.100000000  0.406984115
     0.000000000  0.100000000  0.502574971
     0.100000000  0.000000000  0.502574971
     0.000000000  0.200000000  0.406984115
     0.100000000  0.300000000  0.406984115
     0.000000000  0.300000000  0.502574971
     0.100000000  0.200000000  0.502574971
     0.000000000  0.400000000  0.406984115
     0.100000000  0.500000000  0.406984115
     0.000000000  0.500000000  0.502574971
[...]
   O          14.772          3.165          5.255          0.97309903
   O          14.773          3.165          5.255          0.97314142
   O          14.767          3.165          5.254          0.97292410
   O          14.767          3.165          5.254          0.97294416
   O          14.774          3.165          5.255          0.97316446
   O          14.774          3.165          5.255          0.97315059
   O          14.765          3.165          5.254          0.97288011
   O          14.769          3.165          5.254          0.97298653
   O          14.774          3.165          5.255          0.97315488
   O          14.774          3.165          5.255          0.97315408

  vdW correction parametrized for the method pbe

  IVDW =  20
  VDW_RADIUS =    50.000 A
  VDW_IDAMPF =  0
  VDW_S6 =     1.000
  VDW_SR =     0.940
  VDW_D =    20.000
  LVDW_ONECELL = F F F
  LVDW_SAMETYPE T T T
  LVDW_EWALD = F

  Number of pair interactions contributing to vdW energy: 1097079
  Edisp (eV):  -28.92959

  FORCE on cell =-STRESS in cart. coord.  units (eV):
  Direction    XX          YY          ZZ          XY          YZ          ZX
  Alpha Z  1357.53553  1357.53553  1357.53553
  Ewald  479540.84319479540.84319************  -342.47633     0.00001    -0.00001
  Hartree508161.07075508161.07075************  -247.23787     0.00000    -0.00002
  E(xc)   -7765.08852 -7765.08852 -7796.78433    -0.33245     0.00000     0.00000
  Local  ************************************   584.15731    -0.00001     0.00003
  n-local -8782.47414 -8782.47415 -8902.03594     0.87059     0.00000     0.00000
  augment  3466.88849  3466.88849  3410.17942     1.29723     0.00000     0.00000
  Kinetic 22952.35864 22952.35863 23208.62782     3.23125     0.00000    -0.00000
  Fock        0.00000     0.00000     0.00000     0.00000     0.00000     0.00000
  vdW       -37.41739   -37.41739    -2.31289    -0.04104     0.00000     0.00000
  Total    -186.97321  -186.97321    16.10004    -0.53132     0.00000     0.00000
  in kB     -30.31532   -30.31532     2.61042    -0.08615     0.00000     0.00000

 VOLUME and BASIS-vectors are now :
  energy-cutoff  :      520.00
  volume of cell :     9881.61
      direct lattice vectors                 reciprocal lattice vectors
    21.138852197  0.000000000  0.000000000     0.047306258  0.000000000  0.000000000
     0.000000000 21.138852197  0.000000000     0.000000000  0.047306258  0.000000000
     0.000000000  0.000000000 22.113885220     0.000000000  0.000000000  0.045220457

  length of vectors
    21.138852197 21.138852197 22.113885220     0.047306258  0.047306258  0.045220457

 FORCES acting on ions:
    Electron-Ion                     Ewald-Force                    Non-Local-Force
   -.188E+03 0.188E+03 -.206E+04   0.184E+03 -.184E+03 0.206E+04   0.490E+01 -.490E+01 0.174E+00
   0.188E+03 -.188E+03 -.206E+04   -.184E+03 0.184E+03 0.206E+04   -.490E+01 0.490E+01 0.174E+00
   0.204E+00 -.345E+01 0.931E+03   -.207E+00 0.346E+01 -.923E+03   0.272E-02 -.297E-02 -.741E+01
   0.345E+01 -.204E+00 0.931E+03   -.346E+01 0.207E+00 -.923E+03   0.297E-02 -.272E-02 -.741E+01
   -.135E-07 -.186E-03 -.923E+03   0.103E-06 -.158E-05 0.915E+03   0.000E+00 0.000E+00 0.738E+01
   0.531E+01 -.531E+01 -.922E+03   -.532E+01 0.532E+01 0.914E+03   0.644E-02 -.644E-02 0.738E+01
   -.204E+00 0.345E+01 0.931E+03   0.207E+00 -.346E+01 -.923E+03   -.272E-02 0.297E-02 -.741E+01
   0.523E+01 0.671E+01 0.933E+03   -.523E+01 -.671E+01 -.925E+03   0.183E-02 0.501E-02 -.741E+01
   -.570E+00 0.716E+01 -.922E+03   0.579E+00 -.717E+01 0.914E+03   -.679E-02 0.383E-02 0.738E+01
   0.470E+01 0.470E+01 -.922E+03   -.470E+01 -.470E+01 0.915E+03   -.228E-03 -.228E-03 0.738E+01
   -.471E+00 0.613E+01 0.934E+03   0.479E+00 -.613E+01 -.926E+03   -.686E-02 0.518E-02 -.741E+01
   0.101E+02 0.518E+01 0.937E+03   -.102E+02 -.519E+01 -.930E+03   0.123E-01 0.823E-02 -.741E+01
   -.547E+00 0.501E+01 -.919E+03   0.555E+00 -.501E+01 0.912E+03   -.643E-02 0.248E-02 0.738E+01
   0.104E+02 0.967E+01 -.919E+03   -.104E+02 -.968E+01 0.912E+03   -.750E-03 0.590E-02 0.738E+01
   0.239E-06 -.189E-03 0.936E+03   -.147E-06 0.154E-05 -.928E+03   0.000E+00 0.000E+00 -.741E+01
   0.110E+02 -.464E+01 0.938E+03   -.110E+02 0.464E+01 -.930E+03   0.277E-01 -.166E-02 -.741E+01
   0.547E+00 -.501E+01 -.919E+03   -.555E+00 0.501E+01 0.912E+03   0.643E-02 -.248E-02 0.738E+01
   0.174E+02 0.747E+00 -.916E+03   -.174E+02 -.755E+00 0.909E+03   0.170E-01 0.582E-02 0.738E+01
   0.471E+00 -.613E+01 0.934E+03   -.479E+00 0.613E+01 -.926E+03   0.686E-02 -.518E-02 -.741E+01
   0.606E+01 -.704E+01 0.933E+03   -.607E+01 0.705E+01 -.926E+03   0.121E-01 -.883E-02 -.741E+01
   0.570E+00 -.716E+01 -.922E+03   -.579E+00 0.717E+01 0.914E+03   0.679E-02 -.383E-02 0.738E+01
   0.123E+02 -.980E+01 -.919E+03   -.124E+02 0.981E+01 0.911E+03   0.211E-01 -.505E-02 0.738E+01
   0.704E+01 -.606E+01 0.933E+03   -.705E+01 0.607E+01 -.926E+03   0.883E-02 -.121E-01 -.741E+01
   0.613E+01 -.471E+00 0.934E+03   -.613E+01 0.479E+00 -.926E+03   0.518E-02 -.686E-02 -.741E+01
   0.716E+01 -.570E+00 -.922E+03   -.717E+01 0.579E+00 0.914E+03   0.383E-02 -.679E-02 0.738E+01
   0.980E+01 -.123E+02 -.919E+03   -.981E+01 0.124E+02 0.911E+03   0.505E-02 -.211E-01 0.738E+01
   0.671E+01 0.523E+01 0.933E+03   -.671E+01 -.523E+01 -.925E+03   0.501E-02 0.183E-02 -.741E+01
   0.116E+02 0.148E+02 0.940E+03   -.116E+02 -.148E+02 -.932E+03   0.158E-01 0.199E-01 -.742E+01
   0.132E+02 0.132E+02 -.919E+03   -.132E+02 -.132E+02 0.911E+03   0.346E-02 0.346E-02 0.738E+01
   0.967E+01 0.104E+02 -.919E+03   -.968E+01 -.104E+02 0.912E+03   0.590E-02 -.750E-03 0.738E+01
   0.148E+02 0.116E+02 0.940E+03   -.148E+02 -.116E+02 -.932E+03   0.199E-01 0.158E-01 -.742E+01
   0.285E+02 0.160E+02 0.960E+03   -.286E+02 -.160E+02 -.953E+03   0.968E-01 0.479E-01 -.745E+01
   0.330E+02 0.140E+02 -.909E+03   -.330E+02 -.140E+02 0.902E+03   0.188E-01 0.186E-01 0.737E+01
   0.316E+02 0.316E+02 -.905E+03   -.317E+02 -.317E+02 0.897E+03   0.207E-01 0.207E-01 0.736E+01
   0.239E+02 0.113E+01 0.948E+03   -.240E+02 -.114E+01 -.940E+03   0.613E-01 0.128E-01 -.742E+01
   0.303E+02 -.142E+02 0.965E+03   -.304E+02 0.142E+02 -.957E+03   0.605E-01 -.264E-01 -.737E+01
   0.370E+02 -.119E+02 -.907E+03   -.371E+02 0.119E+02 0.900E+03   0.707E-01 0.246E-02 0.738E+01
   0.778E+02 0.816E+01 -.870E+03   -.781E+02 -.823E+01 0.863E+03   0.200E+00 0.566E-01 0.738E+01
   0.162E+02 -.119E+02 0.942E+03   -.163E+02 0.119E+02 -.934E+03   0.330E-01 -.185E-01 -.741E+01
   0.119E+02 -.162E+02 0.942E+03   -.119E+02 0.163E+02 -.934E+03   0.185E-01 -.330E-01 -.741E+01
   0.148E+02 -.148E+02 -.918E+03   -.148E+02 0.148E+02 0.910E+03   0.180E-01 -.180E-01 0.738E+01
   0.365E+02 -.365E+02 -.899E+03   -.366E+02 0.366E+02 0.891E+03   0.569E-01 -.569E-01 0.739E+01
   0.464E+01 -.110E+02 0.938E+03   -.464E+01 0.110E+02 -.930E+03   0.166E-02 -.277E-01 -.741E+01
   0.235E-06 -.184E-03 0.936E+03   -.140E-06 -.411E-05 -.928E+03   0.000E+00 0.000E+00 -.741E+01
   0.501E+01 -.547E+00 -.919E+03   -.501E+01 0.555E+00 0.912E+03   0.248E-02 -.643E-02 0.738E+01
   -.747E+00 -.174E+02 -.916E+03   0.755E+00 0.174E+02 0.909E+03   -.582E-02 -.170E-01 0.738E+01
   0.518E+01 0.101E+02 0.937E+03   -.519E+01 -.102E+02 -.930E+03   0.823E-02 0.123E-01 -.741E+01
   0.113E+01 0.239E+02 0.948E+03   -.114E+01 -.240E+02 -.940E+03   0.128E-01 0.613E-01 -.742E+01
   0.140E+02 0.330E+02 -.909E+03   -.140E+02 -.330E+02 0.902E+03   0.186E-01 0.188E-01 0.737E+01
   0.747E+00 0.174E+02 -.916E+03   -.755E+00 -.174E+02 0.909E+03   0.582E-02 0.170E-01 0.738E+01
   0.160E+02 0.285E+02 0.960E+03   -.160E+02 -.286E+02 -.953E+03   0.479E-01 0.968E-01 -.745E+01
   0.305E+01 0.302E+02 0.100E+04   -.301E+01 -.303E+02 -.994E+03   -.348E-01 0.811E-01 -.717E+01
   0.691E+02 0.691E+02 -.838E+03   -.694E+02 -.694E+02 0.830E+03   0.221E+00 0.221E+00 0.722E+01
   0.816E+01 0.778E+02 -.870E+03   -.823E+01 -.781E+02 0.863E+03   0.566E-01 0.200E+00 0.738E+01
   0.302E+02 0.305E+01 0.100E+04   -.303E+02 -.301E+01 -.994E+03   0.811E-01 -.348E-01 -.717E+01
   -.305E+01 -.302E+02 0.100E+04   0.301E+01 0.303E+02 -.994E+03   0.348E-01 -.811E-01 -.717E+01
   0.754E+02 -.754E+02 -.795E+03   -.756E+02 0.756E+02 0.788E+03   0.105E+00 -.105E+00 0.696E+01
   -.207E-04 -.242E-03 -.667E+03   0.210E-04 0.517E-04 0.662E+03   0.000E+00 0.000E+00 0.475E+01
   0.142E+02 -.303E+02 0.965E+03   -.142E+02 0.304E+02 -.957E+03   0.264E-01 -.605E-01 -.737E+01
   -.113E+01 -.239E+02 0.948E+03   0.114E+01 0.240E+02 -.940E+03   -.128E-01 -.613E-01 -.742E+01
[...]
   -.793E+01 0.792E+01 0.704E+03   0.794E+01 -.794E+01 -.708E+03   -.192E-01 0.192E-01 0.354E+01
   -.316E+01 0.316E+01 0.701E+03   0.316E+01 -.316E+01 -.705E+03   -.709E-02 0.709E-02 0.353E+01
   -.189E+02 0.133E+02 -.686E+03   0.189E+02 -.134E+02 0.690E+03   -.371E-01 0.237E-01 -.358E+01
   -.122E+02 0.463E+01 -.689E+03   0.123E+02 -.463E+01 0.693E+03   -.201E-01 0.364E-03 -.358E+01
   -.165E+02 0.572E+01 0.711E+03   0.166E+02 -.573E+01 -.716E+03   -.511E-01 0.790E-02 0.354E+01
   -.651E+01 0.558E+01 0.704E+03   0.652E+01 -.559E+01 -.708E+03   -.189E-01 0.100E-01 0.353E+01
   -.306E+02 -.184E+01 -.681E+03   0.306E+02 0.186E+01 0.685E+03   -.420E-01 -.245E-01 -.360E+01
   -.110E+02 -.527E+01 -.690E+03   0.110E+02 0.528E+01 0.694E+03   -.754E-02 -.992E-02 -.358E+01
   -.154E+02 -.664E+01 0.710E+03   0.155E+02 0.665E+01 -.714E+03   -.284E-01 -.230E-01 0.352E+01
   -.873E+01 -.324E+00 0.706E+03   0.875E+01 0.328E+00 -.710E+03   -.179E-01 -.659E-02 0.353E+01
   -.163E+02 -.125E+02 -.688E+03   0.163E+02 0.126E+02 0.692E+03   -.105E-01 -.128E-01 -.359E+01
   -.510E+01 -.636E+01 -.693E+03   0.510E+01 0.636E+01 0.697E+03   0.257E-03 -.369E-02 -.358E+01
   -.730E+01 -.730E+01 0.703E+03   0.730E+01 0.730E+01 -.707E+03   -.945E-02 -.945E-02 0.353E+01
   -.568E+01 -.557E+01 0.703E+03   0.568E+01 0.557E+01 -.707E+03   -.464E-02 -.891E-02 0.353E+01
   -.149E-04 -.110E+00 0.771E+01   0.753E-12 0.270E-12 0.830E-11   -.420E-15 0.423E-15 -.831E+01

 POSITION                                       TOTAL-FORCE (eV/Angst)
     11.48398     11.76876     13.78517         0.041195     -0.041195     -0.051497
      9.65487     13.59787     13.78517        -0.041195      0.041195     -0.051497
      0.00000      0.00000      9.00000        -0.000732      0.000788      0.358925
      2.11389      2.11389      9.00000        -0.000788      0.000732      0.358925
      0.00000      2.11389     11.11389        -0.000000      0.000000     -0.352690
      2.11389      0.00000     11.11389        -0.001650      0.001650     -0.352552
      0.00000      4.22777      9.00000         0.000732     -0.000788      0.358925
      2.11389      6.34166      9.00000        -0.000376     -0.001258      0.359471
      0.00000      6.34166     11.11389         0.001836     -0.000939     -0.352230
      2.11389      4.22777     11.11389         0.000168      0.000168     -0.352287
      0.00000      8.45554      9.00000         0.001765     -0.001365      0.359311
      2.11389     10.56943      9.00000        -0.002756     -0.002096      0.360173
      0.00000     10.56943     11.11389         0.001813     -0.000577     -0.351253
      2.11389      8.45554     11.11389         0.000674     -0.001260     -0.350608
      0.00000     12.68331      9.00000        -0.000000      0.000000      0.359637
      2.11389     14.79720      9.00000        -0.006511      0.000304      0.360058
      0.00000     14.79720     11.11389        -0.001813      0.000577     -0.351253
      2.11389     12.68331     11.11389        -0.005156     -0.001656     -0.349954
      0.00000     16.91108      9.00000        -0.001765      0.001365      0.359311
      2.11389     19.02497      9.00000        -0.003080      0.002304      0.358918
      0.00000     19.02497     11.11389        -0.001836      0.000939     -0.352230
      2.11389     16.91108     11.11389        -0.005587      0.001105     -0.351591
      4.22777      0.00000      9.00000        -0.002304      0.003080      0.358918
      6.34166      2.11389      9.00000        -0.001365      0.001765      0.359311
      4.22777      2.11389     11.11389        -0.000939      0.001836     -0.352230
      6.34166      0.00000     11.11389        -0.001105      0.005587     -0.351591
      4.22777      4.22777      9.00000        -0.001258     -0.000376      0.359471
      6.34166      6.34166      9.00000        -0.003515     -0.004282      0.361656
      4.22777      6.34166     11.11389        -0.000269     -0.000269     -0.349880
      6.34166      4.22777     11.11389        -0.001260      0.000674     -0.350608
      4.22777      8.45554      9.00000        -0.004282     -0.003515      0.361656
      6.34166     10.56943      9.00000        -0.023056     -0.012568      0.368794
      4.22777     10.56943     11.11389        -0.004624     -0.003828     -0.344262
      6.34166      8.45554     11.11389        -0.002165     -0.002165     -0.336991
      4.22777     12.68331      9.00000        -0.014147     -0.003673      0.362779
      6.34166     14.79720      9.00000        -0.011869      0.006282      0.352343
      4.22777     14.79720     11.11389        -0.022621     -0.002031     -0.346828
      6.34166     12.68331     11.11389        -0.050829     -0.010859     -0.310073
      4.22777     16.91108      9.00000        -0.007720      0.004546      0.359189
      6.34166     19.02497      9.00000        -0.004546      0.007720      0.359189
      4.22777     19.02497     11.11389        -0.004273      0.004273     -0.351805
      6.34166     16.91108     11.11389        -0.009670      0.009670     -0.344829
      8.45554      0.00000      9.00000        -0.000304      0.006511      0.360058
     10.56943      2.11389      9.00000        -0.000000      0.000000      0.359637
      8.45554      2.11389     11.11389        -0.000577      0.001813     -0.351253
     10.56943      0.00000     11.11389         0.001656      0.005156     -0.349954
      8.45554      4.22777      9.00000        -0.002096     -0.002756      0.360173
     10.56943      6.34166      9.00000        -0.003673     -0.014147      0.362779
      8.45554      6.34166     11.11389        -0.003828     -0.004624     -0.344262
     10.56943      4.22777     11.11389        -0.001656     -0.005156     -0.349954
      8.45554      8.45554      9.00000        -0.012568     -0.023056      0.368794
     10.56943     10.56943      9.00000         0.015831     -0.013514      0.307095
      8.45554     10.56943     11.11389        -0.026960     -0.026960     -0.191150
     10.56943      8.45554     11.11389        -0.010859     -0.050829     -0.310073
      8.45554     12.68331      9.00000        -0.013514      0.015831      0.307095
     10.56943     14.79720      9.00000        -0.015831      0.013514      0.307095
      8.45554     14.79720     11.11389        -0.080469      0.080469     -0.434292
     10.56943     12.68331     11.11389        -0.000000      0.000000     -0.115569
      8.45554     16.91108      9.00000        -0.006282      0.011869      0.352343
     10.56943     19.02497      9.00000         0.003673      0.014147      0.362779
[...]
     19.02497      6.34166     11.11389        -0.003653      0.002865      0.551519
     16.91108      6.34166      9.00000        -0.005300      0.005300     -0.558206
     19.02497      4.22777      9.00000        -0.001982      0.001982     -0.558391
     16.91108      8.45554     11.11389        -0.011256      0.007247      0.550890
     19.02497     10.56943     11.11389        -0.005906      0.000186      0.549918
     16.91108     10.56943      9.00000        -0.014895      0.002164     -0.556231
     19.02497      8.45554      9.00000        -0.005309      0.002844     -0.558440
     16.91108     12.68331     11.11389        -0.013724     -0.007041      0.545167
     19.02497     14.79720     11.11389        -0.002353     -0.002846      0.548972
     16.91108     14.79720      9.00000        -0.008445     -0.006306     -0.561683
     19.02497     12.68331      9.00000        -0.005166     -0.001783     -0.559131
     16.91108     16.91108     11.11389        -0.003549     -0.003987      0.546329
     19.02497     19.02497     11.11389         0.000013     -0.001097      0.550761
     16.91108     19.02497      9.00000        -0.002707     -0.002707     -0.559611
     19.02497     16.91108      9.00000        -0.001372     -0.002545     -0.559256
    total drift:                               -0.000015     -0.110167     -0.606815

  FREE ENERGIE OF THE ION-ELECTRON SYSTEM (eV)
  free  energy   TOTEN  =     -1169.41791809 eV

  energy  without entropy=    -1169.41791809  energy(sigma->0) =    -1169.41791809