 vasp.6.4.0 14Feb23 (build Dec 05 2023 14:15:48) complex

 executed on             LinuxIFC date 2023.12.06  05:11:20

 INCAR:
   SYSTEM = MgO-rocksalt
   ISMEAR = 0
   SIGMA = 0.05
   EDIFF = 1E-4
   ALGO = ALL
   ISTART = 0
   IBRION = -1
   NSW = 0
   ISYM = 0
   DIPOL = 0.5 0.5 0.5
   IDIPOL = 3
   LDIPOL = .TRUE.
   METAGGA = M06L
   ENCUT = 520
   PREC = Accurate
   LASPH = .TRUE.
   LREAL = Auto
   ISPIN = 1
   NELM = 2000
   NELMIN = 8
   NCORE = 8
   LWAVE = .FALSE.
   LCHARG = .FALSE.

 POTCAR:    PAW_PBE Mg_pv 13Apr2007
 POTCAR:    PAW_PBE O 08Apr2002
 POTCAR:    PAW_PBE Mg_pv 13Apr2007
   VRHFIN =Mg: p6s2

   TITEL  = PAW_PBE Mg_pv 13Apr2007
   POMASS =   24.305; ZVAL   =    8.000    mass and valenz
   ENMAX  =  403.929; ENMIN  =  302.947 eV

   TITEL  = PAW_PBE O 08Apr2002
   POMASS =   16.000; ZVAL   =    6.000    mass and valenz
   ENMAX  =  400.000; ENMIN  =  300.000 eV

 Optimization of the real space projectors (new method)

 maximal supplied QI-value         = 18.90
 optimisation between [QCUT,QGAM] = [ 11.53, 23.24] = [ 37.21,151.29] Ry
 Optimized for a Real-space Cutoff    1.28 Angstroem

   l    n(q)    QCUT    max X(q) W(low)/X(q) W(high)/X(q)  e(spline)
   1      8    11.527     2.974    0.44E-04    0.56E-04    0.12E-06
   1      8    11.527     4.279    0.12E-03    0.12E-03    0.26E-06
   0      9    11.527    16.381    0.46E-04    0.64E-04    0.78E-07
   0      9    11.527     5.611    0.26E-04    0.43E-04    0.55E-07
   2      8    11.527     4.652    0.22E-03    0.72E-04    0.47E-07
 Optimization of the real space projectors (new method)

 maximal supplied QI-value         = 24.76
 optimisation between [QCUT,QGAM] = [ 11.64, 23.27] = [ 37.91,151.63] Ry
 Optimized for a Real-space Cutoff    1.14 Angstroem

   l    n(q)    QCUT    max X(q) W(low)/X(q) W(high)/X(q)  e(spline)
   0      8    11.635    20.381    0.10E-03    0.33E-03    0.24E-06
   0      8    11.635    15.268    0.11E-03    0.35E-03    0.26E-06
   1      7    11.635     5.964    0.24E-03    0.31E-03    0.30E-06
   1      7    11.635     5.382    0.22E-03    0.25E-03    0.26E-06
  PAW_PBE Mg_pv 13Apr2007               :
  PAW_PBE O 08Apr2002                   :

 POSCAR: Mg  O
  positions in direct lattice

 METAGGA = M06L                                        LMAXTAU =  6    LMIXTAU =  F

 ion  position               nearest neighbor table
   1  0.000  0.000  0.407- 103 2.11 104 2.11 119 2.11 184 2.11 101 2.11
   2  0.100  0.100  0.407- 103 2.11 104 2.11 108 2.11 123 2.11 102 2.11
   3  0.000  0.100  0.503- 101 2.11 102 2.11 105 2.11 182 2.11 103 2.11
   4  0.100  0.000  0.503- 101 2.11 102 2.11 118 2.11 121 2.11 104 2.11
   5  0.000  0.200  0.407- 107 2.11 103 2.11 108 2.11 188 2.11 105 2.11
   6  0.100  0.300  0.407- 108 2.11 107 2.11 112 2.11 127 2.11 106 2.11
   7  0.000  0.300  0.503- 105 2.11 106 2.11 109 2.11 186 2.11 107 2.11
   8  0.100  0.200  0.503- 106 2.11 105 2.11 102 2.11 125 2.11 108 2.11
   9  0.000  0.400  0.407- 107 2.11 111 2.11 112 2.11 192 2.11 109 2.11
  10  0.100  0.500  0.407- 111 2.11 112 2.11 116 2.11 131 2.11 110 2.11
  11  0.000  0.500  0.503- 109 2.11 110 2.11 113 2.11 190 2.11 111 2.11
  12  0.100  0.400  0.503- 106 2.11 109 2.11 110 2.11 129 2.11 112 2.11
  13  0.000  0.600  0.407- 111 2.11 115 2.11 116 2.11 196 2.11 113 2.11
  14  0.100  0.700  0.407- 120 2.11 116 2.11 115 2.11 135 2.11 114 2.11
  15  0.000  0.700  0.503- 117 2.11 114 2.11 113 2.11 194 2.11 115 2.11
  16  0.100  0.600  0.503- 110 2.11 113 2.11 114 2.11 133 2.11 116 2.11
  17  0.000  0.800  0.407- 115 2.11 119 2.11 120 2.11 200 2.11 117 2.11
  18  0.100  0.900  0.407- 104 2.11 119 2.11 120 2.11 139 2.11 118 2.11
  19  0.000  0.900  0.503- 101 2.11 117 2.11 118 2.11 198 2.11 119 2.11
  20  0.100  0.800  0.503- 114 2.11 117 2.11 118 2.11 137 2.11 120 2.11
  21  0.200  0.000  0.407- 124 2.11 123 2.11 104 2.11 139 2.11 121 2.11
  22  0.300  0.100  0.407- 123 2.11 124 2.11 128 2.11 143 2.11 122 2.11
  23  0.200  0.100  0.503- 122 2.11 121 2.11 102 2.11 125 2.11 123 2.11
  24  0.300  0.000  0.503- 121 2.11 122 2.11 138 2.11 141 2.11 124 2.11
  25  0.200  0.200  0.407- 127 2.11 128 2.11 108 2.11 123 2.11 125 2.11
  26  0.300  0.300  0.407- 127 2.11 128 2.11 132 2.11 147 2.11 126 2.11
  27  0.200  0.300  0.503- 125 2.11 126 2.11 106 2.11 129 2.11 127 2.11
  28  0.300  0.200  0.503- 125 2.11 126 2.11 122 2.11 145 2.11 128 2.11
  29  0.200  0.400  0.407- 132 2.11 127 2.11 131 2.11 112 2.11 129 2.11
  30  0.300  0.500  0.407- 131 2.11 132 2.11 136 2.11 151 2.11 130 2.11
  31  0.200  0.500  0.503- 130 2.11 129 2.11 110 2.11 133 2.11 131 2.11
  32  0.300  0.400  0.503- 129 2.11 126 2.11 130 2.11 149 2.11 132 2.11
  33  0.200  0.600  0.407- 136 2.11 131 2.11 135 2.11 116 2.11 133 2.11
  34  0.300  0.700  0.407- 135 2.11 140 2.11 136 2.11 155 2.11 134 2.11
  35  0.200  0.700  0.503- 134 2.11 137 2.11 114 2.11 133 2.11 135 2.11
  36  0.300  0.600  0.503- 133 2.11 130 2.11 134 2.11 153 2.11 136 2.11
  37  0.200  0.800  0.407- 135 2.11 140 2.11 139 2.11 120 2.11 137 2.11
  38  0.300  0.900  0.407- 139 2.11 124 2.11 140 2.11 159 2.11 138 2.11
  39  0.200  0.900  0.503- 138 2.11 121 2.11 137 2.11 118 2.11 139 2.11
  40  0.300  0.800  0.503- 134 2.11 137 2.11 138 2.11 157 2.11 140 2.11
  41  0.400  0.000  0.407- 124 2.11 143 2.11 144 2.11 159 2.11 141 2.11
  42  0.500  0.100  0.407- 143 2.11 144 2.11 148 2.11 163 2.11 142 2.11
  43  0.400  0.100  0.503- 122 2.11 141 2.11 142 2.11 145 2.11 143 2.11
  44  0.500  0.000  0.503- 141 2.11 142 2.11 158 2.11 161 2.11 144 2.11
  45  0.400  0.200  0.407- 147 2.11 143 2.11 128 2.11 148 2.11 145 2.11
  46  0.500  0.300  0.407- 148 2.11 147 2.11 152 2.11 167 2.11 146 2.11
  47  0.400  0.300  0.503- 145 2.11 126 2.11 146 2.11 149 2.11 147 2.11
  48  0.500  0.200  0.503- 146 2.11 145 2.11 142 2.11 165 2.11 148 2.11
  49  0.400  0.400  0.407- 132 2.11 147 2.11 151 2.11 152 2.11 149 2.11
  50  0.500  0.500  0.407- 151 2.11 152 2.11 156 2.11 171 2.11 150 2.11
  51  0.400  0.500  0.503- 130 2.11 149 2.11 150 2.11 153 2.11 151 2.11
  52  0.500  0.400  0.503- 146 2.11 149 2.11 150 2.11 169 2.11 152 2.11
  53  0.400  0.600  0.407- 136 2.11 151 2.11 155 2.11 156 2.11 153 2.11
  54  0.500  0.700  0.407- 160 2.11 156 2.11 155 2.11 175 2.11 154 2.11
  55  0.400  0.700  0.503- 157 2.11 153 2.11 154 2.11 134 2.11 155 2.11
  56  0.500  0.600  0.503- 150 2.11 153 2.11 154 2.11 173 2.11 156 2.11
  57  0.400  0.800  0.407- 155 2.11 140 2.11 159 2.11 160 2.11 157 2.11
  58  0.500  0.900  0.407- 144 2.11 159 2.11 160 2.11 179 2.11 158 2.11
  59  0.400  0.900  0.503- 138 2.11 141 2.11 157 2.11 158 2.11 159 2.11
  60  0.500  0.800  0.503- 154 2.11 157 2.11 158 2.11 177 2.11 160 2.11
[...]
 186  0.900  0.300  0.503-  88 2.11  87 2.11   7 2.11  92 2.11  86 2.11
 187  0.800  0.300  0.407-  66 2.11  85 2.11  86 2.11  89 2.11  87 2.11
 188  0.900  0.200  0.407-  86 2.11  82 2.11  85 2.11   5 2.11  88 2.11
 189  0.800  0.400  0.503-  72 2.11  87 2.11  91 2.11  92 2.11  89 2.11
 190  0.900  0.500  0.503-  11 2.11  91 2.11  92 2.11  96 2.11  90 2.11
 191  0.800  0.500  0.407-  70 2.11  89 2.11  90 2.11  93 2.11  91 2.11
 192  0.900  0.400  0.407-   9 2.11  86 2.11  89 2.11  90 2.11  92 2.11
 193  0.800  0.600  0.503-  76 2.11  91 2.11  95 2.11  96 2.11  93 2.11
 194  0.900  0.700  0.503- 100 2.11  95 2.11  96 2.11  15 2.11  94 2.11
 195  0.800  0.700  0.407-  74 2.11  97 2.11  94 2.11  93 2.11  95 2.11
 196  0.900  0.600  0.407-  13 2.11  90 2.11  93 2.11  94 2.11  96 2.11
 197  0.800  0.800  0.503-  80 2.11  95 2.11  99 2.11 100 2.11  97 2.11
 198  0.900  0.900  0.503-  19 2.11  84 2.11  99 2.11 100 2.11  98 2.11
 199  0.800  0.900  0.407-  78 2.11  81 2.11  97 2.11  98 2.11  99 2.11
 200  0.900  0.800  0.407-  94 2.11  17 2.11  97 2.11  98 2.11 100 2.11

IMPORTANT INFORMATION: All symmetrisations will be switched off!
NOSYMM: (Re-)initialisation of all symmetry stuff for point group C_1.

                                     Primitive cell

  volume of cell :    9881.6133

  direct lattice vectors                    reciprocal lattice vectors
    21.138852197  0.000000000  0.000000000     0.047306258  0.000000000  0.000000000
     0.000000000 21.138852197  0.000000000     0.000000000  0.047306258  0.000000000
     0.000000000  0.000000000 22.113885220     0.000000000  0.000000000  0.045220457

  length of vectors
    21.138852197 21.138852197 22.113885220     0.047306258  0.047306258  0.045220457

  position of ions in fractional coordinates (direct lattice)
     0.000000000  0.000000000  0.406984115
     0.100000000  0.100000000  0.406984115
     0.000000000  0.100000000  0.502574971
     0.100000000  0.000000000  0.502574971
     0.000000000  0.200000000  0.406984115
     0.100000000  0.300000000  0.406984115
     0.000000000  0.300000000  0.502574971
     0.100000000  0.200000000  0.502574971
     0.000000000  0.400000000  0.406984115
     0.100000000  0.500000000  0.406984115
     0.000000000  0.500000000  0.502574971
     0.100000000  0.400000000  0.502574971
     0.000000000  0.600000000  0.406984115
     0.100000000  0.700000000  0.406984115
     0.000000000  0.700000000  0.502574971
     0.100000000  0.600000000  0.502574971
     0.000000000  0.800000000  0.406984115
     0.100000000  0.900000000  0.406984115
     0.000000000  0.900000000  0.502574971
     0.100000000  0.800000000  0.502574971
     0.200000000  0.000000000  0.406984115
     0.300000000  0.100000000  0.406984115
     0.200000000  0.100000000  0.502574971
     0.300000000  0.000000000  0.502574971
     0.200000000  0.200000000  0.406984115
     0.300000000  0.300000000  0.406984115
     0.200000000  0.300000000  0.502574971
     0.300000000  0.200000000  0.502574971
     0.200000000  0.400000000  0.406984115
     0.300000000  0.500000000  0.406984115
     0.200000000  0.500000000  0.502574971
     0.300000000  0.400000000  0.502574971
     0.200000000  0.600000000  0.406984115
     0.300000000  0.700000000  0.406984115
     0.200000000  0.700000000  0.502574971
     0.300000000  0.600000000  0.502574971
     0.200000000  0.800000000  0.406984115
     0.300000000  0.900000000  0.406984115
     0.200000000  0.900000000  0.502574971
     0.300000000  0.800000000  0.502574971
     0.400000000  0.000000000  0.406984115
     0.500000000  0.100000000  0.406984115
     0.400000000  0.100000000  0.502574971
     0.500000000  0.000000000  0.502574971
     0.400000000  0.200000000  0.406984115
     0.500000000  0.300000000  0.406984115
     0.400000000  0.300000000  0.502574971
     0.500000000  0.200000000  0.502574971
     0.400000000  0.400000000  0.406984115
     0.500000000  0.500000000  0.406984115
     0.400000000  0.500000000  0.502574971
     0.500000000  0.400000000  0.502574971
     0.400000000  0.600000000  0.406984115
     0.500000000  0.700000000  0.406984115
     0.400000000  0.700000000  0.502574971
     0.500000000  0.600000000  0.502574971
     0.400000000  0.800000000  0.406984115
     0.500000000  0.900000000  0.406984115
     0.400000000  0.900000000  0.502574971
     0.500000000  0.800000000  0.502574971
[...]
     0.900000000  0.300000000  0.502574971
     0.800000000  0.300000000  0.406984115
[...]
     52     -44.6321      2.00000
     53     -44.6320      2.00000
     54     -44.6319      2.00000
     55     -44.6314      2.00000
     56     -44.6312      2.00000
     57     -44.6306      2.00000
     58     -44.6301      2.00000
     59     -44.6296      2.00000
     60     -44.6295      2.00000
[...]
    850      18.6517      0.00000
    851      18.9204      0.00000
    852      19.4020      0.00000
    853      20.0713      0.00000
    854      21.9802      0.00000
    855      22.4021      0.00000
    856      23.3141      0.00000
    857      24.5066      0.00000
    858      24.5319      0.00000
    859      25.6056      0.00000
    860      31.9520      0.00000
    861      34.6439      0.00000
    862      36.9578      0.00000
    863      46.6900      0.00000
    864      60.3024      0.00000

 soft charge-density along one line, spin component           1
         0         1         2         3         4         5         6         7         8         9
 total charge-density along one line

------------------------ aborting loop because EDIFF is reached ----------------------------------------

  FORCE on cell =-STRESS in cart. coord.  units (eV):
  Direction    XX          YY          ZZ          XY          YZ          ZX
  Alpha Z  1314.62240  1314.62240  1314.62240
  Ewald  475375.07443475375.07443************     0.00000     0.00000    -0.00000
  Hartree503637.94485503637.99365************     0.03184     0.00252    -0.01713
  E(xc)   -8721.16042 -8721.17794 -8711.10598    -0.00463     0.30447     0.21293
  Local  ************************************    -0.13814    -0.01131     0.06840
  n-local -8669.08731 -8669.06288 -8812.66821    -0.00722    -0.02161    -0.02265
  augment  4123.10533  4123.11601  4103.80098     0.00127    -0.07220    -0.32766
  Kinetic 22846.67229 22846.48342 23064.06403     0.13195    -0.01344    -0.13737
  Fock        0.00000     0.00000     0.00000     0.00000     0.00000     0.00000
  Total    -233.04276  -233.20026    16.94594     0.01508     0.18844    -0.22348
  in kB     -37.78491   -37.81044     2.74757     0.00244     0.03055    -0.03623

 VOLUME and BASIS-vectors are now :
  energy-cutoff  :      520.00
  volume of cell :     9881.61
      direct lattice vectors                 reciprocal lattice vectors
    21.138852197  0.000000000  0.000000000     0.047306258  0.000000000  0.000000000
     0.000000000 21.138852197  0.000000000     0.000000000  0.047306258  0.000000000
     0.000000000  0.000000000 22.113885220     0.000000000  0.000000000  0.045220457

  length of vectors
    21.138852197 21.138852197 22.113885220     0.047306258  0.047306258  0.045220457

 FORCES acting on ions:
    Electron-Ion                     Ewald-Force                    Non-Local-Force
   0.226E-02 -.881E-02 0.928E+03   0.941E-13 0.746E-13 -.919E+03   -.134E-01 0.429E-02 -.695E+01
   0.189E-02 0.105E-01 0.928E+03   0.101E-09 0.101E-09 -.919E+03   0.829E-02 -.187E-01 -.686E+01
   -.819E-02 0.735E-02 -.928E+03   0.131E-12 0.101E-09 0.919E+03   0.115E-01 -.170E-03 0.929E+01
   -.208E-02 -.821E-02 -.928E+03   0.101E-09 0.515E-13 0.919E+03   -.141E-02 0.846E-03 0.101E+02
   0.682E-02 0.250E-02 0.928E+03   0.155E-10 -.470E-10 -.919E+03   -.304E-02 0.583E-02 -.648E+01
   0.532E-02 -.154E-01 0.928E+03   0.988E-10 0.268E-10 -.919E+03   -.223E-01 0.916E-02 -.728E+01
   -.435E-02 -.106E-01 -.928E+03   0.207E-11 0.268E-10 0.919E+03   0.159E-01 -.614E-02 0.975E+01
   -.310E-02 0.380E-02 -.928E+03   0.852E-10 -.471E-10 0.919E+03   0.197E-01 -.125E-01 0.971E+01
   0.202E-02 0.799E-02 0.928E+03   -.175E-10 -.803E-10 -.919E+03   -.225E-02 -.101E-01 -.721E+01
   0.369E-02 0.103E-01 0.928E+03   0.101E-09 0.123E-12 -.919E+03   0.289E-03 0.539E-04 -.640E+01
   0.895E-02 0.114E-01 -.928E+03   0.229E-12 0.266E-13 0.919E+03   -.423E-02 -.178E-01 0.971E+01
   0.690E-02 0.630E-04 -.928E+03   0.118E-09 -.804E-10 0.919E+03   0.180E-02 0.306E-01 0.980E+01
   0.822E-02 0.265E-02 0.928E+03   0.114E-11 0.950E-10 -.919E+03   0.492E-02 0.670E-02 -.700E+01
   0.190E-02 -.272E-02 0.928E+03   0.863E-10 -.402E-10 -.919E+03   -.398E-02 0.858E-02 -.648E+01
   0.476E-02 0.117E-02 -.928E+03   -.927E-12 -.402E-10 0.919E+03   0.996E-03 0.349E-02 0.954E+01
   -.377E-02 -.172E-02 -.928E+03   0.115E-09 0.843E-10 0.919E+03   0.544E-02 0.336E-02 0.956E+01
   0.120E-02 0.108E-01 0.928E+03   0.909E-12 0.253E-10 -.919E+03   -.615E-02 -.181E-01 -.633E+01
   -.263E-02 -.121E-01 0.928E+03   0.117E-09 -.800E-10 -.919E+03   0.194E-02 0.447E-02 -.655E+01
   0.120E-02 -.170E-01 -.928E+03   -.899E-12 -.799E-10 0.919E+03   -.121E-01 0.184E-01 0.949E+01
   -.515E-02 0.441E-02 -.928E+03   0.842E-10 0.360E-10 0.919E+03   0.185E-01 0.990E-03 0.948E+01
   0.295E-02 0.174E-02 0.928E+03   -.487E-10 0.293E-13 -.919E+03   0.693E-02 0.306E-02 -.646E+01
   0.873E-02 -.117E-01 0.928E+03   0.267E-10 0.993E-10 -.919E+03   -.971E-02 -.869E-03 -.627E+01
   0.469E-02 -.534E-02 -.928E+03   -.293E-10 0.892E-10 0.919E+03   0.115E-01 -.950E-03 0.902E+01
   -.613E-02 0.745E-02 -.928E+03   0.229E-10 0.528E-13 0.919E+03   0.182E-01 0.511E-02 0.938E+01
   -.121E-01 0.678E-02 0.928E+03   -.527E-10 -.477E-10 -.919E+03   0.106E-01 -.199E-02 -.630E+01
   -.355E-03 0.241E-03 0.928E+03   0.173E-10 0.245E-10 -.919E+03   0.137E-01 0.118E-01 -.714E+01
   -.710E-02 0.514E-02 -.928E+03   -.662E-10 0.274E-10 0.919E+03   -.439E-02 -.161E-02 0.964E+01
   0.665E-02 -.931E-02 -.928E+03   0.382E-11 -.448E-10 0.919E+03   0.387E-02 -.442E-02 0.980E+01
   -.416E-02 -.971E-02 0.928E+03   -.468E-10 -.689E-10 -.919E+03   0.162E-02 0.837E-02 -.635E+01
   0.723E-02 -.369E-02 0.928E+03   0.231E-10 0.426E-13 -.919E+03   -.120E-01 0.186E-01 -.657E+01
   -.794E-02 -.106E-02 -.928E+03   -.488E-10 -.853E-13 0.919E+03   0.113E-02 -.358E-02 0.937E+01
   -.232E-02 -.346E-02 -.928E+03   0.441E-10 -.788E-10 0.919E+03   -.180E-01 0.276E-01 0.945E+01
   -.127E-01 0.499E-02 0.928E+03   -.284E-10 0.833E-10 -.919E+03   0.127E-01 -.141E-01 -.694E+01
   -.308E-02 0.909E-02 0.928E+03   0.476E-11 -.380E-10 -.919E+03   0.139E-02 -.785E-02 -.624E+01
   -.142E-02 0.556E-02 -.928E+03   -.692E-10 -.410E-10 0.919E+03   0.128E-03 -.129E-01 0.954E+01
   -.409E-02 0.540E-02 -.928E+03   0.412E-10 0.828E-10 0.919E+03   -.378E-02 -.126E-01 0.960E+01
   -.261E-02 0.156E-02 0.928E+03   -.671E-10 0.258E-10 -.919E+03   -.798E-02 -.104E-01 -.629E+01
   0.260E-02 -.372E-03 0.928E+03   0.432E-10 -.785E-10 -.919E+03   -.115E-01 0.318E-02 -.676E+01
   -.553E-03 -.146E-02 -.928E+03   -.304E-10 -.686E-10 0.919E+03   -.367E-02 -.367E-02 0.980E+01
   0.526E-03 -.111E-01 -.928E+03   0.265E-11 0.337E-10 0.919E+03   -.187E-01 0.638E-02 0.975E+01
   0.535E-02 -.961E-03 0.928E+03   -.749E-10 0.857E-13 -.919E+03   -.797E-02 0.699E-02 -.639E+01
   -.685E-02 0.119E-01 0.928E+03   0.435E-11 0.991E-10 -.919E+03   0.578E-02 -.773E-02 -.630E+01
   -.552E-02 -.735E-02 -.928E+03   -.545E-10 0.890E-10 0.919E+03   0.610E-02 0.119E-01 0.943E+01
   -.116E-02 0.787E-02 -.928E+03   0.875E-13 0.546E-13 0.919E+03   -.281E-02 0.259E-02 0.986E+01
   0.317E-02 -.139E-02 0.928E+03   -.797E-10 -.471E-10 -.919E+03   0.164E-03 0.511E-02 -.639E+01
   -.776E-02 -.992E-02 0.928E+03   -.558E-11 0.243E-10 -.919E+03   0.299E-02 0.374E-02 -.647E+01
   0.986E-02 -.202E-02 -.928E+03   -.934E-10 0.267E-10 0.919E+03   -.431E-02 0.721E-04 0.912E+01
   -.950E-02 0.107E-01 -.928E+03   -.191E-10 -.447E-10 0.919E+03   0.169E-01 -.193E-01 0.101E+02
   0.498E-02 0.144E-02 0.928E+03   -.720E-10 -.686E-10 -.919E+03   -.135E-01 0.664E-03 -.716E+01
   -.378E-02 0.358E-02 0.928E+03   -.457E-13 0.941E-13 -.919E+03   0.673E-02 -.144E-02 -.641E+01
   -.325E-02 0.113E-02 -.928E+03   -.752E-10 -.200E-13 0.919E+03   -.129E-01 0.528E-02 0.983E+01
   -.590E-02 -.130E-01 -.928E+03   0.216E-10 -.786E-10 0.919E+03   0.294E-02 -.123E-02 0.996E+01
   -.749E-03 -.916E-03 0.928E+03   -.534E-10 0.832E-10 -.919E+03   0.500E-02 0.125E-01 -.690E+01
   -.134E-02 0.155E-02 0.928E+03   -.183E-10 -.378E-10 -.919E+03   0.351E-02 0.152E-02 -.624E+01
   0.324E-03 0.131E-01 -.928E+03   -.966E-10 -.403E-10 0.919E+03   0.218E-01 -.670E-03 0.988E+01
   0.522E-02 -.528E-02 -.928E+03   0.182E-10 0.826E-10 0.919E+03   -.898E-02 0.146E-01 0.954E+01
   -.443E-02 -.130E-01 0.928E+03   -.946E-10 0.252E-10 -.919E+03   0.131E-02 0.230E-01 -.703E+01
   0.344E-02 -.137E-02 0.928E+03   0.205E-10 -.784E-10 -.919E+03   -.358E-02 -.108E-01 -.726E+01
   -.660E-02 0.262E-02 -.928E+03   -.557E-10 -.683E-10 0.919E+03   0.107E-01 0.145E-02 0.985E+01
   0.105E-01 0.317E-02 -.928E+03   -.206E-10 0.335E-10 0.919E+03   -.237E-02 -.615E-02 0.921E+01
[...]
   -.221E-01 0.110E-01 0.697E+03   0.433E-10 0.495E-10 -.700E+03   -.710E-02 -.654E-02 0.362E+01
   0.400E-02 0.695E-02 0.697E+03   0.222E-11 -.613E-10 -.700E+03   -.136E-01 -.302E-02 0.363E+01
   0.664E-02 0.223E-01 -.697E+03   0.507E-10 -.136E-10 0.700E+03   0.152E-03 -.193E-01 -.290E+01
   -.411E-02 0.187E-01 -.697E+03   -.485E-11 0.104E-10 0.700E+03   0.821E-02 0.225E-02 -.287E+01
   -.114E-02 -.529E-02 0.697E+03   0.512E-10 -.166E-11 -.700E+03   -.140E-02 -.415E-02 0.362E+01
   -.909E-02 0.869E-02 0.697E+03   0.168E-11 -.149E-11 -.700E+03   -.679E-02 0.491E-03 0.346E+01
   0.189E-01 -.106E-01 -.697E+03   0.608E-10 0.120E-11 0.700E+03   -.129E-01 0.145E-02 -.292E+01
   0.467E-02 0.421E-02 -.697E+03   -.419E-11 -.488E-10 0.700E+03   -.632E-02 0.796E-02 -.293E+01
   -.253E-02 0.393E-02 0.697E+03   0.409E-10 -.598E-10 -.700E+03   -.305E-02 -.681E-02 0.344E+01
   0.275E-02 -.229E-02 0.697E+03   -.267E-12 0.700E-11 -.700E+03   0.742E-02 -.195E-01 0.359E+01
   0.125E-01 0.701E-02 -.697E+03   0.415E-10 0.415E-10 0.700E+03   -.614E-03 0.245E-03 -.289E+01
   0.471E-02 -.977E-02 -.697E+03   -.306E-11 -.298E-11 0.700E+03   0.154E-01 0.653E-02 -.286E+01
   -.114E-01 0.130E-02 0.697E+03   0.621E-10 0.568E-11 -.700E+03   0.157E-01 -.237E-01 0.369E+01
   0.666E-03 -.183E-01 0.697E+03   0.277E-12 0.562E-10 -.700E+03   0.581E-02 -.821E-02 0.346E+01
   0.590E-01 -.496E-01 -.100E+03   0.439E-11 -.322E-12 0.239E-11   -.113E+00 0.213E+00 0.181E+03

 POSITION                                       TOTAL-FORCE (eV/Angst)
      0.00000      0.00000      9.00000        -0.014156     -0.008220      1.314897
      2.11389      2.11389      9.00000         0.009169     -0.009449      1.225116
      0.00000      2.11389     11.11389         0.005054      0.008563     -0.662320
      2.11389      0.00000     11.11389        -0.002738     -0.019953     -2.082781
      0.00000      4.22777      9.00000         0.008216      0.002068      1.748156
      2.11389      6.34166      9.00000        -0.010824     -0.009248      1.089084
      0.00000      6.34166     11.11389         0.004040     -0.077359     -1.345667
      2.11389      4.22777     11.11389         0.004506     -0.003945     -1.983828
      0.00000      8.45554      9.00000         0.010423     -0.003270      1.128410
      2.11389     10.56943      9.00000        -0.001706      0.013864      1.716813
      0.00000     10.56943     11.11389        -0.035737      0.010102     -1.999432
      2.11389      8.45554     11.11389         0.011479      0.015807     -1.643391
      0.00000     12.68331      9.00000         0.012025      0.011255      1.313546
      2.11389     14.79720      9.00000        -0.004910      0.001075      1.673265
      0.00000     14.79720     11.11389         0.014051     -0.002172     -1.226975
      2.11389     12.68331     11.11389         0.002646      0.003239     -0.220763
      0.00000     16.91108      9.00000         0.021524      0.001034      1.990639
      2.11389     19.02497      9.00000        -0.004189     -0.020061      1.728972
      0.00000     19.02497     11.11389         0.006983     -0.006497     -1.423199
      2.11389     16.91108     11.11389         0.060437     -0.024552     -0.995424
      4.22777      0.00000      9.00000         0.005888      0.014163      1.807551
      6.34166      2.11389      9.00000        -0.000150     -0.018003      1.873502
      4.22777      2.11389     11.11389         0.017160     -0.002771     -1.025977
      6.34166      0.00000     11.11389         0.019374      0.013513     -0.835187
      4.22777      4.22777      9.00000        -0.005461      0.008601      1.968198
      6.34166      6.34166      9.00000         0.005900      0.023086      1.100640
      4.22777      6.34166     11.11389         0.002913     -0.003620     -1.366003
      6.34166      4.22777     11.11389         0.002090      0.006794     -2.062365
      4.22777      8.45554      9.00000        -0.007228     -0.003015      1.750342
      6.34166     10.56943      9.00000        -0.011788      0.027192      1.902624
      4.22777     10.56943     11.11389        -0.001976      0.015848     -1.513432
      6.34166      8.45554     11.11389        -0.023141      0.047940     -2.206000
      4.22777     12.68331      9.00000        -0.000552     -0.004346      1.080632
      6.34166     14.79720      9.00000        -0.003234     -0.000020      1.729269
      4.22777     14.79720     11.11389         0.011556      0.031910     -1.179454
      6.34166     12.68331     11.11389        -0.005343     -0.000939     -2.940856
      4.22777     16.91108      9.00000        -0.024586     -0.023577      2.064631
      6.34166     19.02497      9.00000        -0.007266      0.001201      1.325404
      4.22777     19.02497     11.11389        -0.000572      0.002449     -2.537111
      6.34166     16.91108     11.11389        -0.021611      0.018755     -0.914470
      8.45554      0.00000      9.00000        -0.002654     -0.002081      1.871529
     10.56943      2.11389      9.00000        -0.010846      0.006089      2.173044
      8.45554      2.11389     11.11389        -0.009131      0.020104     -0.722259
     10.56943      0.00000     11.11389        -0.013689      0.005993     -0.977374
      8.45554      4.22777      9.00000         0.004435      0.000744      1.785485
     10.56943      6.34166      9.00000        -0.013072      0.007817      1.672185
      8.45554      6.34166     11.11389        -0.004055      0.007313     -0.614729
     10.56943      4.22777     11.11389         0.010002     -0.008248     -1.764031
      8.45554      8.45554      9.00000        -0.012541     -0.005073      0.893865
     10.56943     10.56943      9.00000         0.010059      0.011041      1.682600
      8.45554     10.56943     11.11389        -0.002777     -0.013782     -1.297027
     10.56943      8.45554     11.11389        -0.005475     -0.005444     -3.120660
      8.45554     12.68331      9.00000         0.011423      0.013519      1.162945
     10.56943     14.79720      9.00000         0.014242      0.000953      1.826354
      8.45554     14.79720     11.11389         0.003635     -0.014043     -0.818882
     10.56943     12.68331     11.11389         0.007108      0.020391     -3.071816
      8.45554     16.91108      9.00000         0.000992     -0.001544      1.256226
     10.56943     19.02497      9.00000         0.002521     -0.020621      0.961948
      8.45554     19.02497     11.11389         0.011170     -0.006354     -3.126527
     10.56943     16.91108     11.11389        -0.001259      0.006501     -0.459788
[...]
     19.02497      6.34166     11.11389         0.012038     -0.006459      0.161818
     16.91108      6.34166      9.00000        -0.030437      0.004740     -0.165317
     19.02497      4.22777      9.00000        -0.010140      0.004924     -0.155564
     16.91108      8.45554     11.11389         0.016488      0.000459      0.194886
     19.02497     10.56943     11.11389         0.007855      0.020824      0.183954
     16.91108     10.56943      9.00000        -0.000485     -0.013713     -0.417386
     19.02497      8.45554      9.00000        -0.016322      0.008373     -0.410328
     16.91108     12.68331     11.11389         0.004744     -0.009114      0.157894
     19.02497     14.79720     11.11389        -0.000497      0.011349      0.173632
     16.91108     14.79720      9.00000        -0.006236     -0.004193     -0.346969
     19.02497     12.68331      9.00000         0.010683     -0.024133     -0.208902
     16.91108     16.91108     11.11389         0.012080      0.005948      0.175541
     19.02497     19.02497     11.11389         0.021977     -0.003772      0.227004
     16.91108     19.02497      9.00000         0.001337     -0.019370     -0.060159
     19.02497     16.91108      9.00000         0.005577     -0.027021     -0.334922
    total drift:                               -0.053484      0.163583     80.582268

  FREE ENERGIE OF THE ION-ELECTRON SYSTEM (eV)
  free  energy   TOTEN  =     -1656.99418547 eV

  energy  without entropy=    -1656.98170808  energy(sigma->0) =    -1656.98794678