 vasp.6.3.0 20Jan22 (build Apr  1 2022 16:44:48) complex
 executed on        HPECrayEX_GCC date 2023.01.17  10:21:19

 INCAR:
   SYSTEM = MgO-rocksalt
   ISMEAR = 0
   SIGMA = 0.05
   EDIFF = 1E-6
   ALGO = ALL
   ISTART = 0
   IBRION = -1
   NSW = 0
   ISYM = 2
   DIPOL = 0.5 0.5 0.5
   IDIPOL = 3
   LDIPOL = .TRUE.
   LHFCALC = .TRUE.
   GGA = PE
   IVDW = 21
   VDW_SR = 0.96
   ENCUT = 520
   PREC = Accurate
   LASPH = .TRUE.
   LREAL = Auto
   ISPIN = 1
   NELM = 200
   NELMIN = 8
   NCORE = 4
   KPAR = 2
   LWAVE = .FALSE.
   LCHARG = .FALSE.

 POTCAR:    PAW_PBE Cu 22Jun2005
 POTCAR:    PAW_PBE Mg_pv 13Apr2007
 POTCAR:    PAW_PBE O 08Apr2002
|           W    W    AA    RRRRR   N    N  II  N    N   GGGG   !!!           |
|           W    W   A  A   R    R  NN   N  II  NN   N  G    G  !!!           |
|           W    W  A    A  R    R  N N  N  II  N N  N  G       !!!           |
|           W WW W  AAAAAA  RRRRR   N  N N  II  N  N N  G  GGG   !            |
|           WW  WW  A    A  R   R   N   NN  II  N   NN  G    G                |
|           W    W  A    A  R    R  N    N  II  N    N   GGGG   !!!           |
|     You have selected ISYM=2 for a HF type calculation. This will           |
|     symmetrize the charge density but not the exchange potential. I         |
|     suggest to use ISYM=3 instead. This uses symmetry to obtain the         |
|     orbitals at all k-points in the Brillouin zone, but does not apply      |
|     symmetry to the Hartree potential directly. The resultant charge        |
|     might have lower symmetry than the crystal but, at least, Hartree       |
|     and exchange are fully compatible.                                      |

   TITEL  = PAW_PBE Cu 22Jun2005
   POMASS =   63.546; ZVAL   =   11.000    mass and valenz
   ENMAX  =  295.446; ENMIN  =  221.585 eV

   TITEL  = PAW_PBE Mg_pv 13Apr2007
   POMASS =   24.305; ZVAL   =    8.000    mass and valenz
   ENMAX  =  403.929; ENMIN  =  302.947 eV

   TITEL  = PAW_PBE O 08Apr2002
   POMASS =   16.000; ZVAL   =    6.000    mass and valenz
   ENMAX  =  400.000; ENMIN  =  300.000 eV

 Optimization of the real space projectors (new method)

 maximal supplied QI-value         = 16.25
 optimisation between [QCUT,QGAM] = [ 11.54, 23.24] = [ 37.28,151.24] Ry
 Optimized for a Real-space Cutoff    1.53 Angstroem

   l    n(q)    QCUT    max X(q) W(low)/X(q) W(high)/X(q)  e(spline)
   2     10    11.539     4.610    0.96E-04    0.13E-03    0.19E-06
   2     10    11.539     8.522    0.16E-03    0.21E-03    0.28E-06
   0     11    11.539    51.609    0.45E-04    0.31E-04    0.11E-06
   0     11    11.539    27.747    0.39E-04    0.29E-04    0.10E-06
   1     10    11.539    20.408    0.70E-05    0.38E-04    0.18E-06
   1     10    11.539    13.425    0.66E-05    0.34E-04    0.17E-06
 Optimization of the real space projectors (new method)

[...]

   l    n(q)    QCUT    max X(q) W(low)/X(q) W(high)/X(q)  e(spline)
   1      8    11.527     2.974    0.44E-04    0.56E-04    0.12E-06
   1      8    11.527     4.279    0.12E-03    0.12E-03    0.26E-06
   0      9    11.527    16.381    0.46E-04    0.64E-04    0.78E-07
   0      9    11.527     5.611    0.26E-04    0.43E-04    0.55E-07
   2      8    11.527     4.652    0.22E-03    0.72E-04    0.47E-07
 Optimization of the real space projectors (new method)

 maximal supplied QI-value         = 24.76
 optimisation between [QCUT,QGAM] = [ 11.64, 23.27] = [ 37.91,151.63] Ry
 Optimized for a Real-space Cutoff    1.14 Angstroem

   l    n(q)    QCUT    max X(q) W(low)/X(q) W(high)/X(q)  e(spline)
   0      8    11.635    20.381    0.10E-03    0.33E-03    0.24E-06
   0      8    11.635    15.268    0.11E-03    0.35E-03    0.26E-06
   1      7    11.635     5.964    0.24E-03    0.31E-03    0.30E-06
   1      7    11.635     5.382    0.22E-03    0.25E-03    0.26E-06
  PAW_PBE Cu 22Jun2005                  :
  PAW_PBE Mg_pv 13Apr2007               :
  PAW_PBE O 08Apr2002                   :

 POSCAR: Cu Mg  O
  positions in direct lattice
  velocities in cartesian coordinates
 exchange correlation table for  LEXCH =        8
   RHO(1)=    0.500       N(1)  =     2000
   RHO(2)=  100.500       N(2)  =     4000

 ion  position               nearest neighbor table
   1  0.400  0.417  0.591- 153 1.98   4 2.26   3 2.42   2 2.42  55 2.62
   2  0.490  0.488  0.600- 154 2.19   4 2.37   1 2.42
   3  0.310  0.488  0.600- 134 2.19   4 2.37   1 2.42
   4  0.400  0.492  0.664-   1 2.26   2 2.37   3 2.37
   5  0.000  0.000  0.407- 107 2.11 108 2.11 123 2.11 188 2.11 105 2.11
   6  0.100  0.100  0.407- 107 2.11 108 2.11 112 2.11 127 2.11 106 2.11
   7  0.000  0.100  0.503- 105 2.11 106 2.11 109 2.11 186 2.11 107 2.11
   8  0.100  0.000  0.503- 105 2.11 106 2.11 122 2.11 125 2.11 108 2.11
   9  0.000  0.200  0.407- 111 2.11 107 2.11 112 2.11 192 2.11 109 2.11
  10  0.100  0.300  0.407- 112 2.11 111 2.11 116 2.11 131 2.11 110 2.11
  11  0.000  0.300  0.503- 109 2.11 110 2.11 113 2.11 190 2.11 111 2.11
  12  0.100  0.200  0.503- 110 2.11 109 2.11 106 2.11 129 2.11 112 2.11
  13  0.000  0.400  0.407- 111 2.11 115 2.11 116 2.11 196 2.11 113 2.11
  14  0.100  0.500  0.407- 115 2.11 116 2.11 120 2.11 135 2.11 114 2.11
  15  0.000  0.500  0.503- 113 2.11 114 2.11 117 2.11 194 2.11 115 2.11
  16  0.100  0.400  0.503- 110 2.11 113 2.11 114 2.11 133 2.11 116 2.11
  17  0.000  0.600  0.407- 115 2.11 119 2.11 120 2.11 200 2.11 117 2.11
  18  0.100  0.700  0.407- 124 2.11 120 2.11 119 2.11 139 2.11 118 2.11
  19  0.000  0.700  0.503- 121 2.11 118 2.11 117 2.11 198 2.11 119 2.11
  20  0.100  0.600  0.503- 114 2.11 117 2.11 118 2.11 137 2.11 120 2.11
  21  0.000  0.800  0.407- 119 2.11 123 2.11 124 2.11 204 2.11 121 2.11
  22  0.100  0.900  0.407- 108 2.11 123 2.11 124 2.11 143 2.11 122 2.11
  23  0.000  0.900  0.503- 105 2.11 121 2.11 122 2.11 202 2.11 123 2.11
  24  0.100  0.800  0.503- 118 2.11 121 2.11 122 2.11 141 2.11 124 2.11
  25  0.200  0.000  0.407- 128 2.11 127 2.11 108 2.11 143 2.11 125 2.11
  26  0.300  0.100  0.407- 127 2.11 128 2.11 132 2.11 147 2.11 126 2.11
  27  0.200  0.100  0.503- 126 2.11 125 2.11 106 2.11 129 2.11 127 2.11
  28  0.300  0.000  0.503- 125 2.11 126 2.11 142 2.11 145 2.11 128 2.11
  29  0.200  0.200  0.407- 131 2.11 132 2.11 112 2.11 127 2.11 129 2.11
  30  0.300  0.300  0.407- 131 2.11 132 2.11 136 2.11 151 2.11 130 2.11
  31  0.200  0.300  0.503- 129 2.11 130 2.11 110 2.11 133 2.11 131 2.11
  32  0.300  0.200  0.503- 129 2.11 130 2.11 126 2.11 149 2.11 132 2.11
  33  0.200  0.400  0.407- 136 2.11 131 2.11 135 2.11 116 2.11 133 2.11
  34  0.300  0.500  0.407- 135 2.11 136 2.11 140 2.11 155 2.11 134 2.11
  35  0.200  0.500  0.503- 134 2.11 133 2.11 114 2.11 137 2.11 135 2.11
  36  0.300  0.400  0.503- 133 2.11 130 2.11 134 2.11 153 2.11 136 2.11
  37  0.200  0.600  0.407- 140 2.11 135 2.11 139 2.11 120 2.11 137 2.11
  38  0.300  0.700  0.407- 139 2.11 144 2.11 140 2.11 159 2.11 138 2.11
  39  0.200  0.700  0.503- 138 2.11 141 2.11 118 2.11 137 2.11 139 2.11
  40  0.300  0.600  0.503- 137 2.11 134 2.11 138 2.11 157 2.11 140 2.11
  41  0.200  0.800  0.407- 139 2.11 144 2.11 143 2.11 124 2.11 141 2.11
  42  0.300  0.900  0.407- 143 2.11 128 2.11 144 2.11 163 2.11 142 2.11
  43  0.200  0.900  0.503- 142 2.11 125 2.11 141 2.11 122 2.11 143 2.11
  44  0.300  0.800  0.503- 138 2.11 141 2.11 142 2.11 161 2.11 144 2.11
  45  0.400  0.000  0.407- 128 2.11 147 2.11 148 2.11 163 2.11 145 2.11
  46  0.500  0.100  0.407- 147 2.11 148 2.11 152 2.11 167 2.11 146 2.11
  47  0.400  0.100  0.503- 126 2.11 145 2.11 146 2.11 149 2.11 147 2.11
  48  0.500  0.000  0.503- 145 2.11 146 2.11 162 2.11 165 2.11 148 2.11
  49  0.400  0.200  0.407- 151 2.11 147 2.11 132 2.11 152 2.11 149 2.11
  50  0.500  0.300  0.407- 152 2.11 151 2.11 156 2.11 171 2.11 150 2.11
  51  0.400  0.300  0.503- 149 2.11 130 2.11 150 2.11 153 2.11 151 2.11
  52  0.500  0.200  0.503- 150 2.11 149 2.11 146 2.11 169 2.11 152 2.11
  53  0.400  0.400  0.407- 136 2.11 151 2.11 155 2.11 156 2.11 153 2.11
  54  0.500  0.500  0.407- 155 2.11 156 2.11 160 2.11 175 2.11 154 2.11
  55  0.400  0.500  0.503- 134 2.11 153 2.11 154 2.11 157 2.11 155 2.11   1 2.62
  56  0.500  0.400  0.503- 150 2.11 153 2.11 154 2.11 173 2.11 156 2.11
  57  0.400  0.600  0.407- 140 2.11 155 2.11 159 2.11 160 2.11 157 2.11
  58  0.500  0.700  0.407- 164 2.11 160 2.11 159 2.11 179 2.11 158 2.11
  59  0.400  0.700  0.503- 161 2.11 157 2.11 158 2.11 138 2.11 159 2.11
  60  0.500  0.600  0.503- 154 2.11 157 2.11 158 2.11 177 2.11 160 2.11
[...]
 190  0.900  0.300  0.503-  92 2.11  91 2.11  11 2.11  96 2.11  90 2.11
 191  0.800  0.300  0.407-  70 2.11  89 2.11  90 2.11  93 2.11  91 2.11
 192  0.900  0.200  0.407-  90 2.11  86 2.11  89 2.11   9 2.11  92 2.11
 193  0.800  0.400  0.503-  76 2.11  91 2.11  95 2.11  96 2.11  93 2.11
 194  0.900  0.500  0.503-  15 2.11  95 2.11  96 2.11 100 2.11  94 2.11
 195  0.800  0.500  0.407-  74 2.11  93 2.11  94 2.11  97 2.11  95 2.11
 196  0.900  0.400  0.407-  13 2.11  90 2.11  93 2.11  94 2.11  96 2.11
 197  0.800  0.600  0.503-  80 2.11  95 2.11  99 2.11 100 2.11  97 2.11
 198  0.900  0.700  0.503- 104 2.11  99 2.11 100 2.11  19 2.11  98 2.11
 199  0.800  0.700  0.407-  78 2.11 101 2.11  98 2.11  97 2.11  99 2.11
 200  0.900  0.600  0.407-  17 2.11  94 2.11  97 2.11  98 2.11 100 2.11
 201  0.800  0.800  0.503-  84 2.11  99 2.11 103 2.11 104 2.11 101 2.11
 202  0.900  0.900  0.503-  23 2.11  88 2.11 103 2.11 104 2.11 102 2.11
 203  0.800  0.900  0.407-  82 2.11  85 2.11 101 2.11 102 2.11 103 2.11
 204  0.900  0.800  0.407-  98 2.11  21 2.11 101 2.11 102 2.11 104 2.11

  LATTYP: Found a simple tetragonal cell.
 ALAT       =    21.1388521970
 C/A-ratio  =     1.0461251639

  Lattice vectors:

 A1 = (  21.1388521970,   0.0000000000,   0.0000000000)
 A2 = (   0.0000000000,  21.1388521970,   0.0000000000)
 A3 = (   0.0000000000,   0.0000000000,  22.1138852197)

Analysis of symmetry for initial positions (statically):
 Subroutine PRICEL returns:
 Original cell was already a primitive cell.

 Routine SETGRP: Setting up the symmetry group for a
 simple tetragonal supercell.

 Subroutine GETGRP returns: Found  2 space group operations
 (whereof  1 operations were pure point group operations)
 out of a pool of 16 trial point group operations.

The static configuration has the point symmetry C_1 .
 The point group associated with its full space group is C_1h.

Analysis of symmetry for dynamics (positions and initial velocities):
 Subroutine PRICEL returns:
 Original cell was already a primitive cell.

[...]

The dynamic configuration has the point symmetry C_1 .
 The point group associated with its full space group is C_1h.

Analysis of constrained symmetry for selective dynamics:
 Subroutine PRICEL returns:
 Original cell was already a primitive cell.

 Routine SETGRP: Setting up the symmetry group for a
 simple tetragonal supercell.

 Subroutine GETGRP returns: Found  2 space group operations
 (whereof  1 operations were pure point group operations)
 out of a pool of 16 trial point group operations.

The constrained configuration has the point symmetry C_1 .
 The point group associated with its full space group is C_1h.

[...]
   Mg          1.375          1.539          3.324          0.04682328
   Mg          1.378          1.540          3.329          0.04688638
   Mg          1.371          1.539          3.320          0.04676154
   Mg          1.375          1.539          3.325          0.04683115
   Mg          1.373          1.539          3.322          0.04678942
   Mg          1.381          1.540          3.332          0.04692600
   Mg          1.378          1.540          3.329          0.04688821
   Mg          1.378          1.540          3.328          0.04687171
   Mg          1.377          1.540          3.328          0.04687119
   Mg          1.373          1.539          3.322          0.04678771
[...]
   O         198.967          4.882         19.285          3.57130394
   O         199.910          4.885         19.331          3.57975452
   O         199.851          4.885         19.328          3.57922659
   O         198.833          4.881         19.279          3.57010135
   O         198.865          4.881         19.280          3.57038550
   O         199.937          4.886         19.332          3.57999569
   O         199.907          4.885         19.331          3.57972860
   O         198.964          4.882         19.285          3.57127522
   O         199.071          4.882         19.290          3.57224086
   O         199.849          4.885         19.328          3.57921358
   O         199.880          4.885         19.329          3.57948785
   O         199.125          4.882         19.293          3.57272380
   O         199.224          4.883         19.297          3.57360651
   O         199.826          4.885         19.327          3.57900937
   O         199.831          4.885         19.327          3.57904967

  vdW correction parametrized for the method         

  IVDW =  21
  VDW_RADIUS =    50.000 A
  VDW_IDAMPF =  0
  VDW_S6 =     1.000
  VDW_SR =     0.960
  VDW_D =    20.000
  LVDW_ONECELL = F F F
  LVDW_SAMETYPE T T T
  LVDW_EWALD = F

  Number of pair interactions contributing to vdW energy: 1118669
  Edisp (eV):   -7.44163

 VOLUME and BASIS-vectors are now :
  energy-cutoff  :      520.00
  volume of cell :     9881.61
      direct lattice vectors                 reciprocal lattice vectors
    21.138852197  0.000000000  0.000000000     0.047306258  0.000000000  0.000000000
     0.000000000 21.138852197  0.000000000     0.000000000  0.047306258  0.000000000
     0.000000000  0.000000000 22.113885220     0.000000000  0.000000000  0.045220457

  length of vectors
    21.138852197 21.138852197 22.113885220     0.047306258  0.047306258  0.045220457

 FORCES acting on ions:
    Electron-Ion                     Ewald-Force                    Non-Local-Force
   0.203E-01 0.600E+03 -.198E+04   -.580E-02 -.593E+03 0.198E+04   0.000E+00 -.690E+01 -.146E+01
   -.602E+03 -.173E+03 -.205E+04   0.595E+03 0.168E+03 0.205E+04   0.683E+01 0.476E+01 -.633E+01
   0.602E+03 -.173E+03 -.205E+04   -.595E+03 0.168E+03 0.205E+04   -.683E+01 0.476E+01 -.633E+01
   -.160E-01 -.265E+03 -.243E+04   0.277E-02 0.258E+03 0.242E+04   0.000E+00 0.639E+01 0.108E+02
   0.683E+01 0.257E+01 0.937E+03   -.683E+01 -.257E+01 -.928E+03   0.141E-01 0.326E-02 -.712E+01
   0.150E+02 0.152E+02 0.942E+03   -.151E+02 -.153E+02 -.933E+03   0.417E-01 0.265E-01 -.712E+01
   0.108E+02 0.133E+02 -.919E+03   -.109E+02 -.133E+02 0.911E+03   0.181E-01 -.116E-03 0.704E+01
   0.140E+02 0.454E+01 -.919E+03   -.140E+02 -.455E+01 0.910E+03   0.205E-01 0.689E-02 0.704E+01
   0.128E+02 0.160E+02 0.942E+03   -.129E+02 -.160E+02 -.934E+03   0.371E-01 0.108E-01 -.713E+01
   0.361E+02 0.255E+02 0.960E+03   -.363E+02 -.255E+02 -.951E+03   0.143E+00 0.360E-01 -.717E+01
   0.262E+02 0.207E+02 -.912E+03   -.262E+02 -.207E+02 0.904E+03   0.240E-01 -.512E-02 0.702E+01
   0.324E+02 0.330E+02 -.911E+03   -.324E+02 -.330E+02 0.902E+03   0.633E-01 -.394E-03 0.702E+01
   0.238E+02 0.841E+01 0.952E+03   -.239E+02 -.842E+01 -.943E+03   0.702E-01 0.673E-02 -.715E+01
   0.515E+02 -.623E+01 0.974E+03   -.519E+02 0.623E+01 -.965E+03   0.259E+00 -.210E-02 -.721E+01
   0.376E+02 -.453E+01 -.907E+03   -.376E+02 0.452E+01 0.899E+03   0.282E-01 0.582E-02 0.701E+01
   0.827E+02 0.251E+02 -.887E+03   -.827E+02 -.251E+02 0.879E+03   0.801E-01 -.288E-02 0.696E+01
   0.211E+02 -.134E+02 0.950E+03   -.211E+02 0.134E+02 -.941E+03   0.673E-01 -.812E-02 -.714E+01
   0.278E+02 -.260E+02 0.954E+03   -.279E+02 0.260E+02 -.945E+03   0.749E-01 -.508E-01 -.714E+01
   0.207E+02 -.217E+02 -.914E+03   -.207E+02 0.217E+02 0.906E+03   0.299E-01 0.141E-02 0.703E+01
   0.683E+02 -.363E+02 -.893E+03   -.685E+02 0.363E+02 0.885E+03   0.158E+00 0.162E-01 0.699E+01
   0.100E+02 -.135E+02 0.940E+03   -.100E+02 0.135E+02 -.932E+03   0.201E-01 -.127E-01 -.712E+01
   0.122E+02 -.855E+01 0.940E+03   -.123E+02 0.856E+01 -.931E+03   0.212E-01 -.967E-02 -.712E+01
   0.888E+01 -.776E+01 -.920E+03   -.888E+01 0.777E+01 0.911E+03   0.995E-02 -.203E-02 0.704E+01
   0.232E+02 -.261E+02 -.914E+03   -.233E+02 0.262E+02 0.906E+03   0.215E-01 -.196E-01 0.703E+01
   0.120E+02 0.515E+01 0.942E+03   -.121E+02 -.519E+01 -.933E+03   0.263E-01 0.240E-01 -.712E+01
   0.110E+02 0.289E+02 0.952E+03   -.111E+02 -.291E+02 -.943E+03   0.358E-01 0.117E+00 -.713E+01
   0.217E+02 0.305E+02 -.912E+03   -.217E+02 -.305E+02 0.904E+03   0.426E-01 0.422E-01 0.703E+01
   0.968E+01 0.906E+01 -.914E+03   -.969E+01 -.911E+01 0.906E+03   0.150E-01 0.346E-01 0.703E+01
   0.276E+02 0.372E+02 0.960E+03   -.277E+02 -.374E+02 -.952E+03   0.113E+00 0.108E+00 -.715E+01
   0.374E+02 0.673E+02 0.102E+04   -.378E+02 -.679E+02 -.101E+04   0.274E+00 0.397E+00 -.717E+01
   0.835E+02 0.800E+02 -.872E+03   -.838E+02 -.800E+02 0.864E+03   0.257E+00 0.481E-02 0.691E+01
   0.325E+02 0.871E+02 -.887E+03   -.326E+02 -.874E+02 0.878E+03   0.812E-01 0.213E+00 0.700E+01
   0.681E+02 0.278E+02 0.101E+04   -.688E+02 -.280E+02 -.100E+04   0.492E+00 0.110E+00 -.732E+01
   0.584E+02 -.240E+02 0.109E+04   -.591E+02 0.244E+02 -.108E+04   0.448E+00 -.238E+00 -.610E+01
   0.182E+03 -.296E+02 -.789E+03   -.184E+03 0.294E+02 0.781E+03   0.117E+01 0.102E+00 0.670E+01
   0.184E+03 0.161E+03 -.640E+03   -.187E+03 -.162E+03 0.634E+03   0.183E+01 0.781E+00 0.516E+01
   0.543E+02 -.416E+02 0.997E+03   -.546E+02 0.418E+02 -.989E+03   0.234E+00 -.171E+00 -.714E+01
   0.231E+02 -.585E+02 0.985E+03   -.231E+02 0.589E+02 -.977E+03   0.485E-01 -.271E+00 -.720E+01
   0.527E+02 -.687E+02 -.889E+03   -.527E+02 0.689E+02 0.881E+03   0.352E-01 -.134E+00 0.699E+01
   0.902E+02 -.176E+03 -.763E+03   -.903E+02 0.177E+03 0.755E+03   0.333E-01 -.113E+01 0.675E+01
   0.193E+02 -.283E+02 0.951E+03   -.193E+02 0.284E+02 -.943E+03   0.336E-01 -.686E-01 -.714E+01
   0.832E+01 -.148E+02 0.946E+03   -.832E+01 0.149E+02 -.938E+03   0.137E-01 -.178E-01 -.713E+01
   0.162E+02 -.161E+02 -.915E+03   -.162E+02 0.161E+02 0.907E+03   0.171E-01 -.414E-02 0.703E+01
   0.182E+02 -.562E+02 -.902E+03   -.182E+02 0.563E+02 0.893E+03   0.132E-01 -.475E-01 0.702E+01
   0.148E-01 0.733E+01 0.946E+03   -.217E-03 -.740E+01 -.937E+03   0.000E+00 0.492E-01 -.713E+01
   -.110E+02 0.289E+02 0.952E+03   0.111E+02 -.291E+02 -.943E+03   -.358E-01 0.117E+00 -.713E+01
   0.150E-01 0.470E+02 -.906E+03   -.391E-03 -.472E+02 0.898E+03   0.000E+00 0.127E+00 0.702E+01
   -.965E+01 0.906E+01 -.914E+03   0.969E+01 -.911E+01 0.906E+03   -.150E-01 0.346E-01 0.703E+01
   0.152E-01 0.590E+02 0.979E+03   -.499E-03 -.596E+02 -.970E+03   0.000E+00 0.382E+00 -.718E+01
   -.374E+02 0.673E+02 0.102E+04   0.378E+02 -.679E+02 -.101E+04   -.274E+00 0.397E+00 -.717E+01
   0.169E-01 0.207E+03 -.778E+03   -.193E-02 -.210E+03 0.769E+03   0.000E+00 0.191E+01 0.712E+01
   -.324E+02 0.871E+02 -.887E+03   0.326E+02 -.874E+02 0.878E+03   -.812E-01 0.213E+00 0.700E+01
   0.161E-01 0.519E+02 0.111E+04   -.142E-02 -.523E+02 -.110E+04   0.000E+00 0.239E+00 -.508E+01
   -.584E+02 -.240E+02 0.109E+04   0.591E+02 0.244E+02 -.108E+04   -.448E+00 -.238E+00 -.610E+01
   0.173E-01 -.151E+03 -.465E+03   -.165E-02 0.154E+03 0.460E+03   0.000E+00 -.176E+01 0.458E+01
   -.184E+03 0.161E+03 -.640E+03   0.187E+03 -.162E+03 0.634E+03   -.183E+01 0.781E+00 0.516E+01
   0.158E-01 -.758E+02 0.105E+04   -.116E-02 0.766E+02 -.105E+04   0.000E+00 -.556E+00 -.729E+01
   -.230E+02 -.585E+02 0.985E+03   0.231E+02 0.589E+02 -.977E+03   -.485E-01 -.271E+00 -.720E+01
   0.159E-01 -.124E+03 -.859E+03   -.126E-02 0.124E+03 0.851E+03   0.000E+00 -.162E+00 0.696E+01
   -.902E+02 -.176E+03 -.763E+03   0.902E+02 0.177E+03 0.755E+03   -.333E-01 -.113E+01 0.675E+01
[...]
   -.139E+02 0.118E+02 0.712E+03   0.140E+02 -.118E+02 -.716E+03   -.436E-01 0.133E-01 0.304E+01
   0.705E-01 0.101E+02 0.706E+03   0.250E-03 -.101E+02 -.710E+03   0.000E+00 0.728E-02 0.305E+01
   -.264E+02 0.872E+01 -.682E+03   0.264E+02 -.872E+01 0.686E+03   -.262E-01 0.119E-02 -.323E+01
   0.700E-01 -.249E+01 -.685E+03   0.726E-03 0.248E+01 0.690E+03   0.000E+00 0.496E-02 -.321E+01
   -.187E+02 -.257E+01 0.716E+03   0.188E+02 0.257E+01 -.720E+03   -.550E-01 0.988E-03 0.303E+01
   0.703E-01 0.498E+01 0.711E+03   0.461E-03 -.499E+01 -.715E+03   0.000E+00 0.503E-02 0.304E+01
   -.230E+02 -.135E+02 -.683E+03   0.231E+02 0.135E+02 0.688E+03   -.320E-01 0.484E-02 -.322E+01
   0.703E-01 -.129E+02 -.689E+03   0.440E-03 0.129E+02 0.693E+03   0.000E+00 -.251E-03 -.318E+01
   -.112E+02 -.125E+02 0.710E+03   0.113E+02 0.126E+02 -.714E+03   -.372E-01 -.204E-01 0.305E+01
   0.703E-01 -.803E+01 0.710E+03   0.431E-03 0.804E+01 -.714E+03   0.000E+00 -.528E-02 0.304E+01
   -.963E+01 -.128E+02 -.689E+03   0.971E+01 0.128E+02 0.694E+03   -.182E-01 -.889E-02 -.318E+01
   0.706E-01 -.496E+01 -.692E+03   0.195E-03 0.496E+01 0.696E+03   0.000E+00 -.197E-02 -.317E+01
   -.537E+01 -.469E+01 0.704E+03   0.545E+01 0.470E+01 -.708E+03   -.147E-01 -.512E-02 0.306E+01
   0.705E-01 -.866E+01 0.705E+03   0.219E-03 0.867E+01 -.709E+03   0.000E+00 -.927E-02 0.305E+01
   0.861E+01 -.100E+02 0.100E+02   0.261E-11 0.227E-12 0.227E-10   0.888E-15 0.931E+01 -.962E+01

 POSITION                                       TOTAL-FORCE (eV/Angst)
      8.45555      8.82382     13.06192        -0.000000     -0.165064     -0.001520
     10.35658     10.31213     13.27893         0.244145      0.041167     -0.055827
      6.55462     10.31214     13.27893        -0.244145      0.041167     -0.055827
      8.45565     10.40011     14.68777        -0.000000      0.069916      0.228712
      0.00000      0.00000      9.00000        -0.004537     -0.001071      0.578337
      2.11389      2.11389      9.00000        -0.013400     -0.008487      0.580084
      0.00000      2.11389     11.11389        -0.005567      0.000125     -0.545110
      2.11389      0.00000     11.11389        -0.006598     -0.002122     -0.545517
      0.00000      4.22777      9.00000        -0.011431     -0.003375      0.581761
      2.11389      6.34166      9.00000        -0.043816     -0.011465      0.592833
      0.00000      6.34166     11.11389        -0.006151      0.002208     -0.534496
      2.11389      4.22777     11.11389        -0.018653      0.000915     -0.532287
      0.00000      8.45554      9.00000        -0.021690     -0.002215      0.587477
      2.11389     10.56943      9.00000        -0.077100      0.000153      0.602264
      0.00000     10.56943     11.11389        -0.006126     -0.002257     -0.528145
      2.11389      8.45554     11.11389        -0.016928      0.003465     -0.488312
      0.00000     12.68331      9.00000        -0.020454      0.002603      0.585441
      2.11389     14.79720      9.00000        -0.024522      0.017034      0.582517
      0.00000     14.79720     11.11389        -0.008698     -0.000564     -0.539831
      2.11389     12.68331     11.11389        -0.043646     -0.007236     -0.508304
      0.00000     16.91108      9.00000        -0.006488      0.004115      0.579338
      2.11389     19.02497      9.00000        -0.006901      0.002953      0.579216
      0.00000     19.02497     11.11389        -0.003191      0.000567     -0.546866
      2.11389     16.91108     11.11389        -0.006871      0.005469     -0.540892
      4.22777      0.00000      9.00000        -0.008651     -0.007539      0.579519
      6.34166      2.11389      9.00000        -0.012219     -0.036101      0.581750
      4.22777      2.11389     11.11389        -0.013794     -0.012223     -0.537972
      6.34166      0.00000     11.11389        -0.005012     -0.010396     -0.542343
      4.22777      4.22777      9.00000        -0.037115     -0.035124      0.584596
      6.34166      6.34166      9.00000        -0.102746     -0.135137      0.569031
      4.22777      6.34166     11.11389        -0.062786      0.015694     -0.449802
      6.34166      4.22777     11.11389        -0.028791     -0.062337     -0.512495
      4.22777      8.45554      9.00000        -0.154970     -0.042306      0.614792
      6.34166     10.56943      9.00000        -0.146632      0.088308      0.284322
      4.22777     10.56943     11.11389        -0.444199     -0.043717     -0.435773
      6.34166      8.45554     11.11389        -0.752935     -0.438991     -0.252967
      4.22777     12.68331      9.00000        -0.082603      0.063232      0.570429
      6.34166     14.79720      9.00000        -0.015095      0.081082      0.598433
      4.22777     14.79720     11.11389        -0.009572      0.036811     -0.510928
      6.34166     12.68331     11.11389         0.011908      0.418183     -0.425854
      4.22777     16.91108      9.00000        -0.010976      0.020992      0.583423
      6.34166     19.02497      9.00000        -0.004474      0.005367      0.580805
      4.22777     19.02497     11.11389        -0.005558      0.000901     -0.543313
      6.34166     16.91108     11.11389        -0.004190      0.011998     -0.531238
      8.45554      0.00000      9.00000        -0.000000     -0.014965      0.580179
     10.56943      2.11389      9.00000         0.012219     -0.036101      0.581750
      8.45554      2.11389     11.11389        -0.000000     -0.036652     -0.534425
     10.56943      0.00000     11.11389         0.005012     -0.010396     -0.542343
      8.45554      4.22777      9.00000        -0.000000     -0.112402      0.588667
     10.56943      6.34166      9.00000         0.102746     -0.135137      0.569031
      8.45554      6.34166     11.11389        -0.000000     -0.702134     -0.608197
     10.56943      4.22777     11.11389         0.028791     -0.062337     -0.512495
      8.45554      8.45554      9.00000        -0.000000     -0.095413      0.068517
     10.56943     10.56943      9.00000         0.146632      0.088308      0.284322
      8.45554     10.56943     11.11389        -0.000000      0.988254     -0.386407
     10.56943      8.45554     11.11389         0.752935     -0.438991     -0.252967
      8.45554     12.68331      9.00000        -0.000000      0.186172      0.596481
     10.56943     14.79720      9.00000         0.015095      0.081082      0.598433
      8.45554     14.79720     11.11389        -0.000000      0.038144     -0.486592
     10.56943     12.68331     11.11389        -0.011908      0.418183     -0.425854
[...]
     19.02497      6.34166     11.11389        -0.000000     -0.000912      0.396734
     16.91108      6.34166      9.00000        -0.014369      0.004299     -0.444100
     19.02497      4.22777      9.00000        -0.000000      0.002505     -0.439427
     16.91108      8.45554     11.11389        -0.010460      0.000803      0.384853
     19.02497     10.56943     11.11389        -0.000000      0.001609      0.393110
     16.91108     10.56943      9.00000        -0.018517      0.000334     -0.447241
     19.02497      8.45554      9.00000        -0.000000      0.001626     -0.443328
     16.91108     12.68331     11.11389        -0.012012      0.001130      0.390043
     19.02497     14.79720     11.11389        -0.000000     -0.000205      0.400204
     16.91108     14.79720      9.00000        -0.012297     -0.006692     -0.440513
     19.02497     12.68331      9.00000        -0.000000     -0.001682     -0.441725
     16.91108     16.91108     11.11389        -0.006230     -0.003113      0.402532
     19.02497     19.02497     11.11389        -0.000000     -0.000674      0.405633
     16.91108     19.02497      9.00000        -0.004930     -0.001714     -0.437292
     19.02497     16.91108      9.00000        -0.000000     -0.003118     -0.437891
    total drift:                                8.608537     -0.002996     -0.530868

  FREE ENERGIE OF THE ION-ELECTRON SYSTEM (eV)
  free  energy   TOTEN  =     -1436.65754595 eV

  energy  without entropy=    -1436.65754595  energy(sigma->0) =    -1436.65754595