 vasp.6.4.0 14Feb23 (build Dec 05 2023 14:15:48) complex

 executed on             LinuxIFC date 2023.12.06  05:00:36

 INCAR:
   SYSTEM = MgO-rocksalt
   ISMEAR = 0
   SIGMA = 0.05
   EDIFF = 1E-4
   ALGO = ALL
   ISTART = 0
   IBRION = -1
   NSW = 0
   ISYM = 0
   DIPOL = 0.5 0.5 0.5
   IDIPOL = 3
   LDIPOL = .TRUE.
   METAGGA = M06L
   ENCUT = 520
   PREC = Accurate
   LASPH = .TRUE.
   LREAL = Auto
   ISPIN = 1
   NELM = 2000
   NELMIN = 8
   NCORE = 8
   LWAVE = .FALSE.
   LCHARG = .FALSE.

 POTCAR:    PAW_PBE Cu 22Jun2005
 POTCAR:    PAW_PBE Mg_pv 13Apr2007
 POTCAR:    PAW_PBE O 08Apr2002
 POTCAR:    PAW_PBE Cu 22Jun2005
   VRHFIN =Cu: d10 p1

   TITEL  = PAW_PBE Cu 22Jun2005
   POMASS =   63.546; ZVAL   =   11.000    mass and valenz
   ENMAX  =  295.446; ENMIN  =  221.585 eV

   TITEL  = PAW_PBE Mg_pv 13Apr2007
   POMASS =   24.305; ZVAL   =    8.000    mass and valenz
   ENMAX  =  403.929; ENMIN  =  302.947 eV

   TITEL  = PAW_PBE O 08Apr2002
   POMASS =   16.000; ZVAL   =    6.000    mass and valenz
   ENMAX  =  400.000; ENMIN  =  300.000 eV

 Optimization of the real space projectors (new method)

 maximal supplied QI-value         = 16.25
 optimisation between [QCUT,QGAM] = [ 11.54, 23.24] = [ 37.28,151.24] Ry
 Optimized for a Real-space Cutoff    1.53 Angstroem

   l    n(q)    QCUT    max X(q) W(low)/X(q) W(high)/X(q)  e(spline)
   2     10    11.539     4.610    0.96E-04    0.13E-03    0.19E-06
   2     10    11.539     8.522    0.16E-03    0.21E-03    0.28E-06
   0     11    11.539    51.609    0.45E-04    0.31E-04    0.11E-06
   0     11    11.539    27.747    0.39E-04    0.29E-04    0.10E-06
   1     10    11.539    20.408    0.70E-05    0.38E-04    0.18E-06
   1     10    11.539    13.425    0.66E-05    0.34E-04    0.17E-06
 Optimization of the real space projectors (new method)

[...]

   l    n(q)    QCUT    max X(q) W(low)/X(q) W(high)/X(q)  e(spline)
   1      8    11.527     2.974    0.44E-04    0.56E-04    0.12E-06
   1      8    11.527     4.279    0.12E-03    0.12E-03    0.26E-06
   0      9    11.527    16.381    0.46E-04    0.64E-04    0.78E-07
   0      9    11.527     5.611    0.26E-04    0.43E-04    0.55E-07
   2      8    11.527     4.652    0.22E-03    0.72E-04    0.47E-07
 Optimization of the real space projectors (new method)

 maximal supplied QI-value         = 24.76
 optimisation between [QCUT,QGAM] = [ 11.64, 23.27] = [ 37.91,151.63] Ry
 Optimized for a Real-space Cutoff    1.14 Angstroem

   l    n(q)    QCUT    max X(q) W(low)/X(q) W(high)/X(q)  e(spline)
   0      8    11.635    20.381    0.10E-03    0.33E-03    0.24E-06
   0      8    11.635    15.268    0.11E-03    0.35E-03    0.26E-06
   1      7    11.635     5.964    0.24E-03    0.31E-03    0.30E-06
   1      7    11.635     5.382    0.22E-03    0.25E-03    0.26E-06
  PAW_PBE Cu 22Jun2005                  :
  PAW_PBE Mg_pv 13Apr2007               :
  PAW_PBE O 08Apr2002                   :

 POSCAR: Cu Mg  O
  positions in direct lattice

 METAGGA = M06L                                        LMAXTAU =  6    LMIXTAU =  F

 ion  position               nearest neighbor table
   1  0.538  0.462  0.618-   2 2.25
   2  0.462  0.538  0.618-   1 2.25
   3  0.000  0.000  0.407- 105 2.11 106 2.11 121 2.11 186 2.11 103 2.11
   4  0.100  0.100  0.407- 105 2.11 106 2.11 110 2.11 125 2.11 104 2.11
   5  0.000  0.100  0.503- 103 2.11 104 2.11 107 2.11 184 2.11 105 2.11
   6  0.100  0.000  0.503- 103 2.11 104 2.11 120 2.11 123 2.11 106 2.11
   7  0.000  0.200  0.407- 109 2.11 105 2.11 110 2.11 190 2.11 107 2.11
   8  0.100  0.300  0.407- 110 2.11 109 2.11 114 2.11 129 2.11 108 2.11
   9  0.000  0.300  0.503- 107 2.11 108 2.11 111 2.11 188 2.11 109 2.11
  10  0.100  0.200  0.503- 108 2.11 107 2.11 104 2.11 127 2.11 110 2.11
  11  0.000  0.400  0.407- 109 2.11 113 2.11 114 2.11 194 2.11 111 2.11
  12  0.100  0.500  0.407- 113 2.11 114 2.11 118 2.11 133 2.11 112 2.11
  13  0.000  0.500  0.503- 111 2.11 112 2.11 115 2.11 192 2.11 113 2.11
  14  0.100  0.400  0.503- 108 2.11 111 2.11 112 2.11 131 2.11 114 2.11
  15  0.000  0.600  0.407- 113 2.11 117 2.11 118 2.11 198 2.11 115 2.11
  16  0.100  0.700  0.407- 122 2.11 118 2.11 117 2.11 137 2.11 116 2.11
  17  0.000  0.700  0.503- 119 2.11 116 2.11 115 2.11 196 2.11 117 2.11
  18  0.100  0.600  0.503- 112 2.11 115 2.11 116 2.11 135 2.11 118 2.11
  19  0.000  0.800  0.407- 117 2.11 121 2.11 122 2.11 202 2.11 119 2.11
  20  0.100  0.900  0.407- 106 2.11 121 2.11 122 2.11 141 2.11 120 2.11
  21  0.000  0.900  0.503- 103 2.11 119 2.11 120 2.11 200 2.11 121 2.11
  22  0.100  0.800  0.503- 116 2.11 119 2.11 120 2.11 139 2.11 122 2.11
  23  0.200  0.000  0.407- 126 2.11 125 2.11 106 2.11 141 2.11 123 2.11
  24  0.300  0.100  0.407- 125 2.11 126 2.11 130 2.11 145 2.11 124 2.11
  25  0.200  0.100  0.503- 124 2.11 123 2.11 104 2.11 127 2.11 125 2.11
  26  0.300  0.000  0.503- 123 2.11 124 2.11 140 2.11 143 2.11 126 2.11
  27  0.200  0.200  0.407- 129 2.11 130 2.11 110 2.11 125 2.11 127 2.11
  28  0.300  0.300  0.407- 129 2.11 130 2.11 134 2.11 149 2.11 128 2.11
  29  0.200  0.300  0.503- 127 2.11 128 2.11 108 2.11 131 2.11 129 2.11
  30  0.300  0.200  0.503- 127 2.11 128 2.11 124 2.11 147 2.11 130 2.11
  31  0.200  0.400  0.407- 134 2.11 129 2.11 133 2.11 114 2.11 131 2.11
  32  0.300  0.500  0.407- 133 2.11 134 2.11 138 2.11 153 2.11 132 2.11
  33  0.200  0.500  0.503- 132 2.11 131 2.11 112 2.11 135 2.11 133 2.11
  34  0.300  0.400  0.503- 131 2.11 128 2.11 132 2.11 151 2.11 134 2.11
  35  0.200  0.600  0.407- 138 2.11 133 2.11 137 2.11 118 2.11 135 2.11
  36  0.300  0.700  0.407- 137 2.11 142 2.11 138 2.11 157 2.11 136 2.11
  37  0.200  0.700  0.503- 136 2.11 139 2.11 116 2.11 135 2.11 137 2.11
  38  0.300  0.600  0.503- 135 2.11 132 2.11 136 2.11 155 2.11 138 2.11
  39  0.200  0.800  0.407- 137 2.11 142 2.11 141 2.11 122 2.11 139 2.11
  40  0.300  0.900  0.407- 141 2.11 126 2.11 142 2.11 161 2.11 140 2.11
  41  0.200  0.900  0.503- 140 2.11 123 2.11 139 2.11 120 2.11 141 2.11
  42  0.300  0.800  0.503- 136 2.11 139 2.11 140 2.11 159 2.11 142 2.11
  43  0.400  0.000  0.407- 126 2.11 145 2.11 146 2.11 161 2.11 143 2.11
  44  0.500  0.100  0.407- 145 2.11 146 2.11 150 2.11 165 2.11 144 2.11
  45  0.400  0.100  0.503- 124 2.11 143 2.11 144 2.11 147 2.11 145 2.11
  46  0.500  0.000  0.503- 143 2.11 144 2.11 160 2.11 163 2.11 146 2.11
  47  0.400  0.200  0.407- 149 2.11 145 2.11 130 2.11 150 2.11 147 2.11
  48  0.500  0.300  0.407- 150 2.11 149 2.11 154 2.11 169 2.11 148 2.11
  49  0.400  0.300  0.503- 147 2.11 128 2.11 148 2.11 151 2.11 149 2.11
  50  0.500  0.200  0.503- 148 2.11 147 2.11 144 2.11 167 2.11 150 2.11
  51  0.400  0.400  0.407- 134 2.11 149 2.11 153 2.11 154 2.11 151 2.11
  52  0.500  0.500  0.407- 153 2.11 154 2.11 158 2.11 173 2.11 152 2.11
  53  0.400  0.500  0.503- 132 2.11 151 2.11 152 2.11 155 2.11 153 2.11
  54  0.500  0.400  0.503- 148 2.11 151 2.11 152 2.11 171 2.11 154 2.11
  55  0.400  0.600  0.407- 138 2.11 153 2.11 157 2.11 158 2.11 155 2.11
  56  0.500  0.700  0.407- 162 2.11 158 2.11 157 2.11 177 2.11 156 2.11
  57  0.400  0.700  0.503- 159 2.11 155 2.11 156 2.11 136 2.11 157 2.11
  58  0.500  0.600  0.503- 152 2.11 155 2.11 156 2.11 175 2.11 158 2.11
  59  0.400  0.800  0.407- 157 2.11 142 2.11 161 2.11 162 2.11 159 2.11
  60  0.500  0.900  0.407- 146 2.11 161 2.11 162 2.11 181 2.11 160 2.11
[...]
 188  0.900  0.300  0.503-  90 2.11  89 2.11   9 2.11  94 2.11  88 2.11
 189  0.800  0.300  0.407-  68 2.11  87 2.11  88 2.11  91 2.11  89 2.11
 190  0.900  0.200  0.407-  88 2.11  84 2.11  87 2.11   7 2.11  90 2.11
 191  0.800  0.400  0.503-  74 2.11  89 2.11  93 2.11  94 2.11  91 2.11
 192  0.900  0.500  0.503-  13 2.11  93 2.11  94 2.11  98 2.11  92 2.11
 193  0.800  0.500  0.407-  72 2.11  91 2.11  92 2.11  95 2.11  93 2.11
 194  0.900  0.400  0.407-  11 2.11  88 2.11  91 2.11  92 2.11  94 2.11
 195  0.800  0.600  0.503-  78 2.11  93 2.11  97 2.11  98 2.11  95 2.11
 196  0.900  0.700  0.503- 102 2.11  97 2.11  98 2.11  17 2.11  96 2.11
 197  0.800  0.700  0.407-  76 2.11  99 2.11  96 2.11  95 2.11  97 2.11
 198  0.900  0.600  0.407-  15 2.11  92 2.11  95 2.11  96 2.11  98 2.11
 199  0.800  0.800  0.503-  82 2.11  97 2.11 101 2.11 102 2.11  99 2.11
 200  0.900  0.900  0.503-  21 2.11  86 2.11 101 2.11 102 2.11 100 2.11
 201  0.800  0.900  0.407-  80 2.11  83 2.11  99 2.11 100 2.11 101 2.11
 202  0.900  0.800  0.407-  96 2.11  19 2.11  99 2.11 100 2.11 102 2.11

IMPORTANT INFORMATION: All symmetrisations will be switched off!
NOSYMM: (Re-)initialisation of all symmetry stuff for point group C_1.

                                     Primitive cell

  volume of cell :    9881.6133

  direct lattice vectors                    reciprocal lattice vectors
    21.138852197  0.000000000  0.000000000     0.047306258  0.000000000  0.000000000
     0.000000000 21.138852197  0.000000000     0.000000000  0.047306258  0.000000000
     0.000000000  0.000000000 22.113885220     0.000000000  0.000000000  0.045220457

  length of vectors
    21.138852197 21.138852197 22.113885220     0.047306258  0.047306258  0.045220457

  position of ions in fractional coordinates (direct lattice)
     0.537549167  0.462450833  0.617673691
     0.462450833  0.537549167  0.617673691
     0.000000000  0.000000000  0.406984115
     0.100000000  0.100000000  0.406984115
     0.000000000  0.100000000  0.502574971
     0.100000000  0.000000000  0.502574971
     0.000000000  0.200000000  0.406984115
     0.100000000  0.300000000  0.406984115
     0.000000000  0.300000000  0.502574971
     0.100000000  0.200000000  0.502574971
     0.000000000  0.400000000  0.406984115
     0.100000000  0.500000000  0.406984115
     0.000000000  0.500000000  0.502574971
     0.100000000  0.400000000  0.502574971
     0.000000000  0.600000000  0.406984115
     0.100000000  0.700000000  0.406984115
     0.000000000  0.700000000  0.502574971
     0.100000000  0.600000000  0.502574971
     0.000000000  0.800000000  0.406984115
     0.100000000  0.900000000  0.406984115
     0.000000000  0.900000000  0.502574971
     0.100000000  0.800000000  0.502574971
     0.200000000  0.000000000  0.406984115
     0.300000000  0.100000000  0.406984115
     0.200000000  0.100000000  0.502574971
     0.300000000  0.000000000  0.502574971
     0.200000000  0.200000000  0.406984115
     0.300000000  0.300000000  0.406984115
     0.200000000  0.300000000  0.502574971
     0.300000000  0.200000000  0.502574971
     0.200000000  0.400000000  0.406984115
     0.300000000  0.500000000  0.406984115
     0.200000000  0.500000000  0.502574971
     0.300000000  0.400000000  0.502574971
     0.200000000  0.600000000  0.406984115
     0.300000000  0.700000000  0.406984115
     0.200000000  0.700000000  0.502574971
     0.300000000  0.600000000  0.502574971
     0.200000000  0.800000000  0.406984115
     0.300000000  0.900000000  0.406984115
     0.200000000  0.900000000  0.502574971
     0.300000000  0.800000000  0.502574971
     0.400000000  0.000000000  0.406984115
     0.500000000  0.100000000  0.406984115
     0.400000000  0.100000000  0.502574971
     0.500000000  0.000000000  0.502574971
     0.400000000  0.200000000  0.406984115
[...]
     52     -44.5704      2.00000
     53     -44.5700      2.00000
     54     -44.5665      2.00000
     55     -44.5638      2.00000
     56     -44.5635      2.00000
     57     -44.5625      2.00000
     58     -44.5619      2.00000
     59     -44.5611      2.00000
     60     -44.5585      2.00000
[...]
    850       6.8463      0.00000
    851       6.9787      0.00000
    852       7.0234      0.00000
    853       7.1134      0.00000
    854       7.1742      0.00000
    855       7.2191      0.00000
    856       7.2747      0.00000
    857       7.3154      0.00000
    858       7.3975      0.00000
    859       7.4739      0.00000
    860       7.5183      0.00000
    861       7.5488      0.00000
    862       7.6116      0.00000
    863       7.6799      0.00000
    864       7.7368      0.00000

 soft charge-density along one line, spin component           1
         0         1         2         3         4         5         6         7         8         9
 total charge-density along one line

------------------------ aborting loop because EDIFF is reached ----------------------------------------

  FORCE on cell =-STRESS in cart. coord.  units (eV):
  Direction    XX          YY          ZZ          XY          YZ          ZX
  Alpha Z  1354.41543  1354.41543  1354.41543
  Ewald  480118.83707480118.83707************  -374.58146     0.00000     0.00000
  Hartree509297.86318509298.14740************  -284.78865    -0.34496     0.28387
  E(xc)   -8817.12767 -8817.13251 -8809.98684    -0.62048     0.07559     0.00270
  Local  ************************************   652.24944     0.45889    -0.39760
  n-local -8679.02114 -8678.94287 -8796.36043     2.67563    -0.08546     0.12153
  augment  4227.10874  4227.18676  4212.67134     2.38808    -0.16943    -0.11240
  Kinetic 23039.45840 23039.01841 23269.45481     3.22896    -0.09358     0.31570
  Fock        0.00000     0.00000     0.00000     0.00000     0.00000     0.00000
  Total    -141.70613  -142.31712   128.47516     0.55152    -0.15897     0.21379
  in kB     -22.97584   -23.07490    20.83061     0.08942    -0.02577     0.03466

 VOLUME and BASIS-vectors are now :
  energy-cutoff  :      520.00
  volume of cell :     9881.61
      direct lattice vectors                 reciprocal lattice vectors
    21.138852197  0.000000000  0.000000000     0.047306258  0.000000000  0.000000000
     0.000000000 21.138852197  0.000000000     0.000000000  0.047306258  0.000000000
     0.000000000  0.000000000 22.113885220     0.000000000  0.000000000  0.045220457

  length of vectors
    21.138852197 21.138852197 22.113885220     0.047306258  0.047306258  0.045220457

 FORCES acting on ions:
    Electron-Ion                     Ewald-Force                    Non-Local-Force
   -.251E+03 0.251E+03 -.210E+04   0.243E+03 -.243E+03 0.210E+04   0.736E+01 -.733E+01 -.160E+01
   0.252E+03 -.252E+03 -.210E+04   -.243E+03 0.243E+03 0.210E+04   -.830E+01 0.832E+01 -.133E+01
   0.259E-01 0.755E-01 0.933E+03   0.758E-10 -.173E-08 -.923E+03   0.108E-01 -.176E-01 -.641E+01
   0.389E+01 0.387E+01 0.934E+03   -.391E+01 -.391E+01 -.924E+03   0.425E-02 0.113E-01 -.607E+01
   -.243E+00 0.424E+01 -.925E+03   0.225E+00 -.424E+01 0.915E+03   -.254E-01 -.348E-02 0.863E+01
   0.418E+01 -.191E+00 -.925E+03   -.424E+01 0.225E+00 0.915E+03   0.136E-01 -.256E-01 0.876E+01
   -.301E+00 0.585E+01 0.934E+03   0.305E+00 -.591E+01 -.925E+03   -.307E-01 0.283E-01 -.618E+01
   0.790E+01 0.752E+01 0.937E+03   -.789E+01 -.758E+01 -.927E+03   0.308E-01 0.363E-01 -.608E+01
   -.562E+00 0.771E+01 -.923E+03   0.565E+00 -.773E+01 0.913E+03   0.576E-02 0.853E-02 0.873E+01
   0.702E+01 0.860E+01 -.923E+03   -.703E+01 -.862E+01 0.914E+03   -.140E-01 0.379E-01 0.857E+01
   -.289E+00 0.394E+01 0.937E+03   0.271E+00 -.403E+01 -.928E+03   -.170E-01 -.354E-02 -.655E+01
   0.120E+02 0.274E+00 0.940E+03   -.120E+02 -.343E+00 -.931E+03   0.458E-01 0.159E-01 -.616E+01
   0.318E-01 -.861E-02 -.921E+03   -.231E-09 0.260E-08 0.911E+03   0.108E-01 0.181E-01 0.848E+01
   0.151E+02 0.700E+01 -.920E+03   -.151E+02 -.703E+01 0.910E+03   0.980E-02 0.180E-01 0.882E+01
   0.208E+00 -.406E+01 0.937E+03   -.271E+00 0.403E+01 -.928E+03   0.104E-01 0.247E-01 -.614E+01
   0.867E+01 -.761E+01 0.938E+03   -.877E+01 0.760E+01 -.928E+03   0.572E-01 -.141E-01 -.624E+01
   0.525E+00 -.769E+01 -.923E+03   -.565E+00 0.773E+01 0.913E+03   0.319E-01 -.318E-01 0.848E+01
   0.163E+02 -.632E+01 -.919E+03   -.164E+02 0.636E+01 0.910E+03   0.879E-01 0.107E-01 0.896E+01
   0.278E+00 -.585E+01 0.934E+03   -.305E+00 0.591E+01 -.925E+03   0.398E-01 -.189E-01 -.558E+01
   0.417E+01 -.426E+01 0.934E+03   -.423E+01 0.423E+01 -.924E+03   0.347E-01 0.123E-01 -.585E+01
   0.244E+00 -.418E+01 -.925E+03   -.225E+00 0.424E+01 0.915E+03   0.430E-01 0.644E-02 0.871E+01
   0.800E+01 -.901E+01 -.923E+03   -.805E+01 0.907E+01 0.913E+03   0.518E-01 -.348E-01 0.878E+01
   0.594E+01 -.291E+00 0.934E+03   -.591E+01 0.305E+00 -.925E+03   0.382E-01 -.357E-01 -.547E+01
   0.756E+01 0.789E+01 0.937E+03   -.758E+01 -.789E+01 -.927E+03   0.152E-01 -.187E-01 -.583E+01
   0.858E+01 0.706E+01 -.923E+03   -.862E+01 -.703E+01 0.914E+03   0.399E-01 -.126E-02 0.872E+01
   0.768E+01 -.620E+00 -.923E+03   -.773E+01 0.565E+00 0.913E+03   0.272E-02 -.208E-02 0.883E+01
   0.100E+02 0.100E+02 0.938E+03   -.101E+02 -.101E+02 -.928E+03   0.515E-02 0.311E-01 -.629E+01
   0.199E+02 0.199E+02 0.951E+03   -.200E+02 -.200E+02 -.941E+03   0.429E-01 0.945E-01 -.601E+01
   0.225E+02 0.170E+02 -.917E+03   -.225E+02 -.171E+02 0.907E+03   -.322E-01 0.326E-01 0.912E+01
   0.171E+02 0.224E+02 -.917E+03   -.171E+02 -.225E+02 0.907E+03   0.232E-01 0.473E-01 0.814E+01
   0.214E+02 0.898E+01 0.947E+03   -.216E+02 -.903E+01 -.937E+03   0.669E-01 0.342E-01 -.605E+01
   0.365E+02 0.180E+01 0.972E+03   -.368E+02 -.193E+01 -.962E+03   0.209E+00 0.100E+00 -.577E+01
   0.417E+02 0.187E+01 -.908E+03   -.419E+02 -.194E+01 0.899E+03   0.179E+00 0.102E+00 0.837E+01
   0.594E+02 0.331E+02 -.890E+03   -.595E+02 -.333E+02 0.880E+03   0.100E+00 0.140E+00 0.912E+01
   0.225E+02 -.805E+01 0.948E+03   -.228E+02 0.807E+01 -.939E+03   0.193E+00 -.374E-01 -.610E+01
   0.208E+02 -.208E+02 0.954E+03   -.210E+02 0.210E+02 -.944E+03   0.123E+00 -.125E+00 -.545E+01
   0.250E+02 -.179E+02 -.916E+03   -.252E+02 0.180E+02 0.906E+03   0.215E+00 0.127E-01 0.881E+01
   0.678E+02 -.313E+02 -.881E+03   -.687E+02 0.313E+02 0.872E+03   0.658E+00 0.540E-01 0.887E+01
   0.106E+02 -.106E+02 0.938E+03   -.107E+02 0.107E+02 -.929E+03   0.582E-01 -.944E-01 -.570E+01
   0.757E+01 -.866E+01 0.938E+03   -.760E+01 0.877E+01 -.928E+03   0.187E-01 -.727E-01 -.538E+01
   0.903E+01 -.798E+01 -.923E+03   -.907E+01 0.805E+01 0.913E+03   0.390E-01 -.401E-01 0.841E+01
   0.179E+02 -.250E+02 -.916E+03   -.180E+02 0.252E+02 0.906E+03   -.212E-01 -.135E+00 0.893E+01
   0.400E+01 -.241E+00 0.937E+03   -.403E+01 0.271E+00 -.928E+03   0.301E-01 -.180E-01 -.629E+01
   0.370E+00 0.119E+02 0.940E+03   -.343E+00 -.120E+02 -.931E+03   0.640E-02 0.719E-01 -.620E+01
   0.696E+01 0.151E+02 -.920E+03   -.703E+01 -.151E+02 0.910E+03   0.271E-01 -.785E-02 0.873E+01
   0.104E-03 -.164E-01 -.921E+03   -.231E-09 -.785E-08 0.911E+03   0.110E-02 -.268E-01 0.858E+01
   0.896E+01 0.215E+02 0.947E+03   -.903E+01 -.216E+02 -.937E+03   0.587E-01 0.780E-01 -.593E+01
   0.177E+01 0.365E+02 0.972E+03   -.193E+01 -.368E+02 -.962E+03   0.981E-01 0.173E+00 -.607E+01
   0.331E+02 0.594E+02 -.890E+03   -.333E+02 -.595E+02 0.880E+03   0.855E-01 0.573E-01 0.835E+01
   0.187E+01 0.417E+02 -.908E+03   -.194E+01 -.419E+02 0.899E+03   0.491E-01 0.680E-01 0.872E+01
   0.275E+02 0.275E+02 0.989E+03   -.278E+02 -.278E+02 -.980E+03   0.197E+00 0.190E+00 -.568E+01
   -.174E-01 -.702E-02 0.103E+04   0.187E-08 0.201E-07 -.102E+04   -.521E-02 -.349E-01 -.600E+01
   0.120E+03 0.208E+02 -.754E+03   -.121E+03 -.218E+02 0.746E+03   0.512E+00 0.579E+00 0.749E+01
   0.209E+02 0.120E+03 -.754E+03   -.218E+02 -.121E+03 0.746E+03   0.499E+00 0.486E+00 0.722E+01
   0.266E+02 -.266E+02 0.994E+03   -.267E+02 0.267E+02 -.985E+03   0.627E-01 -.664E-01 -.555E+01
   -.180E+01 -.365E+02 0.972E+03   0.193E+01 0.368E+02 -.962E+03   -.109E+00 -.193E+00 -.543E+01
   0.312E+02 -.678E+02 -.881E+03   -.313E+02 0.687E+02 0.872E+03   -.205E-01 -.660E+00 0.866E+01
   -.209E+02 -.120E+03 -.754E+03   0.218E+02 0.121E+03 0.746E+03   -.602E+00 -.554E+00 0.757E+01
   0.805E+01 -.225E+02 0.948E+03   -.807E+01 0.228E+02 -.939E+03   0.560E-02 -.187E+00 -.622E+01
   -.333E+00 -.120E+02 0.940E+03   0.343E+00 0.120E+02 -.931E+03   -.329E-01 -.907E-01 -.643E+01
[...]
   -.121E+02 0.901E+01 0.709E+03   0.124E+02 -.915E+01 -.712E+03   -.226E-01 0.289E-01 0.374E+01
   -.445E+01 0.550E+01 0.703E+03   0.457E+01 -.535E+01 -.706E+03   -.698E-02 0.767E-01 0.367E+01
   -.280E+02 0.920E+01 -.685E+03   0.281E+02 -.934E+01 0.687E+03   -.151E+00 -.423E-01 -.310E+01
   -.133E+02 -.484E+00 -.691E+03   0.132E+02 0.437E+00 0.693E+03   -.781E-01 -.376E-01 -.319E+01
   -.185E+02 -.694E+00 0.715E+03   0.188E+02 0.683E+00 -.717E+03   -.805E-01 -.633E-01 0.382E+01
   -.839E+01 0.372E+01 0.706E+03   0.844E+01 -.361E+01 -.709E+03   -.483E-01 0.400E-01 0.367E+01
   -.255E+02 -.105E+02 -.686E+03   0.257E+02 0.106E+02 0.688E+03   -.455E-01 -.747E-01 -.319E+01
   -.828E+01 -.721E+01 -.693E+03   0.809E+01 0.735E+01 0.695E+03   -.655E-01 -.106E-01 -.305E+01
   -.113E+02 -.893E+01 0.708E+03   0.116E+02 0.897E+01 -.711E+03   0.237E-01 -.473E-01 0.366E+01
   -.771E+01 -.407E+01 0.706E+03   0.791E+01 0.393E+01 -.709E+03   0.150E-01 -.655E-01 0.364E+01
   -.993E+01 -.103E+02 -.693E+03   0.101E+02 0.101E+02 0.695E+03   0.364E-01 -.614E-01 -.302E+01
   -.345E+01 -.357E+01 -.695E+03   0.361E+01 0.361E+01 0.698E+03   0.433E-01 0.106E-01 -.305E+01
   -.539E+01 -.383E+01 0.703E+03   0.515E+01 0.408E+01 -.706E+03   -.932E-01 0.668E-01 0.367E+01
   -.393E+01 -.497E+01 0.703E+03   0.408E+01 0.515E+01 -.706E+03   0.199E-01 0.404E-01 0.370E+01
   -.597E+00 0.788E-01 -.120E+03   0.168E-11 -.109E-11 -.853E-11   -.156E+01 0.130E+01 0.157E+03

 POSITION                                       TOTAL-FORCE (eV/Angst)
     11.36317      9.77568     13.65917        -0.326001      0.316905      0.562026
      9.77568     11.36317     13.65917        -0.209337      0.200625      0.780949
      0.00000      0.00000      9.00000         0.038333      0.047447      2.364527
      2.11389      2.11389      9.00000        -0.015847     -0.040886      2.968906
      0.00000      2.11389     11.11389        -0.121318     -0.040864     -2.391492
      2.11389      0.00000     11.11389        -0.026715      0.001054     -3.354715
      0.00000      4.22777      9.00000        -0.014869     -0.040987      2.588963
      2.11389      6.34166      9.00000         0.045006     -0.017752      2.702523
      0.00000      6.34166     11.11389         0.019934     -0.026757     -2.828304
      2.11389      4.22777     11.11389        -0.016742      0.037758     -4.112548
      0.00000      8.45554      9.00000        -0.021409     -0.094367      2.289729
      2.11389     10.56943      9.00000        -0.004386     -0.062560      2.614662
      0.00000     10.56943     11.11389         0.062178      0.013677     -3.358270
      2.11389      8.45554     11.11389        -0.018605     -0.009676     -4.840405
      0.00000     12.68331      9.00000        -0.044517     -0.014085      2.858645
      2.11389     14.79720      9.00000        -0.042141     -0.037968      2.736139
      0.00000     14.79720     11.11389        -0.001987     -0.010173     -2.772401
      2.11389     12.68331     11.11389         0.008859      0.043800     -4.469084
      0.00000     16.91108      9.00000         0.022630      0.038064      3.365187
      2.11389     19.02497      9.00000        -0.018813     -0.012404      3.076634
      0.00000     19.02497     11.11389         0.071407      0.053383     -4.848240
      2.11389     16.91108     11.11389         0.038905      0.018553     -3.666516
      4.22777      0.00000      9.00000         0.085205     -0.024969      3.737449
      6.34166      2.11389      9.00000         0.004180     -0.029469      3.186781
      4.22777      2.11389     11.11389        -0.015734      0.005822     -3.779882
      6.34166      0.00000     11.11389        -0.058841     -0.076616     -3.417487
      4.22777      4.22777      9.00000        -0.029343     -0.004749      2.496987
      6.34166      6.34166      9.00000        -0.024881     -0.023422      2.976963
      4.22777      6.34166     11.11389        -0.071228     -0.049738     -4.038714
      6.34166      4.22777     11.11389        -0.000281     -0.071399     -1.961522
      4.22777      8.45554      9.00000        -0.050604     -0.029361      2.874618
      6.34166     10.56943      9.00000        -0.050719     -0.038496      2.971600
      4.22777     10.56943     11.11389        -0.026156      0.028677     -2.053176
      6.34166      8.45554     11.11389         0.103758     -0.011562     -4.454292
      4.22777     12.68331      9.00000        -0.075693     -0.017501      3.226433
      6.34166     14.79720      9.00000        -0.044792      0.078522      3.587484
      4.22777     14.79720     11.11389        -0.015909      0.053295     -2.409672
      6.34166     12.68331     11.11389        -0.226726     -0.031526     -3.045925
      4.22777     16.91108      9.00000        -0.022484     -0.002512      3.210226
      6.34166     19.02497      9.00000        -0.008081      0.048014      3.872386
      4.22777     19.02497     11.11389         0.014997      0.025417     -2.546130
      6.34166     16.91108     11.11389        -0.082138      0.049739     -4.150340
      8.45554      0.00000      9.00000         0.012561      0.005564      2.480123
     10.56943      2.11389      9.00000         0.044944     -0.027810      2.742052
      8.45554      2.11389     11.11389        -0.044206     -0.036692     -3.969690
     10.56943      0.00000     11.11389         0.020979     -0.050757     -4.026658
      8.45554      4.22777      9.00000        -0.005085      0.004934      2.950924
     10.56943      6.34166      9.00000        -0.042956     -0.122221      2.840220
      8.45554      6.34166     11.11389        -0.088184     -0.041373     -1.976525
     10.56943      4.22777     11.11389        -0.027262     -0.112672     -3.679230
      8.45554      8.45554      9.00000        -0.006070     -0.105124      3.395150
     10.56943     10.56943      9.00000        -0.010402     -0.050571      2.327881
      8.45554     10.56943     11.11389        -0.384467     -0.393260     -1.514439
     10.56943      8.45554     11.11389        -0.349220     -0.432032     -1.882163
      8.45554     12.68331      9.00000         0.011446     -0.005618      2.533887
     10.56943     14.79720      9.00000         0.035516      0.070287      3.372035
      8.45554     14.79720     11.11389        -0.043808      0.262797     -3.002303
     10.56943     12.68331     11.11389         0.292108      0.325935     -1.639757
      8.45554     16.91108      9.00000        -0.008447      0.087666      2.607524
     10.56943     19.02497      9.00000        -0.012779     -0.042737      2.423089
[...]
     19.02497      6.34166     11.11389         0.267870      0.207735     -0.633966
     16.91108      6.34166      9.00000         0.373779     -0.121149      1.316972
     19.02497      4.22777      9.00000         0.127821      0.217660      1.152276
     16.91108      8.45554     11.11389        -0.025013     -0.186218     -1.030468
     19.02497     10.56943     11.11389        -0.141638     -0.090641     -1.176557
     16.91108     10.56943      9.00000         0.201623     -0.080226      1.477171
     19.02497      8.45554      9.00000         0.010841      0.142171      0.786113
     16.91108     12.68331     11.11389         0.112100     -0.049562     -0.965596
     19.02497     14.79720     11.11389        -0.241452      0.115290     -1.166596
     16.91108     14.79720      9.00000         0.282902     -0.017547      1.244124
     19.02497     12.68331      9.00000         0.237349     -0.204840      1.087430
     16.91108     16.91108     11.11389         0.265083     -0.215036     -0.884782
     19.02497     19.02497     11.11389         0.212690      0.041592     -1.064248
     16.91108     19.02497      9.00000        -0.315524      0.315865      0.983680
     19.02497     16.91108      9.00000         0.188421      0.211588      0.968290
    total drift:                               -2.158820      1.378824     37.386345

  FREE ENERGIE OF THE ION-ELECTRON SYSTEM (eV)
  free  energy   TOTEN  =     -1669.82422888 eV

  energy  without entropy=    -1669.82422817  energy(sigma->0) =    -1669.82422853