 vasp.6.3.0 20Jan22 (build Apr  1 2022 16:44:48) complex
 executed on        HPECrayEX_GCC date 2022.11.20  06:51:07

 INCAR:
   SYSTEM = MgO-rocksalt
   ISMEAR = 0
   SIGMA = 0.05
   EDIFF = 1E-6
   ALGO = ALL
   ISTART = 0
   IBRION = -1
   NSW = 0
   ISYM = 2
   DIPOL = 0.5 0.5 0.5
   IDIPOL = 3
   LDIPOL = .TRUE.
   LHFCALC = .TRUE.
   HFSCREEN = 0.2
   GGA = PE
   IVDW = 13
   VDW_S8 = 1.19528249
   VDW_A1 = 0.38663183
   VDW_A2 = 5.19133469
   ENCUT = 520
   PREC = Accurate
   LASPH = .TRUE.
   LREAL = Auto
   ISPIN = 1
   NELM = 200
   NELMIN = 8
   NCORE = 4
   KPAR = 2
   LWAVE = .FALSE.
   LCHARG = .FALSE.

 POTCAR:    PAW_PBE Cu 22Jun2005
 POTCAR:    PAW_PBE Mg_pv 13Apr2007
 POTCAR:    PAW_PBE O 08Apr2002
|           W    W    AA    RRRRR   N    N  II  N    N   GGGG   !!!           |
|           W    W   A  A   R    R  NN   N  II  NN   N  G    G  !!!           |
|           W    W  A    A  R    R  N N  N  II  N N  N  G       !!!           |
|           W WW W  AAAAAA  RRRRR   N  N N  II  N  N N  G  GGG   !            |
|           WW  WW  A    A  R   R   N   NN  II  N   NN  G    G                |
|           W    W  A    A  R    R  N    N  II  N    N   GGGG   !!!           |
|     You have selected ISYM=2 for a HF type calculation. This will           |
|     symmetrize the charge density but not the exchange potential. I         |
|     suggest to use ISYM=3 instead. This uses symmetry to obtain the         |
|     orbitals at all k-points in the Brillouin zone, but does not apply      |
|     symmetry to the Hartree potential directly. The resultant charge        |
|     might have lower symmetry than the crystal but, at least, Hartree       |
|     and exchange are fully compatible.                                      |

   TITEL  = PAW_PBE Cu 22Jun2005
   POMASS =   63.546; ZVAL   =   11.000    mass and valenz
   ENMAX  =  295.446; ENMIN  =  221.585 eV

   TITEL  = PAW_PBE Mg_pv 13Apr2007
   POMASS =   24.305; ZVAL   =    8.000    mass and valenz
   ENMAX  =  403.929; ENMIN  =  302.947 eV

   TITEL  = PAW_PBE O 08Apr2002
   POMASS =   16.000; ZVAL   =    6.000    mass and valenz
   ENMAX  =  400.000; ENMIN  =  300.000 eV

 Optimization of the real space projectors (new method)

 maximal supplied QI-value         = 16.25
 optimisation between [QCUT,QGAM] = [ 11.54, 23.24] = [ 37.28,151.24] Ry
 Optimized for a Real-space Cutoff    1.53 Angstroem

   l    n(q)    QCUT    max X(q) W(low)/X(q) W(high)/X(q)  e(spline)
   2     10    11.539     4.610    0.96E-04    0.13E-03    0.19E-06
   2     10    11.539     8.522    0.16E-03    0.21E-03    0.28E-06
   0     11    11.539    51.609    0.45E-04    0.31E-04    0.11E-06
   0     11    11.539    27.747    0.39E-04    0.29E-04    0.10E-06
   1     10    11.539    20.408    0.70E-05    0.38E-04    0.18E-06
   1     10    11.539    13.425    0.66E-05    0.34E-04    0.17E-06
 Optimization of the real space projectors (new method)

[...]

   l    n(q)    QCUT    max X(q) W(low)/X(q) W(high)/X(q)  e(spline)
   1      8    11.527     2.974    0.44E-04    0.56E-04    0.12E-06
   1      8    11.527     4.279    0.12E-03    0.12E-03    0.26E-06
   0      9    11.527    16.381    0.46E-04    0.64E-04    0.78E-07
   0      9    11.527     5.611    0.26E-04    0.43E-04    0.55E-07
   2      8    11.527     4.652    0.22E-03    0.72E-04    0.47E-07
 Optimization of the real space projectors (new method)

 maximal supplied QI-value         = 24.76
 optimisation between [QCUT,QGAM] = [ 11.64, 23.27] = [ 37.91,151.63] Ry
 Optimized for a Real-space Cutoff    1.14 Angstroem

   l    n(q)    QCUT    max X(q) W(low)/X(q) W(high)/X(q)  e(spline)
   0      8    11.635    20.381    0.10E-03    0.33E-03    0.24E-06
   0      8    11.635    15.268    0.11E-03    0.35E-03    0.26E-06
   1      7    11.635     5.964    0.24E-03    0.31E-03    0.30E-06
   1      7    11.635     5.382    0.22E-03    0.25E-03    0.26E-06
  PAW_PBE Cu 22Jun2005                  :
  PAW_PBE Mg_pv 13Apr2007               :
  PAW_PBE O 08Apr2002                   :

 POSCAR: Cu Mg  O
  positions in direct lattice
|           W    W    AA    RRRRR   N    N  II  N    N   GGGG   !!!           |
|           W    W   A  A   R    R  NN   N  II  NN   N  G    G  !!!           |
|           W    W  A    A  R    R  N N  N  II  N N  N  G       !!!           |
|           W WW W  AAAAAA  RRRRR   N  N N  II  N  N N  G  GGG   !            |
|           WW  WW  A    A  R   R   N   NN  II  N   NN  G    G                |
|           W    W  A    A  R    R  N    N  II  N    N   GGGG   !!!           |
|     Specifying the vdW parameters                                           |
|     VDW_S8 = 1.195                                                          |
|     VDW_A1 = 0.387                                                          |
|     VDW_A2 = 5.191                                                          |
|     in the INCAR file will overwrite the defaults for hse06. Please         |
|     make sure that is what you intended.                                    |

 ion  position               nearest neighbor table
   1  0.538  0.562  0.615-   2 2.24
   2  0.462  0.638  0.615-   1 2.24
   3  0.000  0.000  0.407- 105 2.11 106 2.11 121 2.11 186 2.11 103 2.11
   4  0.100  0.100  0.407- 105 2.11 106 2.11 110 2.11 125 2.11 104 2.11
   5  0.000  0.100  0.503- 103 2.11 104 2.11 107 2.11 184 2.11 105 2.11
   6  0.100  0.000  0.503- 103 2.11 104 2.11 120 2.11 123 2.11 106 2.11
   7  0.000  0.200  0.407- 109 2.11 105 2.11 110 2.11 190 2.11 107 2.11
   8  0.100  0.300  0.407- 110 2.11 109 2.11 114 2.11 129 2.11 108 2.11
   9  0.000  0.300  0.503- 107 2.11 108 2.11 111 2.11 188 2.11 109 2.11
  10  0.100  0.200  0.503- 108 2.11 107 2.11 104 2.11 127 2.11 110 2.11
  11  0.000  0.400  0.407- 109 2.11 113 2.11 114 2.11 194 2.11 111 2.11
  12  0.100  0.500  0.407- 113 2.11 114 2.11 118 2.11 133 2.11 112 2.11
  13  0.000  0.500  0.503- 111 2.11 112 2.11 115 2.11 192 2.11 113 2.11
  14  0.100  0.400  0.503- 108 2.11 111 2.11 112 2.11 131 2.11 114 2.11
  15  0.000  0.600  0.407- 113 2.11 117 2.11 118 2.11 198 2.11 115 2.11
  16  0.100  0.700  0.407- 122 2.11 118 2.11 117 2.11 137 2.11 116 2.11
  17  0.000  0.700  0.503- 119 2.11 116 2.11 115 2.11 196 2.11 117 2.11
  18  0.100  0.600  0.503- 112 2.11 115 2.11 116 2.11 135 2.11 118 2.11
  19  0.000  0.800  0.407- 117 2.11 121 2.11 122 2.11 202 2.11 119 2.11
  20  0.100  0.900  0.407- 106 2.11 121 2.11 122 2.11 141 2.11 120 2.11
  21  0.000  0.900  0.503- 103 2.11 119 2.11 120 2.11 200 2.11 121 2.11
  22  0.100  0.800  0.503- 116 2.11 119 2.11 120 2.11 139 2.11 122 2.11
  23  0.200  0.000  0.407- 126 2.11 125 2.11 106 2.11 141 2.11 123 2.11
  24  0.300  0.100  0.407- 125 2.11 126 2.11 130 2.11 145 2.11 124 2.11
  25  0.200  0.100  0.503- 124 2.11 123 2.11 104 2.11 127 2.11 125 2.11
  26  0.300  0.000  0.503- 123 2.11 124 2.11 140 2.11 143 2.11 126 2.11
  27  0.200  0.200  0.407- 129 2.11 130 2.11 110 2.11 125 2.11 127 2.11
  28  0.300  0.300  0.407- 129 2.11 130 2.11 134 2.11 149 2.11 128 2.11
  29  0.200  0.300  0.503- 127 2.11 128 2.11 108 2.11 131 2.11 129 2.11
  30  0.300  0.200  0.503- 127 2.11 128 2.11 124 2.11 147 2.11 130 2.11
  31  0.200  0.400  0.407- 134 2.11 129 2.11 133 2.11 114 2.11 131 2.11
  32  0.300  0.500  0.407- 133 2.11 134 2.11 138 2.11 153 2.11 132 2.11
  33  0.200  0.500  0.503- 132 2.11 131 2.11 112 2.11 135 2.11 133 2.11
  34  0.300  0.400  0.503- 131 2.11 128 2.11 132 2.11 151 2.11 134 2.11
  35  0.200  0.600  0.407- 138 2.11 133 2.11 137 2.11 118 2.11 135 2.11
  36  0.300  0.700  0.407- 137 2.11 142 2.11 138 2.11 157 2.11 136 2.11
  37  0.200  0.700  0.503- 136 2.11 139 2.11 116 2.11 135 2.11 137 2.11
  38  0.300  0.600  0.503- 135 2.11 132 2.11 136 2.11 155 2.11 138 2.11
  39  0.200  0.800  0.407- 137 2.11 142 2.11 141 2.11 122 2.11 139 2.11
  40  0.300  0.900  0.407- 141 2.11 126 2.11 142 2.11 161 2.11 140 2.11
  41  0.200  0.900  0.503- 140 2.11 123 2.11 139 2.11 120 2.11 141 2.11
  42  0.300  0.800  0.503- 136 2.11 139 2.11 140 2.11 159 2.11 142 2.11
  43  0.400  0.000  0.407- 126 2.11 145 2.11 146 2.11 161 2.11 143 2.11
  44  0.500  0.100  0.407- 145 2.11 146 2.11 150 2.11 165 2.11 144 2.11
  45  0.400  0.100  0.503- 124 2.11 143 2.11 144 2.11 147 2.11 145 2.11
  46  0.500  0.000  0.503- 143 2.11 144 2.11 160 2.11 163 2.11 146 2.11
  47  0.400  0.200  0.407- 149 2.11 145 2.11 130 2.11 150 2.11 147 2.11
  48  0.500  0.300  0.407- 150 2.11 149 2.11 154 2.11 169 2.11 148 2.11
  49  0.400  0.300  0.503- 147 2.11 128 2.11 148 2.11 151 2.11 149 2.11
  50  0.500  0.200  0.503- 148 2.11 147 2.11 144 2.11 167 2.11 150 2.11
  51  0.400  0.400  0.407- 134 2.11 149 2.11 153 2.11 154 2.11 151 2.11
  52  0.500  0.500  0.407- 153 2.11 154 2.11 158 2.11 173 2.11 152 2.11
  53  0.400  0.500  0.503- 132 2.11 151 2.11 152 2.11 155 2.11 153 2.11
  54  0.500  0.400  0.503- 148 2.11 151 2.11 152 2.11 171 2.11 154 2.11
  55  0.400  0.600  0.407- 138 2.11 153 2.11 157 2.11 158 2.11 155 2.11
  56  0.500  0.700  0.407- 162 2.11 158 2.11 157 2.11 177 2.11 156 2.11
  57  0.400  0.700  0.503- 159 2.11 155 2.11 156 2.11 136 2.11 157 2.11
  58  0.500  0.600  0.503- 152 2.11 155 2.11 156 2.11 175 2.11 158 2.11
  59  0.400  0.800  0.407- 157 2.11 142 2.11 161 2.11 162 2.11 159 2.11
  60  0.500  0.900  0.407- 146 2.11 161 2.11 162 2.11 181 2.11 160 2.11
[...]
 188  0.900  0.300  0.503-  90 2.11  89 2.11   9 2.11  94 2.11  88 2.11
 189  0.800  0.300  0.407-  68 2.11  87 2.11  88 2.11  91 2.11  89 2.11
 190  0.900  0.200  0.407-  88 2.11  84 2.11  87 2.11   7 2.11  90 2.11
 191  0.800  0.400  0.503-  74 2.11  89 2.11  93 2.11  94 2.11  91 2.11
 192  0.900  0.500  0.503-  13 2.11  93 2.11  94 2.11  98 2.11  92 2.11
 193  0.800  0.500  0.407-  72 2.11  91 2.11  92 2.11  95 2.11  93 2.11
 194  0.900  0.400  0.407-  11 2.11  88 2.11  91 2.11  92 2.11  94 2.11
 195  0.800  0.600  0.503-  78 2.11  93 2.11  97 2.11  98 2.11  95 2.11
 196  0.900  0.700  0.503- 102 2.11  97 2.11  98 2.11  17 2.11  96 2.11
 197  0.800  0.700  0.407-  76 2.11  99 2.11  96 2.11  95 2.11  97 2.11
 198  0.900  0.600  0.407-  15 2.11  92 2.11  95 2.11  96 2.11  98 2.11
 199  0.800  0.800  0.503-  82 2.11  97 2.11 101 2.11 102 2.11  99 2.11
 200  0.900  0.900  0.503-  21 2.11  86 2.11 101 2.11 102 2.11 100 2.11
 201  0.800  0.900  0.407-  80 2.11  83 2.11  99 2.11 100 2.11 101 2.11
 202  0.900  0.800  0.407-  96 2.11  19 2.11  99 2.11 100 2.11 102 2.11

  LATTYP: Found a simple tetragonal cell.
 ALAT       =    21.1388521970
 C/A-ratio  =     1.0461251639

  Lattice vectors:

 A1 = (  21.1388521970,   0.0000000000,   0.0000000000)
 A2 = (   0.0000000000,  21.1388521970,   0.0000000000)
 A3 = (   0.0000000000,   0.0000000000,  22.1138852197)

Analysis of symmetry for initial positions (statically):
 Subroutine PRICEL returns:
 Original cell was already a primitive cell.

 Routine SETGRP: Setting up the symmetry group for a
 simple tetragonal supercell.

 Subroutine GETGRP returns: Found  4 space group operations
 (whereof  1 operations were pure point group operations)
 out of a pool of 16 trial point group operations.

The static configuration has the point symmetry C_1 .
[...]
     22     -46.6069      2.00000
     23     -46.6068      2.00000
     24     -46.6065      2.00000
     25     -46.6057      2.00000
     26     -46.6055      2.00000
     27     -46.6023      2.00000
     28     -46.6022      2.00000
     29     -46.6014      2.00000
     30     -46.6011      2.00000
     31     -46.6006      2.00000
     32     -46.5996      2.00000
     33     -46.5983      2.00000
     34     -46.5983      2.00000
     35     -46.5981      2.00000
     36     -46.5974      2.00000
     37     -46.5967      2.00000
     38     -46.5961      2.00000
     39     -46.5961      2.00000
     40     -46.5956      2.00000
     41     -46.5950      2.00000
     42     -46.5942      2.00000
     43     -46.5937      2.00000
     44     -46.5933      2.00000
     45     -46.5930      2.00000
     46     -46.5929      2.00000
     47     -46.5928      2.00000
     48     -46.5923      2.00000
     49     -46.5912      2.00000
     50     -46.5906      2.00000
     51     -46.5898      2.00000
     52     -46.5896      2.00000
     53     -46.5893      2.00000
     54     -46.5891      2.00000
     55     -46.5889      2.00000
     56     -46.5875      2.00000
     57     -46.5874      2.00000
     58     -46.5872      2.00000
     59     -46.5869      2.00000
     60     -46.5861      2.00000
[...]
   1010       7.3756      0.00000
   1011       7.5067      0.00000
   1012       7.5208      0.00000
   1013       7.5736      0.00000
   1014       7.6471      0.00000
   1015       7.6962      0.00000
   1016       7.7280      0.00000
   1017       7.7339      0.00000
   1018       7.8135      0.00000
   1019       7.8383      0.00000
   1020       7.9269      0.00000
   1021       7.9764      0.00000
   1022       8.0257      0.00000
   1023       8.1719      0.00000
   1024       8.1910      0.00000

 soft charge-density along one line, spin component           1
         0         1         2         3         4         5         6         7         8         9
 total charge-density along one line

------------------------ aborting loop because EDIFF is reached ----------------------------------------

 VOLUME and BASIS-vectors are now :
  energy-cutoff  :      520.00
  volume of cell :     9881.61
      direct lattice vectors                 reciprocal lattice vectors
    21.138852197  0.000000000  0.000000000     0.047306258  0.000000000  0.000000000
     0.000000000 21.138852197  0.000000000     0.000000000  0.047306258  0.000000000
     0.000000000  0.000000000 22.113885220     0.000000000  0.000000000  0.045220457

  length of vectors
    21.138852197 21.138852197 22.113885220     0.047306258  0.047306258  0.045220457

 FORCES acting on ions:
    Electron-Ion                     Ewald-Force                    Non-Local-Force
   -.255E+03 0.255E+03 -.212E+04   0.246E+03 -.246E+03 0.212E+04   0.920E+01 -.920E+01 -.393E+00
   0.255E+03 -.255E+03 -.212E+04   -.246E+03 0.246E+03 0.212E+04   -.920E+01 0.920E+01 -.393E+00
   0.158E+00 -.352E+01 0.932E+03   -.162E+00 0.353E+01 -.923E+03   0.303E-02 -.256E-02 -.717E+01
   0.352E+01 -.158E+00 0.932E+03   -.353E+01 0.162E+00 -.923E+03   0.256E-02 -.303E-02 -.717E+01
   0.136E-07 -.185E-03 -.924E+03   0.784E-07 -.160E-05 0.915E+03   0.000E+00 0.000E+00 0.714E+01
   0.530E+01 -.530E+01 -.923E+03   -.531E+01 0.531E+01 0.915E+03   0.660E-02 -.660E-02 0.714E+01
   -.158E+00 0.352E+01 0.932E+03   0.162E+00 -.353E+01 -.923E+03   -.303E-02 0.256E-02 -.717E+01
   0.549E+01 0.692E+01 0.934E+03   -.549E+01 -.692E+01 -.925E+03   0.211E-03 0.380E-02 -.717E+01
   -.435E+00 0.725E+01 -.923E+03   0.446E+00 -.725E+01 0.914E+03   -.774E-02 0.345E-02 0.714E+01
   0.483E+01 0.483E+01 -.923E+03   -.483E+01 -.483E+01 0.915E+03   -.102E-02 -.102E-02 0.714E+01
   -.367E+00 0.628E+01 0.935E+03   0.378E+00 -.628E+01 -.926E+03   -.743E-02 0.449E-02 -.717E+01
   0.107E+02 0.528E+01 0.938E+03   -.107E+02 -.529E+01 -.930E+03   0.829E-02 0.776E-02 -.718E+01
   -.419E+00 0.508E+01 -.921E+03   0.430E+00 -.508E+01 0.912E+03   -.748E-02 0.223E-02 0.714E+01
   0.109E+02 0.984E+01 -.921E+03   -.109E+02 -.985E+01 0.912E+03   -.346E-02 0.543E-02 0.714E+01
   0.212E-06 -.188E-03 0.937E+03   -.118E-06 0.158E-05 -.928E+03   0.000E+00 0.000E+00 -.717E+01
   0.114E+02 -.486E+01 0.939E+03   -.114E+02 0.486E+01 -.930E+03   0.234E-01 -.605E-03 -.717E+01
   0.419E+00 -.508E+01 -.921E+03   -.430E+00 0.508E+01 0.912E+03   0.748E-02 -.223E-02 0.714E+01
   0.178E+02 0.579E+00 -.918E+03   -.178E+02 -.589E+00 0.909E+03   0.160E-01 0.685E-02 0.714E+01
   0.367E+00 -.628E+01 0.935E+03   -.378E+00 0.628E+01 -.926E+03   0.743E-02 -.449E-02 -.717E+01
   0.613E+01 -.719E+01 0.934E+03   -.615E+01 0.720E+01 -.926E+03   0.117E-01 -.793E-02 -.717E+01
   0.435E+00 -.725E+01 -.923E+03   -.446E+00 0.725E+01 0.914E+03   0.774E-02 -.345E-02 0.714E+01
   0.123E+02 -.995E+01 -.920E+03   -.124E+02 0.996E+01 0.912E+03   0.222E-01 -.466E-02 0.714E+01
   0.719E+01 -.613E+01 0.934E+03   -.720E+01 0.615E+01 -.926E+03   0.793E-02 -.117E-01 -.717E+01
   0.628E+01 -.367E+00 0.935E+03   -.628E+01 0.378E+00 -.926E+03   0.449E-02 -.743E-02 -.717E+01
   0.725E+01 -.435E+00 -.923E+03   -.725E+01 0.446E+00 0.914E+03   0.345E-02 -.774E-02 0.714E+01
   0.995E+01 -.123E+02 -.920E+03   -.996E+01 0.124E+02 0.912E+03   0.466E-02 -.222E-01 0.714E+01
   0.692E+01 0.549E+01 0.934E+03   -.692E+01 -.549E+01 -.925E+03   0.380E-02 0.211E-03 -.717E+01
   0.121E+02 0.156E+02 0.941E+03   -.121E+02 -.156E+02 -.932E+03   0.127E-01 0.144E-01 -.718E+01
   0.136E+02 0.136E+02 -.920E+03   -.136E+02 -.136E+02 0.912E+03   0.119E-02 0.119E-02 0.714E+01
   0.984E+01 0.109E+02 -.921E+03   -.985E+01 -.109E+02 0.912E+03   0.543E-02 -.346E-02 0.714E+01
   0.156E+02 0.121E+02 0.941E+03   -.156E+02 -.121E+02 -.932E+03   0.144E-01 0.127E-01 -.718E+01
   0.310E+02 0.170E+02 0.963E+03   -.311E+02 -.171E+02 -.954E+03   0.727E-01 0.385E-01 -.720E+01
   0.346E+02 0.142E+02 -.911E+03   -.346E+02 -.142E+02 0.902E+03   0.101E-01 0.204E-01 0.713E+01
   0.334E+02 0.334E+02 -.906E+03   -.334E+02 -.334E+02 0.898E+03   0.141E-01 0.141E-01 0.712E+01
   0.254E+02 0.913E+00 0.949E+03   -.254E+02 -.933E+00 -.940E+03   0.459E-01 0.135E-01 -.718E+01
   0.327E+02 -.156E+02 0.966E+03   -.327E+02 0.156E+02 -.958E+03   0.469E-01 -.158E-01 -.713E+01
   0.378E+02 -.126E+02 -.909E+03   -.379E+02 0.126E+02 0.901E+03   0.718E-01 0.449E-02 0.714E+01
   0.841E+02 0.683E+01 -.872E+03   -.843E+02 -.693E+01 0.864E+03   0.155E+00 0.666E-01 0.715E+01
   0.168E+02 -.123E+02 0.942E+03   -.168E+02 0.124E+02 -.934E+03   0.287E-01 -.149E-01 -.717E+01
   0.123E+02 -.168E+02 0.942E+03   -.124E+02 0.168E+02 -.934E+03   0.149E-01 -.287E-01 -.717E+01
   0.149E+02 -.149E+02 -.919E+03   -.149E+02 0.149E+02 0.911E+03   0.185E-01 -.185E-01 0.714E+01
   0.374E+02 -.374E+02 -.902E+03   -.375E+02 0.375E+02 0.893E+03   0.559E-01 -.559E-01 0.715E+01
   0.486E+01 -.114E+02 0.939E+03   -.486E+01 0.114E+02 -.930E+03   0.605E-03 -.234E-01 -.717E+01
   0.207E-06 -.182E-03 0.937E+03   -.110E-06 -.428E-05 -.928E+03   0.000E+00 0.000E+00 -.717E+01
   0.508E+01 -.419E+00 -.921E+03   -.508E+01 0.430E+00 0.912E+03   0.223E-02 -.748E-02 0.714E+01
   -.579E+00 -.178E+02 -.918E+03   0.589E+00 0.178E+02 0.909E+03   -.685E-02 -.160E-01 0.714E+01
   0.528E+01 0.107E+02 0.938E+03   -.529E+01 -.107E+02 -.930E+03   0.776E-02 0.829E-02 -.718E+01
   0.913E+00 0.254E+02 0.949E+03   -.933E+00 -.254E+02 -.940E+03   0.135E-01 0.459E-01 -.718E+01
   0.142E+02 0.346E+02 -.911E+03   -.142E+02 -.346E+02 0.902E+03   0.204E-01 0.101E-01 0.713E+01
   0.579E+00 0.178E+02 -.918E+03   -.589E+00 -.178E+02 0.909E+03   0.685E-02 0.160E-01 0.714E+01
   0.170E+02 0.310E+02 0.963E+03   -.171E+02 -.311E+02 -.954E+03   0.385E-01 0.727E-01 -.720E+01
   0.279E+01 0.347E+02 0.101E+04   -.275E+01 -.348E+02 -.100E+04   -.247E-01 0.547E-01 -.698E+01
   0.784E+02 0.784E+02 -.834E+03   -.787E+02 -.787E+02 0.826E+03   0.175E+00 0.175E+00 0.695E+01
   0.683E+01 0.841E+02 -.872E+03   -.693E+01 -.843E+02 0.864E+03   0.666E-01 0.155E+00 0.715E+01
   0.347E+02 0.279E+01 0.101E+04   -.348E+02 -.275E+01 -.100E+04   0.547E-01 -.247E-01 -.698E+01
   -.279E+01 -.347E+02 0.101E+04   0.275E+01 0.348E+02 -.100E+04   0.247E-01 -.547E-01 -.698E+01
   0.866E+02 -.866E+02 -.796E+03   -.868E+02 0.868E+02 0.787E+03   0.918E-01 -.918E-01 0.705E+01
   -.238E-04 -.259E-03 -.614E+03   0.242E-04 0.699E-04 0.610E+03   0.000E+00 0.000E+00 0.373E+01
   0.156E+02 -.327E+02 0.966E+03   -.156E+02 0.327E+02 -.958E+03   0.158E-01 -.469E-01 -.713E+01
   -.913E+00 -.254E+02 0.949E+03   0.933E+00 0.254E+02 -.940E+03   -.135E-01 -.459E-01 -.718E+01
[...]
   -.813E+01 0.813E+01 0.704E+03   0.814E+01 -.814E+01 -.708E+03   -.171E-01 0.171E-01 0.316E+01
   -.319E+01 0.319E+01 0.701E+03   0.320E+01 -.320E+01 -.705E+03   -.660E-02 0.660E-02 0.315E+01
   -.191E+02 0.136E+02 -.687E+03   0.191E+02 -.136E+02 0.691E+03   -.375E-01 0.229E-01 -.318E+01
   -.124E+02 0.480E+01 -.690E+03   0.124E+02 -.480E+01 0.694E+03   -.195E-01 -.826E-03 -.319E+01
   -.173E+02 0.613E+01 0.711E+03   0.173E+02 -.614E+01 -.715E+03   -.435E-01 0.378E-02 0.317E+01
   -.664E+01 0.574E+01 0.703E+03   0.666E+01 -.575E+01 -.707E+03   -.173E-01 0.801E-02 0.315E+01
   -.318E+02 -.145E+01 -.682E+03   0.318E+02 0.148E+01 0.686E+03   -.379E-01 -.291E-01 -.320E+01
   -.114E+02 -.530E+01 -.690E+03   0.114E+02 0.530E+01 0.694E+03   -.486E-02 -.100E-01 -.319E+01
   -.164E+02 -.686E+01 0.711E+03   0.164E+02 0.688E+01 -.715E+03   -.204E-01 -.198E-01 0.314E+01
   -.912E+01 -.257E+00 0.706E+03   0.914E+01 0.262E+00 -.710E+03   -.147E-01 -.656E-02 0.315E+01
   -.170E+02 -.129E+02 -.688E+03   0.170E+02 0.130E+02 0.692E+03   -.493E-02 -.931E-02 -.320E+01
   -.530E+01 -.650E+01 -.693E+03   0.530E+01 0.650E+01 0.697E+03   0.199E-02 -.232E-02 -.319E+01
   -.762E+01 -.762E+01 0.703E+03   0.763E+01 0.763E+01 -.707E+03   -.655E-02 -.655E-02 0.315E+01
   -.599E+01 -.573E+01 0.703E+03   0.599E+01 0.573E+01 -.707E+03   -.205E-02 -.729E-02 0.315E+01
   -.137E-04 -.110E+00 0.833E+01   0.166E-11 0.583E-12 -.105E-10   -.236E-15 0.109E-14 -.820E+01

 POSITION                                       TOTAL-FORCE (eV/Angst)
     11.36279     11.88995     13.59669         0.098815     -0.098815      0.039495
      9.77606     13.47667     13.59669        -0.098815      0.098815      0.039495
      0.00000      0.00000      9.00000        -0.000951      0.000797      0.584171
      2.11389      2.11389      9.00000        -0.000797      0.000951      0.584171
      0.00000      2.11389     11.11389         0.000000     -0.000000     -0.577688
      2.11389      0.00000     11.11389        -0.002064      0.002064     -0.577702
      0.00000      4.22777      9.00000         0.000951     -0.000797      0.584171
      2.11389      6.34166      9.00000        -0.000034     -0.001161      0.584703
      0.00000      6.34166     11.11389         0.002421     -0.001080     -0.577364
      2.11389      4.22777     11.11389         0.000360      0.000360     -0.577300
      0.00000      8.45554      9.00000         0.002264     -0.001422      0.584278
      2.11389     10.56943      9.00000        -0.002553     -0.002530      0.584829
      0.00000     10.56943     11.11389         0.002281     -0.000710     -0.576429
      2.11389      8.45554     11.11389         0.001308     -0.001605     -0.575699
      0.00000     12.68331      9.00000         0.000000     -0.000000      0.584390
      2.11389     14.79720      9.00000        -0.006960      0.000177      0.584119
      0.00000     14.79720     11.11389        -0.002281      0.000710     -0.576429
      2.11389     12.68331     11.11389        -0.004409     -0.002330     -0.575413
      0.00000     16.91108      9.00000        -0.002264      0.001422      0.584278
      2.11389     19.02497      9.00000        -0.003643      0.002552      0.583705
      0.00000     19.02497     11.11389        -0.002421      0.001080     -0.577364
      2.11389     16.91108     11.11389        -0.006720      0.001515     -0.576990
      4.22777      0.00000      9.00000        -0.002552      0.003643      0.583705
      6.34166      2.11389      9.00000        -0.001422      0.002264      0.584278
      4.22777      2.11389     11.11389        -0.001080      0.002421     -0.577364
      6.34166      0.00000     11.11389        -0.001515      0.006720     -0.576990
      4.22777      4.22777      9.00000        -0.001161     -0.000034      0.584703
      6.34166      6.34166      9.00000        -0.003892     -0.004332      0.586362
      4.22777      6.34166     11.11389        -0.000096     -0.000096     -0.574756
      6.34166      4.22777     11.11389        -0.001605      0.001308     -0.575699
      4.22777      8.45554      9.00000        -0.004332     -0.003892      0.586362
      6.34166     10.56943      9.00000        -0.022656     -0.013126      0.590573
      4.22777     10.56943     11.11389        -0.001082     -0.006197     -0.570035
      6.34166      8.45554     11.11389        -0.001337     -0.001337     -0.561928
      4.22777     12.68331      9.00000        -0.014112     -0.004726      0.584665
      6.34166     14.79720      9.00000        -0.014147      0.005316      0.570719
      4.22777     14.79720     11.11389        -0.021759     -0.001786     -0.575554
      6.34166     12.68331     11.11389        -0.059051     -0.024136     -0.564825
      4.22777     16.91108      9.00000        -0.009111      0.005025      0.581945
      6.34166     19.02497      9.00000        -0.005025      0.009111      0.581945
      4.22777     19.02497     11.11389        -0.005757      0.005757     -0.577442
      6.34166     16.91108     11.11389        -0.016699      0.016699     -0.580096
      8.45554      0.00000      9.00000        -0.000177      0.006960      0.584119
     10.56943      2.11389      9.00000         0.000000     -0.000000      0.584390
      8.45554      2.11389     11.11389        -0.000710      0.002281     -0.576429
     10.56943      0.00000     11.11389         0.002330      0.004409     -0.575413
      8.45554      4.22777      9.00000        -0.002530     -0.002553      0.584829
     10.56943      6.34166      9.00000        -0.004726     -0.014112      0.584665
      8.45554      6.34166     11.11389        -0.006197     -0.001082     -0.570035
     10.56943      4.22777     11.11389        -0.002330     -0.004409     -0.575413
      8.45554      8.45554      9.00000        -0.013126     -0.022656      0.590573
     10.56943     10.56943      9.00000         0.011961     -0.013072      0.522922
      8.45554     10.56943     11.11389        -0.022408     -0.022408     -0.418492
     10.56943      8.45554     11.11389        -0.024136     -0.059051     -0.564825
      8.45554     12.68331      9.00000        -0.013072      0.011961      0.522922
     10.56943     14.79720      9.00000        -0.011961      0.013072      0.522922
      8.45554     14.79720     11.11389        -0.089953      0.089953     -0.757254
     10.56943     12.68331     11.11389         0.000000     -0.000000     -0.441990
      8.45554     16.91108      9.00000        -0.005316      0.014147      0.570719
     10.56943     19.02497      9.00000         0.004726      0.014112      0.584665
[...]
     19.02497      6.34166     11.11389        -0.004284      0.003155      0.400874
     16.91108      6.34166      9.00000        -0.005641      0.005641     -0.406558
     19.02497      4.22777      9.00000        -0.002164      0.002164     -0.407490
     16.91108      8.45554     11.11389        -0.012657      0.007777      0.401689
     19.02497     10.56943     11.11389        -0.006532     -0.000224      0.399624
     16.91108     10.56943      9.00000        -0.014993      0.001414     -0.403384
     19.02497      8.45554      9.00000        -0.005729      0.002653     -0.407090
     16.91108     12.68331     11.11389        -0.013701     -0.009579      0.396318
     19.02497     14.79720     11.11389        -0.001732     -0.003298      0.398193
     16.91108     14.79720      9.00000        -0.007182     -0.006706     -0.410095
     19.02497     12.68331      9.00000        -0.004941     -0.002131     -0.407827
     16.91108     16.91108     11.11389        -0.001924     -0.003249      0.395097
     19.02497     19.02497     11.11389         0.000618     -0.000805      0.399766
     16.91108     19.02497      9.00000        -0.002180     -0.002180     -0.408903
     19.02497     16.91108      9.00000        -0.000697     -0.002417     -0.408463
    total drift:                               -0.000014     -0.109503     -0.641489

  FREE ENERGIE OF THE ION-ELECTRON SYSTEM (eV)
  free  energy   TOTEN  =     -1384.78300151 eV

  energy  without entropy=    -1384.78300151  energy(sigma->0) =    -1384.78300151