 vasp.6.3.0 20Jan22 (build Apr  1 2022 16:44:48) complex
 executed on        HPECrayEX_GCC date 2022.11.19  20:05:47

 INCAR:
   SYSTEM = MgO-rocksalt
   ISMEAR = 0
   SIGMA = 0.05
   EDIFF = 1E-6
   ALGO = ALL
   ISTART = 0
   IBRION = -1
   NSW = 0
   ISYM = 2
   DIPOL = 0.5 0.5 0.5
   IDIPOL = 3
   LDIPOL = .TRUE.
   LHFCALC = .TRUE.
   GGA = PE
   IVDW = 12
   VDW_S8 = 1.2177
   VDW_A1 = 0.4145
   VDW_A2 = 4.8593
   ENCUT = 520
   PREC = Accurate
   LASPH = .TRUE.
   LREAL = Auto
   ISPIN = 1
   NELM = 200
   NELMIN = 8
   NCORE = 4
   KPAR = 2
   LWAVE = .FALSE.
   LCHARG = .FALSE.

 POTCAR:    PAW_PBE Cu 22Jun2005
 POTCAR:    PAW_PBE Mg_pv 13Apr2007
 POTCAR:    PAW_PBE O 08Apr2002
|           W    W    AA    RRRRR   N    N  II  N    N   GGGG   !!!           |
|           W    W   A  A   R    R  NN   N  II  NN   N  G    G  !!!           |
|           W    W  A    A  R    R  N N  N  II  N N  N  G       !!!           |
|           W WW W  AAAAAA  RRRRR   N  N N  II  N  N N  G  GGG   !            |
|           WW  WW  A    A  R   R   N   NN  II  N   NN  G    G                |
|           W    W  A    A  R    R  N    N  II  N    N   GGGG   !!!           |
|     You have selected ISYM=2 for a HF type calculation. This will           |
|     symmetrize the charge density but not the exchange potential. I         |
|     suggest to use ISYM=3 instead. This uses symmetry to obtain the         |
|     orbitals at all k-points in the Brillouin zone, but does not apply      |
|     symmetry to the Hartree potential directly. The resultant charge        |
|     might have lower symmetry than the crystal but, at least, Hartree       |
|     and exchange are fully compatible.                                      |

   TITEL  = PAW_PBE Cu 22Jun2005
   POMASS =   63.546; ZVAL   =   11.000    mass and valenz
   ENMAX  =  295.446; ENMIN  =  221.585 eV

   TITEL  = PAW_PBE Mg_pv 13Apr2007
   POMASS =   24.305; ZVAL   =    8.000    mass and valenz
   ENMAX  =  403.929; ENMIN  =  302.947 eV

   TITEL  = PAW_PBE O 08Apr2002
   POMASS =   16.000; ZVAL   =    6.000    mass and valenz
   ENMAX  =  400.000; ENMIN  =  300.000 eV

 Optimization of the real space projectors (new method)

 maximal supplied QI-value         = 16.25
 optimisation between [QCUT,QGAM] = [ 11.54, 23.24] = [ 37.28,151.24] Ry
 Optimized for a Real-space Cutoff    1.53 Angstroem

   l    n(q)    QCUT    max X(q) W(low)/X(q) W(high)/X(q)  e(spline)
   2     10    11.539     4.610    0.96E-04    0.13E-03    0.19E-06
   2     10    11.539     8.522    0.16E-03    0.21E-03    0.28E-06
   0     11    11.539    51.609    0.45E-04    0.31E-04    0.11E-06
   0     11    11.539    27.747    0.39E-04    0.29E-04    0.10E-06
   1     10    11.539    20.408    0.70E-05    0.38E-04    0.18E-06
   1     10    11.539    13.425    0.66E-05    0.34E-04    0.17E-06
 Optimization of the real space projectors (new method)

[...]

   l    n(q)    QCUT    max X(q) W(low)/X(q) W(high)/X(q)  e(spline)
   1      8    11.527     2.974    0.44E-04    0.56E-04    0.12E-06
   1      8    11.527     4.279    0.12E-03    0.12E-03    0.26E-06
   0      9    11.527    16.381    0.46E-04    0.64E-04    0.78E-07
   0      9    11.527     5.611    0.26E-04    0.43E-04    0.55E-07
   2      8    11.527     4.652    0.22E-03    0.72E-04    0.47E-07
 Optimization of the real space projectors (new method)

 maximal supplied QI-value         = 24.76
 optimisation between [QCUT,QGAM] = [ 11.64, 23.27] = [ 37.91,151.63] Ry
 Optimized for a Real-space Cutoff    1.14 Angstroem

   l    n(q)    QCUT    max X(q) W(low)/X(q) W(high)/X(q)  e(spline)
   0      8    11.635    20.381    0.10E-03    0.33E-03    0.24E-06
   0      8    11.635    15.268    0.11E-03    0.35E-03    0.26E-06
   1      7    11.635     5.964    0.24E-03    0.31E-03    0.30E-06
   1      7    11.635     5.382    0.22E-03    0.25E-03    0.26E-06
  PAW_PBE Cu 22Jun2005                  :
  PAW_PBE Mg_pv 13Apr2007               :
  PAW_PBE O 08Apr2002                   :

 POSCAR: Cu Mg  O
  positions in direct lattice
 exchange correlation table for  LEXCH =        8
   RHO(1)=    0.500       N(1)  =     2000
   RHO(2)=  100.500       N(2)  =     4000

 ion  position               nearest neighbor table
   1  0.487  0.413  0.634-   2 2.23
   2  0.413  0.487  0.634-   1 2.23
   3  0.000  0.000  0.407- 105 2.11 106 2.11 121 2.11 186 2.11 103 2.11
   4  0.100  0.100  0.407- 105 2.11 106 2.11 110 2.11 125 2.11 104 2.11
   5  0.000  0.100  0.503- 103 2.11 104 2.11 107 2.11 184 2.11 105 2.11
   6  0.100  0.000  0.503- 103 2.11 104 2.11 120 2.11 123 2.11 106 2.11
   7  0.000  0.200  0.407- 109 2.11 105 2.11 110 2.11 190 2.11 107 2.11
   8  0.100  0.300  0.407- 110 2.11 109 2.11 114 2.11 129 2.11 108 2.11
   9  0.000  0.300  0.503- 107 2.11 108 2.11 111 2.11 188 2.11 109 2.11
  10  0.100  0.200  0.503- 108 2.11 107 2.11 104 2.11 127 2.11 110 2.11
  11  0.000  0.400  0.407- 109 2.11 113 2.11 114 2.11 194 2.11 111 2.11
  12  0.100  0.500  0.407- 113 2.11 114 2.11 118 2.11 133 2.11 112 2.11
  13  0.000  0.500  0.503- 111 2.11 112 2.11 115 2.11 192 2.11 113 2.11
  14  0.100  0.400  0.503- 108 2.11 111 2.11 112 2.11 131 2.11 114 2.11
  15  0.000  0.600  0.407- 113 2.11 117 2.11 118 2.11 198 2.11 115 2.11
  16  0.100  0.700  0.407- 122 2.11 118 2.11 117 2.11 137 2.11 116 2.11
  17  0.000  0.700  0.503- 119 2.11 116 2.11 115 2.11 196 2.11 117 2.11
  18  0.100  0.600  0.503- 112 2.11 115 2.11 116 2.11 135 2.11 118 2.11
  19  0.000  0.800  0.407- 117 2.11 121 2.11 122 2.11 202 2.11 119 2.11
  20  0.100  0.900  0.407- 106 2.11 121 2.11 122 2.11 141 2.11 120 2.11
  21  0.000  0.900  0.503- 103 2.11 119 2.11 120 2.11 200 2.11 121 2.11
  22  0.100  0.800  0.503- 116 2.11 119 2.11 120 2.11 139 2.11 122 2.11
  23  0.200  0.000  0.407- 126 2.11 125 2.11 106 2.11 141 2.11 123 2.11
  24  0.300  0.100  0.407- 125 2.11 126 2.11 130 2.11 145 2.11 124 2.11
  25  0.200  0.100  0.503- 124 2.11 123 2.11 104 2.11 127 2.11 125 2.11
  26  0.300  0.000  0.503- 123 2.11 124 2.11 140 2.11 143 2.11 126 2.11
  27  0.200  0.200  0.407- 129 2.11 130 2.11 110 2.11 125 2.11 127 2.11
  28  0.300  0.300  0.407- 129 2.11 130 2.11 134 2.11 149 2.11 128 2.11
  29  0.200  0.300  0.503- 127 2.11 128 2.11 108 2.11 131 2.11 129 2.11
  30  0.300  0.200  0.503- 127 2.11 128 2.11 124 2.11 147 2.11 130 2.11
  31  0.200  0.400  0.407- 134 2.11 129 2.11 133 2.11 114 2.11 131 2.11
  32  0.300  0.500  0.407- 133 2.11 134 2.11 138 2.11 153 2.11 132 2.11
  33  0.200  0.500  0.503- 132 2.11 131 2.11 112 2.11 135 2.11 133 2.11
  34  0.300  0.400  0.503- 131 2.11 128 2.11 132 2.11 151 2.11 134 2.11
  35  0.200  0.600  0.407- 138 2.11 133 2.11 137 2.11 118 2.11 135 2.11
  36  0.300  0.700  0.407- 137 2.11 142 2.11 138 2.11 157 2.11 136 2.11
  37  0.200  0.700  0.503- 136 2.11 139 2.11 116 2.11 135 2.11 137 2.11
  38  0.300  0.600  0.503- 135 2.11 132 2.11 136 2.11 155 2.11 138 2.11
  39  0.200  0.800  0.407- 137 2.11 142 2.11 141 2.11 122 2.11 139 2.11
  40  0.300  0.900  0.407- 141 2.11 126 2.11 142 2.11 161 2.11 140 2.11
  41  0.200  0.900  0.503- 140 2.11 123 2.11 139 2.11 120 2.11 141 2.11
  42  0.300  0.800  0.503- 136 2.11 139 2.11 140 2.11 159 2.11 142 2.11
  43  0.400  0.000  0.407- 126 2.11 145 2.11 146 2.11 161 2.11 143 2.11
  44  0.500  0.100  0.407- 145 2.11 146 2.11 150 2.11 165 2.11 144 2.11
  45  0.400  0.100  0.503- 124 2.11 143 2.11 144 2.11 147 2.11 145 2.11
  46  0.500  0.000  0.503- 143 2.11 144 2.11 160 2.11 163 2.11 146 2.11
  47  0.400  0.200  0.407- 149 2.11 145 2.11 130 2.11 150 2.11 147 2.11
  48  0.500  0.300  0.407- 150 2.11 149 2.11 154 2.11 169 2.11 148 2.11
  49  0.400  0.300  0.503- 147 2.11 128 2.11 148 2.11 151 2.11 149 2.11
  50  0.500  0.200  0.503- 148 2.11 147 2.11 144 2.11 167 2.11 150 2.11
  51  0.400  0.400  0.407- 134 2.11 149 2.11 153 2.11 154 2.11 151 2.11
  52  0.500  0.500  0.407- 153 2.11 154 2.11 158 2.11 173 2.11 152 2.11
  53  0.400  0.500  0.503- 132 2.11 151 2.11 152 2.11 155 2.11 153 2.11
  54  0.500  0.400  0.503- 148 2.11 151 2.11 152 2.11 171 2.11 154 2.11
  55  0.400  0.600  0.407- 138 2.11 153 2.11 157 2.11 158 2.11 155 2.11
  56  0.500  0.700  0.407- 162 2.11 158 2.11 157 2.11 177 2.11 156 2.11
  57  0.400  0.700  0.503- 159 2.11 155 2.11 156 2.11 136 2.11 157 2.11
  58  0.500  0.600  0.503- 152 2.11 155 2.11 156 2.11 175 2.11 158 2.11
  59  0.400  0.800  0.407- 157 2.11 142 2.11 161 2.11 162 2.11 159 2.11
  60  0.500  0.900  0.407- 146 2.11 161 2.11 162 2.11 181 2.11 160 2.11
[...]
 188  0.900  0.300  0.503-  90 2.11  89 2.11   9 2.11  94 2.11  88 2.11
 189  0.800  0.300  0.407-  68 2.11  87 2.11  88 2.11  91 2.11  89 2.11
 190  0.900  0.200  0.407-  88 2.11  84 2.11  87 2.11   7 2.11  90 2.11
 191  0.800  0.400  0.503-  74 2.11  89 2.11  93 2.11  94 2.11  91 2.11
 192  0.900  0.500  0.503-  13 2.11  93 2.11  94 2.11  98 2.11  92 2.11
 193  0.800  0.500  0.407-  72 2.11  91 2.11  92 2.11  95 2.11  93 2.11
 194  0.900  0.400  0.407-  11 2.11  88 2.11  91 2.11  92 2.11  94 2.11
 195  0.800  0.600  0.503-  78 2.11  93 2.11  97 2.11  98 2.11  95 2.11
 196  0.900  0.700  0.503- 102 2.11  97 2.11  98 2.11  17 2.11  96 2.11
 197  0.800  0.700  0.407-  76 2.11  99 2.11  96 2.11  95 2.11  97 2.11
 198  0.900  0.600  0.407-  15 2.11  92 2.11  95 2.11  96 2.11  98 2.11
 199  0.800  0.800  0.503-  82 2.11  97 2.11 101 2.11 102 2.11  99 2.11
 200  0.900  0.900  0.503-  21 2.11  86 2.11 101 2.11 102 2.11 100 2.11
 201  0.800  0.900  0.407-  80 2.11  83 2.11  99 2.11 100 2.11 101 2.11
 202  0.900  0.800  0.407-  96 2.11  19 2.11  99 2.11 100 2.11 102 2.11

  LATTYP: Found a simple tetragonal cell.
 ALAT       =    21.1388521970
 C/A-ratio  =     1.0461251639

  Lattice vectors:

 A1 = (  21.1388521970,   0.0000000000,   0.0000000000)
 A2 = (   0.0000000000,  21.1388521970,   0.0000000000)
 A3 = (   0.0000000000,   0.0000000000,  22.1138852197)

Analysis of symmetry for initial positions (statically):
 Subroutine PRICEL returns:
 Original cell was already a primitive cell.

 Routine SETGRP: Setting up the symmetry group for a
 simple tetragonal supercell.

 Subroutine GETGRP returns: Found  4 space group operations
 (whereof  2 operations were pure point group operations)
 out of a pool of 16 trial point group operations.

The static configuration has the point symmetry C_1h.
 The point group associated with its full space group is C_2v.

Analysis of symmetry for dynamics (positions and initial velocities):
 Subroutine PRICEL returns:
 Original cell was already a primitive cell.

 Routine SETGRP: Setting up the symmetry group for a
 simple tetragonal supercell.

 Subroutine GETGRP returns: Found  4 space group operations
 (whereof  2 operations were pure point group operations)
 out of a pool of 16 trial point group operations.

The dynamic configuration has the point symmetry C_1h.
 The point group associated with its full space group is C_2v.

 Subroutine INISYM returns: Found  4 space group operations
 (whereof  2 operations are pure point group operations),
 and found     1 'primitive' translations

                                     Primitive cell

  volume of cell :    9881.6133

[...]
[...]
   1010       7.5355      0.00000
   1011       7.5879      0.00000
   1012       7.6647      0.00000
   1013       7.6950      0.00000
   1014       7.7257      0.00000
   1015       7.7739      0.00000
   1016       7.8268      0.00000
   1017       7.9393      0.00000
   1018       7.9421      0.00000
   1019       8.0382      0.00000
   1020       8.0666      0.00000
   1021       8.1616      0.00000
   1022       8.2130      0.00000
   1023       8.2730      0.00000
   1024       8.4270      0.00000

 soft charge-density along one line, spin component           1
         0         1         2         3         4         5         6         7         8         9
 total charge-density along one line

------------------------ aborting loop because EDIFF is reached ----------------------------------------

|           W    W    AA    RRRRR   N    N  II  N    N   GGGG   !!!           |
|           W    W   A  A   R    R  NN   N  II  NN   N  G    G  !!!           |
|           W    W  A    A  R    R  N N  N  II  N N  N  G       !!!           |
|           W WW W  AAAAAA  RRRRR   N  N N  II  N  N N  G  GGG   !            |
|           WW  WW  A    A  R   R   N   NN  II  N   NN  G    G                |
|           W    W  A    A  R    R  N    N  II  N    N   GGGG   !!!           |
|     Specifying the vdW parameters                                           |
|     VDW_A1 = 0.414                                                          |
|     VDW_A2 = 4.859                                                          |
|     VDW_S8 = 1.218                                                          |
|     in the INCAR file will overwrite the defaults for pbe0. Please make     |
|     sure that is what you intended.                                         |

         DFTD3 V3.0 Rev 1
 IVDW         = 12
 DF pbe0
 parameters
 VDW_S6       =    1.0000
 VDW_S8       =    1.2177
 VDW_A1       =    0.4145
 VDW_A2       =    4.8593
 k1-k3        =   16.0000    1.3333   -4.0000
 VDW_RADIUS   =   50.2022 A
 VDW_CNRADIUS =   21.1671 A
 Edisp (eV)  -32.38410

 E6    (eV) :   -16.0051
 E8    (eV) :   -16.3790
 % E8        : 50.58

 VOLUME and BASIS-vectors are now :
  energy-cutoff  :      520.00
  volume of cell :     9881.61
      direct lattice vectors                 reciprocal lattice vectors
    21.138852197  0.000000000  0.000000000     0.047306258  0.000000000  0.000000000
     0.000000000 21.138852197  0.000000000     0.000000000  0.047306258  0.000000000
     0.000000000  0.000000000 22.113885220     0.000000000  0.000000000  0.045220457

  length of vectors
    21.138852197 21.138852197 22.113885220     0.047306258  0.047306258  0.045220457

 FORCES acting on ions:
    Electron-Ion                     Ewald-Force                    Non-Local-Force
   -.256E+03 0.256E+03 -.200E+04   0.246E+03 -.246E+03 0.200E+04   0.917E+01 -.917E+01 0.103E+00
   0.256E+03 -.256E+03 -.200E+04   -.246E+03 0.246E+03 0.200E+04   -.917E+01 0.917E+01 0.103E+00
   0.175E+01 0.175E+01 0.932E+03   -.174E+01 -.174E+01 -.923E+03   -.182E-02 -.182E-02 -.709E+01
   0.626E+01 0.626E+01 0.934E+03   -.626E+01 -.626E+01 -.925E+03   -.467E-02 -.467E-02 -.709E+01
   0.269E+01 0.599E+01 -.923E+03   -.268E+01 -.599E+01 0.914E+03   -.775E-02 -.104E-02 0.707E+01
   0.599E+01 0.269E+01 -.923E+03   -.599E+01 -.268E+01 0.914E+03   -.104E-02 -.775E-02 0.707E+01
   0.302E+01 0.637E+01 0.934E+03   -.300E+01 -.637E+01 -.926E+03   -.957E-02 0.816E-03 -.709E+01
   0.130E+02 0.800E+01 0.940E+03   -.130E+02 -.801E+01 -.931E+03   -.124E-01 0.645E-02 -.709E+01
   0.590E+01 0.710E+01 -.920E+03   -.588E+01 -.710E+01 0.911E+03   -.121E-01 0.312E-02 0.707E+01
   0.127E+02 0.117E+02 -.919E+03   -.127E+02 -.117E+02 0.911E+03   -.150E-01 -.113E-02 0.707E+01
   0.524E+01 0.229E+01 0.937E+03   -.524E+01 -.229E+01 -.929E+03   -.328E-02 0.364E-02 -.709E+01
   0.166E+02 -.279E+01 0.942E+03   -.166E+02 0.278E+01 -.934E+03   0.150E-01 0.101E-01 -.708E+01
   0.808E+01 -.261E+01 -.919E+03   -.810E+01 0.261E+01 0.910E+03   0.884E-02 0.334E-02 0.707E+01
   0.254E+02 0.555E+01 -.914E+03   -.254E+02 -.558E+01 0.905E+03   -.570E-02 0.160E-01 0.707E+01
   0.484E+01 -.543E+01 0.936E+03   -.485E+01 0.543E+01 -.927E+03   0.116E-01 0.161E-03 -.709E+01
   0.991E+01 -.892E+01 0.937E+03   -.993E+01 0.893E+01 -.928E+03   0.121E-01 -.499E-02 -.708E+01
   0.501E+01 -.814E+01 -.921E+03   -.503E+01 0.814E+01 0.913E+03   0.143E-01 -.235E-02 0.707E+01
   0.212E+02 -.111E+02 -.915E+03   -.213E+02 0.111E+02 0.907E+03   0.310E-01 0.271E-02 0.708E+01
   0.255E+01 -.497E+01 0.933E+03   -.256E+01 0.498E+01 -.924E+03   0.688E-02 -.279E-02 -.709E+01
   0.497E+01 -.255E+01 0.933E+03   -.498E+01 0.256E+01 -.924E+03   0.279E-02 -.688E-02 -.709E+01
   0.234E+01 -.234E+01 -.923E+03   -.234E+01 0.234E+01 0.915E+03   0.308E-02 -.308E-02 0.707E+01
   0.883E+01 -.883E+01 -.921E+03   -.884E+01 0.884E+01 0.913E+03   0.983E-02 -.983E-02 0.707E+01
   0.637E+01 0.302E+01 0.934E+03   -.637E+01 -.300E+01 -.926E+03   0.816E-03 -.957E-02 -.709E+01
   0.800E+01 0.130E+02 0.940E+03   -.801E+01 -.130E+02 -.931E+03   0.645E-02 -.124E-01 -.709E+01
   0.117E+02 0.127E+02 -.919E+03   -.117E+02 -.127E+02 0.911E+03   -.113E-02 -.150E-01 0.707E+01
   0.710E+01 0.590E+01 -.920E+03   -.710E+01 -.588E+01 0.911E+03   0.312E-02 -.121E-01 0.707E+01
   0.135E+02 0.135E+02 0.941E+03   -.135E+02 -.135E+02 -.933E+03   -.591E-02 -.591E-02 -.709E+01
   0.225E+02 0.225E+02 0.963E+03   -.225E+02 -.225E+02 -.954E+03   0.305E-03 0.305E-03 -.713E+01
   0.344E+02 0.225E+02 -.906E+03   -.343E+02 -.226E+02 0.898E+03   -.452E-01 0.149E-01 0.706E+01
   0.225E+02 0.344E+02 -.906E+03   -.226E+02 -.343E+02 0.898E+03   0.149E-01 -.452E-01 0.706E+01
   0.268E+02 0.675E+01 0.955E+03   -.268E+02 -.679E+01 -.946E+03   -.180E-01 0.283E-01 -.708E+01
   0.316E+02 -.915E+01 0.981E+03   -.316E+02 0.909E+01 -.972E+03   -.410E-01 0.372E-01 -.696E+01
   0.529E+02 -.841E+01 -.894E+03   -.531E+02 0.835E+01 0.886E+03   0.717E-01 0.370E-01 0.709E+01
   0.801E+02 0.335E+02 -.848E+03   -.798E+02 -.337E+02 0.840E+03   -.144E+00 0.133E+00 0.701E+01
   0.216E+02 -.134E+02 0.950E+03   -.217E+02 0.134E+02 -.942E+03   0.149E-01 -.631E-03 -.707E+01
   0.134E+02 -.216E+02 0.950E+03   -.134E+02 0.217E+02 -.942E+03   0.631E-03 -.149E-01 -.707E+01
   0.220E+02 -.220E+02 -.913E+03   -.220E+02 0.220E+02 0.904E+03   0.228E-01 -.228E-01 0.708E+01
   0.510E+02 -.510E+02 -.873E+03   -.511E+02 0.511E+02 0.864E+03   0.488E-01 -.488E-01 0.713E+01
   0.892E+01 -.991E+01 0.937E+03   -.893E+01 0.993E+01 -.928E+03   0.499E-02 -.121E-01 -.708E+01
   0.543E+01 -.484E+01 0.936E+03   -.543E+01 0.485E+01 -.927E+03   -.161E-03 -.116E-01 -.709E+01
   0.814E+01 -.501E+01 -.921E+03   -.814E+01 0.503E+01 0.913E+03   0.235E-02 -.143E-01 0.707E+01
   0.111E+02 -.212E+02 -.915E+03   -.111E+02 0.213E+02 0.907E+03   -.271E-02 -.310E-01 0.708E+01
   0.229E+01 0.524E+01 0.937E+03   -.229E+01 -.524E+01 -.929E+03   0.364E-02 -.328E-02 -.709E+01
   -.279E+01 0.166E+02 0.942E+03   0.278E+01 -.166E+02 -.934E+03   0.101E-01 0.150E-01 -.708E+01
   0.555E+01 0.254E+02 -.914E+03   -.558E+01 -.254E+02 0.905E+03   0.160E-01 -.570E-02 0.707E+01
   -.261E+01 0.808E+01 -.919E+03   0.261E+01 -.810E+01 0.910E+03   0.334E-02 0.884E-02 0.707E+01
   0.675E+01 0.268E+02 0.955E+03   -.679E+01 -.268E+02 -.946E+03   0.283E-01 -.180E-01 -.708E+01
   -.915E+01 0.316E+02 0.981E+03   0.909E+01 -.316E+02 -.972E+03   0.372E-01 -.410E-01 -.696E+01
   0.335E+02 0.801E+02 -.848E+03   -.337E+02 -.798E+02 0.840E+03   0.133E+00 -.144E+00 0.701E+01
   -.841E+01 0.529E+02 -.894E+03   0.835E+01 -.531E+02 0.886E+03   0.370E-01 0.717E-01 0.709E+01
   0.165E+02 0.165E+02 0.100E+04   -.165E+02 -.165E+02 -.996E+03   0.670E-02 0.670E-02 -.724E+01
   -.165E+02 -.165E+02 0.100E+04   0.165E+02 0.165E+02 -.996E+03   -.670E-02 -.670E-02 -.724E+01
   0.523E+02 -.523E+02 -.720E+03   -.518E+02 0.518E+02 0.713E+03   -.298E+00 0.298E+00 0.606E+01
   -.523E+02 0.523E+02 -.720E+03   0.518E+02 -.518E+02 0.713E+03   0.298E+00 -.298E+00 0.606E+01
   0.915E+01 -.316E+02 0.981E+03   -.909E+01 0.316E+02 -.972E+03   -.372E-01 0.410E-01 -.696E+01
   -.675E+01 -.268E+02 0.955E+03   0.679E+01 0.268E+02 -.946E+03   -.283E-01 0.180E-01 -.708E+01
   0.841E+01 -.529E+02 -.894E+03   -.835E+01 0.531E+02 0.886E+03   -.370E-01 -.717E-01 0.709E+01
   -.335E+02 -.801E+02 -.848E+03   0.337E+02 0.798E+02 0.840E+03   -.133E+00 0.144E+00 0.701E+01
   0.279E+01 -.166E+02 0.942E+03   -.278E+01 0.166E+02 -.934E+03   -.101E-01 -.150E-01 -.708E+01
   -.229E+01 -.524E+01 0.937E+03   0.229E+01 0.524E+01 -.929E+03   -.364E-02 0.328E-02 -.709E+01
[...]
   -.104E+02 0.582E+01 0.706E+03   0.104E+02 -.582E+01 -.710E+03   -.164E-01 -.497E-03 0.311E+01
   -.274E+01 0.482E+01 0.702E+03   0.275E+01 -.482E+01 -.706E+03   -.990E-02 0.257E-02 0.310E+01
   -.198E+02 0.294E+01 -.686E+03   0.198E+02 -.292E+01 0.690E+03   -.150E-01 -.175E-01 -.310E+01
   -.571E+01 -.227E+01 -.690E+03   0.571E+01 0.227E+01 0.694E+03   0.241E-02 -.555E-02 -.311E+01
   -.122E+02 -.274E+01 0.708E+03   0.122E+02 0.275E+01 -.712E+03   0.239E-02 -.152E-01 0.310E+01
   -.414E+01 0.153E+01 0.704E+03   0.414E+01 -.153E+01 -.708E+03   -.532E-02 -.317E-02 0.310E+01
   -.145E+02 -.851E+01 -.688E+03   0.145E+02 0.852E+01 0.692E+03   0.119E-01 -.749E-02 -.311E+01
   -.301E+01 -.601E+01 -.692E+03   0.300E+01 0.601E+01 0.696E+03   0.970E-02 -.514E-03 -.311E+01
   -.688E+01 -.649E+01 0.703E+03   0.687E+01 0.649E+01 -.707E+03   0.955E-02 0.227E-02 0.310E+01
   -.315E+01 -.414E+01 0.703E+03   0.315E+01 0.414E+01 -.707E+03   0.766E-02 -.287E-02 0.310E+01
   -.609E+01 -.609E+01 -.692E+03   0.609E+01 0.609E+01 0.696E+03   0.700E-02 0.700E-02 -.311E+01
   -.160E+01 -.160E+01 -.694E+03   0.160E+01 0.160E+01 0.698E+03   0.214E-02 0.214E-02 -.311E+01
   -.363E+01 -.160E+01 0.701E+03   0.363E+01 0.159E+01 -.705E+03   0.944E-03 0.586E-02 0.310E+01
   -.160E+01 -.363E+01 0.701E+03   0.159E+01 0.363E+01 -.705E+03   0.586E-02 0.944E-03 0.310E+01
   -.306E-01 0.151E-01 0.458E+01   0.144E-11 0.125E-11 0.114E-12   -.242E-14 -.639E-15 -.468E+01

 POSITION                                       TOTAL-FORCE (eV/Angst)
     10.29957      8.72540     14.01778         0.106296     -0.106296      0.021216
      8.72540     10.29957     14.01778        -0.106296      0.106296      0.021216
      0.00000      0.00000      9.00000         0.000593      0.000593      0.600739
      2.11389      2.11389      9.00000         0.001582      0.001582      0.601257
      0.00000      2.11389     11.11389         0.002487      0.000382     -0.600130
      2.11389      0.00000     11.11389         0.000382      0.002487     -0.600130
      0.00000      4.22777      9.00000         0.002998     -0.000206      0.600789
      2.11389      6.34166      9.00000         0.003891     -0.001929      0.601348
      0.00000      6.34166     11.11389         0.003857     -0.000952     -0.599919
      2.11389      4.22777     11.11389         0.004988      0.000703     -0.599017
      0.00000      8.45554      9.00000         0.001003     -0.001225      0.600472
      2.11389     10.56943      9.00000        -0.004161     -0.003502      0.599876
      0.00000     10.56943     11.11389        -0.002593     -0.001172     -0.600441
      2.11389      8.45554     11.11389         0.002551     -0.005333     -0.599321
      0.00000     12.68331      9.00000        -0.003525     -0.000058      0.600200
      2.11389     14.79720      9.00000        -0.003820      0.001682      0.599083
      0.00000     14.79720     11.11389        -0.004465      0.000763     -0.600653
      2.11389     12.68331     11.11389        -0.009421     -0.000951     -0.602406
      0.00000     16.91108      9.00000        -0.002176      0.000897      0.600380
      2.11389     19.02497      9.00000        -0.000897      0.002176      0.600380
      0.00000     19.02497     11.11389        -0.000971      0.000971     -0.600356
      2.11389     16.91108     11.11389        -0.003123      0.003123     -0.601022
      4.22777      0.00000      9.00000        -0.000206      0.002998      0.600789
      6.34166      2.11389      9.00000        -0.001929      0.003891      0.601348
      4.22777      2.11389     11.11389         0.000703      0.004988     -0.599017
      6.34166      0.00000     11.11389        -0.000952      0.003857     -0.599919
      4.22777      4.22777      9.00000         0.002474      0.002474      0.603531
      6.34166      6.34166      9.00000         0.003155      0.003155      0.615282
      4.22777      6.34166     11.11389         0.017016     -0.002425     -0.592976
      6.34166      4.22777     11.11389        -0.002425      0.017016     -0.592976
      4.22777      8.45554      9.00000         0.005061     -0.009864      0.600849
      6.34166     10.56943      9.00000         0.017729     -0.014342      0.571583
      4.22777     10.56943     11.11389        -0.023529     -0.014302     -0.602720
      6.34166      8.45554     11.11389         0.068385     -0.037411     -0.541770
      4.22777     12.68331      9.00000        -0.004494      0.000456      0.594403
      6.34166     14.79720      9.00000        -0.000456      0.004494      0.594403
      4.22777     14.79720     11.11389        -0.007068      0.007068     -0.604863
      6.34166     12.68331     11.11389        -0.012044      0.012044     -0.628211
      4.22777     16.91108      9.00000        -0.001682      0.003820      0.599083
      6.34166     19.02497      9.00000         0.000058      0.003525      0.600200
      4.22777     19.02497     11.11389        -0.000763      0.004465     -0.600653
      6.34166     16.91108     11.11389         0.000951      0.009421     -0.602406
      8.45554      0.00000      9.00000        -0.001225      0.001003      0.600472
     10.56943      2.11389      9.00000        -0.003502     -0.004161      0.599876
      8.45554      2.11389     11.11389        -0.005333      0.002551     -0.599321
     10.56943      0.00000     11.11389        -0.001172     -0.002593     -0.600441
      8.45554      4.22777      9.00000        -0.009864      0.005061      0.600849
     10.56943      6.34166      9.00000        -0.014342      0.017729      0.571583
      8.45554      6.34166     11.11389        -0.037411      0.068385     -0.541770
     10.56943      4.22777     11.11389        -0.014302     -0.023529     -0.602720
      8.45554      8.45554      9.00000         0.003080      0.003080      0.636781
     10.56943     10.56943      9.00000        -0.003080     -0.003080      0.636781
      8.45554     10.56943     11.11389         0.131862     -0.131862     -0.580132
     10.56943      8.45554     11.11389        -0.131862      0.131862     -0.580132
      8.45554     12.68331      9.00000         0.014342     -0.017729      0.571583
     10.56943     14.79720      9.00000         0.009864     -0.005061      0.600849
      8.45554     14.79720     11.11389         0.014302      0.023529     -0.602720
     10.56943     12.68331     11.11389         0.037411     -0.068385     -0.541770
      8.45554     16.91108      9.00000         0.003502      0.004161      0.599876
     10.56943     19.02497      9.00000         0.001225     -0.001003      0.600472
[...]
     19.02497      6.34166     11.11389        -0.003903      0.000056      0.412392
     16.91108      6.34166      9.00000        -0.005597     -0.000132     -0.409976
     19.02497      4.22777      9.00000        -0.003304      0.000876     -0.411950
     16.91108      8.45554     11.11389        -0.005243     -0.005771      0.413636
     19.02497     10.56943     11.11389         0.000763     -0.001849      0.411791
     16.91108     10.56943      9.00000         0.000635     -0.005069     -0.412508
     19.02497      8.45554      9.00000        -0.001816     -0.001042     -0.411888
     16.91108     12.68331     11.11389         0.003780     -0.002543      0.410337
     19.02497     14.79720     11.11389         0.003205     -0.000184      0.411606
     16.91108     14.79720      9.00000         0.003136      0.000713     -0.413324
     19.02497     12.68331      9.00000         0.002537     -0.000976     -0.412513
     16.91108     16.91108     11.11389         0.002290      0.002290      0.411215
     19.02497     19.02497     11.11389         0.000705      0.000705      0.411870
     16.91108     19.02497      9.00000         0.000306      0.001940     -0.412584
     19.02497     16.91108      9.00000         0.001940      0.000306     -0.412584
    total drift:                               -0.030647      0.015108     -0.522600

  FREE ENERGIE OF THE ION-ELECTRON SYSTEM (eV)
  free  energy   TOTEN  =     -1455.38501160 eV

  energy  without entropy=    -1455.38501160  energy(sigma->0) =    -1455.38501160