 vasp.6.3.0 20Jan22 (build Apr  1 2022 16:44:48) complex
 executed on        HPECrayEX_GCC date 2023.01.17  05:43:50

 INCAR:
   SYSTEM = MgO-rocksalt
   ISMEAR = 0
   SIGMA = 0.05
   EDIFF = 1E-6
   ALGO = ALL
   ISTART = 0
   IBRION = -1
   NSW = 0
   ISYM = 2
   DIPOL = 0.5 0.5 0.5
   IDIPOL = 3
   LDIPOL = .TRUE.
   LHFCALC = .TRUE.
   GGA = B5
   AEXX = 0.2
   AGGAX = 0.72
   AGGAC = 0.81
   ALDAC = 0.19
   ENCUT = 520
   PREC = Accurate
   LASPH = .TRUE.
   LREAL = Auto
   ISPIN = 1
   NELM = 200
   NELMIN = 8
   NCORE = 4
   KPAR = 2
   LWAVE = .FALSE.
   LCHARG = .FALSE.

 POTCAR:    PAW_PBE Cu 22Jun2005
 POTCAR:    PAW_PBE Mg_pv 13Apr2007
 POTCAR:    PAW_PBE O 08Apr2002
|           W    W    AA    RRRRR   N    N  II  N    N   GGGG   !!!           |
|           W    W   A  A   R    R  NN   N  II  NN   N  G    G  !!!           |
|           W    W  A    A  R    R  N N  N  II  N N  N  G       !!!           |
|           W WW W  AAAAAA  RRRRR   N  N N  II  N  N N  G  GGG   !            |
|           WW  WW  A    A  R   R   N   NN  II  N   NN  G    G                |
|           W    W  A    A  R    R  N    N  II  N    N   GGGG   !!!           |
|     You have selected ISYM=2 for a HF type calculation. This will           |
|     symmetrize the charge density but not the exchange potential. I         |
|     suggest to use ISYM=3 instead. This uses symmetry to obtain the         |
|     orbitals at all k-points in the Brillouin zone, but does not apply      |
|     symmetry to the Hartree potential directly. The resultant charge        |
|     might have lower symmetry than the crystal but, at least, Hartree       |
|     and exchange are fully compatible.                                      |

   TITEL  = PAW_PBE Cu 22Jun2005
   POMASS =   63.546; ZVAL   =   11.000    mass and valenz
   ENMAX  =  295.446; ENMIN  =  221.585 eV

   TITEL  = PAW_PBE Mg_pv 13Apr2007
   POMASS =   24.305; ZVAL   =    8.000    mass and valenz
   ENMAX  =  403.929; ENMIN  =  302.947 eV

   TITEL  = PAW_PBE O 08Apr2002
   POMASS =   16.000; ZVAL   =    6.000    mass and valenz
   ENMAX  =  400.000; ENMIN  =  300.000 eV

 Optimization of the real space projectors (new method)

 maximal supplied QI-value         = 16.25
 optimisation between [QCUT,QGAM] = [ 11.54, 23.24] = [ 37.28,151.24] Ry
 Optimized for a Real-space Cutoff    1.53 Angstroem

   l    n(q)    QCUT    max X(q) W(low)/X(q) W(high)/X(q)  e(spline)
   2     10    11.539     4.610    0.96E-04    0.13E-03    0.19E-06
   2     10    11.539     8.522    0.16E-03    0.21E-03    0.28E-06
   0     11    11.539    51.609    0.45E-04    0.31E-04    0.11E-06
   0     11    11.539    27.747    0.39E-04    0.29E-04    0.10E-06
   1     10    11.539    20.408    0.70E-05    0.38E-04    0.18E-06
   1     10    11.539    13.425    0.66E-05    0.34E-04    0.17E-06
 Optimization of the real space projectors (new method)

[...]

   l    n(q)    QCUT    max X(q) W(low)/X(q) W(high)/X(q)  e(spline)
   1      8    11.527     2.974    0.44E-04    0.56E-04    0.12E-06
   1      8    11.527     4.279    0.12E-03    0.12E-03    0.26E-06
   0      9    11.527    16.381    0.46E-04    0.64E-04    0.78E-07
   0      9    11.527     5.611    0.26E-04    0.43E-04    0.55E-07
   2      8    11.527     4.652    0.22E-03    0.72E-04    0.47E-07
 Optimization of the real space projectors (new method)

 maximal supplied QI-value         = 24.76
 optimisation between [QCUT,QGAM] = [ 11.64, 23.27] = [ 37.91,151.63] Ry
 Optimized for a Real-space Cutoff    1.14 Angstroem

   l    n(q)    QCUT    max X(q) W(low)/X(q) W(high)/X(q)  e(spline)
   0      8    11.635    20.381    0.10E-03    0.33E-03    0.24E-06
   0      8    11.635    15.268    0.11E-03    0.35E-03    0.26E-06
   1      7    11.635     5.964    0.24E-03    0.31E-03    0.30E-06
   1      7    11.635     5.382    0.22E-03    0.25E-03    0.26E-06
|               ----> ADVICE to this user running VASP <----                  |
|     You enforced a specific xc type in the INCAR file but a different       |
|     type was found in the POTCAR file.                                      |
|     I HOPE YOU KNOW WHAT YOU ARE DOING!                                     |

  PAW_PBE Cu 22Jun2005                  :
  PAW_PBE Mg_pv 13Apr2007               :
  PAW_PBE O 08Apr2002                   :

 POSCAR: Cu Mg  O
  positions in direct lattice
  velocities in cartesian coordinates
 exchange correlation table for  LEXCH =       12
   RHO(1)=    0.500       N(1)  =     2000
   RHO(2)=  100.500       N(2)  =     4000

 ion  position               nearest neighbor table
   1  0.400  0.417  0.591- 153 1.98   4 2.26   3 2.42   2 2.42  55 2.62
   2  0.490  0.488  0.600- 154 2.19   4 2.37   1 2.42
   3  0.310  0.488  0.600- 134 2.19   4 2.37   1 2.42
   4  0.400  0.492  0.664-   1 2.26   2 2.37   3 2.37
   5  0.000  0.000  0.407- 107 2.11 108 2.11 123 2.11 188 2.11 105 2.11
   6  0.100  0.100  0.407- 107 2.11 108 2.11 112 2.11 127 2.11 106 2.11
   7  0.000  0.100  0.503- 105 2.11 106 2.11 109 2.11 186 2.11 107 2.11
   8  0.100  0.000  0.503- 105 2.11 106 2.11 122 2.11 125 2.11 108 2.11
   9  0.000  0.200  0.407- 111 2.11 107 2.11 112 2.11 192 2.11 109 2.11
  10  0.100  0.300  0.407- 112 2.11 111 2.11 116 2.11 131 2.11 110 2.11
  11  0.000  0.300  0.503- 109 2.11 110 2.11 113 2.11 190 2.11 111 2.11
  12  0.100  0.200  0.503- 110 2.11 109 2.11 106 2.11 129 2.11 112 2.11
  13  0.000  0.400  0.407- 111 2.11 115 2.11 116 2.11 196 2.11 113 2.11
  14  0.100  0.500  0.407- 115 2.11 116 2.11 120 2.11 135 2.11 114 2.11
  15  0.000  0.500  0.503- 113 2.11 114 2.11 117 2.11 194 2.11 115 2.11
  16  0.100  0.400  0.503- 110 2.11 113 2.11 114 2.11 133 2.11 116 2.11
  17  0.000  0.600  0.407- 115 2.11 119 2.11 120 2.11 200 2.11 117 2.11
  18  0.100  0.700  0.407- 124 2.11 120 2.11 119 2.11 139 2.11 118 2.11
  19  0.000  0.700  0.503- 121 2.11 118 2.11 117 2.11 198 2.11 119 2.11
  20  0.100  0.600  0.503- 114 2.11 117 2.11 118 2.11 137 2.11 120 2.11
  21  0.000  0.800  0.407- 119 2.11 123 2.11 124 2.11 204 2.11 121 2.11
  22  0.100  0.900  0.407- 108 2.11 123 2.11 124 2.11 143 2.11 122 2.11
  23  0.000  0.900  0.503- 105 2.11 121 2.11 122 2.11 202 2.11 123 2.11
  24  0.100  0.800  0.503- 118 2.11 121 2.11 122 2.11 141 2.11 124 2.11
  25  0.200  0.000  0.407- 128 2.11 127 2.11 108 2.11 143 2.11 125 2.11
  26  0.300  0.100  0.407- 127 2.11 128 2.11 132 2.11 147 2.11 126 2.11
  27  0.200  0.100  0.503- 126 2.11 125 2.11 106 2.11 129 2.11 127 2.11
  28  0.300  0.000  0.503- 125 2.11 126 2.11 142 2.11 145 2.11 128 2.11
  29  0.200  0.200  0.407- 131 2.11 132 2.11 112 2.11 127 2.11 129 2.11
  30  0.300  0.300  0.407- 131 2.11 132 2.11 136 2.11 151 2.11 130 2.11
  31  0.200  0.300  0.503- 129 2.11 130 2.11 110 2.11 133 2.11 131 2.11
  32  0.300  0.200  0.503- 129 2.11 130 2.11 126 2.11 149 2.11 132 2.11
  33  0.200  0.400  0.407- 136 2.11 131 2.11 135 2.11 116 2.11 133 2.11
  34  0.300  0.500  0.407- 135 2.11 136 2.11 140 2.11 155 2.11 134 2.11
  35  0.200  0.500  0.503- 134 2.11 133 2.11 114 2.11 137 2.11 135 2.11
  36  0.300  0.400  0.503- 133 2.11 130 2.11 134 2.11 153 2.11 136 2.11
  37  0.200  0.600  0.407- 140 2.11 135 2.11 139 2.11 120 2.11 137 2.11
  38  0.300  0.700  0.407- 139 2.11 144 2.11 140 2.11 159 2.11 138 2.11
  39  0.200  0.700  0.503- 138 2.11 141 2.11 118 2.11 137 2.11 139 2.11
  40  0.300  0.600  0.503- 137 2.11 134 2.11 138 2.11 157 2.11 140 2.11
  41  0.200  0.800  0.407- 139 2.11 144 2.11 143 2.11 124 2.11 141 2.11
  42  0.300  0.900  0.407- 143 2.11 128 2.11 144 2.11 163 2.11 142 2.11
  43  0.200  0.900  0.503- 142 2.11 125 2.11 141 2.11 122 2.11 143 2.11
  44  0.300  0.800  0.503- 138 2.11 141 2.11 142 2.11 161 2.11 144 2.11
  45  0.400  0.000  0.407- 128 2.11 147 2.11 148 2.11 163 2.11 145 2.11
  46  0.500  0.100  0.407- 147 2.11 148 2.11 152 2.11 167 2.11 146 2.11
  47  0.400  0.100  0.503- 126 2.11 145 2.11 146 2.11 149 2.11 147 2.11
  48  0.500  0.000  0.503- 145 2.11 146 2.11 162 2.11 165 2.11 148 2.11
  49  0.400  0.200  0.407- 151 2.11 147 2.11 132 2.11 152 2.11 149 2.11
  50  0.500  0.300  0.407- 152 2.11 151 2.11 156 2.11 171 2.11 150 2.11
  51  0.400  0.300  0.503- 149 2.11 130 2.11 150 2.11 153 2.11 151 2.11
  52  0.500  0.200  0.503- 150 2.11 149 2.11 146 2.11 169 2.11 152 2.11
  53  0.400  0.400  0.407- 136 2.11 151 2.11 155 2.11 156 2.11 153 2.11
  54  0.500  0.500  0.407- 155 2.11 156 2.11 160 2.11 175 2.11 154 2.11
  55  0.400  0.500  0.503- 134 2.11 153 2.11 154 2.11 157 2.11 155 2.11   1 2.62
  56  0.500  0.400  0.503- 150 2.11 153 2.11 154 2.11 173 2.11 156 2.11
  57  0.400  0.600  0.407- 140 2.11 155 2.11 159 2.11 160 2.11 157 2.11
  58  0.500  0.700  0.407- 164 2.11 160 2.11 159 2.11 179 2.11 158 2.11
  59  0.400  0.700  0.503- 161 2.11 157 2.11 158 2.11 138 2.11 159 2.11
  60  0.500  0.600  0.503- 154 2.11 157 2.11 158 2.11 177 2.11 160 2.11
[...]
 190  0.900  0.300  0.503-  92 2.11  91 2.11  11 2.11  96 2.11  90 2.11
 191  0.800  0.300  0.407-  70 2.11  89 2.11  90 2.11  93 2.11  91 2.11
 192  0.900  0.200  0.407-  90 2.11  86 2.11  89 2.11   9 2.11  92 2.11
 193  0.800  0.400  0.503-  76 2.11  91 2.11  95 2.11  96 2.11  93 2.11
 194  0.900  0.500  0.503-  15 2.11  95 2.11  96 2.11 100 2.11  94 2.11
 195  0.800  0.500  0.407-  74 2.11  93 2.11  94 2.11  97 2.11  95 2.11
 196  0.900  0.400  0.407-  13 2.11  90 2.11  93 2.11  94 2.11  96 2.11
 197  0.800  0.600  0.503-  80 2.11  95 2.11  99 2.11 100 2.11  97 2.11
 198  0.900  0.700  0.503- 104 2.11  99 2.11 100 2.11  19 2.11  98 2.11
 199  0.800  0.700  0.407-  78 2.11 101 2.11  98 2.11  97 2.11  99 2.11
 200  0.900  0.600  0.407-  17 2.11  94 2.11  97 2.11  98 2.11 100 2.11
 201  0.800  0.800  0.503-  84 2.11  99 2.11 103 2.11 104 2.11 101 2.11
 202  0.900  0.900  0.503-  23 2.11  88 2.11 103 2.11 104 2.11 102 2.11
 203  0.800  0.900  0.407-  82 2.11  85 2.11 101 2.11 102 2.11 103 2.11
 204  0.900  0.800  0.407-  98 2.11  21 2.11 101 2.11 102 2.11 104 2.11

  LATTYP: Found a simple tetragonal cell.
 ALAT       =    21.1388521970
 C/A-ratio  =     1.0461251639

  Lattice vectors:

 A1 = (  21.1388521970,   0.0000000000,   0.0000000000)
 A2 = (   0.0000000000,  21.1388521970,   0.0000000000)
 A3 = (   0.0000000000,   0.0000000000,  22.1138852197)

Analysis of symmetry for initial positions (statically):
 Subroutine PRICEL returns:
 Original cell was already a primitive cell.

 Routine SETGRP: Setting up the symmetry group for a
 simple tetragonal supercell.

 Subroutine GETGRP returns: Found  2 space group operations
 (whereof  1 operations were pure point group operations)
 out of a pool of 16 trial point group operations.

The static configuration has the point symmetry C_1 .
 The point group associated with its full space group is C_1h.

Analysis of symmetry for dynamics (positions and initial velocities):
 Subroutine PRICEL returns:
 Original cell was already a primitive cell.

[...]

The dynamic configuration has the point symmetry C_1 .
 The point group associated with its full space group is C_1h.

Analysis of constrained symmetry for selective dynamics:
 Subroutine PRICEL returns:
 Original cell was already a primitive cell.

[...]
     22     -46.5994      2.00000
     23     -46.5942      2.00000
     24     -46.5891      2.00000
     25     -46.5887      2.00000
     26     -46.5879      2.00000
     27     -46.5575      2.00000
     28     -46.5574      2.00000
     29     -46.5288      2.00000
     30     -46.5288      2.00000
     31     -46.5202      2.00000
     32     -46.5153      2.00000
     33     -46.5153      2.00000
     34     -46.5064      2.00000
     35     -46.5035      2.00000
     36     -46.5024      2.00000
     37     -46.4990      2.00000
     38     -46.4985      2.00000
     39     -46.4966      2.00000
     40     -46.4966      2.00000
     41     -46.4958      2.00000
     42     -46.4899      2.00000
     43     -46.4888      2.00000
     44     -46.4762      2.00000
     45     -46.4762      2.00000
     46     -46.4689      2.00000
     47     -46.4683      2.00000
     48     -46.4651      2.00000
     49     -46.4637      2.00000
     50     -46.4591      2.00000
     51     -46.4590      2.00000
     52     -46.4479      2.00000
     53     -46.4478      2.00000
     54     -46.4415      2.00000
     55     -46.4415      2.00000
     56     -46.4411      2.00000
     57     -46.4411      2.00000
     58     -46.4392      2.00000
     59     -46.4381      2.00000
     60     -46.4379      2.00000
[...]
   1010       7.1909      0.00000
   1011       7.2482      0.00000
   1012       7.4480      0.00000
   1013       7.5090      0.00000
   1014       7.6100      0.00000
   1015       7.6296      0.00000
   1016       7.6997      0.00000
   1017       7.7359      0.00000
   1018       7.7649      0.00000
   1019       7.7986      0.00000
   1020       7.9194      0.00000
   1021       8.0210      0.00000
   1022       8.1151      0.00000
   1023       8.2409      0.00000
   1024       8.3671      0.00000

 soft charge-density along one line, spin component           1
         0         1         2         3         4         5         6         7         8         9
 total charge-density along one line

------------------------ aborting loop because EDIFF is reached ----------------------------------------

 VOLUME and BASIS-vectors are now :
  energy-cutoff  :      520.00
  volume of cell :     9881.61
      direct lattice vectors                 reciprocal lattice vectors
    21.138852197  0.000000000  0.000000000     0.047306258  0.000000000  0.000000000
     0.000000000 21.138852197  0.000000000     0.000000000  0.047306258  0.000000000
     0.000000000  0.000000000 22.113885220     0.000000000  0.000000000  0.045220457

  length of vectors
    21.138852197 21.138852197 22.113885220     0.047306258  0.047306258  0.045220457

 FORCES acting on ions:
    Electron-Ion                     Ewald-Force                    Non-Local-Force
   0.205E-01 0.599E+03 -.197E+04   -.580E-02 -.593E+03 0.198E+04   0.000E+00 -.619E+01 -.184E+01
   -.601E+03 -.172E+03 -.204E+04   0.595E+03 0.168E+03 0.205E+04   0.593E+01 0.429E+01 -.651E+01
   0.601E+03 -.172E+03 -.204E+04   -.595E+03 0.168E+03 0.205E+04   -.593E+01 0.429E+01 -.651E+01
   -.162E-01 -.264E+03 -.243E+04   0.277E-02 0.258E+03 0.242E+04   0.000E+00 0.599E+01 0.965E+01
   0.683E+01 0.257E+01 0.936E+03   -.683E+01 -.257E+01 -.928E+03   0.152E-01 0.560E-02 -.672E+01
   0.150E+02 0.152E+02 0.941E+03   -.151E+02 -.153E+02 -.933E+03   0.452E-01 0.295E-01 -.673E+01
   0.108E+02 0.133E+02 -.918E+03   -.109E+02 -.133E+02 0.911E+03   0.201E-01 0.156E-02 0.664E+01
   0.140E+02 0.454E+01 -.918E+03   -.140E+02 -.455E+01 0.910E+03   0.225E-01 0.106E-01 0.664E+01
   0.128E+02 0.160E+02 0.942E+03   -.129E+02 -.160E+02 -.934E+03   0.398E-01 0.111E-01 -.673E+01
   0.361E+02 0.255E+02 0.959E+03   -.363E+02 -.255E+02 -.951E+03   0.149E+00 0.342E-01 -.677E+01
   0.262E+02 0.207E+02 -.911E+03   -.262E+02 -.207E+02 0.904E+03   0.277E-01 -.736E-02 0.662E+01
   0.323E+02 0.330E+02 -.910E+03   -.324E+02 -.330E+02 0.902E+03   0.708E-01 0.949E-03 0.662E+01
   0.238E+02 0.841E+01 0.951E+03   -.239E+02 -.842E+01 -.943E+03   0.722E-01 0.375E-02 -.675E+01
   0.515E+02 -.622E+01 0.973E+03   -.519E+02 0.623E+01 -.965E+03   0.263E+00 -.676E-02 -.682E+01
   0.376E+02 -.452E+01 -.906E+03   -.376E+02 0.452E+01 0.899E+03   0.273E-01 0.276E-02 0.661E+01
   0.826E+02 0.251E+02 -.887E+03   -.827E+02 -.251E+02 0.879E+03   0.872E-01 -.946E-02 0.656E+01
   0.211E+02 -.134E+02 0.949E+03   -.211E+02 0.134E+02 -.941E+03   0.668E-01 -.943E-02 -.675E+01
   0.278E+02 -.260E+02 0.953E+03   -.279E+02 0.260E+02 -.945E+03   0.756E-01 -.502E-01 -.674E+01
   0.207E+02 -.217E+02 -.913E+03   -.207E+02 0.217E+02 0.906E+03   0.287E-01 0.229E-02 0.663E+01
   0.683E+02 -.363E+02 -.892E+03   -.685E+02 0.363E+02 0.885E+03   0.152E+00 0.141E-01 0.659E+01
   0.100E+02 -.135E+02 0.939E+03   -.100E+02 0.135E+02 -.932E+03   0.204E-01 -.110E-01 -.673E+01
   0.122E+02 -.856E+01 0.939E+03   -.123E+02 0.856E+01 -.931E+03   0.224E-01 -.673E-02 -.673E+01
   0.888E+01 -.777E+01 -.919E+03   -.888E+01 0.777E+01 0.911E+03   0.105E-01 0.687E-03 0.664E+01
   0.232E+02 -.261E+02 -.913E+03   -.233E+02 0.262E+02 0.906E+03   0.222E-01 -.159E-01 0.663E+01
   0.120E+02 0.515E+01 0.941E+03   -.121E+02 -.519E+01 -.933E+03   0.284E-01 0.286E-01 -.673E+01
   0.110E+02 0.289E+02 0.951E+03   -.111E+02 -.291E+02 -.943E+03   0.386E-01 0.124E+00 -.674E+01
   0.217E+02 0.305E+02 -.912E+03   -.217E+02 -.305E+02 0.904E+03   0.472E-01 0.495E-01 0.663E+01
   0.968E+01 0.905E+01 -.914E+03   -.969E+01 -.911E+01 0.906E+03   0.165E-01 0.417E-01 0.664E+01
   0.276E+02 0.372E+02 0.959E+03   -.277E+02 -.374E+02 -.952E+03   0.120E+00 0.112E+00 -.675E+01
   0.374E+02 0.673E+02 0.102E+04   -.378E+02 -.679E+02 -.101E+04   0.289E+00 0.406E+00 -.676E+01
   0.834E+02 0.800E+02 -.871E+03   -.838E+02 -.800E+02 0.864E+03   0.281E+00 0.189E-02 0.652E+01
   0.325E+02 0.871E+02 -.886E+03   -.326E+02 -.874E+02 0.878E+03   0.911E-01 0.235E+00 0.661E+01
   0.681E+02 0.278E+02 0.101E+04   -.688E+02 -.280E+02 -.100E+04   0.509E+00 0.107E+00 -.693E+01
   0.584E+02 -.240E+02 0.109E+04   -.591E+02 0.244E+02 -.108E+04   0.462E+00 -.254E+00 -.571E+01
   0.182E+03 -.295E+02 -.788E+03   -.184E+03 0.294E+02 0.781E+03   0.125E+01 0.776E-01 0.638E+01
   0.184E+03 0.160E+03 -.640E+03   -.187E+03 -.162E+03 0.634E+03   0.203E+01 0.895E+00 0.516E+01
   0.543E+02 -.416E+02 0.997E+03   -.546E+02 0.418E+02 -.989E+03   0.242E+00 -.179E+00 -.675E+01
   0.231E+02 -.585E+02 0.985E+03   -.231E+02 0.589E+02 -.977E+03   0.515E-01 -.274E+00 -.681E+01
   0.527E+02 -.687E+02 -.888E+03   -.527E+02 0.689E+02 0.881E+03   0.396E-01 -.126E+00 0.659E+01
   0.902E+02 -.176E+03 -.763E+03   -.903E+02 0.177E+03 0.755E+03   0.618E-01 -.121E+01 0.644E+01
   0.193E+02 -.283E+02 0.951E+03   -.193E+02 0.284E+02 -.943E+03   0.351E-01 -.659E-01 -.674E+01
   0.832E+01 -.149E+02 0.946E+03   -.832E+01 0.149E+02 -.938E+03   0.146E-01 -.142E-01 -.673E+01
   0.162E+02 -.161E+02 -.914E+03   -.162E+02 0.161E+02 0.907E+03   0.183E-01 0.265E-04 0.664E+01
   0.182E+02 -.562E+02 -.901E+03   -.182E+02 0.563E+02 0.893E+03   0.146E-01 -.463E-01 0.662E+01
   0.149E-01 0.732E+01 0.945E+03   -.217E-03 -.740E+01 -.937E+03   0.000E+00 0.554E-01 -.673E+01
   -.110E+02 0.289E+02 0.951E+03   0.111E+02 -.291E+02 -.943E+03   -.386E-01 0.124E+00 -.674E+01
   0.151E-01 0.470E+02 -.905E+03   -.391E-03 -.472E+02 0.898E+03   0.000E+00 0.142E+00 0.663E+01
   -.965E+01 0.905E+01 -.914E+03   0.969E+01 -.911E+01 0.906E+03   -.165E-01 0.417E-01 0.664E+01
   0.152E-01 0.590E+02 0.978E+03   -.499E-03 -.596E+02 -.970E+03   0.000E+00 0.394E+00 -.678E+01
   -.374E+02 0.673E+02 0.102E+04   0.378E+02 -.679E+02 -.101E+04   -.289E+00 0.406E+00 -.676E+01
   0.170E-01 0.206E+03 -.777E+03   -.193E-02 -.210E+03 0.769E+03   0.000E+00 0.204E+01 0.682E+01
   -.324E+02 0.871E+02 -.886E+03   0.326E+02 -.874E+02 0.878E+03   -.911E-01 0.235E+00 0.661E+01
   0.162E-01 0.519E+02 0.111E+04   -.142E-02 -.523E+02 -.110E+04   0.000E+00 0.239E+00 -.463E+01
   -.584E+02 -.240E+02 0.109E+04   0.591E+02 0.244E+02 -.108E+04   -.462E+00 -.254E+00 -.571E+01
   0.174E-01 -.151E+03 -.465E+03   -.165E-02 0.154E+03 0.460E+03   0.000E+00 -.200E+01 0.483E+01
   -.184E+03 0.160E+03 -.640E+03   0.187E+03 -.162E+03 0.634E+03   -.203E+01 0.895E+00 0.516E+01
   0.159E-01 -.758E+02 0.105E+04   -.116E-02 0.766E+02 -.105E+04   0.000E+00 -.576E+00 -.690E+01
   -.230E+02 -.585E+02 0.985E+03   0.231E+02 0.589E+02 -.977E+03   -.515E-01 -.274E+00 -.681E+01
   0.159E-01 -.124E+03 -.859E+03   -.126E-02 0.124E+03 0.851E+03   0.000E+00 -.174E+00 0.657E+01
   -.902E+02 -.176E+03 -.763E+03   0.902E+02 0.177E+03 0.755E+03   -.618E-01 -.121E+01 0.644E+01
[...]
   -.139E+02 0.118E+02 0.712E+03   0.140E+02 -.118E+02 -.716E+03   -.464E-01 0.115E-01 0.313E+01
   0.708E-01 0.101E+02 0.706E+03   0.250E-03 -.101E+02 -.710E+03   0.000E+00 0.741E-02 0.314E+01
   -.264E+02 0.872E+01 -.682E+03   0.264E+02 -.872E+01 0.686E+03   -.282E-01 -.313E-02 -.333E+01
   0.704E-01 -.249E+01 -.685E+03   0.726E-03 0.248E+01 0.690E+03   0.000E+00 0.212E-02 -.330E+01
   -.187E+02 -.257E+01 0.716E+03   0.188E+02 0.257E+01 -.720E+03   -.551E-01 -.218E-02 0.311E+01
   0.706E-01 0.499E+01 0.711E+03   0.461E-03 -.499E+01 -.715E+03   0.000E+00 0.219E-02 0.313E+01
   -.230E+02 -.135E+02 -.683E+03   0.231E+02 0.135E+02 0.688E+03   -.313E-01 0.364E-02 -.331E+01
   0.706E-01 -.129E+02 -.689E+03   0.440E-03 0.129E+02 0.693E+03   0.000E+00 0.541E-03 -.328E+01
   -.112E+02 -.126E+02 0.710E+03   0.113E+02 0.126E+02 -.714E+03   -.370E-01 -.197E-01 0.314E+01
   0.707E-01 -.803E+01 0.710E+03   0.431E-03 0.804E+01 -.714E+03   0.000E+00 -.639E-02 0.313E+01
   -.963E+01 -.128E+02 -.689E+03   0.971E+01 0.128E+02 0.694E+03   -.181E-01 -.650E-02 -.327E+01
   0.709E-01 -.496E+01 -.692E+03   0.195E-03 0.496E+01 0.696E+03   0.000E+00 0.496E-03 -.326E+01
   -.537E+01 -.469E+01 0.704E+03   0.545E+01 0.470E+01 -.708E+03   -.154E-01 -.270E-02 0.315E+01
   0.709E-01 -.867E+01 0.705E+03   0.219E-03 0.867E+01 -.709E+03   0.000E+00 -.763E-02 0.314E+01
   0.864E+01 -.927E+01 0.104E+02   0.261E-11 0.227E-12 0.227E-10   -.888E-15 0.869E+01 -.956E+01

 POSITION                                       TOTAL-FORCE (eV/Angst)
      8.45555      8.82382     13.06192         0.000000     -0.270663      0.199918
     10.35658     10.31213     13.27893         0.325324      0.062432      0.198125
      6.55462     10.31214     13.27893        -0.325324      0.062432      0.198125
      8.45565     10.40011     14.68777         0.000000      0.136290      0.426404
      0.00000      0.00000      9.00000        -0.004800     -0.001780      0.430705
      2.11389      2.11389      9.00000        -0.014207     -0.009277      0.432499
      0.00000      2.11389     11.11389        -0.006102     -0.000428     -0.395413
      2.11389      0.00000     11.11389        -0.007081     -0.003238     -0.395828
      0.00000      4.22777      9.00000        -0.012049     -0.003429      0.434183
      2.11389      6.34166      9.00000        -0.044937     -0.010560      0.445891
      0.00000      6.34166     11.11389        -0.007301      0.002795     -0.384702
      2.11389      4.22777     11.11389        -0.020718      0.000252     -0.383255
      0.00000      8.45554      9.00000        -0.021892     -0.001160      0.439956
      2.11389     10.56943      9.00000        -0.076975      0.001706      0.456081
      0.00000     10.56943     11.11389        -0.005817     -0.001174     -0.378147
      2.11389      8.45554     11.11389        -0.019359      0.004768     -0.341676
      0.00000     12.68331      9.00000        -0.019930      0.002978      0.438197
      2.11389     14.79720      9.00000        -0.024059      0.016348      0.435730
      0.00000     14.79720     11.11389        -0.008198     -0.000784     -0.389707
      2.11389     12.68331     11.11389        -0.041334     -0.005655     -0.359514
      0.00000     16.91108      9.00000        -0.006439      0.003504      0.431986
      2.11389     19.02497      9.00000        -0.007134      0.001993      0.431623
      0.00000     19.02497     11.11389        -0.003316     -0.000294     -0.397071
      2.11389     16.91108     11.11389        -0.006947      0.004286     -0.390919
      4.22777      0.00000      9.00000        -0.009158     -0.008803      0.432080
      6.34166      2.11389      9.00000        -0.012867     -0.037847      0.434262
      4.22777      2.11389     11.11389        -0.015028     -0.014325     -0.388864
      6.34166      0.00000     11.11389        -0.005352     -0.012398     -0.392866
      4.22777      4.22777      9.00000        -0.038606     -0.035637      0.436476
      6.34166      6.34166      9.00000        -0.105306     -0.135586      0.418772
      4.22777      6.34166     11.11389        -0.072669      0.012512     -0.310727
      6.34166      4.22777     11.11389        -0.031957     -0.068322     -0.367572
      4.22777      8.45554      9.00000        -0.157802     -0.040614      0.469501
      6.34166     10.56943      9.00000        -0.148799      0.092077      0.139942
      4.22777     10.56943     11.11389        -0.467086     -0.031008     -0.314999
      6.34166      8.45554     11.11389        -0.816991     -0.459531     -0.216886
      4.22777     12.68331      9.00000        -0.083303      0.064380      0.427932
      6.34166     14.79720      9.00000        -0.015847      0.080448      0.451309
      4.22777     14.79720     11.11389        -0.011544      0.034241     -0.362389
      6.34166     12.68331     11.11389        -0.005393      0.444067     -0.314980
      4.22777     16.91108      9.00000        -0.011232      0.019803      0.436105
      6.34166     19.02497      9.00000        -0.004714      0.004160      0.433458
      4.22777     19.02497     11.11389        -0.005818     -0.000395     -0.393392
      6.34166     16.91108     11.11389        -0.004606      0.011448     -0.381533
      8.45554      0.00000      9.00000         0.000000     -0.016593      0.433040
     10.56943      2.11389      9.00000         0.012867     -0.037847      0.434262
      8.45554      2.11389     11.11389         0.000000     -0.040397     -0.386330
     10.56943      0.00000     11.11389         0.005352     -0.012398     -0.392866
      8.45554      4.22777      9.00000         0.000000     -0.114263      0.439801
     10.56943      6.34166      9.00000         0.105306     -0.135586      0.418772
      8.45554      6.34166     11.11389         0.000000     -0.742101     -0.500841
     10.56943      4.22777     11.11389         0.031957     -0.068322     -0.367572
      8.45554      8.45554      9.00000         0.000000     -0.093768     -0.089676
     10.56943     10.56943      9.00000         0.148799      0.092077      0.139942
      8.45554     10.56943     11.11389         0.000000      1.031257     -0.425988
     10.56943      8.45554     11.11389         0.816991     -0.459531     -0.216886
      8.45554     12.68331      9.00000         0.000000      0.188816      0.449100
     10.56943     14.79720      9.00000         0.015847      0.080448      0.451309
      8.45554     14.79720     11.11389         0.000000      0.043015     -0.343497
     10.56943     12.68331     11.11389         0.005393      0.444067     -0.314980
[...]
     19.02497      6.34166     11.11389         0.000000     -0.001668      0.428200
     16.91108      6.34166      9.00000        -0.015094      0.003745     -0.477667
     19.02497      4.22777      9.00000         0.000000      0.002386     -0.473266
     16.91108      8.45554     11.11389        -0.009530     -0.000900      0.416276
     19.02497     10.56943     11.11389         0.000000      0.000700      0.424393
     16.91108     10.56943      9.00000        -0.018263     -0.000735     -0.481335
     19.02497      8.45554      9.00000         0.000000      0.000638     -0.477220
     16.91108     12.68331     11.11389        -0.010458      0.001114      0.421058
     19.02497     14.79720     11.11389         0.000000      0.000225      0.431441
     16.91108     14.79720      9.00000        -0.012017     -0.006318     -0.474589
     19.02497     12.68331      9.00000         0.000000     -0.001960     -0.475770
     16.91108     16.91108     11.11389        -0.005866     -0.002095      0.433822
     19.02497     19.02497     11.11389         0.000000      0.000185      0.436981
     16.91108     19.02497      9.00000        -0.004958     -0.000845     -0.471276
     19.02497     16.91108      9.00000         0.000000     -0.002399     -0.471933
    total drift:                                8.644825     -0.004951     -0.250954

  FREE ENERGIE OF THE ION-ELECTRON SYSTEM (eV)
  free  energy   TOTEN  =     -1337.39630442 eV

  energy  without entropy=    -1337.39630442  energy(sigma->0) =    -1337.39630442