 vasp.6.3.0 20Jan22 (build Apr  1 2022 16:44:48) complex
 executed on        HPECrayEX_GCC date 2022.12.27  02:11:33

 INCAR:
   SYSTEM = MgO-rocksalt
   ISMEAR = 0
   SIGMA = 0.05
   EDIFF = 1E-6
   ALGO = ALL
   ISTART = 0
   IBRION = -1
   NSW = 0
   ISYM = 2
   DIPOL = 0.5 0.5 0.5
   IDIPOL = 3
   LDIPOL = .TRUE.
   LHFCALC = .TRUE.
   GGA = B5
   AEXX = 0.2
   AGGAX = 0.72
   AGGAC = 0.81
   ALDAC = 0.19
   ENCUT = 520
   PREC = Accurate
   LASPH = .TRUE.
   LREAL = Auto
   ISPIN = 1
   NELM = 200
   NELMIN = 8
   NCORE = 4
   KPAR = 2
   LWAVE = .FALSE.
   LCHARG = .FALSE.

 POTCAR:    PAW_PBE Au 04Oct2007
 POTCAR:    PAW_PBE Mg_pv 13Apr2007
 POTCAR:    PAW_PBE O 08Apr2002
|           W    W    AA    RRRRR   N    N  II  N    N   GGGG   !!!           |
|           W    W   A  A   R    R  NN   N  II  NN   N  G    G  !!!           |
|           W    W  A    A  R    R  N N  N  II  N N  N  G       !!!           |
|           W WW W  AAAAAA  RRRRR   N  N N  II  N  N N  G  GGG   !            |
|           WW  WW  A    A  R   R   N   NN  II  N   NN  G    G                |
|           W    W  A    A  R    R  N    N  II  N    N   GGGG   !!!           |
|     You have selected ISYM=2 for a HF type calculation. This will           |
|     symmetrize the charge density but not the exchange potential. I         |
|     suggest to use ISYM=3 instead. This uses symmetry to obtain the         |
|     orbitals at all k-points in the Brillouin zone, but does not apply      |
|     symmetry to the Hartree potential directly. The resultant charge        |
|     might have lower symmetry than the crystal but, at least, Hartree       |
|     and exchange are fully compatible.                                      |

   TITEL  = PAW_PBE Au 04Oct2007
   POMASS =  196.966; ZVAL   =   11.000    mass and valenz
   ENMAX  =  229.943; ENMIN  =  172.457 eV

   TITEL  = PAW_PBE Mg_pv 13Apr2007
   POMASS =   24.305; ZVAL   =    8.000    mass and valenz
   ENMAX  =  403.929; ENMIN  =  302.947 eV

   TITEL  = PAW_PBE O 08Apr2002
   POMASS =   16.000; ZVAL   =    6.000    mass and valenz
   ENMAX  =  400.000; ENMIN  =  300.000 eV

 Optimization of the real space projectors (new method)

 maximal supplied QI-value         = 15.12
 optimisation between [QCUT,QGAM] = [ 11.64, 23.28] = [ 37.95,151.78] Ry
 Optimized for a Real-space Cutoff    1.49 Angstroem

   l    n(q)    QCUT    max X(q) W(low)/X(q) W(high)/X(q)  e(spline)
   2      9    11.641    60.898    0.24E-03    0.10E-03    0.19E-06
   2      9    11.641    58.894    0.25E-03    0.10E-03    0.19E-06
   0     10    11.641   109.617    0.73E-04    0.33E-04    0.11E-06
   0     10    11.641    75.026    0.71E-04    0.32E-04    0.11E-06
   1     10    11.641    16.344    0.27E-04    0.97E-04    0.16E-06
   1     10    11.641    10.160    0.23E-04    0.77E-04    0.13E-06
 Optimization of the real space projectors (new method)

[...]

   l    n(q)    QCUT    max X(q) W(low)/X(q) W(high)/X(q)  e(spline)
   1      8    11.527     2.974    0.44E-04    0.56E-04    0.12E-06
   1      8    11.527     4.279    0.12E-03    0.12E-03    0.26E-06
   0      9    11.527    16.381    0.46E-04    0.64E-04    0.78E-07
   0      9    11.527     5.611    0.26E-04    0.43E-04    0.55E-07
   2      8    11.527     4.652    0.22E-03    0.72E-04    0.47E-07
 Optimization of the real space projectors (new method)

 maximal supplied QI-value         = 24.76
 optimisation between [QCUT,QGAM] = [ 11.64, 23.27] = [ 37.91,151.63] Ry
 Optimized for a Real-space Cutoff    1.14 Angstroem

   l    n(q)    QCUT    max X(q) W(low)/X(q) W(high)/X(q)  e(spline)
   0      8    11.635    20.381    0.10E-03    0.33E-03    0.24E-06
   0      8    11.635    15.268    0.11E-03    0.35E-03    0.26E-06
   1      7    11.635     5.964    0.24E-03    0.31E-03    0.30E-06
   1      7    11.635     5.382    0.22E-03    0.25E-03    0.26E-06
|               ----> ADVICE to this user running VASP <----                  |
|     You enforced a specific xc type in the INCAR file but a different       |
|     type was found in the POTCAR file.                                      |
|     I HOPE YOU KNOW WHAT YOU ARE DOING!                                     |

  PAW_PBE Au 04Oct2007                  :
  PAW_PBE Mg_pv 13Apr2007               :
  PAW_PBE O 08Apr2002                   :

 POSCAR: Au Mg  O
  positions in direct lattice
 exchange correlation table for  LEXCH =       12
   RHO(1)=    0.500       N(1)  =     2000
   RHO(2)=  100.500       N(2)  =     4000

 ion  position               nearest neighbor table
   1  0.543  0.457  0.618-   2 2.55  54 2.97  73 2.97
   2  0.457  0.543  0.618-   1 2.55  53 2.97  58 2.97
   3  0.000  0.000  0.407- 105 2.11 106 2.11 121 2.11 186 2.11 103 2.11
   4  0.100  0.100  0.407- 105 2.11 106 2.11 110 2.11 125 2.11 104 2.11
   5  0.000  0.100  0.503- 103 2.11 104 2.11 107 2.11 184 2.11 105 2.11
   6  0.100  0.000  0.503- 103 2.11 104 2.11 120 2.11 123 2.11 106 2.11
   7  0.000  0.200  0.407- 109 2.11 105 2.11 110 2.11 190 2.11 107 2.11
   8  0.100  0.300  0.407- 110 2.11 109 2.11 114 2.11 129 2.11 108 2.11
   9  0.000  0.300  0.503- 107 2.11 108 2.11 111 2.11 188 2.11 109 2.11
  10  0.100  0.200  0.503- 108 2.11 107 2.11 104 2.11 127 2.11 110 2.11
  11  0.000  0.400  0.407- 109 2.11 113 2.11 114 2.11 194 2.11 111 2.11
  12  0.100  0.500  0.407- 113 2.11 114 2.11 118 2.11 133 2.11 112 2.11
  13  0.000  0.500  0.503- 111 2.11 112 2.11 115 2.11 192 2.11 113 2.11
  14  0.100  0.400  0.503- 108 2.11 111 2.11 112 2.11 131 2.11 114 2.11
  15  0.000  0.600  0.407- 113 2.11 117 2.11 118 2.11 198 2.11 115 2.11
  16  0.100  0.700  0.407- 122 2.11 118 2.11 117 2.11 137 2.11 116 2.11
  17  0.000  0.700  0.503- 119 2.11 116 2.11 115 2.11 196 2.11 117 2.11
  18  0.100  0.600  0.503- 112 2.11 115 2.11 116 2.11 135 2.11 118 2.11
  19  0.000  0.800  0.407- 117 2.11 121 2.11 122 2.11 202 2.11 119 2.11
  20  0.100  0.900  0.407- 106 2.11 121 2.11 122 2.11 141 2.11 120 2.11
  21  0.000  0.900  0.503- 103 2.11 119 2.11 120 2.11 200 2.11 121 2.11
  22  0.100  0.800  0.503- 116 2.11 119 2.11 120 2.11 139 2.11 122 2.11
  23  0.200  0.000  0.407- 126 2.11 125 2.11 106 2.11 141 2.11 123 2.11
  24  0.300  0.100  0.407- 125 2.11 126 2.11 130 2.11 145 2.11 124 2.11
  25  0.200  0.100  0.503- 124 2.11 123 2.11 104 2.11 127 2.11 125 2.11
  26  0.300  0.000  0.503- 123 2.11 124 2.11 140 2.11 143 2.11 126 2.11
  27  0.200  0.200  0.407- 129 2.11 130 2.11 110 2.11 125 2.11 127 2.11
  28  0.300  0.300  0.407- 129 2.11 130 2.11 134 2.11 149 2.11 128 2.11
  29  0.200  0.300  0.503- 127 2.11 128 2.11 108 2.11 131 2.11 129 2.11
  30  0.300  0.200  0.503- 127 2.11 128 2.11 124 2.11 147 2.11 130 2.11
  31  0.200  0.400  0.407- 134 2.11 129 2.11 133 2.11 114 2.11 131 2.11
  32  0.300  0.500  0.407- 133 2.11 134 2.11 138 2.11 153 2.11 132 2.11
  33  0.200  0.500  0.503- 132 2.11 131 2.11 112 2.11 135 2.11 133 2.11
  34  0.300  0.400  0.503- 131 2.11 128 2.11 132 2.11 151 2.11 134 2.11
  35  0.200  0.600  0.407- 138 2.11 133 2.11 137 2.11 118 2.11 135 2.11
  36  0.300  0.700  0.407- 137 2.11 142 2.11 138 2.11 157 2.11 136 2.11
  37  0.200  0.700  0.503- 136 2.11 139 2.11 116 2.11 135 2.11 137 2.11
  38  0.300  0.600  0.503- 135 2.11 132 2.11 136 2.11 155 2.11 138 2.11
  39  0.200  0.800  0.407- 137 2.11 142 2.11 141 2.11 122 2.11 139 2.11
  40  0.300  0.900  0.407- 141 2.11 126 2.11 142 2.11 161 2.11 140 2.11
  41  0.200  0.900  0.503- 140 2.11 123 2.11 139 2.11 120 2.11 141 2.11
  42  0.300  0.800  0.503- 136 2.11 139 2.11 140 2.11 159 2.11 142 2.11
  43  0.400  0.000  0.407- 126 2.11 145 2.11 146 2.11 161 2.11 143 2.11
  44  0.500  0.100  0.407- 145 2.11 146 2.11 150 2.11 165 2.11 144 2.11
  45  0.400  0.100  0.503- 124 2.11 143 2.11 144 2.11 147 2.11 145 2.11
  46  0.500  0.000  0.503- 143 2.11 144 2.11 160 2.11 163 2.11 146 2.11
  47  0.400  0.200  0.407- 149 2.11 145 2.11 130 2.11 150 2.11 147 2.11
  48  0.500  0.300  0.407- 150 2.11 149 2.11 154 2.11 169 2.11 148 2.11
  49  0.400  0.300  0.503- 147 2.11 128 2.11 148 2.11 151 2.11 149 2.11
  50  0.500  0.200  0.503- 148 2.11 147 2.11 144 2.11 167 2.11 150 2.11
  51  0.400  0.400  0.407- 134 2.11 149 2.11 153 2.11 154 2.11 151 2.11
  52  0.500  0.500  0.407- 153 2.11 154 2.11 158 2.11 173 2.11 152 2.11
  53  0.400  0.500  0.503- 132 2.11 151 2.11 152 2.11 155 2.11 153 2.11   2 2.97
  54  0.500  0.400  0.503- 148 2.11 151 2.11 152 2.11 171 2.11 154 2.11   1 2.97
  55  0.400  0.600  0.407- 138 2.11 153 2.11 157 2.11 158 2.11 155 2.11
  56  0.500  0.700  0.407- 162 2.11 158 2.11 157 2.11 177 2.11 156 2.11
  57  0.400  0.700  0.503- 159 2.11 155 2.11 156 2.11 136 2.11 157 2.11
  58  0.500  0.600  0.503- 152 2.11 155 2.11 156 2.11 175 2.11 158 2.11   2 2.97
  59  0.400  0.800  0.407- 157 2.11 142 2.11 161 2.11 162 2.11 159 2.11
  60  0.500  0.900  0.407- 146 2.11 161 2.11 162 2.11 181 2.11 160 2.11
[...]
 188  0.900  0.300  0.503-  90 2.11  89 2.11   9 2.11  94 2.11  88 2.11
 189  0.800  0.300  0.407-  68 2.11  87 2.11  88 2.11  91 2.11  89 2.11
 190  0.900  0.200  0.407-  88 2.11  84 2.11  87 2.11   7 2.11  90 2.11
 191  0.800  0.400  0.503-  74 2.11  89 2.11  93 2.11  94 2.11  91 2.11
 192  0.900  0.500  0.503-  13 2.11  93 2.11  94 2.11  98 2.11  92 2.11
 193  0.800  0.500  0.407-  72 2.11  91 2.11  92 2.11  95 2.11  93 2.11
 194  0.900  0.400  0.407-  11 2.11  88 2.11  91 2.11  92 2.11  94 2.11
 195  0.800  0.600  0.503-  78 2.11  93 2.11  97 2.11  98 2.11  95 2.11
 196  0.900  0.700  0.503- 102 2.11  97 2.11  98 2.11  17 2.11  96 2.11
 197  0.800  0.700  0.407-  76 2.11  99 2.11  96 2.11  95 2.11  97 2.11
 198  0.900  0.600  0.407-  15 2.11  92 2.11  95 2.11  96 2.11  98 2.11
 199  0.800  0.800  0.503-  82 2.11  97 2.11 101 2.11 102 2.11  99 2.11
 200  0.900  0.900  0.503-  21 2.11  86 2.11 101 2.11 102 2.11 100 2.11
 201  0.800  0.900  0.407-  80 2.11  83 2.11  99 2.11 100 2.11 101 2.11
 202  0.900  0.800  0.407-  96 2.11  19 2.11  99 2.11 100 2.11 102 2.11

  LATTYP: Found a simple tetragonal cell.
 ALAT       =    21.1388521970
 C/A-ratio  =     1.0461251639

  Lattice vectors:

 A1 = (  21.1388521970,   0.0000000000,   0.0000000000)
 A2 = (   0.0000000000,  21.1388521970,   0.0000000000)
 A3 = (   0.0000000000,   0.0000000000,  22.1138852197)

Analysis of symmetry for initial positions (statically):
 Subroutine PRICEL returns:
 Original cell was already a primitive cell.

 Routine SETGRP: Setting up the symmetry group for a
 simple tetragonal supercell.

 Subroutine GETGRP returns: Found  4 space group operations
 (whereof  4 operations were pure point group operations)
 out of a pool of 16 trial point group operations.

The static configuration has the point symmetry C_2v.

Analysis of symmetry for dynamics (positions and initial velocities):
 Subroutine PRICEL returns:
 Original cell was already a primitive cell.

 Routine SETGRP: Setting up the symmetry group for a
 simple tetragonal supercell.

 Subroutine GETGRP returns: Found  4 space group operations
 (whereof  4 operations were pure point group operations)
 out of a pool of 16 trial point group operations.

The dynamic configuration has the point symmetry C_2v.

[...]
     22     -46.3830      2.00000
     23     -46.3830      2.00000
     24     -46.3788      2.00000
     25     -46.3788      2.00000
     26     -46.3777      2.00000
     27     -46.3777      2.00000
     28     -46.3717      2.00000
     29     -46.3712      2.00000
     30     -46.3703      2.00000
     31     -46.3699      2.00000
     32     -46.3698      2.00000
     33     -46.3690      2.00000
     34     -46.3688      2.00000
     35     -46.3684      2.00000
     36     -46.3681      2.00000
     37     -46.3680      2.00000
     38     -46.3668      2.00000
     39     -46.3668      2.00000
     40     -46.3652      2.00000
     41     -46.3651      2.00000
     42     -46.3651      2.00000
     43     -46.3648      2.00000
     44     -46.3627      2.00000
     45     -46.3612      2.00000
     46     -46.3608      2.00000
     47     -46.3607      2.00000
     48     -46.3603      2.00000
     49     -46.3602      2.00000
     50     -46.3598      2.00000
     51     -46.3597      2.00000
     52     -46.3592      2.00000
     53     -46.3591      2.00000
     54     -46.3585      2.00000
     55     -46.3583      2.00000
     56     -46.3583      2.00000
     57     -46.3576      2.00000
     58     -46.3574      2.00000
     59     -46.3567      2.00000
     60     -46.3565      2.00000
[...]
    882       5.2694      0.00000
    883       5.3331      0.00000
    884       5.3478      0.00000
    885       5.3815      0.00000
    886       5.4261      0.00000
    887       5.5057      0.00000
    888       5.6170      0.00000
    889       5.7083      0.00000
    890       5.7492      0.00000
    891       5.8679      0.00000
    892       6.0102      0.00000
    893       6.0677      0.00000
    894       6.1147      0.00000
    895       6.1790      0.00000
    896       6.2456      0.00000

 soft charge-density along one line, spin component           1
         0         1         2         3         4         5         6         7         8         9
 total charge-density along one line

------------------------ aborting loop because EDIFF is reached ----------------------------------------

 VOLUME and BASIS-vectors are now :
  energy-cutoff  :      520.00
  volume of cell :     9881.61
      direct lattice vectors                 reciprocal lattice vectors
    21.138852197  0.000000000  0.000000000     0.047306258  0.000000000  0.000000000
     0.000000000 21.138852197  0.000000000     0.000000000  0.047306258  0.000000000
     0.000000000  0.000000000 22.113885220     0.000000000  0.000000000  0.045220457

  length of vectors
    21.138852197 21.138852197 22.113885220     0.047306258  0.047306258  0.045220457

 FORCES acting on ions:
    Electron-Ion                     Ewald-Force                    Non-Local-Force
   -.192E+03 0.192E+03 -.209E+04   0.187E+03 -.187E+03 0.210E+04   0.430E+01 -.430E+01 -.563E+00
   0.192E+03 -.192E+03 -.209E+04   -.187E+03 0.187E+03 0.210E+04   -.430E+01 0.430E+01 -.563E+00
   -.364E-10 0.642E-09 0.931E+03   0.977E-10 -.173E-08 -.923E+03   0.000E+00 0.000E+00 -.670E+01
   0.386E+01 0.386E+01 0.932E+03   -.386E+01 -.386E+01 -.924E+03   -.446E-02 -.446E-02 -.670E+01
   -.276E+00 0.424E+01 -.923E+03   0.291E+00 -.424E+01 0.915E+03   -.109E-01 0.241E-02 0.667E+01
   0.424E+01 -.276E+00 -.923E+03   -.424E+01 0.291E+00 0.915E+03   0.241E-02 -.109E-01 0.667E+01
   -.366E+00 0.589E+01 0.932E+03   0.393E+00 -.590E+01 -.925E+03   -.188E-01 0.519E-02 -.670E+01
   0.776E+01 0.754E+01 0.935E+03   -.774E+01 -.755E+01 -.927E+03   -.120E-01 0.861E-02 -.670E+01
   -.693E+00 0.773E+01 -.921E+03   0.730E+00 -.773E+01 0.913E+03   -.261E-01 0.320E-02 0.667E+01
   0.691E+01 0.857E+01 -.921E+03   -.689E+01 -.856E+01 0.914E+03   -.158E-01 -.151E-02 0.667E+01
   -.326E+00 0.402E+01 0.935E+03   0.350E+00 -.402E+01 -.928E+03   -.171E-01 0.282E-02 -.670E+01
   0.119E+02 0.419E+00 0.939E+03   -.120E+02 -.441E+00 -.931E+03   0.234E-01 0.157E-01 -.670E+01
   0.112E-09 -.966E-09 -.919E+03   -.299E-09 0.260E-08 0.911E+03   0.000E+00 0.000E+00 0.666E+01
   0.149E+02 0.710E+01 -.918E+03   -.149E+02 -.712E+01 0.910E+03   -.126E-01 0.145E-01 0.666E+01
   0.326E+00 -.402E+01 0.935E+03   -.350E+00 0.402E+01 -.928E+03   0.171E-01 -.282E-02 -.670E+01
   0.881E+01 -.757E+01 0.936E+03   -.887E+01 0.758E+01 -.928E+03   0.459E-01 -.586E-02 -.670E+01
   0.693E+00 -.773E+01 -.921E+03   -.730E+00 0.773E+01 0.913E+03   0.261E-01 -.320E-02 0.667E+01
   0.165E+02 -.627E+01 -.917E+03   -.166E+02 0.625E+01 0.909E+03   0.463E-01 0.102E-01 0.667E+01
   0.366E+00 -.589E+01 0.932E+03   -.393E+00 0.590E+01 -.925E+03   0.188E-01 -.519E-02 -.670E+01
   0.425E+01 -.425E+01 0.932E+03   -.427E+01 0.427E+01 -.924E+03   0.140E-01 -.140E-01 -.670E+01
   0.276E+00 -.424E+01 -.923E+03   -.291E+00 0.424E+01 0.915E+03   0.109E-01 -.241E-02 0.667E+01
   0.816E+01 -.912E+01 -.921E+03   -.821E+01 0.914E+01 0.913E+03   0.333E-01 -.122E-01 0.667E+01
   0.589E+01 -.366E+00 0.932E+03   -.590E+01 0.393E+00 -.925E+03   0.519E-02 -.188E-01 -.670E+01
   0.754E+01 0.776E+01 0.935E+03   -.755E+01 -.774E+01 -.927E+03   0.861E-02 -.120E-01 -.670E+01
   0.857E+01 0.691E+01 -.921E+03   -.856E+01 -.689E+01 0.914E+03   -.151E-02 -.158E-01 0.667E+01
   0.773E+01 -.693E+00 -.921E+03   -.773E+01 0.730E+00 0.913E+03   0.320E-02 -.261E-01 0.667E+01
   0.994E+01 0.994E+01 0.936E+03   -.993E+01 -.993E+01 -.928E+03   -.162E-02 -.162E-02 -.671E+01
   0.197E+02 0.197E+02 0.949E+03   -.197E+02 -.197E+02 -.941E+03   0.180E-01 0.180E-01 -.673E+01
   0.222E+02 0.170E+02 -.915E+03   -.222E+02 -.170E+02 0.907E+03   -.294E-01 0.794E-02 0.665E+01
   0.170E+02 0.222E+02 -.915E+03   -.170E+02 -.222E+02 0.907E+03   0.794E-02 -.294E-01 0.665E+01
   0.212E+02 0.905E+01 0.945E+03   -.212E+02 -.910E+01 -.937E+03   0.463E-02 0.375E-01 -.671E+01
   0.359E+02 0.227E+01 0.970E+03   -.361E+02 -.245E+01 -.962E+03   0.802E-01 0.118E+00 -.672E+01
   0.418E+02 0.242E+01 -.906E+03   -.418E+02 -.249E+01 0.898E+03   0.301E-01 0.526E-01 0.665E+01
   0.580E+02 0.332E+02 -.888E+03   -.579E+02 -.333E+02 0.881E+03   -.106E+00 0.788E-01 0.661E+01
   0.226E+02 -.789E+01 0.947E+03   -.227E+02 0.786E+01 -.939E+03   0.121E+00 0.185E-01 -.671E+01
   0.208E+02 -.208E+02 0.952E+03   -.209E+02 0.209E+02 -.945E+03   0.782E-01 -.782E-01 -.666E+01
   0.255E+02 -.181E+02 -.913E+03   -.256E+02 0.181E+02 0.906E+03   0.111E+00 -.113E-01 0.667E+01
   0.688E+02 -.307E+02 -.877E+03   -.696E+02 0.306E+02 0.870E+03   0.546E+00 0.873E-01 0.672E+01
   0.107E+02 -.107E+02 0.937E+03   -.108E+02 0.108E+02 -.929E+03   0.356E-01 -.356E-01 -.669E+01
   0.757E+01 -.881E+01 0.936E+03   -.758E+01 0.887E+01 -.928E+03   0.586E-02 -.459E-01 -.670E+01
   0.912E+01 -.816E+01 -.921E+03   -.914E+01 0.821E+01 0.913E+03   0.122E-01 -.333E-01 0.667E+01
   0.181E+02 -.255E+02 -.913E+03   -.181E+02 0.256E+02 0.906E+03   0.113E-01 -.111E+00 0.667E+01
   0.402E+01 -.326E+00 0.935E+03   -.402E+01 0.350E+00 -.928E+03   0.282E-02 -.171E-01 -.670E+01
   0.419E+00 0.119E+02 0.939E+03   -.441E+00 -.120E+02 -.931E+03   0.157E-01 0.234E-01 -.670E+01
   0.710E+01 0.149E+02 -.918E+03   -.712E+01 -.149E+02 0.910E+03   0.145E-01 -.126E-01 0.666E+01
   0.112E-09 0.292E-08 -.919E+03   -.299E-09 -.785E-08 0.911E+03   0.000E+00 0.000E+00 0.666E+01
   0.905E+01 0.212E+02 0.945E+03   -.910E+01 -.212E+02 -.937E+03   0.375E-01 0.463E-02 -.671E+01
   0.227E+01 0.359E+02 0.970E+03   -.245E+01 -.361E+02 -.962E+03   0.118E+00 0.802E-01 -.672E+01
   0.332E+02 0.580E+02 -.888E+03   -.333E+02 -.579E+02 0.881E+03   0.788E-01 -.106E+00 0.661E+01
   0.242E+01 0.418E+02 -.906E+03   -.249E+01 -.418E+02 0.898E+03   0.526E-01 0.301E-01 0.665E+01
   0.269E+02 0.269E+02 0.986E+03   -.271E+02 -.271E+02 -.978E+03   0.113E+00 0.113E+00 -.689E+01
   -.857E-09 -.702E-08 0.103E+04   0.229E-08 0.189E-07 -.102E+04   0.000E+00 0.000E+00 -.672E+01
   0.113E+03 0.254E+02 -.755E+03   -.113E+03 -.264E+02 0.749E+03   0.152E+00 0.647E+00 0.582E+01
   0.254E+02 0.113E+03 -.755E+03   -.264E+02 -.113E+03 0.749E+03   0.647E+00 0.152E+00 0.582E+01
   0.257E+02 -.257E+02 0.992E+03   -.256E+02 0.256E+02 -.985E+03   -.309E-01 0.309E-01 -.600E+01
   -.227E+01 -.359E+02 0.970E+03   0.245E+01 0.361E+02 -.962E+03   -.118E+00 -.802E-01 -.672E+01
   0.307E+02 -.688E+02 -.877E+03   -.306E+02 0.696E+02 0.870E+03   -.873E-01 -.546E+00 0.672E+01
   -.254E+02 -.113E+03 -.755E+03   0.264E+02 0.113E+03 0.749E+03   -.647E+00 -.152E+00 0.582E+01
   0.789E+01 -.226E+02 0.947E+03   -.786E+01 0.227E+02 -.939E+03   -.185E-01 -.121E+00 -.671E+01
   -.419E+00 -.119E+02 0.939E+03   0.441E+00 0.120E+02 -.931E+03   -.157E-01 -.234E-01 -.670E+01
[...]
   -.124E+02 0.910E+01 0.708E+03   0.125E+02 -.913E+01 -.712E+03   -.769E-01 0.328E-01 0.319E+01
   -.461E+01 0.536E+01 0.702E+03   0.463E+01 -.537E+01 -.706E+03   -.288E-01 0.174E-01 0.318E+01
   -.284E+02 0.916E+01 -.682E+03   0.284E+02 -.912E+01 0.687E+03   -.901E-01 -.397E-01 -.324E+01
   -.132E+02 -.545E+00 -.689E+03   0.132E+02 0.564E+00 0.693E+03   -.154E-01 -.233E-01 -.323E+01
   -.186E+02 -.825E+00 0.713E+03   0.186E+02 0.876E+00 -.717E+03   -.453E-01 -.613E-01 0.317E+01
   -.844E+01 0.356E+01 0.705E+03   0.848E+01 -.355E+01 -.709E+03   -.372E-01 -.810E-02 0.318E+01
   -.253E+02 -.107E+02 -.684E+03   0.253E+02 0.107E+02 0.688E+03   0.557E-02 -.409E-01 -.326E+01
   -.795E+01 -.733E+01 -.691E+03   0.794E+01 0.734E+01 0.695E+03   0.142E-01 -.554E-02 -.323E+01
   -.114E+02 -.889E+01 0.707E+03   0.114E+02 0.890E+01 -.711E+03   0.551E-02 -.106E-01 0.316E+01
   -.780E+01 -.395E+01 0.705E+03   0.780E+01 0.396E+01 -.709E+03   -.250E-03 -.177E-01 0.317E+01
   -.100E+02 -.100E+02 -.691E+03   0.100E+02 0.100E+02 0.695E+03   0.121E-01 0.121E-01 -.323E+01
   -.357E+01 -.357E+01 -.694E+03   0.356E+01 0.356E+01 0.698E+03   0.604E-02 0.604E-02 -.322E+01
   -.511E+01 -.400E+01 0.702E+03   0.511E+01 0.400E+01 -.706E+03   -.955E-03 0.945E-02 0.317E+01
   -.400E+01 -.511E+01 0.702E+03   0.400E+01 0.511E+01 -.706E+03   0.945E-02 -.955E-03 0.317E+01
   0.253E-06 0.116E-05 0.109E+02   0.186E-11 0.838E-12 0.231E-10   0.227E-15 0.112E-14 -.997E+01

 POSITION                                       TOTAL-FORCE (eV/Angst)
     11.47244      9.66642     13.67302         0.181121     -0.181121      0.370640
      9.66642     11.47244     13.67302        -0.181121      0.181121      0.370640
      0.00000      0.00000      9.00000        -0.000000      0.000000      0.424861
      2.11389      2.11389      9.00000         0.001397      0.001397      0.425283
      0.00000      2.11389     11.11389         0.003392     -0.000773     -0.412933
      2.11389      0.00000     11.11389        -0.000773      0.003392     -0.412933
      0.00000      4.22777      9.00000         0.005711     -0.001664      0.425421
      2.11389      6.34166      9.00000         0.003522     -0.002631      0.426396
      0.00000      6.34166     11.11389         0.007865     -0.001021     -0.411835
      2.11389      4.22777     11.11389         0.004896      0.000604     -0.411508
      0.00000      8.45554      9.00000         0.005042     -0.000888      0.425541
      2.11389     10.56943      9.00000        -0.007259     -0.005246      0.426105
      0.00000     10.56943     11.11389        -0.000000      0.000000     -0.410552
      2.11389      8.45554     11.11389         0.003986     -0.004578     -0.409036
      0.00000     12.68331      9.00000        -0.005042      0.000888      0.425541
      2.11389     14.79720      9.00000        -0.013899      0.002093      0.425465
      0.00000     14.79720     11.11389        -0.007865      0.001021     -0.411835
      2.11389     12.68331     11.11389        -0.013527     -0.003392     -0.410803
      0.00000     16.91108      9.00000        -0.005711      0.001664      0.425421
      2.11389     19.02497      9.00000        -0.004404      0.004404      0.424819
      0.00000     19.02497     11.11389        -0.003392      0.000773     -0.412933
      2.11389     16.91108     11.11389        -0.010198      0.004021     -0.412761
      4.22777      0.00000      9.00000        -0.001664      0.005711      0.425421
      6.34166      2.11389      9.00000        -0.002631      0.003522      0.426396
      4.22777      2.11389     11.11389         0.000604      0.004896     -0.411508
      6.34166      0.00000     11.11389        -0.001021      0.007865     -0.411835
      4.22777      4.22777      9.00000         0.000715      0.000715      0.427247
      6.34166      6.34166      9.00000        -0.004336     -0.004336      0.436528
      4.22777      6.34166     11.11389         0.009496     -0.001708     -0.405741
      6.34166      4.22777     11.11389        -0.001708      0.009496     -0.405741
      4.22777      8.45554      9.00000        -0.002170     -0.011909      0.429377
      6.34166     10.56943      9.00000        -0.028907     -0.042791      0.426776
      4.22777     10.56943     11.11389        -0.009631     -0.018196     -0.402941
      6.34166      8.45554     11.11389         0.039224     -0.019028     -0.372817
      4.22777     12.68331      9.00000        -0.035337     -0.006217      0.427410
      6.34166     14.79720      9.00000        -0.029775      0.029775      0.406097
      4.22777     14.79720     11.11389        -0.033977      0.004753     -0.412242
      6.34166     12.68331     11.11389        -0.189867     -0.033089     -0.419851
      4.22777     16.91108      9.00000        -0.011705      0.011705      0.422820
      6.34166     19.02497      9.00000        -0.002093      0.013899      0.425465
      4.22777     19.02497     11.11389        -0.004021      0.010198     -0.412761
      6.34166     16.91108     11.11389        -0.004753      0.033977     -0.412242
      8.45554      0.00000      9.00000        -0.000888      0.005042      0.425541
     10.56943      2.11389      9.00000        -0.005246     -0.007259      0.426105
      8.45554      2.11389     11.11389        -0.004578      0.003986     -0.409036
     10.56943      0.00000     11.11389        -0.000000      0.000000     -0.410552
      8.45554      4.22777      9.00000        -0.011909     -0.002170      0.429377
     10.56943      6.34166      9.00000        -0.042791     -0.028907      0.426776
      8.45554      6.34166     11.11389        -0.019028      0.039224     -0.372817
     10.56943      4.22777     11.11389        -0.018196     -0.009631     -0.402941
      8.45554      8.45554      9.00000        -0.034160     -0.034160      0.471601
     10.56943     10.56943      9.00000        -0.000000      0.000000      0.358286
      8.45554     10.56943     11.11389        -0.136610     -0.312276     -0.342484
     10.56943      8.45554     11.11389        -0.312276     -0.136610     -0.342484
      8.45554     12.68331      9.00000         0.013058     -0.013058      0.225685
     10.56943     14.79720      9.00000         0.042791      0.028907      0.426776
      8.45554     14.79720     11.11389         0.033089      0.189867     -0.419851
     10.56943     12.68331     11.11389         0.312276      0.136610     -0.342484
      8.45554     16.91108      9.00000         0.006217      0.035337      0.427410
     10.56943     19.02497      9.00000         0.005246      0.007259      0.426105
[...]
     19.02497      6.34166     11.11389        -0.012805      0.002250      0.447655
     16.91108      6.34166      9.00000        -0.024926      0.010477     -0.457902
     19.02497      4.22777      9.00000        -0.009359      0.005626     -0.461201
     16.91108      8.45554     11.11389        -0.029571     -0.012728      0.444473
     19.02497     10.56943     11.11389        -0.005010     -0.007544      0.445030
     16.91108     10.56943      9.00000        -0.014919     -0.019550     -0.465416
     19.02497      8.45554      9.00000        -0.012067     -0.002622     -0.461628
     16.91108     12.68331     11.11389         0.001497     -0.013364      0.437752
     19.02497     14.79720     11.11389         0.004568     -0.001803      0.446313
     16.91108     14.79720      9.00000         0.001684     -0.003421     -0.466054
     19.02497     12.68331      9.00000        -0.000007     -0.005757     -0.463575
     16.91108     16.91108     11.11389         0.003863      0.003863      0.445275
     19.02497     19.02497     11.11389         0.001943      0.001943      0.448756
     16.91108     19.02497      9.00000        -0.000245      0.003076     -0.462677
     19.02497     16.91108      9.00000         0.003076     -0.000245     -0.462677
    total drift:                                0.000000      0.000001     -0.246795

  FREE ENERGIE OF THE ION-ELECTRON SYSTEM (eV)
  free  energy   TOTEN  =     -1332.38768334 eV

  energy  without entropy=    -1332.38768334  energy(sigma->0) =    -1332.38768334