 vasp.6.4.0 14Feb23 (build Jul 14 2023 13:46:40) complex

 executed on             LinuxIFC date 2023.08.26  07:20:31

 INCAR:
   SYSTEM = MgO-rocksalt
   ISMEAR = 0
   SIGMA = 0.05
   EDIFF = 1E-6
   ALGO = ALL
   ISTART = 0
   IBRION = -1
   NSW = 0
   ISYM = 2
   DIPOL = 0.5 0.5 0.5
   IDIPOL = 3
   LDIPOL = .TRUE.
   METAGGA = R2SCAN
   LUSE_VDW = .TRUE.
   BPARAM = 11.95
   CPARAM = 0.0093
   ENCUT = 520
   PREC = Accurate
   LASPH = .TRUE.
   LREAL = Auto
   ISPIN = 1
   NELM = 200
   NELMIN = 8
   NCORE = 4
   KPAR = 2
   LWAVE = .FALSE.
   LCHARG = .FALSE.

 POTCAR:    PAW_PBE Au 04Oct2007
 POTCAR:    PAW_PBE Mg_pv 13Apr2007
 POTCAR:    PAW_PBE O 08Apr2002
|               ----> ADVICE to this user running VASP <----                  |
|     You have switched on vdW-DFT.                                           |
|     This routine was written and supplied by Jiri Klimes. We recommend      |
|     that you carefully read and cite the following publications:            |
|       J. Klimes, D.R. Bowler, A. Michelides                                 |
|          J. Phys.: Cond Matt. 22 022201 (2010)                              |
|       J. Klimes, D.R. Bowler, A. Michelides                                 |
|          Phys. Rev. B. 83, 195131 (2011)                                    |
|     and references therein.                                                 |

   TITEL  = PAW_PBE Au 04Oct2007
   POMASS =  196.966; ZVAL   =   11.000    mass and valenz
   ENMAX  =  229.943; ENMIN  =  172.457 eV

   TITEL  = PAW_PBE Mg_pv 13Apr2007
   POMASS =   24.305; ZVAL   =    8.000    mass and valenz
   ENMAX  =  403.929; ENMIN  =  302.947 eV

   TITEL  = PAW_PBE O 08Apr2002
   POMASS =   16.000; ZVAL   =    6.000    mass and valenz
   ENMAX  =  400.000; ENMIN  =  300.000 eV

 Optimization of the real space projectors (new method)

 maximal supplied QI-value         = 15.12
 optimisation between [QCUT,QGAM] = [ 11.64, 23.28] = [ 37.95,151.78] Ry
 Optimized for a Real-space Cutoff    1.49 Angstroem

   l    n(q)    QCUT    max X(q) W(low)/X(q) W(high)/X(q)  e(spline)
   2      9    11.641    60.898    0.24E-03    0.10E-03    0.19E-06
   2      9    11.641    58.894    0.25E-03    0.10E-03    0.19E-06
   0     10    11.641   109.617    0.73E-04    0.33E-04    0.11E-06
   0     10    11.641    75.026    0.71E-04    0.32E-04    0.11E-06
   1     10    11.641    16.344    0.27E-04    0.97E-04    0.16E-06
   1     10    11.641    10.160    0.23E-04    0.77E-04    0.13E-06
 Optimization of the real space projectors (new method)

[...]

   l    n(q)    QCUT    max X(q) W(low)/X(q) W(high)/X(q)  e(spline)
   1      8    11.527     2.974    0.44E-04    0.56E-04    0.12E-06
   1      8    11.527     4.279    0.12E-03    0.12E-03    0.26E-06
   0      9    11.527    16.381    0.46E-04    0.64E-04    0.78E-07
   0      9    11.527     5.611    0.26E-04    0.43E-04    0.55E-07
   2      8    11.527     4.652    0.22E-03    0.72E-04    0.47E-07
 Optimization of the real space projectors (new method)

 maximal supplied QI-value         = 24.76
 optimisation between [QCUT,QGAM] = [ 11.64, 23.27] = [ 37.91,151.63] Ry
 Optimized for a Real-space Cutoff    1.14 Angstroem

   l    n(q)    QCUT    max X(q) W(low)/X(q) W(high)/X(q)  e(spline)
   0      8    11.635    20.381    0.10E-03    0.33E-03    0.24E-06
   0      8    11.635    15.268    0.11E-03    0.35E-03    0.26E-06
   1      7    11.635     5.964    0.24E-03    0.31E-03    0.30E-06
   1      7    11.635     5.382    0.22E-03    0.25E-03    0.26E-06
  PAW_PBE Au 04Oct2007                  :
  PAW_PBE Mg_pv 13Apr2007               :
  PAW_PBE O 08Apr2002                   :

 POSCAR: Mg  O
  positions in direct lattice
  velocities in cartesian coordinates

 METAGGA = R2SCAN                                      LMAXTAU =  6    LMIXTAU =  F

 ion  position               nearest neighbor table
   1  0.431  0.227  0.583- 265 2.50   2 2.73   5 2.74  11 2.75  68 2.95  67 3.01
   2  0.559  0.237  0.590-   3 2.65   1 2.73  12 2.78  11 2.83   6 2.87   5 2.95  68 3.06
   3  0.683  0.252  0.593-   2 2.65   4 2.67  12 2.79   6 2.82  13 2.87   7 2.91  88 3.01
   4  0.809  0.260  0.596-   3 2.67   7 2.72  13 2.76 107 2.99
   5  0.476  0.348  0.587-   8 2.70   1 2.74  14 2.75  11 2.81   6 2.86  72 2.89   2 2.95
   6  0.610  0.363  0.590-   3 2.82   9 2.82   8 2.86   5 2.86   2 2.87  15 2.93   7 2.93  14 2.96
                            12 2.99  87 3.02
   7  0.748  0.373  0.593-   9 2.67   4 2.72  15 2.80  13 2.87   3 2.91   6 2.93  92 3.00
   8  0.524  0.467  0.585- 270 2.69   5 2.70  10 2.76  14 2.76  16 2.84   6 2.86  72 2.98   9 3.28

   9  0.678  0.478  0.587- 290 2.66   7 2.67  10 2.73  15 2.77   6 2.82  16 2.89   8 3.28
  10  0.595  0.576  0.580- 293 2.37  16 2.68   9 2.73   8 2.76  91 2.91
  11  0.480  0.269  0.662-  17 2.70   1 2.75   5 2.81  12 2.83   2 2.83  14 2.91
  12  0.613  0.277  0.669-  17 2.75  18 2.76   2 2.78   3 2.79  11 2.83  13 2.83   6 2.99  14 3.17
                            15 3.18
  13  0.745  0.297  0.672-  18 2.67   4 2.76  15 2.82  12 2.83   7 2.87   3 2.87
  14  0.525  0.399  0.664-   5 2.75  19 2.75  17 2.76   8 2.76  16 2.86  11 2.91   6 2.96  12 3.17
                            15 3.26
  15  0.679  0.413  0.667-   9 2.77  19 2.77  18 2.78   7 2.80  16 2.81  13 2.82   6 2.93  12 3.18
                            14 3.26
  16  0.595  0.515  0.658-  10 2.68  19 2.70  15 2.81   8 2.84  14 2.86   9 2.89
  17  0.533  0.318  0.736-  11 2.70  20 2.70  12 2.75  14 2.76  18 2.98  19 3.01
  18  0.673  0.333  0.741-  20 2.67  13 2.67  12 2.76  15 2.78  19 2.91  17 2.98
  19  0.595  0.446  0.734-  16 2.70  20 2.72  14 2.75  15 2.77  18 2.91  17 3.01
  20  0.595  0.368  0.806-  18 2.67  17 2.70  19 2.72
  21  0.000  1.000  0.430- 304 2.11 223 2.11 239 2.11 224 2.11 321 2.12 221 2.13
  22  0.100  0.100  0.430- 223 2.11 224 2.11 228 2.11 243 2.12 322 2.12 222 2.13
  23  0.000  0.100  0.500- 223 2.11 302 2.11 222 2.11 221 2.11 225 2.12
  24  0.100  1.000  0.500- 224 2.10 221 2.11 238 2.11 241 2.11 222 2.11
  25  1.000  0.200  0.430- 308 2.11 223 2.11 228 2.11 227 2.11 325 2.12 225 2.13
  26  0.100  0.300  0.430- 227 2.11 232 2.11 228 2.11 247 2.12 326 2.12 226 2.13
  27  0.000  0.300  0.500- 227 2.11 226 2.11 306 2.11 225 2.12 229 2.12
  28  0.100  0.200  0.500- 228 2.11 225 2.11 245 2.11 222 2.11 226 2.12
  29  1.000  0.400  0.430- 312 2.11 232 2.11 227 2.11 231 2.12 329 2.12 229 2.13
  30  0.100  0.500  0.430- 231 2.11 251 2.11 236 2.11 232 2.11 330 2.12 230 2.13
  31  0.000  0.500  0.500- 231 2.11 230 2.11 310 2.11 233 2.12 229 2.12
  32  0.100  0.400  0.500- 232 2.11 229 2.11 249 2.11 230 2.12 226 2.12
  33  0.000  0.600  0.430- 236 2.11 235 2.11 231 2.11 316 2.11 333 2.12 233 2.13
  34  0.100  0.700  0.430- 235 2.11 240 2.11 255 2.11 236 2.11 334 2.12 234 2.13
  35  0.000  0.700  0.500- 235 2.11 234 2.11 237 2.11 314 2.11 233 2.11
  36  0.100  0.600  0.500- 236 2.11 233 2.11 253 2.11 234 2.11 230 2.11
  37  0.000  0.800  0.430- 239 2.11 240 2.11 235 2.11 320 2.11 337 2.12 237 2.13
  38  0.100  0.900  0.430- 239 2.11 240 2.11 224 2.11 259 2.11 338 2.12 238 2.13
  39  0.000  0.900  0.500- 239 2.10 221 2.11 238 2.11 237 2.11 318 2.11
  40  0.100  0.800  0.500- 240 2.10 237 2.11 238 2.11 257 2.11 234 2.11
  41  0.200  1.000  0.430- 224 2.11 259 2.11 243 2.12 244 2.12 341 2.12 241 2.13
  42  0.300  0.100  0.430- 243 2.11 244 2.11 263 2.11 248 2.11 342 2.13 242 2.13
  43  0.200  0.100  0.500- 243 2.11 222 2.11 241 2.11 245 2.12 242 2.12
  44  0.300  1.000  0.500- 244 2.11 241 2.11 258 2.11 261 2.12 242 2.12
  45  0.200  0.200  0.430- 228 2.11 243 2.11 247 2.11 345 2.12 248 2.13 245 2.14
  46  0.300  0.300  0.430- 267 2.11 247 2.11 252 2.11 248 2.12 346 2.12 246 2.13
  47  0.200  0.300  0.500- 226 2.11 247 2.11 249 2.11 246 2.12 245 2.12
  48  0.298  0.200  0.500- 245 2.09 248 2.11 246 2.11 242 2.11 265 2.13
  49  0.200  0.400  0.430- 232 2.11 252 2.11 251 2.11 247 2.12 349 2.12 249 2.13
  50  0.300  0.500  0.430- 251 2.11 256 2.11 252 2.11 271 2.12 350 2.12 250 2.13
  51  0.200  0.500  0.500- 251 2.11 230 2.11 250 2.11 253 2.11 249 2.12
  52  0.299  0.400  0.500- 249 2.10 252 2.11 269 2.11 250 2.11 246 2.12
  53  0.200  0.600  0.430- 236 2.11 255 2.11 251 2.11 256 2.11 353 2.12 253 2.13
  54  0.300  0.700  0.430- 255 2.11 260 2.11 256 2.11 275 2.12 354 2.12 254 2.13
  55  0.200  0.700  0.500- 255 2.11 234 2.11 257 2.11 253 2.11 254 2.11
  56  0.299  0.600  0.500- 253 2.11 256 2.11 254 2.11 273 2.11 250 2.12
  57  0.200  0.800  0.430- 240 2.11 255 2.11 259 2.11 260 2.12 357 2.12 257 2.13
  58  0.300  0.900  0.430- 259 2.11 260 2.11 279 2.11 244 2.12 358 2.12 258 2.13
  59  0.200  0.900  0.500- 259 2.10 238 2.11 257 2.11 241 2.11 258 2.11
  60  0.300  0.800  0.500- 260 2.10 257 2.11 258 2.11 254 2.11 277 2.12
  61  0.400  1.000  0.430- 264 2.11 244 2.11 279 2.11 361 2.12 263 2.13 261 2.13
  62  0.500  0.100  0.430- 268 2.11 264 2.11 283 2.11 263 2.12 362 2.12 262 2.12
  63  0.400  0.098  0.500- 261 2.09 263 2.11 262 2.11 242 2.11 265 2.14
  64  0.500  1.000  0.500- 264 2.11 278 2.11 262 2.11 281 2.11 261 2.12
  65  0.400  0.200  0.429- 268 2.10 267 2.10 248 2.10 263 2.10 365 2.11
  66  0.500  0.300  0.429- 266 2.07 366 2.10 287 2.11 268 2.12 267 2.12 272 2.13
  67  0.399  0.302  0.500- 269 2.09 246 2.11 267 2.12 266 2.12 265 2.16   1 3.01
  68  0.501  0.199  0.500- 285 2.09 262 2.11 268 2.11 266 2.13 265 2.16   1 2.95   2 3.06
  69  0.400  0.400  0.430- 269 2.11 252 2.11 369 2.11 272 2.11 271 2.12 267 2.13
  70  0.500  0.500  0.429- 272 2.10 271 2.11 370 2.11 276 2.12 291 2.12 270 2.14
  71  0.399  0.500  0.500- 250 2.10 269 2.10 271 2.11 273 2.12 270 2.13
  72  0.500  0.399  0.500- 266 2.11 272 2.11 269 2.13 289 2.13 270 2.15   5 2.89   8 2.98
  73  0.400  0.600  0.430- 256 2.11 271 2.11 275 2.11 373 2.12 276 2.13 273 2.13
  74  0.500  0.700  0.430- 280 2.11 275 2.11 295 2.12 276 2.12 374 2.12 274 2.13
  75  0.399  0.701  0.500- 254 2.10 277 2.11 275 2.11 273 2.12 274 2.12
[...]
 406  0.900  0.300  0.359- 208 2.11 207 2.11 127 2.11 212 2.11 206 2.11 106 2.12
 407  0.800  0.300  0.289- 186 2.11 205 2.11 206 2.11 209 2.11 207 2.11
 408  0.900  0.200  0.289- 206 2.11 202 2.11 205 2.11 125 2.11 208 2.11
 409  0.800  0.400  0.359- 192 2.11 207 2.11 211 2.11 212 2.11 209 2.11 109 2.12
 410  0.900  0.500  0.359- 131 2.11 211 2.11 212 2.11 216 2.11 210 2.11 110 2.12
 411  0.800  0.500  0.289- 190 2.11 209 2.11 210 2.11 213 2.11 211 2.11
 412  0.900  0.400  0.289- 129 2.11 206 2.11 209 2.11 210 2.11 212 2.11
 413  0.800  0.600  0.359- 196 2.11 211 2.11 215 2.11 216 2.11 213 2.11 113 2.12
 414  0.900  0.700  0.359- 220 2.11 215 2.11 216 2.11 135 2.11 214 2.11 114 2.12
 415  0.800  0.700  0.289- 194 2.11 217 2.11 214 2.11 213 2.11 215 2.11
 416  0.900  0.600  0.289- 133 2.11 210 2.11 213 2.11 214 2.11 216 2.11
 417  0.800  0.800  0.359- 200 2.11 215 2.11 219 2.11 220 2.11 217 2.11 117 2.12
 418  0.900  0.900  0.359- 139 2.11 204 2.11 219 2.11 220 2.11 218 2.11 118 2.12
 419  0.800  0.900  0.289- 198 2.11 201 2.11 217 2.11 218 2.11 219 2.11
 420  0.900  0.800  0.289- 214 2.11 137 2.11 217 2.11 218 2.11 220 2.11

  LATTYP: Found a simple tetragonal cell.
[...]
     52     -43.8844      2.00000
     53     -43.8807      2.00000
     54     -43.8446      2.00000
     55     -43.8430      2.00000
     56     -43.8378      2.00000
     57     -43.8348      2.00000
     58     -43.8330      2.00000
     59     -43.8287      2.00000
     60     -43.8273      2.00000
[...]
   1810       7.5658      0.00000
   1811       7.6024      0.00000
   1812       7.6032      0.00000
   1813       7.6348      0.00000
   1814       7.6636      0.00000
   1815       7.6919      0.00000
   1816       7.7015      0.00000
   1817       7.7293      0.00000
   1818       7.7399      0.00000
   1819       7.7544      0.00000
   1820       7.7628      0.00000
   1821       7.7724      0.00000
   1822       7.7728      0.00000
   1823       7.7955      0.00000
   1824       7.7996      0.00000

 soft charge-density along one line, spin component           1
         0         1         2         3         4         5         6         7         8         9
 total charge-density along one line

------------------------ aborting loop because EDIFF is reached ----------------------------------------

  FORCE on cell =-STRESS in cart. coord.  units (eV):
  Direction    XX          YY          ZZ          XY          YZ          ZX
  Alpha Z  4657.84619  4657.84619  4657.84619
  Ewald  ************************************   107.28206    15.22784  -107.61106
  Hartree************************************   103.31887    25.62726   -96.05241
  E(xc)  -17646.00941-17645.90949-17634.29445     0.00766    -0.11669     0.01746
  Local  ************************************  -212.76833   -39.95246   202.30496
  n-local-17439.01684-17436.93284-17565.94462     0.65935     0.36421     1.33954
  augment  8749.57543  8750.50077  8694.34791     0.41082    -0.49828    -0.04037
  Kinetic 48806.42984 48808.67225 49016.00112     0.78195    -0.42193     0.82418
  Fock        0.00000     0.00000     0.00000     0.00000     0.00000     0.00000
  Total    -277.84937  -277.30881   -69.48035    -0.30761     0.22994     0.78230
  in kB     -33.20748   -33.14288    -8.30402    -0.03676     0.02748     0.09350

 VOLUME and BASIS-vectors are now :
  energy-cutoff  :      520.00
  volume of cell :    13405.53
      direct lattice vectors                 reciprocal lattice vectors
    21.138852197  0.000000000  0.000000000     0.047306258  0.000000000  0.000000000
     0.000000000 21.138852197  0.000000000     0.000000000  0.047306258  0.000000000
     0.000000000  0.000000000 30.000000000     0.000000000  0.000000000  0.033333333

  length of vectors
    21.138852197 21.138852197 30.000000000     0.047306258  0.047306258  0.033333333

 FORCES acting on ions:
    Electron-Ion                     Ewald-Force                    Non-Local-Force
   0.799E+03 0.617E+03 -.341E+04   -.795E+03 -.614E+03 0.342E+04   -.479E+01 -.361E+01 -.327E+01
   0.166E+03 0.926E+03 -.312E+04   -.164E+03 -.925E+03 0.312E+04   -.225E+01 -.109E+01 -.951E+00
   -.381E+03 0.859E+03 -.310E+04   0.379E+03 -.860E+03 0.310E+04   0.278E+01 0.550E+00 -.338E+00
   -.944E+03 0.504E+03 -.336E+04   0.939E+03 -.501E+03 0.336E+04   0.534E+01 -.353E+01 -.138E+01
   0.917E+03 -.859E+02 -.312E+04   -.916E+03 0.887E+02 0.312E+04   -.140E+01 -.269E+01 -.101E+01
   -.226E+02 -.142E+02 -.289E+04   0.228E+02 0.135E+02 0.289E+04   -.106E+00 0.806E+00 -.170E+00
   -.943E+03 -.249E+03 -.313E+04   0.941E+03 0.251E+03 0.313E+04   0.244E+01 -.178E+01 -.579E+00
   0.696E+03 -.636E+03 -.314E+04   -.696E+03 0.633E+03 0.314E+04   0.631E-01 0.356E+01 -.178E+01
   -.606E+03 -.729E+03 -.315E+04   0.607E+03 0.725E+03 0.315E+04   -.533E+00 0.334E+01 -.195E+01
   0.609E+02 -.998E+03 -.341E+04   -.607E+02 0.992E+03 0.341E+04   -.177E+00 0.527E+01 -.393E+01
   0.887E+03 0.640E+03 -.328E+04   -.886E+03 -.640E+03 0.328E+04   -.127E+01 -.959E+00 -.393E+00
   -.645E+02 0.854E+03 -.317E+04   0.644E+02 -.854E+03 0.317E+04   0.505E-01 0.117E+00 -.698E-01
   -.963E+03 0.455E+03 -.325E+04   0.960E+03 -.453E+03 0.325E+04   0.253E+01 -.123E+01 -.159E+01
   0.821E+03 -.388E+03 -.317E+04   -.821E+03 0.388E+03 0.317E+04   -.282E-01 -.181E+00 0.344E+00
   -.710E+03 -.522E+03 -.318E+04   0.710E+03 0.522E+03 0.318E+04   -.569E-01 -.157E+00 0.352E+00
   0.972E+02 -.109E+04 -.328E+04   -.970E+02 0.109E+04 0.328E+04   -.141E+00 0.931E+00 0.229E+00
   0.657E+03 0.394E+03 -.290E+04   -.657E+03 -.395E+03 0.289E+04   0.494E+00 0.817E+00 0.381E+01
   -.627E+03 0.270E+03 -.290E+04   0.628E+03 -.270E+03 0.290E+04   -.922E+00 0.534E+00 0.304E+01
   0.101E+03 -.780E+03 -.291E+04   -.101E+03 0.781E+03 0.290E+04   -.178E+00 -.855E+00 0.407E+01
   0.668E+02 -.417E+02 -.232E+04   -.661E+02 0.411E+02 0.231E+04   -.677E+00 0.586E+00 0.636E+01
   -.337E+02 0.423E+02 -.708E+03   0.337E+02 -.423E+02 0.708E+03   0.425E-01 -.856E-02 -.284E+00
   -.412E+01 0.466E+02 -.699E+03   0.399E+01 -.466E+02 0.700E+03   0.127E+00 0.189E-01 -.279E+00
   -.778E+02 0.859E+02 -.232E+04   0.777E+02 -.860E+02 0.231E+04   0.351E-01 0.124E+00 0.635E+01
   -.293E+01 0.510E+02 -.235E+04   0.282E+01 -.510E+02 0.235E+04   0.131E+00 0.737E-01 0.639E+01
   -.661E+02 0.472E+02 -.661E+03   0.660E+02 -.472E+02 0.661E+03   0.683E-01 0.116E-01 -.255E+00
   -.655E+01 0.132E+02 -.672E+03   0.647E+01 -.132E+02 0.672E+03   0.812E-01 -.341E-02 -.281E+00
   -.143E+03 0.220E+02 -.227E+04   0.143E+03 -.220E+02 0.226E+04   -.950E-01 0.534E-01 0.630E+01
   -.941E+01 0.544E+02 -.232E+04   0.929E+01 -.544E+02 0.231E+04   0.168E+00 0.769E-01 0.634E+01
   -.768E+02 -.210E+02 -.649E+03   0.768E+02 0.209E+02 0.650E+03   0.163E-01 0.247E-01 -.289E+00
   -.464E+01 -.386E+02 -.687E+03   0.462E+01 0.386E+02 0.687E+03   0.238E-01 -.164E-01 -.291E+00
   -.109E+03 -.725E+02 -.230E+04   0.109E+03 0.725E+02 0.229E+04   -.740E-01 -.365E-01 0.634E+01
   -.121E+02 -.261E+02 -.231E+04   0.120E+02 0.262E+02 0.230E+04   0.115E+00 -.587E-01 0.637E+01
   -.494E+02 -.531E+02 -.690E+03   0.494E+02 0.531E+02 0.690E+03   -.577E-01 -.330E-02 -.295E+00
   -.207E+01 -.346E+02 -.718E+03   0.205E+01 0.346E+02 0.718E+03   0.181E-01 -.940E-02 -.284E+00
   -.524E+02 -.578E+02 -.235E+04   0.524E+02 0.578E+02 0.234E+04   -.107E+00 -.869E-01 0.638E+01
   -.571E+01 -.621E+02 -.234E+04   0.568E+01 0.622E+02 0.233E+04   0.548E-01 -.579E-01 0.639E+01
   -.276E+02 -.153E+02 -.720E+03   0.276E+02 0.153E+02 0.721E+03   -.376E-01 -.307E-01 -.280E+00
   -.152E+01 0.134E+02 -.725E+03   0.147E+01 -.134E+02 0.725E+03   0.458E-01 0.105E-01 -.276E+00
   -.367E+02 0.219E+02 -.236E+04   0.367E+02 -.219E+02 0.235E+04   -.281E-01 -.269E-01 0.640E+01
   -.207E+01 -.171E+02 -.236E+04   0.204E+01 0.171E+02 0.236E+04   0.425E-01 -.232E-01 0.640E+01
   0.302E+02 0.399E+02 -.709E+03   -.303E+02 -.400E+02 0.709E+03   0.109E+00 0.672E-01 -.275E+00
   0.774E+02 0.740E+02 -.658E+03   -.775E+02 -.741E+02 0.659E+03   0.358E-01 0.484E-01 -.280E+00
   0.692E+02 0.789E+02 -.232E+04   -.695E+02 -.790E+02 0.232E+04   0.341E+00 0.252E+00 0.632E+01
   0.814E+02 0.863E+02 -.232E+04   -.816E+02 -.865E+02 0.232E+04   0.292E+00 0.256E+00 0.632E+01
   0.542E+02 0.441E+02 -.667E+03   -.546E+02 -.441E+02 0.667E+03   0.404E+00 0.418E-02 -.250E+00
   0.129E+03 0.244E+02 -.591E+03   -.129E+03 -.243E+02 0.592E+03   -.312E-01 -.449E-01 -.363E+00
   0.115E+03 0.189E+02 -.228E+04   -.116E+03 -.188E+02 0.228E+04   0.324E+00 -.177E+00 0.633E+01
   0.208E+03 0.112E+03 -.221E+04   -.210E+03 -.112E+03 0.220E+04   0.123E+01 0.162E-01 0.623E+01
   0.662E+02 -.187E+02 -.657E+03   -.663E+02 0.188E+02 0.657E+03   0.547E-01 -.657E-01 -.288E+00
   0.109E+03 -.623E+02 -.624E+03   -.109E+03 0.623E+02 0.625E+03   0.187E+00 -.742E-02 -.305E+00
   0.912E+02 -.650E+02 -.231E+04   -.913E+02 0.651E+02 0.230E+04   0.168E+00 -.945E-01 0.636E+01
   0.242E+03 -.557E+02 -.220E+04   -.242E+03 0.558E+02 0.220E+04   0.382E+00 -.140E+00 0.636E+01
   0.440E+02 -.505E+02 -.694E+03   -.441E+02 0.505E+02 0.694E+03   0.769E-01 -.108E-01 -.289E+00
   0.588E+02 -.539E+02 -.691E+03   -.589E+02 0.539E+02 0.691E+03   0.160E+00 -.267E-01 -.284E+00
   0.467E+02 -.543E+02 -.235E+04   -.468E+02 0.544E+02 0.234E+04   0.171E+00 -.682E-01 0.638E+01
   0.137E+03 -.110E+03 -.229E+04   -.137E+03 0.110E+03 0.229E+04   0.331E+00 -.909E-01 0.633E+01
   0.253E+02 -.148E+02 -.721E+03   -.254E+02 0.148E+02 0.721E+03   0.739E-01 0.691E-02 -.284E+00
   0.427E+02 0.179E+02 -.708E+03   -.428E+02 -.180E+02 0.708E+03   0.650E-01 0.413E-01 -.283E+00
   0.341E+02 0.213E+02 -.236E+04   -.342E+02 -.214E+02 0.235E+04   0.154E+00 0.606E-01 0.639E+01
   0.632E+02 -.306E+02 -.235E+04   -.634E+02 0.306E+02 0.234E+04   0.249E+00 -.108E+00 0.637E+01
[...]
   -.272E+02 0.871E+01 0.194E+04   0.273E+02 -.874E+01 -.195E+04   -.394E-01 0.363E-01 0.339E+01
   -.240E+02 0.168E+02 0.192E+04   0.240E+02 -.169E+02 -.192E+04   -.114E-02 0.101E-01 0.339E+01
   -.541E+02 -.140E+02 0.779E+03   0.541E+02 0.140E+02 -.778E+03   -.190E-01 0.629E-01 -.111E+00
   -.452E+02 -.280E+02 0.728E+03   0.452E+02 0.280E+02 -.728E+03   -.710E-01 0.157E-01 -.115E+00
   -.255E+02 -.196E+02 0.194E+04   0.256E+02 0.196E+02 -.194E+04   -.687E-01 0.260E-01 0.344E+01
   -.272E+02 -.605E+01 0.193E+04   0.272E+02 0.603E+01 -.193E+04   -.277E-01 0.267E-01 0.340E+01
   -.381E+02 -.431E+02 0.734E+03   0.382E+02 0.431E+02 -.734E+03   -.149E+00 -.129E-01 -.308E-01
   -.278E+02 -.259E+02 0.696E+03   0.278E+02 0.259E+02 -.695E+03   -.506E-01 -.176E-01 -.969E-01
   -.175E+02 -.194E+02 0.191E+04   0.175E+02 0.194E+02 -.191E+04   -.516E-01 -.325E-01 0.343E+01
   -.211E+02 -.197E+02 0.191E+04   0.211E+02 0.197E+02 -.192E+04   -.490E-01 -.180E-02 0.341E+01
   -.230E+02 -.138E+02 0.697E+03   0.230E+02 0.138E+02 -.697E+03   -.411E-01 -.517E-01 -.810E-01
   -.217E+02 0.867E+01 0.686E+03   0.217E+02 -.865E+01 -.686E+03   -.429E-02 -.269E-01 -.110E+00
   -.144E+02 0.602E+01 0.190E+04   0.144E+02 -.600E+01 -.191E+04   -.214E-01 -.320E-01 0.340E+01
   -.148E+02 -.642E+01 0.190E+04   0.148E+02 0.643E+01 -.190E+04   -.246E-01 -.230E-01 0.340E+01
   -.102E+01 -.114E+01 0.102E+03   -.568E-12 0.528E-11 -.909E-12   0.967E+00 0.185E+01 -.100E+03

 POSITION                                       TOTAL-FORCE (eV/Angst)
      9.10667      4.79263     17.48041         0.134543      0.095675     -0.005223
     11.81905      5.00625     17.68907         0.045818      0.072285      0.051551
     14.44594      5.31817     17.79364        -0.052451      0.065557      0.043315
     17.10876      5.48755     17.88966        -0.172536      0.089680      0.016594
     10.05294      7.36352     17.61631         0.091583      0.022765      0.051474
     12.89594      7.66983     17.69393         0.002857     -0.011219     -0.002476
     15.82200      7.87788     17.78178        -0.085474      0.007071      0.039937
     11.06878      9.86158     17.55976         0.030004     -0.096145      0.036506
     14.33937     10.09445     17.60024        -0.004723     -0.101800      0.036695
     12.57689     12.16871     17.39436         0.018756     -0.162527      0.000084
     10.13674      5.68285     19.86608         0.088027      0.061231     -0.063383
     12.95101      5.86320     20.08161        -0.004016      0.001778     -0.013577
     15.75002      6.28136     20.16097        -0.110150      0.058882     -0.034717
     11.10263      8.43243     19.92362         0.014730      0.001818     -0.035398
     14.34645      8.72408     20.00947        -0.000288      0.005277     -0.033982
     12.56899     10.88515     19.74814         0.012457     -0.089586     -0.067788
     11.26704      6.72409     22.08029         0.053151      0.014252     -0.121454
     14.22880      7.04397     22.22443        -0.042721      0.018589     -0.108604
     12.57657      9.43471     22.02315         0.013371     -0.053939     -0.122726
     12.57349      7.78308     24.18661         0.022308     -0.009842     -0.229084
      0.00040     21.13811     12.89147        -0.003175     -0.000036      0.012860
      2.11220      2.11270     12.89252         0.000647      0.000391      0.024592
      0.00209      2.10887     14.99130        -0.028955      0.060728     -0.142888
      2.11172     21.13554     14.98924         0.023678      0.033660     -0.116933
     21.13885      4.22650     12.89308        -0.003447      0.002419      0.028655
      2.11183      6.34106     12.89306        -0.000690      0.000573      0.030392
      0.00509      6.33945     14.99451        -0.076222      0.032642     -0.177558
      2.11041      4.22469     14.99215         0.046862      0.041468     -0.148142
     21.13846      8.45487     12.89399        -0.000928     -0.000257      0.042608
      2.11228     10.57022     12.89244         0.000956     -0.002485      0.024071
      0.00272     10.57175     14.99275        -0.040659     -0.037275     -0.151332
      2.11129      8.45736     14.99112         0.031367     -0.023637     -0.131511
      0.00066     12.68420     12.89254         0.000121     -0.005376      0.026484
      2.11282     14.79821     12.89142         0.001862     -0.005147      0.014223
      0.00273     14.80072     14.99000        -0.033188     -0.044741     -0.125879
      2.11207     12.68646     14.99011         0.021960     -0.039900     -0.124144
      0.00087     16.91193     12.89112        -0.001846     -0.004747      0.011641
      2.11314     19.02478     12.89080         0.000963     -0.001880      0.007796
      0.00208     19.02451     14.98887        -0.021442      0.002749     -0.107814
      2.11266     16.91224     14.98863         0.010796     -0.013504     -0.104109
      4.22565     21.13811     12.89158         0.002838     -0.002830      0.014919
      6.33900      2.11252     12.89929         0.006184      0.000434      0.101077
      4.21967      2.10709     14.99310         0.080290      0.064450     -0.173084
      6.33231     21.13246     14.99265         0.089106      0.056870     -0.170408
      4.22332      4.22681     12.89448        -0.002922     -0.002567      0.048216
      6.33719      6.34189     12.89653         0.004686     -0.000546      0.062014
      4.21821      6.34460     14.99271         0.096587     -0.029085     -0.173920
      6.30729      4.22596     15.00936         0.027849      0.003627     -0.111005
      4.22408      8.45616     12.89164        -0.000702      0.001484      0.012999
      6.33586     10.57077     12.89228        -0.008091      0.002137      0.023163
      4.22079     10.57297     14.99078         0.076845     -0.043842     -0.147393
      6.32502      8.45861     14.99266         0.156973     -0.017776     -0.180242
      4.22447     12.68484     12.89197        -0.000964     -0.002323      0.019621
      6.33716     14.79901     12.89199        -0.005252      0.000632      0.019428
      4.22255     14.80035     14.98942         0.056676     -0.040563     -0.126998
      6.33029     12.68829     14.99238         0.101892     -0.050325     -0.172762
      4.22531     16.91163     12.89090         0.002678     -0.003706      0.008946
      6.33877     19.02464     12.89169         0.002758     -0.002425      0.016611
      4.22285     19.02349     14.98871         0.049550      0.014842     -0.117604
      6.33376     16.91435     14.98942         0.076603     -0.041818     -0.138476
[...]
     19.02497      6.34166     10.77222         0.005278      0.004193      0.015559
     16.91108      6.34166      8.65833        -0.010717      0.008388     -0.347776
     19.02497      4.22777      8.65833        -0.000108      0.001029     -0.349693
     16.91108      8.45554     10.77222        -0.004521      0.019272      0.017452
     19.02497     10.56943     10.77222        -0.022052      0.003177      0.034285
     16.91108     10.56943      8.65833        -0.019109      0.005562     -0.336805
     19.02497      8.45554      8.65833        -0.007468      0.005743     -0.347219
     16.91108     12.68331     10.77222        -0.047689     -0.005827      0.059881
     19.02497     14.79720     10.77222        -0.016179     -0.007605      0.023519
     16.91108     14.79720      8.65833        -0.014244     -0.010740     -0.338832
     19.02497     12.68331      8.65833        -0.013569     -0.002151     -0.342266
     16.91108     16.91108     10.77222        -0.013277     -0.018266      0.025530
     19.02497     19.02497     10.77222        -0.001852     -0.009834      0.013803
     16.91108     19.02497      8.65833        -0.005791     -0.010655     -0.346055
     19.02497     16.91108      8.65833        -0.006742     -0.008072     -0.345659
    total drift:                               -0.054635      0.713417      1.585633

  FREE ENERGIE OF THE ION-ELECTRON SYSTEM (eV)
  free  energy   TOTEN  =     -4060.66175184 eV

  energy  without entropy=    -4060.66175184  energy(sigma->0) =    -4060.66175184