 vasp.6.3.0 20Jan22 (build Apr  1 2022 16:44:48) complex
 executed on        HPECrayEX_GCC date 2023.01.09  22:33:42

 INCAR:
   SYSTEM = MgO-rocksalt
   ISMEAR = 0
   SIGMA = 0.05
   EDIFF = 1E-6
   ALGO = ALL
   ISTART = 0
   IBRION = -1
   NSW = 0
   ISYM = 2
   DIPOL = 0.5 0.5 0.5
   IDIPOL = 3
   LDIPOL = .TRUE.
   METAGGA = R2SCAN
   ENCUT = 520
   PREC = Accurate
   LASPH = .TRUE.
   LREAL = Auto
   ISPIN = 1
   NELM = 200
   NELMIN = 8
   NCORE = 4
   KPAR = 2
   LWAVE = .FALSE.
   LCHARG = .FALSE.

 POTCAR:    PAW_PBE Au 04Oct2007
 POTCAR:    PAW_PBE Mg_pv 13Apr2007
 POTCAR:    PAW_PBE O 08Apr2002
 POTCAR:    PAW_PBE Au 04Oct2007
   VRHFIN =Au: s1d10

   TITEL  = PAW_PBE Au 04Oct2007
   POMASS =  196.966; ZVAL   =   11.000    mass and valenz
   ENMAX  =  229.943; ENMIN  =  172.457 eV

   TITEL  = PAW_PBE Mg_pv 13Apr2007
   POMASS =   24.305; ZVAL   =    8.000    mass and valenz
   ENMAX  =  403.929; ENMIN  =  302.947 eV

   TITEL  = PAW_PBE O 08Apr2002
   POMASS =   16.000; ZVAL   =    6.000    mass and valenz
   ENMAX  =  400.000; ENMIN  =  300.000 eV

 Optimization of the real space projectors (new method)

 maximal supplied QI-value         = 15.12
 optimisation between [QCUT,QGAM] = [ 11.64, 23.28] = [ 37.95,151.78] Ry
 Optimized for a Real-space Cutoff    1.49 Angstroem

   l    n(q)    QCUT    max X(q) W(low)/X(q) W(high)/X(q)  e(spline)
   2      9    11.641    60.898    0.24E-03    0.10E-03    0.19E-06
   2      9    11.641    58.894    0.25E-03    0.10E-03    0.19E-06
   0     10    11.641   109.617    0.73E-04    0.33E-04    0.11E-06
   0     10    11.641    75.026    0.71E-04    0.32E-04    0.11E-06
   1     10    11.641    16.344    0.27E-04    0.97E-04    0.16E-06
   1     10    11.641    10.160    0.23E-04    0.77E-04    0.13E-06
 Optimization of the real space projectors (new method)

[...]

   l    n(q)    QCUT    max X(q) W(low)/X(q) W(high)/X(q)  e(spline)
   1      8    11.527     2.974    0.44E-04    0.56E-04    0.12E-06
   1      8    11.527     4.279    0.12E-03    0.12E-03    0.26E-06
   0      9    11.527    16.381    0.46E-04    0.64E-04    0.78E-07
   0      9    11.527     5.611    0.26E-04    0.43E-04    0.55E-07
   2      8    11.527     4.652    0.22E-03    0.72E-04    0.47E-07
 Optimization of the real space projectors (new method)

 maximal supplied QI-value         = 24.76
 optimisation between [QCUT,QGAM] = [ 11.64, 23.27] = [ 37.91,151.63] Ry
 Optimized for a Real-space Cutoff    1.14 Angstroem

   l    n(q)    QCUT    max X(q) W(low)/X(q) W(high)/X(q)  e(spline)
   0      8    11.635    20.381    0.10E-03    0.33E-03    0.24E-06
   0      8    11.635    15.268    0.11E-03    0.35E-03    0.26E-06
   1      7    11.635     5.964    0.24E-03    0.31E-03    0.30E-06
   1      7    11.635     5.382    0.22E-03    0.25E-03    0.26E-06
  PAW_PBE Au 04Oct2007                  :
  PAW_PBE Mg_pv 13Apr2007               :
  PAW_PBE O 08Apr2002                   :

 POSCAR: Au Mg  O
  positions in direct lattice
  velocities in cartesian coordinates

 METAGGA = R2SCA    LMAXTAU =  6    LMIXTAU =  F

 ion  position               nearest neighbor table
   1  0.400  0.425  0.603- 153 2.29   2 2.53  55 2.73
   2  0.400  0.510  0.684-   1 2.53   3 2.68   4 2.74
   3  0.400  0.633  0.713-   4 2.57   2 2.68
   4  0.400  0.605  0.600- 157 2.16   3 2.57   2 2.74  59 2.95  40 3.02  60 3.02
   5  0.000  0.000  0.407- 107 2.11 108 2.11 123 2.11 188 2.11 105 2.11
   6  0.100  0.100  0.407- 107 2.11 108 2.11 112 2.11 127 2.11 106 2.11
   7  0.000  0.100  0.503- 105 2.11 106 2.11 109 2.11 186 2.11 107 2.11
   8  0.100  0.000  0.503- 105 2.11 106 2.11 122 2.11 125 2.11 108 2.11
   9  0.000  0.200  0.407- 111 2.11 107 2.11 112 2.11 192 2.11 109 2.11
  10  0.100  0.300  0.407- 112 2.11 111 2.11 116 2.11 131 2.11 110 2.11
  11  0.000  0.300  0.503- 109 2.11 110 2.11 113 2.11 190 2.11 111 2.11
  12  0.100  0.200  0.503- 110 2.11 109 2.11 106 2.11 129 2.11 112 2.11
  13  0.000  0.400  0.407- 111 2.11 115 2.11 116 2.11 196 2.11 113 2.11
  14  0.100  0.500  0.407- 115 2.11 116 2.11 120 2.11 135 2.11 114 2.11
  15  0.000  0.500  0.503- 113 2.11 114 2.11 117 2.11 194 2.11 115 2.11
  16  0.100  0.400  0.503- 110 2.11 113 2.11 114 2.11 133 2.11 116 2.11
  17  0.000  0.600  0.407- 115 2.11 119 2.11 120 2.11 200 2.11 117 2.11
  18  0.100  0.700  0.407- 124 2.11 120 2.11 119 2.11 139 2.11 118 2.11
  19  0.000  0.700  0.503- 121 2.11 118 2.11 117 2.11 198 2.11 119 2.11
  20  0.100  0.600  0.503- 114 2.11 117 2.11 118 2.11 137 2.11 120 2.11
  21  0.000  0.800  0.407- 119 2.11 123 2.11 124 2.11 204 2.11 121 2.11
  22  0.100  0.900  0.407- 108 2.11 123 2.11 124 2.11 143 2.11 122 2.11
  23  0.000  0.900  0.503- 105 2.11 121 2.11 122 2.11 202 2.11 123 2.11
  24  0.100  0.800  0.503- 118 2.11 121 2.11 122 2.11 141 2.11 124 2.11
  25  0.200  0.000  0.407- 128 2.11 127 2.11 108 2.11 143 2.11 125 2.11
  26  0.300  0.100  0.407- 127 2.11 128 2.11 132 2.11 147 2.11 126 2.11
  27  0.200  0.100  0.503- 126 2.11 125 2.11 106 2.11 129 2.11 127 2.11
  28  0.300  0.000  0.503- 125 2.11 126 2.11 142 2.11 145 2.11 128 2.11
  29  0.200  0.200  0.407- 131 2.11 132 2.11 112 2.11 127 2.11 129 2.11
  30  0.300  0.300  0.407- 131 2.11 132 2.11 136 2.11 151 2.11 130 2.11
  31  0.200  0.300  0.503- 129 2.11 130 2.11 110 2.11 133 2.11 131 2.11
  32  0.300  0.200  0.503- 129 2.11 130 2.11 126 2.11 149 2.11 132 2.11
  33  0.200  0.400  0.407- 136 2.11 131 2.11 135 2.11 116 2.11 133 2.11
  34  0.300  0.500  0.407- 135 2.11 136 2.11 140 2.11 155 2.11 134 2.11
  35  0.200  0.500  0.503- 134 2.11 133 2.11 114 2.11 137 2.11 135 2.11
  36  0.300  0.400  0.503- 133 2.11 130 2.11 134 2.11 153 2.11 136 2.11
  37  0.200  0.600  0.407- 140 2.11 135 2.11 139 2.11 120 2.11 137 2.11
  38  0.300  0.700  0.407- 139 2.11 144 2.11 140 2.11 159 2.11 138 2.11
  39  0.200  0.700  0.503- 138 2.11 141 2.11 118 2.11 137 2.11 139 2.11
  40  0.300  0.600  0.503- 137 2.11 134 2.11 138 2.11 157 2.11 140 2.11   4 3.02
  41  0.200  0.800  0.407- 139 2.11 144 2.11 143 2.11 124 2.11 141 2.11
  42  0.300  0.900  0.407- 143 2.11 128 2.11 144 2.11 163 2.11 142 2.11
  43  0.200  0.900  0.503- 142 2.11 125 2.11 141 2.11 122 2.11 143 2.11
  44  0.300  0.800  0.503- 138 2.11 141 2.11 142 2.11 161 2.11 144 2.11
  45  0.400  0.000  0.407- 128 2.11 147 2.11 148 2.11 163 2.11 145 2.11
  46  0.500  0.100  0.407- 147 2.11 148 2.11 152 2.11 167 2.11 146 2.11
  47  0.400  0.100  0.503- 126 2.11 145 2.11 146 2.11 149 2.11 147 2.11
  48  0.500  0.000  0.503- 145 2.11 146 2.11 162 2.11 165 2.11 148 2.11
  49  0.400  0.200  0.407- 151 2.11 147 2.11 132 2.11 152 2.11 149 2.11
  50  0.500  0.300  0.407- 152 2.11 151 2.11 156 2.11 171 2.11 150 2.11
  51  0.400  0.300  0.503- 149 2.11 130 2.11 150 2.11 153 2.11 151 2.11
  52  0.500  0.200  0.503- 150 2.11 149 2.11 146 2.11 169 2.11 152 2.11
  53  0.400  0.400  0.407- 136 2.11 151 2.11 155 2.11 156 2.11 153 2.11
  54  0.500  0.500  0.407- 155 2.11 156 2.11 160 2.11 175 2.11 154 2.11
  55  0.400  0.500  0.503- 134 2.11 153 2.11 154 2.11 157 2.11 155 2.11   1 2.73
  56  0.500  0.400  0.503- 150 2.11 153 2.11 154 2.11 173 2.11 156 2.11
  57  0.400  0.600  0.407- 140 2.11 155 2.11 159 2.11 160 2.11 157 2.11
  58  0.500  0.700  0.407- 164 2.11 160 2.11 159 2.11 179 2.11 158 2.11
  59  0.400  0.700  0.503- 161 2.11 157 2.11 158 2.11 138 2.11 159 2.11   4 2.95
  60  0.500  0.600  0.503- 154 2.11 157 2.11 158 2.11 177 2.11 160 2.11   4 3.02
[...]
 190  0.900  0.300  0.503-  92 2.11  91 2.11  11 2.11  96 2.11  90 2.11
 191  0.800  0.300  0.407-  70 2.11  89 2.11  90 2.11  93 2.11  91 2.11
 192  0.900  0.200  0.407-  90 2.11  86 2.11  89 2.11   9 2.11  92 2.11
 193  0.800  0.400  0.503-  76 2.11  91 2.11  95 2.11  96 2.11  93 2.11
 194  0.900  0.500  0.503-  15 2.11  95 2.11  96 2.11 100 2.11  94 2.11
 195  0.800  0.500  0.407-  74 2.11  93 2.11  94 2.11  97 2.11  95 2.11
 196  0.900  0.400  0.407-  13 2.11  90 2.11  93 2.11  94 2.11  96 2.11
 197  0.800  0.600  0.503-  80 2.11  95 2.11  99 2.11 100 2.11  97 2.11
 198  0.900  0.700  0.503- 104 2.11  99 2.11 100 2.11  19 2.11  98 2.11
 199  0.800  0.700  0.407-  78 2.11 101 2.11  98 2.11  97 2.11  99 2.11
 200  0.900  0.600  0.407-  17 2.11  94 2.11  97 2.11  98 2.11 100 2.11
 201  0.800  0.800  0.503-  84 2.11  99 2.11 103 2.11 104 2.11 101 2.11
 202  0.900  0.900  0.503-  23 2.11  88 2.11 103 2.11 104 2.11 102 2.11
 203  0.800  0.900  0.407-  82 2.11  85 2.11 101 2.11 102 2.11 103 2.11
 204  0.900  0.800  0.407-  98 2.11  21 2.11 101 2.11 102 2.11 104 2.11

  LATTYP: Found a simple tetragonal cell.
 ALAT       =    21.1388521970
 C/A-ratio  =     1.0461251639

  Lattice vectors:

 A1 = (  21.1388521970,   0.0000000000,   0.0000000000)
 A2 = (   0.0000000000,  21.1388521970,   0.0000000000)
 A3 = (   0.0000000000,   0.0000000000,  22.1138852197)

Analysis of symmetry for initial positions (statically):
 Subroutine PRICEL returns:
 Original cell was already a primitive cell.

 Routine SETGRP: Setting up the symmetry group for a
 simple tetragonal supercell.

 Subroutine GETGRP returns: Found  1 space group operations
 (whereof  1 operations were pure point group operations)
 out of a pool of 16 trial point group operations.

The static configuration has the point symmetry C_1 .

Analysis of symmetry for dynamics (positions and initial velocities):
 Subroutine PRICEL returns:
 Original cell was already a primitive cell.

[...]

The dynamic configuration has the point symmetry C_1 .

Analysis of constrained symmetry for selective dynamics:
 Subroutine PRICEL returns:
 Original cell was already a primitive cell.

 Routine SETGRP: Setting up the symmetry group for a
 simple tetragonal supercell.

 Subroutine GETGRP returns: Found  1 space group operations
 (whereof  1 operations were pure point group operations)
 out of a pool of 16 trial point group operations.

The constrained configuration has the point symmetry C_1 .

 Subroutine INISYM returns: Found  1 space group operations
 (whereof  1 operations are pure point group operations),
 and found     1 'primitive' translations

                                     Primitive cell

  volume of cell :    9881.6133

  direct lattice vectors                    reciprocal lattice vectors
    21.138852197  0.000000000  0.000000000     0.047306258  0.000000000  0.000000000
     0.000000000 21.138852197  0.000000000     0.000000000  0.047306258  0.000000000
     0.000000000  0.000000000 22.113885220     0.000000000  0.000000000  0.045220457

  length of vectors
    21.138852197 21.138852197 22.113885220     0.047306258  0.047306258  0.045220457

  position of ions in fractional coordinates (direct lattice)
     0.399951201  0.425242954  0.603301976
     0.399957296  0.509675129  0.684179581
     0.400053355  0.632584174  0.713145052
     0.399972466  0.604759939  0.599963044
     0.000000000  0.000000000  0.406984115
     0.100000000  0.100000000  0.406984115
     0.000000000  0.100000000  0.502574971
     0.100000000  0.000000000  0.502574971
     0.000000000  0.200000000  0.406984115
     0.100000000  0.300000000  0.406984115
     0.000000000  0.300000000  0.502574971
     0.100000000  0.200000000  0.502574971
[...]
     52     -44.4643      2.00000
     53     -44.4641      2.00000
     54     -44.4625      2.00000
     55     -44.4620      2.00000
     56     -44.4554      2.00000
     57     -44.4553      2.00000
     58     -44.4552      2.00000
     59     -44.4550      2.00000
     60     -44.4549      2.00000
[...]
    946       6.5223      0.00000
    947       6.5859      0.00000
    948       6.6537      0.00000
    949       6.7218      0.00000
    950       6.7666      0.00000
    951       6.7800      0.00000
    952       6.8326      0.00000
    953       6.8680      0.00000
    954       6.9343      0.00000
    955       7.0416      0.00000
    956       7.0946      0.00000
    957       7.2076      0.00000
    958       7.2127      0.00000
    959       7.3013      0.00000
    960       7.3966      0.00000

 soft charge-density along one line, spin component           1
         0         1         2         3         4         5         6         7         8         9
 total charge-density along one line

------------------------ aborting loop because EDIFF is reached ----------------------------------------

  FORCE on cell =-STRESS in cart. coord.  units (eV):
  Direction    XX          YY          ZZ          XY          YZ          ZX
  Alpha Z  1417.83424  1417.83424  1417.83424
  Ewald  478689.67923480803.91176************     0.83759   457.00324     0.56808
  Hartree508398.06483510047.62277************     0.62629   335.32280     0.41919
  E(xc)   -8482.55343 -8481.73609 -8481.95854     0.00026     0.38761     0.00029
  Local  ************************************    -1.44919  -780.24646    -0.97682
  n-local -8672.51403 -8683.86986 -8819.67146    -0.00495    -6.17092    -0.00427
  augment  3972.09768  3968.38712  3907.51378    -0.00263    -1.56141    -0.00279
  Kinetic 23367.14880 23355.68066 23568.90895    -0.00752    -5.17648    -0.00082
  Fock        0.00000     0.00000     0.00000     0.00000     0.00000     0.00000
  Total    -220.11739  -220.28344   -18.08770    -0.00015    -0.44161     0.00287
  in kB     -35.68922   -35.71615    -2.93269    -0.00002    -0.07160     0.00047

 VOLUME and BASIS-vectors are now :
  energy-cutoff  :      520.00
  volume of cell :     9881.61
      direct lattice vectors                 reciprocal lattice vectors
    21.138852197  0.000000000  0.000000000     0.047306258  0.000000000  0.000000000
     0.000000000 21.138852197  0.000000000     0.000000000  0.047306258  0.000000000
     0.000000000  0.000000000 22.113885220     0.000000000  0.000000000  0.045220457

  length of vectors
    21.138852197 21.138852197 22.113885220     0.047306258  0.047306258  0.045220457

 FORCES acting on ions:
    Electron-Ion                     Ewald-Force                    Non-Local-Force
   0.614E-01 0.369E+03 -.196E+04   -.629E-01 -.366E+03 0.197E+04   0.245E-02 -.369E+01 -.475E+01
   0.196E+00 0.209E+03 -.198E+04   -.196E+00 -.211E+03 0.198E+04   0.957E-03 0.267E+01 0.421E+01
   -.394E+00 -.355E+03 -.186E+04   0.386E+00 0.351E+03 0.185E+04   0.739E-02 0.426E+01 0.635E+01
   0.139E+00 -.226E+03 -.180E+04   -.137E+00 0.227E+03 0.180E+04   -.254E-03 -.116E+01 -.259E+01
   0.728E+01 -.275E+01 0.937E+03   -.731E+01 0.276E+01 -.929E+03   0.171E-01 -.726E-02 -.757E+01
   0.131E+02 0.618E+01 0.940E+03   -.131E+02 -.620E+01 -.932E+03   0.359E-01 0.124E-01 -.757E+01
   0.949E+01 0.529E+01 -.918E+03   -.951E+01 -.529E+01 0.910E+03   0.145E-01 -.298E-02 0.753E+01
   0.158E+02 -.519E+01 -.916E+03   -.158E+02 0.521E+01 0.908E+03   0.197E-01 -.955E-02 0.753E+01
   0.977E+01 0.993E+01 0.939E+03   -.981E+01 -.994E+01 -.931E+03   0.306E-01 0.951E-02 -.757E+01
   0.254E+02 0.185E+02 0.950E+03   -.256E+02 -.186E+02 -.942E+03   0.116E+00 0.351E-01 -.760E+01
   0.184E+02 0.158E+02 -.913E+03   -.185E+02 -.158E+02 0.906E+03   0.221E-01 0.315E-02 0.752E+01
   0.240E+02 0.201E+02 -.912E+03   -.240E+02 -.201E+02 0.904E+03   0.479E-01 0.470E-02 0.751E+01
   0.172E+02 0.972E+01 0.946E+03   -.173E+02 -.974E+01 -.937E+03   0.591E-01 0.137E-01 -.759E+01
   0.393E+02 0.477E+01 0.962E+03   -.396E+02 -.479E+01 -.954E+03   0.196E+00 0.188E-01 -.763E+01
   0.286E+02 0.429E+01 -.908E+03   -.286E+02 -.430E+01 0.900E+03   0.290E-01 0.836E-02 0.751E+01
   0.538E+02 0.225E+02 -.897E+03   -.538E+02 -.225E+02 0.889E+03   0.618E-01 0.103E-01 0.748E+01
   0.191E+02 -.486E+01 0.947E+03   -.192E+02 0.486E+01 -.939E+03   0.731E-01 0.848E-04 -.759E+01
   0.313E+02 -.168E+02 0.956E+03   -.315E+02 0.168E+02 -.948E+03   0.160E+00 -.330E-01 -.761E+01
   0.231E+02 -.140E+02 -.910E+03   -.232E+02 0.140E+02 0.902E+03   0.352E-01 -.817E-04 0.752E+01
   0.622E+02 -.117E+02 -.892E+03   -.623E+02 0.117E+02 0.884E+03   0.110E+00 0.117E-01 0.748E+01
   0.122E+02 -.120E+02 0.941E+03   -.122E+02 0.121E+02 -.933E+03   0.414E-01 -.160E-01 -.757E+01
   0.157E+02 -.127E+02 0.942E+03   -.157E+02 0.128E+02 -.934E+03   0.443E-01 -.333E-01 -.757E+01
   0.116E+02 -.114E+02 -.917E+03   -.117E+02 0.114E+02 0.909E+03   0.182E-01 -.849E-02 0.753E+01
   0.329E+02 -.257E+02 -.906E+03   -.330E+02 0.258E+02 0.898E+03   0.655E-01 -.172E-01 0.751E+01
   0.133E+02 -.528E+01 0.943E+03   -.134E+02 0.530E+01 -.935E+03   0.299E-01 -.162E-01 -.758E+01
   0.951E+01 0.126E+02 0.948E+03   -.955E+01 -.127E+02 -.940E+03   0.278E-01 0.785E-01 -.759E+01
   0.188E+02 0.132E+02 -.912E+03   -.188E+02 -.132E+02 0.904E+03   0.268E-01 0.244E-01 0.752E+01
   0.117E+02 -.106E+02 -.909E+03   -.117E+02 0.106E+02 0.901E+03   0.124E-01 -.825E-02 0.752E+01
   0.206E+02 0.226E+02 0.951E+03   -.207E+02 -.227E+02 -.943E+03   0.933E-01 0.866E-01 -.759E+01
   0.264E+02 0.457E+02 0.986E+03   -.268E+02 -.462E+02 -.978E+03   0.253E+00 0.323E+00 -.762E+01
   0.559E+02 0.506E+02 -.887E+03   -.561E+02 -.506E+02 0.880E+03   0.205E+00 0.301E-02 0.744E+01
   0.240E+02 0.539E+02 -.894E+03   -.241E+02 -.542E+02 0.886E+03   0.368E-01 0.182E+00 0.747E+01
   0.470E+02 0.254E+02 0.982E+03   -.475E+02 -.255E+02 -.974E+03   0.413E+00 0.940E-01 -.774E+01
   0.504E+02 0.115E+02 0.104E+04   -.512E+02 -.117E+02 -.103E+04   0.577E+00 0.135E+00 -.777E+01
   0.113E+03 0.144E+02 -.847E+03   -.113E+03 -.145E+02 0.839E+03   0.305E+00 0.433E-01 0.735E+01
   0.128E+03 0.927E+02 -.764E+03   -.130E+03 -.928E+02 0.757E+03   0.165E+01 0.919E-01 0.670E+01
   0.534E+02 -.141E+02 0.991E+03   -.541E+02 0.141E+02 -.983E+03   0.558E+00 -.375E-01 -.775E+01
   0.350E+02 -.448E+02 0.101E+04   -.355E+02 0.454E+02 -.100E+04   0.368E+00 -.411E+00 -.761E+01
   0.779E+02 -.504E+02 -.868E+03   -.783E+02 0.504E+02 0.860E+03   0.296E+00 -.181E-01 0.743E+01
   0.155E+03 -.488E+02 -.722E+03   -.159E+03 0.489E+02 0.714E+03   0.272E+01 -.309E-01 0.690E+01
   0.274E+02 -.286E+02 0.960E+03   -.275E+02 0.288E+02 -.952E+03   0.126E+00 -.126E+00 -.760E+01
   0.121E+02 -.255E+02 0.955E+03   -.121E+02 0.257E+02 -.947E+03   0.306E-01 -.135E+00 -.761E+01
   0.250E+02 -.284E+02 -.906E+03   -.250E+02 0.285E+02 0.898E+03   0.242E-01 -.543E-01 0.751E+01
   0.386E+02 -.776E+02 -.870E+03   -.386E+02 0.779E+02 0.862E+03   -.125E-02 -.293E+00 0.743E+01
   -.176E-02 -.745E+01 0.948E+03   0.172E-02 0.747E+01 -.940E+03   0.294E-04 -.194E-01 -.759E+01
   -.952E+01 0.126E+02 0.948E+03   0.955E+01 -.127E+02 -.940E+03   -.277E-01 0.785E-01 -.759E+01
   -.409E-02 0.219E+02 -.906E+03   0.401E-02 -.220E+02 0.898E+03   0.558E-04 0.651E-01 0.751E+01
   -.117E+02 -.106E+02 -.909E+03   0.117E+02 0.106E+02 0.901E+03   -.124E-01 -.823E-02 0.752E+01
   -.584E-02 0.364E+02 0.964E+03   0.574E-02 -.368E+02 -.956E+03   0.817E-04 0.350E+00 -.766E+01
   -.265E+02 0.457E+02 0.986E+03   0.268E+02 -.461E+02 -.978E+03   -.253E+00 0.323E+00 -.762E+01
   -.365E-01 0.133E+03 -.820E+03   0.361E-01 -.135E+03 0.813E+03   0.318E-03 0.168E+01 0.736E+01
   -.240E+02 0.539E+02 -.894E+03   0.241E+02 -.542E+02 0.886E+03   -.367E-01 0.182E+00 0.747E+01
   -.203E-01 0.474E+02 0.105E+04   0.198E-01 -.480E+02 -.104E+04   0.396E-03 0.467E+00 -.565E+01
   -.505E+02 0.115E+02 0.104E+04   0.512E+02 -.117E+02 -.103E+04   -.577E+00 0.135E+00 -.777E+01
   -.979E-01 0.195E+02 -.584E+03   0.971E-01 -.212E+02 0.579E+03   0.780E-03 0.141E+01 0.484E+01
   -.128E+03 0.927E+02 -.764E+03   0.130E+03 -.928E+02 0.757E+03   -.165E+01 0.923E-01 0.671E+01
   -.162E-01 -.272E+02 0.107E+04   0.157E-01 0.276E+02 -.106E+04   0.428E-03 -.306E+00 -.434E+01
   -.351E+02 -.448E+02 0.101E+04   0.355E+02 0.454E+02 -.100E+04   -.368E+00 -.411E+00 -.761E+01
   -.276E-01 -.162E+03 -.734E+03   0.275E-01 0.166E+03 0.727E+03   0.647E-04 -.263E+01 0.642E+01
   -.155E+03 -.488E+02 -.722E+03   0.159E+03 0.488E+02 0.715E+03   -.272E+01 -.314E-01 0.690E+01
[...]
   -.101E+02 0.914E+01 0.708E+03   0.101E+02 -.915E+01 -.712E+03   -.392E-01 0.176E-01 0.339E+01
   0.214E-02 0.632E+01 0.705E+03   -.206E-02 -.632E+01 -.708E+03   -.630E-04 0.723E-02 0.340E+01
   -.185E+02 0.966E+01 -.684E+03   0.185E+02 -.967E+01 0.688E+03   -.299E-01 0.910E-02 -.358E+01
   0.473E-02 0.256E+01 -.686E+03   -.466E-02 -.257E+01 0.690E+03   -.965E-04 0.815E-02 -.356E+01
   -.147E+02 0.235E+01 0.712E+03   0.147E+02 -.236E+01 -.716E+03   -.562E-01 0.121E-01 0.338E+01
   0.351E-02 0.607E+01 0.708E+03   -.342E-02 -.608E+01 -.712E+03   -.896E-04 0.117E-01 0.339E+01
   -.210E+02 -.474E+01 -.683E+03   0.210E+02 0.474E+01 0.687E+03   -.386E-01 0.654E-02 -.358E+01
   0.252E-02 -.831E+01 -.687E+03   -.247E-02 0.831E+01 0.691E+03   -.602E-04 -.995E-03 -.355E+01
   -.121E+02 -.801E+01 0.710E+03   0.121E+02 0.803E+01 -.714E+03   -.515E-01 -.151E-01 0.339E+01
   0.292E-02 -.296E+01 0.709E+03   -.287E-02 0.296E+01 -.713E+03   -.717E-04 0.122E-02 0.339E+01
   -.126E+02 -.117E+02 -.687E+03   0.126E+02 0.117E+02 0.691E+03   -.288E-01 -.118E-01 -.355E+01
   0.110E-02 -.709E+01 -.690E+03   -.107E-02 0.710E+01 0.694E+03   -.330E-04 -.868E-02 -.354E+01
   -.669E+01 -.666E+01 0.705E+03   0.671E+01 0.667E+01 -.709E+03   -.264E-01 -.185E-01 0.340E+01
   0.138E-02 -.762E+01 0.706E+03   -.135E-02 0.763E+01 -.710E+03   -.387E-04 -.133E-01 0.340E+01
   -.150E-02 -.391E+01 0.342E+01   0.958E-12 0.122E-11 0.209E-10   0.119E-02 0.388E+01 -.752E+00

 POSITION                                       TOTAL-FORCE (eV/Angst)
      8.45451      8.98915     13.34135         0.000885      0.117964      0.032388
      8.45464     10.77395     15.12987         0.000444     -0.011552     -0.155916
      8.45667     13.37210     15.77041        -0.001439     -0.136897     -0.178177
      8.45496     12.78393     13.26751         0.001679      0.016039      0.058785
      0.00000      0.00000      9.00000        -0.004835      0.002222      0.524430
      2.11389      2.11389      9.00000        -0.010160     -0.003411      0.525786
      0.00000      2.11389     11.11389        -0.003919      0.001051     -0.465420
      2.11389      0.00000     11.11389        -0.005650      0.002813     -0.463726
      0.00000      4.22777      9.00000        -0.008341     -0.002532      0.526124
      2.11389      6.34166      9.00000        -0.031414     -0.009677      0.533506
      0.00000      6.34166     11.11389        -0.005438     -0.000545     -0.459538
      2.11389      4.22777     11.11389        -0.012521     -0.000961     -0.456960
      0.00000      8.45554      9.00000        -0.016015     -0.003702      0.529667
      2.11389     10.56943      9.00000        -0.053423     -0.005522      0.540441
      0.00000     10.56943     11.11389        -0.006798     -0.002369     -0.454580
      2.11389      8.45554     11.11389        -0.013055     -0.002237     -0.436647
      0.00000     12.68331      9.00000        -0.019588      0.000013      0.530021
      2.11389     14.79720      9.00000        -0.043292      0.009788      0.534305
      0.00000     14.79720     11.11389        -0.008921      0.000050     -0.458780
      2.11389     12.68331     11.11389        -0.025454     -0.003746     -0.435523
      0.00000     16.91108      9.00000        -0.011301      0.004774      0.526393
      2.11389     19.02497      9.00000        -0.012586      0.009595      0.526112
      0.00000     19.02497     11.11389        -0.004982      0.002566     -0.464958
      2.11389     16.91108     11.11389        -0.017182      0.004963     -0.454590
      4.22777      0.00000      9.00000        -0.008600      0.004546      0.527247
      6.34166      2.11389      9.00000        -0.008267     -0.021042      0.530125
      4.22777      2.11389     11.11389        -0.007633     -0.005897     -0.457748
      6.34166      0.00000     11.11389        -0.003539      0.002244     -0.457132
      4.22777      4.22777      9.00000        -0.026912     -0.024733      0.529644
      6.34166      6.34166      9.00000        -0.083873     -0.101038      0.517722
      4.22777      6.34166     11.11389        -0.048442      0.003890     -0.411796
      6.34166      4.22777     11.11389        -0.010628     -0.044693     -0.428626
      4.22777      8.45554      9.00000        -0.108108     -0.025880      0.560623
      6.34166     10.56943      9.00000        -0.194212     -0.045628      0.521090
      4.22777     10.56943     11.11389        -0.065706     -0.015053     -0.350877
      6.34166      8.45554     11.11389        -0.552327      0.000308     -0.187700
      4.22777     12.68331      9.00000        -0.143552      0.009790      0.562483
      6.34166     14.79720      9.00000        -0.121621      0.134026      0.504883
      4.22777     14.79720     11.11389        -0.073220      0.002831     -0.401552
      6.34166     12.68331     11.11389        -0.933193     -0.002159     -0.318000
      4.22777     16.91108      9.00000        -0.036506      0.036495      0.530847
      6.34166     19.02497      9.00000        -0.008915      0.036322      0.534058
      4.22777     19.02497     11.11389        -0.006958      0.014128     -0.454698
      6.34166     16.91108     11.11389         0.004894      0.068240     -0.398228
      8.45554      0.00000      9.00000        -0.000014      0.005529      0.529515
     10.56943      2.11389      9.00000         0.008249     -0.021054      0.530122
      8.45554      2.11389     11.11389        -0.000014     -0.015297     -0.450809
     10.56943      0.00000     11.11389         0.003526      0.002239     -0.457138
      8.45554      4.22777      9.00000        -0.000022     -0.089683      0.542713
     10.56943      6.34166      9.00000         0.083830     -0.101087      0.517676
      8.45554      6.34166     11.11389        -0.000102     -0.525102     -0.355054
     10.56943      4.22777     11.11389         0.010584     -0.044762     -0.428651
      8.45554      8.45554      9.00000        -0.000131     -0.106882      0.092484
     10.56943     10.56943      9.00000         0.194142     -0.045628      0.521021
      8.45554     10.56943     11.11389        -0.000045     -0.230736     -0.165883
     10.56943      8.45554     11.11389         0.551849      0.000272     -0.187853
      8.45554     12.68331      9.00000        -0.000130      0.074809     -0.198889
     10.56943     14.79720      9.00000         0.121596      0.134088      0.504913
      8.45554     14.79720     11.11389         0.000026      0.945512     -0.261655
     10.56943     12.68331     11.11389         0.932722     -0.001989     -0.317660
[...]
     19.02497      6.34166     11.11389        -0.000025      0.001277      0.327433
     16.91108      6.34166      9.00000        -0.010811      0.005044     -0.392153
     19.02497      4.22777      9.00000         0.000014      0.002179     -0.389434
     16.91108      8.45554     11.11389        -0.008310      0.002680      0.320106
     19.02497     10.56943     11.11389        -0.000029      0.002424      0.324107
     16.91108     10.56943      9.00000        -0.015524      0.003496     -0.394945
     19.02497      8.45554      9.00000        -0.000003      0.003403     -0.391762
     16.91108     12.68331     11.11389        -0.010744      0.001964      0.319405
     19.02497     14.79720     11.11389        -0.000015     -0.000138      0.326875
     16.91108     14.79720      9.00000        -0.014297     -0.004021     -0.392441
     19.02497     12.68331      9.00000        -0.000018      0.000420     -0.391767
     16.91108     16.91108     11.11389        -0.007998     -0.003118      0.327109
     19.02497     19.02497     11.11389        -0.000009     -0.002250      0.331403
     16.91108     19.02497      9.00000        -0.007231     -0.004967     -0.389179
     19.02497     16.91108      9.00000        -0.000003     -0.003434     -0.389629
    total drift:                               -0.000313     -0.031693      2.667790

  FREE ENERGIE OF THE ION-ELECTRON SYSTEM (eV)
  free  energy   TOTEN  =     -1747.68875350 eV

  energy  without entropy=    -1747.68875350  energy(sigma->0) =    -1747.68875350