 vasp.6.4.0 14Feb23 (build Dec 05 2023 14:15:48) complex

 executed on             LinuxIFC date 2023.12.07  13:08:59

 INCAR:
   SYSTEM = MgO-rocksalt
   ISMEAR = 0
   SIGMA = 0.05
   EDIFF = 1E-4
   ALGO = ALL
   ISTART = 0
   IBRION = -1
   NSW = 0
   ISYM = 3
   DIPOL = 0.5 0.5 0.5
   IDIPOL = 3
   LDIPOL = .TRUE.
   LHFCALC = .TRUE.
   GGA = B5
   AEXX = 0.2
   AGGAX = 0.72
   AGGAC = 0.81
   ALDAC = 0.19
   IVDW = 13
   VDW_S8 = 2.0293
   VDW_A1 = 0.4087
   VDW_A2 = 4.5381
   ENCUT = 520
   PREC = Normal
   LASPH = .TRUE.
   LREAL = Auto
   ISPIN = 1
   NELM = 2000
   NELMIN = 8
   NCORE = 32
   LWAVE = .FALSE.
   LCHARG = .FALSE.

 POTCAR:    PAW_PBE Au 04Oct2007
 POTCAR:    PAW_PBE Mg_pv 13Apr2007
 POTCAR:    PAW_PBE O 08Apr2002
 POTCAR:    PAW_PBE Au 04Oct2007
   VRHFIN =Au: s1d10

   TITEL  = PAW_PBE Au 04Oct2007
   POMASS =  196.966; ZVAL   =   11.000    mass and valenz
   ENMAX  =  229.943; ENMIN  =  172.457 eV

   TITEL  = PAW_PBE Mg_pv 13Apr2007
   POMASS =   24.305; ZVAL   =    8.000    mass and valenz
   ENMAX  =  403.929; ENMIN  =  302.947 eV

   TITEL  = PAW_PBE O 08Apr2002
   POMASS =   16.000; ZVAL   =    6.000    mass and valenz
   ENMAX  =  400.000; ENMIN  =  300.000 eV

 Optimization of the real space projectors (new method)

 maximal supplied QI-value         = 15.12
 optimisation between [QCUT,QGAM] = [ 11.64, 23.28] = [ 37.95,151.78] Ry
 Optimized for a Real-space Cutoff    1.36 Angstroem

   l    n(q)    QCUT    max X(q) W(low)/X(q) W(high)/X(q)  e(spline)
   2      9    11.641    60.898    0.44E-03    0.10E-02    0.32E-06
   2      9    11.641    58.894    0.45E-03    0.11E-02    0.32E-06
   0      9    11.641   109.617    0.19E-03    0.78E-04    0.11E-06
   0      9    11.641    75.026    0.19E-03    0.76E-04    0.10E-06
   1      9    11.641    16.344    0.43E-03    0.28E-03    0.32E-06
   1      9    11.641    10.160    0.36E-03    0.22E-03    0.26E-06
 Optimization of the real space projectors (new method)

[...]

   l    n(q)    QCUT    max X(q) W(low)/X(q) W(high)/X(q)  e(spline)
   1      8    11.527     2.974    0.16E-03    0.13E-03    0.98E-07
   1      8    11.527     4.279    0.42E-03    0.30E-03    0.22E-06
   0      8    11.527    16.381    0.13E-03    0.20E-03    0.72E-07
   0      8    11.527     5.611    0.88E-04    0.13E-03    0.50E-07
   2      7    11.527     4.652    0.25E-03    0.73E-04    0.51E-07
 Optimization of the real space projectors (new method)

 maximal supplied QI-value         = 24.76
 optimisation between [QCUT,QGAM] = [ 11.64, 23.27] = [ 37.91,151.63] Ry
 Optimized for a Real-space Cutoff    1.04 Angstroem

   l    n(q)    QCUT    max X(q) W(low)/X(q) W(high)/X(q)  e(spline)
   0      7    11.635    20.381    0.14E-03    0.49E-03    0.18E-06
   0      7    11.635    15.268    0.16E-03    0.52E-03    0.19E-06
   1      7    11.635     5.964    0.30E-03    0.44E-03    0.22E-06
   1      7    11.635     5.382    0.27E-03    0.34E-03    0.19E-06
|               ----> ADVICE to this user running VASP <----                  |
|     You enforced a specific xc type in the INCAR file but a different       |
|     type was found in the POTCAR file.                                      |
|     I HOPE YOU KNOW WHAT YOU ARE DOING!                                     |

  PAW_PBE Au 04Oct2007                  :
  PAW_PBE Mg_pv 13Apr2007               :
  PAW_PBE O 08Apr2002                   :

 POSCAR: Au Mg  O
  positions in direct lattice
 WARNING: Using user supplied parameters
     VDW_S8 = 2.029
     VDW_A1 = 0.409
     VDW_A2 = 4.538
     because the xc functional is not supported. Required parameters not
     defined in the INCAR file will be replaced with PBE defaults ones.

 ion  position               nearest neighbor table
   1  0.543  0.557  0.621-   2 2.56  58 2.91
   2  0.457  0.643  0.621-   1 2.56  58 2.91
   3  0.000  0.000  0.407- 105 2.11 106 2.11 121 2.11 186 2.11 103 2.11
   4  0.100  0.100  0.407- 105 2.11 106 2.11 110 2.11 125 2.11 104 2.11
   5  0.000  0.100  0.503- 103 2.11 104 2.11 107 2.11 184 2.11 105 2.11
   6  0.100  0.000  0.503- 103 2.11 104 2.11 120 2.11 123 2.11 106 2.11
   7  0.000  0.200  0.407- 109 2.11 105 2.11 110 2.11 190 2.11 107 2.11
   8  0.100  0.300  0.407- 110 2.11 109 2.11 114 2.11 129 2.11 108 2.11
   9  0.000  0.300  0.503- 107 2.11 108 2.11 111 2.11 188 2.11 109 2.11
  10  0.100  0.200  0.503- 108 2.11 107 2.11 104 2.11 127 2.11 110 2.11
  11  0.000  0.400  0.407- 109 2.11 113 2.11 114 2.11 194 2.11 111 2.11
  12  0.100  0.500  0.407- 113 2.11 114 2.11 118 2.11 133 2.11 112 2.11
  13  0.000  0.500  0.503- 111 2.11 112 2.11 115 2.11 192 2.11 113 2.11
  14  0.100  0.400  0.503- 108 2.11 111 2.11 112 2.11 131 2.11 114 2.11
  15  0.000  0.600  0.407- 113 2.11 117 2.11 118 2.11 198 2.11 115 2.11
  16  0.100  0.700  0.407- 122 2.11 118 2.11 117 2.11 137 2.11 116 2.11
  17  0.000  0.700  0.503- 119 2.11 116 2.11 115 2.11 196 2.11 117 2.11
  18  0.100  0.600  0.503- 112 2.11 115 2.11 116 2.11 135 2.11 118 2.11
  19  0.000  0.800  0.407- 117 2.11 121 2.11 122 2.11 202 2.11 119 2.11
  20  0.100  0.900  0.407- 106 2.11 121 2.11 122 2.11 141 2.11 120 2.11
  21  0.000  0.900  0.503- 103 2.11 119 2.11 120 2.11 200 2.11 121 2.11
  22  0.100  0.800  0.503- 116 2.11 119 2.11 120 2.11 139 2.11 122 2.11
  23  0.200  0.000  0.407- 126 2.11 125 2.11 106 2.11 141 2.11 123 2.11
  24  0.300  0.100  0.407- 125 2.11 126 2.11 130 2.11 145 2.11 124 2.11
  25  0.200  0.100  0.503- 124 2.11 123 2.11 104 2.11 127 2.11 125 2.11
  26  0.300  0.000  0.503- 123 2.11 124 2.11 140 2.11 143 2.11 126 2.11
  27  0.200  0.200  0.407- 129 2.11 130 2.11 110 2.11 125 2.11 127 2.11
  28  0.300  0.300  0.407- 129 2.11 130 2.11 134 2.11 149 2.11 128 2.11
  29  0.200  0.300  0.503- 127 2.11 128 2.11 108 2.11 131 2.11 129 2.11
  30  0.300  0.200  0.503- 127 2.11 128 2.11 124 2.11 147 2.11 130 2.11
  31  0.200  0.400  0.407- 134 2.11 129 2.11 133 2.11 114 2.11 131 2.11
  32  0.300  0.500  0.407- 133 2.11 134 2.11 138 2.11 153 2.11 132 2.11
  33  0.200  0.500  0.503- 132 2.11 131 2.11 112 2.11 135 2.11 133 2.11
  34  0.300  0.400  0.503- 131 2.11 128 2.11 132 2.11 151 2.11 134 2.11
  35  0.200  0.600  0.407- 138 2.11 133 2.11 137 2.11 118 2.11 135 2.11
  36  0.300  0.700  0.407- 137 2.11 142 2.11 138 2.11 157 2.11 136 2.11
  37  0.200  0.700  0.503- 136 2.11 139 2.11 116 2.11 135 2.11 137 2.11
  38  0.300  0.600  0.503- 135 2.11 132 2.11 136 2.11 155 2.11 138 2.11
  39  0.200  0.800  0.407- 137 2.11 142 2.11 141 2.11 122 2.11 139 2.11
  40  0.300  0.900  0.407- 141 2.11 126 2.11 142 2.11 161 2.11 140 2.11
  41  0.200  0.900  0.503- 140 2.11 123 2.11 139 2.11 120 2.11 141 2.11
  42  0.300  0.800  0.503- 136 2.11 139 2.11 140 2.11 159 2.11 142 2.11
  43  0.400  0.000  0.407- 126 2.11 145 2.11 146 2.11 161 2.11 143 2.11
  44  0.500  0.100  0.407- 145 2.11 146 2.11 150 2.11 165 2.11 144 2.11
  45  0.400  0.100  0.503- 124 2.11 143 2.11 144 2.11 147 2.11 145 2.11
  46  0.500  0.000  0.503- 143 2.11 144 2.11 160 2.11 163 2.11 146 2.11
  47  0.400  0.200  0.407- 149 2.11 145 2.11 130 2.11 150 2.11 147 2.11
  48  0.500  0.300  0.407- 150 2.11 149 2.11 154 2.11 169 2.11 148 2.11
  49  0.400  0.300  0.503- 147 2.11 128 2.11 148 2.11 151 2.11 149 2.11
  50  0.500  0.200  0.503- 148 2.11 147 2.11 144 2.11 167 2.11 150 2.11
  51  0.400  0.400  0.407- 134 2.11 149 2.11 153 2.11 154 2.11 151 2.11
  52  0.500  0.500  0.407- 153 2.11 154 2.11 158 2.11 173 2.11 152 2.11
  53  0.400  0.500  0.503- 132 2.11 151 2.11 152 2.11 155 2.11 153 2.11
  54  0.500  0.400  0.503- 148 2.11 151 2.11 152 2.11 171 2.11 154 2.11
  55  0.400  0.600  0.407- 138 2.11 153 2.11 157 2.11 158 2.11 155 2.11
  56  0.500  0.700  0.407- 162 2.11 158 2.11 157 2.11 177 2.11 156 2.11
  57  0.400  0.700  0.503- 159 2.11 155 2.11 156 2.11 136 2.11 157 2.11
  58  0.500  0.600  0.503- 152 2.11 155 2.11 156 2.11 175 2.11 158 2.11   2 2.91   1 2.91
  59  0.400  0.800  0.407- 157 2.11 142 2.11 161 2.11 162 2.11 159 2.11
  60  0.500  0.900  0.407- 146 2.11 161 2.11 162 2.11 181 2.11 160 2.11
[...]
 188  0.900  0.300  0.503-  90 2.11  89 2.11   9 2.11  94 2.11  88 2.11
 189  0.800  0.300  0.407-  68 2.11  87 2.11  88 2.11  91 2.11  89 2.11
 190  0.900  0.200  0.407-  88 2.11  84 2.11  87 2.11   7 2.11  90 2.11
 191  0.800  0.400  0.503-  74 2.11  89 2.11  93 2.11  94 2.11  91 2.11
 192  0.900  0.500  0.503-  13 2.11  93 2.11  94 2.11  98 2.11  92 2.11
 193  0.800  0.500  0.407-  72 2.11  91 2.11  92 2.11  95 2.11  93 2.11
 194  0.900  0.400  0.407-  11 2.11  88 2.11  91 2.11  92 2.11  94 2.11
 195  0.800  0.600  0.503-  78 2.11  93 2.11  97 2.11  98 2.11  95 2.11
 196  0.900  0.700  0.503- 102 2.11  97 2.11  98 2.11  17 2.11  96 2.11
 197  0.800  0.700  0.407-  76 2.11  99 2.11  96 2.11  95 2.11  97 2.11
 198  0.900  0.600  0.407-  15 2.11  92 2.11  95 2.11  96 2.11  98 2.11
 199  0.800  0.800  0.503-  82 2.11  97 2.11 101 2.11 102 2.11  99 2.11
 200  0.900  0.900  0.503-  21 2.11  86 2.11 101 2.11 102 2.11 100 2.11
 201  0.800  0.900  0.407-  80 2.11  83 2.11  99 2.11 100 2.11 101 2.11
 202  0.900  0.800  0.407-  96 2.11  19 2.11  99 2.11 100 2.11 102 2.11

  LATTYP: Found a simple tetragonal cell.
 ALAT       =    21.1388521970
 C/A-ratio  =     1.0461251639

  Lattice vectors:

 A1 = (  21.1388521970,   0.0000000000,   0.0000000000)
 A2 = (   0.0000000000,  21.1388521970,   0.0000000000)
 A3 = (   0.0000000000,   0.0000000000,  22.1138852197)

Analysis of symmetry for initial positions (statically):
 Subroutine PRICEL returns:
 Original cell was already a primitive cell.

 Routine SETGRP: Setting up the symmetry group for a
 simple tetragonal supercell.

 Subroutine GETGRP returns: Found  4 space group operations
 (whereof  1 operations were pure point group operations)
 out of a pool of 16 trial point group operations.

The static configuration has the point symmetry C_1 .
 The point group associated with its full space group is C_2v.

Analysis of symmetry for dynamics (positions and initial velocities):
 Subroutine PRICEL returns:
 Original cell was already a primitive cell.

 Routine SETGRP: Setting up the symmetry group for a
 simple tetragonal supercell.

 Subroutine GETGRP returns: Found  4 space group operations
 (whereof  1 operations were pure point group operations)
 out of a pool of 16 trial point group operations.

The dynamic configuration has the point symmetry C_1 .
 The point group associated with its full space group is C_2v.

 Subroutine INISYM returns: Found  4 space group operations
 (whereof  1 operations are pure point group operations),
 and found     1 'primitive' translations

                                     Primitive cell

  volume of cell :    9881.6133

  direct lattice vectors                    reciprocal lattice vectors
    21.138852197  0.000000000  0.000000000     0.047306258  0.000000000  0.000000000
     0.000000000 21.138852197  0.000000000     0.000000000  0.047306258  0.000000000
     0.000000000  0.000000000 22.113885220     0.000000000  0.000000000  0.045220457

  length of vectors
    21.138852197 21.138852197 22.113885220     0.047306258  0.047306258  0.045220457

  position of ions in fractional coordinates (direct lattice)
[...]
     22     -46.3776      2.00000
     23     -46.3743      2.00000
     24     -46.3741      2.00000
     25     -46.3741      2.00000
     26     -46.3738      2.00000
     27     -46.3685      2.00000
     28     -46.3685      2.00000
     29     -46.3684      2.00000
     30     -46.3682      2.00000
     31     -46.3659      2.00000
     32     -46.3650      2.00000
     33     -46.3650      2.00000
     34     -46.3639      2.00000
     35     -46.3634      2.00000
     36     -46.3628      2.00000
     37     -46.3626      2.00000
     38     -46.3619      2.00000
     39     -46.3615      2.00000
     40     -46.3612      2.00000
     41     -46.3610      2.00000
     42     -46.3608      2.00000
     43     -46.3603      2.00000
     44     -46.3596      2.00000
     45     -46.3592      2.00000
     46     -46.3589      2.00000
     47     -46.3586      2.00000
     48     -46.3582      2.00000
     49     -46.3581      2.00000
     50     -46.3580      2.00000
     51     -46.3576      2.00000
     52     -46.3573      2.00000
     53     -46.3567      2.00000
     54     -46.3562      2.00000
     55     -46.3562      2.00000
     56     -46.3554      2.00000
     57     -46.3543      2.00000
     58     -46.3541      2.00000
     59     -46.3540      2.00000
     60     -46.3532      2.00000
[...]
    850       4.8643      0.00000
    851       4.9070      0.00000
    852       4.9285      0.00000
    853       4.9573      0.00000
    854       5.0333      0.00000
    855       5.0450      0.00000
    856       5.0634      0.00000
    857       5.0711      0.00000
    858       5.1175      0.00000
    859       5.1320      0.00000
    860       5.1657      0.00000
    861       5.3597      0.00000
    862       5.4030      0.00000
    863       5.4514      0.00000
    864       5.4689      0.00000

 soft charge-density along one line, spin component           1
         0         1         2         3         4         5         6         7         8         9
 total charge-density along one line

------------------------ aborting loop because EDIFF is reached ----------------------------------------

 VOLUME and BASIS-vectors are now :
  energy-cutoff  :      520.00
  volume of cell :     9881.61
      direct lattice vectors                 reciprocal lattice vectors
    21.138852197  0.000000000  0.000000000     0.047306258  0.000000000  0.000000000
     0.000000000 21.138852197  0.000000000     0.000000000  0.047306258  0.000000000
     0.000000000  0.000000000 22.113885220     0.000000000  0.000000000  0.045220457

  length of vectors
    21.138852197 21.138852197 22.113885220     0.047306258  0.047306258  0.045220457

 FORCES acting on ions:
    Electron-Ion                     Ewald-Force                    Non-Local-Force
   -.192E+03 0.192E+03 -.208E+04   0.188E+03 -.188E+03 0.208E+04   0.446E+01 -.446E+01 -.116E+00
   0.192E+03 -.192E+03 -.208E+04   -.188E+03 0.188E+03 0.208E+04   -.446E+01 0.446E+01 -.116E+00
   0.202E+00 -.347E+01 0.931E+03   -.205E+00 0.348E+01 -.923E+03   0.256E-02 -.351E-02 -.669E+01
   0.347E+01 -.202E+00 0.931E+03   -.348E+01 0.205E+00 -.923E+03   0.351E-02 -.256E-02 -.669E+01
   -.208E-03 -.147E-03 -.923E+03   0.101E-06 -.159E-05 0.915E+03   0.156E-20 -.103E-20 0.668E+01
   0.533E+01 -.533E+01 -.922E+03   -.533E+01 0.533E+01 0.914E+03   0.657E-02 -.657E-02 0.668E+01
   -.202E+00 0.347E+01 0.931E+03   0.205E+00 -.348E+01 -.923E+03   -.256E-02 0.351E-02 -.669E+01
   0.528E+01 0.676E+01 0.933E+03   -.528E+01 -.676E+01 -.925E+03   0.340E-02 0.639E-02 -.669E+01
   -.562E+00 0.719E+01 -.922E+03   0.571E+00 -.720E+01 0.914E+03   -.631E-02 0.431E-02 0.668E+01
   0.472E+01 0.472E+01 -.922E+03   -.473E+01 -.473E+01 0.915E+03   0.435E-03 0.435E-03 0.667E+01
   -.467E+00 0.617E+01 0.934E+03   0.476E+00 -.618E+01 -.926E+03   -.600E-02 0.609E-02 -.669E+01
   0.103E+02 0.522E+01 0.937E+03   -.103E+02 -.523E+01 -.930E+03   0.157E-01 0.873E-02 -.669E+01
   -.540E+00 0.503E+01 -.919E+03   0.548E+00 -.503E+01 0.912E+03   -.602E-02 0.302E-02 0.667E+01
   0.105E+02 0.972E+01 -.919E+03   -.105E+02 -.973E+01 0.912E+03   0.144E-02 0.651E-02 0.667E+01
   -.446E-04 0.115E-03 0.936E+03   -.146E-06 0.155E-05 -.928E+03   0.732E-21 -.324E-20 -.669E+01
   0.111E+02 -.468E+01 0.938E+03   -.112E+02 0.469E+01 -.930E+03   0.281E-01 -.284E-02 -.669E+01
   0.539E+00 -.503E+01 -.919E+03   -.548E+00 0.503E+01 0.912E+03   0.602E-02 -.302E-02 0.667E+01
   0.175E+02 0.739E+00 -.916E+03   -.175E+02 -.747E+00 0.909E+03   0.196E-01 0.551E-02 0.667E+01
   0.467E+00 -.617E+01 0.934E+03   -.476E+00 0.618E+01 -.926E+03   0.600E-02 -.609E-02 -.669E+01
   0.610E+01 -.709E+01 0.933E+03   -.612E+01 0.710E+01 -.926E+03   0.126E-01 -.972E-02 -.669E+01
   0.562E+00 -.719E+01 -.922E+03   -.571E+00 0.720E+01 0.914E+03   0.631E-02 -.431E-02 0.668E+01
   0.124E+02 -.985E+01 -.919E+03   -.124E+02 0.986E+01 0.911E+03   0.222E-01 -.606E-02 0.668E+01
   0.709E+01 -.610E+01 0.933E+03   -.710E+01 0.612E+01 -.926E+03   0.972E-02 -.126E-01 -.669E+01
   0.617E+01 -.467E+00 0.934E+03   -.618E+01 0.476E+00 -.926E+03   0.609E-02 -.600E-02 -.669E+01
   0.719E+01 -.562E+00 -.922E+03   -.720E+01 0.571E+00 0.914E+03   0.431E-02 -.631E-02 0.668E+01
   0.985E+01 -.124E+02 -.919E+03   -.986E+01 0.124E+02 0.911E+03   0.606E-02 -.222E-01 0.668E+01
   0.676E+01 0.528E+01 0.933E+03   -.676E+01 -.528E+01 -.925E+03   0.639E-02 0.340E-02 -.669E+01
   0.117E+02 0.149E+02 0.940E+03   -.117E+02 -.150E+02 -.932E+03   0.183E-01 0.239E-01 -.670E+01
   0.133E+02 0.133E+02 -.919E+03   -.133E+02 -.133E+02 0.911E+03   0.548E-02 0.548E-02 0.667E+01
   0.972E+01 0.105E+02 -.919E+03   -.973E+01 -.105E+02 0.912E+03   0.651E-02 0.144E-02 0.667E+01
   0.149E+02 0.117E+02 0.940E+03   -.150E+02 -.117E+02 -.932E+03   0.239E-01 0.183E-01 -.670E+01
   0.290E+02 0.163E+02 0.961E+03   -.292E+02 -.163E+02 -.953E+03   0.101E+00 0.510E-01 -.672E+01
   0.334E+02 0.141E+02 -.910E+03   -.334E+02 -.142E+02 0.902E+03   0.270E-01 0.194E-01 0.666E+01
   0.320E+02 0.320E+02 -.905E+03   -.321E+02 -.321E+02 0.898E+03   0.270E-01 0.270E-01 0.665E+01
   0.243E+02 0.113E+01 0.948E+03   -.244E+02 -.115E+01 -.940E+03   0.676E-01 0.107E-01 -.670E+01
   0.309E+02 -.145E+02 0.965E+03   -.310E+02 0.145E+02 -.957E+03   0.730E-01 -.319E-01 -.666E+01
   0.374E+02 -.120E+02 -.907E+03   -.375E+02 0.120E+02 0.900E+03   0.735E-01 0.806E-03 0.667E+01
   0.794E+02 0.824E+01 -.871E+03   -.797E+02 -.832E+01 0.863E+03   0.218E+00 0.551E-01 0.669E+01
   0.164E+02 -.120E+02 0.942E+03   -.165E+02 0.120E+02 -.934E+03   0.354E-01 -.201E-01 -.669E+01
   0.120E+02 -.164E+02 0.942E+03   -.120E+02 0.165E+02 -.934E+03   0.201E-01 -.354E-01 -.669E+01
   0.149E+02 -.149E+02 -.918E+03   -.149E+02 0.149E+02 0.910E+03   0.195E-01 -.195E-01 0.668E+01
   0.369E+02 -.369E+02 -.899E+03   -.370E+02 0.370E+02 0.892E+03   0.599E-01 -.599E-01 0.668E+01
   0.469E+01 -.111E+02 0.938E+03   -.469E+01 0.112E+02 -.930E+03   0.284E-02 -.281E-01 -.669E+01
   -.110E-03 -.117E-05 0.936E+03   -.139E-06 -.416E-05 -.928E+03   0.214E-20 -.108E-21 -.669E+01
   0.503E+01 -.539E+00 -.919E+03   -.503E+01 0.548E+00 0.912E+03   0.302E-02 -.602E-02 0.667E+01
   -.739E+00 -.175E+02 -.916E+03   0.747E+00 0.175E+02 0.909E+03   -.551E-02 -.196E-01 0.667E+01
   0.522E+01 0.103E+02 0.937E+03   -.523E+01 -.103E+02 -.930E+03   0.873E-02 0.157E-01 -.669E+01
   0.113E+01 0.243E+02 0.948E+03   -.115E+01 -.244E+02 -.940E+03   0.107E-01 0.676E-01 -.670E+01
   0.141E+02 0.334E+02 -.910E+03   -.142E+02 -.334E+02 0.902E+03   0.194E-01 0.270E-01 0.666E+01
   0.739E+00 0.175E+02 -.916E+03   -.747E+00 -.175E+02 0.909E+03   0.551E-02 0.196E-01 0.667E+01
   0.163E+02 0.290E+02 0.961E+03   -.163E+02 -.292E+02 -.953E+03   0.510E-01 0.101E+00 -.672E+01
   0.314E+01 0.312E+02 0.100E+04   -.309E+01 -.313E+02 -.995E+03   -.277E-01 0.896E-01 -.646E+01
   0.710E+02 0.710E+02 -.837E+03   -.714E+02 -.714E+02 0.830E+03   0.239E+00 0.239E+00 0.658E+01
   0.824E+01 0.794E+02 -.871E+03   -.832E+01 -.797E+02 0.863E+03   0.551E-01 0.218E+00 0.669E+01
   0.312E+02 0.314E+01 0.100E+04   -.313E+02 -.309E+01 -.995E+03   0.896E-01 -.277E-01 -.646E+01
   -.314E+01 -.312E+02 0.100E+04   0.309E+01 0.313E+02 -.995E+03   0.277E-01 -.896E-01 -.646E+01
   0.781E+02 -.781E+02 -.793E+03   -.784E+02 0.784E+02 0.786E+03   0.149E+00 -.149E+00 0.641E+01
   -.141E-03 -.138E-03 -.658E+03   0.225E-04 0.543E-04 0.653E+03   -.269E-21 -.124E-21 0.453E+01
   0.145E+02 -.309E+02 0.965E+03   -.145E+02 0.310E+02 -.957E+03   0.319E-01 -.730E-01 -.666E+01
   -.113E+01 -.243E+02 0.948E+03   0.115E+01 0.244E+02 -.940E+03   -.107E-01 -.676E-01 -.670E+01
[...]
   -.800E+01 0.800E+01 0.704E+03   0.801E+01 -.801E+01 -.708E+03   -.204E-01 0.204E-01 0.317E+01
   -.318E+01 0.318E+01 0.701E+03   0.318E+01 -.318E+01 -.705E+03   -.715E-02 0.715E-02 0.317E+01
   -.190E+02 0.134E+02 -.687E+03   0.191E+02 -.135E+02 0.691E+03   -.406E-01 0.257E-01 -.323E+01
   -.123E+02 0.466E+01 -.689E+03   0.123E+02 -.466E+01 0.694E+03   -.215E-01 0.134E-02 -.323E+01
   -.167E+02 0.580E+01 0.712E+03   0.168E+02 -.581E+01 -.716E+03   -.548E-01 0.115E-01 0.318E+01
   -.657E+01 0.563E+01 0.704E+03   0.658E+01 -.564E+01 -.708E+03   -.195E-01 0.108E-01 0.317E+01
   -.309E+02 -.183E+01 -.681E+03   0.310E+02 0.185E+01 0.685E+03   -.492E-01 -.227E-01 -.325E+01
   -.111E+02 -.530E+01 -.690E+03   0.111E+02 0.531E+01 0.694E+03   -.977E-02 -.101E-01 -.323E+01
   -.157E+02 -.671E+01 0.710E+03   0.157E+02 0.673E+01 -.714E+03   -.361E-01 -.246E-01 0.316E+01
   -.884E+01 -.322E+00 0.706E+03   0.885E+01 0.327E+00 -.710E+03   -.203E-01 -.536E-02 0.317E+01
   -.165E+02 -.126E+02 -.688E+03   0.165E+02 0.127E+02 0.692E+03   -.147E-01 -.156E-01 -.324E+01
   -.514E+01 -.639E+01 -.693E+03   0.514E+01 0.639E+01 0.697E+03   -.113E-02 -.470E-02 -.323E+01
   -.737E+01 -.737E+01 0.703E+03   0.738E+01 0.738E+01 -.707E+03   -.118E-01 -.118E-01 0.317E+01
   -.574E+01 -.561E+01 0.703E+03   0.574E+01 0.562E+01 -.707E+03   -.711E-02 -.101E-01 0.317E+01
   -.103E-03 -.464E-03 0.867E+01   0.348E-11 -.155E-11 -.739E-11   0.384E-15 0.298E-15 -.753E+01

 POSITION                                       TOTAL-FORCE (eV/Angst)
     11.47450     11.77823     13.73072         0.173867     -0.173867      0.136261
      9.66435     13.58839     13.73072        -0.173867      0.173867      0.136261
      0.00000      0.00000      9.00000        -0.000780      0.001064      0.485983
      2.11389      2.11389      9.00000        -0.001064      0.000780      0.485983
      0.00000      2.11389     11.11389         0.000000     -0.000000     -0.464056
      2.11389      0.00000     11.11389        -0.002174      0.002174     -0.464035
      0.00000      4.22777      9.00000         0.000780     -0.001064      0.485983
      2.11389      6.34166      9.00000        -0.000903     -0.001876      0.486250
      0.00000      6.34166     11.11389         0.001933     -0.001376     -0.463567
      2.11389      4.22777     11.11389        -0.000134     -0.000134     -0.462407
      0.00000      8.45554      9.00000         0.001886     -0.002067      0.486045
      2.11389     10.56943      9.00000        -0.004596     -0.002863      0.486751
      0.00000     10.56943     11.11389         0.002026     -0.000817     -0.460414
      2.11389      8.45554     11.11389        -0.000005     -0.001986     -0.460973
      0.00000     12.68331      9.00000         0.000000     -0.000000      0.486358
      2.11389     14.79720      9.00000        -0.008160      0.000850      0.486786
      0.00000     14.79720     11.11389        -0.002026      0.000817     -0.460414
      2.11389     12.68331     11.11389        -0.005021     -0.002082     -0.458571
      0.00000     16.91108      9.00000        -0.001886      0.002067      0.486045
      2.11389     19.02497      9.00000        -0.004019      0.003045      0.485641
      0.00000     19.02497     11.11389        -0.001933      0.001376     -0.463567
      2.11389     16.91108     11.11389        -0.006573      0.002004     -0.462282
      4.22777      0.00000      9.00000        -0.003045      0.004019      0.485641
      6.34166      2.11389      9.00000        -0.002067      0.001886      0.486045
      4.22777      2.11389     11.11389        -0.001376      0.001933     -0.463567
      6.34166      0.00000     11.11389        -0.002004      0.006573     -0.462282
      4.22777      4.22777      9.00000        -0.001876     -0.000903      0.486250
      6.34166      6.34166      9.00000        -0.005781     -0.006941      0.489033
      4.22777      6.34166     11.11389        -0.001162     -0.001162     -0.460564
      6.34166      4.22777     11.11389        -0.001986     -0.000005     -0.460973
      4.22777      8.45554      9.00000        -0.006941     -0.005781      0.489033
      6.34166     10.56943      9.00000        -0.029185     -0.016542      0.489386
      4.22777     10.56943     11.11389        -0.004925     -0.005740     -0.453996
      6.34166      8.45554     11.11389        -0.004568     -0.004568     -0.446273
      4.22777     12.68331      9.00000        -0.019279     -0.003829      0.487902
      6.34166     14.79720      9.00000        -0.019581      0.009855      0.474865
      4.22777     14.79720     11.11389        -0.020220     -0.000899     -0.457515
      6.34166     12.68331     11.11389        -0.060756     -0.016626     -0.425372
      4.22777     16.91108      9.00000        -0.010697      0.006490      0.485322
      6.34166     19.02497      9.00000        -0.006490      0.010697      0.485322
      4.22777     19.02497     11.11389        -0.005852      0.005852     -0.462945
      6.34166     16.91108     11.11389        -0.014197      0.014197     -0.460040
      8.45554      0.00000      9.00000        -0.000850      0.008160      0.486786
     10.56943      2.11389      9.00000         0.000000     -0.000000      0.486358
      8.45554      2.11389     11.11389        -0.000817      0.002026     -0.460414
     10.56943      0.00000     11.11389         0.002082      0.005021     -0.458571
      8.45554      4.22777      9.00000        -0.002863     -0.004596      0.486751
     10.56943      6.34166      9.00000        -0.003829     -0.019279      0.487902
      8.45554      6.34166     11.11389        -0.005740     -0.004925     -0.453996
     10.56943      4.22777     11.11389        -0.002082     -0.005021     -0.458571
      8.45554      8.45554      9.00000        -0.016542     -0.029185      0.489386
     10.56943     10.56943      9.00000         0.014250     -0.021874      0.416990
      8.45554     10.56943     11.11389        -0.046302     -0.046302     -0.323645
     10.56943      8.45554     11.11389        -0.016626     -0.060756     -0.425372
      8.45554     12.68331      9.00000        -0.021874      0.014250      0.416990
     10.56943     14.79720      9.00000        -0.014250      0.021874      0.416990
      8.45554     14.79720     11.11389        -0.085394      0.085394     -0.561838
     10.56943     12.68331     11.11389         0.000000     -0.000000     -0.285848
      8.45554     16.91108      9.00000        -0.009855      0.019581      0.474865
     10.56943     19.02497      9.00000         0.003829      0.019279      0.487902
[...]
     19.02497      6.34166     11.11389        -0.004283      0.003649      0.371841
     16.91108      6.34166      9.00000        -0.006512      0.006512     -0.394462
     19.02497      4.22777      9.00000        -0.002323      0.002323     -0.394810
     16.91108      8.45554     11.11389        -0.013688      0.008688      0.371328
     19.02497     10.56943     11.11389        -0.007149      0.000416      0.370416
     16.91108     10.56943      9.00000        -0.017474      0.003539     -0.392283
     19.02497      8.45554      9.00000        -0.006232      0.003396     -0.394764
     16.91108     12.68331     11.11389        -0.017292     -0.007653      0.364929
     19.02497     14.79720     11.11389        -0.003082     -0.003319      0.369112
     16.91108     14.79720      9.00000        -0.011711     -0.007875     -0.397997
     19.02497     12.68331      9.00000        -0.006752     -0.001744     -0.395627
     16.91108     16.91108     11.11389        -0.005008     -0.005154      0.365791
     19.02497     19.02497     11.11389        -0.000414     -0.001357      0.371054
     16.91108     19.02497      9.00000        -0.003823     -0.003823     -0.396587
     19.02497     16.91108      9.00000        -0.002402     -0.003079     -0.396044
    total drift:                               -0.000103     -0.000464      0.099005

  FREE ENERGIE OF THE ION-ELECTRON SYSTEM (eV)
  free  energy   TOTEN  =     -1363.14278254 eV

  energy  without entropy=    -1363.14278254  energy(sigma->0) =    -1363.14278254