 vasp.6.4.0 14Feb23 (build Dec 05 2023 14:15:48) complex

 executed on             LinuxIFC date 2023.12.11  11:30:58

 INCAR:
   SYSTEM = MgO-rocksalt
   ISMEAR = 0
   SIGMA = 0.05
   EDIFF = 1E-4
   ALGO = ALL
   ISTART = 0
   IBRION = -1
   NSW = 0
   ISYM = -1
   DIPOL = 0.5 0.5 0.5
   IDIPOL = 3
   LDIPOL = .TRUE.
   METAGGA = TPSS
   ENCUT = 520
   PREC = Accurate
   LASPH = .TRUE.
   LREAL = Auto
   ISPIN = 1
   NELM = 2000
   NELMIN = 8
   NCORE = 16
   LWAVE = .FALSE.
   LCHARG = .FALSE.

 POTCAR:    PAW_PBE Au 04Oct2007
 POTCAR:    PAW_PBE Mg_pv 13Apr2007
 POTCAR:    PAW_PBE O 08Apr2002
 POTCAR:    PAW_PBE Au 04Oct2007
   VRHFIN =Au: s1d10

   TITEL  = PAW_PBE Au 04Oct2007
   POMASS =  196.966; ZVAL   =   11.000    mass and valenz
   ENMAX  =  229.943; ENMIN  =  172.457 eV

   TITEL  = PAW_PBE Mg_pv 13Apr2007
   POMASS =   24.305; ZVAL   =    8.000    mass and valenz
   ENMAX  =  403.929; ENMIN  =  302.947 eV

   TITEL  = PAW_PBE O 08Apr2002
   POMASS =   16.000; ZVAL   =    6.000    mass and valenz
   ENMAX  =  400.000; ENMIN  =  300.000 eV

 Optimization of the real space projectors (new method)

 maximal supplied QI-value         = 15.12
 optimisation between [QCUT,QGAM] = [ 11.64, 23.28] = [ 37.95,151.78] Ry
 Optimized for a Real-space Cutoff    1.49 Angstroem

   l    n(q)    QCUT    max X(q) W(low)/X(q) W(high)/X(q)  e(spline)
   2      9    11.641    60.898    0.24E-03    0.10E-03    0.19E-06
   2      9    11.641    58.894    0.25E-03    0.10E-03    0.19E-06
   0     10    11.641   109.617    0.73E-04    0.33E-04    0.11E-06
   0     10    11.641    75.026    0.71E-04    0.32E-04    0.11E-06
   1     10    11.641    16.344    0.27E-04    0.97E-04    0.16E-06
   1     10    11.641    10.160    0.23E-04    0.77E-04    0.13E-06
 Optimization of the real space projectors (new method)

[...]

   l    n(q)    QCUT    max X(q) W(low)/X(q) W(high)/X(q)  e(spline)
   1      8    11.527     2.974    0.44E-04    0.56E-04    0.12E-06
   1      8    11.527     4.279    0.12E-03    0.12E-03    0.26E-06
   0      9    11.527    16.381    0.46E-04    0.64E-04    0.78E-07
   0      9    11.527     5.611    0.26E-04    0.43E-04    0.55E-07
   2      8    11.527     4.652    0.22E-03    0.72E-04    0.47E-07
 Optimization of the real space projectors (new method)

 maximal supplied QI-value         = 24.76
 optimisation between [QCUT,QGAM] = [ 11.64, 23.27] = [ 37.91,151.63] Ry
 Optimized for a Real-space Cutoff    1.14 Angstroem

   l    n(q)    QCUT    max X(q) W(low)/X(q) W(high)/X(q)  e(spline)
   0      8    11.635    20.381    0.10E-03    0.33E-03    0.24E-06
   0      8    11.635    15.268    0.11E-03    0.35E-03    0.26E-06
   1      7    11.635     5.964    0.24E-03    0.31E-03    0.30E-06
   1      7    11.635     5.382    0.22E-03    0.25E-03    0.26E-06
  PAW_PBE Au 04Oct2007                  :
  PAW_PBE Mg_pv 13Apr2007               :
  PAW_PBE O 08Apr2002                   :

 POSCAR: Mg  O
  positions in direct lattice
  velocities in cartesian coordinates

 METAGGA = TPSS                                        LMAXTAU =  6    LMIXTAU =  F

 ion  position               nearest neighbor table
   1  0.431  0.227  0.583- 265 2.50   2 2.73   5 2.74  11 2.75  68 2.95  67 3.01
   2  0.559  0.237  0.590-   3 2.65   1 2.73  12 2.78  11 2.83   6 2.87   5 2.95  68 3.06
   3  0.683  0.252  0.593-   2 2.65   4 2.67  12 2.79   6 2.82  13 2.87   7 2.91  88 3.01
   4  0.809  0.260  0.596-   3 2.67   7 2.72  13 2.76 107 2.99
   5  0.476  0.348  0.587-   8 2.70   1 2.74  14 2.75  11 2.81   6 2.86  72 2.89   2 2.95
   6  0.610  0.363  0.590-   3 2.82   9 2.82   8 2.86   5 2.86   2 2.87  15 2.93   7 2.93  14 2.96
                            12 2.99  87 3.02
   7  0.748  0.373  0.593-   9 2.67   4 2.72  15 2.80  13 2.87   3 2.91   6 2.93  92 3.00
   8  0.524  0.467  0.585- 270 2.69   5 2.70  10 2.76  14 2.76  16 2.84   6 2.86  72 2.98   9 3.28

   9  0.678  0.478  0.587- 290 2.66   7 2.67  10 2.73  15 2.77   6 2.82  16 2.89   8 3.28
  10  0.595  0.576  0.580- 293 2.37  16 2.68   9 2.73   8 2.76  91 2.91
  11  0.480  0.269  0.662-  17 2.70   1 2.75   5 2.81  12 2.83   2 2.83  14 2.91
  12  0.613  0.277  0.669-  17 2.75  18 2.76   2 2.78   3 2.79  11 2.83  13 2.83   6 2.99  14 3.17
                            15 3.18
  13  0.745  0.297  0.672-  18 2.67   4 2.76  15 2.82  12 2.83   7 2.87   3 2.87
  14  0.525  0.399  0.664-   5 2.75  19 2.75  17 2.76   8 2.76  16 2.86  11 2.91   6 2.96  12 3.17
                            15 3.26
  15  0.679  0.413  0.667-   9 2.77  19 2.77  18 2.78   7 2.80  16 2.81  13 2.82   6 2.93  12 3.18
                            14 3.26
  16  0.595  0.515  0.658-  10 2.68  19 2.70  15 2.81   8 2.84  14 2.86   9 2.89
  17  0.533  0.318  0.736-  11 2.70  20 2.70  12 2.75  14 2.76  18 2.98  19 3.01
  18  0.673  0.333  0.741-  20 2.67  13 2.67  12 2.76  15 2.78  19 2.91  17 2.98
  19  0.595  0.446  0.734-  16 2.70  20 2.72  14 2.75  15 2.77  18 2.91  17 3.01
  20  0.595  0.368  0.806-  18 2.67  17 2.70  19 2.72
  21  0.000  1.000  0.430- 304 2.11 223 2.11 239 2.11 224 2.11 321 2.12 221 2.13
  22  0.100  0.100  0.430- 223 2.11 224 2.11 228 2.11 243 2.12 322 2.12 222 2.13
  23  0.000  0.100  0.500- 223 2.11 302 2.11 222 2.11 221 2.11 225 2.12
  24  0.100  1.000  0.500- 224 2.10 221 2.11 238 2.11 241 2.11 222 2.11
  25  1.000  0.200  0.430- 308 2.11 223 2.11 228 2.11 227 2.11 325 2.12 225 2.13
  26  0.100  0.300  0.430- 227 2.11 232 2.11 228 2.11 247 2.12 326 2.12 226 2.13
  27  0.000  0.300  0.500- 227 2.11 226 2.11 306 2.11 225 2.12 229 2.12
  28  0.100  0.200  0.500- 228 2.11 225 2.11 245 2.11 222 2.11 226 2.12
  29  1.000  0.400  0.430- 312 2.11 232 2.11 227 2.11 231 2.12 329 2.12 229 2.13
  30  0.100  0.500  0.430- 231 2.11 251 2.11 236 2.11 232 2.11 330 2.12 230 2.13
  31  0.000  0.500  0.500- 231 2.11 230 2.11 310 2.11 233 2.12 229 2.12
  32  0.100  0.400  0.500- 232 2.11 229 2.11 249 2.11 230 2.12 226 2.12
  33  0.000  0.600  0.430- 236 2.11 235 2.11 231 2.11 316 2.11 333 2.12 233 2.13
  34  0.100  0.700  0.430- 235 2.11 240 2.11 255 2.11 236 2.11 334 2.12 234 2.13
  35  0.000  0.700  0.500- 235 2.11 234 2.11 237 2.11 314 2.11 233 2.11
  36  0.100  0.600  0.500- 236 2.11 233 2.11 253 2.11 234 2.11 230 2.11
  37  0.000  0.800  0.430- 239 2.11 240 2.11 235 2.11 320 2.11 337 2.12 237 2.13
  38  0.100  0.900  0.430- 239 2.11 240 2.11 224 2.11 259 2.11 338 2.12 238 2.13
  39  0.000  0.900  0.500- 239 2.10 221 2.11 238 2.11 237 2.11 318 2.11
  40  0.100  0.800  0.500- 240 2.10 237 2.11 238 2.11 257 2.11 234 2.11
  41  0.200  1.000  0.430- 224 2.11 259 2.11 243 2.12 244 2.12 341 2.12 241 2.13
  42  0.300  0.100  0.430- 243 2.11 244 2.11 263 2.11 248 2.11 342 2.13 242 2.13
  43  0.200  0.100  0.500- 243 2.11 222 2.11 241 2.11 245 2.12 242 2.12
  44  0.300  1.000  0.500- 244 2.11 241 2.11 258 2.11 261 2.12 242 2.12
  45  0.200  0.200  0.430- 228 2.11 243 2.11 247 2.11 345 2.12 248 2.13 245 2.14
  46  0.300  0.300  0.430- 267 2.11 247 2.11 252 2.11 248 2.12 346 2.12 246 2.13
  47  0.200  0.300  0.500- 226 2.11 247 2.11 249 2.11 246 2.12 245 2.12
  48  0.298  0.200  0.500- 245 2.09 248 2.11 246 2.11 242 2.11 265 2.13
  49  0.200  0.400  0.430- 232 2.11 252 2.11 251 2.11 247 2.12 349 2.12 249 2.13
  50  0.300  0.500  0.430- 251 2.11 256 2.11 252 2.11 271 2.12 350 2.12 250 2.13
  51  0.200  0.500  0.500- 251 2.11 230 2.11 250 2.11 253 2.11 249 2.12
  52  0.299  0.400  0.500- 249 2.10 252 2.11 269 2.11 250 2.11 246 2.12
  53  0.200  0.600  0.430- 236 2.11 255 2.11 251 2.11 256 2.11 353 2.12 253 2.13
  54  0.300  0.700  0.430- 255 2.11 260 2.11 256 2.11 275 2.12 354 2.12 254 2.13
  55  0.200  0.700  0.500- 255 2.11 234 2.11 257 2.11 253 2.11 254 2.11
  56  0.299  0.600  0.500- 253 2.11 256 2.11 254 2.11 273 2.11 250 2.12
  57  0.200  0.800  0.430- 240 2.11 255 2.11 259 2.11 260 2.12 357 2.12 257 2.13
  58  0.300  0.900  0.430- 259 2.11 260 2.11 279 2.11 244 2.12 358 2.12 258 2.13
  59  0.200  0.900  0.500- 259 2.10 238 2.11 257 2.11 241 2.11 258 2.11
  60  0.300  0.800  0.500- 260 2.10 257 2.11 258 2.11 254 2.11 277 2.12
  61  0.400  1.000  0.430- 264 2.11 244 2.11 279 2.11 361 2.12 263 2.13 261 2.13
  62  0.500  0.100  0.430- 268 2.11 264 2.11 283 2.11 263 2.12 362 2.12 262 2.12
  63  0.400  0.098  0.500- 261 2.09 263 2.11 262 2.11 242 2.11 265 2.14
  64  0.500  1.000  0.500- 264 2.11 278 2.11 262 2.11 281 2.11 261 2.12
  65  0.400  0.200  0.429- 268 2.10 267 2.10 248 2.10 263 2.10 365 2.11
  66  0.500  0.300  0.429- 266 2.07 366 2.10 287 2.11 268 2.12 267 2.12 272 2.13
  67  0.399  0.302  0.500- 269 2.09 246 2.11 267 2.12 266 2.12 265 2.16   1 3.01
  68  0.501  0.199  0.500- 285 2.09 262 2.11 268 2.11 266 2.13 265 2.16   1 2.95   2 3.06
  69  0.400  0.400  0.430- 269 2.11 252 2.11 369 2.11 272 2.11 271 2.12 267 2.13
  70  0.500  0.500  0.429- 272 2.10 271 2.11 370 2.11 276 2.12 291 2.12 270 2.14
  71  0.399  0.500  0.500- 250 2.10 269 2.10 271 2.11 273 2.12 270 2.13
  72  0.500  0.399  0.500- 266 2.11 272 2.11 269 2.13 289 2.13 270 2.15   5 2.89   8 2.98
  73  0.400  0.600  0.430- 256 2.11 271 2.11 275 2.11 373 2.12 276 2.13 273 2.13
  74  0.500  0.700  0.430- 280 2.11 275 2.11 295 2.12 276 2.12 374 2.12 274 2.13
  75  0.399  0.701  0.500- 254 2.10 277 2.11 275 2.11 273 2.12 274 2.12
[...]
 406  0.900  0.300  0.359- 208 2.11 207 2.11 127 2.11 212 2.11 206 2.11 106 2.12
 407  0.800  0.300  0.289- 186 2.11 205 2.11 206 2.11 209 2.11 207 2.11
 408  0.900  0.200  0.289- 206 2.11 202 2.11 205 2.11 125 2.11 208 2.11
 409  0.800  0.400  0.359- 192 2.11 207 2.11 211 2.11 212 2.11 209 2.11 109 2.12
 410  0.900  0.500  0.359- 131 2.11 211 2.11 212 2.11 216 2.11 210 2.11 110 2.12
 411  0.800  0.500  0.289- 190 2.11 209 2.11 210 2.11 213 2.11 211 2.11
 412  0.900  0.400  0.289- 129 2.11 206 2.11 209 2.11 210 2.11 212 2.11
 413  0.800  0.600  0.359- 196 2.11 211 2.11 215 2.11 216 2.11 213 2.11 113 2.12
 414  0.900  0.700  0.359- 220 2.11 215 2.11 216 2.11 135 2.11 214 2.11 114 2.12
 415  0.800  0.700  0.289- 194 2.11 217 2.11 214 2.11 213 2.11 215 2.11
 416  0.900  0.600  0.289- 133 2.11 210 2.11 213 2.11 214 2.11 216 2.11
 417  0.800  0.800  0.359- 200 2.11 215 2.11 219 2.11 220 2.11 217 2.11 117 2.12
 418  0.900  0.900  0.359- 139 2.11 204 2.11 219 2.11 220 2.11 218 2.11 118 2.12
 419  0.800  0.900  0.289- 198 2.11 201 2.11 217 2.11 218 2.11 219 2.11
 420  0.900  0.800  0.289- 214 2.11 137 2.11 217 2.11 218 2.11 220 2.11

IMPORTANT INFORMATION: All symmetrisations will be switched off!
NOSYMM: (Re-)initialisation of all symmetry stuff for point group C_1.

                                     Primitive cell

  volume of cell :   13405.5322

  direct lattice vectors                    reciprocal lattice vectors
    21.138852197  0.000000000  0.000000000     0.047306258  0.000000000  0.000000000
     0.000000000 21.138852197  0.000000000     0.000000000  0.047306258  0.000000000
     0.000000000  0.000000000 30.000000000     0.000000000  0.000000000  0.033333333

  length of vectors
    21.138852197 21.138852197 30.000000000     0.047306258  0.047306258  0.033333333

  position of ions in fractional coordinates (direct lattice)
     0.430802509  0.226721605  0.582680199
[...]
     52     -42.7876      2.00000
     53     -42.7720      2.00000
     54     -42.7703      2.00000
     55     -42.7658      2.00000
     56     -42.7637      2.00000
     57     -42.7583      2.00000
     58     -42.7560      2.00000
     59     -42.7550      2.00000
     60     -42.7534      2.00000
[...]
   1810       6.5409      0.00000
   1811       6.5585      0.00000
   1812       6.5943      0.00000
   1813       6.6153      0.00000
   1814       6.6359      0.00000
   1815       6.6763      0.00000
   1816       6.6940      0.00000
   1817       6.7074      0.00000
   1818       6.7389      0.00000
   1819       6.7612      0.00000
   1820       6.7868      0.00000
   1821       6.8280      0.00000
   1822       6.8667      0.00000
   1823       6.8995      0.00000
   1824       6.9218      0.00000

 soft charge-density along one line, spin component           1
         0         1         2         3         4         5         6         7         8         9
 total charge-density along one line

------------------------ aborting loop because EDIFF is reached ----------------------------------------

  FORCE on cell =-STRESS in cart. coord.  units (eV):
  Direction    XX          YY          ZZ          XY          YZ          ZX
  Alpha Z  4657.84619  4657.84619  4657.84619
  Ewald  ************************************   107.28206    15.22784  -107.61106
  Hartree************************************   103.20699    25.85443   -95.84429
  E(xc)  -17204.10277-17204.14736-17225.99496    -0.00600    -0.03059    -0.02022
  Local  ************************************  -212.61982   -40.20757   202.13723
  n-local-17918.88993-17916.82684-18047.96413     0.57506     0.34043     1.20904
  augment  8873.22076  8874.13372  8815.85141     0.37481    -0.48581    -0.03733
  Kinetic 48763.91591 48766.29731 48994.48605     0.76012    -0.54532     0.87143
  Fock        0.00000     0.00000     0.00000     0.00000     0.00000     0.00000
  Total    -147.22846  -146.50958    21.09252    -0.42678     0.15341     0.70480
  in kB     -17.59618   -17.51026     2.52090    -0.05101     0.01834     0.08423

 VOLUME and BASIS-vectors are now :
  energy-cutoff  :      520.00
  volume of cell :    13405.53
      direct lattice vectors                 reciprocal lattice vectors
    21.138852197  0.000000000  0.000000000     0.047306258  0.000000000  0.000000000
     0.000000000 21.138852197  0.000000000     0.000000000  0.047306258  0.000000000
     0.000000000  0.000000000 30.000000000     0.000000000  0.000000000  0.033333333

  length of vectors
    21.138852197 21.138852197 30.000000000     0.047306258  0.047306258  0.033333333

 FORCES acting on ions:
    Electron-Ion                     Ewald-Force                    Non-Local-Force
   0.799E+03 0.617E+03 -.341E+04   -.795E+03 -.614E+03 0.342E+04   -.420E+01 -.315E+01 -.292E+01
   0.166E+03 0.926E+03 -.312E+04   -.164E+03 -.925E+03 0.312E+04   -.202E+01 -.816E+00 -.854E+00
   -.381E+03 0.860E+03 -.310E+04   0.379E+03 -.860E+03 0.310E+04   0.245E+01 0.592E+00 -.295E+00
   -.944E+03 0.504E+03 -.336E+04   0.939E+03 -.501E+03 0.336E+04   0.472E+01 -.308E+01 -.123E+01
   0.917E+03 -.864E+02 -.312E+04   -.916E+03 0.887E+02 0.312E+04   -.110E+01 -.238E+01 -.901E+00
   -.227E+02 -.141E+02 -.289E+04   0.228E+02 0.135E+02 0.289E+04   -.899E-01 0.664E+00 -.123E+00
   -.943E+03 -.250E+03 -.313E+04   0.941E+03 0.251E+03 0.313E+04   0.202E+01 -.163E+01 -.520E+00
   0.696E+03 -.636E+03 -.314E+04   -.696E+03 0.633E+03 0.314E+04   0.162E+00 0.305E+01 -.158E+01
   -.606E+03 -.728E+03 -.315E+04   0.607E+03 0.725E+03 0.315E+04   -.567E+00 0.284E+01 -.173E+01
   0.609E+02 -.997E+03 -.341E+04   -.607E+02 0.992E+03 0.341E+04   -.158E+00 0.460E+01 -.356E+01
   0.887E+03 0.640E+03 -.328E+04   -.886E+03 -.640E+03 0.328E+04   -.105E+01 -.806E+00 -.400E+00
   -.645E+02 0.854E+03 -.317E+04   0.644E+02 -.854E+03 0.317E+04   0.265E-01 0.232E+00 -.981E-01
   -.962E+03 0.454E+03 -.325E+04   0.960E+03 -.453E+03 0.325E+04   0.215E+01 -.105E+01 -.144E+01
   0.821E+03 -.388E+03 -.317E+04   -.821E+03 0.388E+03 0.317E+04   0.813E-01 -.201E+00 0.261E+00
   -.710E+03 -.522E+03 -.318E+04   0.710E+03 0.522E+03 0.318E+04   -.152E+00 -.195E+00 0.256E+00
   0.972E+02 -.109E+04 -.328E+04   -.970E+02 0.109E+04 0.328E+04   -.117E+00 0.735E+00 0.135E+00
   0.657E+03 0.394E+03 -.290E+04   -.657E+03 -.395E+03 0.289E+04   0.479E+00 0.756E+00 0.330E+01
   -.627E+03 0.270E+03 -.290E+04   0.628E+03 -.270E+03 0.290E+04   -.884E+00 0.511E+00 0.262E+01
   0.101E+03 -.780E+03 -.291E+04   -.101E+03 0.781E+03 0.290E+04   -.149E+00 -.809E+00 0.353E+01
   0.667E+02 -.416E+02 -.232E+04   -.661E+02 0.411E+02 0.231E+04   -.599E+00 0.521E+00 0.571E+01
   -.337E+02 0.423E+02 -.708E+03   0.337E+02 -.423E+02 0.708E+03   0.425E-01 -.107E-01 -.355E+00
   -.411E+01 0.466E+02 -.699E+03   0.399E+01 -.466E+02 0.700E+03   0.124E+00 0.178E-01 -.365E+00
   -.778E+02 0.859E+02 -.232E+04   0.777E+02 -.860E+02 0.231E+04   0.708E-01 0.481E-01 0.674E+01
   -.293E+01 0.510E+02 -.235E+04   0.282E+01 -.510E+02 0.235E+04   0.104E+00 0.303E-01 0.675E+01
   -.661E+02 0.472E+02 -.661E+03   0.660E+02 -.472E+02 0.661E+03   0.586E-01 0.156E-01 -.358E+00
   -.655E+01 0.132E+02 -.672E+03   0.647E+01 -.132E+02 0.672E+03   0.726E-01 -.203E-02 -.375E+00
   -.143E+03 0.220E+02 -.227E+04   0.143E+03 -.220E+02 0.226E+04   -.176E-01 0.251E-01 0.674E+01
   -.941E+01 0.544E+02 -.232E+04   0.929E+01 -.544E+02 0.231E+04   0.116E+00 0.310E-01 0.674E+01
   -.768E+02 -.210E+02 -.649E+03   0.768E+02 0.209E+02 0.650E+03   0.299E-02 0.196E-01 -.396E+00
   -.464E+01 -.386E+02 -.686E+03   0.462E+01 0.386E+02 0.687E+03   0.201E-01 -.163E-01 -.373E+00
   -.109E+03 -.725E+02 -.230E+04   0.109E+03 0.725E+02 0.229E+04   -.229E-01 0.239E-03 0.675E+01
   -.121E+02 -.262E+02 -.231E+04   0.120E+02 0.262E+02 0.230E+04   0.741E-01 -.302E-01 0.676E+01
   -.494E+02 -.531E+02 -.690E+03   0.494E+02 0.531E+02 0.690E+03   -.558E-01 -.340E-02 -.379E+00
   -.207E+01 -.346E+02 -.718E+03   0.205E+01 0.346E+02 0.718E+03   0.153E-01 -.814E-02 -.353E+00
   -.524E+02 -.578E+02 -.235E+04   0.524E+02 0.578E+02 0.234E+04   -.682E-01 -.392E-01 0.676E+01
   -.571E+01 -.621E+02 -.234E+04   0.568E+01 0.622E+02 0.233E+04   0.294E-01 -.160E-01 0.676E+01
   -.276E+02 -.153E+02 -.720E+03   0.276E+02 0.153E+02 0.721E+03   -.356E-01 -.289E-01 -.345E+00
   -.152E+01 0.134E+02 -.725E+03   0.147E+01 -.134E+02 0.725E+03   0.431E-01 0.982E-02 -.338E+00
   -.367E+02 0.219E+02 -.236E+04   0.367E+02 -.219E+02 0.235E+04   -.403E-02 -.340E-01 0.675E+01
   -.207E+01 -.171E+02 -.236E+04   0.204E+01 0.171E+02 0.236E+04   0.289E-01 -.110E-01 0.675E+01
   0.302E+02 0.399E+02 -.709E+03   -.303E+02 -.400E+02 0.709E+03   0.104E+00 0.660E-01 -.347E+00
   0.774E+02 0.740E+02 -.658E+03   -.775E+02 -.741E+02 0.659E+03   0.407E-01 0.546E-01 -.457E+00
   0.692E+02 0.789E+02 -.232E+04   -.695E+02 -.790E+02 0.232E+04   0.242E+00 0.169E+00 0.675E+01
   0.814E+02 0.863E+02 -.232E+04   -.816E+02 -.865E+02 0.232E+04   0.184E+00 0.181E+00 0.674E+01
   0.542E+02 0.441E+02 -.667E+03   -.546E+02 -.441E+02 0.667E+03   0.404E+00 0.683E-02 -.370E+00
   0.129E+03 0.244E+02 -.591E+03   -.129E+03 -.243E+02 0.592E+03   -.204E-01 -.465E-01 -.502E+00
   0.115E+03 0.189E+02 -.228E+04   -.116E+03 -.188E+02 0.228E+04   0.197E+00 -.136E+00 0.676E+01
   0.208E+03 0.112E+03 -.221E+04   -.210E+03 -.112E+03 0.220E+04   0.121E+01 -.518E-03 0.661E+01
   0.662E+02 -.187E+02 -.657E+03   -.663E+02 0.188E+02 0.657E+03   0.590E-01 -.658E-01 -.362E+00
   0.109E+03 -.623E+02 -.624E+03   -.109E+03 0.623E+02 0.625E+03   0.204E+00 -.174E-01 -.392E+00
   0.912E+02 -.650E+02 -.231E+04   -.913E+02 0.651E+02 0.230E+04   0.747E-01 -.451E-01 0.676E+01
   0.242E+03 -.557E+02 -.220E+04   -.242E+03 0.558E+02 0.220E+04   0.220E+00 -.108E+00 0.681E+01
   0.440E+02 -.505E+02 -.694E+03   -.441E+02 0.505E+02 0.694E+03   0.746E-01 -.128E-01 -.366E+00
   0.588E+02 -.539E+02 -.691E+03   -.589E+02 0.539E+02 0.691E+03   0.161E+00 -.307E-01 -.362E+00
   0.467E+02 -.543E+02 -.235E+04   -.468E+02 0.544E+02 0.234E+04   0.103E+00 -.248E-01 0.676E+01
   0.137E+03 -.110E+03 -.229E+04   -.137E+03 0.110E+03 0.229E+04   0.200E+00 -.373E-01 0.676E+01
   0.253E+02 -.148E+02 -.721E+03   -.254E+02 0.148E+02 0.721E+03   0.697E-01 0.705E-02 -.346E+00
   0.427E+02 0.179E+02 -.708E+03   -.428E+02 -.180E+02 0.708E+03   0.616E-01 0.406E-01 -.356E+00
   0.341E+02 0.213E+02 -.236E+04   -.342E+02 -.214E+02 0.235E+04   0.948E-01 0.394E-01 0.675E+01
   0.632E+02 -.306E+02 -.235E+04   -.634E+02 0.306E+02 0.234E+04   0.157E+00 -.619E-01 0.676E+01
[...]
   -.272E+02 0.871E+01 0.194E+04   0.273E+02 -.874E+01 -.195E+04   -.433E-01 0.370E-01 0.345E+01
   -.239E+02 0.168E+02 0.192E+04   0.240E+02 -.169E+02 -.192E+04   -.520E-02 0.127E-01 0.344E+01
   -.541E+02 -.140E+02 0.779E+03   0.541E+02 0.140E+02 -.778E+03   -.259E-01 0.597E-01 -.112E+00
   -.452E+02 -.280E+02 0.728E+03   0.452E+02 0.280E+02 -.728E+03   -.765E-01 0.100E-01 -.122E+00
   -.255E+02 -.196E+02 0.194E+04   0.256E+02 0.196E+02 -.194E+04   -.711E-01 0.222E-01 0.349E+01
   -.272E+02 -.605E+01 0.193E+04   0.272E+02 0.603E+01 -.193E+04   -.316E-01 0.254E-01 0.345E+01
   -.381E+02 -.431E+02 0.734E+03   0.382E+02 0.431E+02 -.734E+03   -.151E+00 -.203E-01 -.398E-01
   -.278E+02 -.259E+02 0.696E+03   0.278E+02 0.259E+02 -.695E+03   -.514E-01 -.196E-01 -.110E+00
   -.175E+02 -.194E+02 0.191E+04   0.175E+02 0.194E+02 -.191E+04   -.529E-01 -.352E-01 0.348E+01
   -.211E+02 -.197E+02 0.191E+04   0.211E+02 0.197E+02 -.192E+04   -.517E-01 -.514E-02 0.346E+01
   -.230E+02 -.138E+02 0.697E+03   0.230E+02 0.138E+02 -.697E+03   -.420E-01 -.514E-01 -.946E-01
   -.217E+02 0.867E+01 0.686E+03   0.217E+02 -.865E+01 -.686E+03   -.607E-02 -.256E-01 -.122E+00
   -.144E+02 0.602E+01 0.190E+04   0.144E+02 -.600E+01 -.191E+04   -.227E-01 -.302E-01 0.345E+01
   -.148E+02 -.642E+01 0.190E+04   0.148E+02 0.643E+01 -.190E+04   -.259E-01 -.235E-01 0.345E+01
   -.836E+00 -.936E+00 0.103E+03   -.568E-12 0.528E-11 -.909E-12   0.809E+00 0.872E+00 -.102E+03

 POSITION                                       TOTAL-FORCE (eV/Angst)
      9.10667      4.79263     17.48041         0.004399      0.006270      0.016141
     11.81905      5.00625     17.68907        -0.041122      0.061413      0.028472
     14.44594      5.31817     17.79364         0.021806      0.072682      0.046307
     17.10876      5.48755     17.88966         0.013764     -0.002744      0.048616
     10.05294      7.36352     17.61631         0.047397     -0.069754      0.026793
     12.89594      7.66983     17.69393         0.007585      0.002953      0.060843
     15.82200      7.87788     17.78178        -0.044796     -0.070717      0.046613
     11.06878      9.86158     17.55976         0.097402     -0.001077      0.009770
     14.33937     10.09445     17.60024        -0.081799     -0.008958      0.014222
     12.57689     12.16871     17.39436        -0.003178      0.015610      0.005542
     10.13674      5.68285     19.86608         0.028027      0.029322     -0.033152
     12.95101      5.86320     20.08161        -0.005393      0.097445     -0.047871
     15.75002      6.28136     20.16097        -0.017088      0.010522     -0.059483
     11.10263      8.43243     19.92362         0.095659     -0.057843     -0.028609
     14.34645      8.72408     20.00947        -0.064697     -0.067989     -0.025638
     12.56899     10.88515     19.74814         0.007126     -0.049277     -0.034801
     11.26704      6.72409     22.08029         0.056058      0.026825      0.032956
     14.22880      7.04397     22.22443        -0.050998      0.021385      0.017232
     12.57657      9.43471     22.02315         0.005781     -0.060783      0.037627
     12.57349      7.78308     24.18661        -0.002769      0.011687      0.061717
      0.00040     21.13811     12.89147        -0.000734     -0.000570      0.007368
      2.11220      2.11270     12.89252         0.001148      0.000699      0.005696
      0.00209      2.10887     14.99130         0.000387     -0.000626     -0.060534
      2.11172     21.13554     14.98924         0.001127     -0.000981     -0.058451
     21.13885      4.22650     12.89308         0.000568      0.000143      0.005312
      2.11183      6.34106     12.89306        -0.000607      0.001013      0.004385
      0.00509      6.33945     14.99451         0.004509      0.001637     -0.063277
      2.11041      4.22469     14.99215         0.000193      0.000076     -0.060357
     21.13846      8.45487     12.89399         0.001893      0.002570      0.005634
      2.11228     10.57022     12.89244        -0.001329      0.000840      0.005931
      0.00272     10.57175     14.99275        -0.001534      0.000969     -0.061276
      2.11129      8.45736     14.99112        -0.000735      0.001882     -0.059824
      0.00066     12.68420     12.89254        -0.000209     -0.001191      0.007697
      2.11282     14.79821     12.89142        -0.000328     -0.000777      0.008593
      0.00273     14.80072     14.99000        -0.001448     -0.000741     -0.058594
      2.11207     12.68646     14.99011         0.000252      0.000698     -0.058868
      0.00087     16.91193     12.89112        -0.000564     -0.001541      0.009608
      2.11314     19.02478     12.89080        -0.000116     -0.000142      0.009465
      0.00208     19.02451     14.98887        -0.000072     -0.001167     -0.058035
      2.11266     16.91224     14.98863        -0.000565     -0.000329     -0.056993
      4.22565     21.13811     12.89158         0.001661     -0.000179      0.007302
      6.33900      2.11252     12.89929        -0.001666     -0.002656      0.004335
      4.21967      2.10709     14.99310         0.001124     -0.001064     -0.061210
      6.33231     21.13246     14.99265         0.000339     -0.000116     -0.060821
      4.22332      4.22681     12.89448         0.001601     -0.000661      0.004530
      6.33719      6.34189     12.89653        -0.003420      0.001112      0.002968
      4.21821      6.34460     14.99271        -0.000496      0.000009     -0.061078
      6.30729      4.22596     15.00936         0.006854      0.003193     -0.063508
      4.22408      8.45616     12.89164        -0.002565      0.001432      0.004844
      6.33586     10.57077     12.89228        -0.002319      0.002175      0.009910
      4.22079     10.57297     14.99078         0.000084      0.001227     -0.060490
      6.32502      8.45861     14.99266        -0.001366      0.000434     -0.062436
      4.22447     12.68484     12.89197        -0.000573     -0.000619      0.006795
      6.33716     14.79901     12.89199        -0.000150     -0.001114      0.006677
      4.22255     14.80035     14.98942         0.000174      0.000155     -0.058134
      6.33029     12.68829     14.99238         0.001044     -0.001301     -0.062666
      4.22531     16.91163     12.89090         0.000352     -0.000808      0.009156
      6.33877     19.02464     12.89169         0.000475      0.000420      0.007478
      4.22285     19.02349     14.98871        -0.000012     -0.000430     -0.057207
      6.33376     16.91435     14.98942        -0.000850     -0.000748     -0.058616
[...]
     19.02497      6.34166     10.77222         0.003069      0.006813      0.012992
     16.91108      6.34166      8.65833        -0.012170      0.010639     -0.524215
     19.02497      4.22777      8.65833        -0.001452      0.003845     -0.527395
     16.91108      8.45554     10.77222        -0.006804      0.020128      0.015168
     19.02497     10.56943     10.77222        -0.023866      0.003240      0.031288
     16.91108     10.56943      8.65833        -0.019948      0.006172     -0.513856
     19.02497      8.45554      8.65833        -0.008966      0.007103     -0.524453
     16.91108     12.68331     10.77222        -0.048943     -0.006304      0.056545
     19.02497     14.79720     10.77222        -0.016647     -0.006404      0.017244
     16.91108     14.79720      8.65833        -0.014661     -0.009847     -0.517543
     19.02497     12.68331      8.65833        -0.014427     -0.001251     -0.520596
     16.91108     16.91108     10.77222        -0.013696     -0.016337      0.019046
     19.02497     19.02497     10.77222        -0.002521     -0.007576      0.007830
     16.91108     19.02497      8.65833        -0.006120     -0.008268     -0.524692
     19.02497     16.91108      8.65833        -0.007188     -0.006261     -0.524428
    total drift:                               -0.026851     -0.064561      0.288025

  FREE ENERGIE OF THE ION-ELECTRON SYSTEM (eV)
  free  energy   TOTEN  =     -3626.79297602 eV

  energy  without entropy=    -3626.79297602  energy(sigma->0) =    -3626.79297602