 vasp.6.3.0 20Jan22 (build Apr  1 2022 16:44:48) complex
 executed on        HPECrayEX_GCC date 2022.10.22  10:05:47

 INCAR:
   SYSTEM = MgO-rocksalt
   ISMEAR = 0
   SIGMA = 0.05
   EDIFF = 1E-5
   ALGO = ALL
   ISTART = 0
   IBRION = -1
   NSW = 0
   ISYM = 2
   DIPOL = 0.5 0.5 0.5
   IDIPOL = 3
   LDIPOL = .TRUE.
   LHFCALC = .TRUE.
   GGA = PE
   IVDW = 12
   VDW_S8 = 1.2177
   VDW_A1 = 0.4145
   VDW_A2 = 4.8593
   ENCUT = 520
   PREC = Accurate
   LASPH = .TRUE.
   LREAL = Auto
   ISPIN = 1
   NELM = 200
   NELMIN = 8
   NCORE = 4
   KPAR = 2
   LWAVE = .FALSE.
   LCHARG = .FALSE.

 POTCAR:    PAW_PBE Ag 02Apr2005
 POTCAR:    PAW_PBE Mg_pv 13Apr2007
 POTCAR:    PAW_PBE O 08Apr2002
|           W    W    AA    RRRRR   N    N  II  N    N   GGGG   !!!           |
|           W    W   A  A   R    R  NN   N  II  NN   N  G    G  !!!           |
|           W    W  A    A  R    R  N N  N  II  N N  N  G       !!!           |
|           W WW W  AAAAAA  RRRRR   N  N N  II  N  N N  G  GGG   !            |
|           WW  WW  A    A  R   R   N   NN  II  N   NN  G    G                |
|           W    W  A    A  R    R  N    N  II  N    N   GGGG   !!!           |
|     You have selected ISYM=2 for a HF type calculation. This will           |
|     symmetrize the charge density but not the exchange potential. I         |
|     suggest to use ISYM=3 instead. This uses symmetry to obtain the         |
|     orbitals at all k-points in the Brillouin zone, but does not apply      |
|     symmetry to the Hartree potential directly. The resultant charge        |
|     might have lower symmetry than the crystal but, at least, Hartree       |
|     and exchange are fully compatible.                                      |

   TITEL  = PAW_PBE Ag 02Apr2005
   POMASS =  107.868; ZVAL   =   11.000    mass and valenz
   ENMAX  =  249.844; ENMIN  =  187.383 eV

   TITEL  = PAW_PBE Mg_pv 13Apr2007
   POMASS =   24.305; ZVAL   =    8.000    mass and valenz
   ENMAX  =  403.929; ENMIN  =  302.947 eV

   TITEL  = PAW_PBE O 08Apr2002
   POMASS =   16.000; ZVAL   =    6.000    mass and valenz
   ENMAX  =  400.000; ENMIN  =  300.000 eV

 Optimization of the real space projectors (new method)

 maximal supplied QI-value         = 15.12
 optimisation between [QCUT,QGAM] = [ 11.64, 23.28] = [ 37.95,151.78] Ry
 Optimized for a Real-space Cutoff    1.45 Angstroem

   l    n(q)    QCUT    max X(q) W(low)/X(q) W(high)/X(q)  e(spline)
   2      9    11.641    53.897    0.22E-03    0.42E-04    0.28E-06
   2      9    11.641    52.416    0.23E-03    0.44E-04    0.29E-06
   0     10    11.641   122.045    0.51E-04    0.25E-04    0.16E-06
   0     10    11.641    73.629    0.49E-04    0.24E-04    0.16E-06
   1     10    11.641    15.255    0.99E-04    0.55E-04    0.11E-06
   1     10    11.641     9.562    0.81E-04    0.47E-04    0.95E-07
 Optimization of the real space projectors (new method)

[...]

   l    n(q)    QCUT    max X(q) W(low)/X(q) W(high)/X(q)  e(spline)
   1      8    11.527     2.974    0.44E-04    0.56E-04    0.12E-06
   1      8    11.527     4.279    0.12E-03    0.12E-03    0.26E-06
   0      9    11.527    16.381    0.46E-04    0.64E-04    0.78E-07
   0      9    11.527     5.611    0.26E-04    0.43E-04    0.55E-07
   2      8    11.527     4.652    0.22E-03    0.72E-04    0.47E-07
 Optimization of the real space projectors (new method)

 maximal supplied QI-value         = 24.76
 optimisation between [QCUT,QGAM] = [ 11.64, 23.27] = [ 37.91,151.63] Ry
 Optimized for a Real-space Cutoff    1.14 Angstroem

   l    n(q)    QCUT    max X(q) W(low)/X(q) W(high)/X(q)  e(spline)
   0      8    11.635    20.381    0.10E-03    0.33E-03    0.24E-06
   0      8    11.635    15.268    0.11E-03    0.35E-03    0.26E-06
   1      7    11.635     5.964    0.24E-03    0.31E-03    0.30E-06
   1      7    11.635     5.382    0.22E-03    0.25E-03    0.26E-06
  PAW_PBE Ag 02Apr2005                  :
  PAW_PBE Mg_pv 13Apr2007               :
  PAW_PBE O 08Apr2002                   :

 POSCAR: Ag Mg  O
  positions in direct lattice
 exchange correlation table for  LEXCH =        8
   RHO(1)=    0.500       N(1)  =     2000
   RHO(2)=  100.500       N(2)  =     4000

 ion  position               nearest neighbor table
   1  0.543  0.557  0.623-   2 2.59  58 2.97
   2  0.457  0.643  0.623-   1 2.59  58 2.97
   3  0.000  0.000  0.407- 105 2.11 106 2.11 121 2.11 186 2.11 103 2.11
   4  0.100  0.100  0.407- 105 2.11 106 2.11 110 2.11 125 2.11 104 2.11
   5  0.000  0.100  0.503- 103 2.11 104 2.11 107 2.11 184 2.11 105 2.11
   6  0.100  0.000  0.503- 103 2.11 104 2.11 120 2.11 123 2.11 106 2.11
   7  0.000  0.200  0.407- 109 2.11 105 2.11 110 2.11 190 2.11 107 2.11
   8  0.100  0.300  0.407- 110 2.11 109 2.11 114 2.11 129 2.11 108 2.11
   9  0.000  0.300  0.503- 107 2.11 108 2.11 111 2.11 188 2.11 109 2.11
  10  0.100  0.200  0.503- 108 2.11 107 2.11 104 2.11 127 2.11 110 2.11
  11  0.000  0.400  0.407- 109 2.11 113 2.11 114 2.11 194 2.11 111 2.11
  12  0.100  0.500  0.407- 113 2.11 114 2.11 118 2.11 133 2.11 112 2.11
  13  0.000  0.500  0.503- 111 2.11 112 2.11 115 2.11 192 2.11 113 2.11
  14  0.100  0.400  0.503- 108 2.11 111 2.11 112 2.11 131 2.11 114 2.11
  15  0.000  0.600  0.407- 113 2.11 117 2.11 118 2.11 198 2.11 115 2.11
  16  0.100  0.700  0.407- 122 2.11 118 2.11 117 2.11 137 2.11 116 2.11
  17  0.000  0.700  0.503- 119 2.11 116 2.11 115 2.11 196 2.11 117 2.11
  18  0.100  0.600  0.503- 112 2.11 115 2.11 116 2.11 135 2.11 118 2.11
  19  0.000  0.800  0.407- 117 2.11 121 2.11 122 2.11 202 2.11 119 2.11
  20  0.100  0.900  0.407- 106 2.11 121 2.11 122 2.11 141 2.11 120 2.11
  21  0.000  0.900  0.503- 103 2.11 119 2.11 120 2.11 200 2.11 121 2.11
  22  0.100  0.800  0.503- 116 2.11 119 2.11 120 2.11 139 2.11 122 2.11
  23  0.200  0.000  0.407- 126 2.11 125 2.11 106 2.11 141 2.11 123 2.11
  24  0.300  0.100  0.407- 125 2.11 126 2.11 130 2.11 145 2.11 124 2.11
  25  0.200  0.100  0.503- 124 2.11 123 2.11 104 2.11 127 2.11 125 2.11
  26  0.300  0.000  0.503- 123 2.11 124 2.11 140 2.11 143 2.11 126 2.11
  27  0.200  0.200  0.407- 129 2.11 130 2.11 110 2.11 125 2.11 127 2.11
  28  0.300  0.300  0.407- 129 2.11 130 2.11 134 2.11 149 2.11 128 2.11
  29  0.200  0.300  0.503- 127 2.11 128 2.11 108 2.11 131 2.11 129 2.11
  30  0.300  0.200  0.503- 127 2.11 128 2.11 124 2.11 147 2.11 130 2.11
  31  0.200  0.400  0.407- 134 2.11 129 2.11 133 2.11 114 2.11 131 2.11
  32  0.300  0.500  0.407- 133 2.11 134 2.11 138 2.11 153 2.11 132 2.11
  33  0.200  0.500  0.503- 132 2.11 131 2.11 112 2.11 135 2.11 133 2.11
  34  0.300  0.400  0.503- 131 2.11 128 2.11 132 2.11 151 2.11 134 2.11
  35  0.200  0.600  0.407- 138 2.11 133 2.11 137 2.11 118 2.11 135 2.11
  36  0.300  0.700  0.407- 137 2.11 142 2.11 138 2.11 157 2.11 136 2.11
  37  0.200  0.700  0.503- 136 2.11 139 2.11 116 2.11 135 2.11 137 2.11
  38  0.300  0.600  0.503- 135 2.11 132 2.11 136 2.11 155 2.11 138 2.11
  39  0.200  0.800  0.407- 137 2.11 142 2.11 141 2.11 122 2.11 139 2.11
  40  0.300  0.900  0.407- 141 2.11 126 2.11 142 2.11 161 2.11 140 2.11
  41  0.200  0.900  0.503- 140 2.11 123 2.11 139 2.11 120 2.11 141 2.11
  42  0.300  0.800  0.503- 136 2.11 139 2.11 140 2.11 159 2.11 142 2.11
  43  0.400  0.000  0.407- 126 2.11 145 2.11 146 2.11 161 2.11 143 2.11
  44  0.500  0.100  0.407- 145 2.11 146 2.11 150 2.11 165 2.11 144 2.11
  45  0.400  0.100  0.503- 124 2.11 143 2.11 144 2.11 147 2.11 145 2.11
  46  0.500  0.000  0.503- 143 2.11 144 2.11 160 2.11 163 2.11 146 2.11
  47  0.400  0.200  0.407- 149 2.11 145 2.11 130 2.11 150 2.11 147 2.11
  48  0.500  0.300  0.407- 150 2.11 149 2.11 154 2.11 169 2.11 148 2.11
  49  0.400  0.300  0.503- 147 2.11 128 2.11 148 2.11 151 2.11 149 2.11
  50  0.500  0.200  0.503- 148 2.11 147 2.11 144 2.11 167 2.11 150 2.11
  51  0.400  0.400  0.407- 134 2.11 149 2.11 153 2.11 154 2.11 151 2.11
  52  0.500  0.500  0.407- 153 2.11 154 2.11 158 2.11 173 2.11 152 2.11
  53  0.400  0.500  0.503- 132 2.11 151 2.11 152 2.11 155 2.11 153 2.11
  54  0.500  0.400  0.503- 148 2.11 151 2.11 152 2.11 171 2.11 154 2.11
  55  0.400  0.600  0.407- 138 2.11 153 2.11 157 2.11 158 2.11 155 2.11
  56  0.500  0.700  0.407- 162 2.11 158 2.11 157 2.11 177 2.11 156 2.11
  57  0.400  0.700  0.503- 159 2.11 155 2.11 156 2.11 136 2.11 157 2.11
  58  0.500  0.600  0.503- 152 2.11 155 2.11 156 2.11 175 2.11 158 2.11   2 2.97   1 2.97
  59  0.400  0.800  0.407- 157 2.11 142 2.11 161 2.11 162 2.11 159 2.11
  60  0.500  0.900  0.407- 146 2.11 161 2.11 162 2.11 181 2.11 160 2.11
[...]
 188  0.900  0.300  0.503-  90 2.11  89 2.11   9 2.11  94 2.11  88 2.11
 189  0.800  0.300  0.407-  68 2.11  87 2.11  88 2.11  91 2.11  89 2.11
 190  0.900  0.200  0.407-  88 2.11  84 2.11  87 2.11   7 2.11  90 2.11
 191  0.800  0.400  0.503-  74 2.11  89 2.11  93 2.11  94 2.11  91 2.11
 192  0.900  0.500  0.503-  13 2.11  93 2.11  94 2.11  98 2.11  92 2.11
 193  0.800  0.500  0.407-  72 2.11  91 2.11  92 2.11  95 2.11  93 2.11
 194  0.900  0.400  0.407-  11 2.11  88 2.11  91 2.11  92 2.11  94 2.11
 195  0.800  0.600  0.503-  78 2.11  93 2.11  97 2.11  98 2.11  95 2.11
 196  0.900  0.700  0.503- 102 2.11  97 2.11  98 2.11  17 2.11  96 2.11
 197  0.800  0.700  0.407-  76 2.11  99 2.11  96 2.11  95 2.11  97 2.11
 198  0.900  0.600  0.407-  15 2.11  92 2.11  95 2.11  96 2.11  98 2.11
 199  0.800  0.800  0.503-  82 2.11  97 2.11 101 2.11 102 2.11  99 2.11
 200  0.900  0.900  0.503-  21 2.11  86 2.11 101 2.11 102 2.11 100 2.11
 201  0.800  0.900  0.407-  80 2.11  83 2.11  99 2.11 100 2.11 101 2.11
 202  0.900  0.800  0.407-  96 2.11  19 2.11  99 2.11 100 2.11 102 2.11

  LATTYP: Found a simple tetragonal cell.
 ALAT       =    21.1388521970
 C/A-ratio  =     1.0461251639

  Lattice vectors:

 A1 = (  21.1388521970,   0.0000000000,   0.0000000000)
 A2 = (   0.0000000000,  21.1388521970,   0.0000000000)
 A3 = (   0.0000000000,   0.0000000000,  22.1138852197)

Analysis of symmetry for initial positions (statically):
 Subroutine PRICEL returns:
 Original cell was already a primitive cell.

 Routine SETGRP: Setting up the symmetry group for a
 simple tetragonal supercell.

 Subroutine GETGRP returns: Found  4 space group operations
 (whereof  1 operations were pure point group operations)
 out of a pool of 16 trial point group operations.

The static configuration has the point symmetry C_1 .
 The point group associated with its full space group is C_2v.

Analysis of symmetry for dynamics (positions and initial velocities):
 Subroutine PRICEL returns:
 Original cell was already a primitive cell.

 Routine SETGRP: Setting up the symmetry group for a
 simple tetragonal supercell.

 Subroutine GETGRP returns: Found  4 space group operations
 (whereof  1 operations were pure point group operations)
 out of a pool of 16 trial point group operations.

The dynamic configuration has the point symmetry C_1 .
 The point group associated with its full space group is C_2v.

 Subroutine INISYM returns: Found  4 space group operations
 (whereof  1 operations are pure point group operations),
 and found     1 'primitive' translations

                                     Primitive cell

  volume of cell :    9881.6133

[...]
[...]
   1010       7.7369      0.00000
   1011       7.8396      0.00000
   1012       7.8420      0.00000
   1013       8.0040      0.00000
   1014       8.0638      0.00000
   1015       8.1099      0.00000
   1016       8.1151      0.00000
   1017       8.1528      0.00000
   1018       8.2825      0.00000
   1019       8.3694      0.00000
   1020       8.3803      0.00000
   1021       8.4746      0.00000
   1022       8.5030      0.00000
   1023       8.6107      0.00000
   1024       8.7184      0.00000

 soft charge-density along one line, spin component           1
         0         1         2         3         4         5         6         7         8         9
 total charge-density along one line

------------------------ aborting loop because EDIFF is reached ----------------------------------------

|           W    W    AA    RRRRR   N    N  II  N    N   GGGG   !!!           |
|           W    W   A  A   R    R  NN   N  II  NN   N  G    G  !!!           |
|           W    W  A    A  R    R  N N  N  II  N N  N  G       !!!           |
|           W WW W  AAAAAA  RRRRR   N  N N  II  N  N N  G  GGG   !            |
|           WW  WW  A    A  R   R   N   NN  II  N   NN  G    G                |
|           W    W  A    A  R    R  N    N  II  N    N   GGGG   !!!           |
|     Specifying the vdW parameters                                           |
|     VDW_A1 = 0.414                                                          |
|     VDW_A2 = 4.859                                                          |
|     VDW_S8 = 1.218                                                          |
|     in the INCAR file will overwrite the defaults for pbe0. Please make     |
|     sure that is what you intended.                                         |

         DFTD3 V3.0 Rev 1
 IVDW         = 12
 DF pbe0
 parameters
 VDW_S6       =    1.0000
 VDW_S8       =    1.2177
 VDW_A1       =    0.4145
 VDW_A2       =    4.8593
 k1-k3        =   16.0000    1.3333   -4.0000
 VDW_RADIUS   =   50.2022 A
 VDW_CNRADIUS =   21.1671 A
 Edisp (eV)  -32.56301

 E6    (eV) :   -16.0877
 E8    (eV) :   -16.4753
 % E8        : 50.60

 VOLUME and BASIS-vectors are now :
  energy-cutoff  :      520.00
  volume of cell :     9881.61
      direct lattice vectors                 reciprocal lattice vectors
    21.138852197  0.000000000  0.000000000     0.047306258  0.000000000  0.000000000
     0.000000000 21.138852197  0.000000000     0.000000000  0.047306258  0.000000000
     0.000000000  0.000000000 22.113885220     0.000000000  0.000000000  0.045220457

  length of vectors
    21.138852197 21.138852197 22.113885220     0.047306258  0.047306258  0.045220457

 FORCES acting on ions:
    Electron-Ion                     Ewald-Force                    Non-Local-Force
   -.189E+03 0.189E+03 -.206E+04   0.184E+03 -.184E+03 0.206E+04   0.549E+01 -.549E+01 0.381E-01
   0.189E+03 -.189E+03 -.206E+04   -.184E+03 0.184E+03 0.206E+04   -.549E+01 0.549E+01 0.381E-01
   0.202E+00 -.345E+01 0.932E+03   -.207E+00 0.346E+01 -.923E+03   0.348E-02 -.238E-02 -.709E+01
   0.345E+01 -.202E+00 0.932E+03   -.346E+01 0.207E+00 -.923E+03   0.238E-02 -.348E-02 -.709E+01
   -.116E-07 -.185E-03 -.924E+03   0.103E-06 -.158E-05 0.915E+03   0.000E+00 0.000E+00 0.707E+01
   0.531E+01 -.531E+01 -.923E+03   -.532E+01 0.532E+01 0.914E+03   0.709E-02 -.709E-02 0.707E+01
   -.202E+00 0.345E+01 0.932E+03   0.207E+00 -.346E+01 -.923E+03   -.348E-02 0.238E-02 -.709E+01
   0.523E+01 0.671E+01 0.934E+03   -.523E+01 -.671E+01 -.925E+03   -.108E-02 0.309E-02 -.709E+01
   -.566E+00 0.716E+01 -.923E+03   0.579E+00 -.717E+01 0.914E+03   -.887E-02 0.330E-02 0.707E+01
   0.470E+01 0.470E+01 -.923E+03   -.470E+01 -.470E+01 0.915E+03   -.167E-02 -.167E-02 0.707E+01
   -.467E+00 0.613E+01 0.935E+03   0.479E+00 -.613E+01 -.926E+03   -.850E-02 0.415E-02 -.709E+01
   0.101E+02 0.518E+01 0.938E+03   -.102E+02 -.519E+01 -.930E+03   0.594E-02 0.792E-02 -.710E+01
   -.542E+00 0.501E+01 -.920E+03   0.555E+00 -.501E+01 0.912E+03   -.854E-02 0.211E-02 0.707E+01
   0.104E+02 0.967E+01 -.920E+03   -.104E+02 -.968E+01 0.912E+03   -.550E-02 0.526E-02 0.706E+01
   0.241E-06 -.188E-03 0.937E+03   -.147E-06 0.154E-05 -.928E+03   0.000E+00 0.000E+00 -.709E+01
   0.110E+02 -.464E+01 0.939E+03   -.110E+02 0.464E+01 -.930E+03   0.231E-01 0.267E-03 -.709E+01
   0.542E+00 -.501E+01 -.920E+03   -.555E+00 0.501E+01 0.912E+03   0.854E-02 -.211E-02 0.707E+01
   0.173E+02 0.743E+00 -.917E+03   -.174E+02 -.755E+00 0.909E+03   0.151E-01 0.786E-02 0.706E+01
   0.467E+00 -.613E+01 0.935E+03   -.479E+00 0.613E+01 -.926E+03   0.850E-02 -.415E-02 -.709E+01
   0.605E+01 -.704E+01 0.934E+03   -.607E+01 0.705E+01 -.926E+03   0.121E-01 -.779E-02 -.709E+01
   0.566E+00 -.716E+01 -.923E+03   -.579E+00 0.717E+01 0.914E+03   0.887E-02 -.330E-02 0.707E+01
   0.123E+02 -.980E+01 -.920E+03   -.124E+02 0.981E+01 0.911E+03   0.237E-01 -.437E-02 0.707E+01
   0.704E+01 -.605E+01 0.934E+03   -.705E+01 0.607E+01 -.926E+03   0.779E-02 -.121E-01 -.709E+01
   0.613E+01 -.467E+00 0.935E+03   -.613E+01 0.479E+00 -.926E+03   0.415E-02 -.850E-02 -.709E+01
   0.716E+01 -.566E+00 -.923E+03   -.717E+01 0.579E+00 0.914E+03   0.330E-02 -.887E-02 0.707E+01
   0.980E+01 -.123E+02 -.920E+03   -.981E+01 0.124E+02 0.911E+03   0.437E-02 -.237E-01 0.707E+01
   0.671E+01 0.523E+01 0.934E+03   -.671E+01 -.523E+01 -.925E+03   0.309E-02 -.108E-02 -.709E+01
   0.116E+02 0.148E+02 0.941E+03   -.116E+02 -.148E+02 -.932E+03   0.114E-01 0.112E-01 -.710E+01
   0.132E+02 0.132E+02 -.920E+03   -.132E+02 -.132E+02 0.911E+03   -.298E-03 -.298E-03 0.706E+01
   0.967E+01 0.104E+02 -.920E+03   -.968E+01 -.104E+02 0.912E+03   0.526E-02 -.550E-02 0.706E+01
   0.148E+02 0.116E+02 0.941E+03   -.148E+02 -.116E+02 -.932E+03   0.112E-01 0.114E-01 -.710E+01
   0.285E+02 0.160E+02 0.961E+03   -.286E+02 -.160E+02 -.953E+03   0.616E-01 0.358E-01 -.712E+01
   0.330E+02 0.140E+02 -.910E+03   -.330E+02 -.140E+02 0.902E+03   0.514E-02 0.216E-01 0.706E+01
   0.317E+02 0.317E+02 -.906E+03   -.317E+02 -.317E+02 0.897E+03   0.107E-01 0.107E-01 0.704E+01
   0.240E+02 0.112E+01 0.949E+03   -.240E+02 -.114E+01 -.940E+03   0.392E-01 0.154E-01 -.710E+01
   0.303E+02 -.142E+02 0.965E+03   -.304E+02 0.142E+02 -.957E+03   0.400E-01 -.926E-02 -.704E+01
   0.370E+02 -.119E+02 -.908E+03   -.371E+02 0.119E+02 0.900E+03   0.733E-01 0.676E-02 0.707E+01
   0.779E+02 0.812E+01 -.871E+03   -.781E+02 -.823E+01 0.863E+03   0.134E+00 0.750E-01 0.708E+01
   0.162E+02 -.119E+02 0.942E+03   -.163E+02 0.119E+02 -.934E+03   0.282E-01 -.137E-01 -.709E+01
   0.119E+02 -.162E+02 0.942E+03   -.119E+02 0.163E+02 -.934E+03   0.137E-01 -.282E-01 -.709E+01
   0.148E+02 -.148E+02 -.919E+03   -.148E+02 0.148E+02 0.910E+03   0.194E-01 -.194E-01 0.707E+01
   0.365E+02 -.365E+02 -.900E+03   -.366E+02 0.366E+02 0.891E+03   0.564E-01 -.564E-01 0.708E+01
   0.464E+01 -.110E+02 0.939E+03   -.464E+01 0.110E+02 -.930E+03   -.267E-03 -.231E-01 -.709E+01
   0.237E-06 -.182E-03 0.937E+03   -.140E-06 -.411E-05 -.928E+03   0.000E+00 0.000E+00 -.709E+01
   0.501E+01 -.542E+00 -.920E+03   -.501E+01 0.555E+00 0.912E+03   0.211E-02 -.854E-02 0.707E+01
   -.743E+00 -.173E+02 -.917E+03   0.755E+00 0.174E+02 0.909E+03   -.786E-02 -.151E-01 0.706E+01
   0.518E+01 0.101E+02 0.938E+03   -.519E+01 -.102E+02 -.930E+03   0.792E-02 0.594E-02 -.710E+01
   0.112E+01 0.240E+02 0.949E+03   -.114E+01 -.240E+02 -.940E+03   0.154E-01 0.392E-01 -.710E+01
   0.140E+02 0.330E+02 -.910E+03   -.140E+02 -.330E+02 0.902E+03   0.216E-01 0.514E-02 0.706E+01
   0.743E+00 0.173E+02 -.917E+03   -.755E+00 -.174E+02 0.909E+03   0.786E-02 0.151E-01 0.706E+01
   0.160E+02 0.285E+02 0.961E+03   -.160E+02 -.286E+02 -.953E+03   0.358E-01 0.616E-01 -.712E+01
   0.303E+01 0.303E+02 0.100E+04   -.301E+01 -.303E+02 -.994E+03   -.145E-01 0.536E-01 -.694E+01
   0.692E+02 0.692E+02 -.838E+03   -.694E+02 -.694E+02 0.830E+03   0.157E+00 0.157E+00 0.689E+01
   0.812E+01 0.779E+02 -.871E+03   -.823E+01 -.781E+02 0.863E+03   0.750E-01 0.134E+00 0.708E+01
   0.303E+02 0.303E+01 0.100E+04   -.303E+02 -.301E+01 -.994E+03   0.536E-01 -.145E-01 -.694E+01
   -.303E+01 -.303E+02 0.100E+04   0.301E+01 0.303E+02 -.994E+03   0.145E-01 -.536E-01 -.694E+01
   0.754E+02 -.754E+02 -.796E+03   -.756E+02 0.756E+02 0.788E+03   0.622E-01 -.622E-01 0.691E+01
   -.206E-04 -.240E-03 -.668E+03   0.210E-04 0.517E-04 0.662E+03   0.000E+00 0.000E+00 0.470E+01
   0.142E+02 -.303E+02 0.965E+03   -.142E+02 0.304E+02 -.957E+03   0.926E-02 -.400E-01 -.704E+01
   -.112E+01 -.240E+02 0.949E+03   0.114E+01 0.240E+02 -.940E+03   -.154E-01 -.392E-01 -.710E+01
[...]
   -.793E+01 0.792E+01 0.704E+03   0.794E+01 -.794E+01 -.708E+03   -.170E-01 0.170E-01 0.309E+01
   -.316E+01 0.316E+01 0.701E+03   0.316E+01 -.316E+01 -.705E+03   -.678E-02 0.678E-02 0.309E+01
   -.189E+02 0.133E+02 -.686E+03   0.189E+02 -.134E+02 0.690E+03   -.384E-01 0.225E-01 -.312E+01
   -.122E+02 0.463E+01 -.689E+03   0.123E+02 -.463E+01 0.693E+03   -.199E-01 -.194E-02 -.312E+01
   -.165E+02 0.573E+01 0.712E+03   0.166E+02 -.573E+01 -.716E+03   -.418E-01 0.565E-03 0.311E+01
   -.651E+01 0.558E+01 0.704E+03   0.652E+01 -.559E+01 -.708E+03   -.177E-01 0.736E-02 0.309E+01
   -.306E+02 -.183E+01 -.681E+03   0.306E+02 0.186E+01 0.685E+03   -.345E-01 -.324E-01 -.313E+01
   -.110E+02 -.527E+01 -.690E+03   0.110E+02 0.528E+01 0.694E+03   -.321E-02 -.104E-01 -.313E+01
   -.154E+02 -.664E+01 0.710E+03   0.155E+02 0.665E+01 -.714E+03   -.159E-01 -.192E-01 0.308E+01
   -.874E+01 -.323E+00 0.706E+03   0.875E+01 0.328E+00 -.710E+03   -.134E-01 -.747E-02 0.309E+01
   -.163E+02 -.126E+02 -.688E+03   0.163E+02 0.126E+02 0.692E+03   -.176E-02 -.759E-02 -.314E+01
   -.510E+01 -.636E+01 -.693E+03   0.510E+01 0.636E+01 0.697E+03   0.328E-02 -.155E-02 -.313E+01
   -.730E+01 -.730E+01 0.703E+03   0.730E+01 0.730E+01 -.707E+03   -.476E-02 -.476E-02 0.309E+01
   -.568E+01 -.557E+01 0.703E+03   0.568E+01 0.557E+01 -.707E+03   -.241E-03 -.664E-02 0.309E+01
   -.145E-04 -.110E+00 0.685E+01   0.753E-12 0.270E-12 0.830E-11   0.218E-14 0.428E-15 -.648E+01

 POSITION                                       TOTAL-FORCE (eV/Angst)
     11.48398     11.76876     13.78517         0.015139     -0.015139      0.003266
      9.65487     13.59787     13.78517        -0.015139      0.015139      0.003266
      0.00000      0.00000      9.00000        -0.001124      0.000775      0.604133
      2.11389      2.11389      9.00000        -0.000775      0.001124      0.604133
      0.00000      2.11389     11.11389         0.000000     -0.000000     -0.597293
      2.11389      0.00000     11.11389        -0.002223      0.002223     -0.597286
      0.00000      4.22777      9.00000         0.001124     -0.000775      0.604133
      2.11389      6.34166      9.00000         0.000380     -0.000969      0.604610
      0.00000      6.34166     11.11389         0.002800     -0.001047     -0.596884
      2.11389      4.22777     11.11389         0.000567      0.000567     -0.596903
      0.00000      8.45554      9.00000         0.002629     -0.001362      0.604148
      2.11389     10.56943      9.00000        -0.001847     -0.002632      0.604724
      0.00000     10.56943     11.11389         0.002651     -0.000665     -0.596003
      2.11389      8.45554     11.11389         0.002028     -0.001513     -0.595098
      0.00000     12.68331      9.00000         0.000000     -0.000000      0.604177
      2.11389     14.79720      9.00000        -0.006939     -0.000100      0.604120
      0.00000     14.79720     11.11389        -0.002651      0.000665     -0.596003
      2.11389     12.68331     11.11389        -0.003968     -0.002683     -0.594957
      0.00000     16.91108      9.00000        -0.002629      0.001362      0.604148
      2.11389     19.02497      9.00000        -0.003862      0.002560      0.603442
      0.00000     19.02497     11.11389        -0.002800      0.001047     -0.596884
      2.11389     16.91108     11.11389        -0.007195      0.001394     -0.596760
      4.22777      0.00000      9.00000        -0.002560      0.003862      0.603442
      6.34166      2.11389      9.00000        -0.001362      0.002629      0.604148
      4.22777      2.11389     11.11389        -0.001047      0.002800     -0.596884
      6.34166      0.00000     11.11389        -0.001394      0.007195     -0.596760
      4.22777      4.22777      9.00000        -0.000969      0.000380      0.604610
      6.34166      6.34166      9.00000        -0.003481     -0.003304      0.606409
      4.22777      6.34166     11.11389         0.000469      0.000469     -0.594222
      6.34166      4.22777     11.11389        -0.001513      0.002028     -0.595098
      4.22777      8.45554      9.00000        -0.003304     -0.003481      0.606409
      6.34166     10.56943      9.00000        -0.018761     -0.011722      0.612285
      4.22777     10.56943     11.11389         0.001363     -0.006158     -0.588846
      6.34166      8.45554     11.11389         0.000865      0.000865     -0.580149
      4.22777     12.68331      9.00000        -0.011986     -0.005373      0.604773
      6.34166     14.79720      9.00000        -0.010871      0.002749      0.591299
      4.22777     14.79720     11.11389        -0.021256     -0.003073     -0.595384
      6.34166     12.68331     11.11389        -0.043846     -0.026216     -0.580332
      4.22777     16.91108      9.00000        -0.008949      0.004689      0.602006
      6.34166     19.02497      9.00000        -0.004689      0.008949      0.602006
      4.22777     19.02497     11.11389        -0.005971      0.005971     -0.597307
      6.34166     16.91108     11.11389        -0.014384      0.014384     -0.599345
      8.45554      0.00000      9.00000         0.000100      0.006939      0.604120
     10.56943      2.11389      9.00000         0.000000     -0.000000      0.604177
      8.45554      2.11389     11.11389        -0.000665      0.002651     -0.596003
     10.56943      0.00000     11.11389         0.002683      0.003968     -0.594957
      8.45554      4.22777      9.00000        -0.002632     -0.001847      0.604724
     10.56943      6.34166      9.00000        -0.005373     -0.011986      0.604773
      8.45554      6.34166     11.11389        -0.006158      0.001363     -0.588846
     10.56943      4.22777     11.11389        -0.002683     -0.003968     -0.594957
      8.45554      8.45554      9.00000        -0.011722     -0.018761      0.612285
     10.56943     10.56943      9.00000         0.009118     -0.012016      0.557136
      8.45554     10.56943     11.11389        -0.019621     -0.019621     -0.445829
     10.56943      8.45554     11.11389        -0.026216     -0.043846     -0.580332
      8.45554     12.68331      9.00000        -0.012016      0.009118      0.557136
     10.56943     14.79720      9.00000        -0.009118      0.012016      0.557136
      8.45554     14.79720     11.11389        -0.073208      0.073208     -0.761669
     10.56943     12.68331     11.11389         0.000000     -0.000000     -0.356363
      8.45554     16.91108      9.00000        -0.002749      0.010871      0.591299
     10.56943     19.02497      9.00000         0.005373      0.011986      0.604773
[...]
     19.02497      6.34166     11.11389        -0.004591      0.003309      0.408075
     16.91108      6.34166      9.00000        -0.005713      0.005713     -0.413983
     19.02497      4.22777      9.00000        -0.002252      0.002252     -0.415168
     16.91108      8.45554     11.11389        -0.013199      0.007858      0.409753
     19.02497     10.56943     11.11389        -0.006710     -0.000565      0.407077
     16.91108     10.56943      9.00000        -0.014702      0.000355     -0.410151
     19.02497      8.45554      9.00000        -0.005931      0.002484     -0.414590
     16.91108     12.68331     11.11389        -0.012715     -0.010836      0.404251
     19.02497     14.79720     11.11389        -0.001176     -0.003492      0.405368
     16.91108     14.79720      9.00000        -0.005760     -0.006599     -0.417610
     19.02497     12.68331      9.00000        -0.004511     -0.002482     -0.415348
     16.91108     16.91108     11.11389        -0.000937     -0.002710      0.402168
     19.02497     19.02497     11.11389         0.001040     -0.000551      0.406778
     16.91108     19.02497      9.00000        -0.001628     -0.001628     -0.416612
     19.02497     16.91108      9.00000        -0.000113     -0.002236     -0.416144
    total drift:                               -0.000014     -0.109530     -0.488787

  FREE ENERGIE OF THE ION-ELECTRON SYSTEM (eV)
  free  energy   TOTEN  =     -1455.15870457 eV

  energy  without entropy=    -1455.15870457  energy(sigma->0) =    -1455.15870457