 vasp.6.4.0 14Feb23 (build Jul 14 2023 13:46:40) complex

 executed on             LinuxIFC date 2023.08.22  18:12:14

 INCAR:
   SYSTEM = MgO-rocksalt
   ISMEAR = 0
   SIGMA = 0.05
   EDIFF = 1E-6
   ALGO = ALL
   ISTART = 0
   IBRION = -1
   NSW = 0
   ISYM = 2
   DIPOL = 0.5 0.5 0.5
   IDIPOL = 3
   LDIPOL = .TRUE.
   GGA = MK
   LUSE_VDW = .TRUE.
   PARAM1 = 0.1234
   PARAM2 = 0.711357
   ZAB_VDW = -1.8867
   AGGAC = 0.0
   ENCUT = 520
   PREC = Accurate
   LASPH = .TRUE.
   LREAL = Auto
   ISPIN = 1
   NELM = 200
   NELMIN = 8
   NCORE = 4
   KPAR = 2
   LWAVE = .FALSE.
   LCHARG = .FALSE.

 POTCAR:    PAW_PBE Au 04Oct2007
 POTCAR:    PAW_PBE Mg_pv 13Apr2007
 POTCAR:    PAW_PBE O 08Apr2002
|               ----> ADVICE to this user running VASP <----                  |
|     You have switched on vdW-DFT.                                           |
|     This routine was written and supplied by Jiri Klimes. We recommend      |
|     that you carefully read and cite the following publications:            |
|       J. Klimes, D.R. Bowler, A. Michelides                                 |
|          J. Phys.: Cond Matt. 22 022201 (2010)                              |
|       J. Klimes, D.R. Bowler, A. Michelides                                 |
|          Phys. Rev. B. 83, 195131 (2011)                                    |
|     and references therein.                                                 |

   TITEL  = PAW_PBE Au 04Oct2007
   POMASS =  196.966; ZVAL   =   11.000    mass and valenz
   ENMAX  =  229.943; ENMIN  =  172.457 eV

   TITEL  = PAW_PBE Mg_pv 13Apr2007
   POMASS =   24.305; ZVAL   =    8.000    mass and valenz
   ENMAX  =  403.929; ENMIN  =  302.947 eV

   TITEL  = PAW_PBE O 08Apr2002
   POMASS =   16.000; ZVAL   =    6.000    mass and valenz
   ENMAX  =  400.000; ENMIN  =  300.000 eV

 Optimization of the real space projectors (new method)

 maximal supplied QI-value         = 15.12
 optimisation between [QCUT,QGAM] = [ 11.64, 23.28] = [ 37.95,151.78] Ry
 Optimized for a Real-space Cutoff    1.49 Angstroem

   l    n(q)    QCUT    max X(q) W(low)/X(q) W(high)/X(q)  e(spline)
   2      9    11.641    60.898    0.24E-03    0.10E-03    0.19E-06
   2      9    11.641    58.894    0.25E-03    0.10E-03    0.19E-06
   0     10    11.641   109.617    0.73E-04    0.33E-04    0.11E-06
   0     10    11.641    75.026    0.71E-04    0.32E-04    0.11E-06
   1     10    11.641    16.344    0.27E-04    0.97E-04    0.16E-06
   1     10    11.641    10.160    0.23E-04    0.77E-04    0.13E-06
 Optimization of the real space projectors (new method)

[...]

   l    n(q)    QCUT    max X(q) W(low)/X(q) W(high)/X(q)  e(spline)
   1      8    11.527     2.974    0.44E-04    0.56E-04    0.12E-06
   1      8    11.527     4.279    0.12E-03    0.12E-03    0.26E-06
   0      9    11.527    16.381    0.46E-04    0.64E-04    0.78E-07
   0      9    11.527     5.611    0.26E-04    0.43E-04    0.55E-07
   2      8    11.527     4.652    0.22E-03    0.72E-04    0.47E-07
 Optimization of the real space projectors (new method)

 maximal supplied QI-value         = 24.76
 optimisation between [QCUT,QGAM] = [ 11.64, 23.27] = [ 37.91,151.63] Ry
 Optimized for a Real-space Cutoff    1.14 Angstroem

   l    n(q)    QCUT    max X(q) W(low)/X(q) W(high)/X(q)  e(spline)
   0      8    11.635    20.381    0.10E-03    0.33E-03    0.24E-06
   0      8    11.635    15.268    0.11E-03    0.35E-03    0.26E-06
   1      7    11.635     5.964    0.24E-03    0.31E-03    0.30E-06
   1      7    11.635     5.382    0.22E-03    0.25E-03    0.26E-06
|               ----> ADVICE to this user running VASP <----                  |
|     You enforced a specific xc type in the INCAR file but a different       |
|     type was found in the POTCAR file.                                      |
|     I HOPE YOU KNOW WHAT YOU ARE DOING!                                     |

  PAW_PBE Au 04Oct2007                  :
  PAW_PBE Mg_pv 13Apr2007               :
  PAW_PBE O 08Apr2002                   :

 POSCAR: Mg  O
  positions in direct lattice
  velocities in cartesian coordinates
 exchange correlation table for  LEXCH =       43
   RHO(1)=    0.500       N(1)  =     2000
   RHO(2)=  100.500       N(2)  =     4000

 ion  position               nearest neighbor table
   1  0.523  0.447  0.604-   9 2.65   5 2.66   6 2.72  10 2.78   2 2.82
   2  0.390  0.462  0.611-  10 2.67   6 2.69   7 2.70   3 2.73  11 2.74   1 2.82
   3  0.262  0.476  0.610-   8 2.69   4 2.72   2 2.73  12 2.73   7 2.75  11 2.75
   4  0.142  0.487  0.578- 230 2.49  12 2.67   3 2.72  51 2.73   8 2.74
   5  0.594  0.551  0.598-   1 2.66  13 2.68   6 2.71  14 2.75
   6  0.467  0.563  0.610-   2 2.69   7 2.69   5 2.71   1 2.72  14 2.74  15 2.76
   7  0.341  0.579  0.614-  16 2.68   6 2.69   2 2.70   8 2.73   3 2.75  15 2.76
   8  0.223  0.589  0.577- 253 2.41   3 2.69  16 2.71   7 2.73   4 2.74  56 2.93
   9  0.564  0.329  0.606-  17 2.64   1 2.65  10 2.66  18 2.82
  10  0.439  0.346  0.606-   9 2.66  11 2.66   2 2.67  18 2.71   1 2.78  19 2.83
  11  0.314  0.357  0.606-  10 2.66  19 2.70  12 2.70   2 2.74   3 2.75  20 2.77
  12  0.189  0.372  0.595-  20 2.64   4 2.67  11 2.70   3 2.73
  13  0.662  0.655  0.579-  14 2.65 294 2.67   5 2.68  96 2.85  95 2.91
  14  0.540  0.669  0.598-  15 2.61  13 2.65   6 2.74   5 2.75
  15  0.419  0.684  0.611-  14 2.61  16 2.64   6 2.76   7 2.76
  16  0.306  0.686  0.573- 254 2.25  15 2.64   7 2.68   8 2.71  56 2.93  75 3.02
  17  0.589  0.218  0.570- 285 2.17  18 2.61   9 2.64  87 2.83  68 2.91
  18  0.481  0.225  0.611-  17 2.61  19 2.61  10 2.71   9 2.82
  19  0.360  0.239  0.598-  18 2.61  20 2.69  11 2.70  10 2.83
  20  0.234  0.256  0.589-  12 2.64  19 2.69  11 2.77  47 2.94
  21  0.000  0.000  0.429- 321 2.09 221 2.11 223 2.11 224 2.11 304 2.11 239 2.12
  22  0.100  0.100  0.429- 322 2.09 222 2.11 243 2.11 228 2.11 223 2.11 224 2.12
  23  0.000  0.100  0.498- 223 2.07 222 2.11 225 2.11 302 2.11 221 2.12
  24  0.100  0.000  0.498- 224 2.07 222 2.11 241 2.11 221 2.11 238 2.12
  25  0.000  0.200  0.429- 325 2.09 225 2.11 308 2.11 228 2.11 223 2.11 227 2.12
  26  0.100  0.300  0.429- 326 2.09 247 2.10 226 2.11 228 2.11 227 2.12 232 2.13
  27  1.000  0.300  0.498- 227 2.07 226 2.11 306 2.11 225 2.11 229 2.12
  28  0.100  0.200  0.498- 228 2.07 245 2.11 225 2.11 222 2.12 226 2.12
  29  0.000  0.400  0.429- 329 2.09 232 2.11 227 2.11 229 2.11 312 2.11 231 2.12
  30  0.100  0.500  0.429- 330 2.08 232 2.10 251 2.10 231 2.11 236 2.11 230 2.18
  31  0.997  0.500  0.498- 310 2.07 231 2.07 229 2.10 233 2.12 230 2.13
  32  0.100  0.399  0.499- 226 2.09 232 2.09 229 2.11 249 2.12 230 2.16
  33  1.000  0.600  0.429- 333 2.09 316 2.11 231 2.11 235 2.11 233 2.11 236 2.12
  34  0.100  0.700  0.429- 334 2.09 235 2.11 240 2.11 234 2.11 255 2.11 236 2.12
  35  1.000  0.700  0.498- 235 2.07 314 2.11 234 2.11 237 2.11 233 2.12
  36  0.097  0.601  0.498- 236 2.07 233 2.07 234 2.10 230 2.11 253 2.13
  37  1.000  0.800  0.429- 337 2.09 237 2.11 239 2.11 320 2.11 240 2.12 235 2.12
  38  0.100  0.900  0.429- 338 2.09 238 2.11 224 2.11 239 2.11 259 2.11 240 2.12
  39  1.000  0.900  0.498- 239 2.07 221 2.11 238 2.11 318 2.11 237 2.12
  40  0.100  0.801  0.498- 240 2.07 238 2.10 237 2.11 257 2.11 234 2.12
  41  0.200  0.000  0.429- 341 2.09 241 2.11 243 2.11 244 2.11 224 2.11 259 2.12
  42  0.300  0.100  0.429- 342 2.09 248 2.11 242 2.11 243 2.12 263 2.12 244 2.12
  43  0.200  0.100  0.498- 243 2.07 245 2.10 242 2.11 241 2.12 222 2.12
  44  0.300  0.000  0.498- 244 2.07 242 2.10 258 2.11 261 2.12 241 2.12
  45  0.200  0.200  0.429- 345 2.09 248 2.10 247 2.11 243 2.12 228 2.12 245 2.13
  46  0.300  0.300  0.429- 246 2.07 346 2.09 267 2.11 248 2.12 252 2.12 247 2.12
  47  0.200  0.300  0.499- 246 2.12 247 2.12 249 2.12 226 2.13 245 2.13  20 2.94
  48  0.300  0.200  0.499- 265 2.10 248 2.12 246 2.12 242 2.12 245 2.13
  49  0.200  0.400  0.429- 249 2.06 349 2.09 252 2.11 247 2.11 232 2.12 251 2.14
  50  0.300  0.500  0.429- 250 2.08 350 2.09 252 2.10 271 2.10 256 2.14 251 2.14
  51  0.203  0.499  0.498- 251 2.06 250 2.06 249 2.09 253 2.17 230 2.22   4 2.73
  52  0.301  0.400  0.499- 246 2.10 269 2.10 252 2.12 250 2.12 249 2.13
  53  0.200  0.600  0.428- 353 2.08 251 2.10 256 2.10 255 2.11 236 2.11 253 2.13
  54  0.300  0.700  0.428- 354 2.08 275 2.10 256 2.10 260 2.11 254 2.11 255 2.12
  55  0.197  0.703  0.498- 255 2.07 234 2.07 257 2.07 254 2.13 253 2.14
  56  0.303  0.597  0.498- 273 2.05 250 2.06 256 2.06 253 2.22 254 2.24   8 2.93  16 2.93
  57  0.200  0.800  0.429- 357 2.09 259 2.11 260 2.11 257 2.11 240 2.11 255 2.12
  58  0.300  0.900  0.429- 358 2.09 244 2.11 258 2.11 279 2.11 259 2.11 260 2.12
  59  0.200  0.900  0.498- 259 2.07 241 2.10 257 2.11 238 2.11 258 2.12
  60  0.300  0.803  0.498- 258 2.06 260 2.07 277 2.11 254 2.12 257 2.13
[...]
 406  0.900  0.300  0.359- 106 2.09 208 2.11 207 2.11 127 2.11 212 2.11 206 2.11
 407  0.800  0.300  0.289- 186 2.11 205 2.11 206 2.11 209 2.11 207 2.11
 408  0.900  0.200  0.289- 206 2.11 202 2.11 205 2.11 125 2.11 208 2.11
 409  0.800  0.400  0.359- 109 2.09 192 2.11 207 2.11 211 2.11 212 2.11 209 2.11
 410  0.900  0.500  0.359- 110 2.09 131 2.11 211 2.11 212 2.11 216 2.11 210 2.11
 411  0.800  0.500  0.289- 190 2.11 209 2.11 210 2.11 213 2.11 211 2.11
 412  0.900  0.400  0.289- 129 2.11 206 2.11 209 2.11 210 2.11 212 2.11
 413  0.800  0.600  0.359- 113 2.09 196 2.11 211 2.11 215 2.11 216 2.11 213 2.11
 414  0.900  0.700  0.359- 114 2.09 220 2.11 215 2.11 216 2.11 135 2.11 214 2.11
 415  0.800  0.700  0.289- 194 2.11 217 2.11 214 2.11 213 2.11 215 2.11
 416  0.900  0.600  0.289- 133 2.11 210 2.11 213 2.11 214 2.11 216 2.11
 417  0.800  0.800  0.359- 117 2.09 200 2.11 215 2.11 219 2.11 220 2.11 217 2.11
 418  0.900  0.900  0.359- 118 2.09 139 2.11 204 2.11 219 2.11 220 2.11 218 2.11
 419  0.800  0.900  0.289- 198 2.11 201 2.11 217 2.11 218 2.11 219 2.11
 420  0.900  0.800  0.289- 214 2.11 137 2.11 217 2.11 218 2.11 220 2.11

  LATTYP: Found a simple tetragonal cell.
 ALAT       =    21.1388521970
 C/A-ratio  =     1.4191877459

  Lattice vectors:

 A1 = (  21.1388521970,   0.0000000000,   0.0000000000)
 A2 = (   0.0000000000,  21.1388521970,   0.0000000000)
 A3 = (   0.0000000000,   0.0000000000,  30.0000000000)

Analysis of symmetry for initial positions (statically):
 Subroutine PRICEL returns:
 Original cell was already a primitive cell.

 Routine SETGRP: Setting up the symmetry group for a
 simple tetragonal supercell.

 Subroutine GETGRP returns: Found  1 space group operations
 (whereof  1 operations were pure point group operations)
 out of a pool of 16 trial point group operations.

The static configuration has the point symmetry C_1 .

Analysis of symmetry for dynamics (positions and initial velocities):
 Subroutine PRICEL returns:
 Original cell was already a primitive cell.

[...]

The dynamic configuration has the point symmetry C_1 .

Analysis of constrained symmetry for selective dynamics:
 Subroutine PRICEL returns:
 Original cell was already a primitive cell.

 Routine SETGRP: Setting up the symmetry group for a
 simple tetragonal supercell.

[...]
     52     -42.7451      2.00000
     53     -42.7432      2.00000
     54     -42.7419      2.00000
     55     -42.7419      2.00000
     56     -42.7359      2.00000
     57     -42.7319      2.00000
     58     -42.7265      2.00000
     59     -42.7235      2.00000
     60     -42.7231      2.00000
[...]
   1810       6.5976      0.00000
   1811       6.6414      0.00000
   1812       6.6835      0.00000
   1813       6.7069      0.00000
   1814       6.7409      0.00000
   1815       6.7737      0.00000
   1816       6.7944      0.00000
   1817       6.8126      0.00000
   1818       6.8253      0.00000
   1819       6.8749      0.00000
   1820       6.8861      0.00000
   1821       6.9161      0.00000
   1822       6.9349      0.00000
   1823       6.9498      0.00000
   1824       6.9833      0.00000

 soft charge-density along one line, spin component           1
         0         1         2         3         4         5         6         7         8         9
 total charge-density along one line

------------------------ aborting loop because EDIFF is reached ----------------------------------------

  FORCE on cell =-STRESS in cart. coord.  units (eV):
  Direction    XX          YY          ZZ          XY          YZ          ZX
  Alpha Z  4657.84619  4657.84619  4657.84619
  Ewald  ************************************   480.19700  -361.01613   632.35704
  Hartree************************************   432.29782  -289.68629   518.76217
  E(xc)  -16343.45697-16343.79601-16346.93595     0.01224    -0.10512     0.07744
  Local  ************************************  -912.82541   647.21290 -1147.79183
  n-local-17711.32258-17704.88631-17760.49118    -1.97929     2.09148    -2.16701
  augment  7900.51418  7902.78353  7888.88216     0.43127     0.32202    -0.14904
  Kinetic 48704.02986 48710.10676 49028.35230    -1.30371     1.08124    -1.28847
  Fock        0.00000     0.00000     0.00000     0.00000     0.00000     0.00000
  Total    -161.31459  -161.62479    44.96932    -3.17008    -0.09989    -0.19970
  in kB     -19.27970   -19.31677     5.37456    -0.37888    -0.01194    -0.02387

 VOLUME and BASIS-vectors are now :
  energy-cutoff  :      520.00
  volume of cell :    13405.53
      direct lattice vectors                 reciprocal lattice vectors
    21.138852197  0.000000000  0.000000000     0.047306258  0.000000000  0.000000000
     0.000000000 21.138852197  0.000000000     0.000000000  0.047306258  0.000000000
     0.000000000  0.000000000 30.000000000     0.000000000  0.000000000  0.033333333

  length of vectors
    21.138852197 21.138852197 30.000000000     0.047306258  0.047306258  0.033333333

 FORCES acting on ions:
    Electron-Ion                     Ewald-Force                    Non-Local-Force
   -.537E+03 0.675E+02 -.362E+04   0.538E+03 -.676E+02 0.362E+04   -.819E+00 0.401E-01 0.472E-01
   -.155E+02 0.633E+01 -.367E+04   0.140E+02 -.577E+01 0.367E+04   0.155E+01 -.586E+00 0.229E+00
   0.397E+03 -.605E+02 -.379E+04   -.397E+03 0.604E+02 0.379E+04   -.773E-01 0.666E-01 0.550E+00
   0.830E+03 -.119E+03 -.372E+04   -.826E+03 0.118E+03 0.373E+04   -.439E+01 0.128E+01 -.209E+01
   -.704E+03 0.403E+02 -.368E+04   0.703E+03 -.406E+02 0.368E+04   0.198E+01 0.110E+00 0.310E+00
   -.207E+03 -.217E+03 -.367E+04   0.207E+03 0.216E+03 0.367E+04   0.451E+00 0.141E+01 0.212E+00
   0.207E+03 -.340E+03 -.380E+04   -.207E+03 0.340E+03 0.379E+04   0.357E+00 0.101E+01 0.767E+00
   0.620E+03 -.476E+03 -.367E+04   -.618E+03 0.475E+03 0.367E+04   -.212E+01 0.116E+01 -.217E+01
   -.728E+03 0.153E+03 -.370E+04   0.726E+03 -.153E+03 0.370E+04   0.254E+01 -.524E-01 0.816E+00
   -.139E+03 0.255E+03 -.364E+04   0.139E+03 -.253E+03 0.364E+04   0.816E+00 -.181E+01 -.757E-01
   0.234E+03 0.270E+03 -.370E+04   -.233E+03 -.268E+03 0.370E+04   -.105E+01 -.159E+01 0.274E+00
   0.745E+03 0.299E+03 -.370E+04   -.743E+03 -.299E+03 0.371E+04   -.259E+01 -.285E+00 -.504E+00
   -.666E+03 -.355E+03 -.375E+04   0.662E+03 0.353E+03 0.375E+04   0.500E+01 0.257E+01 -.186E+01
   -.319E+03 -.672E+03 -.367E+04   0.318E+03 0.671E+03 0.367E+04   0.109E+01 0.157E+01 -.355E+00
   -.207E+02 -.791E+03 -.372E+04   0.217E+02 0.790E+03 0.372E+04   -.994E+00 0.170E+01 0.171E+01
   0.333E+03 -.747E+03 -.365E+04   -.332E+03 0.745E+03 0.365E+04   -.851E+00 0.257E+01 -.316E+01
   -.552E+03 0.499E+03 -.370E+04   0.550E+03 -.497E+03 0.371E+04   0.238E+01 -.239E+01 -.317E+01
   -.164E+03 0.735E+03 -.374E+04   0.163E+03 -.734E+03 0.374E+04   0.428E+00 -.122E+01 0.173E+01
   0.153E+03 0.763E+03 -.364E+04   -.152E+03 -.762E+03 0.364E+04   -.121E+01 -.161E+01 -.646E+00
   0.542E+03 0.682E+03 -.368E+04   -.541E+03 -.678E+03 0.368E+04   -.164E+01 -.416E+01 -.532E+00
   0.292E+02 0.130E+02 -.708E+03   -.292E+02 -.130E+02 0.708E+03   -.120E-01 -.813E-01 -.352E+00
   0.662E+02 0.611E+02 -.667E+03   -.662E+02 -.611E+02 0.668E+03   -.733E-01 -.347E-01 -.398E+00
   0.587E+02 0.660E+02 -.235E+04   -.586E+02 -.659E+02 0.235E+04   -.916E-01 -.246E-01 0.630E+01
   0.754E+02 0.314E+02 -.235E+04   -.754E+02 -.312E+02 0.234E+04   -.429E-01 -.165E+00 0.630E+01
   0.535E+02 0.593E+02 -.669E+03   -.535E+02 -.594E+02 0.669E+03   -.588E-02 0.857E-01 -.395E+00
   0.117E+03 0.719E+02 -.572E+03   -.117E+03 -.723E+02 0.572E+03   -.348E+00 0.361E+00 -.319E+00
   0.137E+03 0.868E+02 -.229E+04   -.137E+03 -.871E+02 0.228E+04   -.426E-01 0.255E+00 0.624E+01
   0.174E+03 0.151E+03 -.225E+04   -.174E+03 -.151E+03 0.224E+04   0.783E-01 0.123E+00 0.621E+01
   0.838E+02 0.264E+02 -.617E+03   -.838E+02 -.266E+02 0.617E+03   -.305E-01 0.227E+00 -.331E+00
   0.132E+03 -.204E+02 -.536E+03   -.132E+03 0.200E+02 0.534E+03   0.201E-01 0.358E+00 0.182E+01
   0.164E+03 -.237E+02 -.225E+04   -.165E+03 0.233E+02 0.224E+04   0.132E+01 0.375E+00 0.617E+01
   0.294E+03 0.791E+02 -.208E+04   -.294E+03 -.807E+02 0.207E+04   0.973E-01 0.159E+01 0.585E+01
   0.702E+02 -.478E+02 -.627E+03   -.707E+02 0.478E+02 0.628E+03   0.395E+00 -.182E-01 -.161E+00
   0.941E+02 -.824E+02 -.609E+03   -.945E+02 0.829E+02 0.609E+03   0.298E+00 -.403E+00 -.120E+00
   0.907E+02 -.973E+02 -.232E+04   -.910E+02 0.977E+02 0.231E+04   0.272E+00 -.356E+00 0.628E+01
   0.243E+03 -.145E+03 -.215E+04   -.244E+03 0.145E+03 0.214E+04   0.148E+01 -.554E+00 0.621E+01
   0.383E+02 -.509E+02 -.688E+03   -.384E+02 0.511E+02 0.688E+03   0.120E+00 -.207E+00 -.324E+00
   0.537E+02 -.294E+02 -.687E+03   -.537E+02 0.297E+02 0.688E+03   0.522E-01 -.241E+00 -.330E+00
   0.409E+02 -.320E+02 -.237E+04   -.410E+02 0.322E+02 0.236E+04   0.315E-01 -.184E+00 0.631E+01
   0.113E+03 -.113E+03 -.232E+04   -.113E+03 0.114E+03 0.231E+04   0.336E+00 -.606E+00 0.630E+01
   0.554E+02 0.246E+02 -.666E+03   -.554E+02 -.244E+02 0.666E+03   -.141E-01 -.124E+00 -.372E+00
   0.451E+02 0.987E+02 -.599E+03   -.451E+02 -.983E+02 0.599E+03   0.168E-01 -.356E+00 -.447E+00
   0.116E+03 0.161E+03 -.227E+04   -.115E+03 -.161E+03 0.226E+04   -.139E+00 -.553E-01 0.621E+01
   0.556E+02 0.583E+02 -.230E+04   -.556E+02 -.579E+02 0.230E+04   0.534E-02 -.298E+00 0.627E+01
   0.919E+02 0.110E+03 -.564E+03   -.916E+02 -.110E+03 0.564E+03   -.316E+00 -.225E+00 0.306E+00
   0.616E+02 0.101E+03 -.424E+03   -.613E+02 -.101E+03 0.425E+03   -.248E+00 0.170E-01 -.120E+01
   0.237E+03 0.183E+03 -.196E+04   -.237E+03 -.183E+03 0.195E+04   -.443E+00 0.618E-02 0.458E+01
   0.104E+03 0.283E+03 -.203E+04   -.104E+03 -.283E+03 0.203E+04   -.531E+00 -.140E+00 0.550E+01
   0.121E+03 0.406E+02 -.429E+03   -.121E+03 -.414E+02 0.430E+03   -.390E+00 0.715E+00 -.111E+01
   0.622E+02 -.269E+02 -.365E+03   -.612E+02 0.260E+02 0.366E+03   -.942E+00 0.881E+00 -.733E+00
   0.223E+03 -.475E+02 -.180E+04   -.221E+03 0.454E+02 0.180E+04   -.216E+01 0.204E+01 0.450E+01
   0.942E+02 0.659E+02 -.181E+04   -.934E+02 -.666E+02 0.181E+04   -.779E+00 0.735E+00 0.587E+01
   0.114E+03 -.857E+02 -.472E+03   -.114E+03 0.856E+02 0.471E+03   -.201E+00 0.170E+00 0.136E+01
   0.562E+02 -.124E+03 -.487E+03   -.557E+02 0.124E+03 0.486E+03   -.487E+00 -.456E-01 0.140E+01
   0.206E+03 -.224E+03 -.211E+04   -.207E+03 0.225E+03 0.210E+04   0.144E+01 -.151E+01 0.620E+01
   0.102E+03 -.164E+03 -.179E+04   -.990E+02 0.161E+03 0.178E+04   -.294E+01 0.302E+01 0.521E+01
   0.740E+02 -.910E+02 -.614E+03   -.740E+02 0.915E+02 0.615E+03   -.666E-02 -.449E+00 -.144E+00
   0.373E+02 -.477E+02 -.635E+03   -.372E+02 0.480E+02 0.635E+03   -.643E-01 -.331E+00 -.154E+00
   0.868E+02 -.686E+02 -.232E+04   -.871E+02 0.690E+02 0.232E+04   0.187E+00 -.308E+00 0.630E+01
   0.821E+02 -.228E+03 -.218E+04   -.817E+02 0.229E+03 0.218E+04   -.403E+00 -.150E+01 0.630E+01
[...]
   -.136E+02 0.129E+02 0.194E+04   0.136E+02 -.129E+02 -.194E+04   0.146E-01 -.778E-02 0.360E+01
   -.226E+00 0.145E+02 0.193E+04   0.230E+00 -.145E+02 -.193E+04   -.565E-02 0.112E-01 0.360E+01
   -.275E+02 0.110E+02 0.742E+03   0.274E+02 -.110E+02 -.742E+03   0.764E-01 -.846E-02 0.183E-01
   0.115E+01 -.391E+01 0.736E+03   -.125E+01 0.388E+01 -.737E+03   0.144E+00 0.425E-01 0.127E+00
   -.146E+02 -.259E+01 0.194E+04   0.146E+02 0.258E+01 -.195E+04   0.620E-01 0.161E-01 0.360E+01
   0.724E+00 0.620E+01 0.194E+04   -.754E+00 -.622E+01 -.194E+04   0.414E-01 0.330E-01 0.361E+01
   -.274E+02 -.179E+02 0.741E+03   0.273E+02 0.178E+02 -.741E+03   0.966E-01 0.526E-01 0.271E-01
   -.926E+00 -.244E+02 0.720E+03   0.909E+00 0.244E+02 -.721E+03   0.221E-01 -.325E-01 0.107E+00
   -.129E+02 -.153E+02 0.193E+04   0.129E+02 0.153E+02 -.194E+04   0.422E-01 0.254E-02 0.361E+01
   0.101E+00 -.108E+02 0.194E+04   -.152E+00 0.108E+02 -.194E+04   0.709E-01 0.624E-02 0.363E+01
   -.201E+02 -.230E+02 0.715E+03   0.201E+02 0.231E+02 -.716E+03   0.203E-03 -.499E-01 0.551E-01
   -.191E+01 -.993E+01 0.701E+03   0.190E+01 0.996E+01 -.701E+03   0.106E-01 -.462E-01 0.297E-01
   -.103E+02 -.634E+01 0.192E+04   0.103E+02 0.635E+01 -.192E+04   0.475E-02 -.145E-01 0.360E+01
   -.747E+00 -.129E+02 0.192E+04   0.725E+00 0.130E+02 -.193E+04   0.306E-01 -.344E-01 0.361E+01
   -.562E+00 -.672E+00 0.109E+03   0.497E-13 -.298E-12 -.163E-09   0.563E+00 0.654E+00 -.109E+03

 POSITION                                       TOTAL-FORCE (eV/Angst)
     11.04866      9.45211     18.11142        -0.004823     -0.014154     -0.005984
      8.25224      9.76124     18.33723         0.018658     -0.000874     -0.001980
      5.53999     10.07156     18.29389         0.001389     -0.010588      0.069072
      3.00498     10.29979     17.32920        -0.149152      0.044625      0.023704
     12.55409     11.64423     17.93823         0.090509     -0.066224      0.013568
      9.87590     11.90349     18.29043         0.006899      0.028505      0.003247
      7.21098     12.24799     18.41894        -0.017689      0.006469      0.083943
      4.71620     12.44477     17.32128        -0.093504      0.053740      0.005730
     11.91954      6.94970     18.17349         0.128260      0.016003      0.056575
      9.28722      7.30618     18.17861        -0.004172     -0.033836     -0.014919
      6.64187      7.55502     18.18566        -0.035358      0.007173      0.014330
      3.98486      7.87250     17.83892        -0.127827     -0.022138      0.022661
     13.98486     13.83548     17.38071         0.170375      0.057164      0.018714
     11.41517     14.14561     17.93935         0.022802      0.086777     -0.001259
      8.85440     14.46410     18.32765        -0.031406      0.106919      0.074965
      6.47375     14.50859     17.18086        -0.062609      0.134982      0.013662
     12.45693      4.60004     17.09405         0.126476     -0.089662      0.038268
     10.16301      4.75007     18.32346         0.002313     -0.102921      0.096205
      7.60036      5.04915     17.92783        -0.043777     -0.087730     -0.021623
      4.94928      5.41759     17.67484        -0.076187     -0.149637     -0.000491
      0.00001      0.00034     12.86147         0.000156      0.001973      0.028940
      2.11421      2.11412     12.86236        -0.000719      0.000235      0.035004
      0.00021      2.11363     14.92801        -0.001065     -0.005895      0.181478
      2.11327      0.00089     14.92787        -0.015318      0.007297      0.180625
      0.00048      4.22751     12.86203         0.005028     -0.002993      0.032548
      2.11712      6.34108     12.86427         0.036398      0.004124      0.056808
     21.13724      6.34015     14.92985        -0.036763     -0.019115      0.202481
      2.11119      4.22681     14.93273        -0.046505     -0.013593      0.228409
      0.00052      8.45447     12.86320         0.003351     -0.010949      0.045485
      2.11255     10.56699     12.85617        -0.018675     -0.030609      0.020501
     21.08395     10.56621     14.93421         0.116746     -0.031361      0.210373
      2.10896      8.43248     14.95904        -0.022098     -0.044909      0.092040
     21.13455     12.68366     12.85968        -0.054138      0.007121      0.015737
      2.10963     14.79944     12.85837        -0.056048      0.022761      0.005779
     21.13202     14.80261     14.92782        -0.080761      0.058896      0.191030
      2.05774     12.69729     14.93820         0.082151      0.085981      0.208238
     21.13775     16.91226     12.86079        -0.013644      0.011507      0.023254
      2.11327     19.02658     12.86083        -0.008838      0.016525      0.023878
     21.13778     19.02632     14.92753        -0.017654      0.017142      0.176968
      2.10442     16.92170     14.92726        -0.077123      0.084892      0.194385
      4.22772      0.00115     12.86165        -0.003676      0.011170      0.028819
      6.34156      2.11720     12.86412        -0.001135      0.036052      0.056823
      4.22808      2.11056     14.93082         0.000831     -0.062877      0.211174
      6.34141      0.00200     14.92857        -0.005010      0.028944      0.190631
      4.23103      4.23040     12.86237         0.038726      0.031964      0.047432
      6.34326      6.34170     12.86546         0.012569     -0.001768      0.052025
      4.23228      6.34347     14.98208         0.019080      0.018661      0.073859
      6.34544      4.22948     14.97768         0.009857      0.006589      0.077772
      4.23099      8.44834     12.86063         0.026110     -0.072606      0.007599
      6.35211     10.56023     12.85754         0.080254     -0.067395     -0.013164
      4.28791     10.55011     14.92702        -0.077946     -0.126297      0.151829
      6.35349      8.44732     14.97205         0.045618     -0.032046      0.097268
      4.22738     12.68586     12.85387        -0.009204      0.039869     -0.018164
      6.34468     14.80031     12.85193         0.030156      0.040689     -0.029576
      4.16871     14.85363     14.92815         0.072662     -0.102024      0.192377
      6.40661     12.62516     14.93223        -0.068721      0.133517      0.195261
      4.22710     16.91590     12.85814        -0.014178      0.057566      0.005460
      6.34199     19.02936     12.85745         0.001309      0.052602     -0.000024
      4.22344     19.03072     14.92738        -0.056649      0.070045      0.185008
      6.34369     16.97352     14.92520         0.015060     -0.057197      0.166752
[...]
     19.02497      6.34166     10.77222         0.007020      0.009380     -0.105710
     16.91108      6.34166      8.65833         0.004012     -0.002162     -0.384264
     19.02497      4.22777      8.65833        -0.001622      0.003149     -0.384978
     16.91108      8.45554     10.77222         0.023186     -0.002893     -0.113617
     19.02497     10.56943     10.77222         0.045762      0.012663     -0.095164
     16.91108     10.56943      8.65833         0.017326      0.004549     -0.385525
     19.02497      8.45554      8.65833         0.011520      0.009228     -0.382772
     16.91108     12.68331     10.77222         0.029313      0.016307     -0.109573
     19.02497     14.79720     10.77222         0.005425     -0.009786     -0.086980
     16.91108     14.79720      8.65833         0.011687      0.000733     -0.382432
     19.02497     12.68331      8.65833         0.019824      0.001763     -0.377331
     16.91108     16.91108     10.77222        -0.000343     -0.015190     -0.095695
     19.02497     19.02497     10.77222         0.003086     -0.013807     -0.110611
     16.91108     19.02497      8.65833         0.001296     -0.004037     -0.385231
     19.02497     16.91108      8.65833         0.008455     -0.009533     -0.382833
    total drift:                                0.000590     -0.017830     -0.062867

  FREE ENERGIE OF THE ION-ELECTRON SYSTEM (eV)
  free  energy   TOTEN  =     -1658.02640613 eV

  energy  without entropy=    -1658.02640613  energy(sigma->0) =    -1658.02640613