 vasp.6.3.0 20Jan22 (build Apr  1 2022 16:44:48) complex
 executed on        HPECrayEX_GCC date 2023.01.09  18:00:45

 INCAR:
   SYSTEM = MgO-rocksalt
   ISMEAR = 0
   SIGMA = 0.05
   EDIFF = 1E-6
   ALGO = ALL
   ISTART = 0
   IBRION = -1
   NSW = 0
   ISYM = 2
   DIPOL = 0.5 0.5 0.5
   IDIPOL = 3
   LDIPOL = .TRUE.
   GGA = PS
   ENCUT = 520
   PREC = Accurate
   LASPH = .TRUE.
   LREAL = Auto
   ISPIN = 1
   NELM = 200
   NELMIN = 8
   NCORE = 4
   KPAR = 2
   LWAVE = .FALSE.
   LCHARG = .FALSE.

 POTCAR:    PAW_PBE Ag 02Apr2005
 POTCAR:    PAW_PBE Mg_pv 13Apr2007
 POTCAR:    PAW_PBE O 08Apr2002
 POTCAR:    PAW_PBE Ag 02Apr2005
   VRHFIN =Ag : s1 d10

   TITEL  = PAW_PBE Ag 02Apr2005
   POMASS =  107.868; ZVAL   =   11.000    mass and valenz
   ENMAX  =  249.844; ENMIN  =  187.383 eV

   TITEL  = PAW_PBE Mg_pv 13Apr2007
   POMASS =   24.305; ZVAL   =    8.000    mass and valenz
   ENMAX  =  403.929; ENMIN  =  302.947 eV

   TITEL  = PAW_PBE O 08Apr2002
   POMASS =   16.000; ZVAL   =    6.000    mass and valenz
   ENMAX  =  400.000; ENMIN  =  300.000 eV

 Optimization of the real space projectors (new method)

 maximal supplied QI-value         = 15.12
 optimisation between [QCUT,QGAM] = [ 11.64, 23.28] = [ 37.95,151.78] Ry
 Optimized for a Real-space Cutoff    1.45 Angstroem

   l    n(q)    QCUT    max X(q) W(low)/X(q) W(high)/X(q)  e(spline)
   2      9    11.641    53.897    0.22E-03    0.42E-04    0.28E-06
   2      9    11.641    52.416    0.23E-03    0.44E-04    0.29E-06
   0     10    11.641   122.045    0.51E-04    0.25E-04    0.16E-06
   0     10    11.641    73.629    0.49E-04    0.24E-04    0.16E-06
   1     10    11.641    15.255    0.99E-04    0.55E-04    0.11E-06
   1     10    11.641     9.562    0.81E-04    0.47E-04    0.95E-07
 Optimization of the real space projectors (new method)

[...]

   l    n(q)    QCUT    max X(q) W(low)/X(q) W(high)/X(q)  e(spline)
   1      8    11.527     2.974    0.44E-04    0.56E-04    0.12E-06
   1      8    11.527     4.279    0.12E-03    0.12E-03    0.26E-06
   0      9    11.527    16.381    0.46E-04    0.64E-04    0.78E-07
   0      9    11.527     5.611    0.26E-04    0.43E-04    0.55E-07
   2      8    11.527     4.652    0.22E-03    0.72E-04    0.47E-07
 Optimization of the real space projectors (new method)

 maximal supplied QI-value         = 24.76
 optimisation between [QCUT,QGAM] = [ 11.64, 23.27] = [ 37.91,151.63] Ry
 Optimized for a Real-space Cutoff    1.14 Angstroem

   l    n(q)    QCUT    max X(q) W(low)/X(q) W(high)/X(q)  e(spline)
   0      8    11.635    20.381    0.10E-03    0.33E-03    0.24E-06
   0      8    11.635    15.268    0.11E-03    0.35E-03    0.26E-06
   1      7    11.635     5.964    0.24E-03    0.31E-03    0.30E-06
   1      7    11.635     5.382    0.22E-03    0.25E-03    0.26E-06
|               ----> ADVICE to this user running VASP <----                  |
|     You enforced a specific xc type in the INCAR file but a different       |
|     type was found in the POTCAR file.                                      |
|     I HOPE YOU KNOW WHAT YOU ARE DOING!                                     |

  PAW_PBE Ag 02Apr2005                  :
  PAW_PBE Mg_pv 13Apr2007               :
  PAW_PBE O 08Apr2002                   :

 POSCAR: Ag Mg  O
  positions in direct lattice
  velocities in cartesian coordinates
 exchange correlation table for  LEXCH =       14
   RHO(1)=    0.500       N(1)  =     2000
   RHO(2)=  100.500       N(2)  =     4000

 ion  position               nearest neighbor table
   1  0.404  0.596  0.628-   2 2.63   4 2.74 157 2.77
   2  0.317  0.683  0.613- 138 2.50   1 2.63  59 3.04  40 3.04
   3  0.583  0.417  0.613- 173 2.50   4 2.63  75 3.04  56 3.04
   4  0.496  0.504  0.628-   3 2.63   1 2.74 154 2.77
   5  0.000  0.000  0.407- 107 2.11 108 2.11 123 2.11 188 2.11 105 2.11
   6  0.100  0.100  0.407- 107 2.11 108 2.11 112 2.11 127 2.11 106 2.11
   7  0.000  0.100  0.503- 105 2.11 106 2.11 109 2.11 186 2.11 107 2.11
   8  0.100  0.000  0.503- 105 2.11 106 2.11 122 2.11 125 2.11 108 2.11
   9  0.000  0.200  0.407- 111 2.11 107 2.11 112 2.11 192 2.11 109 2.11
  10  0.100  0.300  0.407- 112 2.11 111 2.11 116 2.11 131 2.11 110 2.11
  11  0.000  0.300  0.503- 109 2.11 110 2.11 113 2.11 190 2.11 111 2.11
  12  0.100  0.200  0.503- 110 2.11 109 2.11 106 2.11 129 2.11 112 2.11
  13  0.000  0.400  0.407- 111 2.11 115 2.11 116 2.11 196 2.11 113 2.11
  14  0.100  0.500  0.407- 115 2.11 116 2.11 120 2.11 135 2.11 114 2.11
  15  0.000  0.500  0.503- 113 2.11 114 2.11 117 2.11 194 2.11 115 2.11
  16  0.100  0.400  0.503- 110 2.11 113 2.11 114 2.11 133 2.11 116 2.11
  17  0.000  0.600  0.407- 115 2.11 119 2.11 120 2.11 200 2.11 117 2.11
  18  0.100  0.700  0.407- 124 2.11 120 2.11 119 2.11 139 2.11 118 2.11
  19  0.000  0.700  0.503- 121 2.11 118 2.11 117 2.11 198 2.11 119 2.11
  20  0.100  0.600  0.503- 114 2.11 117 2.11 118 2.11 137 2.11 120 2.11
  21  0.000  0.800  0.407- 119 2.11 123 2.11 124 2.11 204 2.11 121 2.11
  22  0.100  0.900  0.407- 108 2.11 123 2.11 124 2.11 143 2.11 122 2.11
  23  0.000  0.900  0.503- 105 2.11 121 2.11 122 2.11 202 2.11 123 2.11
  24  0.100  0.800  0.503- 118 2.11 121 2.11 122 2.11 141 2.11 124 2.11
  25  0.200  0.000  0.407- 128 2.11 127 2.11 108 2.11 143 2.11 125 2.11
  26  0.300  0.100  0.407- 127 2.11 128 2.11 132 2.11 147 2.11 126 2.11
  27  0.200  0.100  0.503- 126 2.11 125 2.11 106 2.11 129 2.11 127 2.11
  28  0.300  0.000  0.503- 125 2.11 126 2.11 142 2.11 145 2.11 128 2.11
  29  0.200  0.200  0.407- 131 2.11 132 2.11 112 2.11 127 2.11 129 2.11
  30  0.300  0.300  0.407- 131 2.11 132 2.11 136 2.11 151 2.11 130 2.11
  31  0.200  0.300  0.503- 129 2.11 130 2.11 110 2.11 133 2.11 131 2.11
  32  0.300  0.200  0.503- 129 2.11 130 2.11 126 2.11 149 2.11 132 2.11
  33  0.200  0.400  0.407- 136 2.11 131 2.11 135 2.11 116 2.11 133 2.11
  34  0.300  0.500  0.407- 135 2.11 136 2.11 140 2.11 155 2.11 134 2.11
  35  0.200  0.500  0.503- 134 2.11 133 2.11 114 2.11 137 2.11 135 2.11
  36  0.300  0.400  0.503- 133 2.11 130 2.11 134 2.11 153 2.11 136 2.11
  37  0.200  0.600  0.407- 140 2.11 135 2.11 139 2.11 120 2.11 137 2.11
  38  0.300  0.700  0.407- 139 2.11 144 2.11 140 2.11 159 2.11 138 2.11
  39  0.200  0.700  0.503- 138 2.11 141 2.11 118 2.11 137 2.11 139 2.11
  40  0.300  0.600  0.503- 137 2.11 134 2.11 138 2.11 157 2.11 140 2.11   2 3.04
  41  0.200  0.800  0.407- 139 2.11 144 2.11 143 2.11 124 2.11 141 2.11
  42  0.300  0.900  0.407- 143 2.11 128 2.11 144 2.11 163 2.11 142 2.11
  43  0.200  0.900  0.503- 142 2.11 125 2.11 141 2.11 122 2.11 143 2.11
  44  0.300  0.800  0.503- 138 2.11 141 2.11 142 2.11 161 2.11 144 2.11
  45  0.400  0.000  0.407- 128 2.11 147 2.11 148 2.11 163 2.11 145 2.11
  46  0.500  0.100  0.407- 147 2.11 148 2.11 152 2.11 167 2.11 146 2.11
  47  0.400  0.100  0.503- 126 2.11 145 2.11 146 2.11 149 2.11 147 2.11
  48  0.500  0.000  0.503- 145 2.11 146 2.11 162 2.11 165 2.11 148 2.11
  49  0.400  0.200  0.407- 151 2.11 147 2.11 132 2.11 152 2.11 149 2.11
  50  0.500  0.300  0.407- 152 2.11 151 2.11 156 2.11 171 2.11 150 2.11
  51  0.400  0.300  0.503- 149 2.11 130 2.11 150 2.11 153 2.11 151 2.11
  52  0.500  0.200  0.503- 150 2.11 149 2.11 146 2.11 169 2.11 152 2.11
  53  0.400  0.400  0.407- 136 2.11 151 2.11 155 2.11 156 2.11 153 2.11
  54  0.500  0.500  0.407- 155 2.11 156 2.11 160 2.11 175 2.11 154 2.11
  55  0.400  0.500  0.503- 134 2.11 153 2.11 154 2.11 157 2.11 155 2.11
  56  0.500  0.400  0.503- 150 2.11 153 2.11 154 2.11 173 2.11 156 2.11   3 3.04
  57  0.400  0.600  0.407- 140 2.11 155 2.11 159 2.11 160 2.11 157 2.11
  58  0.500  0.700  0.407- 164 2.11 160 2.11 159 2.11 179 2.11 158 2.11
  59  0.400  0.700  0.503- 161 2.11 157 2.11 158 2.11 138 2.11 159 2.11   2 3.04
  60  0.500  0.600  0.503- 154 2.11 157 2.11 158 2.11 177 2.11 160 2.11
[...]
 190  0.900  0.300  0.503-  92 2.11  91 2.11  11 2.11  96 2.11  90 2.11
 191  0.800  0.300  0.407-  70 2.11  89 2.11  90 2.11  93 2.11  91 2.11
 192  0.900  0.200  0.407-  90 2.11  86 2.11  89 2.11   9 2.11  92 2.11
 193  0.800  0.400  0.503-  76 2.11  91 2.11  95 2.11  96 2.11  93 2.11
 194  0.900  0.500  0.503-  15 2.11  95 2.11  96 2.11 100 2.11  94 2.11
 195  0.800  0.500  0.407-  74 2.11  93 2.11  94 2.11  97 2.11  95 2.11
 196  0.900  0.400  0.407-  13 2.11  90 2.11  93 2.11  94 2.11  96 2.11
 197  0.800  0.600  0.503-  80 2.11  95 2.11  99 2.11 100 2.11  97 2.11
 198  0.900  0.700  0.503- 104 2.11  99 2.11 100 2.11  19 2.11  98 2.11
 199  0.800  0.700  0.407-  78 2.11 101 2.11  98 2.11  97 2.11  99 2.11
 200  0.900  0.600  0.407-  17 2.11  94 2.11  97 2.11  98 2.11 100 2.11
 201  0.800  0.800  0.503-  84 2.11  99 2.11 103 2.11 104 2.11 101 2.11
 202  0.900  0.900  0.503-  23 2.11  88 2.11 103 2.11 104 2.11 102 2.11
 203  0.800  0.900  0.407-  82 2.11  85 2.11 101 2.11 102 2.11 103 2.11
 204  0.900  0.800  0.407-  98 2.11  21 2.11 101 2.11 102 2.11 104 2.11

  LATTYP: Found a simple tetragonal cell.
 ALAT       =    21.1388521970
 C/A-ratio  =     1.0461251639

  Lattice vectors:

 A1 = (  21.1388521970,   0.0000000000,   0.0000000000)
 A2 = (   0.0000000000,  21.1388521970,   0.0000000000)
 A3 = (   0.0000000000,   0.0000000000,  22.1138852197)

Analysis of symmetry for initial positions (statically):
 Subroutine PRICEL returns:
 Original cell was already a primitive cell.

 Routine SETGRP: Setting up the symmetry group for a
 simple tetragonal supercell.

 Subroutine GETGRP returns: Found  2 space group operations
 (whereof  1 operations were pure point group operations)
 out of a pool of 16 trial point group operations.

The static configuration has the point symmetry C_1 .
 The point group associated with its full space group is C_1h.

Analysis of symmetry for dynamics (positions and initial velocities):
 Subroutine PRICEL returns:
 Original cell was already a primitive cell.

[...]

The dynamic configuration has the point symmetry C_1 .
 The point group associated with its full space group is C_1h.

Analysis of constrained symmetry for selective dynamics:
 Subroutine PRICEL returns:
 Original cell was already a primitive cell.

 Routine SETGRP: Setting up the symmetry group for a
 simple tetragonal supercell.

 Subroutine GETGRP returns: Found  2 space group operations
 (whereof  1 operations were pure point group operations)
 out of a pool of 16 trial point group operations.

The constrained configuration has the point symmetry C_1 .
 The point group associated with its full space group is C_1h.

 Subroutine INISYM returns: Found  2 space group operations
 (whereof  1 operations are pure point group operations),
 and found     1 'primitive' translations

                                     Primitive cell

  volume of cell :    9881.6133

  direct lattice vectors                    reciprocal lattice vectors
    21.138852197  0.000000000  0.000000000     0.047306258  0.000000000  0.000000000
     0.000000000 21.138852197  0.000000000     0.000000000  0.047306258  0.000000000
     0.000000000  0.000000000 22.113885220     0.000000000  0.000000000  0.045220457

  length of vectors
    21.138852197 21.138852197 22.113885220     0.047306258  0.047306258  0.045220457

[...]
     52     -42.8510      2.00000
     53     -42.8469      2.00000
     54     -42.8468      2.00000
     55     -42.8452      2.00000
     56     -42.8450      2.00000
     57     -42.8450      2.00000
     58     -42.8433      2.00000
     59     -42.8411      2.00000
     60     -42.8397      2.00000
[...]
    946       6.2038      0.00000
    947       6.2516      0.00000
    948       6.2536      0.00000
    949       6.3102      0.00000
    950       6.3525      0.00000
    951       6.3937      0.00000
    952       6.4597      0.00000
    953       6.5171      0.00000
    954       6.5667      0.00000
    955       6.6378      0.00000
    956       6.7208      0.00000
    957       6.7314      0.00000
    958       6.7721      0.00000
    959       6.8018      0.00000
    960       6.8471      0.00000

 soft charge-density along one line, spin component           1
         0         1         2         3         4         5         6         7         8         9
 total charge-density along one line

------------------------ aborting loop because EDIFF is reached ----------------------------------------

  FORCE on cell =-STRESS in cart. coord.  units (eV):
  Direction    XX          YY          ZZ          XY          YZ          ZX
  Alpha Z  1401.13727  1401.13727  1401.13727
  Ewald  484692.10145484692.10210************ -1322.16574    -0.00388    -0.00457
  Hartree513932.44562513932.44596************ -1069.17237     0.00094     0.00099
  E(xc)   -7725.64714 -7725.64714 -7743.37066    -0.47218     0.00004     0.00004
  Local  ************************************  2383.75519     0.00091     0.00137
  n-local -8843.35055 -8843.35056 -8962.75105     1.45435    -0.00019    -0.00030
  augment  3582.36242  3582.36243  3525.79343     1.70608     0.00111     0.00114
  Kinetic 23178.24404 23178.24411 23450.29198     5.71481     0.00082     0.00083
  Fock        0.00000     0.00000     0.00000     0.00000     0.00000     0.00000
  Total    -196.81559  -196.81559    -9.13678     0.82013    -0.00036    -0.00036
  in kB     -31.91113   -31.91113    -1.48141     0.13297    -0.00006    -0.00006

 VOLUME and BASIS-vectors are now :
  energy-cutoff  :      520.00
  volume of cell :     9881.61
      direct lattice vectors                 reciprocal lattice vectors
    21.138852197  0.000000000  0.000000000     0.047306258  0.000000000  0.000000000
     0.000000000 21.138852197  0.000000000     0.000000000  0.047306258  0.000000000
     0.000000000  0.000000000 22.113885220     0.000000000  0.000000000  0.045220457

  length of vectors
    21.138852197 21.138852197 22.113885220     0.047306258  0.047306258  0.045220457

 FORCES acting on ions:
    Electron-Ion                     Ewald-Force                    Non-Local-Force
   0.255E+02 -.255E+02 -.207E+04   -.273E+02 0.273E+02 0.207E+04   0.183E+01 -.184E+01 0.116E+00
   0.235E+03 -.235E+03 -.209E+04   -.231E+03 0.231E+03 0.209E+04   -.401E+01 0.401E+01 -.125E+00
   -.235E+03 0.235E+03 -.209E+04   0.231E+03 -.231E+03 0.209E+04   0.401E+01 -.401E+01 -.125E+00
   -.255E+02 0.255E+02 -.207E+04   0.273E+02 -.273E+02 0.207E+04   -.184E+01 0.183E+01 0.116E+00
   0.489E+01 -.489E+01 0.938E+03   -.492E+01 0.492E+01 -.930E+03   0.206E-01 -.206E-01 -.770E+01
   0.905E+01 0.161E+01 0.939E+03   -.905E+01 -.156E+01 -.931E+03   -.303E-02 -.386E-01 -.771E+01
   0.313E+01 0.314E+01 -.919E+03   -.312E+01 -.312E+01 0.911E+03   -.146E-01 -.146E-01 0.764E+01
   0.146E+02 -.117E+02 -.916E+03   -.146E+02 0.118E+02 0.908E+03   0.172E-01 -.699E-01 0.764E+01
   0.161E+01 0.905E+01 0.939E+03   -.156E+01 -.905E+01 -.931E+03   -.386E-01 -.303E-02 -.771E+01
   0.143E+02 0.157E+02 0.945E+03   -.142E+02 -.157E+02 -.937E+03   -.316E-01 0.194E-02 -.772E+01
   0.211E+01 0.156E+02 -.915E+03   -.203E+01 -.156E+02 0.907E+03   -.631E-01 -.143E-02 0.764E+01
   0.130E+02 0.130E+02 -.916E+03   -.129E+02 -.129E+02 0.908E+03   -.281E-01 -.281E-01 0.764E+01
   0.445E+01 0.112E+02 0.946E+03   -.438E+01 -.112E+02 -.938E+03   -.507E-01 0.122E-01 -.771E+01
   0.289E+02 0.120E+02 0.958E+03   -.289E+02 -.121E+02 -.950E+03   0.128E-01 0.779E-01 -.773E+01
   0.127E+02 0.836E+01 -.909E+03   -.127E+02 -.838E+01 0.901E+03   -.201E-01 0.180E-01 0.763E+01
   0.305E+02 0.240E+02 -.907E+03   -.304E+02 -.241E+02 0.899E+03   -.669E-01 0.282E-01 0.763E+01
   0.128E+02 -.212E+01 0.950E+03   -.129E+02 0.210E+01 -.942E+03   0.555E-01 0.217E-01 -.772E+01
   0.337E+02 -.125E+02 0.963E+03   -.340E+02 0.125E+02 -.955E+03   0.237E+00 0.313E-01 -.773E+01
   0.225E+02 -.126E+02 -.909E+03   -.226E+02 0.125E+02 0.901E+03   0.102E+00 0.152E-01 0.764E+01
   0.606E+02 0.530E+01 -.892E+03   -.608E+02 -.541E+01 0.884E+03   0.113E+00 0.881E-01 0.762E+01
   0.120E+02 -.133E+02 0.945E+03   -.121E+02 0.133E+02 -.937E+03   0.102E+00 -.103E-01 -.771E+01
   0.168E+02 -.168E+02 0.946E+03   -.169E+02 0.169E+02 -.938E+03   0.726E-01 -.726E-01 -.770E+01
   0.117E+02 -.146E+02 -.916E+03   -.118E+02 0.146E+02 0.908E+03   0.699E-01 -.172E-01 0.764E+01
   0.428E+02 -.304E+02 -.901E+03   -.431E+02 0.304E+02 0.893E+03   0.250E+00 -.183E-01 0.765E+01
   0.133E+02 -.120E+02 0.945E+03   -.133E+02 0.122E+02 -.937E+03   0.103E-01 -.102E+00 -.771E+01
   0.112E+02 0.445E+01 0.946E+03   -.112E+02 -.438E+01 -.938E+03   0.122E-01 -.507E-01 -.771E+01
   0.156E+02 0.211E+01 -.915E+03   -.156E+02 -.203E+01 0.907E+03   -.143E-02 -.631E-01 0.764E+01
   0.126E+02 -.225E+02 -.909E+03   -.125E+02 0.226E+02 0.901E+03   -.153E-01 -.102E+00 0.764E+01
   0.157E+02 0.143E+02 0.945E+03   -.157E+02 -.142E+02 -.937E+03   0.194E-02 -.316E-01 -.772E+01
   0.263E+02 0.335E+02 0.964E+03   -.264E+02 -.335E+02 -.956E+03   0.632E-01 -.847E-02 -.776E+01
   0.333E+02 0.333E+02 -.906E+03   -.333E+02 -.333E+02 0.898E+03   -.367E-01 -.367E-01 0.762E+01
   0.240E+02 0.305E+02 -.907E+03   -.241E+02 -.304E+02 0.899E+03   0.282E-01 -.669E-01 0.763E+01
   0.335E+02 0.264E+02 0.964E+03   -.335E+02 -.264E+02 -.956E+03   -.847E-02 0.632E-01 -.776E+01
   0.466E+02 0.293E+02 0.101E+04   -.467E+02 -.296E+02 -.101E+04   0.694E-01 0.272E+00 -.792E+01
   0.816E+02 0.439E+02 -.871E+03   -.814E+02 -.441E+02 0.863E+03   -.133E+00 0.202E+00 0.755E+01
   0.719E+02 0.719E+02 -.864E+03   -.718E+02 -.718E+02 0.856E+03   -.609E-01 -.609E-01 0.755E+01
   0.514E+02 0.399E+01 0.994E+03   -.516E+02 -.427E+01 -.986E+03   0.157E+00 0.213E+00 -.770E+01
   0.340E+02 -.340E+02 0.103E+04   -.340E+02 0.339E+02 -.102E+04   -.194E-01 0.192E-01 -.625E+01
   0.116E+03 -.393E+02 -.827E+03   -.117E+03 0.391E+02 0.819E+03   0.113E+01 0.160E+00 0.760E+01
   0.123E+03 0.489E+02 -.709E+03   -.123E+03 -.506E+02 0.703E+03   0.115E+00 0.125E+01 0.633E+01
   0.324E+02 -.324E+02 0.974E+03   -.326E+02 0.326E+02 -.966E+03   0.141E+00 -.141E+00 -.758E+01
   0.125E+02 -.337E+02 0.963E+03   -.125E+02 0.340E+02 -.955E+03   -.313E-01 -.237E+00 -.773E+01
   0.304E+02 -.428E+02 -.901E+03   -.304E+02 0.431E+02 0.893E+03   0.183E-01 -.250E+00 0.765E+01
   0.393E+02 -.116E+03 -.827E+03   -.391E+02 0.117E+03 0.819E+03   -.160E+00 -.113E+01 0.760E+01
   0.213E+01 -.128E+02 0.950E+03   -.210E+01 0.129E+02 -.942E+03   -.218E-01 -.554E-01 -.772E+01
   -.213E+01 0.128E+02 0.950E+03   0.210E+01 -.129E+02 -.942E+03   0.217E-01 0.555E-01 -.772E+01
   0.835E+01 0.127E+02 -.909E+03   -.838E+01 -.127E+02 0.901E+03   0.180E-01 -.201E-01 0.763E+01
   -.836E+01 -.128E+02 -.909E+03   0.838E+01 0.127E+02 0.901E+03   -.180E-01 0.202E-01 0.763E+01
   0.120E+02 0.289E+02 0.958E+03   -.121E+02 -.289E+02 -.950E+03   0.779E-01 0.128E-01 -.773E+01
   0.399E+01 0.514E+02 0.994E+03   -.427E+01 -.516E+02 -.986E+03   0.213E+00 0.157E+00 -.770E+01
   0.439E+02 0.816E+02 -.871E+03   -.441E+02 -.814E+02 0.863E+03   0.202E+00 -.133E+00 0.755E+01
   0.530E+01 0.606E+02 -.892E+03   -.541E+01 -.608E+02 0.884E+03   0.881E-01 0.113E+00 0.762E+01
   0.293E+02 0.466E+02 0.101E+04   -.296E+02 -.467E+02 -.101E+04   0.272E+00 0.694E-01 -.792E+01
   -.111E+02 0.111E+02 0.106E+04   0.109E+02 -.109E+02 -.105E+04   0.154E+00 -.154E+00 -.746E+01
   0.858E+02 0.858E+02 -.704E+03   -.863E+02 -.863E+02 0.697E+03   0.414E+00 0.414E+00 0.679E+01
   0.489E+02 0.123E+03 -.709E+03   -.506E+02 -.123E+03 0.703E+03   0.125E+01 0.115E+00 0.633E+01
   0.111E+02 -.111E+02 0.106E+04   -.109E+02 0.109E+02 -.105E+04   -.154E+00 0.154E+00 -.746E+01
   -.293E+02 -.466E+02 0.101E+04   0.296E+02 0.467E+02 -.101E+04   -.272E+00 -.694E-01 -.792E+01
   -.488E+02 -.123E+03 -.709E+03   0.506E+02 0.123E+03 0.703E+03   -.125E+01 -.115E+00 0.632E+01
   -.857E+02 -.857E+02 -.704E+03   0.863E+02 0.863E+02 0.697E+03   -.415E+00 -.415E+00 0.679E+01
[...]
   -.193E+02 0.147E+02 0.718E+03   0.194E+02 -.148E+02 -.722E+03   -.166E+00 0.626E-01 0.358E+01
   -.621E+01 0.833E+01 0.707E+03   0.625E+01 -.834E+01 -.711E+03   -.604E-01 0.305E-01 0.354E+01
   -.458E+02 0.136E+02 -.670E+03   0.460E+02 -.135E+02 0.674E+03   -.171E+00 -.707E-01 -.369E+01
   -.151E+02 0.147E+01 -.682E+03   0.151E+02 -.144E+01 0.686E+03   -.399E-01 -.339E-01 -.367E+01
   -.261E+02 -.706E+00 0.724E+03   0.261E+02 0.794E+00 -.728E+03   -.103E+00 -.112E+00 0.353E+01
   -.107E+02 0.733E+01 0.713E+03   0.107E+02 -.732E+01 -.717E+03   -.832E-01 -.117E-01 0.354E+01
   -.345E+02 -.150E+02 -.676E+03   0.345E+02 0.151E+02 0.680E+03   -.859E-02 -.946E-01 -.370E+01
   -.431E+01 -.110E+02 -.686E+03   0.428E+01 0.110E+02 0.690E+03   0.435E-01 -.694E-02 -.366E+01
   -.157E+02 -.126E+02 0.715E+03   0.157E+02 0.126E+02 -.719E+03   0.246E-01 -.309E-01 0.352E+01
   -.650E+01 -.442E+01 0.713E+03   0.649E+01 0.444E+01 -.717E+03   0.502E-02 -.246E-01 0.353E+01
   -.145E+02 -.157E+02 -.686E+03   0.144E+02 0.157E+02 0.690E+03   0.439E-01 0.154E-01 -.366E+01
   -.118E+01 -.845E+01 -.690E+03   0.115E+01 0.845E+01 0.694E+03   0.381E-01 0.471E-02 -.364E+01
   -.765E+01 -.764E+01 0.707E+03   0.763E+01 0.763E+01 -.711E+03   0.198E-01 0.198E-01 0.353E+01
   -.153E+01 -.923E+01 0.708E+03   0.148E+01 0.924E+01 -.712E+03   0.481E-01 -.416E-02 0.354E+01
   -.726E+00 0.726E+00 0.141E+02   0.193E-11 0.134E-11 0.728E-11   -.517E-03 -.517E-03 -.145E+02

 POSITION                                       TOTAL-FORCE (eV/Angst)
      8.54453     12.59533     13.88470        -0.029550      0.029148     -0.112638
      6.69899     14.44084     13.56395         0.126403     -0.126992     -0.138581
     12.32695      8.81289     13.56395        -0.126992      0.126403     -0.138581
     10.48144     10.65841     13.88470         0.029148     -0.029550     -0.112638
      0.00000      0.00000      9.00000        -0.005768      0.005773      0.447285
      2.11389      2.11389      9.00000         0.000741      0.010313      0.448721
      0.00000      2.11389     11.11389         0.003847      0.003847     -0.425533
      2.11389      0.00000     11.11389        -0.005065      0.018591     -0.424572
      0.00000      4.22777      9.00000         0.010313      0.000741      0.448721
      2.11389      6.34166      9.00000         0.008598     -0.000109      0.451940
      0.00000      6.34166     11.11389         0.016741      0.000644     -0.422986
      2.11389      4.22777     11.11389         0.007775      0.007775     -0.423416
      0.00000      8.45554      9.00000         0.013110     -0.003114      0.450257
      2.11389     10.56943      9.00000        -0.005088     -0.022131      0.452849
      0.00000     10.56943     11.11389         0.005660     -0.004872     -0.418519
      2.11389      8.45554     11.11389         0.018513     -0.006391     -0.414986
      0.00000     12.68331      9.00000        -0.014866     -0.006509      0.450616
      2.11389     14.79720      9.00000        -0.060730     -0.009325      0.450204
      0.00000     14.79720     11.11389        -0.026532     -0.004646     -0.420003
      2.11389     12.68331     11.11389        -0.030125     -0.025469     -0.403846
      0.00000     16.91108      9.00000        -0.026826      0.003110      0.448602
      2.11389     19.02497      9.00000        -0.021294      0.021299      0.443077
      0.00000     19.02497     11.11389        -0.018586      0.005063     -0.424570
      2.11389     16.91108     11.11389        -0.067662      0.005867     -0.419715
      4.22777      0.00000      9.00000        -0.003101      0.026819      0.448599
      6.34166      2.11389      9.00000        -0.003114      0.013110      0.450257
      4.22777      2.11389     11.11389         0.000644      0.016741     -0.422986
      6.34166      0.00000     11.11389         0.004665      0.026520     -0.420004
      4.22777      4.22777      9.00000        -0.000109      0.008598      0.451940
      6.34166      6.34166      9.00000        -0.015556      0.002722      0.463456
      4.22777      6.34166     11.11389         0.011276      0.011276     -0.413470
      6.34166      4.22777     11.11389        -0.006391      0.018513     -0.414986
      4.22777      8.45554      9.00000         0.002722     -0.015556      0.463456
      6.34166     10.56943      9.00000        -0.018305     -0.071432      0.493714
      4.22777     10.56943     11.11389         0.046504     -0.045549     -0.360652
      6.34166      8.45554     11.11389         0.024675      0.024675     -0.359682
      4.22777     12.68331      9.00000        -0.050425     -0.068542      0.432547
      6.34166     14.79720      9.00000         0.006288     -0.006233      0.095192
      4.22777     14.79720     11.11389        -0.371875     -0.054016     -0.438046
      6.34166     12.68331     11.11389        -0.037760     -0.494199     -0.151548
      4.22777     16.91108      9.00000        -0.048092      0.048112      0.404132
      6.34166     19.02497      9.00000         0.009339      0.060725      0.450208
      4.22777     19.02497     11.11389        -0.005848      0.067662     -0.419716
      6.34166     16.91108     11.11389         0.054052      0.371933     -0.438085
      8.45554      0.00000      9.00000         0.006522      0.014861      0.450625
     10.56943      2.11389      9.00000        -0.006509     -0.014866      0.450616
      8.45554      2.11389     11.11389        -0.004872      0.005660     -0.418519
     10.56943      0.00000     11.11389         0.004885     -0.005680     -0.418514
      8.45554      4.22777      9.00000        -0.022131     -0.005088      0.452849
     10.56943      6.34166      9.00000        -0.068542     -0.050425      0.432547
      8.45554      6.34166     11.11389        -0.045549      0.046504     -0.360652
     10.56943      4.22777     11.11389        -0.025469     -0.030125     -0.403846
      8.45554      8.45554      9.00000        -0.071432     -0.018305      0.493714
     10.56943     10.56943      9.00000        -0.050414      0.050468      0.345395
      8.45554     10.56943     11.11389        -0.141728     -0.141728     -0.165617
     10.56943      8.45554     11.11389        -0.494199     -0.037760     -0.151548
      8.45554     12.68331      9.00000         0.050468     -0.050414      0.345395
     10.56943     14.79720      9.00000         0.071458      0.018315      0.493757
      8.45554     14.79720     11.11389         0.494555      0.037814     -0.151545
     10.56943     12.68331     11.11389         0.141874      0.141874     -0.165463
[...]
     19.02497      6.34166     11.11389        -0.024104      0.002970      0.389824
     16.91108      6.34166      9.00000        -0.046641      0.017224     -0.406730
     19.02497      4.22777      9.00000        -0.016618      0.008397     -0.415255
     16.91108      8.45554     11.11389        -0.051416     -0.018996      0.381158
     19.02497     10.56943     11.11389        -0.011268     -0.009411      0.384798
     16.91108     10.56943      9.00000        -0.030803     -0.030641     -0.418140
     19.02497      8.45554      9.00000        -0.023182     -0.003241     -0.416624
     16.91108     12.68331     11.11389        -0.003260     -0.026596      0.375036
     19.02497     14.79720     11.11389         0.012016     -0.001816      0.387391
     16.91108     14.79720      9.00000         0.006544     -0.008703     -0.422208
     19.02497     12.68331      9.00000         0.001315     -0.006721     -0.419180
     16.91108     16.91108     11.11389         0.011978      0.004135      0.386739
     19.02497     19.02497     11.11389         0.010438      0.001255      0.391825
     16.91108     19.02497      9.00000         0.005346      0.005346     -0.417824
     19.02497     16.91108      9.00000         0.013229     -0.001179     -0.417369
    total drift:                               -0.726976      0.725591     -0.436113

  FREE ENERGIE OF THE ION-ELECTRON SYSTEM (eV)
  free  energy   TOTEN  =     -1194.71146666 eV

  energy  without entropy=    -1194.71146666  energy(sigma->0) =    -1194.71146666