 vasp.6.3.0 20Jan22 (build Apr  1 2022 16:44:48) complex
 executed on        HPECrayEX_GCC date 2022.08.15  16:58:35

 INCAR:
   SYSTEM = MgO-rocksalt
   ISMEAR = 0
   SIGMA = 0.05
   EDIFF = 1E-6
   ALGO = ALL
   ISTART = 0
   IBRION = -1
   NSW = 0
   ISYM = 2
   DIPOL = 0.5 0.5 0.5
   IDIPOL = 3
   LDIPOL = .TRUE.
   GGA = PE
   ENCUT = 520
   PREC = Accurate
   LASPH = .TRUE.
   LREAL = Auto
   ISPIN = 1
   NELM = 200
   NELMIN = 8
   NCORE = 4
   KPAR = 2
   LWAVE = .FALSE.
   LCHARG = .FALSE.

 POTCAR:    PAW_PBE Ag 02Apr2005
 POTCAR:    PAW_PBE Mg_pv 13Apr2007
 POTCAR:    PAW_PBE O 08Apr2002
 POTCAR:    PAW_PBE Ag 02Apr2005
   VRHFIN =Ag : s1 d10

   TITEL  = PAW_PBE Ag 02Apr2005
   POMASS =  107.868; ZVAL   =   11.000    mass and valenz
   ENMAX  =  249.844; ENMIN  =  187.383 eV

   TITEL  = PAW_PBE Mg_pv 13Apr2007
   POMASS =   24.305; ZVAL   =    8.000    mass and valenz
   ENMAX  =  403.929; ENMIN  =  302.947 eV

   TITEL  = PAW_PBE O 08Apr2002
   POMASS =   16.000; ZVAL   =    6.000    mass and valenz
   ENMAX  =  400.000; ENMIN  =  300.000 eV

 Optimization of the real space projectors (new method)

 maximal supplied QI-value         = 15.12
 optimisation between [QCUT,QGAM] = [ 11.64, 23.28] = [ 37.95,151.78] Ry
 Optimized for a Real-space Cutoff    1.45 Angstroem

   l    n(q)    QCUT    max X(q) W(low)/X(q) W(high)/X(q)  e(spline)
   2      9    11.641    53.897    0.22E-03    0.42E-04    0.28E-06
   2      9    11.641    52.416    0.23E-03    0.44E-04    0.29E-06
   0     10    11.641   122.045    0.51E-04    0.25E-04    0.16E-06
   0     10    11.641    73.629    0.49E-04    0.24E-04    0.16E-06
   1     10    11.641    15.255    0.99E-04    0.55E-04    0.11E-06
   1     10    11.641     9.562    0.81E-04    0.47E-04    0.95E-07
 Optimization of the real space projectors (new method)

[...]

   l    n(q)    QCUT    max X(q) W(low)/X(q) W(high)/X(q)  e(spline)
   1      8    11.527     2.974    0.44E-04    0.56E-04    0.12E-06
   1      8    11.527     4.279    0.12E-03    0.12E-03    0.26E-06
   0      9    11.527    16.381    0.46E-04    0.64E-04    0.78E-07
   0      9    11.527     5.611    0.26E-04    0.43E-04    0.55E-07
   2      8    11.527     4.652    0.22E-03    0.72E-04    0.47E-07
 Optimization of the real space projectors (new method)

 maximal supplied QI-value         = 24.76
 optimisation between [QCUT,QGAM] = [ 11.64, 23.27] = [ 37.91,151.63] Ry
 Optimized for a Real-space Cutoff    1.14 Angstroem

   l    n(q)    QCUT    max X(q) W(low)/X(q) W(high)/X(q)  e(spline)
   0      8    11.635    20.381    0.10E-03    0.33E-03    0.24E-06
   0      8    11.635    15.268    0.11E-03    0.35E-03    0.26E-06
   1      7    11.635     5.964    0.24E-03    0.31E-03    0.30E-06
   1      7    11.635     5.382    0.22E-03    0.25E-03    0.26E-06
  PAW_PBE Ag 02Apr2005                  :
  PAW_PBE Mg_pv 13Apr2007               :
  PAW_PBE O 08Apr2002                   :

 POSCAR: Ag Mg  O
  positions in direct lattice
 exchange correlation table for  LEXCH =        8
   RHO(1)=    0.500       N(1)  =     2000
   RHO(2)=  100.500       N(2)  =     4000

 ion  position               nearest neighbor table
   1  0.561  0.500  0.635-   2 2.57  73 3.05
   2  0.439  0.500  0.635-   1 2.57  53 3.05
   3  0.000  0.000  0.407- 105 2.11 106 2.11 121 2.11 186 2.11 103 2.11
   4  0.100  0.100  0.407- 105 2.11 106 2.11 110 2.11 125 2.11 104 2.11
   5  0.000  0.100  0.503- 103 2.11 104 2.11 107 2.11 184 2.11 105 2.11
   6  0.100  0.000  0.503- 103 2.11 104 2.11 120 2.11 123 2.11 106 2.11
   7  0.000  0.200  0.407- 109 2.11 105 2.11 110 2.11 190 2.11 107 2.11
   8  0.100  0.300  0.407- 110 2.11 109 2.11 114 2.11 129 2.11 108 2.11
   9  0.000  0.300  0.503- 107 2.11 108 2.11 111 2.11 188 2.11 109 2.11
  10  0.100  0.200  0.503- 108 2.11 107 2.11 104 2.11 127 2.11 110 2.11
  11  0.000  0.400  0.407- 109 2.11 113 2.11 114 2.11 194 2.11 111 2.11
  12  0.100  0.500  0.407- 113 2.11 114 2.11 118 2.11 133 2.11 112 2.11
  13  0.000  0.500  0.503- 111 2.11 112 2.11 115 2.11 192 2.11 113 2.11
  14  0.100  0.400  0.503- 108 2.11 111 2.11 112 2.11 131 2.11 114 2.11
  15  0.000  0.600  0.407- 113 2.11 117 2.11 118 2.11 198 2.11 115 2.11
  16  0.100  0.700  0.407- 122 2.11 118 2.11 117 2.11 137 2.11 116 2.11
  17  0.000  0.700  0.503- 119 2.11 116 2.11 115 2.11 196 2.11 117 2.11
  18  0.100  0.600  0.503- 112 2.11 115 2.11 116 2.11 135 2.11 118 2.11
  19  0.000  0.800  0.407- 117 2.11 121 2.11 122 2.11 202 2.11 119 2.11
  20  0.100  0.900  0.407- 106 2.11 121 2.11 122 2.11 141 2.11 120 2.11
  21  0.000  0.900  0.503- 103 2.11 119 2.11 120 2.11 200 2.11 121 2.11
  22  0.100  0.800  0.503- 116 2.11 119 2.11 120 2.11 139 2.11 122 2.11
  23  0.200  0.000  0.407- 126 2.11 125 2.11 106 2.11 141 2.11 123 2.11
  24  0.300  0.100  0.407- 125 2.11 126 2.11 130 2.11 145 2.11 124 2.11
  25  0.200  0.100  0.503- 124 2.11 123 2.11 104 2.11 127 2.11 125 2.11
  26  0.300  0.000  0.503- 123 2.11 124 2.11 140 2.11 143 2.11 126 2.11
  27  0.200  0.200  0.407- 129 2.11 130 2.11 110 2.11 125 2.11 127 2.11
  28  0.300  0.300  0.407- 129 2.11 130 2.11 134 2.11 149 2.11 128 2.11
  29  0.200  0.300  0.503- 127 2.11 128 2.11 108 2.11 131 2.11 129 2.11
  30  0.300  0.200  0.503- 127 2.11 128 2.11 124 2.11 147 2.11 130 2.11
  31  0.200  0.400  0.407- 134 2.11 129 2.11 133 2.11 114 2.11 131 2.11
  32  0.300  0.500  0.407- 133 2.11 134 2.11 138 2.11 153 2.11 132 2.11
  33  0.200  0.500  0.503- 132 2.11 131 2.11 112 2.11 135 2.11 133 2.11
  34  0.300  0.400  0.503- 131 2.11 128 2.11 132 2.11 151 2.11 134 2.11
  35  0.200  0.600  0.407- 138 2.11 133 2.11 137 2.11 118 2.11 135 2.11
  36  0.300  0.700  0.407- 137 2.11 142 2.11 138 2.11 157 2.11 136 2.11
  37  0.200  0.700  0.503- 136 2.11 139 2.11 116 2.11 135 2.11 137 2.11
  38  0.300  0.600  0.503- 135 2.11 132 2.11 136 2.11 155 2.11 138 2.11
  39  0.200  0.800  0.407- 137 2.11 142 2.11 141 2.11 122 2.11 139 2.11
  40  0.300  0.900  0.407- 141 2.11 126 2.11 142 2.11 161 2.11 140 2.11
  41  0.200  0.900  0.503- 140 2.11 123 2.11 139 2.11 120 2.11 141 2.11
  42  0.300  0.800  0.503- 136 2.11 139 2.11 140 2.11 159 2.11 142 2.11
  43  0.400  0.000  0.407- 126 2.11 145 2.11 146 2.11 161 2.11 143 2.11
  44  0.500  0.100  0.407- 145 2.11 146 2.11 150 2.11 165 2.11 144 2.11
  45  0.400  0.100  0.503- 124 2.11 143 2.11 144 2.11 147 2.11 145 2.11
  46  0.500  0.000  0.503- 143 2.11 144 2.11 160 2.11 163 2.11 146 2.11
  47  0.400  0.200  0.407- 149 2.11 145 2.11 130 2.11 150 2.11 147 2.11
  48  0.500  0.300  0.407- 150 2.11 149 2.11 154 2.11 169 2.11 148 2.11
  49  0.400  0.300  0.503- 147 2.11 128 2.11 148 2.11 151 2.11 149 2.11
  50  0.500  0.200  0.503- 148 2.11 147 2.11 144 2.11 167 2.11 150 2.11
  51  0.400  0.400  0.407- 134 2.11 149 2.11 153 2.11 154 2.11 151 2.11
  52  0.500  0.500  0.407- 153 2.11 154 2.11 158 2.11 173 2.11 152 2.11
  53  0.400  0.500  0.503- 132 2.11 151 2.11 152 2.11 155 2.11 153 2.11   2 3.05
  54  0.500  0.400  0.503- 148 2.11 151 2.11 152 2.11 171 2.11 154 2.11
  55  0.400  0.600  0.407- 138 2.11 153 2.11 157 2.11 158 2.11 155 2.11
  56  0.500  0.700  0.407- 162 2.11 158 2.11 157 2.11 177 2.11 156 2.11
  57  0.400  0.700  0.503- 159 2.11 155 2.11 156 2.11 136 2.11 157 2.11
  58  0.500  0.600  0.503- 152 2.11 155 2.11 156 2.11 175 2.11 158 2.11
  59  0.400  0.800  0.407- 157 2.11 142 2.11 161 2.11 162 2.11 159 2.11
  60  0.500  0.900  0.407- 146 2.11 161 2.11 162 2.11 181 2.11 160 2.11
[...]
 188  0.900  0.300  0.503-  90 2.11  89 2.11   9 2.11  94 2.11  88 2.11
 189  0.800  0.300  0.407-  68 2.11  87 2.11  88 2.11  91 2.11  89 2.11
 190  0.900  0.200  0.407-  88 2.11  84 2.11  87 2.11   7 2.11  90 2.11
 191  0.800  0.400  0.503-  74 2.11  89 2.11  93 2.11  94 2.11  91 2.11
 192  0.900  0.500  0.503-  13 2.11  93 2.11  94 2.11  98 2.11  92 2.11
 193  0.800  0.500  0.407-  72 2.11  91 2.11  92 2.11  95 2.11  93 2.11
 194  0.900  0.400  0.407-  11 2.11  88 2.11  91 2.11  92 2.11  94 2.11
 195  0.800  0.600  0.503-  78 2.11  93 2.11  97 2.11  98 2.11  95 2.11
 196  0.900  0.700  0.503- 102 2.11  97 2.11  98 2.11  17 2.11  96 2.11
 197  0.800  0.700  0.407-  76 2.11  99 2.11  96 2.11  95 2.11  97 2.11
 198  0.900  0.600  0.407-  15 2.11  92 2.11  95 2.11  96 2.11  98 2.11
 199  0.800  0.800  0.503-  82 2.11  97 2.11 101 2.11 102 2.11  99 2.11
 200  0.900  0.900  0.503-  21 2.11  86 2.11 101 2.11 102 2.11 100 2.11
 201  0.800  0.900  0.407-  80 2.11  83 2.11  99 2.11 100 2.11 101 2.11
 202  0.900  0.800  0.407-  96 2.11  19 2.11  99 2.11 100 2.11 102 2.11

  LATTYP: Found a simple tetragonal cell.
 ALAT       =    21.1388521970
 C/A-ratio  =     1.0461251639

  Lattice vectors:

 A1 = (  21.1388521970,   0.0000000000,   0.0000000000)
 A2 = (   0.0000000000,  21.1388521970,   0.0000000000)
 A3 = (   0.0000000000,   0.0000000000,  22.1138852197)

Analysis of symmetry for initial positions (statically):
 Subroutine PRICEL returns:
 Original cell was already a primitive cell.

 Routine SETGRP: Setting up the symmetry group for a
 simple tetragonal supercell.

 Subroutine GETGRP returns: Found  4 space group operations
 (whereof  4 operations were pure point group operations)
 out of a pool of 16 trial point group operations.

The static configuration has the point symmetry C_2v.

Analysis of symmetry for dynamics (positions and initial velocities):
 Subroutine PRICEL returns:
 Original cell was already a primitive cell.

 Routine SETGRP: Setting up the symmetry group for a
 simple tetragonal supercell.

 Subroutine GETGRP returns: Found  4 space group operations
 (whereof  4 operations were pure point group operations)
 out of a pool of 16 trial point group operations.

The dynamic configuration has the point symmetry C_2v.

 Subroutine INISYM returns: Found  4 space group operations
 (whereof  4 operations are pure point group operations),
 and found     1 'primitive' translations

                                     Primitive cell

  volume of cell :    9881.6133

  direct lattice vectors                    reciprocal lattice vectors
    21.138852197  0.000000000  0.000000000     0.047306258  0.000000000  0.000000000
     0.000000000 21.138852197  0.000000000     0.000000000  0.047306258  0.000000000
     0.000000000  0.000000000 22.113885220     0.000000000  0.000000000  0.045220457

  length of vectors
    21.138852197 21.138852197 22.113885220     0.047306258  0.047306258  0.045220457

  position of ions in fractional coordinates (direct lattice)
     0.560811057  0.500000000  0.635369261
     0.439188943  0.500000000  0.635369261
     0.000000000  0.000000000  0.406984115
     0.100000000  0.100000000  0.406984115
     0.000000000  0.100000000  0.502574971
     0.100000000  0.000000000  0.502574971
     0.000000000  0.200000000  0.406984115
     0.100000000  0.300000000  0.406984115
     0.000000000  0.300000000  0.502574971
     0.100000000  0.200000000  0.502574971
     0.000000000  0.400000000  0.406984115
     0.100000000  0.500000000  0.406984115
     0.000000000  0.500000000  0.502574971
     0.100000000  0.400000000  0.502574971
     0.000000000  0.600000000  0.406984115
     0.100000000  0.700000000  0.406984115
[...]
     52     -42.9699      2.00000
     53     -42.9687      2.00000
     54     -42.9684      2.00000
     55     -42.9684      2.00000
     56     -42.9683      2.00000
     57     -42.9677      2.00000
     58     -42.9677      2.00000
     59     -42.9673      2.00000
     60     -42.9670      2.00000
[...]
    882       4.8208      0.00000
    883       4.8339      0.00000
    884       4.9233      0.00000
    885       4.9650      0.00000
    886       5.0426      0.00000
    887       5.1151      0.00000
    888       5.1805      0.00000
    889       5.4422      0.00000
    890       5.5311      0.00000
    891       5.5544      0.00000
    892       5.5935      0.00000
    893       5.6409      0.00000
    894       5.6611      0.00000
    895       5.6767      0.00000
    896       5.7016      0.00000

 soft charge-density along one line, spin component           1
         0         1         2         3         4         5         6         7         8         9
 total charge-density along one line

------------------------ aborting loop because EDIFF is reached ----------------------------------------

  FORCE on cell =-STRESS in cart. coord.  units (eV):
  Direction    XX          YY          ZZ          XY          YZ          ZX
  Alpha Z  1357.53553  1357.53553  1357.53553
  Ewald  478804.93038478115.23721************    -0.00000     0.00000    -0.00000
  Hartree507357.42989506850.59973************    -0.00000     0.00000    -0.00000
  E(xc)   -7764.53578 -7765.26255 -7796.79047     0.00000     0.00000    -0.00000
  Local  ************************************    -0.00000    -0.00000     0.00000
  n-local -8784.62624 -8782.08646 -8902.25271    -0.00001    -0.00000    -0.00000
  augment  3465.91460  3467.99646  3410.13458     0.00000     0.00000     0.00000
  Kinetic 22948.50864 22954.57788 23209.27988    -0.00001     0.00001    -0.00000
  Fock        0.00000     0.00000     0.00000     0.00000     0.00000     0.00000
  Total    -150.01855  -150.46163    18.31961     0.00000     0.00000     0.00000
  in kB     -24.32359   -24.39543     2.97029     0.00000     0.00000     0.00000

 VOLUME and BASIS-vectors are now :
  energy-cutoff  :      520.00
  volume of cell :     9881.61
      direct lattice vectors                 reciprocal lattice vectors
    21.138852197  0.000000000  0.000000000     0.047306258  0.000000000  0.000000000
     0.000000000 21.138852197  0.000000000     0.000000000  0.047306258  0.000000000
     0.000000000  0.000000000 22.113885220     0.000000000  0.000000000  0.045220457

  length of vectors
    21.138852197 21.138852197 22.113885220     0.047306258  0.047306258  0.045220457

 FORCES acting on ions:
    Electron-Ion                     Ewald-Force                    Non-Local-Force
   -.267E+03 -.214E-05 -.199E+04   0.260E+03 0.836E-08 0.199E+04   0.679E+01 0.000E+00 -.283E-01
   0.267E+03 -.214E-05 -.199E+04   -.260E+03 0.836E-08 0.199E+04   -.679E+01 0.000E+00 -.283E-01
   0.162E-12 -.339E-08 0.931E+03   0.764E-13 0.701E-08 -.923E+03   0.000E+00 0.000E+00 -.741E+01
   0.368E+01 0.407E+01 0.932E+03   -.368E+01 -.407E+01 -.924E+03   -.146E-02 0.651E-02 -.741E+01
   0.156E-12 0.437E+01 -.922E+03   0.103E-12 -.438E+01 0.915E+03   0.529E-22 0.605E-02 0.739E+01
   0.387E+01 -.485E-08 -.922E+03   -.387E+01 0.100E-07 0.915E+03   -.274E-02 0.000E+00 0.739E+01
   0.163E-12 0.601E+01 0.932E+03   0.153E-10 -.602E+01 -.925E+03   0.000E+00 0.105E-01 -.741E+01
   0.766E+01 0.768E+01 0.936E+03   -.766E+01 -.770E+01 -.928E+03   0.462E-02 0.151E-01 -.741E+01
   0.163E-12 0.814E+01 -.920E+03   0.181E-11 -.816E+01 0.912E+03   -.662E-23 0.120E-01 0.739E+01
   0.703E+01 0.911E+01 -.920E+03   -.703E+01 -.912E+01 0.913E+03   -.109E-02 0.130E-01 0.739E+01
   0.165E-12 0.416E+01 0.936E+03   -.174E-10 -.417E+01 -.928E+03   0.000E+00 0.772E-02 -.741E+01
   0.112E+02 0.518E-08 0.939E+03   -.113E+02 -.107E-07 -.931E+03   0.251E-01 -.165E-23 -.741E+01
   0.168E-12 0.540E-08 -.918E+03   0.120E-12 -.112E-07 0.910E+03   0.000E+00 0.000E+00 0.739E+01
   0.154E+02 0.716E+01 -.916E+03   -.155E+02 -.717E+01 0.908E+03   0.173E-01 0.112E-01 0.739E+01
   0.165E-12 -.416E+01 0.936E+03   0.116E-11 0.417E+01 -.928E+03   0.000E+00 -.772E-02 -.741E+01
   0.766E+01 -.768E+01 0.936E+03   -.766E+01 0.770E+01 -.928E+03   0.462E-02 -.151E-01 -.741E+01
   0.171E-12 -.814E+01 -.920E+03   -.785E-12 0.816E+01 0.912E+03   0.000E+00 -.120E-01 0.739E+01
   0.154E+02 -.716E+01 -.916E+03   -.155E+02 0.717E+01 0.908E+03   0.173E-01 -.112E-01 0.739E+01
   0.163E-12 -.601E+01 0.932E+03   0.853E-12 0.602E+01 -.925E+03   0.000E+00 -.105E-01 -.741E+01
   0.368E+01 -.407E+01 0.932E+03   -.368E+01 0.407E+01 -.924E+03   -.146E-02 -.651E-02 -.741E+01
   0.163E-12 -.437E+01 -.922E+03   -.867E-12 0.438E+01 0.915E+03   -.106E-21 -.605E-02 0.739E+01
   0.703E+01 -.911E+01 -.920E+03   -.703E+01 0.912E+01 0.913E+03   -.109E-02 -.130E-01 0.739E+01
   0.528E+01 -.522E-08 0.932E+03   -.528E+01 0.108E-07 -.925E+03   -.352E-02 0.000E+00 -.741E+01
   0.663E+01 0.778E+01 0.935E+03   -.662E+01 -.779E+01 -.927E+03   -.427E-02 0.102E-01 -.741E+01
   0.800E+01 0.745E+01 -.921E+03   -.799E+01 -.746E+01 0.913E+03   -.549E-02 0.805E-02 0.739E+01
   0.688E+01 -.981E-08 -.920E+03   -.687E+01 0.203E-07 0.913E+03   -.577E-02 0.265E-22 0.738E+01
   0.924E+01 0.101E+02 0.936E+03   -.924E+01 -.101E+02 -.928E+03   -.295E-03 0.170E-01 -.741E+01
   0.172E+02 0.191E+02 0.950E+03   -.172E+02 -.192E+02 -.942E+03   0.893E-02 0.397E-01 -.741E+01
   0.221E+02 0.180E+02 -.913E+03   -.221E+02 -.181E+02 0.905E+03   0.356E-02 0.304E-01 0.739E+01
   0.152E+02 0.227E+02 -.914E+03   -.151E+02 -.227E+02 0.906E+03   -.122E-01 0.233E-01 0.738E+01
   0.200E+02 0.853E+01 0.946E+03   -.200E+02 -.857E+01 -.939E+03   0.237E-01 0.243E-01 -.740E+01
   0.310E+02 0.166E-07 0.969E+03   -.310E+02 -.344E-07 -.961E+03   0.731E-02 0.000E+00 -.730E+01
   0.409E+02 0.155E-07 -.902E+03   -.410E+02 -.321E-07 0.895E+03   0.841E-01 0.000E+00 0.739E+01
   0.561E+02 0.338E+02 -.879E+03   -.562E+02 -.339E+02 0.871E+03   0.503E-01 0.920E-01 0.740E+01
   0.200E+02 -.853E+01 0.946E+03   -.200E+02 0.857E+01 -.939E+03   0.237E-01 -.243E-01 -.740E+01
   0.172E+02 -.191E+02 0.950E+03   -.172E+02 0.192E+02 -.942E+03   0.893E-02 -.397E-01 -.741E+01
   0.221E+02 -.180E+02 -.913E+03   -.221E+02 0.181E+02 0.905E+03   0.356E-02 -.304E-01 0.739E+01
   0.561E+02 -.338E+02 -.879E+03   -.562E+02 0.339E+02 0.871E+03   0.503E-01 -.920E-01 0.740E+01
   0.924E+01 -.101E+02 0.936E+03   -.924E+01 0.101E+02 -.928E+03   -.295E-03 -.170E-01 -.741E+01
   0.663E+01 -.778E+01 0.935E+03   -.662E+01 0.779E+01 -.927E+03   -.427E-02 -.102E-01 -.741E+01
   0.800E+01 -.745E+01 -.921E+03   -.799E+01 0.746E+01 0.913E+03   -.549E-02 -.805E-02 0.739E+01
   0.152E+02 -.227E+02 -.914E+03   -.151E+02 0.227E+02 0.906E+03   -.122E-01 -.233E-01 0.738E+01
   0.351E+01 -.892E-08 0.935E+03   -.351E+01 0.184E-07 -.927E+03   -.286E-02 0.000E+00 -.741E+01
   -.222E-12 0.107E+02 0.938E+03   0.387E-11 -.107E+02 -.930E+03   0.000E+00 0.770E-02 -.741E+01
   0.574E+01 0.144E+02 -.917E+03   -.573E+01 -.144E+02 0.910E+03   -.533E-02 0.212E-02 0.738E+01
   -.247E-12 -.138E-07 -.919E+03   0.622E-14 0.285E-07 0.911E+03   0.000E+00 0.000E+00 0.738E+01
   0.702E+01 0.197E+02 0.944E+03   -.702E+01 -.198E+02 -.937E+03   -.370E-02 0.348E-01 -.742E+01
   -.237E-12 0.312E+02 0.964E+03   -.579E-11 -.313E+02 -.956E+03   0.000E+00 0.415E-01 -.745E+01
   0.238E+02 0.558E+02 -.886E+03   -.238E+02 -.559E+02 0.879E+03   -.357E-01 0.959E-01 0.736E+01
   -.254E-12 0.364E+02 -.907E+03   -.193E-10 -.364E+02 0.899E+03   0.000E+00 -.122E-01 0.737E+01
   0.203E+02 0.239E+02 0.983E+03   -.203E+02 -.240E+02 -.975E+03   0.721E-02 0.220E-01 -.730E+01
   -.218E-12 0.327E-07 0.101E+04   -.104E-12 -.677E-07 -.100E+04   0.000E+00 0.000E+00 -.743E+01
   0.821E+02 0.111E-06 -.756E+03   -.821E+02 -.229E-06 0.749E+03   -.744E-01 0.000E+00 0.642E+01
   -.254E-12 0.923E+02 -.797E+03   0.215E-10 -.924E+02 0.790E+03   0.463E-22 0.749E-01 0.704E+01
   0.203E+02 -.239E+02 0.983E+03   -.203E+02 0.240E+02 -.975E+03   0.721E-02 -.220E-01 -.730E+01
   -.207E-12 -.312E+02 0.964E+03   -.183E-10 0.313E+02 -.956E+03   0.331E-23 -.415E-01 -.745E+01
   0.238E+02 -.558E+02 -.886E+03   -.238E+02 0.559E+02 0.879E+03   -.357E-01 -.959E-01 0.736E+01
   -.243E-12 -.923E+02 -.797E+03   0.183E-10 0.924E+02 0.790E+03   0.000E+00 -.749E-01 0.704E+01
   0.702E+01 -.197E+02 0.944E+03   -.702E+01 0.198E+02 -.937E+03   -.370E-02 -.348E-01 -.742E+01
   -.216E-12 -.107E+02 0.938E+03   0.203E-10 0.107E+02 -.930E+03   0.000E+00 -.770E-02 -.741E+01
[...]
   -.107E+02 0.891E+01 0.707E+03   0.107E+02 -.893E+01 -.711E+03   -.792E-02 0.264E-01 0.354E+01
   -.393E+01 0.527E+01 0.702E+03   0.393E+01 -.528E+01 -.706E+03   -.808E-03 0.132E-01 0.354E+01
   -.257E+02 0.107E+02 -.681E+03   0.258E+02 -.107E+02 0.685E+03   -.323E-01 0.388E-01 -.356E+01
   -.131E+02 0.549E-08 -.688E+03   0.132E+02 -.113E-07 0.692E+03   -.189E-01 0.529E-22 -.356E+01
   -.170E+02 0.667E-08 0.713E+03   0.170E+02 -.138E-07 -.717E+03   -.452E-01 0.000E+00 0.357E+01
   -.761E+01 0.386E+01 0.705E+03   0.762E+01 -.387E+01 -.709E+03   -.138E-01 0.151E-01 0.354E+01
   -.257E+02 -.107E+02 -.681E+03   0.258E+02 0.107E+02 0.685E+03   -.323E-01 -.388E-01 -.356E+01
   -.826E+01 -.774E+01 -.690E+03   0.826E+01 0.775E+01 0.694E+03   -.672E-02 -.193E-01 -.356E+01
   -.107E+02 -.891E+01 0.707E+03   0.107E+02 0.893E+01 -.711E+03   -.792E-02 -.264E-01 0.354E+01
   -.761E+01 -.386E+01 0.705E+03   0.762E+01 0.387E+01 -.709E+03   -.138E-01 -.151E-01 0.354E+01
   -.965E+01 -.106E+02 -.690E+03   0.965E+01 0.106E+02 0.694E+03   0.148E-02 -.171E-01 -.357E+01
   -.348E+01 -.386E+01 -.693E+03   0.348E+01 0.386E+01 0.697E+03   0.186E-02 -.675E-02 -.356E+01
   -.468E+01 -.419E+01 0.702E+03   0.468E+01 0.419E+01 -.706E+03   0.286E-02 -.797E-02 0.354E+01
   -.393E+01 -.527E+01 0.702E+03   0.393E+01 0.528E+01 -.706E+03   -.808E-03 -.132E-01 0.354E+01
   -.101E-10 -.434E-05 0.706E+01   0.161E-11 0.120E-11 -.819E-11   0.739E-15 0.173E-17 -.767E+01

 POSITION                                       TOTAL-FORCE (eV/Angst)
     11.85490     10.56943     14.05048         0.071210     -0.000000      0.073574
      9.28395     10.56943     14.05048        -0.071210     -0.000000      0.073574
      0.00000      0.00000      9.00000         0.000000     -0.000000      0.324628
      2.11389      2.11389      9.00000         0.000401     -0.001774      0.324690
      0.00000      2.11389     11.11389         0.000000     -0.001645     -0.321497
      2.11389      0.00000     11.11389         0.000774     -0.000000     -0.321402
      0.00000      4.22777      9.00000         0.000000     -0.002914      0.324488
      2.11389      6.34166      9.00000        -0.001378     -0.004277      0.324145
      0.00000      6.34166     11.11389         0.000000     -0.003414     -0.321502
      2.11389      4.22777     11.11389         0.000298     -0.003580     -0.321296
      0.00000      8.45554      9.00000         0.000000     -0.002258      0.324226
      2.11389     10.56943      9.00000        -0.006457     -0.000000      0.324381
      0.00000     10.56943     11.11389         0.000000     -0.000000     -0.321736
      2.11389      8.45554     11.11389        -0.004755     -0.003326     -0.321689
      0.00000     12.68331      9.00000         0.000000      0.002258      0.324226
      2.11389     14.79720      9.00000        -0.001378      0.004277      0.324145
      0.00000     14.79720     11.11389         0.000000      0.003414     -0.321502
      2.11389     12.68331     11.11389        -0.004755      0.003326     -0.321689
      0.00000     16.91108      9.00000         0.000000      0.002914      0.324488
      2.11389     19.02497      9.00000         0.000401      0.001774      0.324690
      0.00000     19.02497     11.11389         0.000000      0.001645     -0.321497
      2.11389     16.91108     11.11389         0.000298      0.003580     -0.321296
      4.22777      0.00000      9.00000         0.000991     -0.000000      0.324952
      6.34166      2.11389      9.00000         0.001229     -0.002684      0.325500
      4.22777      2.11389     11.11389         0.001525     -0.002133     -0.320893
      6.34166      0.00000     11.11389         0.001669     -0.000000     -0.320479
      4.22777      4.22777      9.00000         0.000014     -0.004640      0.324823
      6.34166      6.34166      9.00000        -0.003360     -0.011382      0.324795
      4.22777      6.34166     11.11389        -0.001015     -0.008493     -0.320805
      6.34166      4.22777     11.11389         0.003512     -0.006056     -0.318472
      4.22777      8.45554      9.00000        -0.007153     -0.007504      0.322224
      6.34166     10.56943      9.00000        -0.002059     -0.000000      0.296250
      4.22777     10.56943     11.11389        -0.028500     -0.000000     -0.322435
      6.34166      8.45554     11.11389        -0.013172     -0.024465     -0.317606
      4.22777     12.68331      9.00000        -0.007153      0.007504      0.322224
      6.34166     14.79720      9.00000        -0.003360      0.011382      0.324795
      4.22777     14.79720     11.11389        -0.001015      0.008493     -0.320805
      6.34166     12.68331     11.11389        -0.013172      0.024465     -0.317606
      4.22777     16.91108      9.00000         0.000014      0.004640      0.324823
      6.34166     19.02497      9.00000         0.001229      0.002684      0.325500
      4.22777     19.02497     11.11389         0.001525      0.002133     -0.320893
      6.34166     16.91108     11.11389         0.003512      0.006056     -0.318472
      8.45554      0.00000      9.00000         0.000836     -0.000000      0.325472
     10.56943      2.11389      9.00000         0.000000     -0.002253      0.326066
      8.45554      2.11389     11.11389         0.001624     -0.000278     -0.318937
     10.56943      0.00000     11.11389         0.000000     -0.000000     -0.319627
      8.45554      4.22777      9.00000         0.001283     -0.008980      0.328503
     10.56943      6.34166      9.00000         0.000000     -0.013942      0.333513
      8.45554      6.34166     11.11389         0.014358     -0.029624     -0.297817
     10.56943      4.22777     11.11389         0.000000      0.004204     -0.312538
      8.45554      8.45554      9.00000        -0.001210     -0.004613      0.294465
     10.56943     10.56943      9.00000         0.000000     -0.000000      0.281409
      8.45554     10.56943     11.11389        -0.021837     -0.000000     -0.351610
     10.56943      8.45554     11.11389         0.000000     -0.004806     -0.142474
      8.45554     12.68331      9.00000        -0.001210      0.004613      0.294465
     10.56943     14.79720      9.00000         0.000000      0.013942      0.333513
      8.45554     14.79720     11.11389         0.014358      0.029624     -0.297817
     10.56943     12.68331     11.11389         0.000000      0.004806     -0.142474
      8.45554     16.91108      9.00000         0.001283      0.008980      0.328503
     10.56943     19.02497      9.00000         0.000000      0.002253      0.326066
[...]
     19.02497      6.34166     11.11389        -0.001884      0.005372      0.530880
     16.91108      6.34166      9.00000        -0.002372      0.007438     -0.533997
     19.02497      4.22777      9.00000        -0.000257      0.003666     -0.534293
     16.91108      8.45554     11.11389        -0.009825      0.011126      0.532638
     19.02497     10.56943     11.11389        -0.005377     -0.000000      0.531313
     16.91108     10.56943      9.00000        -0.013930     -0.000000     -0.525893
     19.02497      8.45554      9.00000        -0.003882      0.004224     -0.533487
     16.91108     12.68331     11.11389        -0.009825     -0.011126      0.532638
     19.02497     14.79720     11.11389        -0.001884     -0.005372      0.530880
     16.91108     14.79720      9.00000        -0.002372     -0.007438     -0.533997
     19.02497     12.68331      9.00000        -0.003882     -0.004224     -0.533487
     16.91108     16.91108     11.11389         0.000320     -0.004786      0.529990
     19.02497     19.02497     11.11389         0.000476     -0.001878      0.530870
     16.91108     19.02497      9.00000         0.000751     -0.002210     -0.534678
     19.02497     16.91108      9.00000        -0.000257     -0.003666     -0.534293
    total drift:                               -0.000000     -0.000004     -0.611463

  FREE ENERGIE OF THE ION-ELECTRON SYSTEM (eV)
  free  energy   TOTEN  =     -1140.30662108 eV

  energy  without entropy=    -1140.30662108  energy(sigma->0) =    -1140.30662108