 vasp.6.3.0 20Jan22 (build Apr  1 2022 16:44:48) complex
 executed on        HPECrayEX_GCC date 2022.11.18  13:02:16

 INCAR:
   SYSTEM = MgO-rocksalt
   ISMEAR = 0
   SIGMA = 0.05
   EDIFF = 1E-6
   ALGO = ALL
   ISTART = 0
   IBRION = -1
   NSW = 0
   ISYM = 2
   DIPOL = 0.5 0.5 0.5
   IDIPOL = 3
   LDIPOL = .TRUE.
   GGA = RE
   LUSE_VDW = .TRUE.
   AGGAC = 0.0
   ENCUT = 520
   PREC = Accurate
   LASPH = .TRUE.
   LREAL = Auto
   ISPIN = 1
   NELM = 200
   NELMIN = 8
   NCORE = 4
   KPAR = 2
   LWAVE = .FALSE.
   LCHARG = .FALSE.

 POTCAR:    PAW_PBE Cu 22Jun2005
 POTCAR:    PAW_PBE Mg_pv 13Apr2007
 POTCAR:    PAW_PBE O 08Apr2002
|               ----> ADVICE to this user running VASP <----                  |
|     You have switched on vdW-DFT.                                           |
|     This routine was written and supplied by Jiri Klimes. We recommend      |
|     that you carefully read and cite the following publications:            |
|       J. Klimes, D.R. Bowler, A. Michelides                                 |
|          J. Phys.: Cond Matt. 22 022201 (2010)                              |
|       J. Klimes, D.R. Bowler, A. Michelides                                 |
|          Phys. Rev. B. 83, 195131 (2011)                                    |
|     and references therein.                                                 |

   TITEL  = PAW_PBE Cu 22Jun2005
   POMASS =   63.546; ZVAL   =   11.000    mass and valenz
   ENMAX  =  295.446; ENMIN  =  221.585 eV

   TITEL  = PAW_PBE Mg_pv 13Apr2007
   POMASS =   24.305; ZVAL   =    8.000    mass and valenz
   ENMAX  =  403.929; ENMIN  =  302.947 eV

   TITEL  = PAW_PBE O 08Apr2002
   POMASS =   16.000; ZVAL   =    6.000    mass and valenz
   ENMAX  =  400.000; ENMIN  =  300.000 eV

 Optimization of the real space projectors (new method)

 maximal supplied QI-value         = 16.25
 optimisation between [QCUT,QGAM] = [ 11.54, 23.24] = [ 37.28,151.24] Ry
 Optimized for a Real-space Cutoff    1.53 Angstroem

   l    n(q)    QCUT    max X(q) W(low)/X(q) W(high)/X(q)  e(spline)
   2     10    11.539     4.610    0.96E-04    0.13E-03    0.19E-06
   2     10    11.539     8.522    0.16E-03    0.21E-03    0.28E-06
   0     11    11.539    51.609    0.45E-04    0.31E-04    0.11E-06
   0     11    11.539    27.747    0.39E-04    0.29E-04    0.10E-06
   1     10    11.539    20.408    0.70E-05    0.38E-04    0.18E-06
   1     10    11.539    13.425    0.66E-05    0.34E-04    0.17E-06
 Optimization of the real space projectors (new method)

[...]

   l    n(q)    QCUT    max X(q) W(low)/X(q) W(high)/X(q)  e(spline)
   1      8    11.527     2.974    0.44E-04    0.56E-04    0.12E-06
   1      8    11.527     4.279    0.12E-03    0.12E-03    0.26E-06
   0      9    11.527    16.381    0.46E-04    0.64E-04    0.78E-07
   0      9    11.527     5.611    0.26E-04    0.43E-04    0.55E-07
   2      8    11.527     4.652    0.22E-03    0.72E-04    0.47E-07
 Optimization of the real space projectors (new method)

 maximal supplied QI-value         = 24.76
 optimisation between [QCUT,QGAM] = [ 11.64, 23.27] = [ 37.91,151.63] Ry
 Optimized for a Real-space Cutoff    1.14 Angstroem

   l    n(q)    QCUT    max X(q) W(low)/X(q) W(high)/X(q)  e(spline)
   0      8    11.635    20.381    0.10E-03    0.33E-03    0.24E-06
   0      8    11.635    15.268    0.11E-03    0.35E-03    0.26E-06
   1      7    11.635     5.964    0.24E-03    0.31E-03    0.30E-06
   1      7    11.635     5.382    0.22E-03    0.25E-03    0.26E-06
|               ----> ADVICE to this user running VASP <----                  |
|     You enforced a specific xc type in the INCAR file but a different       |
|     type was found in the POTCAR file.                                      |
|     I HOPE YOU KNOW WHAT YOU ARE DOING!                                     |

  PAW_PBE Cu 22Jun2005                  :
  PAW_PBE Mg_pv 13Apr2007               :
  PAW_PBE O 08Apr2002                   :

 POSCAR: Cu Mg  O
  positions in direct lattice
 exchange correlation table for  LEXCH =       40
   RHO(1)=    0.500       N(1)  =     2000
   RHO(2)=  100.500       N(2)  =     4000

 ion  position               nearest neighbor table
   1  0.538  0.462  0.618-   2 2.25
   2  0.462  0.538  0.618-   1 2.25
   3  0.000  0.000  0.407- 105 2.11 106 2.11 121 2.11 186 2.11 103 2.11
   4  0.100  0.100  0.407- 105 2.11 106 2.11 110 2.11 125 2.11 104 2.11
   5  0.000  0.100  0.503- 103 2.11 104 2.11 107 2.11 184 2.11 105 2.11
   6  0.100  0.000  0.503- 103 2.11 104 2.11 120 2.11 123 2.11 106 2.11
   7  0.000  0.200  0.407- 109 2.11 105 2.11 110 2.11 190 2.11 107 2.11
   8  0.100  0.300  0.407- 110 2.11 109 2.11 114 2.11 129 2.11 108 2.11
   9  0.000  0.300  0.503- 107 2.11 108 2.11 111 2.11 188 2.11 109 2.11
  10  0.100  0.200  0.503- 108 2.11 107 2.11 104 2.11 127 2.11 110 2.11
  11  0.000  0.400  0.407- 109 2.11 113 2.11 114 2.11 194 2.11 111 2.11
  12  0.100  0.500  0.407- 113 2.11 114 2.11 118 2.11 133 2.11 112 2.11
  13  0.000  0.500  0.503- 111 2.11 112 2.11 115 2.11 192 2.11 113 2.11
  14  0.100  0.400  0.503- 108 2.11 111 2.11 112 2.11 131 2.11 114 2.11
  15  0.000  0.600  0.407- 113 2.11 117 2.11 118 2.11 198 2.11 115 2.11
  16  0.100  0.700  0.407- 122 2.11 118 2.11 117 2.11 137 2.11 116 2.11
  17  0.000  0.700  0.503- 119 2.11 116 2.11 115 2.11 196 2.11 117 2.11
  18  0.100  0.600  0.503- 112 2.11 115 2.11 116 2.11 135 2.11 118 2.11
  19  0.000  0.800  0.407- 117 2.11 121 2.11 122 2.11 202 2.11 119 2.11
  20  0.100  0.900  0.407- 106 2.11 121 2.11 122 2.11 141 2.11 120 2.11
  21  0.000  0.900  0.503- 103 2.11 119 2.11 120 2.11 200 2.11 121 2.11
  22  0.100  0.800  0.503- 116 2.11 119 2.11 120 2.11 139 2.11 122 2.11
  23  0.200  0.000  0.407- 126 2.11 125 2.11 106 2.11 141 2.11 123 2.11
  24  0.300  0.100  0.407- 125 2.11 126 2.11 130 2.11 145 2.11 124 2.11
  25  0.200  0.100  0.503- 124 2.11 123 2.11 104 2.11 127 2.11 125 2.11
  26  0.300  0.000  0.503- 123 2.11 124 2.11 140 2.11 143 2.11 126 2.11
  27  0.200  0.200  0.407- 129 2.11 130 2.11 110 2.11 125 2.11 127 2.11
  28  0.300  0.300  0.407- 129 2.11 130 2.11 134 2.11 149 2.11 128 2.11
  29  0.200  0.300  0.503- 127 2.11 128 2.11 108 2.11 131 2.11 129 2.11
  30  0.300  0.200  0.503- 127 2.11 128 2.11 124 2.11 147 2.11 130 2.11
  31  0.200  0.400  0.407- 134 2.11 129 2.11 133 2.11 114 2.11 131 2.11
  32  0.300  0.500  0.407- 133 2.11 134 2.11 138 2.11 153 2.11 132 2.11
  33  0.200  0.500  0.503- 132 2.11 131 2.11 112 2.11 135 2.11 133 2.11
  34  0.300  0.400  0.503- 131 2.11 128 2.11 132 2.11 151 2.11 134 2.11
  35  0.200  0.600  0.407- 138 2.11 133 2.11 137 2.11 118 2.11 135 2.11
  36  0.300  0.700  0.407- 137 2.11 142 2.11 138 2.11 157 2.11 136 2.11
  37  0.200  0.700  0.503- 136 2.11 139 2.11 116 2.11 135 2.11 137 2.11
  38  0.300  0.600  0.503- 135 2.11 132 2.11 136 2.11 155 2.11 138 2.11
  39  0.200  0.800  0.407- 137 2.11 142 2.11 141 2.11 122 2.11 139 2.11
  40  0.300  0.900  0.407- 141 2.11 126 2.11 142 2.11 161 2.11 140 2.11
  41  0.200  0.900  0.503- 140 2.11 123 2.11 139 2.11 120 2.11 141 2.11
  42  0.300  0.800  0.503- 136 2.11 139 2.11 140 2.11 159 2.11 142 2.11
  43  0.400  0.000  0.407- 126 2.11 145 2.11 146 2.11 161 2.11 143 2.11
  44  0.500  0.100  0.407- 145 2.11 146 2.11 150 2.11 165 2.11 144 2.11
  45  0.400  0.100  0.503- 124 2.11 143 2.11 144 2.11 147 2.11 145 2.11
  46  0.500  0.000  0.503- 143 2.11 144 2.11 160 2.11 163 2.11 146 2.11
  47  0.400  0.200  0.407- 149 2.11 145 2.11 130 2.11 150 2.11 147 2.11
  48  0.500  0.300  0.407- 150 2.11 149 2.11 154 2.11 169 2.11 148 2.11
  49  0.400  0.300  0.503- 147 2.11 128 2.11 148 2.11 151 2.11 149 2.11
  50  0.500  0.200  0.503- 148 2.11 147 2.11 144 2.11 167 2.11 150 2.11
  51  0.400  0.400  0.407- 134 2.11 149 2.11 153 2.11 154 2.11 151 2.11
  52  0.500  0.500  0.407- 153 2.11 154 2.11 158 2.11 173 2.11 152 2.11
  53  0.400  0.500  0.503- 132 2.11 151 2.11 152 2.11 155 2.11 153 2.11
  54  0.500  0.400  0.503- 148 2.11 151 2.11 152 2.11 171 2.11 154 2.11
  55  0.400  0.600  0.407- 138 2.11 153 2.11 157 2.11 158 2.11 155 2.11
  56  0.500  0.700  0.407- 162 2.11 158 2.11 157 2.11 177 2.11 156 2.11
  57  0.400  0.700  0.503- 159 2.11 155 2.11 156 2.11 136 2.11 157 2.11
  58  0.500  0.600  0.503- 152 2.11 155 2.11 156 2.11 175 2.11 158 2.11
  59  0.400  0.800  0.407- 157 2.11 142 2.11 161 2.11 162 2.11 159 2.11
  60  0.500  0.900  0.407- 146 2.11 161 2.11 162 2.11 181 2.11 160 2.11
[...]
 188  0.900  0.300  0.503-  90 2.11  89 2.11   9 2.11  94 2.11  88 2.11
 189  0.800  0.300  0.407-  68 2.11  87 2.11  88 2.11  91 2.11  89 2.11
 190  0.900  0.200  0.407-  88 2.11  84 2.11  87 2.11   7 2.11  90 2.11
 191  0.800  0.400  0.503-  74 2.11  89 2.11  93 2.11  94 2.11  91 2.11
 192  0.900  0.500  0.503-  13 2.11  93 2.11  94 2.11  98 2.11  92 2.11
 193  0.800  0.500  0.407-  72 2.11  91 2.11  92 2.11  95 2.11  93 2.11
 194  0.900  0.400  0.407-  11 2.11  88 2.11  91 2.11  92 2.11  94 2.11
 195  0.800  0.600  0.503-  78 2.11  93 2.11  97 2.11  98 2.11  95 2.11
 196  0.900  0.700  0.503- 102 2.11  97 2.11  98 2.11  17 2.11  96 2.11
 197  0.800  0.700  0.407-  76 2.11  99 2.11  96 2.11  95 2.11  97 2.11
 198  0.900  0.600  0.407-  15 2.11  92 2.11  95 2.11  96 2.11  98 2.11
 199  0.800  0.800  0.503-  82 2.11  97 2.11 101 2.11 102 2.11  99 2.11
 200  0.900  0.900  0.503-  21 2.11  86 2.11 101 2.11 102 2.11 100 2.11
 201  0.800  0.900  0.407-  80 2.11  83 2.11  99 2.11 100 2.11 101 2.11
 202  0.900  0.800  0.407-  96 2.11  19 2.11  99 2.11 100 2.11 102 2.11

  LATTYP: Found a simple tetragonal cell.
 ALAT       =    21.1388521970
 C/A-ratio  =     1.0461251639

  Lattice vectors:

 A1 = (  21.1388521970,   0.0000000000,   0.0000000000)
 A2 = (   0.0000000000,  21.1388521970,   0.0000000000)
 A3 = (   0.0000000000,   0.0000000000,  22.1138852197)

Analysis of symmetry for initial positions (statically):
 Subroutine PRICEL returns:
 Original cell was already a primitive cell.

 Routine SETGRP: Setting up the symmetry group for a
 simple tetragonal supercell.

 Subroutine GETGRP returns: Found  4 space group operations
 (whereof  4 operations were pure point group operations)
 out of a pool of 16 trial point group operations.

The static configuration has the point symmetry C_2v.

Analysis of symmetry for dynamics (positions and initial velocities):
 Subroutine PRICEL returns:
 Original cell was already a primitive cell.

 Routine SETGRP: Setting up the symmetry group for a
 simple tetragonal supercell.

 Subroutine GETGRP returns: Found  4 space group operations
 (whereof  4 operations were pure point group operations)
 out of a pool of 16 trial point group operations.

The dynamic configuration has the point symmetry C_2v.

 Subroutine INISYM returns: Found  4 space group operations
 (whereof  4 operations are pure point group operations),
 and found     1 'primitive' translations

                                     Primitive cell

  volume of cell :    9881.6133

  direct lattice vectors                    reciprocal lattice vectors
    21.138852197  0.000000000  0.000000000     0.047306258  0.000000000  0.000000000
[...]
     52     -43.5568      2.00000
     53     -43.5557      2.00000
     54     -43.5555      2.00000
     55     -43.5555      2.00000
     56     -43.5553      2.00000
     57     -43.5552      2.00000
     58     -43.5538      2.00000
     59     -43.5534      2.00000
     60     -43.5531      2.00000
[...]
   1010       7.0390      0.00000
   1011       7.0733      0.00000
   1012       7.0961      0.00000
   1013       7.1020      0.00000
   1014       7.3487      0.00000
   1015       7.4578      0.00000
   1016       7.4905      0.00000
   1017       7.5209      0.00000
   1018       7.5456      0.00000
   1019       7.5487      0.00000
   1020       7.6130      0.00000
   1021       7.7892      0.00000
   1022       7.8467      0.00000
   1023       7.8912      0.00000
   1024       7.9703      0.00000

 soft charge-density along one line, spin component           1
         0         1         2         3         4         5         6         7         8         9
 total charge-density along one line

------------------------ aborting loop because EDIFF is reached ----------------------------------------

  FORCE on cell =-STRESS in cart. coord.  units (eV):
  Direction    XX          YY          ZZ          XY          YZ          ZX
  Alpha Z  1354.41543  1354.41543  1354.41543
  Ewald  480118.83707480118.83707************  -374.58146     0.00000     0.00000
  Hartree508781.81431508781.81431************  -285.92405    -0.00000    -0.00000
  E(xc)   -7988.46774 -7988.46774 -8005.57183    -0.35230    -0.00000    -0.00000
  Local  ************************************   654.47359    -0.00000    -0.00000
  n-local -8815.37845 -8815.37845 -8927.44041     1.92753    -0.00001    -0.00000
  augment  3564.35331  3564.35331  3512.28805     2.19052     0.00000    -0.00000
  Kinetic 22937.82809 22937.82811 23152.53285     2.46783     0.00000    -0.00000
  Fock        0.00000     0.00000     0.00000     0.00000     0.00000     0.00000
  Total    -119.61821  -119.61821    38.04993     0.20166     0.00000     0.00000
  in kB     -19.39456   -19.39456     6.16931     0.03270     0.00000     0.00000

 VOLUME and BASIS-vectors are now :
  energy-cutoff  :      520.00
  volume of cell :     9881.61
      direct lattice vectors                 reciprocal lattice vectors
    21.138852197  0.000000000  0.000000000     0.047306258  0.000000000  0.000000000
     0.000000000 21.138852197  0.000000000     0.000000000  0.047306258  0.000000000
     0.000000000  0.000000000 22.113885220     0.000000000  0.000000000  0.045220457

  length of vectors
    21.138852197 21.138852197 22.113885220     0.047306258  0.047306258  0.045220457

 FORCES acting on ions:
    Electron-Ion                     Ewald-Force                    Non-Local-Force
   -.250E+03 0.250E+03 -.210E+04   0.243E+03 -.243E+03 0.210E+04   0.732E+01 -.732E+01 -.145E+01
   0.250E+03 -.250E+03 -.210E+04   -.243E+03 0.243E+03 0.210E+04   -.732E+01 0.732E+01 -.145E+01
   -.490E-10 0.112E-08 0.930E+03   0.758E-10 -.173E-08 -.923E+03   0.000E+00 0.000E+00 -.681E+01
   0.392E+01 0.392E+01 0.931E+03   -.391E+01 -.391E+01 -.924E+03   -.325E-02 -.325E-02 -.681E+01
   -.213E+00 0.423E+01 -.922E+03   0.225E+00 -.424E+01 0.915E+03   -.932E-02 0.230E-02 0.677E+01
   0.423E+01 -.213E+00 -.922E+03   -.424E+01 0.225E+00 0.915E+03   0.230E-02 -.932E-02 0.677E+01
   -.285E+00 0.590E+01 0.932E+03   0.305E+00 -.591E+01 -.925E+03   -.159E-01 0.507E-02 -.681E+01
   0.791E+01 0.757E+01 0.934E+03   -.789E+01 -.758E+01 -.927E+03   -.860E-02 0.852E-02 -.681E+01
   -.537E+00 0.772E+01 -.920E+03   0.565E+00 -.773E+01 0.913E+03   -.219E-01 0.333E-02 0.677E+01
   0.704E+01 0.862E+01 -.921E+03   -.703E+01 -.862E+01 0.914E+03   -.128E-01 -.412E-03 0.677E+01
   -.253E+00 0.403E+01 0.934E+03   0.271E+00 -.403E+01 -.928E+03   -.144E-01 0.299E-02 -.681E+01
   0.120E+02 0.326E+00 0.938E+03   -.120E+02 -.343E+00 -.931E+03   0.226E-01 0.129E-01 -.681E+01
   0.150E-09 -.168E-08 -.918E+03   -.231E-09 0.260E-08 0.911E+03   0.000E+00 0.000E+00 0.676E+01
   0.151E+02 0.701E+01 -.917E+03   -.151E+02 -.703E+01 0.910E+03   -.812E-02 0.128E-01 0.676E+01
   0.253E+00 -.403E+01 0.934E+03   -.271E+00 0.403E+01 -.928E+03   0.144E-01 -.299E-02 -.681E+01
   0.872E+01 -.759E+01 0.935E+03   -.877E+01 0.760E+01 -.928E+03   0.399E-01 -.600E-02 -.681E+01
   0.537E+00 -.772E+01 -.920E+03   -.565E+00 0.773E+01 0.913E+03   0.219E-01 -.333E-02 0.677E+01
   0.163E+02 -.637E+01 -.917E+03   -.164E+02 0.636E+01 0.910E+03   0.408E-01 0.769E-02 0.676E+01
   0.285E+00 -.590E+01 0.932E+03   -.305E+00 0.591E+01 -.925E+03   0.159E-01 -.507E-02 -.681E+01
   0.422E+01 -.422E+01 0.931E+03   -.423E+01 0.423E+01 -.924E+03   0.122E-01 -.122E-01 -.681E+01
   0.213E+00 -.423E+01 -.922E+03   -.225E+00 0.424E+01 0.915E+03   0.932E-02 -.230E-02 0.677E+01
   0.801E+01 -.906E+01 -.920E+03   -.805E+01 0.907E+01 0.913E+03   0.286E-01 -.107E-01 0.677E+01
   0.590E+01 -.285E+00 0.932E+03   -.591E+01 0.305E+00 -.925E+03   0.507E-02 -.159E-01 -.681E+01
   0.757E+01 0.791E+01 0.934E+03   -.758E+01 -.789E+01 -.927E+03   0.852E-02 -.860E-02 -.681E+01
   0.862E+01 0.704E+01 -.921E+03   -.862E+01 -.703E+01 0.914E+03   -.412E-03 -.128E-01 0.677E+01
   0.772E+01 -.537E+00 -.920E+03   -.773E+01 0.565E+00 0.913E+03   0.333E-02 -.219E-01 0.677E+01
   0.101E+02 0.101E+02 0.935E+03   -.101E+02 -.101E+02 -.928E+03   0.497E-03 0.497E-03 -.681E+01
   0.200E+02 0.200E+02 0.948E+03   -.200E+02 -.200E+02 -.941E+03   0.212E-01 0.212E-01 -.684E+01
   0.225E+02 0.171E+02 -.914E+03   -.225E+02 -.171E+02 0.907E+03   -.218E-01 0.940E-02 0.676E+01
   0.171E+02 0.225E+02 -.914E+03   -.171E+02 -.225E+02 0.907E+03   0.940E-02 -.218E-01 0.676E+01
   0.215E+02 0.899E+01 0.944E+03   -.216E+02 -.903E+01 -.937E+03   0.957E-02 0.334E-01 -.682E+01
   0.367E+02 0.180E+01 0.969E+03   -.368E+02 -.193E+01 -.962E+03   0.930E-01 0.943E-01 -.683E+01
   0.419E+02 0.188E+01 -.906E+03   -.419E+02 -.194E+01 0.899E+03   0.349E-01 0.427E-01 0.675E+01
   0.596E+02 0.332E+02 -.887E+03   -.595E+02 -.333E+02 0.880E+03   -.753E-01 0.716E-01 0.671E+01
   0.226E+02 -.808E+01 0.945E+03   -.228E+02 0.807E+01 -.939E+03   0.106E+00 0.131E-01 -.682E+01
   0.209E+02 -.209E+02 0.951E+03   -.210E+02 0.210E+02 -.944E+03   0.674E-01 -.674E-01 -.677E+01
   0.251E+02 -.180E+02 -.913E+03   -.252E+02 0.180E+02 0.906E+03   0.949E-01 -.105E-01 0.677E+01
   0.681E+02 -.314E+02 -.879E+03   -.687E+02 0.313E+02 0.872E+03   0.451E+00 0.672E-01 0.680E+01
   0.107E+02 -.107E+02 0.936E+03   -.107E+02 0.107E+02 -.929E+03   0.311E-01 -.311E-01 -.680E+01
   0.759E+01 -.872E+01 0.935E+03   -.760E+01 0.877E+01 -.928E+03   0.600E-02 -.399E-01 -.681E+01
   0.906E+01 -.801E+01 -.920E+03   -.907E+01 0.805E+01 0.913E+03   0.107E-01 -.286E-01 0.677E+01
   0.180E+02 -.251E+02 -.913E+03   -.180E+02 0.252E+02 0.906E+03   0.105E-01 -.949E-01 0.677E+01
   0.403E+01 -.253E+00 0.934E+03   -.403E+01 0.271E+00 -.928E+03   0.299E-02 -.144E-01 -.681E+01
   0.326E+00 0.120E+02 0.938E+03   -.343E+00 -.120E+02 -.931E+03   0.129E-01 0.226E-01 -.681E+01
   0.701E+01 0.151E+02 -.917E+03   -.703E+01 -.151E+02 0.910E+03   0.128E-01 -.812E-02 0.676E+01
   0.150E-09 0.508E-08 -.918E+03   -.231E-09 -.785E-08 0.911E+03   0.000E+00 0.000E+00 0.676E+01
   0.899E+01 0.215E+02 0.944E+03   -.903E+01 -.216E+02 -.937E+03   0.334E-01 0.957E-02 -.682E+01
   0.180E+01 0.367E+02 0.969E+03   -.193E+01 -.368E+02 -.962E+03   0.943E-01 0.930E-01 -.683E+01
   0.332E+02 0.596E+02 -.887E+03   -.333E+02 -.595E+02 0.880E+03   0.716E-01 -.753E-01 0.671E+01
   0.188E+01 0.419E+02 -.906E+03   -.194E+01 -.419E+02 0.899E+03   0.427E-01 0.349E-01 0.675E+01
   0.276E+02 0.276E+02 0.987E+03   -.278E+02 -.278E+02 -.980E+03   0.116E+00 0.116E+00 -.697E+01
   -.121E-08 -.130E-07 0.103E+04   0.187E-08 0.201E-07 -.102E+04   0.000E+00 0.000E+00 -.659E+01
   0.121E+03 0.210E+02 -.752E+03   -.121E+03 -.218E+02 0.746E+03   0.353E+00 0.547E+00 0.613E+01
   0.210E+02 0.121E+03 -.752E+03   -.218E+02 -.121E+03 0.746E+03   0.547E+00 0.353E+00 0.613E+01
   0.267E+02 -.267E+02 0.992E+03   -.267E+02 0.267E+02 -.985E+03   -.791E-02 0.791E-02 -.626E+01
   -.180E+01 -.367E+02 0.969E+03   0.193E+01 0.368E+02 -.962E+03   -.943E-01 -.930E-01 -.683E+01
   0.314E+02 -.681E+02 -.879E+03   -.313E+02 0.687E+02 0.872E+03   -.672E-01 -.451E+00 0.680E+01
   -.210E+02 -.121E+03 -.752E+03   0.218E+02 0.121E+03 0.746E+03   -.547E+00 -.353E+00 0.613E+01
   0.808E+01 -.226E+02 0.945E+03   -.807E+01 0.228E+02 -.939E+03   -.131E-01 -.106E+00 -.682E+01
   -.326E+00 -.120E+02 0.938E+03   0.343E+00 0.120E+02 -.931E+03   -.129E-01 -.226E-01 -.681E+01
[...]
   -.124E+02 0.913E+01 0.708E+03   0.124E+02 -.915E+01 -.712E+03   -.674E-01 0.299E-01 0.359E+01
   -.455E+01 0.534E+01 0.702E+03   0.457E+01 -.535E+01 -.706E+03   -.255E-01 0.159E-01 0.358E+01
   -.281E+02 0.936E+01 -.683E+03   0.281E+02 -.934E+01 0.687E+03   -.781E-01 -.304E-01 -.364E+01
   -.132E+02 -.423E+00 -.689E+03   0.132E+02 0.437E+00 0.693E+03   -.151E-01 -.197E-01 -.364E+01
   -.187E+02 -.646E+00 0.713E+03   0.188E+02 0.683E+00 -.717E+03   -.426E-01 -.521E-01 0.357E+01
   -.841E+01 0.361E+01 0.705E+03   0.844E+01 -.361E+01 -.709E+03   -.335E-01 -.596E-02 0.358E+01
   -.257E+02 -.105E+02 -.684E+03   0.257E+02 0.106E+02 0.688E+03   -.887E-03 -.379E-01 -.366E+01
   -.810E+01 -.734E+01 -.691E+03   0.809E+01 0.735E+01 0.695E+03   0.106E-01 -.626E-02 -.363E+01
   -.116E+02 -.896E+01 0.707E+03   0.116E+02 0.897E+01 -.711E+03   0.187E-02 -.115E-01 0.357E+01
   -.791E+01 -.392E+01 0.705E+03   0.791E+01 0.393E+01 -.709E+03   -.234E-02 -.162E-01 0.358E+01
   -.102E+02 -.102E+02 -.691E+03   0.101E+02 0.101E+02 0.695E+03   0.882E-02 0.882E-02 -.363E+01
   -.361E+01 -.361E+01 -.693E+03   0.361E+01 0.361E+01 0.698E+03   0.477E-02 0.477E-02 -.362E+01
   -.515E+01 -.408E+01 0.701E+03   0.515E+01 0.408E+01 -.706E+03   -.182E-02 0.739E-02 0.358E+01
   -.408E+01 -.515E+01 0.701E+03   0.408E+01 0.515E+01 -.706E+03   0.739E-02 -.182E-02 0.358E+01
   0.146E-06 0.658E-06 0.102E+02   0.412E-12 0.838E-12 0.671E-11   -.270E-15 -.270E-15 -.113E+02

 POSITION                                       TOTAL-FORCE (eV/Angst)
     11.36317      9.77568     13.65917         0.237498     -0.237498      0.204898
      9.77568     11.36317     13.65917        -0.237498      0.237498      0.204898
      0.00000      0.00000      9.00000        -0.000000     -0.000000      0.161329
      2.11389      2.11389      9.00000         0.000892      0.000892      0.161696
      0.00000      2.11389     11.11389         0.002523     -0.000652     -0.156324
      2.11389      0.00000     11.11389        -0.000652      0.002523     -0.156324
      0.00000      4.22777      9.00000         0.004250     -0.001443      0.161501
      2.11389      6.34166      9.00000         0.002222     -0.002313      0.162371
      0.00000      6.34166     11.11389         0.005832     -0.000949     -0.155232
      2.11389      4.22777     11.11389         0.003500      0.000212     -0.155193
      0.00000      8.45554      9.00000         0.003742     -0.000848      0.161878
      2.11389     10.56943      9.00000        -0.006188     -0.003816      0.162220
      0.00000     10.56943     11.11389        -0.000000     -0.000000     -0.154426
      2.11389      8.45554     11.11389         0.002344     -0.003569     -0.152932
      0.00000     12.68331      9.00000        -0.003742      0.000848      0.161878
      2.11389     14.79720      9.00000        -0.010630      0.001854      0.161186
      0.00000     14.79720     11.11389        -0.005832      0.000949     -0.155232
      2.11389     12.68331     11.11389        -0.010489     -0.002263     -0.153816
      0.00000     16.91108      9.00000        -0.004250      0.001443      0.161501
      2.11389     19.02497      9.00000        -0.003432      0.003432      0.160990
      0.00000     19.02497     11.11389        -0.002523      0.000652     -0.156324
      2.11389     16.91108     11.11389        -0.007716      0.003099     -0.155736
      4.22777      0.00000      9.00000        -0.001443      0.004250      0.161501
      6.34166      2.11389      9.00000        -0.002313      0.002222      0.162371
      4.22777      2.11389     11.11389         0.000212      0.003500     -0.155193
      6.34166      0.00000     11.11389        -0.000949      0.005832     -0.155232
      4.22777      4.22777      9.00000         0.000011      0.000011      0.163256
      6.34166      6.34166      9.00000        -0.004824     -0.004824      0.169490
      4.22777      6.34166     11.11389         0.006366     -0.001940     -0.149842
      6.34166      4.22777     11.11389        -0.001940      0.006366     -0.149842
      4.22777      8.45554      9.00000        -0.003401     -0.009422      0.163841
      6.34166     10.56943      9.00000        -0.027696     -0.030548      0.159657
      4.22777     10.56943     11.11389        -0.009523     -0.013086     -0.146802
      6.34166      8.45554     11.11389         0.026380     -0.016093     -0.121429
      4.22777     12.68331      9.00000        -0.027142     -0.003851      0.162099
      6.34166     14.79720      9.00000        -0.022740      0.022740      0.146607
      4.22777     14.79720     11.11389        -0.025447      0.003706     -0.153888
      6.34166     12.68331     11.11389        -0.139878     -0.022192     -0.156424
      4.22777     16.91108      9.00000        -0.009024      0.009024      0.159156
      6.34166     19.02497      9.00000        -0.001854      0.010630      0.161186
      4.22777     19.02497     11.11389        -0.003099      0.007716     -0.155736
      6.34166     16.91108     11.11389        -0.003706      0.025447     -0.153888
      8.45554      0.00000      9.00000        -0.000848      0.003742      0.161878
     10.56943      2.11389      9.00000        -0.003816     -0.006188      0.162220
      8.45554      2.11389     11.11389        -0.003569      0.002344     -0.152932
     10.56943      0.00000     11.11389        -0.000000     -0.000000     -0.154426
      8.45554      4.22777      9.00000        -0.009422     -0.003401      0.163841
     10.56943      6.34166      9.00000        -0.030548     -0.027696      0.159657
      8.45554      6.34166     11.11389        -0.016093      0.026380     -0.121429
     10.56943      4.22777     11.11389        -0.013086     -0.009523     -0.146802
      8.45554      8.45554      9.00000        -0.032424     -0.032424      0.191995
     10.56943     10.56943      9.00000        -0.000000     -0.000000      0.043337
      8.45554     10.56943     11.11389        -0.174784     -0.242659     -0.133033
     10.56943      8.45554     11.11389        -0.242659     -0.174784     -0.133033
      8.45554     12.68331      9.00000         0.002992     -0.002992      0.024150
     10.56943     14.79720      9.00000         0.030548      0.027696      0.159657
      8.45554     14.79720     11.11389         0.022192      0.139878     -0.156424
     10.56943     12.68331     11.11389         0.242659      0.174784     -0.133033
      8.45554     16.91108      9.00000         0.003851      0.027142      0.162099
     10.56943     19.02497      9.00000         0.003816      0.006188      0.162220
[...]
     19.02497      6.34166     11.11389        -0.009688      0.002039      0.544918
     16.91108      6.34166      9.00000        -0.019179      0.008551     -0.548821
     19.02497      4.22777      9.00000        -0.007145      0.004495     -0.551128
     16.91108      8.45554     11.11389        -0.022958     -0.008172      0.543026
     19.02497     10.56943     11.11389        -0.004392     -0.005527      0.542838
     16.91108     10.56943      9.00000        -0.013149     -0.014351     -0.554128
     19.02497      8.45554      9.00000        -0.009537     -0.001573     -0.551473
     16.91108     12.68331     11.11389        -0.000979     -0.010964      0.537303
     19.02497     14.79720     11.11389         0.002916     -0.001791      0.543875
     16.91108     14.79720      9.00000         0.000256     -0.003434     -0.554683
     19.02497     12.68331      9.00000        -0.000773     -0.004612     -0.552936
     16.91108     16.91108     11.11389         0.002369      0.002369      0.543044
     19.02497     19.02497     11.11389         0.001304      0.001304      0.545895
     16.91108     19.02497      9.00000        -0.000560      0.002030     -0.552248
     19.02497     16.91108      9.00000         0.002030     -0.000560     -0.552248
    total drift:                                0.000000      0.000001     -1.037512

  FREE ENERGIE OF THE ION-ELECTRON SYSTEM (eV)
  free  energy   TOTEN  =      -681.14623929 eV

  energy  without entropy=     -681.14623929  energy(sigma->0) =     -681.14623929