 vasp.6.3.0 20Jan22 (build Apr  1 2022 16:44:48) complex
 executed on        HPECrayEX_GCC date 2022.11.18  10:03:55

 INCAR:
   SYSTEM = MgO-rocksalt
   ISMEAR = 0
   SIGMA = 0.05
   EDIFF = 1E-6
   ALGO = ALL
   ISTART = 0
   IBRION = -1
   NSW = 0
   ISYM = 2
   DIPOL = 0.5 0.5 0.5
   IDIPOL = 3
   LDIPOL = .TRUE.
   LHFCALC = .TRUE.
   GGA = PE
   IVDW = 21
   VDW_SR = 0.96
   ENCUT = 520
   PREC = Accurate
   LASPH = .TRUE.
   LREAL = Auto
   ISPIN = 1
   NELM = 200
   NELMIN = 8
   NCORE = 4
   KPAR = 2
   LWAVE = .FALSE.
   LCHARG = .FALSE.

 POTCAR:    PAW_PBE Cu 22Jun2005
 POTCAR:    PAW_PBE Mg_pv 13Apr2007
 POTCAR:    PAW_PBE O 08Apr2002
|           W    W    AA    RRRRR   N    N  II  N    N   GGGG   !!!           |
|           W    W   A  A   R    R  NN   N  II  NN   N  G    G  !!!           |
|           W    W  A    A  R    R  N N  N  II  N N  N  G       !!!           |
|           W WW W  AAAAAA  RRRRR   N  N N  II  N  N N  G  GGG   !            |
|           WW  WW  A    A  R   R   N   NN  II  N   NN  G    G                |
|           W    W  A    A  R    R  N    N  II  N    N   GGGG   !!!           |
|     You have selected ISYM=2 for a HF type calculation. This will           |
|     symmetrize the charge density but not the exchange potential. I         |
|     suggest to use ISYM=3 instead. This uses symmetry to obtain the         |
|     orbitals at all k-points in the Brillouin zone, but does not apply      |
|     symmetry to the Hartree potential directly. The resultant charge        |
|     might have lower symmetry than the crystal but, at least, Hartree       |
|     and exchange are fully compatible.                                      |

   TITEL  = PAW_PBE Cu 22Jun2005
   POMASS =   63.546; ZVAL   =   11.000    mass and valenz
   ENMAX  =  295.446; ENMIN  =  221.585 eV

   TITEL  = PAW_PBE Mg_pv 13Apr2007
   POMASS =   24.305; ZVAL   =    8.000    mass and valenz
   ENMAX  =  403.929; ENMIN  =  302.947 eV

   TITEL  = PAW_PBE O 08Apr2002
   POMASS =   16.000; ZVAL   =    6.000    mass and valenz
   ENMAX  =  400.000; ENMIN  =  300.000 eV

 Optimization of the real space projectors (new method)

 maximal supplied QI-value         = 16.25
 optimisation between [QCUT,QGAM] = [ 11.54, 23.24] = [ 37.28,151.24] Ry
 Optimized for a Real-space Cutoff    1.53 Angstroem

   l    n(q)    QCUT    max X(q) W(low)/X(q) W(high)/X(q)  e(spline)
   2     10    11.539     4.610    0.96E-04    0.13E-03    0.19E-06
   2     10    11.539     8.522    0.16E-03    0.21E-03    0.28E-06
   0     11    11.539    51.609    0.45E-04    0.31E-04    0.11E-06
   0     11    11.539    27.747    0.39E-04    0.29E-04    0.10E-06
   1     10    11.539    20.408    0.70E-05    0.38E-04    0.18E-06
   1     10    11.539    13.425    0.66E-05    0.34E-04    0.17E-06
 Optimization of the real space projectors (new method)

[...]

   l    n(q)    QCUT    max X(q) W(low)/X(q) W(high)/X(q)  e(spline)
   1      8    11.527     2.974    0.44E-04    0.56E-04    0.12E-06
   1      8    11.527     4.279    0.12E-03    0.12E-03    0.26E-06
   0      9    11.527    16.381    0.46E-04    0.64E-04    0.78E-07
   0      9    11.527     5.611    0.26E-04    0.43E-04    0.55E-07
   2      8    11.527     4.652    0.22E-03    0.72E-04    0.47E-07
 Optimization of the real space projectors (new method)

 maximal supplied QI-value         = 24.76
 optimisation between [QCUT,QGAM] = [ 11.64, 23.27] = [ 37.91,151.63] Ry
 Optimized for a Real-space Cutoff    1.14 Angstroem

   l    n(q)    QCUT    max X(q) W(low)/X(q) W(high)/X(q)  e(spline)
   0      8    11.635    20.381    0.10E-03    0.33E-03    0.24E-06
   0      8    11.635    15.268    0.11E-03    0.35E-03    0.26E-06
   1      7    11.635     5.964    0.24E-03    0.31E-03    0.30E-06
   1      7    11.635     5.382    0.22E-03    0.25E-03    0.26E-06
  PAW_PBE Cu 22Jun2005                  :
  PAW_PBE Mg_pv 13Apr2007               :
  PAW_PBE O 08Apr2002                   :

 POSCAR: Cu Mg  O
  positions in direct lattice
 exchange correlation table for  LEXCH =        8
   RHO(1)=    0.500       N(1)  =     2000
   RHO(2)=  100.500       N(2)  =     4000

 ion  position               nearest neighbor table
   1  0.500  0.500  0.691-   2 2.22
   2  0.500  0.500  0.590- 152 1.94   1 2.22
   3  0.000  0.000  0.407- 105 2.11 106 2.11 121 2.11 186 2.11 103 2.11
   4  0.100  0.100  0.407- 105 2.11 106 2.11 110 2.11 125 2.11 104 2.11
   5  0.000  0.100  0.503- 103 2.11 104 2.11 107 2.11 184 2.11 105 2.11
   6  0.100  0.000  0.503- 103 2.11 104 2.11 120 2.11 123 2.11 106 2.11
   7  0.000  0.200  0.407- 109 2.11 105 2.11 110 2.11 190 2.11 107 2.11
   8  0.100  0.300  0.407- 110 2.11 109 2.11 114 2.11 129 2.11 108 2.11
   9  0.000  0.300  0.503- 107 2.11 108 2.11 111 2.11 188 2.11 109 2.11
  10  0.100  0.200  0.503- 108 2.11 107 2.11 104 2.11 127 2.11 110 2.11
  11  0.000  0.400  0.407- 109 2.11 113 2.11 114 2.11 194 2.11 111 2.11
  12  0.100  0.500  0.407- 113 2.11 114 2.11 118 2.11 133 2.11 112 2.11
  13  0.000  0.500  0.503- 111 2.11 112 2.11 115 2.11 192 2.11 113 2.11
  14  0.100  0.400  0.503- 108 2.11 111 2.11 112 2.11 131 2.11 114 2.11
  15  0.000  0.600  0.407- 113 2.11 117 2.11 118 2.11 198 2.11 115 2.11
  16  0.100  0.700  0.407- 122 2.11 118 2.11 117 2.11 137 2.11 116 2.11
  17  0.000  0.700  0.503- 119 2.11 116 2.11 115 2.11 196 2.11 117 2.11
  18  0.100  0.600  0.503- 112 2.11 115 2.11 116 2.11 135 2.11 118 2.11
  19  0.000  0.800  0.407- 117 2.11 121 2.11 122 2.11 202 2.11 119 2.11
  20  0.100  0.900  0.407- 106 2.11 121 2.11 122 2.11 141 2.11 120 2.11
  21  0.000  0.900  0.503- 103 2.11 119 2.11 120 2.11 200 2.11 121 2.11
  22  0.100  0.800  0.503- 116 2.11 119 2.11 120 2.11 139 2.11 122 2.11
  23  0.200  0.000  0.407- 126 2.11 125 2.11 106 2.11 141 2.11 123 2.11
  24  0.300  0.100  0.407- 125 2.11 126 2.11 130 2.11 145 2.11 124 2.11
  25  0.200  0.100  0.503- 124 2.11 123 2.11 104 2.11 127 2.11 125 2.11
  26  0.300  0.000  0.503- 123 2.11 124 2.11 140 2.11 143 2.11 126 2.11
  27  0.200  0.200  0.407- 129 2.11 130 2.11 110 2.11 125 2.11 127 2.11
  28  0.300  0.300  0.407- 129 2.11 130 2.11 134 2.11 149 2.11 128 2.11
  29  0.200  0.300  0.503- 127 2.11 128 2.11 108 2.11 131 2.11 129 2.11
  30  0.300  0.200  0.503- 127 2.11 128 2.11 124 2.11 147 2.11 130 2.11
  31  0.200  0.400  0.407- 134 2.11 129 2.11 133 2.11 114 2.11 131 2.11
  32  0.300  0.500  0.407- 133 2.11 134 2.11 138 2.11 153 2.11 132 2.11
  33  0.200  0.500  0.503- 132 2.11 131 2.11 112 2.11 135 2.11 133 2.11
  34  0.300  0.400  0.503- 131 2.11 128 2.11 132 2.11 151 2.11 134 2.11
  35  0.200  0.600  0.407- 138 2.11 133 2.11 137 2.11 118 2.11 135 2.11
  36  0.300  0.700  0.407- 137 2.11 142 2.11 138 2.11 157 2.11 136 2.11
  37  0.200  0.700  0.503- 136 2.11 139 2.11 116 2.11 135 2.11 137 2.11
  38  0.300  0.600  0.503- 135 2.11 132 2.11 136 2.11 155 2.11 138 2.11
  39  0.200  0.800  0.407- 137 2.11 142 2.11 141 2.11 122 2.11 139 2.11
  40  0.300  0.900  0.407- 141 2.11 126 2.11 142 2.11 161 2.11 140 2.11
  41  0.200  0.900  0.503- 140 2.11 123 2.11 139 2.11 120 2.11 141 2.11
  42  0.300  0.800  0.503- 136 2.11 139 2.11 140 2.11 159 2.11 142 2.11
  43  0.400  0.000  0.407- 126 2.11 145 2.11 146 2.11 161 2.11 143 2.11
  44  0.500  0.100  0.407- 145 2.11 146 2.11 150 2.11 165 2.11 144 2.11
  45  0.400  0.100  0.503- 124 2.11 143 2.11 144 2.11 147 2.11 145 2.11
  46  0.500  0.000  0.503- 143 2.11 144 2.11 160 2.11 163 2.11 146 2.11
  47  0.400  0.200  0.407- 149 2.11 145 2.11 130 2.11 150 2.11 147 2.11
  48  0.500  0.300  0.407- 150 2.11 149 2.11 154 2.11 169 2.11 148 2.11
  49  0.400  0.300  0.503- 147 2.11 128 2.11 148 2.11 151 2.11 149 2.11
  50  0.500  0.200  0.503- 148 2.11 147 2.11 144 2.11 167 2.11 150 2.11
  51  0.400  0.400  0.407- 134 2.11 149 2.11 153 2.11 154 2.11 151 2.11
  52  0.500  0.500  0.407- 153 2.11 154 2.11 158 2.11 173 2.11 152 2.11
  53  0.400  0.500  0.503- 132 2.11 151 2.11 152 2.11 155 2.11 153 2.11
  54  0.500  0.400  0.503- 148 2.11 151 2.11 152 2.11 171 2.11 154 2.11
  55  0.400  0.600  0.407- 138 2.11 153 2.11 157 2.11 158 2.11 155 2.11
  56  0.500  0.700  0.407- 162 2.11 158 2.11 157 2.11 177 2.11 156 2.11
  57  0.400  0.700  0.503- 159 2.11 155 2.11 156 2.11 136 2.11 157 2.11
  58  0.500  0.600  0.503- 152 2.11 155 2.11 156 2.11 175 2.11 158 2.11
  59  0.400  0.800  0.407- 157 2.11 142 2.11 161 2.11 162 2.11 159 2.11
  60  0.500  0.900  0.407- 146 2.11 161 2.11 162 2.11 181 2.11 160 2.11
[...]
 188  0.900  0.300  0.503-  90 2.11  89 2.11   9 2.11  94 2.11  88 2.11
 189  0.800  0.300  0.407-  68 2.11  87 2.11  88 2.11  91 2.11  89 2.11
 190  0.900  0.200  0.407-  88 2.11  84 2.11  87 2.11   7 2.11  90 2.11
 191  0.800  0.400  0.503-  74 2.11  89 2.11  93 2.11  94 2.11  91 2.11
 192  0.900  0.500  0.503-  13 2.11  93 2.11  94 2.11  98 2.11  92 2.11
 193  0.800  0.500  0.407-  72 2.11  91 2.11  92 2.11  95 2.11  93 2.11
 194  0.900  0.400  0.407-  11 2.11  88 2.11  91 2.11  92 2.11  94 2.11
 195  0.800  0.600  0.503-  78 2.11  93 2.11  97 2.11  98 2.11  95 2.11
 196  0.900  0.700  0.503- 102 2.11  97 2.11  98 2.11  17 2.11  96 2.11
 197  0.800  0.700  0.407-  76 2.11  99 2.11  96 2.11  95 2.11  97 2.11
 198  0.900  0.600  0.407-  15 2.11  92 2.11  95 2.11  96 2.11  98 2.11
 199  0.800  0.800  0.503-  82 2.11  97 2.11 101 2.11 102 2.11  99 2.11
 200  0.900  0.900  0.503-  21 2.11  86 2.11 101 2.11 102 2.11 100 2.11
 201  0.800  0.900  0.407-  80 2.11  83 2.11  99 2.11 100 2.11 101 2.11
 202  0.900  0.800  0.407-  96 2.11  19 2.11  99 2.11 100 2.11 102 2.11

  LATTYP: Found a simple tetragonal cell.
 ALAT       =    21.1388521970
 C/A-ratio  =     1.0461251639

  Lattice vectors:

 A1 = (  21.1388521970,   0.0000000000,   0.0000000000)
 A2 = (   0.0000000000,  21.1388521970,   0.0000000000)
 A3 = (   0.0000000000,   0.0000000000,  22.1138852197)

Analysis of symmetry for initial positions (statically):
 Subroutine PRICEL returns:
 Original cell was already a primitive cell.

 Routine SETGRP: Setting up the symmetry group for a
 simple tetragonal supercell.

 Subroutine GETGRP returns: Found  8 space group operations
 (whereof  8 operations were pure point group operations)
 out of a pool of 16 trial point group operations.

The static configuration has the point symmetry C_4v.

Analysis of symmetry for dynamics (positions and initial velocities):
 Subroutine PRICEL returns:
 Original cell was already a primitive cell.

 Routine SETGRP: Setting up the symmetry group for a
 simple tetragonal supercell.

 Subroutine GETGRP returns: Found  8 space group operations
 (whereof  8 operations were pure point group operations)
 out of a pool of 16 trial point group operations.

The dynamic configuration has the point symmetry C_4v.

 Subroutine INISYM returns: Found  8 space group operations
 (whereof  8 operations are pure point group operations),
 and found     1 'primitive' translations

                                     Primitive cell

  volume of cell :    9881.6133

  direct lattice vectors                    reciprocal lattice vectors
    21.138852197  0.000000000  0.000000000     0.047306258  0.000000000  0.000000000
[...]
   Mg          1.378          1.540          3.329          0.04688480
   Mg          1.370          1.539          3.319          0.04674978
   Mg          1.378          1.540          3.328          0.04687622
   Mg          1.378          1.540          3.328          0.04687622
   Mg          1.378          1.540          3.329          0.04688480
   Mg          1.377          1.540          3.328          0.04687031
   Mg          1.377          1.540          3.328          0.04686949
   Mg          1.378          1.540          3.328          0.04687622
   Mg          1.378          1.540          3.328          0.04687177
   Mg          1.377          1.540          3.328          0.04687116
[...]
   O         199.330          4.883         19.303          3.57456274
   O         199.722          4.885         19.322          3.57807414
   O         199.703          4.885         19.321          3.57790663
   O         199.017          4.882         19.287          3.57175588
   O         199.210          4.883         19.297          3.57348570
   O         199.762          4.885         19.324          3.57843156
   O         199.731          4.885         19.322          3.57815389
   O         199.017          4.882         19.287          3.57175588
   O         199.330          4.883         19.303          3.57456274
   O         199.722          4.885         19.322          3.57807414
   O         199.731          4.885         19.322          3.57815389
   O         199.297          4.883         19.301          3.57426038
   O         199.455          4.884         19.309          3.57567994
   O         199.703          4.885         19.321          3.57790663
   O         199.703          4.885         19.321          3.57790663

  vdW correction parametrized for the method         

  IVDW =  21
  VDW_RADIUS =    50.000 A
  VDW_IDAMPF =  0
  VDW_S6 =     1.000
  VDW_SR =     0.960
  VDW_D =    20.000
  LVDW_ONECELL = F F F
  LVDW_SAMETYPE T T T
  LVDW_EWALD = F

  Number of pair interactions contributing to vdW energy: 1097088
  Edisp (eV):   -7.05010

 VOLUME and BASIS-vectors are now :
  energy-cutoff  :      520.00
  volume of cell :     9881.61
      direct lattice vectors                 reciprocal lattice vectors
    21.138852197  0.000000000  0.000000000     0.047306258  0.000000000  0.000000000
     0.000000000 21.138852197  0.000000000     0.000000000  0.047306258  0.000000000
     0.000000000  0.000000000 22.113885220     0.000000000  0.000000000  0.045220457

  length of vectors
    21.138852197 21.138852197 22.113885220     0.047306258  0.047306258  0.045220457

 FORCES acting on ions:
    Electron-Ion                     Ewald-Force                    Non-Local-Force
   -.692E-12 -.516E-12 -.201E+04   0.322E-13 0.284E-13 0.200E+04   -.132E-22 0.000E+00 0.143E+02
   -.409E-12 -.270E-11 -.192E+04   -.568E-13 -.426E-13 0.193E+04   0.000E+00 0.000E+00 -.705E+01
   0.143E-12 -.226E-12 0.931E+03   0.764E-13 0.213E-12 -.923E+03   0.000E+00 0.000E+00 -.710E+01
   0.383E+01 0.383E+01 0.932E+03   -.383E+01 -.383E+01 -.924E+03   0.637E-02 0.637E-02 -.710E+01
   0.143E-12 0.402E+01 -.923E+03   0.103E-12 -.402E+01 0.915E+03   0.000E+00 0.257E-02 0.706E+01
   0.402E+01 -.186E-12 -.923E+03   -.402E+01 0.107E-12 0.915E+03   0.257E-02 -.331E-23 0.706E+01
   0.118E-12 0.557E+01 0.933E+03   0.153E-10 -.558E+01 -.924E+03   -.662E-23 0.721E-02 -.710E+01
   0.767E+01 0.709E+01 0.936E+03   -.770E+01 -.711E+01 -.927E+03   0.238E-01 0.109E-01 -.711E+01
   0.113E-12 0.729E+01 -.921E+03   0.181E-11 -.730E+01 0.913E+03   -.662E-23 0.377E-02 0.705E+01
   0.701E+01 0.831E+01 -.922E+03   -.703E+01 -.831E+01 0.913E+03   0.816E-02 0.557E-02 0.705E+01
   0.104E-12 0.379E+01 0.935E+03   -.174E-10 -.379E+01 -.927E+03   0.000E+00 0.449E-02 -.711E+01
   0.110E+02 -.363E-12 0.938E+03   -.110E+02 0.228E-12 -.930E+03   0.394E-01 0.132E-22 -.711E+01
   0.122E-12 -.250E-12 -.920E+03   0.120E-12 0.126E-12 0.911E+03   0.000E+00 0.000E+00 0.705E+01
   0.144E+02 0.623E+01 -.918E+03   -.144E+02 -.623E+01 0.910E+03   0.169E-01 0.292E-02 0.705E+01
   0.129E-12 -.379E+01 0.935E+03   0.116E-11 0.379E+01 -.927E+03   0.000E+00 -.449E-02 -.711E+01
   0.767E+01 -.709E+01 0.936E+03   -.770E+01 0.711E+01 -.927E+03   0.238E-01 -.109E-01 -.711E+01
   0.129E-12 -.729E+01 -.921E+03   -.785E-12 0.730E+01 0.913E+03   0.000E+00 -.377E-02 0.705E+01
   0.144E+02 -.623E+01 -.918E+03   -.144E+02 0.623E+01 0.910E+03   0.169E-01 -.292E-02 0.705E+01
   0.134E-12 -.557E+01 0.933E+03   0.853E-12 0.558E+01 -.924E+03   0.662E-23 -.721E-02 -.710E+01
   0.383E+01 -.383E+01 0.932E+03   -.383E+01 0.383E+01 -.924E+03   0.637E-02 -.637E-02 -.710E+01
   0.144E-12 -.402E+01 -.923E+03   -.867E-12 0.402E+01 0.915E+03   0.000E+00 -.257E-02 0.706E+01
   0.701E+01 -.831E+01 -.922E+03   -.703E+01 0.831E+01 0.913E+03   0.816E-02 -.557E-02 0.705E+01
   0.557E+01 -.968E-13 0.933E+03   -.558E+01 0.101E-12 -.924E+03   0.721E-02 0.132E-22 -.710E+01
   0.709E+01 0.767E+01 0.936E+03   -.711E+01 -.770E+01 -.927E+03   0.109E-01 0.238E-01 -.711E+01
   0.831E+01 0.701E+01 -.922E+03   -.831E+01 -.703E+01 0.913E+03   0.557E-02 0.816E-02 0.705E+01
   0.729E+01 0.941E-13 -.921E+03   -.730E+01 0.941E-13 0.913E+03   0.377E-02 0.000E+00 0.705E+01
   0.962E+01 0.962E+01 0.936E+03   -.966E+01 -.966E+01 -.928E+03   0.241E-01 0.241E-01 -.711E+01
   0.188E+02 0.188E+02 0.949E+03   -.189E+02 -.189E+02 -.940E+03   0.820E-01 0.820E-01 -.713E+01
   0.216E+02 0.160E+02 -.915E+03   -.217E+02 -.161E+02 0.907E+03   0.371E-01 0.102E-01 0.704E+01
   0.160E+02 0.216E+02 -.915E+03   -.161E+02 -.217E+02 0.907E+03   0.102E-01 0.371E-01 0.704E+01
   0.202E+02 0.789E+01 0.945E+03   -.204E+02 -.792E+01 -.936E+03   0.989E-01 0.181E-01 -.713E+01
   0.343E+02 -.132E-11 0.966E+03   -.348E+02 0.218E-12 -.958E+03   0.354E+00 0.207E-24 -.722E+01
   0.375E+02 -.215E-11 -.908E+03   -.376E+02 0.107E-13 0.900E+03   0.566E-01 0.000E+00 0.702E+01
   0.565E+02 0.289E+02 -.890E+03   -.568E+02 -.289E+02 0.881E+03   0.220E+00 0.565E-02 0.698E+01
   0.202E+02 -.789E+01 0.945E+03   -.204E+02 0.792E+01 -.936E+03   0.989E-01 -.181E-01 -.713E+01
   0.188E+02 -.188E+02 0.949E+03   -.189E+02 0.189E+02 -.940E+03   0.820E-01 -.820E-01 -.713E+01
   0.216E+02 -.160E+02 -.915E+03   -.217E+02 0.161E+02 0.907E+03   0.371E-01 -.102E-01 0.704E+01
   0.565E+02 -.289E+02 -.890E+03   -.568E+02 0.289E+02 0.881E+03   0.220E+00 -.565E-02 0.698E+01
   0.962E+01 -.962E+01 0.936E+03   -.966E+01 0.966E+01 -.928E+03   0.241E-01 -.241E-01 -.711E+01
   0.709E+01 -.767E+01 0.936E+03   -.711E+01 0.770E+01 -.927E+03   0.109E-01 -.238E-01 -.711E+01
   0.831E+01 -.701E+01 -.922E+03   -.831E+01 0.703E+01 0.913E+03   0.557E-02 -.816E-02 0.705E+01
   0.160E+02 -.216E+02 -.915E+03   -.161E+02 0.217E+02 0.907E+03   0.102E-01 -.371E-01 0.704E+01
   0.379E+01 -.616E-12 0.935E+03   -.379E+01 0.449E-13 -.927E+03   0.449E-02 0.000E+00 -.711E+01
   -.220E-12 0.110E+02 0.938E+03   0.387E-11 -.110E+02 -.930E+03   0.124E-22 0.394E-01 -.711E+01
   0.623E+01 0.144E+02 -.918E+03   -.623E+01 -.144E+02 0.910E+03   0.292E-02 0.169E-01 0.705E+01
   -.229E-12 0.414E-12 -.920E+03   0.622E-14 0.933E-13 0.911E+03   -.331E-23 0.000E+00 0.705E+01
   0.789E+01 0.202E+02 0.945E+03   -.792E+01 -.204E+02 -.936E+03   0.181E-01 0.989E-01 -.713E+01
   -.207E-12 0.343E+02 0.966E+03   -.579E-11 -.348E+02 -.958E+03   0.414E-24 0.354E+00 -.722E+01
   0.289E+02 0.565E+02 -.890E+03   -.289E+02 -.568E+02 0.881E+03   0.565E-02 0.220E+00 0.698E+01
   -.210E-12 0.375E+02 -.908E+03   -.193E-10 -.376E+02 0.900E+03   0.207E-24 0.566E-01 0.702E+01
   0.267E+02 0.267E+02 0.985E+03   -.271E+02 -.271E+02 -.977E+03   0.254E+00 0.254E+00 -.711E+01
   -.250E-12 0.241E-11 0.103E+04   -.104E-12 0.214E-12 -.102E+04   0.000E+00 0.662E-23 -.485E+01
   0.134E+03 0.138E-10 -.774E+03   -.137E+03 0.933E-14 0.766E+03   0.205E+01 0.000E+00 0.660E+01
   -.226E-12 0.134E+03 -.774E+03   0.215E-10 -.137E+03 0.766E+03   0.000E+00 0.205E+01 0.660E+01
   0.267E+02 -.267E+02 0.985E+03   -.271E+02 0.271E+02 -.977E+03   0.254E+00 -.254E+00 -.711E+01
   -.214E-12 -.343E+02 0.966E+03   -.183E-10 0.348E+02 -.958E+03   0.000E+00 -.354E+00 -.722E+01
   0.289E+02 -.565E+02 -.890E+03   -.289E+02 0.568E+02 0.881E+03   0.565E-02 -.220E+00 0.698E+01
   -.222E-12 -.134E+03 -.774E+03   0.183E-10 0.137E+03 0.766E+03   0.000E+00 -.205E+01 0.660E+01
   0.789E+01 -.202E+02 0.945E+03   -.792E+01 0.204E+02 -.936E+03   0.181E-01 -.989E-01 -.713E+01
   -.234E-12 -.110E+02 0.938E+03   0.203E-10 0.110E+02 -.930E+03   0.165E-22 -.394E-01 -.711E+01
[...]
   -.110E+02 0.836E+01 0.706E+03   0.111E+02 -.839E+01 -.710E+03   -.509E-01 0.354E-01 0.306E+01
   -.402E+01 0.492E+01 0.701E+03   0.403E+01 -.493E+01 -.705E+03   -.127E-01 0.127E-01 0.307E+01
   -.241E+02 0.904E+01 -.684E+03   0.242E+02 -.905E+01 0.688E+03   -.491E-01 0.103E-01 -.320E+01
   -.121E+02 -.517E-11 -.689E+03   0.121E+02 0.103E-10 0.693E+03   -.186E-01 0.496E-22 -.317E+01
   -.172E+02 0.379E-11 0.711E+03   0.173E+02 -.169E-11 -.715E+03   -.841E-01 0.000E+00 0.304E+01
   -.750E+01 0.352E+01 0.704E+03   0.752E+01 -.352E+01 -.708E+03   -.268E-01 0.911E-02 0.307E+01
   -.241E+02 -.904E+01 -.684E+03   0.242E+02 0.905E+01 0.688E+03   -.491E-01 -.103E-01 -.320E+01
   -.796E+01 -.690E+01 -.691E+03   0.797E+01 0.691E+01 0.695E+03   -.133E-01 -.753E-02 -.315E+01
   -.110E+02 -.836E+01 0.706E+03   0.111E+02 0.839E+01 -.710E+03   -.509E-01 -.354E-01 0.306E+01
   -.750E+01 -.352E+01 0.704E+03   0.752E+01 0.352E+01 -.708E+03   -.268E-01 -.911E-02 0.307E+01
   -.981E+01 -.981E+01 -.691E+03   0.982E+01 0.982E+01 0.695E+03   -.197E-01 -.197E-01 -.316E+01
   -.357E+01 -.357E+01 -.693E+03   0.357E+01 0.357E+01 0.697E+03   -.507E-02 -.507E-02 -.314E+01
   -.492E+01 -.402E+01 0.701E+03   0.493E+01 0.403E+01 -.705E+03   -.127E-01 -.127E-01 0.307E+01
   -.402E+01 -.492E+01 0.701E+03   0.403E+01 0.493E+01 -.705E+03   -.127E-01 -.127E-01 0.307E+01
   0.141E-10 -.437E-10 -.670E+01   0.181E-11 0.597E-12 0.171E-10   -.387E-15 0.116E-15 0.585E+01

 POSITION                                       TOTAL-FORCE (eV/Angst)
     10.56943     10.56943     15.28023         0.000000      0.000000      0.184944
     10.56943     10.56943     13.05633         0.000000      0.000000     -0.169719
      0.00000      0.00000      9.00000         0.000000      0.000000      0.572297
      2.11389      2.11389      9.00000        -0.002040     -0.002040      0.572704
      0.00000      2.11389     11.11389         0.000000     -0.000816     -0.556186
      2.11389      0.00000     11.11389        -0.000816      0.000000     -0.556186
      0.00000      4.22777      9.00000         0.000000     -0.002336      0.573050
      2.11389      6.34166      9.00000        -0.007311     -0.003549      0.574628
      0.00000      6.34166     11.11389         0.000000     -0.001179     -0.553735
      2.11389      4.22777     11.11389        -0.002433     -0.001760     -0.554186
      0.00000      8.45554      9.00000         0.000000     -0.001467      0.574465
      2.11389     10.56943      9.00000        -0.011991      0.000000      0.576202
      0.00000     10.56943     11.11389         0.000000      0.000000     -0.551992
      2.11389      8.45554     11.11389        -0.004494     -0.000877     -0.549736
      0.00000     12.68331      9.00000         0.000000      0.001467      0.574465
      2.11389     14.79720      9.00000        -0.007311      0.003549      0.574628
      0.00000     14.79720     11.11389         0.000000      0.001179     -0.553735
      2.11389     12.68331     11.11389        -0.004494      0.000877     -0.549736
      0.00000     16.91108      9.00000         0.000000      0.002336      0.573050
      2.11389     19.02497      9.00000        -0.002040      0.002040      0.572704
      0.00000     19.02497     11.11389         0.000000      0.000816     -0.556186
      2.11389     16.91108     11.11389        -0.002433      0.001760     -0.554186
      4.22777      0.00000      9.00000        -0.002336      0.000000      0.573050
      6.34166      2.11389      9.00000        -0.003549     -0.007311      0.574628
      4.22777      2.11389     11.11389        -0.001760     -0.002433     -0.554186
      6.34166      0.00000     11.11389        -0.001179      0.000000     -0.553735
      4.22777      4.22777      9.00000        -0.007732     -0.007732      0.574365
      6.34166      6.34166      9.00000        -0.027286     -0.027286      0.578214
      4.22777      6.34166     11.11389        -0.010316     -0.003078     -0.545119
      6.34166      4.22777     11.11389        -0.003078     -0.010316     -0.545119
      4.22777      8.45554      9.00000        -0.030132     -0.006081      0.580763
      6.34166     10.56943      9.00000        -0.103786      0.000000      0.599936
      4.22777     10.56943     11.11389        -0.013093      0.000000     -0.534009
      6.34166      8.45554     11.11389        -0.057400      0.001523     -0.497737
      4.22777     12.68331      9.00000        -0.030132      0.006081      0.580763
      6.34166     14.79720      9.00000        -0.027286      0.027286      0.578214
      4.22777     14.79720     11.11389        -0.010316      0.003078     -0.545119
      6.34166     12.68331     11.11389        -0.057400     -0.001523     -0.497737
      4.22777     16.91108      9.00000        -0.007732      0.007732      0.574365
      6.34166     19.02497      9.00000        -0.003549      0.007311      0.574628
      4.22777     19.02497     11.11389        -0.001760      0.002433     -0.554186
      6.34166     16.91108     11.11389        -0.003078      0.010316     -0.545119
      8.45554      0.00000      9.00000        -0.001467      0.000000      0.574465
     10.56943      2.11389      9.00000         0.000000     -0.011991      0.576202
      8.45554      2.11389     11.11389        -0.000877     -0.004494     -0.549736
     10.56943      0.00000     11.11389         0.000000      0.000000     -0.551992
      8.45554      4.22777      9.00000        -0.006081     -0.030132      0.580763
     10.56943      6.34166      9.00000         0.000000     -0.103786      0.599936
      8.45554      6.34166     11.11389         0.001523     -0.057400     -0.497737
     10.56943      4.22777     11.11389         0.000000     -0.013093     -0.534009
      8.45554      8.45554      9.00000        -0.098220     -0.098220      0.549120
     10.56943     10.56943      9.00000         0.000000      0.000000      0.000993
      8.45554     10.56943     11.11389        -0.872857      0.000000     -0.507830
     10.56943      8.45554     11.11389         0.000000     -0.872857     -0.507830
      8.45554     12.68331      9.00000        -0.098220      0.098220      0.549120
     10.56943     14.79720      9.00000         0.000000      0.103786      0.599936
      8.45554     14.79720     11.11389         0.001523      0.057400     -0.497737
     10.56943     12.68331     11.11389         0.000000      0.872857     -0.507830
      8.45554     16.91108      9.00000        -0.006081      0.030132      0.580763
     10.56943     19.02497      9.00000         0.000000      0.011991      0.576202
[...]
     19.02497      6.34166     11.11389        -0.004614      0.002609      0.409561
     16.91108      6.34166      9.00000        -0.016706      0.011601     -0.435450
     19.02497      4.22777      9.00000        -0.004248      0.004242     -0.431817
     16.91108      8.45554     11.11389        -0.017956      0.003959      0.394392
     19.02497     10.56943     11.11389        -0.006650      0.000000      0.405748
     16.91108     10.56943      9.00000        -0.027999      0.000000     -0.441044
     19.02497      8.45554      9.00000        -0.008942      0.003028     -0.434161
     16.91108     12.68331     11.11389        -0.017956     -0.003959      0.394392
     19.02497     14.79720     11.11389        -0.004614     -0.002609      0.409561
     16.91108     14.79720      9.00000        -0.016706     -0.011601     -0.435450
     19.02497     12.68331      9.00000        -0.008942     -0.003028     -0.434161
     16.91108     16.91108     11.11389        -0.006740     -0.006740      0.408918
     19.02497     19.02497     11.11389        -0.001700     -0.001700      0.413679
     16.91108     19.02497      9.00000        -0.004242     -0.004248     -0.431817
     19.02497     16.91108      9.00000        -0.004248     -0.004242     -0.431817
    total drift:                                0.000000     -0.000000     -0.529895

  FREE ENERGIE OF THE ION-ELECTRON SYSTEM (eV)
  free  energy   TOTEN  =     -1431.08987289 eV

  energy  without entropy=    -1431.08987289  energy(sigma->0) =    -1431.08987289