 vasp.6.3.0 20Jan22 (build Apr  1 2022 16:44:48) complex
 executed on        HPECrayEX_GCC date 2023.01.18  00:11:19

 INCAR:
   SYSTEM = MgO-rocksalt
   ISMEAR = 0
   SIGMA = 0.05
   EDIFF = 1E-6
   ALGO = ALL
   ISTART = 0
   IBRION = -1
   NSW = 0
   ISYM = 2
   DIPOL = 0.5 0.5 0.5
   IDIPOL = 3
   LDIPOL = .TRUE.
   LHFCALC = .TRUE.
   GGA = PE
   IVDW = 21
   VDW_SR = 0.96
   ENCUT = 520
   PREC = Accurate
   LASPH = .TRUE.
   LREAL = Auto
   ISPIN = 1
   NELM = 200
   NELMIN = 8
   NCORE = 4
   KPAR = 2
   LWAVE = .FALSE.
   LCHARG = .FALSE.

 POTCAR:    PAW_PBE Cu 22Jun2005
 POTCAR:    PAW_PBE Mg_pv 13Apr2007
 POTCAR:    PAW_PBE O 08Apr2002
|           W    W    AA    RRRRR   N    N  II  N    N   GGGG   !!!           |
|           W    W   A  A   R    R  NN   N  II  NN   N  G    G  !!!           |
|           W    W  A    A  R    R  N N  N  II  N N  N  G       !!!           |
|           W WW W  AAAAAA  RRRRR   N  N N  II  N  N N  G  GGG   !            |
|           WW  WW  A    A  R   R   N   NN  II  N   NN  G    G                |
|           W    W  A    A  R    R  N    N  II  N    N   GGGG   !!!           |
|     You have selected ISYM=2 for a HF type calculation. This will           |
|     symmetrize the charge density but not the exchange potential. I         |
|     suggest to use ISYM=3 instead. This uses symmetry to obtain the         |
|     orbitals at all k-points in the Brillouin zone, but does not apply      |
|     symmetry to the Hartree potential directly. The resultant charge        |
|     might have lower symmetry than the crystal but, at least, Hartree       |
|     and exchange are fully compatible.                                      |

   TITEL  = PAW_PBE Cu 22Jun2005
   POMASS =   63.546; ZVAL   =   11.000    mass and valenz
   ENMAX  =  295.446; ENMIN  =  221.585 eV

   TITEL  = PAW_PBE Mg_pv 13Apr2007
   POMASS =   24.305; ZVAL   =    8.000    mass and valenz
   ENMAX  =  403.929; ENMIN  =  302.947 eV

   TITEL  = PAW_PBE O 08Apr2002
   POMASS =   16.000; ZVAL   =    6.000    mass and valenz
   ENMAX  =  400.000; ENMIN  =  300.000 eV

 Optimization of the real space projectors (new method)

 maximal supplied QI-value         = 16.25
 optimisation between [QCUT,QGAM] = [ 11.54, 23.24] = [ 37.28,151.24] Ry
 Optimized for a Real-space Cutoff    1.53 Angstroem

   l    n(q)    QCUT    max X(q) W(low)/X(q) W(high)/X(q)  e(spline)
   2     10    11.539     4.610    0.96E-04    0.13E-03    0.19E-06
   2     10    11.539     8.522    0.16E-03    0.21E-03    0.28E-06
   0     11    11.539    51.609    0.45E-04    0.31E-04    0.11E-06
   0     11    11.539    27.747    0.39E-04    0.29E-04    0.10E-06
   1     10    11.539    20.408    0.70E-05    0.38E-04    0.18E-06
   1     10    11.539    13.425    0.66E-05    0.34E-04    0.17E-06
 Optimization of the real space projectors (new method)

[...]

   l    n(q)    QCUT    max X(q) W(low)/X(q) W(high)/X(q)  e(spline)
   1      8    11.527     2.974    0.44E-04    0.56E-04    0.12E-06
   1      8    11.527     4.279    0.12E-03    0.12E-03    0.26E-06
   0      9    11.527    16.381    0.46E-04    0.64E-04    0.78E-07
   0      9    11.527     5.611    0.26E-04    0.43E-04    0.55E-07
   2      8    11.527     4.652    0.22E-03    0.72E-04    0.47E-07
 Optimization of the real space projectors (new method)

 maximal supplied QI-value         = 24.76
 optimisation between [QCUT,QGAM] = [ 11.64, 23.27] = [ 37.91,151.63] Ry
 Optimized for a Real-space Cutoff    1.14 Angstroem

   l    n(q)    QCUT    max X(q) W(low)/X(q) W(high)/X(q)  e(spline)
   0      8    11.635    20.381    0.10E-03    0.33E-03    0.24E-06
   0      8    11.635    15.268    0.11E-03    0.35E-03    0.26E-06
   1      7    11.635     5.964    0.24E-03    0.31E-03    0.30E-06
   1      7    11.635     5.382    0.22E-03    0.25E-03    0.26E-06
  PAW_PBE Cu 22Jun2005                  :
  PAW_PBE Mg_pv 13Apr2007               :
  PAW_PBE O 08Apr2002                   :

 POSCAR: Cu Mg  O
  positions in direct lattice
  velocities in cartesian coordinates
 exchange correlation table for  LEXCH =        8
   RHO(1)=    0.500       N(1)  =     2000
   RHO(2)=  100.500       N(2)  =     4000

 ion  position               nearest neighbor table
   1  0.398  0.602  0.598- 157 2.11   2 2.32
   2  0.321  0.679  0.599- 138 2.22   1 2.32
   3  0.579  0.421  0.599- 173 2.22   4 2.32
   4  0.502  0.498  0.598- 154 2.11   3 2.32
   5  0.000  0.000  0.407- 107 2.11 108 2.11 123 2.11 188 2.11 105 2.11
   6  0.100  0.100  0.407- 107 2.11 108 2.11 112 2.11 127 2.11 106 2.11
   7  0.000  0.100  0.503- 105 2.11 106 2.11 109 2.11 186 2.11 107 2.11
   8  0.100  0.000  0.503- 105 2.11 106 2.11 122 2.11 125 2.11 108 2.11
   9  0.000  0.200  0.407- 111 2.11 107 2.11 112 2.11 192 2.11 109 2.11
  10  0.100  0.300  0.407- 112 2.11 111 2.11 116 2.11 131 2.11 110 2.11
  11  0.000  0.300  0.503- 109 2.11 110 2.11 113 2.11 190 2.11 111 2.11
  12  0.100  0.200  0.503- 110 2.11 109 2.11 106 2.11 129 2.11 112 2.11
  13  0.000  0.400  0.407- 111 2.11 115 2.11 116 2.11 196 2.11 113 2.11
  14  0.100  0.500  0.407- 115 2.11 116 2.11 120 2.11 135 2.11 114 2.11
  15  0.000  0.500  0.503- 113 2.11 114 2.11 117 2.11 194 2.11 115 2.11
  16  0.100  0.400  0.503- 110 2.11 113 2.11 114 2.11 133 2.11 116 2.11
  17  0.000  0.600  0.407- 115 2.11 119 2.11 120 2.11 200 2.11 117 2.11
  18  0.100  0.700  0.407- 124 2.11 120 2.11 119 2.11 139 2.11 118 2.11
  19  0.000  0.700  0.503- 121 2.11 118 2.11 117 2.11 198 2.11 119 2.11
  20  0.100  0.600  0.503- 114 2.11 117 2.11 118 2.11 137 2.11 120 2.11
  21  0.000  0.800  0.407- 119 2.11 123 2.11 124 2.11 204 2.11 121 2.11
  22  0.100  0.900  0.407- 108 2.11 123 2.11 124 2.11 143 2.11 122 2.11
  23  0.000  0.900  0.503- 105 2.11 121 2.11 122 2.11 202 2.11 123 2.11
  24  0.100  0.800  0.503- 118 2.11 121 2.11 122 2.11 141 2.11 124 2.11
  25  0.200  0.000  0.407- 128 2.11 127 2.11 108 2.11 143 2.11 125 2.11
  26  0.300  0.100  0.407- 127 2.11 128 2.11 132 2.11 147 2.11 126 2.11
  27  0.200  0.100  0.503- 126 2.11 125 2.11 106 2.11 129 2.11 127 2.11
  28  0.300  0.000  0.503- 125 2.11 126 2.11 142 2.11 145 2.11 128 2.11
  29  0.200  0.200  0.407- 131 2.11 132 2.11 112 2.11 127 2.11 129 2.11
  30  0.300  0.300  0.407- 131 2.11 132 2.11 136 2.11 151 2.11 130 2.11
  31  0.200  0.300  0.503- 129 2.11 130 2.11 110 2.11 133 2.11 131 2.11
  32  0.300  0.200  0.503- 129 2.11 130 2.11 126 2.11 149 2.11 132 2.11
  33  0.200  0.400  0.407- 136 2.11 131 2.11 135 2.11 116 2.11 133 2.11
  34  0.300  0.500  0.407- 135 2.11 136 2.11 140 2.11 155 2.11 134 2.11
  35  0.200  0.500  0.503- 134 2.11 133 2.11 114 2.11 137 2.11 135 2.11
  36  0.300  0.400  0.503- 133 2.11 130 2.11 134 2.11 153 2.11 136 2.11
  37  0.200  0.600  0.407- 140 2.11 135 2.11 139 2.11 120 2.11 137 2.11
  38  0.300  0.700  0.407- 139 2.11 144 2.11 140 2.11 159 2.11 138 2.11
  39  0.200  0.700  0.503- 138 2.11 141 2.11 118 2.11 137 2.11 139 2.11
  40  0.300  0.600  0.503- 137 2.11 134 2.11 138 2.11 157 2.11 140 2.11
  41  0.200  0.800  0.407- 139 2.11 144 2.11 143 2.11 124 2.11 141 2.11
  42  0.300  0.900  0.407- 143 2.11 128 2.11 144 2.11 163 2.11 142 2.11
  43  0.200  0.900  0.503- 142 2.11 125 2.11 141 2.11 122 2.11 143 2.11
  44  0.300  0.800  0.503- 138 2.11 141 2.11 142 2.11 161 2.11 144 2.11
  45  0.400  0.000  0.407- 128 2.11 147 2.11 148 2.11 163 2.11 145 2.11
  46  0.500  0.100  0.407- 147 2.11 148 2.11 152 2.11 167 2.11 146 2.11
  47  0.400  0.100  0.503- 126 2.11 145 2.11 146 2.11 149 2.11 147 2.11
  48  0.500  0.000  0.503- 145 2.11 146 2.11 162 2.11 165 2.11 148 2.11
  49  0.400  0.200  0.407- 151 2.11 147 2.11 132 2.11 152 2.11 149 2.11
  50  0.500  0.300  0.407- 152 2.11 151 2.11 156 2.11 171 2.11 150 2.11
  51  0.400  0.300  0.503- 149 2.11 130 2.11 150 2.11 153 2.11 151 2.11
  52  0.500  0.200  0.503- 150 2.11 149 2.11 146 2.11 169 2.11 152 2.11
  53  0.400  0.400  0.407- 136 2.11 151 2.11 155 2.11 156 2.11 153 2.11
  54  0.500  0.500  0.407- 155 2.11 156 2.11 160 2.11 175 2.11 154 2.11
  55  0.400  0.500  0.503- 134 2.11 153 2.11 154 2.11 157 2.11 155 2.11
  56  0.500  0.400  0.503- 150 2.11 153 2.11 154 2.11 173 2.11 156 2.11
  57  0.400  0.600  0.407- 140 2.11 155 2.11 159 2.11 160 2.11 157 2.11
  58  0.500  0.700  0.407- 164 2.11 160 2.11 159 2.11 179 2.11 158 2.11
  59  0.400  0.700  0.503- 161 2.11 157 2.11 158 2.11 138 2.11 159 2.11
  60  0.500  0.600  0.503- 154 2.11 157 2.11 158 2.11 177 2.11 160 2.11
[...]
 190  0.900  0.300  0.503-  92 2.11  91 2.11  11 2.11  96 2.11  90 2.11
 191  0.800  0.300  0.407-  70 2.11  89 2.11  90 2.11  93 2.11  91 2.11
 192  0.900  0.200  0.407-  90 2.11  86 2.11  89 2.11   9 2.11  92 2.11
 193  0.800  0.400  0.503-  76 2.11  91 2.11  95 2.11  96 2.11  93 2.11
 194  0.900  0.500  0.503-  15 2.11  95 2.11  96 2.11 100 2.11  94 2.11
 195  0.800  0.500  0.407-  74 2.11  93 2.11  94 2.11  97 2.11  95 2.11
 196  0.900  0.400  0.407-  13 2.11  90 2.11  93 2.11  94 2.11  96 2.11
 197  0.800  0.600  0.503-  80 2.11  95 2.11  99 2.11 100 2.11  97 2.11
 198  0.900  0.700  0.503- 104 2.11  99 2.11 100 2.11  19 2.11  98 2.11
 199  0.800  0.700  0.407-  78 2.11 101 2.11  98 2.11  97 2.11  99 2.11
 200  0.900  0.600  0.407-  17 2.11  94 2.11  97 2.11  98 2.11 100 2.11
 201  0.800  0.800  0.503-  84 2.11  99 2.11 103 2.11 104 2.11 101 2.11
 202  0.900  0.900  0.503-  23 2.11  88 2.11 103 2.11 104 2.11 102 2.11
 203  0.800  0.900  0.407-  82 2.11  85 2.11 101 2.11 102 2.11 103 2.11
 204  0.900  0.800  0.407-  98 2.11  21 2.11 101 2.11 102 2.11 104 2.11

  LATTYP: Found a simple tetragonal cell.
 ALAT       =    21.1388521970
 C/A-ratio  =     1.0461251639

  Lattice vectors:

 A1 = (  21.1388521970,   0.0000000000,   0.0000000000)
 A2 = (   0.0000000000,  21.1388521970,   0.0000000000)
 A3 = (   0.0000000000,   0.0000000000,  22.1138852197)

Analysis of symmetry for initial positions (statically):
 Subroutine PRICEL returns:
 Original cell was already a primitive cell.

 Routine SETGRP: Setting up the symmetry group for a
 simple tetragonal supercell.

 Subroutine GETGRP returns: Found  2 space group operations
 (whereof  1 operations were pure point group operations)
 out of a pool of 16 trial point group operations.

The static configuration has the point symmetry C_1 .
 The point group associated with its full space group is C_1h.

Analysis of symmetry for dynamics (positions and initial velocities):
 Subroutine PRICEL returns:
 Original cell was already a primitive cell.

[...]

The dynamic configuration has the point symmetry C_1 .
 The point group associated with its full space group is C_1h.

Analysis of constrained symmetry for selective dynamics:
 Subroutine PRICEL returns:
 Original cell was already a primitive cell.

 Routine SETGRP: Setting up the symmetry group for a
 simple tetragonal supercell.

 Subroutine GETGRP returns: Found  2 space group operations
 (whereof  1 operations were pure point group operations)
 out of a pool of 16 trial point group operations.

The constrained configuration has the point symmetry C_1 .
 The point group associated with its full space group is C_1h.

 Subroutine INISYM returns: Found  2 space group operations
[...]
   Mg          1.375          1.539          3.325          0.04683409
   Mg          1.378          1.540          3.329          0.04688334
   Mg          1.378          1.540          3.328          0.04687526
   Mg          1.374          1.539          3.323          0.04680911
   Mg          1.372          1.539          3.321          0.04678034
   Mg          1.381          1.540          3.332          0.04692633
   Mg          1.374          1.539          3.323          0.04680911
   Mg          1.378          1.540          3.328          0.04687525
   Mg          1.381          1.540          3.332          0.04692699
   Mg          1.372          1.539          3.321          0.04678067
[...]
   O         198.926          4.881         19.283          3.57093584
   O         199.696          4.885         19.320          3.57783829
   O         199.839          4.885         19.327          3.57912174
   O         200.728          4.889         19.370          3.58707175
   O         198.679          4.880         19.271          3.56871932
   O         199.848          4.885         19.328          3.57920157
   O         199.874          4.885         19.329          3.57943750
   O         198.503          4.880         19.263          3.56713736
   O         198.780          4.881         19.276          3.56962507
   O         199.969          4.886         19.334          3.58028304
   O         199.928          4.886         19.332          3.57991861
   O         198.795          4.881         19.277          3.56976121
   O         199.001          4.882         19.287          3.57161073
   O         199.899          4.885         19.330          3.57965964
   O         199.886          4.885         19.330          3.57954566

  vdW correction parametrized for the method         

  IVDW =  21
  VDW_RADIUS =    50.000 A
  VDW_IDAMPF =  0
  VDW_S6 =     1.000
  VDW_SR =     0.960
  VDW_D =    20.000
  LVDW_ONECELL = F F F
  LVDW_SAMETYPE T T T
  LVDW_EWALD = F

  Number of pair interactions contributing to vdW energy: 1118742
  Edisp (eV):   -7.52630

 VOLUME and BASIS-vectors are now :
  energy-cutoff  :      520.00
  volume of cell :     9881.61
      direct lattice vectors                 reciprocal lattice vectors
    21.138852197  0.000000000  0.000000000     0.047306258  0.000000000  0.000000000
     0.000000000 21.138852197  0.000000000     0.000000000  0.047306258  0.000000000
     0.000000000  0.000000000 22.113885220     0.000000000  0.000000000  0.045220457

  length of vectors
    21.138852197 21.138852197 22.113885220     0.047306258  0.047306258  0.045220457

 FORCES acting on ions:
    Electron-Ion                     Ewald-Force                    Non-Local-Force
   -.664E+02 0.664E+02 -.222E+04   0.602E+02 -.602E+02 0.222E+04   0.596E+01 -.596E+01 -.184E+01
   0.288E+03 -.288E+03 -.222E+04   -.281E+03 0.281E+03 0.222E+04   -.709E+01 0.708E+01 -.167E+01
   -.288E+03 0.288E+03 -.222E+04   0.281E+03 -.281E+03 0.222E+04   0.708E+01 -.709E+01 -.167E+01
   0.664E+02 -.664E+02 -.222E+04   -.602E+02 0.602E+02 0.222E+04   -.596E+01 0.596E+01 -.184E+01
   0.518E+01 -.519E+01 0.938E+03   -.521E+01 0.522E+01 -.930E+03   0.184E-01 -.184E-01 -.713E+01
   0.962E+01 0.175E+01 0.939E+03   -.963E+01 -.171E+01 -.931E+03   0.512E-02 -.237E-01 -.713E+01
   0.326E+01 0.327E+01 -.920E+03   -.325E+01 -.325E+01 0.912E+03   -.856E-02 -.856E-02 0.703E+01
   0.151E+02 -.121E+02 -.918E+03   -.151E+02 0.122E+02 0.910E+03   0.171E-01 -.562E-01 0.703E+01
   0.175E+01 0.962E+01 0.939E+03   -.171E+01 -.963E+01 -.931E+03   -.237E-01 0.512E-02 -.713E+01
   0.156E+02 0.171E+02 0.945E+03   -.156E+02 -.171E+02 -.936E+03   0.479E-02 0.195E-01 -.714E+01
   0.235E+01 0.163E+02 -.917E+03   -.230E+01 -.163E+02 0.909E+03   -.383E-01 0.225E-02 0.702E+01
   0.136E+02 0.136E+02 -.918E+03   -.136E+02 -.136E+02 0.910E+03   -.107E-01 -.107E-01 0.703E+01
   0.497E+01 0.121E+02 0.946E+03   -.495E+01 -.121E+02 -.937E+03   -.215E-01 0.144E-01 -.714E+01
   0.327E+02 0.134E+02 0.959E+03   -.329E+02 -.135E+02 -.950E+03   0.847E-01 0.605E-01 -.717E+01
   0.137E+02 0.881E+01 -.912E+03   -.137E+02 -.883E+01 0.904E+03   -.629E-02 0.130E-01 0.701E+01
   0.328E+02 0.257E+02 -.910E+03   -.328E+02 -.257E+02 0.902E+03   -.804E-02 0.199E-01 0.700E+01
   0.143E+02 -.228E+01 0.950E+03   -.144E+02 0.226E+01 -.942E+03   0.569E-01 0.146E-01 -.714E+01
   0.382E+02 -.141E+02 0.964E+03   -.386E+02 0.141E+02 -.955E+03   0.248E+00 0.141E-01 -.716E+01
   0.238E+02 -.133E+02 -.912E+03   -.239E+02 0.133E+02 0.903E+03   0.867E-01 0.104E-01 0.702E+01
   0.667E+02 0.550E+01 -.896E+03   -.669E+02 -.560E+01 0.888E+03   0.926E-01 0.688E-01 0.699E+01
   0.131E+02 -.142E+02 0.945E+03   -.132E+02 0.143E+02 -.936E+03   0.873E-01 -.157E-01 -.713E+01
   0.182E+02 -.182E+02 0.946E+03   -.183E+02 0.183E+02 -.938E+03   0.705E-01 -.705E-01 -.712E+01
   0.121E+02 -.151E+02 -.918E+03   -.122E+02 0.151E+02 0.910E+03   0.563E-01 -.171E-01 0.703E+01
   0.455E+02 -.324E+02 -.905E+03   -.458E+02 0.324E+02 0.896E+03   0.227E+00 -.216E-01 0.702E+01
   0.143E+02 -.131E+02 0.945E+03   -.143E+02 0.132E+02 -.936E+03   0.157E-01 -.872E-01 -.713E+01
   0.121E+02 0.498E+01 0.946E+03   -.121E+02 -.494E+01 -.937E+03   0.144E-01 -.215E-01 -.714E+01
   0.163E+02 0.236E+01 -.917E+03   -.163E+02 -.230E+01 0.909E+03   0.225E-02 -.383E-01 0.702E+01
   0.133E+02 -.238E+02 -.912E+03   -.133E+02 0.239E+02 0.903E+03   -.104E-01 -.866E-01 0.702E+01
   0.171E+02 0.156E+02 0.945E+03   -.171E+02 -.156E+02 -.936E+03   0.195E-01 0.479E-02 -.714E+01
   0.300E+02 0.381E+02 0.966E+03   -.302E+02 -.383E+02 -.957E+03   0.939E-01 0.862E-01 -.718E+01
   0.357E+02 0.357E+02 -.909E+03   -.357E+02 -.357E+02 0.901E+03   0.536E-02 0.536E-02 0.700E+01
   0.257E+02 0.328E+02 -.910E+03   -.257E+02 -.328E+02 0.902E+03   0.199E-01 -.804E-02 0.700E+01
   0.381E+02 0.300E+02 0.966E+03   -.383E+02 -.302E+02 -.957E+03   0.862E-01 0.939E-01 -.718E+01
   0.576E+02 0.372E+02 0.103E+04   -.581E+02 -.377E+02 -.102E+04   0.339E+00 0.343E+00 -.732E+01
   0.928E+02 0.506E+02 -.875E+03   -.929E+02 -.507E+02 0.867E+03   0.735E-01 0.115E+00 0.690E+01
   0.820E+02 0.820E+02 -.870E+03   -.821E+02 -.821E+02 0.861E+03   0.770E-01 0.770E-01 0.692E+01
   0.619E+02 0.499E+01 0.100E+04   -.624E+02 -.523E+01 -.992E+03   0.369E+00 0.161E+00 -.724E+01
   0.431E+02 -.430E+02 0.105E+04   -.433E+02 0.433E+02 -.104E+04   0.166E+00 -.166E+00 -.586E+01
   0.137E+03 -.474E+02 -.830E+03   -.138E+03 0.472E+02 0.822E+03   0.121E+01 0.149E+00 0.705E+01
   0.176E+03 0.722E+02 -.669E+03   -.178E+03 -.740E+02 0.663E+03   0.116E+01 0.104E+01 0.497E+01
   0.373E+02 -.373E+02 0.976E+03   -.375E+02 0.375E+02 -.967E+03   0.171E+00 -.171E+00 -.704E+01
   0.141E+02 -.382E+02 0.964E+03   -.141E+02 0.386E+02 -.955E+03   -.142E-01 -.248E+00 -.716E+01
   0.324E+02 -.455E+02 -.905E+03   -.324E+02 0.458E+02 0.896E+03   0.215E-01 -.227E+00 0.702E+01
   0.475E+02 -.137E+03 -.830E+03   -.473E+02 0.138E+03 0.821E+03   -.150E+00 -.121E+01 0.705E+01
   0.229E+01 -.143E+02 0.950E+03   -.227E+01 0.144E+02 -.942E+03   -.146E-01 -.567E-01 -.714E+01
   -.229E+01 0.143E+02 0.950E+03   0.226E+01 -.144E+02 -.942E+03   0.146E-01 0.569E-01 -.714E+01
   0.881E+01 0.137E+02 -.912E+03   -.883E+01 -.137E+02 0.904E+03   0.130E-01 -.629E-02 0.701E+01
   -.881E+01 -.138E+02 -.912E+03   0.883E+01 0.137E+02 0.904E+03   -.130E-01 0.649E-02 0.701E+01
   0.134E+02 0.327E+02 0.959E+03   -.135E+02 -.329E+02 -.950E+03   0.605E-01 0.847E-01 -.717E+01
   0.498E+01 0.619E+02 0.100E+04   -.523E+01 -.624E+02 -.992E+03   0.161E+00 0.369E+00 -.724E+01
   0.506E+02 0.928E+02 -.875E+03   -.507E+02 -.929E+02 0.867E+03   0.115E+00 0.735E-01 0.690E+01
   0.550E+01 0.667E+02 -.896E+03   -.560E+01 -.669E+02 0.888E+03   0.688E-01 0.926E-01 0.699E+01
   0.372E+02 0.576E+02 0.103E+04   -.377E+02 -.581E+02 -.102E+04   0.343E+00 0.339E+00 -.732E+01
   -.134E+02 0.135E+02 0.109E+04   0.134E+02 -.134E+02 -.108E+04   0.395E-01 -.398E-01 -.586E+01
   0.120E+03 0.120E+03 -.681E+03   -.122E+03 -.122E+03 0.673E+03   0.136E+01 0.136E+01 0.649E+01
   0.722E+02 0.176E+03 -.669E+03   -.740E+02 -.178E+03 0.663E+03   0.104E+01 0.116E+01 0.497E+01
   0.135E+02 -.134E+02 0.109E+04   -.134E+02 0.134E+02 -.108E+04   -.398E-01 0.395E-01 -.586E+01
   -.372E+02 -.576E+02 0.103E+04   0.377E+02 0.581E+02 -.102E+04   -.343E+00 -.339E+00 -.732E+01
   -.722E+02 -.176E+03 -.669E+03   0.740E+02 0.178E+03 0.663E+03   -.104E+01 -.116E+01 0.497E+01
   -.120E+03 -.120E+03 -.681E+03   0.122E+03 0.122E+03 0.673E+03   -.136E+01 -.136E+01 0.649E+01
[...]
   -.214E+02 0.163E+02 0.718E+03   0.216E+02 -.163E+02 -.722E+03   -.157E+00 0.696E-01 0.307E+01
   -.665E+01 0.888E+01 0.707E+03   0.669E+01 -.890E+01 -.711E+03   -.496E-01 0.309E-01 0.305E+01
   -.498E+02 0.150E+02 -.673E+03   0.499E+02 -.149E+02 0.677E+03   -.175E+00 -.595E-01 -.327E+01
   -.161E+02 0.160E+01 -.684E+03   0.162E+02 -.157E+01 0.688E+03   -.366E-01 -.249E-01 -.323E+01
   -.299E+02 -.825E+00 0.725E+03   0.300E+02 0.895E+00 -.729E+03   -.121E+00 -.760E-01 0.301E+01
   -.118E+02 0.793E+01 0.713E+03   0.118E+02 -.793E+01 -.717E+03   -.728E-01 -.261E-02 0.304E+01
   -.376E+02 -.162E+02 -.678E+03   0.377E+02 0.163E+02 0.683E+03   -.367E-01 -.561E-01 -.328E+01
   -.471E+01 -.116E+02 -.687E+03   0.468E+01 0.116E+02 0.691E+03   0.228E-01 -.565E-02 -.321E+01
   -.175E+02 -.138E+02 0.715E+03   0.175E+02 0.139E+02 -.719E+03   -.282E-01 -.417E-01 0.302E+01
   -.728E+01 -.481E+01 0.713E+03   0.728E+01 0.483E+01 -.717E+03   -.102E-01 -.188E-01 0.303E+01
   -.153E+02 -.166E+02 -.688E+03   0.153E+02 0.166E+02 0.692E+03   0.789E-02 -.524E-02 -.321E+01
   -.129E+01 -.877E+01 -.691E+03   0.127E+01 0.878E+01 0.695E+03   0.226E-01 -.308E-02 -.319E+01
   -.824E+01 -.823E+01 0.707E+03   0.823E+01 0.823E+01 -.711E+03   -.105E-02 -.105E-02 0.304E+01
   -.171E+01 -.987E+01 0.708E+03   0.168E+01 0.989E+01 -.712E+03   0.254E-01 -.133E-01 0.304E+01
   -.726E+00 0.723E+00 0.190E+02   0.165E-11 -.114E-12 0.819E-11   0.287E-02 0.287E-02 -.180E+02

 POSITION                                       TOTAL-FORCE (eV/Angst)
      8.42022     12.71964     13.21830        -0.061641      0.061331      0.102752
      6.77748     14.36235     13.25117        -0.076394      0.075639      0.106465
     12.24845      8.89138     13.25117         0.075639     -0.076394      0.106465
     10.60574     10.53411     13.21830         0.061331     -0.061641      0.102752
      0.00000      0.00000      9.00000        -0.006001      0.005983      0.580409
      2.11389      2.11389      9.00000        -0.001744      0.007323      0.581861
      0.00000      2.11389     11.11389         0.002592      0.002592     -0.541864
      2.11389      0.00000     11.11389        -0.005735      0.017311     -0.539724
      0.00000      4.22777      9.00000         0.007323     -0.001744      0.581861
      2.11389      6.34166      9.00000        -0.001468     -0.006011      0.585682
      0.00000      6.34166     11.11389         0.011791     -0.000547     -0.537573
      2.11389      4.22777     11.11389         0.003494      0.003494     -0.538510
      0.00000      8.45554      9.00000         0.006486     -0.004437      0.585088
      2.11389     10.56943      9.00000        -0.026738     -0.019683      0.592015
      0.00000     10.56943     11.11389         0.002564     -0.003898     -0.529881
      2.11389      8.45554     11.11389         0.003822     -0.005224     -0.524839
      0.00000     12.68331      9.00000        -0.017851     -0.005149      0.585931
      2.11389     14.79720      9.00000        -0.074565     -0.005345      0.586811
      0.00000     14.79720     11.11389        -0.025259     -0.003875     -0.532028
      2.11389     12.68331     11.11389        -0.026270     -0.023343     -0.507631
      0.00000     16.91108      9.00000        -0.026849      0.005308      0.582518
      2.11389     19.02497      9.00000        -0.023788      0.023788      0.577180
      0.00000     19.02497     11.11389        -0.017329      0.005732     -0.539721
      2.11389     16.91108     11.11389        -0.069576      0.008010     -0.530463
      4.22777      0.00000      9.00000        -0.005298      0.026823      0.582522
      6.34166      2.11389      9.00000        -0.004437      0.006486      0.585088
      4.22777      2.11389     11.11389        -0.000547      0.011791     -0.537573
      6.34166      0.00000     11.11389         0.003883      0.025207     -0.532019
      4.22777      4.22777      9.00000        -0.006011     -0.001468      0.585682
      6.34166      6.34166      9.00000        -0.029533     -0.027175      0.597826
      4.22777      6.34166     11.11389        -0.000257     -0.000257     -0.523455
      6.34166      4.22777     11.11389        -0.005224      0.003822     -0.524839
      4.22777      8.45554      9.00000        -0.027175     -0.029533      0.597826
      6.34166     10.56943      9.00000        -0.112930     -0.114534      0.614170
      4.22777     10.56943     11.11389        -0.003300     -0.020212     -0.443555
      6.34166      8.45554     11.11389        -0.017546     -0.017546     -0.457592
      4.22777     12.68331      9.00000        -0.120584     -0.061196      0.593421
      6.34166     14.79720      9.00000        -0.061102      0.061198      0.222291
      4.22777     14.79720     11.11389        -0.444531     -0.061535     -0.550734
      6.34166     12.68331     11.11389        -0.511611     -0.585846     -0.253159
      4.22777     16.91108      9.00000        -0.064558      0.064588      0.542278
      6.34166     19.02497      9.00000         0.005371      0.074543      0.586886
      4.22777     19.02497     11.11389        -0.007980      0.069571     -0.530473
      6.34166     16.91108     11.11389         0.061634      0.444623     -0.550770
      8.45554      0.00000      9.00000         0.005155      0.017797      0.585934
     10.56943      2.11389      9.00000        -0.005149     -0.017851      0.585931
      8.45554      2.11389     11.11389        -0.003898      0.002564     -0.529881
     10.56943      0.00000     11.11389         0.003899     -0.002635     -0.529866
      8.45554      4.22777      9.00000        -0.019683     -0.026738      0.592015
     10.56943      6.34166      9.00000        -0.061196     -0.120584      0.593421
      8.45554      6.34166     11.11389        -0.020212     -0.003300     -0.443555
     10.56943      4.22777     11.11389        -0.023343     -0.026270     -0.507631
      8.45554      8.45554      9.00000        -0.114534     -0.112930      0.614170
     10.56943     10.56943      9.00000        -0.013791      0.013900      0.201532
      8.45554     10.56943     11.11389        -0.575641     -0.575641     -0.562089
     10.56943      8.45554     11.11389        -0.585846     -0.511611     -0.253159
      8.45554     12.68331      9.00000         0.013900     -0.013791      0.201532
     10.56943     14.79720      9.00000         0.114557      0.112939      0.614234
      8.45554     14.79720     11.11389         0.586611      0.512051     -0.253742
     10.56943     12.68331     11.11389         0.576043      0.576043     -0.562416
[...]
     19.02497      6.34166     11.11389        -0.024313      0.004650      0.394197
     16.91108      6.34166      9.00000        -0.052927      0.023147     -0.433354
     19.02497      4.22777      9.00000        -0.016480      0.010296     -0.439471
     16.91108      8.45554     11.11389        -0.067827     -0.018199      0.378863
     19.02497     10.56943     11.11389        -0.013413     -0.008433      0.386137
     16.91108     10.56943      9.00000        -0.042876     -0.025605     -0.452076
     19.02497      8.45554      9.00000        -0.024423     -0.000808     -0.442328
     16.91108     12.68331     11.11389        -0.016007     -0.020695      0.370392
     19.02497     14.79720     11.11389         0.007492     -0.002127      0.390779
     16.91108     14.79720      9.00000        -0.009289     -0.013702     -0.448481
     19.02497     12.68331      9.00000        -0.003305     -0.006180     -0.445548
     16.91108     16.91108     11.11389         0.002168     -0.002179      0.390814
     19.02497     19.02497     11.11389         0.007518     -0.001121      0.398346
     16.91108     19.02497      9.00000        -0.000487     -0.000487     -0.441989
     19.02497     16.91108      9.00000         0.008402     -0.004537     -0.441879
    total drift:                               -0.724419      0.725039     -0.538207

  FREE ENERGIE OF THE ION-ELECTRON SYSTEM (eV)
  free  energy   TOTEN  =     -1435.36719273 eV

  energy  without entropy=    -1435.36719273  energy(sigma->0) =    -1435.36719273