 vasp.6.3.0 20Jan22 (build Apr  1 2022 16:44:48) complex
 executed on        HPECrayEX_GCC date 2023.01.09  18:40:48

 INCAR:
   SYSTEM = MgO-rocksalt
   ISMEAR = 0
   SIGMA = 0.05
   EDIFF = 1E-6
   ALGO = ALL
   ISTART = 0
   IBRION = -1
   NSW = 0
   ISYM = 2
   DIPOL = 0.5 0.5 0.5
   IDIPOL = 3
   LDIPOL = .TRUE.
   GGA = PS
   IVDW = 12
   VDW_A1 = 0.4466
   VDW_S8 = 2.9491
   VDW_A2 = 6.1742
   ENCUT = 520
   PREC = Accurate
   LASPH = .TRUE.
   LREAL = Auto
   ISPIN = 1
   NELM = 200
   NELMIN = 8
   NCORE = 4
   KPAR = 2
   LWAVE = .FALSE.
   LCHARG = .FALSE.

 POTCAR:    PAW_PBE Cu 22Jun2005
 POTCAR:    PAW_PBE Mg_pv 13Apr2007
 POTCAR:    PAW_PBE O 08Apr2002
 POTCAR:    PAW_PBE Cu 22Jun2005
   VRHFIN =Cu: d10 p1

   TITEL  = PAW_PBE Cu 22Jun2005
   POMASS =   63.546; ZVAL   =   11.000    mass and valenz
   ENMAX  =  295.446; ENMIN  =  221.585 eV

   TITEL  = PAW_PBE Mg_pv 13Apr2007
   POMASS =   24.305; ZVAL   =    8.000    mass and valenz
   ENMAX  =  403.929; ENMIN  =  302.947 eV

   TITEL  = PAW_PBE O 08Apr2002
   POMASS =   16.000; ZVAL   =    6.000    mass and valenz
   ENMAX  =  400.000; ENMIN  =  300.000 eV

 Optimization of the real space projectors (new method)

 maximal supplied QI-value         = 16.25
 optimisation between [QCUT,QGAM] = [ 11.54, 23.24] = [ 37.28,151.24] Ry
 Optimized for a Real-space Cutoff    1.53 Angstroem

   l    n(q)    QCUT    max X(q) W(low)/X(q) W(high)/X(q)  e(spline)
   2     10    11.539     4.610    0.96E-04    0.13E-03    0.19E-06
   2     10    11.539     8.522    0.16E-03    0.21E-03    0.28E-06
   0     11    11.539    51.609    0.45E-04    0.31E-04    0.11E-06
   0     11    11.539    27.747    0.39E-04    0.29E-04    0.10E-06
   1     10    11.539    20.408    0.70E-05    0.38E-04    0.18E-06
   1     10    11.539    13.425    0.66E-05    0.34E-04    0.17E-06
 Optimization of the real space projectors (new method)

[...]

   l    n(q)    QCUT    max X(q) W(low)/X(q) W(high)/X(q)  e(spline)
   1      8    11.527     2.974    0.44E-04    0.56E-04    0.12E-06
   1      8    11.527     4.279    0.12E-03    0.12E-03    0.26E-06
   0      9    11.527    16.381    0.46E-04    0.64E-04    0.78E-07
   0      9    11.527     5.611    0.26E-04    0.43E-04    0.55E-07
   2      8    11.527     4.652    0.22E-03    0.72E-04    0.47E-07
 Optimization of the real space projectors (new method)

 maximal supplied QI-value         = 24.76
 optimisation between [QCUT,QGAM] = [ 11.64, 23.27] = [ 37.91,151.63] Ry
 Optimized for a Real-space Cutoff    1.14 Angstroem

   l    n(q)    QCUT    max X(q) W(low)/X(q) W(high)/X(q)  e(spline)
   0      8    11.635    20.381    0.10E-03    0.33E-03    0.24E-06
   0      8    11.635    15.268    0.11E-03    0.35E-03    0.26E-06
   1      7    11.635     5.964    0.24E-03    0.31E-03    0.30E-06
   1      7    11.635     5.382    0.22E-03    0.25E-03    0.26E-06
|               ----> ADVICE to this user running VASP <----                  |
|     You enforced a specific xc type in the INCAR file but a different       |
|     type was found in the POTCAR file.                                      |
|     I HOPE YOU KNOW WHAT YOU ARE DOING!                                     |

  PAW_PBE Cu 22Jun2005                  :
  PAW_PBE Mg_pv 13Apr2007               :
  PAW_PBE O 08Apr2002                   :

 POSCAR: Cu Mg  O
  positions in direct lattice
  velocities in cartesian coordinates
 exchange correlation table for  LEXCH =       14
   RHO(1)=    0.500       N(1)  =     2000
   RHO(2)=  100.500       N(2)  =     4000

 ion  position               nearest neighbor table
   1  0.398  0.602  0.598- 157 2.11   2 2.32
   2  0.321  0.679  0.599- 138 2.22   1 2.32
   3  0.579  0.421  0.599- 173 2.22   4 2.32
   4  0.502  0.498  0.598- 154 2.11   3 2.32
   5  0.000  0.000  0.407- 107 2.11 108 2.11 123 2.11 188 2.11 105 2.11
   6  0.100  0.100  0.407- 107 2.11 108 2.11 112 2.11 127 2.11 106 2.11
   7  0.000  0.100  0.503- 105 2.11 106 2.11 109 2.11 186 2.11 107 2.11
   8  0.100  0.000  0.503- 105 2.11 106 2.11 122 2.11 125 2.11 108 2.11
   9  0.000  0.200  0.407- 111 2.11 107 2.11 112 2.11 192 2.11 109 2.11
  10  0.100  0.300  0.407- 112 2.11 111 2.11 116 2.11 131 2.11 110 2.11
  11  0.000  0.300  0.503- 109 2.11 110 2.11 113 2.11 190 2.11 111 2.11
  12  0.100  0.200  0.503- 110 2.11 109 2.11 106 2.11 129 2.11 112 2.11
  13  0.000  0.400  0.407- 111 2.11 115 2.11 116 2.11 196 2.11 113 2.11
  14  0.100  0.500  0.407- 115 2.11 116 2.11 120 2.11 135 2.11 114 2.11
  15  0.000  0.500  0.503- 113 2.11 114 2.11 117 2.11 194 2.11 115 2.11
  16  0.100  0.400  0.503- 110 2.11 113 2.11 114 2.11 133 2.11 116 2.11
  17  0.000  0.600  0.407- 115 2.11 119 2.11 120 2.11 200 2.11 117 2.11
  18  0.100  0.700  0.407- 124 2.11 120 2.11 119 2.11 139 2.11 118 2.11
  19  0.000  0.700  0.503- 121 2.11 118 2.11 117 2.11 198 2.11 119 2.11
  20  0.100  0.600  0.503- 114 2.11 117 2.11 118 2.11 137 2.11 120 2.11
  21  0.000  0.800  0.407- 119 2.11 123 2.11 124 2.11 204 2.11 121 2.11
  22  0.100  0.900  0.407- 108 2.11 123 2.11 124 2.11 143 2.11 122 2.11
  23  0.000  0.900  0.503- 105 2.11 121 2.11 122 2.11 202 2.11 123 2.11
  24  0.100  0.800  0.503- 118 2.11 121 2.11 122 2.11 141 2.11 124 2.11
  25  0.200  0.000  0.407- 128 2.11 127 2.11 108 2.11 143 2.11 125 2.11
  26  0.300  0.100  0.407- 127 2.11 128 2.11 132 2.11 147 2.11 126 2.11
  27  0.200  0.100  0.503- 126 2.11 125 2.11 106 2.11 129 2.11 127 2.11
  28  0.300  0.000  0.503- 125 2.11 126 2.11 142 2.11 145 2.11 128 2.11
  29  0.200  0.200  0.407- 131 2.11 132 2.11 112 2.11 127 2.11 129 2.11
  30  0.300  0.300  0.407- 131 2.11 132 2.11 136 2.11 151 2.11 130 2.11
  31  0.200  0.300  0.503- 129 2.11 130 2.11 110 2.11 133 2.11 131 2.11
  32  0.300  0.200  0.503- 129 2.11 130 2.11 126 2.11 149 2.11 132 2.11
  33  0.200  0.400  0.407- 136 2.11 131 2.11 135 2.11 116 2.11 133 2.11
  34  0.300  0.500  0.407- 135 2.11 136 2.11 140 2.11 155 2.11 134 2.11
  35  0.200  0.500  0.503- 134 2.11 133 2.11 114 2.11 137 2.11 135 2.11
  36  0.300  0.400  0.503- 133 2.11 130 2.11 134 2.11 153 2.11 136 2.11
  37  0.200  0.600  0.407- 140 2.11 135 2.11 139 2.11 120 2.11 137 2.11
  38  0.300  0.700  0.407- 139 2.11 144 2.11 140 2.11 159 2.11 138 2.11
  39  0.200  0.700  0.503- 138 2.11 141 2.11 118 2.11 137 2.11 139 2.11
  40  0.300  0.600  0.503- 137 2.11 134 2.11 138 2.11 157 2.11 140 2.11
  41  0.200  0.800  0.407- 139 2.11 144 2.11 143 2.11 124 2.11 141 2.11
  42  0.300  0.900  0.407- 143 2.11 128 2.11 144 2.11 163 2.11 142 2.11
  43  0.200  0.900  0.503- 142 2.11 125 2.11 141 2.11 122 2.11 143 2.11
  44  0.300  0.800  0.503- 138 2.11 141 2.11 142 2.11 161 2.11 144 2.11
  45  0.400  0.000  0.407- 128 2.11 147 2.11 148 2.11 163 2.11 145 2.11
  46  0.500  0.100  0.407- 147 2.11 148 2.11 152 2.11 167 2.11 146 2.11
  47  0.400  0.100  0.503- 126 2.11 145 2.11 146 2.11 149 2.11 147 2.11
  48  0.500  0.000  0.503- 145 2.11 146 2.11 162 2.11 165 2.11 148 2.11
  49  0.400  0.200  0.407- 151 2.11 147 2.11 132 2.11 152 2.11 149 2.11
  50  0.500  0.300  0.407- 152 2.11 151 2.11 156 2.11 171 2.11 150 2.11
  51  0.400  0.300  0.503- 149 2.11 130 2.11 150 2.11 153 2.11 151 2.11
  52  0.500  0.200  0.503- 150 2.11 149 2.11 146 2.11 169 2.11 152 2.11
  53  0.400  0.400  0.407- 136 2.11 151 2.11 155 2.11 156 2.11 153 2.11
  54  0.500  0.500  0.407- 155 2.11 156 2.11 160 2.11 175 2.11 154 2.11
  55  0.400  0.500  0.503- 134 2.11 153 2.11 154 2.11 157 2.11 155 2.11
  56  0.500  0.400  0.503- 150 2.11 153 2.11 154 2.11 173 2.11 156 2.11
  57  0.400  0.600  0.407- 140 2.11 155 2.11 159 2.11 160 2.11 157 2.11
  58  0.500  0.700  0.407- 164 2.11 160 2.11 159 2.11 179 2.11 158 2.11
  59  0.400  0.700  0.503- 161 2.11 157 2.11 158 2.11 138 2.11 159 2.11
  60  0.500  0.600  0.503- 154 2.11 157 2.11 158 2.11 177 2.11 160 2.11
[...]
 190  0.900  0.300  0.503-  92 2.11  91 2.11  11 2.11  96 2.11  90 2.11
 191  0.800  0.300  0.407-  70 2.11  89 2.11  90 2.11  93 2.11  91 2.11
 192  0.900  0.200  0.407-  90 2.11  86 2.11  89 2.11   9 2.11  92 2.11
 193  0.800  0.400  0.503-  76 2.11  91 2.11  95 2.11  96 2.11  93 2.11
 194  0.900  0.500  0.503-  15 2.11  95 2.11  96 2.11 100 2.11  94 2.11
 195  0.800  0.500  0.407-  74 2.11  93 2.11  94 2.11  97 2.11  95 2.11
 196  0.900  0.400  0.407-  13 2.11  90 2.11  93 2.11  94 2.11  96 2.11
 197  0.800  0.600  0.503-  80 2.11  95 2.11  99 2.11 100 2.11  97 2.11
 198  0.900  0.700  0.503- 104 2.11  99 2.11 100 2.11  19 2.11  98 2.11
 199  0.800  0.700  0.407-  78 2.11 101 2.11  98 2.11  97 2.11  99 2.11
 200  0.900  0.600  0.407-  17 2.11  94 2.11  97 2.11  98 2.11 100 2.11
 201  0.800  0.800  0.503-  84 2.11  99 2.11 103 2.11 104 2.11 101 2.11
 202  0.900  0.900  0.503-  23 2.11  88 2.11 103 2.11 104 2.11 102 2.11
 203  0.800  0.900  0.407-  82 2.11  85 2.11 101 2.11 102 2.11 103 2.11
 204  0.900  0.800  0.407-  98 2.11  21 2.11 101 2.11 102 2.11 104 2.11

  LATTYP: Found a simple tetragonal cell.
 ALAT       =    21.1388521970
 C/A-ratio  =     1.0461251639

  Lattice vectors:

 A1 = (  21.1388521970,   0.0000000000,   0.0000000000)
 A2 = (   0.0000000000,  21.1388521970,   0.0000000000)
 A3 = (   0.0000000000,   0.0000000000,  22.1138852197)

Analysis of symmetry for initial positions (statically):
 Subroutine PRICEL returns:
 Original cell was already a primitive cell.

 Routine SETGRP: Setting up the symmetry group for a
 simple tetragonal supercell.

 Subroutine GETGRP returns: Found  2 space group operations
 (whereof  1 operations were pure point group operations)
 out of a pool of 16 trial point group operations.

The static configuration has the point symmetry C_1 .
 The point group associated with its full space group is C_1h.

Analysis of symmetry for dynamics (positions and initial velocities):
 Subroutine PRICEL returns:
 Original cell was already a primitive cell.

[...]

The dynamic configuration has the point symmetry C_1 .
 The point group associated with its full space group is C_1h.

Analysis of constrained symmetry for selective dynamics:
 Subroutine PRICEL returns:
 Original cell was already a primitive cell.

 Routine SETGRP: Setting up the symmetry group for a
 simple tetragonal supercell.

 Subroutine GETGRP returns: Found  2 space group operations
 (whereof  1 operations were pure point group operations)
 out of a pool of 16 trial point group operations.

The constrained configuration has the point symmetry C_1 .
 The point group associated with its full space group is C_1h.

 Subroutine INISYM returns: Found  2 space group operations
 (whereof  1 operations are pure point group operations),
 and found     1 'primitive' translations

                                     Primitive cell

  volume of cell :    9881.6133

  direct lattice vectors                    reciprocal lattice vectors
    21.138852197  0.000000000  0.000000000     0.047306258  0.000000000  0.000000000
     0.000000000 21.138852197  0.000000000     0.000000000  0.047306258  0.000000000
     0.000000000  0.000000000 22.113885220     0.000000000  0.000000000  0.045220457

  length of vectors
    21.138852197 21.138852197 22.113885220     0.047306258  0.047306258  0.045220457

[...]
|           WW  WW  A    A  R   R   N   NN  II  N   NN  G    G                |
|           W    W  A    A  R    R  N    N  II  N    N   GGGG   !!!           |
|     Specifying the vdW parameters                                           |
|     VDW_A1 = 0.447                                                          |
|     VDW_A2 = 6.174                                                          |
|     VDW_S8 = 2.949                                                          |
|     in the INCAR file will overwrite the defaults for pbesol. Please        |
|     make sure that is what you intended.                                    |

         DFTD3 V3.0 Rev 1
 IVDW         = 12
 DF pbesol
 parameters
 VDW_S6       =    1.0000
 VDW_S8       =    2.9491
 VDW_A1       =    0.4466
 VDW_A2       =    6.1742
 k1-k3        =   16.0000    1.3333   -4.0000
 VDW_RADIUS   =   50.2022 A
 VDW_CNRADIUS =   21.1671 A
 Edisp (eV)  -23.85835

 E6    (eV) :    -8.5606
 E8    (eV) :   -15.2977
 % E8        : 64.12

  FORCE on cell =-STRESS in cart. coord.  units (eV):
  Direction    XX          YY          ZZ          XY          YZ          ZX
  Alpha Z  1394.80054  1394.80054  1394.80054
  Ewald  488949.61640488949.61538************ -1381.09674     0.00920     0.00911
  Hartree518448.87340518448.87297************ -1166.36509     0.00739     0.00807
  E(xc)   -7749.80990 -7749.80990 -7767.23254    -0.21432     0.00009     0.00009
  Local  ************************************  2542.71600    -0.01616    -0.01701
  n-local -8896.05179 -8896.05177 -9017.29980     0.15341    -0.00147    -0.00158
  augment  3587.29072  3587.29075  3528.08142     2.45724     0.00037     0.00043
  Kinetic 22995.40886 22995.40890 23258.49613     3.47301    -0.00225    -0.00230
  Fock        0.00000     0.00000     0.00000     0.00000     0.00000     0.00000
  vdW       -25.04543   -25.04543    -4.93208     0.02633    -0.00001    -0.00001
  Total    -219.66255  -219.66255   -14.45198     1.14985    -0.00301    -0.00302
  in kB     -35.61548   -35.61548    -2.34320     0.18643    -0.00049    -0.00049

 VOLUME and BASIS-vectors are now :
  energy-cutoff  :      520.00
  volume of cell :     9881.61
      direct lattice vectors                 reciprocal lattice vectors
    21.138852197  0.000000000  0.000000000     0.047306258  0.000000000  0.000000000
     0.000000000 21.138852197  0.000000000     0.000000000  0.047306258  0.000000000
     0.000000000  0.000000000 22.113885220     0.000000000  0.000000000  0.045220457

  length of vectors
    21.138852197 21.138852197 22.113885220     0.047306258  0.047306258  0.045220457

 FORCES acting on ions:
    Electron-Ion                     Ewald-Force                    Non-Local-Force
   -.649E+02 0.648E+02 -.222E+04   0.602E+02 -.602E+02 0.222E+04   0.469E+01 -.469E+01 -.128E+01
   0.287E+03 -.287E+03 -.222E+04   -.281E+03 0.281E+03 0.222E+04   -.646E+01 0.646E+01 -.113E+01
   -.287E+03 0.287E+03 -.222E+04   0.281E+03 -.281E+03 0.222E+04   0.646E+01 -.646E+01 -.113E+01
   0.648E+02 -.648E+02 -.222E+04   -.602E+02 0.602E+02 0.222E+04   -.469E+01 0.469E+01 -.128E+01
   0.519E+01 -.519E+01 0.938E+03   -.521E+01 0.522E+01 -.930E+03   0.192E-01 -.192E-01 -.772E+01
   0.962E+01 0.175E+01 0.939E+03   -.963E+01 -.171E+01 -.931E+03   0.536E-02 -.246E-01 -.772E+01
   0.326E+01 0.326E+01 -.920E+03   -.325E+01 -.325E+01 0.912E+03   -.882E-02 -.882E-02 0.763E+01
   0.151E+02 -.121E+02 -.918E+03   -.151E+02 0.122E+02 0.910E+03   0.152E-01 -.563E-01 0.763E+01
   0.174E+01 0.962E+01 0.939E+03   -.171E+01 -.963E+01 -.931E+03   -.246E-01 0.536E-02 -.772E+01
   0.156E+02 0.171E+02 0.944E+03   -.156E+02 -.171E+02 -.936E+03   0.611E-02 0.216E-01 -.773E+01
   0.234E+01 0.163E+02 -.917E+03   -.230E+01 -.163E+02 0.909E+03   -.363E-01 0.287E-02 0.763E+01
   0.136E+02 0.136E+02 -.918E+03   -.136E+02 -.136E+02 0.910E+03   -.982E-02 -.982E-02 0.763E+01
   0.497E+01 0.121E+02 0.945E+03   -.495E+01 -.121E+02 -.937E+03   -.214E-01 0.157E-01 -.773E+01
   0.327E+02 0.134E+02 0.959E+03   -.329E+02 -.135E+02 -.950E+03   0.965E-01 0.668E-01 -.776E+01
   0.137E+02 0.882E+01 -.912E+03   -.137E+02 -.883E+01 0.904E+03   -.424E-02 0.122E-01 0.761E+01
   0.328E+02 0.257E+02 -.910E+03   -.328E+02 -.257E+02 0.902E+03   -.783E-02 0.211E-01 0.761E+01
   0.143E+02 -.228E+01 0.950E+03   -.144E+02 0.226E+01 -.942E+03   0.641E-01 0.143E-01 -.774E+01
   0.382E+02 -.141E+02 0.963E+03   -.386E+02 0.141E+02 -.955E+03   0.295E+00 0.121E-01 -.778E+01
   0.238E+02 -.133E+02 -.911E+03   -.239E+02 0.133E+02 0.903E+03   0.800E-01 0.891E-02 0.762E+01
   0.668E+02 0.553E+01 -.895E+03   -.669E+02 -.560E+01 0.888E+03   0.947E-01 0.576E-01 0.758E+01
   0.131E+02 -.143E+02 0.944E+03   -.132E+02 0.143E+02 -.936E+03   0.948E-01 -.162E-01 -.773E+01
   0.182E+02 -.182E+02 0.946E+03   -.183E+02 0.183E+02 -.938E+03   0.761E-01 -.761E-01 -.772E+01
   0.121E+02 -.151E+02 -.918E+03   -.122E+02 0.151E+02 0.910E+03   0.564E-01 -.152E-01 0.763E+01
   0.455E+02 -.324E+02 -.904E+03   -.458E+02 0.324E+02 0.896E+03   0.232E+00 -.122E-01 0.762E+01
   0.143E+02 -.131E+02 0.944E+03   -.143E+02 0.132E+02 -.936E+03   0.162E-01 -.947E-01 -.773E+01
   0.121E+02 0.497E+01 0.945E+03   -.121E+02 -.494E+01 -.937E+03   0.157E-01 -.214E-01 -.773E+01
   0.163E+02 0.235E+01 -.917E+03   -.163E+02 -.230E+01 0.909E+03   0.287E-02 -.363E-01 0.763E+01
   0.133E+02 -.238E+02 -.911E+03   -.133E+02 0.239E+02 0.903E+03   -.895E-02 -.799E-01 0.762E+01
   0.171E+02 0.156E+02 0.944E+03   -.171E+02 -.156E+02 -.936E+03   0.216E-01 0.611E-02 -.773E+01
   0.300E+02 0.382E+02 0.965E+03   -.302E+02 -.383E+02 -.957E+03   0.106E+00 0.955E-01 -.778E+01
   0.357E+02 0.357E+02 -.909E+03   -.357E+02 -.357E+02 0.901E+03   0.559E-02 0.559E-02 0.760E+01
   0.257E+02 0.328E+02 -.910E+03   -.257E+02 -.328E+02 0.902E+03   0.211E-01 -.783E-02 0.761E+01
   0.382E+02 0.300E+02 0.965E+03   -.383E+02 -.302E+02 -.957E+03   0.955E-01 0.106E+00 -.778E+01
   0.576E+02 0.372E+02 0.103E+04   -.581E+02 -.377E+02 -.102E+04   0.387E+00 0.402E+00 -.797E+01
   0.928E+02 0.506E+02 -.875E+03   -.929E+02 -.507E+02 0.867E+03   0.628E-01 0.118E+00 0.750E+01
   0.820E+02 0.820E+02 -.869E+03   -.821E+02 -.821E+02 0.861E+03   0.650E-01 0.650E-01 0.752E+01
   0.619E+02 0.499E+01 0.100E+04   -.624E+02 -.523E+01 -.992E+03   0.433E+00 0.185E+00 -.786E+01
   0.431E+02 -.431E+02 0.105E+04   -.433E+02 0.433E+02 -.104E+04   0.187E+00 -.187E+00 -.613E+01
   0.137E+03 -.474E+02 -.829E+03   -.138E+03 0.472E+02 0.822E+03   0.138E+01 0.161E+00 0.748E+01
   0.176E+03 0.723E+02 -.668E+03   -.178E+03 -.740E+02 0.663E+03   0.129E+01 0.115E+01 0.504E+01
   0.373E+02 -.373E+02 0.975E+03   -.375E+02 0.375E+02 -.967E+03   0.200E+00 -.200E+00 -.765E+01
   0.141E+02 -.382E+02 0.963E+03   -.141E+02 0.386E+02 -.955E+03   -.122E-01 -.295E+00 -.778E+01
   0.324E+02 -.455E+02 -.904E+03   -.324E+02 0.458E+02 0.896E+03   0.121E-01 -.232E+00 0.762E+01
   0.475E+02 -.137E+03 -.829E+03   -.473E+02 0.138E+03 0.821E+03   -.161E+00 -.138E+01 0.748E+01
   0.228E+01 -.143E+02 0.950E+03   -.227E+01 0.144E+02 -.942E+03   -.144E-01 -.639E-01 -.774E+01
   -.228E+01 0.143E+02 0.950E+03   0.226E+01 -.144E+02 -.942E+03   0.143E-01 0.641E-01 -.774E+01
   0.882E+01 0.137E+02 -.912E+03   -.883E+01 -.137E+02 0.904E+03   0.122E-01 -.424E-02 0.761E+01
   -.882E+01 -.138E+02 -.912E+03   0.883E+01 0.137E+02 0.904E+03   -.122E-01 0.446E-02 0.761E+01
   0.134E+02 0.327E+02 0.959E+03   -.135E+02 -.329E+02 -.950E+03   0.668E-01 0.965E-01 -.776E+01
   0.498E+01 0.619E+02 0.100E+04   -.523E+01 -.624E+02 -.992E+03   0.185E+00 0.433E+00 -.786E+01
   0.506E+02 0.928E+02 -.875E+03   -.507E+02 -.929E+02 0.867E+03   0.118E+00 0.628E-01 0.750E+01
   0.553E+01 0.668E+02 -.895E+03   -.560E+01 -.669E+02 0.888E+03   0.576E-01 0.947E-01 0.758E+01
   0.372E+02 0.576E+02 0.103E+04   -.377E+02 -.581E+02 -.102E+04   0.402E+00 0.387E+00 -.797E+01
   -.134E+02 0.135E+02 0.109E+04   0.134E+02 -.134E+02 -.108E+04   0.570E-01 -.574E-01 -.616E+01
   0.120E+03 0.120E+03 -.680E+03   -.122E+03 -.122E+03 0.673E+03   0.148E+01 0.148E+01 0.646E+01
   0.723E+02 0.176E+03 -.668E+03   -.740E+02 -.178E+03 0.663E+03   0.115E+01 0.129E+01 0.504E+01
   0.135E+02 -.134E+02 0.109E+04   -.134E+02 0.134E+02 -.108E+04   -.574E-01 0.570E-01 -.616E+01
   -.372E+02 -.576E+02 0.103E+04   0.377E+02 0.581E+02 -.102E+04   -.402E+00 -.387E+00 -.797E+01
   -.723E+02 -.176E+03 -.668E+03   0.740E+02 0.178E+03 0.663E+03   -.115E+01 -.129E+01 0.503E+01
   -.120E+03 -.120E+03 -.680E+03   0.122E+03 0.122E+03 0.673E+03   -.148E+01 -.148E+01 0.646E+01
[...]
   -.215E+02 0.163E+02 0.718E+03   0.216E+02 -.163E+02 -.722E+03   -.176E+00 0.813E-01 0.353E+01
   -.665E+01 0.888E+01 0.707E+03   0.669E+01 -.890E+01 -.711E+03   -.537E-01 0.341E-01 0.352E+01
   -.498E+02 0.150E+02 -.673E+03   0.499E+02 -.149E+02 0.677E+03   -.166E+00 -.599E-01 -.379E+01
   -.162E+02 0.159E+01 -.684E+03   0.162E+02 -.157E+01 0.688E+03   -.377E-01 -.229E-01 -.371E+01
   -.299E+02 -.828E+00 0.725E+03   0.300E+02 0.895E+00 -.729E+03   -.137E+00 -.856E-01 0.347E+01
   -.118E+02 0.793E+01 0.713E+03   0.118E+02 -.793E+01 -.717E+03   -.771E-01 -.176E-02 0.351E+01
   -.376E+02 -.162E+02 -.678E+03   0.377E+02 0.163E+02 0.683E+03   -.446E-01 -.603E-01 -.377E+01
   -.470E+01 -.116E+02 -.687E+03   0.468E+01 0.116E+02 0.691E+03   0.210E-01 -.747E-02 -.369E+01
   -.175E+02 -.139E+02 0.715E+03   0.175E+02 0.139E+02 -.719E+03   -.327E-01 -.471E-01 0.349E+01
   -.728E+01 -.481E+01 0.713E+03   0.728E+01 0.483E+01 -.717E+03   -.130E-01 -.212E-01 0.350E+01
   -.153E+02 -.166E+02 -.688E+03   0.153E+02 0.166E+02 0.692E+03   0.646E-02 -.686E-02 -.369E+01
   -.129E+01 -.877E+01 -.691E+03   0.127E+01 0.878E+01 0.695E+03   0.225E-01 -.335E-02 -.367E+01
   -.824E+01 -.823E+01 0.707E+03   0.823E+01 0.823E+01 -.711E+03   -.186E-02 -.186E-02 0.352E+01
   -.171E+01 -.987E+01 0.708E+03   0.168E+01 0.989E+01 -.712E+03   0.257E-01 -.149E-01 0.351E+01
   -.728E+00 0.724E+00 0.174E+02   0.165E-11 -.114E-12 0.819E-11   0.254E-02 0.254E-02 -.178E+02

 POSITION                                       TOTAL-FORCE (eV/Angst)
      8.42022     12.71964     13.21830        -0.079242      0.078967     -0.315945
      6.77748     14.36235     13.25117         0.110276     -0.110939     -0.277389
     12.24845      8.89138     13.25117        -0.110939      0.110276     -0.277389
     10.60574     10.53411     13.21830         0.078967     -0.079242     -0.315945
      0.00000      0.00000      9.00000        -0.005319      0.005308      0.479118
      2.11389      2.11389      9.00000        -0.001546      0.006470      0.480363
      0.00000      2.11389     11.11389         0.002277      0.002277     -0.445655
      2.11389      0.00000     11.11389        -0.004196      0.014420     -0.443225
      0.00000      4.22777      9.00000         0.006470     -0.001546      0.480363
      2.11389      6.34166      9.00000        -0.001476     -0.005528      0.483692
      0.00000      6.34166     11.11389         0.009469     -0.000483     -0.441841
      2.11389      4.22777     11.11389         0.002880      0.002880     -0.442931
      0.00000      8.45554      9.00000         0.005557     -0.004062      0.483298
      2.11389     10.56943      9.00000        -0.024877     -0.017841      0.491017
      0.00000     10.56943     11.11389         0.002272     -0.002866     -0.434797
      2.11389      8.45554     11.11389         0.004472     -0.003812     -0.430487
      0.00000     12.68331      9.00000        -0.016837     -0.004290      0.484931
      2.11389     14.79720      9.00000        -0.072569     -0.004508      0.493200
      0.00000     14.79720     11.11389        -0.018157     -0.003111     -0.435389
      2.11389     12.68331     11.11389        -0.016782     -0.014912     -0.407130
      0.00000     16.91108      9.00000        -0.024512      0.004555      0.482189
      2.11389     19.02497      9.00000        -0.021578      0.021580      0.477471
      0.00000     19.02497     11.11389        -0.014438      0.004192     -0.443226
      2.11389     16.91108     11.11389        -0.056429      0.001610     -0.427365
      4.22777      0.00000      9.00000        -0.004553      0.024484      0.482195
      6.34166      2.11389      9.00000        -0.004062      0.005557      0.483298
      4.22777      2.11389     11.11389        -0.000483      0.009469     -0.441841
      6.34166      0.00000     11.11389         0.003114      0.018103     -0.435387
      4.22777      4.22777      9.00000        -0.005528     -0.001476      0.483692
      6.34166      6.34166      9.00000        -0.026995     -0.024323      0.496945
      4.22777      6.34166     11.11389         0.001123      0.001123     -0.429178
      6.34166      4.22777     11.11389        -0.003812      0.004472     -0.430487
      4.22777      8.45554      9.00000        -0.024323     -0.026995      0.496945
      6.34166     10.56943      9.00000        -0.104665     -0.110238      0.526755
      4.22777     10.56943     11.11389         0.009825     -0.011028     -0.346996
      6.34166      8.45554     11.11389        -0.000887     -0.000887     -0.355178
      4.22777     12.68331      9.00000        -0.115667     -0.060278      0.501068
      6.34166     14.79720      9.00000        -0.056146      0.056229      0.107461
      4.22777     14.79720     11.11389        -0.434872     -0.060564     -0.383576
      6.34166     12.68331     11.11389        -0.496541     -0.568298     -0.082331
      4.22777     16.91108      9.00000        -0.062961      0.062993      0.452234
      6.34166     19.02497      9.00000         0.004525      0.072545      0.493237
      4.22777     19.02497     11.11389        -0.001584      0.056429     -0.427360
      6.34166     16.91108     11.11389         0.060679      0.434925     -0.383575
      8.45554      0.00000      9.00000         0.004292      0.016796      0.484938
     10.56943      2.11389      9.00000        -0.004290     -0.016837      0.484931
      8.45554      2.11389     11.11389        -0.002866      0.002272     -0.434797
     10.56943      0.00000     11.11389         0.002866     -0.002338     -0.434792
      8.45554      4.22777      9.00000        -0.017841     -0.024877      0.491017
     10.56943      6.34166      9.00000        -0.060278     -0.115667      0.501068
      8.45554      6.34166     11.11389        -0.011028      0.009825     -0.346996
     10.56943      4.22777     11.11389        -0.014912     -0.016782     -0.407130
      8.45554      8.45554      9.00000        -0.110238     -0.104665      0.526755
     10.56943     10.56943      9.00000        -0.019114      0.019240      0.102549
      8.45554     10.56943     11.11389        -0.540583     -0.540583     -0.294730
     10.56943      8.45554     11.11389        -0.568298     -0.496541     -0.082331
      8.45554     12.68331      9.00000         0.019240     -0.019114      0.102549
     10.56943     14.79720      9.00000         0.110260      0.104647      0.526818
      8.45554     14.79720     11.11389         0.568972      0.496929     -0.082737
     10.56943     12.68331     11.11389         0.540979      0.540979     -0.294914
[...]
     19.02497      6.34166     11.11389        -0.019793      0.003432      0.370913
     16.91108      6.34166      9.00000        -0.050485      0.023173     -0.409297
     19.02497      4.22777      9.00000        -0.014906      0.009482     -0.412016
     16.91108      8.45554     11.11389        -0.051995     -0.015658      0.346799
     19.02497     10.56943     11.11389        -0.010947     -0.006428      0.364039
     16.91108     10.56943      9.00000        -0.042411     -0.024387     -0.426211
     19.02497      8.45554      9.00000        -0.021907     -0.000340     -0.415661
     16.91108     12.68331     11.11389        -0.014323     -0.017833      0.349697
     19.02497     14.79720     11.11389         0.005749     -0.002121      0.369147
     16.91108     14.79720      9.00000        -0.009447     -0.013370     -0.419701
     19.02497     12.68331      9.00000        -0.003816     -0.005963     -0.417342
     16.91108     16.91108     11.11389         0.001607     -0.002069      0.369564
     19.02497     19.02497     11.11389         0.006167     -0.000994      0.375961
     16.91108     19.02497      9.00000        -0.000615     -0.000615     -0.413637
     19.02497     16.91108      9.00000         0.007087     -0.004226     -0.413850
    total drift:                               -0.725572      0.726316     -0.427938

  FREE ENERGIE OF THE ION-ELECTRON SYSTEM (eV)
  free  energy   TOTEN  =     -1220.56992882 eV

  energy  without entropy=    -1220.56992882  energy(sigma->0) =    -1220.56992882