 vasp.6.3.0 20Jan22 (build Apr  1 2022 16:44:48) complex
 executed on        HPECrayEX_GCC date 2023.01.09  19:37:28

 INCAR:
   SYSTEM = MgO-rocksalt
   ISMEAR = 0
   SIGMA = 0.05
   EDIFF = 1E-6
   ALGO = ALL
   ISTART = 0
   IBRION = -1
   NSW = 0
   ISYM = 2
   DIPOL = 0.5 0.5 0.5
   IDIPOL = 3
   LDIPOL = .TRUE.
   GGA = PS
   IVDW = 12
   VDW_A1 = 0.4466
   VDW_S8 = 2.9491
   VDW_A2 = 6.1742
   ENCUT = 520
   PREC = Accurate
   LASPH = .TRUE.
   LREAL = Auto
   ISPIN = 1
   NELM = 200
   NELMIN = 8
   NCORE = 4
   KPAR = 2
   LWAVE = .FALSE.
   LCHARG = .FALSE.

 POTCAR:    PAW_PBE Au 04Oct2007
 POTCAR:    PAW_PBE Mg_pv 13Apr2007
 POTCAR:    PAW_PBE O 08Apr2002
 POTCAR:    PAW_PBE Au 04Oct2007
   VRHFIN =Au: s1d10

   TITEL  = PAW_PBE Au 04Oct2007
   POMASS =  196.966; ZVAL   =   11.000    mass and valenz
   ENMAX  =  229.943; ENMIN  =  172.457 eV

   TITEL  = PAW_PBE Mg_pv 13Apr2007
   POMASS =   24.305; ZVAL   =    8.000    mass and valenz
   ENMAX  =  403.929; ENMIN  =  302.947 eV

   TITEL  = PAW_PBE O 08Apr2002
   POMASS =   16.000; ZVAL   =    6.000    mass and valenz
   ENMAX  =  400.000; ENMIN  =  300.000 eV

 Optimization of the real space projectors (new method)

 maximal supplied QI-value         = 15.12
 optimisation between [QCUT,QGAM] = [ 11.64, 23.28] = [ 37.95,151.78] Ry
 Optimized for a Real-space Cutoff    1.49 Angstroem

   l    n(q)    QCUT    max X(q) W(low)/X(q) W(high)/X(q)  e(spline)
   2      9    11.641    60.898    0.24E-03    0.10E-03    0.19E-06
   2      9    11.641    58.894    0.25E-03    0.10E-03    0.19E-06
   0     10    11.641   109.617    0.73E-04    0.33E-04    0.11E-06
   0     10    11.641    75.026    0.71E-04    0.32E-04    0.11E-06
   1     10    11.641    16.344    0.27E-04    0.97E-04    0.16E-06
   1     10    11.641    10.160    0.23E-04    0.77E-04    0.13E-06
 Optimization of the real space projectors (new method)

[...]

   l    n(q)    QCUT    max X(q) W(low)/X(q) W(high)/X(q)  e(spline)
   1      8    11.527     2.974    0.44E-04    0.56E-04    0.12E-06
   1      8    11.527     4.279    0.12E-03    0.12E-03    0.26E-06
   0      9    11.527    16.381    0.46E-04    0.64E-04    0.78E-07
   0      9    11.527     5.611    0.26E-04    0.43E-04    0.55E-07
   2      8    11.527     4.652    0.22E-03    0.72E-04    0.47E-07
 Optimization of the real space projectors (new method)

 maximal supplied QI-value         = 24.76
 optimisation between [QCUT,QGAM] = [ 11.64, 23.27] = [ 37.91,151.63] Ry
 Optimized for a Real-space Cutoff    1.14 Angstroem

   l    n(q)    QCUT    max X(q) W(low)/X(q) W(high)/X(q)  e(spline)
   0      8    11.635    20.381    0.10E-03    0.33E-03    0.24E-06
   0      8    11.635    15.268    0.11E-03    0.35E-03    0.26E-06
   1      7    11.635     5.964    0.24E-03    0.31E-03    0.30E-06
   1      7    11.635     5.382    0.22E-03    0.25E-03    0.26E-06
|               ----> ADVICE to this user running VASP <----                  |
|     You enforced a specific xc type in the INCAR file but a different       |
|     type was found in the POTCAR file.                                      |
|     I HOPE YOU KNOW WHAT YOU ARE DOING!                                     |

  PAW_PBE Au 04Oct2007                  :
  PAW_PBE Mg_pv 13Apr2007               :
  PAW_PBE O 08Apr2002                   :

 POSCAR: Au Mg  O
  positions in direct lattice
  velocities in cartesian coordinates
 exchange correlation table for  LEXCH =       14
   RHO(1)=    0.500       N(1)  =     2000
   RHO(2)=  100.500       N(2)  =     4000

 ion  position               nearest neighbor table
   1  0.400  0.425  0.603- 153 2.29   2 2.53  55 2.73
   2  0.400  0.510  0.684-   1 2.53   3 2.68   4 2.74
   3  0.400  0.633  0.713-   4 2.57   2 2.68
   4  0.400  0.605  0.600- 157 2.16   3 2.57   2 2.74  59 2.95  40 3.02  60 3.02
   5  0.000  0.000  0.407- 107 2.11 108 2.11 123 2.11 188 2.11 105 2.11
   6  0.100  0.100  0.407- 107 2.11 108 2.11 112 2.11 127 2.11 106 2.11
   7  0.000  0.100  0.503- 105 2.11 106 2.11 109 2.11 186 2.11 107 2.11
   8  0.100  0.000  0.503- 105 2.11 106 2.11 122 2.11 125 2.11 108 2.11
   9  0.000  0.200  0.407- 111 2.11 107 2.11 112 2.11 192 2.11 109 2.11
  10  0.100  0.300  0.407- 112 2.11 111 2.11 116 2.11 131 2.11 110 2.11
  11  0.000  0.300  0.503- 109 2.11 110 2.11 113 2.11 190 2.11 111 2.11
  12  0.100  0.200  0.503- 110 2.11 109 2.11 106 2.11 129 2.11 112 2.11
  13  0.000  0.400  0.407- 111 2.11 115 2.11 116 2.11 196 2.11 113 2.11
  14  0.100  0.500  0.407- 115 2.11 116 2.11 120 2.11 135 2.11 114 2.11
  15  0.000  0.500  0.503- 113 2.11 114 2.11 117 2.11 194 2.11 115 2.11
  16  0.100  0.400  0.503- 110 2.11 113 2.11 114 2.11 133 2.11 116 2.11
  17  0.000  0.600  0.407- 115 2.11 119 2.11 120 2.11 200 2.11 117 2.11
  18  0.100  0.700  0.407- 124 2.11 120 2.11 119 2.11 139 2.11 118 2.11
  19  0.000  0.700  0.503- 121 2.11 118 2.11 117 2.11 198 2.11 119 2.11
  20  0.100  0.600  0.503- 114 2.11 117 2.11 118 2.11 137 2.11 120 2.11
  21  0.000  0.800  0.407- 119 2.11 123 2.11 124 2.11 204 2.11 121 2.11
  22  0.100  0.900  0.407- 108 2.11 123 2.11 124 2.11 143 2.11 122 2.11
  23  0.000  0.900  0.503- 105 2.11 121 2.11 122 2.11 202 2.11 123 2.11
  24  0.100  0.800  0.503- 118 2.11 121 2.11 122 2.11 141 2.11 124 2.11
  25  0.200  0.000  0.407- 128 2.11 127 2.11 108 2.11 143 2.11 125 2.11
  26  0.300  0.100  0.407- 127 2.11 128 2.11 132 2.11 147 2.11 126 2.11
  27  0.200  0.100  0.503- 126 2.11 125 2.11 106 2.11 129 2.11 127 2.11
  28  0.300  0.000  0.503- 125 2.11 126 2.11 142 2.11 145 2.11 128 2.11
  29  0.200  0.200  0.407- 131 2.11 132 2.11 112 2.11 127 2.11 129 2.11
  30  0.300  0.300  0.407- 131 2.11 132 2.11 136 2.11 151 2.11 130 2.11
  31  0.200  0.300  0.503- 129 2.11 130 2.11 110 2.11 133 2.11 131 2.11
  32  0.300  0.200  0.503- 129 2.11 130 2.11 126 2.11 149 2.11 132 2.11
  33  0.200  0.400  0.407- 136 2.11 131 2.11 135 2.11 116 2.11 133 2.11
  34  0.300  0.500  0.407- 135 2.11 136 2.11 140 2.11 155 2.11 134 2.11
  35  0.200  0.500  0.503- 134 2.11 133 2.11 114 2.11 137 2.11 135 2.11
  36  0.300  0.400  0.503- 133 2.11 130 2.11 134 2.11 153 2.11 136 2.11
  37  0.200  0.600  0.407- 140 2.11 135 2.11 139 2.11 120 2.11 137 2.11
  38  0.300  0.700  0.407- 139 2.11 144 2.11 140 2.11 159 2.11 138 2.11
  39  0.200  0.700  0.503- 138 2.11 141 2.11 118 2.11 137 2.11 139 2.11
  40  0.300  0.600  0.503- 137 2.11 134 2.11 138 2.11 157 2.11 140 2.11   4 3.02
  41  0.200  0.800  0.407- 139 2.11 144 2.11 143 2.11 124 2.11 141 2.11
  42  0.300  0.900  0.407- 143 2.11 128 2.11 144 2.11 163 2.11 142 2.11
  43  0.200  0.900  0.503- 142 2.11 125 2.11 141 2.11 122 2.11 143 2.11
  44  0.300  0.800  0.503- 138 2.11 141 2.11 142 2.11 161 2.11 144 2.11
  45  0.400  0.000  0.407- 128 2.11 147 2.11 148 2.11 163 2.11 145 2.11
  46  0.500  0.100  0.407- 147 2.11 148 2.11 152 2.11 167 2.11 146 2.11
  47  0.400  0.100  0.503- 126 2.11 145 2.11 146 2.11 149 2.11 147 2.11
  48  0.500  0.000  0.503- 145 2.11 146 2.11 162 2.11 165 2.11 148 2.11
  49  0.400  0.200  0.407- 151 2.11 147 2.11 132 2.11 152 2.11 149 2.11
  50  0.500  0.300  0.407- 152 2.11 151 2.11 156 2.11 171 2.11 150 2.11
  51  0.400  0.300  0.503- 149 2.11 130 2.11 150 2.11 153 2.11 151 2.11
  52  0.500  0.200  0.503- 150 2.11 149 2.11 146 2.11 169 2.11 152 2.11
  53  0.400  0.400  0.407- 136 2.11 151 2.11 155 2.11 156 2.11 153 2.11
  54  0.500  0.500  0.407- 155 2.11 156 2.11 160 2.11 175 2.11 154 2.11
  55  0.400  0.500  0.503- 134 2.11 153 2.11 154 2.11 157 2.11 155 2.11   1 2.73
  56  0.500  0.400  0.503- 150 2.11 153 2.11 154 2.11 173 2.11 156 2.11
  57  0.400  0.600  0.407- 140 2.11 155 2.11 159 2.11 160 2.11 157 2.11
  58  0.500  0.700  0.407- 164 2.11 160 2.11 159 2.11 179 2.11 158 2.11
  59  0.400  0.700  0.503- 161 2.11 157 2.11 158 2.11 138 2.11 159 2.11   4 2.95
  60  0.500  0.600  0.503- 154 2.11 157 2.11 158 2.11 177 2.11 160 2.11   4 3.02
[...]
 190  0.900  0.300  0.503-  92 2.11  91 2.11  11 2.11  96 2.11  90 2.11
 191  0.800  0.300  0.407-  70 2.11  89 2.11  90 2.11  93 2.11  91 2.11
 192  0.900  0.200  0.407-  90 2.11  86 2.11  89 2.11   9 2.11  92 2.11
 193  0.800  0.400  0.503-  76 2.11  91 2.11  95 2.11  96 2.11  93 2.11
 194  0.900  0.500  0.503-  15 2.11  95 2.11  96 2.11 100 2.11  94 2.11
 195  0.800  0.500  0.407-  74 2.11  93 2.11  94 2.11  97 2.11  95 2.11
 196  0.900  0.400  0.407-  13 2.11  90 2.11  93 2.11  94 2.11  96 2.11
 197  0.800  0.600  0.503-  80 2.11  95 2.11  99 2.11 100 2.11  97 2.11
 198  0.900  0.700  0.503- 104 2.11  99 2.11 100 2.11  19 2.11  98 2.11
 199  0.800  0.700  0.407-  78 2.11 101 2.11  98 2.11  97 2.11  99 2.11
 200  0.900  0.600  0.407-  17 2.11  94 2.11  97 2.11  98 2.11 100 2.11
 201  0.800  0.800  0.503-  84 2.11  99 2.11 103 2.11 104 2.11 101 2.11
 202  0.900  0.900  0.503-  23 2.11  88 2.11 103 2.11 104 2.11 102 2.11
 203  0.800  0.900  0.407-  82 2.11  85 2.11 101 2.11 102 2.11 103 2.11
 204  0.900  0.800  0.407-  98 2.11  21 2.11 101 2.11 102 2.11 104 2.11

  LATTYP: Found a simple tetragonal cell.
 ALAT       =    21.1388521970
 C/A-ratio  =     1.0461251639

  Lattice vectors:

 A1 = (  21.1388521970,   0.0000000000,   0.0000000000)
 A2 = (   0.0000000000,  21.1388521970,   0.0000000000)
 A3 = (   0.0000000000,   0.0000000000,  22.1138852197)

Analysis of symmetry for initial positions (statically):
 Subroutine PRICEL returns:
 Original cell was already a primitive cell.

 Routine SETGRP: Setting up the symmetry group for a
 simple tetragonal supercell.

 Subroutine GETGRP returns: Found  1 space group operations
 (whereof  1 operations were pure point group operations)
 out of a pool of 16 trial point group operations.

The static configuration has the point symmetry C_1 .

Analysis of symmetry for dynamics (positions and initial velocities):
 Subroutine PRICEL returns:
 Original cell was already a primitive cell.

[...]

The dynamic configuration has the point symmetry C_1 .

Analysis of constrained symmetry for selective dynamics:
 Subroutine PRICEL returns:
 Original cell was already a primitive cell.

 Routine SETGRP: Setting up the symmetry group for a
 simple tetragonal supercell.

 Subroutine GETGRP returns: Found  1 space group operations
 (whereof  1 operations were pure point group operations)
 out of a pool of 16 trial point group operations.

The constrained configuration has the point symmetry C_1 .

 Subroutine INISYM returns: Found  1 space group operations
 (whereof  1 operations are pure point group operations),
 and found     1 'primitive' translations

                                     Primitive cell

  volume of cell :    9881.6133

  direct lattice vectors                    reciprocal lattice vectors
    21.138852197  0.000000000  0.000000000     0.047306258  0.000000000  0.000000000
     0.000000000 21.138852197  0.000000000     0.000000000  0.047306258  0.000000000
     0.000000000  0.000000000 22.113885220     0.000000000  0.000000000  0.045220457

  length of vectors
    21.138852197 21.138852197 22.113885220     0.047306258  0.047306258  0.045220457

  position of ions in fractional coordinates (direct lattice)
     0.399951201  0.425242954  0.603301976
[...]
|           WW  WW  A    A  R   R   N   NN  II  N   NN  G    G                |
|           W    W  A    A  R    R  N    N  II  N    N   GGGG   !!!           |
|     Specifying the vdW parameters                                           |
|     VDW_A1 = 0.447                                                          |
|     VDW_A2 = 6.174                                                          |
|     VDW_S8 = 2.949                                                          |
|     in the INCAR file will overwrite the defaults for pbesol. Please        |
|     make sure that is what you intended.                                    |

         DFTD3 V3.0 Rev 1
 IVDW         = 12
 DF pbesol
 parameters
 VDW_S6       =    1.0000
 VDW_S8       =    2.9491
 VDW_A1       =    0.4466
 VDW_A2       =    6.1742
 k1-k3        =   16.0000    1.3333   -4.0000
 VDW_RADIUS   =   50.2022 A
 VDW_CNRADIUS =   21.1671 A
 Edisp (eV)  -23.85244

 E6    (eV) :    -8.5548
 E8    (eV) :   -15.2976
 % E8        : 64.13

  FORCE on cell =-STRESS in cart. coord.  units (eV):
  Direction    XX          YY          ZZ          XY          YZ          ZX
  Alpha Z  1417.83424  1417.83424  1417.83424
  Ewald  478689.67923480803.91176************     0.83759   457.00324     0.56808
  Hartree508149.59210509796.91214************     0.62552   334.86659     0.41937
  E(xc)   -7693.04812 -7692.13917 -7709.54100     0.00042     0.31454     0.00028
  Local  ************************************    -1.44858  -780.51462    -0.97719
  n-local -8789.15640 -8799.61364 -8929.03505    -0.00461    -5.24254    -0.00395
  augment  3489.04720  3484.40283  3420.83876    -0.00301    -1.91193    -0.00294
  Kinetic 23258.23969 23246.14947 23500.26154    -0.00774    -5.16077    -0.00094
  Fock        0.00000     0.00000     0.00000     0.00000     0.00000     0.00000
  vdW       -24.93158   -24.96683    -5.36932    -0.00002    -0.01996     0.00001
  Total    -220.40805  -221.46788   -15.99831    -0.00043    -0.66543     0.00273
  in kB     -35.73635   -35.90819    -2.59392    -0.00007    -0.10789     0.00044

 VOLUME and BASIS-vectors are now :
  energy-cutoff  :      520.00
  volume of cell :     9881.61
      direct lattice vectors                 reciprocal lattice vectors
    21.138852197  0.000000000  0.000000000     0.047306258  0.000000000  0.000000000
     0.000000000 21.138852197  0.000000000     0.000000000  0.047306258  0.000000000
     0.000000000  0.000000000 22.113885220     0.000000000  0.000000000  0.045220457

  length of vectors
    21.138852197 21.138852197 22.113885220     0.047306258  0.047306258  0.045220457

 FORCES acting on ions:
    Electron-Ion                     Ewald-Force                    Non-Local-Force
   0.617E-01 0.369E+03 -.196E+04   -.629E-01 -.366E+03 0.197E+04   0.218E-02 -.333E+01 -.429E+01
   0.196E+00 0.209E+03 -.198E+04   -.196E+00 -.211E+03 0.198E+04   0.680E-03 0.224E+01 0.383E+01
   -.394E+00 -.355E+03 -.186E+04   0.386E+00 0.351E+03 0.185E+04   0.673E-02 0.391E+01 0.568E+01
   0.139E+00 -.226E+03 -.180E+04   -.137E+00 0.227E+03 0.180E+04   -.251E-03 -.931E+00 -.255E+01
   0.728E+01 -.275E+01 0.937E+03   -.731E+01 0.276E+01 -.929E+03   0.165E-01 -.661E-02 -.772E+01
   0.131E+02 0.618E+01 0.940E+03   -.131E+02 -.620E+01 -.932E+03   0.346E-01 0.121E-01 -.772E+01
   0.949E+01 0.529E+01 -.918E+03   -.951E+01 -.529E+01 0.910E+03   0.144E-01 -.284E-02 0.763E+01
   0.158E+02 -.520E+01 -.916E+03   -.158E+02 0.521E+01 0.908E+03   0.188E-01 -.887E-02 0.763E+01
   0.977E+01 0.993E+01 0.939E+03   -.981E+01 -.994E+01 -.931E+03   0.299E-01 0.846E-02 -.772E+01
   0.254E+02 0.186E+02 0.950E+03   -.256E+02 -.186E+02 -.942E+03   0.114E+00 0.319E-01 -.775E+01
   0.184E+02 0.158E+02 -.914E+03   -.185E+02 -.158E+02 0.906E+03   0.215E-01 0.236E-02 0.762E+01
   0.240E+02 0.201E+02 -.912E+03   -.240E+02 -.201E+02 0.904E+03   0.474E-01 0.364E-02 0.762E+01
   0.172E+02 0.973E+01 0.946E+03   -.173E+02 -.974E+01 -.937E+03   0.567E-01 0.119E-01 -.773E+01
   0.394E+02 0.477E+01 0.962E+03   -.396E+02 -.479E+01 -.954E+03   0.191E+00 0.169E-01 -.778E+01
   0.286E+02 0.429E+01 -.908E+03   -.286E+02 -.430E+01 0.900E+03   0.267E-01 0.719E-02 0.762E+01
   0.538E+02 0.225E+02 -.897E+03   -.538E+02 -.225E+02 0.889E+03   0.534E-01 0.743E-02 0.759E+01
   0.191E+02 -.486E+01 0.947E+03   -.192E+02 0.486E+01 -.939E+03   0.699E-01 0.368E-03 -.773E+01
   0.313E+02 -.168E+02 0.956E+03   -.315E+02 0.168E+02 -.948E+03   0.157E+00 -.294E-01 -.776E+01
   0.231E+02 -.140E+02 -.910E+03   -.232E+02 0.140E+02 0.902E+03   0.333E-01 0.553E-03 0.762E+01
   0.622E+02 -.117E+02 -.892E+03   -.623E+02 0.117E+02 0.884E+03   0.949E-01 0.118E-01 0.759E+01
   0.122E+02 -.120E+02 0.941E+03   -.122E+02 0.121E+02 -.933E+03   0.404E-01 -.141E-01 -.772E+01
   0.157E+02 -.127E+02 0.942E+03   -.157E+02 0.128E+02 -.934E+03   0.425E-01 -.315E-01 -.772E+01
   0.116E+02 -.114E+02 -.917E+03   -.117E+02 0.114E+02 0.909E+03   0.181E-01 -.726E-02 0.763E+01
   0.329E+02 -.257E+02 -.906E+03   -.330E+02 0.258E+02 0.898E+03   0.645E-01 -.139E-01 0.762E+01
   0.133E+02 -.528E+01 0.943E+03   -.134E+02 0.530E+01 -.935E+03   0.279E-01 -.152E-01 -.773E+01
   0.952E+01 0.126E+02 0.948E+03   -.955E+01 -.127E+02 -.940E+03   0.258E-01 0.777E-01 -.774E+01
   0.188E+02 0.132E+02 -.912E+03   -.188E+02 -.132E+02 0.904E+03   0.251E-01 0.247E-01 0.762E+01
   0.117E+02 -.106E+02 -.909E+03   -.117E+02 0.106E+02 0.901E+03   0.116E-01 -.648E-02 0.762E+01
   0.206E+02 0.226E+02 0.951E+03   -.207E+02 -.227E+02 -.943E+03   0.903E-01 0.836E-01 -.774E+01
   0.265E+02 0.457E+02 0.986E+03   -.268E+02 -.462E+02 -.978E+03   0.245E+00 0.313E+00 -.777E+01
   0.559E+02 0.506E+02 -.888E+03   -.561E+02 -.506E+02 0.880E+03   0.195E+00 -.432E-02 0.756E+01
   0.240E+02 0.540E+02 -.894E+03   -.241E+02 -.542E+02 0.886E+03   0.298E-01 0.172E+00 0.759E+01
   0.470E+02 0.254E+02 0.982E+03   -.475E+02 -.255E+02 -.974E+03   0.414E+00 0.897E-01 -.789E+01
   0.505E+02 0.115E+02 0.104E+04   -.512E+02 -.117E+02 -.103E+04   0.553E+00 0.124E+00 -.794E+01
   0.113E+03 0.144E+02 -.847E+03   -.113E+03 -.145E+02 0.839E+03   0.285E+00 0.342E-01 0.748E+01
   0.128E+03 0.928E+02 -.764E+03   -.130E+03 -.928E+02 0.757E+03   0.152E+01 0.533E-01 0.669E+01
   0.534E+02 -.141E+02 0.991E+03   -.541E+02 0.141E+02 -.983E+03   0.555E+00 -.357E-01 -.792E+01
   0.351E+02 -.449E+02 0.101E+04   -.355E+02 0.454E+02 -.100E+04   0.347E+00 -.392E+00 -.776E+01
   0.780E+02 -.504E+02 -.868E+03   -.783E+02 0.504E+02 0.860E+03   0.285E+00 -.379E-02 0.755E+01
   0.156E+03 -.488E+02 -.721E+03   -.159E+03 0.489E+02 0.714E+03   0.252E+01 -.320E-01 0.684E+01
   0.274E+02 -.286E+02 0.960E+03   -.275E+02 0.288E+02 -.952E+03   0.121E+00 -.122E+00 -.775E+01
   0.121E+02 -.255E+02 0.955E+03   -.121E+02 0.257E+02 -.947E+03   0.277E-01 -.132E+00 -.775E+01
   0.250E+02 -.284E+02 -.906E+03   -.250E+02 0.285E+02 0.898E+03   0.213E-01 -.530E-01 0.762E+01
   0.386E+02 -.776E+02 -.870E+03   -.386E+02 0.779E+02 0.862E+03   -.128E-01 -.282E+00 0.755E+01
   -.176E-02 -.745E+01 0.948E+03   0.172E-02 0.747E+01 -.940E+03   0.304E-04 -.174E-01 -.773E+01
   -.952E+01 0.126E+02 0.948E+03   0.955E+01 -.127E+02 -.940E+03   -.257E-01 0.778E-01 -.774E+01
   -.407E-02 0.219E+02 -.906E+03   0.401E-02 -.220E+02 0.898E+03   0.495E-04 0.597E-01 0.761E+01
   -.117E+02 -.106E+02 -.909E+03   0.117E+02 0.106E+02 0.901E+03   -.116E-01 -.646E-02 0.762E+01
   -.583E-02 0.364E+02 0.964E+03   0.574E-02 -.368E+02 -.956E+03   0.721E-04 0.353E+00 -.782E+01
   -.265E+02 0.457E+02 0.986E+03   0.268E+02 -.461E+02 -.978E+03   -.245E+00 0.313E+00 -.777E+01
   -.365E-01 0.133E+03 -.820E+03   0.361E-01 -.135E+03 0.813E+03   0.324E-03 0.161E+01 0.742E+01
   -.241E+02 0.539E+02 -.894E+03   0.241E+02 -.542E+02 0.886E+03   -.297E-01 0.172E+00 0.759E+01
   -.203E-01 0.474E+02 0.105E+04   0.198E-01 -.480E+02 -.104E+04   0.405E-03 0.463E+00 -.574E+01
   -.505E+02 0.115E+02 0.104E+04   0.512E+02 -.117E+02 -.103E+04   -.553E+00 0.124E+00 -.794E+01
   -.980E-01 0.196E+02 -.583E+03   0.971E-01 -.212E+02 0.579E+03   0.897E-03 0.142E+01 0.452E+01
   -.128E+03 0.927E+02 -.764E+03   0.130E+03 -.928E+02 0.757E+03   -.152E+01 0.538E-01 0.670E+01
   -.162E-01 -.272E+02 0.107E+04   0.157E-01 0.276E+02 -.106E+04   0.425E-03 -.314E+00 -.449E+01
   -.351E+02 -.449E+02 0.101E+04   0.355E+02 0.454E+02 -.100E+04   -.347E+00 -.392E+00 -.776E+01
   -.276E-01 -.162E+03 -.734E+03   0.275E-01 0.166E+03 0.727E+03   0.102E-03 -.240E+01 0.632E+01
   -.156E+03 -.488E+02 -.722E+03   0.159E+03 0.488E+02 0.715E+03   -.252E+01 -.325E-01 0.684E+01
[...]
   -.101E+02 0.914E+01 0.708E+03   0.101E+02 -.915E+01 -.712E+03   -.375E-01 0.159E-01 0.351E+01
   0.210E-02 0.632E+01 0.704E+03   -.206E-02 -.632E+01 -.708E+03   -.531E-04 0.650E-02 0.352E+01
   -.185E+02 0.966E+01 -.684E+03   0.185E+02 -.967E+01 0.688E+03   -.289E-01 0.757E-02 -.369E+01
   0.473E-02 0.256E+01 -.686E+03   -.466E-02 -.257E+01 0.690E+03   -.885E-04 0.712E-02 -.368E+01
   -.147E+02 0.235E+01 0.712E+03   0.147E+02 -.236E+01 -.716E+03   -.525E-01 0.109E-01 0.350E+01
   0.349E-02 0.607E+01 0.708E+03   -.342E-02 -.608E+01 -.712E+03   -.814E-04 0.103E-01 0.351E+01
   -.210E+02 -.474E+01 -.682E+03   0.210E+02 0.474E+01 0.687E+03   -.364E-01 0.627E-02 -.370E+01
   0.252E-02 -.831E+01 -.687E+03   -.247E-02 0.831E+01 0.691E+03   -.607E-04 -.504E-03 -.367E+01
   -.121E+02 -.802E+01 0.710E+03   0.121E+02 0.803E+01 -.714E+03   -.487E-01 -.135E-01 0.351E+01
   0.292E-02 -.296E+01 0.709E+03   -.287E-02 0.296E+01 -.713E+03   -.722E-04 0.135E-02 0.351E+01
   -.126E+02 -.117E+02 -.687E+03   0.126E+02 0.117E+02 0.691E+03   -.279E-01 -.104E-01 -.367E+01
   0.110E-02 -.709E+01 -.690E+03   -.107E-02 0.710E+01 0.694E+03   -.370E-04 -.770E-02 -.365E+01
   -.669E+01 -.666E+01 0.705E+03   0.671E+01 0.667E+01 -.709E+03   -.258E-01 -.173E-01 0.352E+01
   0.138E-02 -.762E+01 0.706E+03   -.135E-02 0.763E+01 -.710E+03   -.401E-04 -.119E-01 0.352E+01
   0.131E-03 -.382E+01 0.338E+01   0.958E-12 0.122E-11 0.209E-10   -.434E-03 0.382E+01 -.383E+01

 POSITION                                       TOTAL-FORCE (eV/Angst)
      8.45451      8.98915     13.34135         0.000878      0.199671     -0.153017
      8.45464     10.77395     15.12987         0.000463      0.155006     -0.373714
      8.45667     13.37210     15.77041        -0.001374     -0.303545     -0.366565
      8.45496     12.78393     13.26751         0.001649     -0.117485     -0.041580
      0.00000      0.00000      9.00000        -0.004520      0.001832      0.479371
      2.11389      2.11389      9.00000        -0.009437     -0.003275      0.480587
      0.00000      2.11389     11.11389        -0.003705      0.000865     -0.447340
      2.11389      0.00000     11.11389        -0.005054      0.002293     -0.445681
      0.00000      4.22777      9.00000        -0.007811     -0.002231      0.480977
      2.11389      6.34166      9.00000        -0.029002     -0.008165      0.488567
      0.00000      6.34166     11.11389        -0.004588     -0.000203     -0.441834
      2.11389      4.22777     11.11389        -0.011165     -0.000194     -0.439279
      0.00000      8.45554      9.00000        -0.014594     -0.003134      0.484269
      2.11389     10.56943      9.00000        -0.048643     -0.004853      0.496330
      0.00000     10.56943     11.11389        -0.004745     -0.002001     -0.437018
      2.11389      8.45554     11.11389        -0.005761     -0.000337     -0.418907
      0.00000     12.68331      9.00000        -0.017820     -0.000259      0.484693
      2.11389     14.79720      9.00000        -0.040014      0.007831      0.490072
      0.00000     14.79720     11.11389        -0.007344     -0.000488     -0.440853
      2.11389     12.68331     11.11389        -0.014901     -0.004488     -0.416704
      0.00000     16.91108      9.00000        -0.010545      0.003875      0.481327
      2.11389     19.02497      9.00000        -0.011593      0.008537      0.480899
      0.00000     19.02497     11.11389        -0.004631      0.001926     -0.446821
      2.11389     16.91108     11.11389        -0.014759      0.002840     -0.436464
      4.22777      0.00000      9.00000        -0.007676      0.003927      0.482002
      6.34166      2.11389      9.00000        -0.007284     -0.019888      0.485155
      4.22777      2.11389     11.11389        -0.006534     -0.005294     -0.440012
      6.34166      0.00000     11.11389        -0.002952      0.001096     -0.439332
      4.22777      4.22777      9.00000        -0.024657     -0.022499      0.484898
      6.34166      6.34166      9.00000        -0.078549     -0.093226      0.482051
      4.22777      6.34166     11.11389        -0.037737      0.011217     -0.393124
      6.34166      4.22777     11.11389        -0.005738     -0.034797     -0.409706
      4.22777      8.45554      9.00000        -0.100095     -0.022423      0.522607
      6.34166     10.56943      9.00000        -0.179864     -0.040880      0.495702
      4.22777     10.56943     11.11389        -0.042592     -0.010368     -0.327088
      6.34166      8.45554     11.11389        -0.513955      0.018149     -0.133524
      4.22777     12.68331      9.00000        -0.132460      0.007533      0.527712
      6.34166     14.79720      9.00000        -0.110875      0.122439      0.470843
      4.22777     14.79720     11.11389        -0.058616     -0.007646     -0.378579
      6.34166     12.68331     11.11389        -0.872379     -0.010524     -0.251388
      4.22777     16.91108      9.00000        -0.033058      0.032911      0.486857
      6.34166     19.02497      9.00000        -0.007393      0.033220      0.489740
      4.22777     19.02497     11.11389        -0.005007      0.011626     -0.436600
      6.34166     16.91108     11.11389         0.013483      0.054031     -0.376065
      8.45554      0.00000      9.00000        -0.000007      0.004528      0.484233
     10.56943      2.11389      9.00000         0.007269     -0.019899      0.485149
      8.45554      2.11389     11.11389        -0.000010     -0.011521     -0.433137
     10.56943      0.00000     11.11389         0.002942      0.001090     -0.439333
      8.45554      4.22777      9.00000        -0.000019     -0.084584      0.502502
     10.56943      6.34166      9.00000         0.078493     -0.093281      0.482012
      8.45554      6.34166     11.11389        -0.000107     -0.485507     -0.308233
     10.56943      4.22777     11.11389         0.005698     -0.034867     -0.409733
      8.45554      8.45554      9.00000        -0.000128     -0.095710      0.069096
     10.56943     10.56943      9.00000         0.179805     -0.040882      0.495648
      8.45554     10.56943     11.11389        -0.000036     -0.173939     -0.082837
     10.56943      8.45554     11.11389         0.513431      0.018150     -0.133679
      8.45554     12.68331      9.00000        -0.000138      0.069969     -0.197560
     10.56943     14.79720      9.00000         0.110855      0.122508      0.470877
      8.45554     14.79720     11.11389         0.000030      0.892086     -0.207990
     10.56943     12.68331     11.11389         0.871867     -0.010375     -0.251040
[...]
     19.02497      6.34166     11.11389        -0.000024      0.000937      0.375639
     16.91108      6.34166      9.00000        -0.010308      0.004412     -0.414621
     19.02497      4.22777      9.00000        -0.000013      0.001826     -0.412055
     16.91108      8.45554     11.11389        -0.008005      0.002090      0.368803
     19.02497     10.56943     11.11389        -0.000020      0.001970      0.372521
     16.91108     10.56943      9.00000        -0.014452      0.003009     -0.417287
     19.02497      8.45554      9.00000        -0.000017      0.002850     -0.414180
     16.91108     12.68331     11.11389        -0.010148      0.001734      0.368012
     19.02497     14.79720     11.11389        -0.000016     -0.000124      0.374976
     16.91108     14.79720      9.00000        -0.013403     -0.003727     -0.414991
     19.02497     12.68331      9.00000        -0.000016      0.000364     -0.414294
     16.91108     16.91108     11.11389        -0.007678     -0.002843      0.375172
     19.02497     19.02497     11.11389        -0.000013     -0.002104      0.379204
     16.91108     19.02497      9.00000        -0.007046     -0.004709     -0.411843
     19.02497     16.91108      9.00000        -0.000010     -0.003259     -0.412260
    total drift:                               -0.000303     -0.003745     -0.451864

  FREE ENERGIE OF THE ION-ELECTRON SYSTEM (eV)
  free  energy   TOTEN  =     -1222.12591369 eV

  energy  without entropy=    -1222.12591369  energy(sigma->0) =    -1222.12591369