 vasp.6.3.0 20Jan22 (build Apr  1 2022 16:44:48) complex
 executed on        HPECrayEX_GCC date 2023.04.27  09:24:13

 INCAR:
   SYSTEM = MgO-rocksalt
   ISMEAR = 0
   SIGMA = 0.05
   EDIFF = 1E-6
   ALGO = ALL
   ISTART = 0
   IBRION = 2
   NSW = 100
   EDIFFG = -0.01
   ISYM = 2
   DIPOL = 0.5 0.5 0.5
   IDIPOL = 3
   LDIPOL = .TRUE.
   GGA = MK
   LUSE_VDW = .TRUE.
   PARAM1 = 0.1234
   PARAM2 = 0.711357
   ZAB_VDW = -1.8867
   AGGAC = 0.0
   ENCUT = 520
   PREC = Accurate
   LASPH = .TRUE.
   LREAL = Auto
   ISPIN = 1
   NELM = 200
   NELMIN = 8
   NCORE = 4
   KPAR = 2
   LWAVE = .FALSE.
   LCHARG = .FALSE.

 POTCAR:    PAW_PBE Au 04Oct2007
 POTCAR:    PAW_PBE Mg_pv 13Apr2007
 POTCAR:    PAW_PBE O 08Apr2002
|               ----> ADVICE to this user running VASP <----                  |
|     You have switched on vdW-DFT.                                           |
|     This routine was written and supplied by Jiri Klimes. We recommend      |
|     that you carefully read and cite the following publications:            |
|       J. Klimes, D.R. Bowler, A. Michelides                                 |
|          J. Phys.: Cond Matt. 22 022201 (2010)                              |
|       J. Klimes, D.R. Bowler, A. Michelides                                 |
|          Phys. Rev. B. 83, 195131 (2011)                                    |
|     and references therein.                                                 |

   TITEL  = PAW_PBE Au 04Oct2007
   POMASS =  196.966; ZVAL   =   11.000    mass and valenz
   ENMAX  =  229.943; ENMIN  =  172.457 eV

   TITEL  = PAW_PBE Mg_pv 13Apr2007
   POMASS =   24.305; ZVAL   =    8.000    mass and valenz
   ENMAX  =  403.929; ENMIN  =  302.947 eV

   TITEL  = PAW_PBE O 08Apr2002
   POMASS =   16.000; ZVAL   =    6.000    mass and valenz
   ENMAX  =  400.000; ENMIN  =  300.000 eV

 Optimization of the real space projectors (new method)

 maximal supplied QI-value         = 15.12
 optimisation between [QCUT,QGAM] = [ 11.64, 23.28] = [ 37.95,151.78] Ry
 Optimized for a Real-space Cutoff    1.49 Angstroem

   l    n(q)    QCUT    max X(q) W(low)/X(q) W(high)/X(q)  e(spline)
   2      9    11.641    60.898    0.24E-03    0.10E-03    0.19E-06
   2      9    11.641    58.894    0.25E-03    0.10E-03    0.19E-06
   0     10    11.641   109.617    0.73E-04    0.33E-04    0.11E-06
   0     10    11.641    75.026    0.71E-04    0.32E-04    0.11E-06
   1     10    11.641    16.344    0.27E-04    0.97E-04    0.16E-06
   1     10    11.641    10.160    0.23E-04    0.77E-04    0.13E-06
 Optimization of the real space projectors (new method)

[...]

   l    n(q)    QCUT    max X(q) W(low)/X(q) W(high)/X(q)  e(spline)
   1      8    11.527     2.974    0.44E-04    0.56E-04    0.12E-06
   1      8    11.527     4.279    0.12E-03    0.12E-03    0.26E-06
   0      9    11.527    16.381    0.46E-04    0.64E-04    0.78E-07
   0      9    11.527     5.611    0.26E-04    0.43E-04    0.55E-07
   2      8    11.527     4.652    0.22E-03    0.72E-04    0.47E-07
 Optimization of the real space projectors (new method)

 maximal supplied QI-value         = 24.76
 optimisation between [QCUT,QGAM] = [ 11.64, 23.27] = [ 37.91,151.63] Ry
 Optimized for a Real-space Cutoff    1.14 Angstroem

   l    n(q)    QCUT    max X(q) W(low)/X(q) W(high)/X(q)  e(spline)
   0      8    11.635    20.381    0.10E-03    0.33E-03    0.24E-06
   0      8    11.635    15.268    0.11E-03    0.35E-03    0.26E-06
   1      7    11.635     5.964    0.24E-03    0.31E-03    0.30E-06
   1      7    11.635     5.382    0.22E-03    0.25E-03    0.26E-06
|               ----> ADVICE to this user running VASP <----                  |
|     You enforced a specific xc type in the INCAR file but a different       |
|     type was found in the POTCAR file.                                      |
|     I HOPE YOU KNOW WHAT YOU ARE DOING!                                     |

  PAW_PBE Au 04Oct2007                  :
  PAW_PBE Mg_pv 13Apr2007               :
  PAW_PBE O 08Apr2002                   :

 POSCAR: Mg  O
  positions in direct lattice
  velocities in cartesian coordinates
 exchange correlation table for  LEXCH =       43
   RHO(1)=    0.500       N(1)  =     2000
   RHO(2)=  100.500       N(2)  =     4000

 ion  position               nearest neighbor table
   1  0.525  0.447  0.604-   9 2.67   5 2.68   6 2.74  10 2.80   2 2.83
   2  0.392  0.462  0.611-  10 2.68   6 2.70   7 2.71   3 2.74  11 2.75   1 2.83
   3  0.263  0.476  0.611-   8 2.71   4 2.73   2 2.74  12 2.74  11 2.75   7 2.76
   4  0.142  0.488  0.581- 230 2.54  12 2.68   3 2.73   8 2.75  51 2.76
   5  0.597  0.552  0.599-   1 2.68  13 2.70   6 2.72  14 2.76
   6  0.469  0.564  0.610-   2 2.70   7 2.70   5 2.72   1 2.74  14 2.75  15 2.77
   7  0.342  0.580  0.615-  16 2.70   6 2.70   2 2.71   8 2.75   3 2.76  15 2.77
   8  0.223  0.590  0.580- 253 2.44   3 2.71  16 2.73   7 2.75   4 2.75  56 2.95
   9  0.567  0.328  0.608-  17 2.66   1 2.67  10 2.67  18 2.84
  10  0.441  0.345  0.606-   9 2.67  11 2.67   2 2.68  18 2.72   1 2.80  19 2.83
  11  0.316  0.357  0.606-  10 2.67  19 2.71  12 2.72   2 2.75   3 2.75  20 2.78
  12  0.189  0.372  0.596-  20 2.66   4 2.68  11 2.72   3 2.74
  13  0.664  0.657  0.580- 294 2.61  14 2.66   5 2.70  96 2.83  95 2.91
  14  0.542  0.671  0.600-  15 2.63  13 2.66   6 2.75   5 2.76
  15  0.420  0.685  0.613-  14 2.63  16 2.66   7 2.77   6 2.77
  16  0.306  0.688  0.576- 254 2.29  15 2.66   7 2.70   8 2.73  56 2.97  75 3.04
  17  0.590  0.216  0.572- 285 2.19  18 2.62   9 2.66  87 2.86  68 2.93
  18  0.483  0.224  0.615-  17 2.62  19 2.63  10 2.72   9 2.84
  19  0.361  0.238  0.599-  18 2.63  20 2.71  11 2.71  10 2.83
  20  0.235  0.255  0.591-  12 2.66  19 2.71  11 2.78  47 2.94
  21  0.000  0.000  0.430- 223 2.11 224 2.11 304 2.11 239 2.12 321 2.12 221 2.13
  22  0.100  0.100  0.430- 243 2.11 228 2.11 223 2.11 224 2.11 322 2.12 222 2.13
  23  1.000  0.100  0.500- 223 2.11 222 2.11 302 2.11 225 2.11 221 2.11
  24  0.100  0.000  0.500- 224 2.11 222 2.11 221 2.11 238 2.11 241 2.11
  25  0.000  0.200  0.430- 228 2.11 308 2.11 223 2.11 227 2.11 325 2.12 225 2.13
  26  0.100  0.300  0.430- 247 2.10 228 2.11 227 2.12 326 2.12 232 2.13 226 2.13
  27  1.000  0.300  0.500- 306 2.11 227 2.11 226 2.11 225 2.11 229 2.12
  28  0.100  0.200  0.500- 225 2.11 228 2.11 226 2.11 245 2.11 222 2.11
  29  1.000  0.400  0.430- 232 2.11 227 2.11 312 2.11 231 2.12 329 2.12 229 2.13
  30  0.100  0.500  0.429- 232 2.10 251 2.10 231 2.11 330 2.11 236 2.12 230 2.19
  31  0.998  0.500  0.500- 310 2.08 231 2.11 229 2.11 230 2.12 233 2.12
  32  0.100  0.398  0.500- 226 2.09 229 2.11 232 2.11 249 2.12 230 2.16
  33  1.000  0.600  0.430- 316 2.11 231 2.11 235 2.11 333 2.12 236 2.12 233 2.14
  34  0.099  0.700  0.430- 235 2.10 240 2.11 334 2.12 255 2.12 236 2.12 234 2.14
  35  0.999  0.701  0.500- 314 2.10 235 2.11 237 2.11 234 2.11 233 2.12
  36  0.098  0.601  0.500- 233 2.08 234 2.10 236 2.10 253 2.13 230 2.13
  37  1.000  0.800  0.430- 239 2.11 320 2.11 240 2.11 337 2.12 235 2.12 237 2.13
  38  0.100  0.900  0.430- 224 2.11 239 2.11 259 2.11 338 2.12 240 2.12 238 2.13
  39  1.000  0.900  0.500- 239 2.10 221 2.11 318 2.11 238 2.11 237 2.12
  40  0.099  0.801  0.500- 238 2.10 237 2.10 240 2.11 257 2.12 234 2.12
  41  0.200  0.000  0.430- 243 2.11 244 2.11 224 2.11 259 2.12 341 2.12 241 2.13
  42  0.300  0.100  0.430- 248 2.10 263 2.12 243 2.12 244 2.12 342 2.12 242 2.13
  43  0.200  0.100  0.500- 241 2.11 245 2.11 243 2.11 242 2.11 222 2.12
  44  0.300  0.000  0.500- 242 2.10 258 2.10 244 2.11 261 2.12 241 2.12
  45  0.200  0.200  0.430- 248 2.10 247 2.10 243 2.12 228 2.12 345 2.12 245 2.15
  46  0.300  0.300  0.430- 246 2.08 267 2.11 252 2.12 248 2.12 346 2.12 247 2.13
  47  0.200  0.300  0.501- 249 2.11 246 2.12 245 2.13 226 2.13 247 2.14  20 2.94
  48  0.300  0.200  0.501- 265 2.10 246 2.12 242 2.12 245 2.13 248 2.14
  49  0.200  0.399  0.429- 249 2.08 252 2.11 247 2.11 349 2.11 232 2.13 251 2.14
  50  0.301  0.499  0.430- 271 2.10 252 2.10 250 2.10 350 2.11 256 2.14 251 2.14
  51  0.202  0.498  0.500- 250 2.07 249 2.08 251 2.09 253 2.19 230 2.20   4 2.76
  52  0.301  0.399  0.501- 246 2.10 269 2.10 250 2.12 249 2.14 252 2.14
  53  0.200  0.600  0.429- 256 2.10 251 2.10 353 2.10 255 2.11 236 2.11 253 2.16
  54  0.300  0.700  0.429- 354 2.10 275 2.10 256 2.11 260 2.11 255 2.12 254 2.14
  55  0.198  0.702  0.500- 234 2.08 257 2.08 255 2.09 254 2.13 253 2.13
  56  0.302  0.598  0.500- 273 2.06 250 2.07 256 2.10 253 2.20 254 2.22   8 2.95  16 2.97
  57  0.200  0.801  0.430- 259 2.10 260 2.11 240 2.11 357 2.12 255 2.13 257 2.13
  58  0.300  0.901  0.430- 244 2.10 279 2.11 358 2.11 259 2.12 260 2.12 258 2.13
  59  0.200  0.901  0.500- 241 2.10 259 2.11 238 2.11 257 2.11 258 2.12
  60  0.300  0.803  0.499- 258 2.07 260 2.10 277 2.11 254 2.12 257 2.13
[...]
 406  0.900  0.300  0.359- 208 2.11 207 2.11 127 2.11 212 2.11 206 2.11 106 2.12
 407  0.800  0.300  0.289- 186 2.11 205 2.11 206 2.11 209 2.11 207 2.11
 408  0.900  0.200  0.289- 206 2.11 202 2.11 205 2.11 125 2.11 208 2.11
 409  0.800  0.400  0.359- 192 2.11 207 2.11 211 2.11 212 2.11 209 2.11 109 2.12
 410  0.900  0.500  0.359- 131 2.11 211 2.11 212 2.11 216 2.11 210 2.11 110 2.12
 411  0.800  0.500  0.289- 190 2.11 209 2.11 210 2.11 213 2.11 211 2.11
 412  0.900  0.400  0.289- 129 2.11 206 2.11 209 2.11 210 2.11 212 2.11
 413  0.800  0.600  0.359- 196 2.11 211 2.11 215 2.11 216 2.11 213 2.11 113 2.12
 414  0.900  0.700  0.359- 220 2.11 215 2.11 216 2.11 135 2.11 214 2.11 114 2.12
 415  0.800  0.700  0.289- 194 2.11 217 2.11 214 2.11 213 2.11 215 2.11
 416  0.900  0.600  0.289- 133 2.11 210 2.11 213 2.11 214 2.11 216 2.11
 417  0.800  0.800  0.359- 200 2.11 215 2.11 219 2.11 220 2.11 217 2.11 117 2.12
 418  0.900  0.900  0.359- 139 2.11 204 2.11 219 2.11 220 2.11 218 2.11 118 2.12
 419  0.800  0.900  0.289- 198 2.11 201 2.11 217 2.11 218 2.11 219 2.11
 420  0.900  0.800  0.289- 214 2.11 137 2.11 217 2.11 218 2.11 220 2.11

  LATTYP: Found a simple tetragonal cell.
 ALAT       =    21.1388521970
 C/A-ratio  =     1.4191877459

  Lattice vectors:

 A1 = (  21.1388521970,   0.0000000000,   0.0000000000)
 A2 = (   0.0000000000,  21.1388521970,   0.0000000000)
 A3 = (   0.0000000000,   0.0000000000,  30.0000000000)

Analysis of symmetry for initial positions (statically):
 Subroutine PRICEL returns:
 Original cell was already a primitive cell.

 Routine SETGRP: Setting up the symmetry group for a
 simple tetragonal supercell.

 Subroutine GETGRP returns: Found  1 space group operations
 (whereof  1 operations were pure point group operations)
 out of a pool of 16 trial point group operations.

The static configuration has the point symmetry C_1 .

Analysis of symmetry for dynamics (positions and initial velocities):
 Subroutine PRICEL returns:
 Original cell was already a primitive cell.

[...]

The dynamic configuration has the point symmetry C_1 .

Analysis of constrained symmetry for selective dynamics:
 Subroutine PRICEL returns:
 Original cell was already a primitive cell.

 Routine SETGRP: Setting up the symmetry group for a
 simple tetragonal supercell.

[...]
   1852       6.6827      0.00000
   1853       6.7097      0.00000
   1854       6.7695      0.00000
   1855       6.7861      0.00000
   1856       6.8734      0.00000

 soft charge-density along one line, spin component           1
         0         1         2         3         4         5         6         7         8         9
 total charge-density along one line

------------------------ aborting loop because EDIFF is reached ----------------------------------------

  FORCE on cell =-STRESS in cart. coord.  units (eV):
  Direction    XX          YY          ZZ          XY          YZ          ZX
  Alpha Z  4657.84619  4657.84619  4657.84619
  Ewald  ************************************   472.68918  -309.70176   568.69190
  Hartree************************************   425.68254  -244.72797   468.68112
  E(xc)  -16336.32375-16336.64210-16340.89848     0.02427    -0.10194     0.05647
  Local  ************************************  -898.48710   551.14830 -1034.75056
  n-local-17716.47120-17710.23790-17780.20832    -1.96091     2.06113    -1.83490
  augment  7904.38582  7906.39488  7886.35497     0.34727     0.30036    -0.06197
  Kinetic 48679.15190 48684.75981 48995.47455    -1.27842     0.96471    -1.30811
  Fock        0.00000     0.00000     0.00000     0.00000     0.00000     0.00000
  Total    -180.79681  -180.54630    -5.19960    -2.98318    -0.05717    -0.52605
  in kB     -21.60814   -21.57819    -0.62144    -0.35654    -0.00683    -0.06287

 VOLUME and BASIS-vectors are now :
  energy-cutoff  :      520.00
  volume of cell :    13405.53
      direct lattice vectors                 reciprocal lattice vectors
    21.138852197  0.000000000  0.000000000     0.047306258  0.000000000  0.000000000
     0.000000000 21.138852197  0.000000000     0.000000000  0.047306258  0.000000000
     0.000000000  0.000000000 30.000000000     0.000000000  0.000000000  0.033333333

  length of vectors
    21.138852197 21.138852197 30.000000000     0.047306258  0.047306258  0.033333333

 FORCES acting on ions:
    Electron-Ion                     Ewald-Force                    Non-Local-Force
   -.533E+03 0.643E+02 -.361E+04   0.534E+03 -.644E+02 0.361E+04   -.698E+00 0.558E-01 0.286E-02
   -.164E+02 0.630E+01 -.365E+04   0.149E+02 -.573E+01 0.365E+04   0.152E+01 -.601E+00 0.217E+00
   0.387E+03 -.563E+02 -.377E+04   -.387E+03 0.562E+02 0.377E+04   -.216E+00 0.105E+00 0.473E+00
   0.823E+03 -.119E+03 -.371E+04   -.819E+03 0.118E+03 0.371E+04   -.438E+01 0.121E+01 -.188E+01
   -.697E+03 0.393E+02 -.367E+04   0.695E+03 -.394E+02 0.367E+04   0.193E+01 0.361E-01 0.307E+00
   -.204E+03 -.213E+03 -.366E+04   0.204E+03 0.212E+03 0.366E+04   0.457E+00 0.136E+01 0.219E+00
   0.200E+03 -.331E+03 -.378E+04   -.200E+03 0.330E+03 0.378E+04   0.326E+00 0.109E+01 0.729E+00
   0.616E+03 -.471E+03 -.366E+04   -.614E+03 0.470E+03 0.366E+04   -.211E+01 0.113E+01 -.207E+01
   -.723E+03 0.148E+03 -.369E+04   0.721E+03 -.148E+03 0.369E+04   0.251E+01 -.880E-01 0.919E+00
   -.138E+03 0.249E+03 -.362E+04   0.138E+03 -.247E+03 0.362E+04   0.876E+00 -.176E+01 -.106E+00
   0.230E+03 0.265E+03 -.368E+04   -.229E+03 -.263E+03 0.368E+04   -.963E+00 -.159E+01 0.291E+00
   0.735E+03 0.296E+03 -.369E+04   -.733E+03 -.296E+03 0.369E+04   -.256E+01 -.297E+00 -.467E+00
   -.650E+03 -.352E+03 -.374E+04   0.646E+03 0.349E+03 0.374E+04   0.478E+01 0.257E+01 -.192E+01
   -.313E+03 -.664E+03 -.366E+04   0.312E+03 0.663E+03 0.366E+04   0.999E+00 0.155E+01 -.250E+00
   -.196E+02 -.778E+03 -.371E+04   0.205E+02 0.777E+03 0.371E+04   -.953E+00 0.169E+01 0.167E+01
   0.333E+03 -.741E+03 -.364E+04   -.332E+03 0.739E+03 0.364E+04   -.826E+00 0.259E+01 -.308E+01
   -.540E+03 0.499E+03 -.368E+04   0.538E+03 -.497E+03 0.369E+04   0.213E+01 -.231E+01 -.306E+01
   -.162E+03 0.719E+03 -.374E+04   0.162E+03 -.718E+03 0.373E+04   0.291E+00 -.119E+01 0.193E+01
   0.150E+03 0.754E+03 -.362E+04   -.149E+03 -.753E+03 0.363E+04   -.108E+01 -.170E+01 -.753E+00
   0.535E+03 0.672E+03 -.368E+04   -.533E+03 -.668E+03 0.368E+04   -.163E+01 -.405E+01 -.497E+00
   0.279E+02 0.130E+02 -.703E+03   -.279E+02 -.129E+02 0.703E+03   -.193E-01 -.888E-01 -.279E+00
   0.650E+02 0.601E+02 -.666E+03   -.649E+02 -.600E+02 0.666E+03   -.900E-01 -.934E-01 -.332E+00
   0.574E+02 0.643E+02 -.234E+04   -.574E+02 -.643E+02 0.234E+04   -.355E-01 -.824E-02 0.599E+01
   0.734E+02 0.322E+02 -.234E+04   -.734E+02 -.320E+02 0.234E+04   0.303E-01 -.157E+00 0.600E+01
   0.524E+02 0.575E+02 -.666E+03   -.524E+02 -.576E+02 0.667E+03   -.172E-01 0.446E-01 -.313E+00
   0.117E+03 0.705E+02 -.572E+03   -.117E+03 -.708E+02 0.572E+03   -.300E+00 0.354E+00 -.354E+00
   0.134E+03 0.840E+02 -.228E+04   -.134E+03 -.842E+02 0.228E+04   0.461E-01 0.205E+00 0.599E+01
   0.171E+03 0.149E+03 -.225E+04   -.171E+03 -.149E+03 0.224E+04   0.138E+00 0.478E-01 0.597E+01
   0.832E+02 0.239E+02 -.616E+03   -.832E+02 -.241E+02 0.617E+03   -.340E-01 0.212E+00 -.352E+00
   0.130E+03 -.229E+02 -.532E+03   -.130E+03 0.225E+02 0.531E+03   -.119E-01 0.305E+00 0.150E+01
   0.167E+03 -.254E+02 -.224E+04   -.168E+03 0.250E+02 0.223E+04   0.948E+00 0.333E+00 0.597E+01
   0.290E+03 0.740E+02 -.207E+04   -.290E+03 -.756E+02 0.206E+04   0.157E+00 0.159E+01 0.563E+01
   0.672E+02 -.464E+02 -.629E+03   -.675E+02 0.464E+02 0.629E+03   0.356E+00 0.267E-01 -.288E+00
   0.913E+02 -.799E+02 -.609E+03   -.916E+02 0.802E+02 0.609E+03   0.295E+00 -.341E+00 -.200E+00
   0.848E+02 -.930E+02 -.231E+04   -.851E+02 0.933E+02 0.231E+04   0.348E+00 -.305E+00 0.600E+01
   0.243E+03 -.141E+03 -.214E+04   -.245E+03 0.141E+03 0.213E+04   0.125E+01 -.757E+00 0.603E+01
   0.360E+02 -.478E+02 -.685E+03   -.361E+02 0.480E+02 0.685E+03   0.881E-01 -.186E+00 -.276E+00
   0.516E+02 -.269E+02 -.684E+03   -.516E+02 0.272E+02 0.684E+03   0.396E-01 -.213E+00 -.269E+00
   0.381E+02 -.297E+02 -.236E+04   -.382E+02 0.299E+02 0.235E+04   0.725E-01 -.200E+00 0.601E+01
   0.108E+03 -.108E+03 -.231E+04   -.108E+03 0.109E+03 0.231E+04   0.336E+00 -.551E+00 0.603E+01
   0.543E+02 0.254E+02 -.663E+03   -.543E+02 -.253E+02 0.663E+03   -.129E-01 -.125E+00 -.300E+00
   0.447E+02 0.991E+02 -.598E+03   -.447E+02 -.988E+02 0.598E+03   0.153E-02 -.303E+00 -.420E+00
   0.115E+03 0.158E+03 -.226E+04   -.115E+03 -.158E+03 0.225E+04   -.140E+00 0.714E-01 0.596E+01
   0.554E+02 0.599E+02 -.229E+04   -.554E+02 -.597E+02 0.229E+04   0.522E-02 -.191E+00 0.599E+01
   0.929E+02 0.110E+03 -.562E+03   -.926E+02 -.110E+03 0.562E+03   -.282E+00 -.226E+00 0.259E+00
   0.622E+02 0.993E+02 -.422E+03   -.619E+02 -.992E+02 0.423E+03   -.290E+00 -.619E-01 -.123E+01
   0.237E+03 0.181E+03 -.195E+04   -.237E+03 -.180E+03 0.194E+04   -.441E+00 -.176E+00 0.436E+01
   0.104E+03 0.281E+03 -.202E+04   -.104E+03 -.281E+03 0.201E+04   -.523E+00 -.161E+00 0.521E+01
   0.121E+03 0.355E+02 -.427E+03   -.121E+03 -.362E+02 0.428E+03   -.395E+00 0.659E+00 -.109E+01
   0.657E+02 -.309E+02 -.369E+03   -.648E+02 0.301E+02 0.370E+03   -.891E+00 0.811E+00 -.817E+00
   0.220E+03 -.523E+02 -.180E+04   -.219E+03 0.502E+02 0.180E+04   -.183E+01 0.219E+01 0.440E+01
   0.996E+02 0.613E+02 -.180E+04   -.988E+02 -.619E+02 0.180E+04   -.826E+00 0.604E+00 0.557E+01
   0.113E+03 -.825E+02 -.471E+03   -.113E+03 0.823E+02 0.470E+03   -.208E+00 0.164E+00 0.127E+01
   0.579E+02 -.121E+03 -.481E+03   -.574E+02 0.121E+03 0.480E+03   -.459E+00 -.181E-01 0.137E+01
   0.207E+03 -.224E+03 -.209E+04   -.208E+03 0.226E+03 0.209E+04   0.134E+01 -.133E+01 0.598E+01
   0.103E+03 -.158E+03 -.178E+04   -.100E+03 0.156E+03 0.178E+04   -.256E+01 0.269E+01 0.507E+01
   0.733E+02 -.872E+02 -.614E+03   -.733E+02 0.877E+02 0.615E+03   -.277E-02 -.425E+00 -.255E+00
   0.373E+02 -.443E+02 -.633E+03   -.372E+02 0.446E+02 0.633E+03   -.874E-01 -.353E+00 -.211E+00
   0.844E+02 -.632E+02 -.231E+04   -.846E+02 0.636E+02 0.231E+04   0.181E+00 -.354E+00 0.602E+01
   0.833E+02 -.227E+03 -.217E+04   -.830E+02 0.228E+03 0.216E+04   -.312E+00 -.148E+01 0.605E+01
[...]
   -.136E+02 0.125E+02 0.193E+04   0.136E+02 -.125E+02 -.194E+04   0.135E-01 -.160E-01 0.360E+01
   -.301E+00 0.140E+02 0.192E+04   0.310E+00 -.140E+02 -.193E+04   -.125E-01 0.271E-02 0.360E+01
   -.276E+02 0.105E+02 0.735E+03   0.276E+02 -.105E+02 -.735E+03   0.728E-01 -.138E-01 -.104E+00
   0.379E+00 -.420E+01 0.729E+03   -.449E+00 0.418E+01 -.729E+03   0.106E+00 0.352E-01 -.181E-01
   -.149E+02 -.263E+01 0.194E+04   0.148E+02 0.261E+01 -.194E+04   0.545E-01 0.209E-01 0.360E+01
   0.478E+00 0.579E+01 0.193E+04   -.500E+00 -.581E+01 -.194E+04   0.316E-01 0.292E-01 0.360E+01
   -.279E+02 -.175E+02 0.734E+03   0.278E+02 0.174E+02 -.734E+03   0.722E-01 0.658E-01 -.100E+00
   -.143E+01 -.232E+02 0.714E+03   0.144E+01 0.232E+02 -.714E+03   -.199E-01 -.137E-01 -.958E-02
   -.131E+02 -.149E+02 0.193E+04   0.130E+02 0.149E+02 -.193E+04   0.328E-01 0.644E-02 0.362E+01
   -.281E+00 -.105E+02 0.193E+04   0.239E+00 0.105E+02 -.193E+04   0.584E-01 0.144E-01 0.363E+01
   -.199E+02 -.220E+02 0.709E+03   0.199E+02 0.221E+02 -.709E+03   -.191E-01 -.598E-01 -.934E-01
   -.197E+01 -.907E+01 0.696E+03   0.196E+01 0.910E+01 -.696E+03   0.115E-02 -.410E-01 -.702E-01
   -.102E+02 -.599E+01 0.192E+04   0.102E+02 0.600E+01 -.192E+04   0.478E-02 -.123E-01 0.361E+01
   -.929E+00 -.123E+02 0.192E+04   0.911E+00 0.123E+02 -.192E+04   0.247E-01 -.281E-01 0.361E+01
   0.132E+00 -.390E+00 0.938E+02   0.455E-11 -.162E-11 0.115E-09   -.102E+00 0.367E+00 -.937E+02

 POSITION                                       TOTAL-FORCE (eV/Angst)
     11.09519      9.45482     18.11852        -0.001239      0.001332      0.004429
      8.29301      9.75878     18.32361        -0.006567     -0.001126      0.000025
      5.56783     10.06397     18.32381        -0.003638     -0.000534      0.000970
      2.99555     10.31153     17.42772        -0.005407     -0.001626      0.001913
     12.60980     11.66864     17.97165        -0.005769     -0.004461      0.003841
      9.91561     11.91931     18.29835        -0.000135     -0.001355     -0.001276
      7.23924     12.25095     18.45349        -0.003304     -0.001367      0.000116
      4.70923     12.46418     17.40695         0.000279     -0.001945     -0.001788
     11.97817      6.94163     18.23352        -0.002131     -0.001954      0.003948
      9.33064      7.28957     18.17027        -0.005664     -0.003160      0.002045
      6.66947      7.54260     18.19330        -0.004452     -0.000709      0.000830
      3.98913      7.86207     17.88644        -0.004320     -0.004514      0.002954
     14.03302     13.88852     17.41118        -0.005998      0.000554      0.005024
     11.45387     14.17698     18.01115        -0.006448     -0.002138      0.000163
      8.87221     14.48562     18.39654        -0.001854      0.003847     -0.000639
      6.46511     14.54646     17.26643        -0.004149     -0.001170      0.000522
     12.47854      4.55951     17.16313        -0.000105     -0.000096     -0.000385
     10.20822      4.73313     18.45875        -0.005683     -0.000578     -0.002938
      7.64038      5.02502     17.96040        -0.003389      0.002237     -0.000534
      4.97030      5.39304     17.71892        -0.006883     -0.002620      0.002362
      0.00000      0.00220     12.89027        -0.000002     -0.000263      0.000369
      2.11483      2.11605     12.89462         0.000405      0.000278      0.000041
     21.13851      2.11223     14.99108        -0.000661     -0.000115      0.000099
      2.10817      0.00457     14.99047         0.000326      0.000361     -0.000218
      0.00264      4.22684     12.89303         0.000373      0.000524      0.000038
      2.11888      6.33717     12.89579        -0.000218     -0.000457      0.000244
     21.13368      6.33562     14.99490         0.000360      0.000651      0.000483
      2.10742      4.22403     15.00238        -0.000426      0.000644      0.000490
     21.13862      8.45200     12.89505         0.000230      0.000430      0.000665
      2.11150     10.56547     12.88112         0.000631     -0.000010      0.000122
     21.10260     10.56360     14.99839         0.000752     -0.000624      0.000115
      2.10799      8.42340     15.00609         0.000338      0.000310      0.000126
     21.13016     12.68396     12.89305         0.000810      0.000064      0.000544
      2.10320     14.80486     12.88845        -0.001132     -0.000422      0.001048
     21.12360     14.81000     14.99175         0.000856     -0.000476      0.000802
      2.06964     12.70881     14.99924        -0.000162     -0.000557     -0.000334
     21.13452     16.91578     12.89019         0.000016     -0.000258      0.001441
      2.11053     19.03147     12.88983        -0.000440     -0.000085      0.000673
     21.13399     19.03231     14.98815        -0.000430      0.000350     -0.000158
      2.09717     16.93244     14.99073        -0.000626     -0.000291      0.000089
      4.22633      0.00502     12.89154         0.000769      0.000584      0.000930
      6.34143      2.11910     12.89673         0.000758     -0.000004     -0.000021
      4.22741      2.10483     14.99816         0.000377     -0.000004      0.000174
      6.34004      0.00464     14.99183         0.000664      0.000161     -0.000653
      4.23259      4.23032     12.89227        -0.000122      0.000172      0.000145
      6.34733      6.34126     12.89259         0.000620      0.000094     -0.000183
      4.23638      6.34237     15.02882         0.000570     -0.000386      0.000182
      6.34782      4.22911     15.02489         0.000301      0.000448     -0.000758
      4.23452      8.44123     12.88414         0.001190      0.000879     -0.000312
      6.35733     10.55724     12.88627         0.000049     -0.000750      0.000204
      4.27194     10.53204     14.98507         0.000456     -0.000410      0.000249
      6.35958      8.44474     15.01939         0.000943     -0.000153     -0.000518
      4.22676     12.68757     12.87590         0.000481     -0.000449     -0.000574
      6.34551     14.80582     12.86872         0.000488      0.000181      0.000110
      4.17652     14.84757     14.98511        -0.000602      0.000163      0.000041
      6.39100     12.64059     14.99300         0.000293     -0.000663     -0.000060
      4.22334     16.92409     12.88829         0.000546     -0.000068      0.000486
      6.34200     19.03690     12.88646         0.000924      0.000075      0.000458
      4.21731     19.04067     14.98967         0.000620      0.000969     -0.000086
      6.34164     16.97216     14.98051        -0.000383     -0.000037      0.000414
[...]
     19.02497      6.34166     10.77222         0.007314      0.003169      0.024389
     16.91108      6.34166      8.65833         0.003684     -0.004456     -0.384765
     19.02497      4.22777      8.65833        -0.003544      0.000787     -0.384943
     16.91108      8.45554     10.77222         0.022243     -0.003874      0.015556
     19.02497     10.56943     10.77222         0.034858      0.011328      0.040846
     16.91108     10.56943      8.65833         0.015131      0.005906     -0.386122
     19.02497      8.45554      8.65833         0.008690      0.008178     -0.384484
     16.91108     12.68331     10.77222         0.022431      0.021059      0.027826
     19.02497     14.79720     10.77222        -0.006379     -0.004632      0.047203
     16.91108     14.79720      8.65833         0.008939      0.001814     -0.380952
     19.02497     12.68331      8.65833         0.016213      0.004050     -0.378771
     16.91108     16.91108     10.77222        -0.005859     -0.017639      0.044247
     19.02497     19.02497     10.77222         0.000055     -0.012746      0.018260
     16.91108     19.02497      8.65833         0.001257     -0.003405     -0.384336
     19.02497     16.91108      8.65833         0.006757     -0.007769     -0.382271
    total drift:                                0.029104     -0.022301      0.093339

  FREE ENERGIE OF THE ION-ELECTRON SYSTEM (eV)
  free  energy   TOTEN  =     -1658.40216355 eV

  energy  without entropy=    -1658.40216355  energy(sigma->0) =    -1658.40216355

 d Force = 0.5922400E-04[ 0.443E-04, 0.741E-04]  d Energy = 0.5442675E-04 0.480E-05
 d Force = 0.1136891E+02[ 0.114E+02, 0.114E+02]  d Ewald  = 0.1136891E+02 0.251E-06

 Conjugate gradient step on ions:
 trial-energy change:   -0.000054  1 .order   -0.000059   -0.000074   -0.000044
  (g-gl).g = 0.638E-04      g.g   = 0.658E-04  gl.gl    = 0.210E-03
 g(Force)  = 0.658E-04   g(Stress)= 0.000E+00 ortho     = 0.203E-05
 gamma     =   0.30395
 trial     =   1.11647
 opt step  =   2.77578  (harmonic =   2.77578) maximal distance =0.00094277
 next E    = -1658.402201   (d E  =  -0.00009)

 reached required accuracy - stopping structural energy minimisation