 vasp.6.3.0 20Jan22 (build Apr  1 2022 16:44:48) complex
 executed on        HPECrayEX_GCC date 2023.02.15  12:46:36

 INCAR:
   SYSTEM = MgO-rocksalt
   ISMEAR = 0
   SIGMA = 0.05
   EDIFF = 1E-5
   ALGO = ALL
   ISTART = 0
   IBRION = -1
   NSW = 0
   ISYM = 2
   DIPOL = 0.5 0.5 0.5
   IDIPOL = 3
   LDIPOL = .TRUE.
   LHFCALC = .TRUE.
   HFSCREEN = 0.2
   GGA = PE
   ENCUT = 520
   PREC = Accurate
   LASPH = .TRUE.
   LREAL = Auto
   ISPIN = 1
   NELM = 200
   NELMIN = 8
   NCORE = 4
   KPAR = 2
   LWAVE = .FALSE.
   LCHARG = .FALSE.

 POTCAR:    PAW_PBE Ag 02Apr2005
 POTCAR:    PAW_PBE Mg_pv 13Apr2007
 POTCAR:    PAW_PBE O 08Apr2002
|           W    W    AA    RRRRR   N    N  II  N    N   GGGG   !!!           |
|           W    W   A  A   R    R  NN   N  II  NN   N  G    G  !!!           |
|           W    W  A    A  R    R  N N  N  II  N N  N  G       !!!           |
|           W WW W  AAAAAA  RRRRR   N  N N  II  N  N N  G  GGG   !            |
|           WW  WW  A    A  R   R   N   NN  II  N   NN  G    G                |
|           W    W  A    A  R    R  N    N  II  N    N   GGGG   !!!           |
|     You have selected ISYM=2 for a HF type calculation. This will           |
|     symmetrize the charge density but not the exchange potential. I         |
|     suggest to use ISYM=3 instead. This uses symmetry to obtain the         |
|     orbitals at all k-points in the Brillouin zone, but does not apply      |
|     symmetry to the Hartree potential directly. The resultant charge        |
|     might have lower symmetry than the crystal but, at least, Hartree       |
|     and exchange are fully compatible.                                      |

   TITEL  = PAW_PBE Ag 02Apr2005
   POMASS =  107.868; ZVAL   =   11.000    mass and valenz
   ENMAX  =  249.844; ENMIN  =  187.383 eV

   TITEL  = PAW_PBE Mg_pv 13Apr2007
   POMASS =   24.305; ZVAL   =    8.000    mass and valenz
   ENMAX  =  403.929; ENMIN  =  302.947 eV

   TITEL  = PAW_PBE O 08Apr2002
   POMASS =   16.000; ZVAL   =    6.000    mass and valenz
   ENMAX  =  400.000; ENMIN  =  300.000 eV

 Optimization of the real space projectors (new method)

 maximal supplied QI-value         = 15.12
 optimisation between [QCUT,QGAM] = [ 11.64, 23.28] = [ 37.95,151.78] Ry
 Optimized for a Real-space Cutoff    1.45 Angstroem

   l    n(q)    QCUT    max X(q) W(low)/X(q) W(high)/X(q)  e(spline)
   2      9    11.641    53.897    0.22E-03    0.42E-04    0.28E-06
   2      9    11.641    52.416    0.23E-03    0.44E-04    0.29E-06
   0     10    11.641   122.045    0.51E-04    0.25E-04    0.16E-06
   0     10    11.641    73.629    0.49E-04    0.24E-04    0.16E-06
   1     10    11.641    15.255    0.99E-04    0.55E-04    0.11E-06
   1     10    11.641     9.562    0.81E-04    0.47E-04    0.95E-07
 Optimization of the real space projectors (new method)

[...]

   l    n(q)    QCUT    max X(q) W(low)/X(q) W(high)/X(q)  e(spline)
   1      8    11.527     2.974    0.44E-04    0.56E-04    0.12E-06
   1      8    11.527     4.279    0.12E-03    0.12E-03    0.26E-06
   0      9    11.527    16.381    0.46E-04    0.64E-04    0.78E-07
   0      9    11.527     5.611    0.26E-04    0.43E-04    0.55E-07
   2      8    11.527     4.652    0.22E-03    0.72E-04    0.47E-07
 Optimization of the real space projectors (new method)

 maximal supplied QI-value         = 24.76
 optimisation between [QCUT,QGAM] = [ 11.64, 23.27] = [ 37.91,151.63] Ry
 Optimized for a Real-space Cutoff    1.14 Angstroem

   l    n(q)    QCUT    max X(q) W(low)/X(q) W(high)/X(q)  e(spline)
   0      8    11.635    20.381    0.10E-03    0.33E-03    0.24E-06
   0      8    11.635    15.268    0.11E-03    0.35E-03    0.26E-06
   1      7    11.635     5.964    0.24E-03    0.31E-03    0.30E-06
   1      7    11.635     5.382    0.22E-03    0.25E-03    0.26E-06
  PAW_PBE Ag 02Apr2005                  :
  PAW_PBE Mg_pv 13Apr2007               :
  PAW_PBE O 08Apr2002                   :

 POSCAR: Ag Mg  O
  positions in direct lattice
 exchange correlation table for  LEXCH =        8
   RHO(1)=    0.500       N(1)  =     2000
   RHO(2)=  100.500       N(2)  =     4000

 ion  position               nearest neighbor table
   1  0.450  0.450  0.726-   2 2.56
   2  0.450  0.450  0.610-   1 2.56  53 2.81  54 2.81
   3  0.000  0.000  0.407- 105 2.11 106 2.11 121 2.11 186 2.11 103 2.11
   4  0.100  0.100  0.407- 105 2.11 106 2.11 110 2.11 125 2.11 104 2.11
   5  0.000  0.100  0.503- 103 2.11 104 2.11 107 2.11 184 2.11 105 2.11
   6  0.100  0.000  0.503- 103 2.11 104 2.11 120 2.11 123 2.11 106 2.11
   7  0.000  0.200  0.407- 109 2.11 105 2.11 110 2.11 190 2.11 107 2.11
   8  0.100  0.300  0.407- 110 2.11 109 2.11 114 2.11 129 2.11 108 2.11
   9  0.000  0.300  0.503- 107 2.11 108 2.11 111 2.11 188 2.11 109 2.11
  10  0.100  0.200  0.503- 108 2.11 107 2.11 104 2.11 127 2.11 110 2.11
  11  0.000  0.400  0.407- 109 2.11 113 2.11 114 2.11 194 2.11 111 2.11
  12  0.100  0.500  0.407- 113 2.11 114 2.11 118 2.11 133 2.11 112 2.11
  13  0.000  0.500  0.503- 111 2.11 112 2.11 115 2.11 192 2.11 113 2.11
  14  0.100  0.400  0.503- 108 2.11 111 2.11 112 2.11 131 2.11 114 2.11
  15  0.000  0.600  0.407- 113 2.11 117 2.11 118 2.11 198 2.11 115 2.11
  16  0.100  0.700  0.407- 122 2.11 118 2.11 117 2.11 137 2.11 116 2.11
  17  0.000  0.700  0.503- 119 2.11 116 2.11 115 2.11 196 2.11 117 2.11
  18  0.100  0.600  0.503- 112 2.11 115 2.11 116 2.11 135 2.11 118 2.11
  19  0.000  0.800  0.407- 117 2.11 121 2.11 122 2.11 202 2.11 119 2.11
  20  0.100  0.900  0.407- 106 2.11 121 2.11 122 2.11 141 2.11 120 2.11
  21  0.000  0.900  0.503- 103 2.11 119 2.11 120 2.11 200 2.11 121 2.11
  22  0.100  0.800  0.503- 116 2.11 119 2.11 120 2.11 139 2.11 122 2.11
  23  0.200  0.000  0.407- 126 2.11 125 2.11 106 2.11 141 2.11 123 2.11
  24  0.300  0.100  0.407- 125 2.11 126 2.11 130 2.11 145 2.11 124 2.11
  25  0.200  0.100  0.503- 124 2.11 123 2.11 104 2.11 127 2.11 125 2.11
  26  0.300  0.000  0.503- 123 2.11 124 2.11 140 2.11 143 2.11 126 2.11
  27  0.200  0.200  0.407- 129 2.11 130 2.11 110 2.11 125 2.11 127 2.11
  28  0.300  0.300  0.407- 129 2.11 130 2.11 134 2.11 149 2.11 128 2.11
  29  0.200  0.300  0.503- 127 2.11 128 2.11 108 2.11 131 2.11 129 2.11
  30  0.300  0.200  0.503- 127 2.11 128 2.11 124 2.11 147 2.11 130 2.11
  31  0.200  0.400  0.407- 134 2.11 129 2.11 133 2.11 114 2.11 131 2.11
  32  0.300  0.500  0.407- 133 2.11 134 2.11 138 2.11 153 2.11 132 2.11
  33  0.200  0.500  0.503- 132 2.11 131 2.11 112 2.11 135 2.11 133 2.11
  34  0.300  0.400  0.503- 131 2.11 128 2.11 132 2.11 151 2.11 134 2.11
  35  0.200  0.600  0.407- 138 2.11 133 2.11 137 2.11 118 2.11 135 2.11
  36  0.300  0.700  0.407- 137 2.11 142 2.11 138 2.11 157 2.11 136 2.11
  37  0.200  0.700  0.503- 136 2.11 139 2.11 116 2.11 135 2.11 137 2.11
  38  0.300  0.600  0.503- 135 2.11 132 2.11 136 2.11 155 2.11 138 2.11
  39  0.200  0.800  0.407- 137 2.11 142 2.11 141 2.11 122 2.11 139 2.11
  40  0.300  0.900  0.407- 141 2.11 126 2.11 142 2.11 161 2.11 140 2.11
  41  0.200  0.900  0.503- 140 2.11 123 2.11 139 2.11 120 2.11 141 2.11
  42  0.300  0.800  0.503- 136 2.11 139 2.11 140 2.11 159 2.11 142 2.11
  43  0.400  0.000  0.407- 126 2.11 145 2.11 146 2.11 161 2.11 143 2.11
  44  0.500  0.100  0.407- 145 2.11 146 2.11 150 2.11 165 2.11 144 2.11
  45  0.400  0.100  0.503- 124 2.11 143 2.11 144 2.11 147 2.11 145 2.11
  46  0.500  0.000  0.503- 143 2.11 144 2.11 160 2.11 163 2.11 146 2.11
  47  0.400  0.200  0.407- 149 2.11 145 2.11 130 2.11 150 2.11 147 2.11
  48  0.500  0.300  0.407- 150 2.11 149 2.11 154 2.11 169 2.11 148 2.11
  49  0.400  0.300  0.503- 147 2.11 128 2.11 148 2.11 151 2.11 149 2.11
  50  0.500  0.200  0.503- 148 2.11 147 2.11 144 2.11 167 2.11 150 2.11
  51  0.400  0.400  0.407- 134 2.11 149 2.11 153 2.11 154 2.11 151 2.11
  52  0.500  0.500  0.407- 153 2.11 154 2.11 158 2.11 173 2.11 152 2.11
  53  0.400  0.500  0.503- 132 2.11 151 2.11 152 2.11 155 2.11 153 2.11   2 2.81
  54  0.500  0.400  0.503- 148 2.11 151 2.11 152 2.11 171 2.11 154 2.11   2 2.81
  55  0.400  0.600  0.407- 138 2.11 153 2.11 157 2.11 158 2.11 155 2.11
  56  0.500  0.700  0.407- 162 2.11 158 2.11 157 2.11 177 2.11 156 2.11
  57  0.400  0.700  0.503- 159 2.11 155 2.11 156 2.11 136 2.11 157 2.11
  58  0.500  0.600  0.503- 152 2.11 155 2.11 156 2.11 175 2.11 158 2.11
  59  0.400  0.800  0.407- 157 2.11 142 2.11 161 2.11 162 2.11 159 2.11
  60  0.500  0.900  0.407- 146 2.11 161 2.11 162 2.11 181 2.11 160 2.11
[...]
 188  0.900  0.300  0.503-  90 2.11  89 2.11   9 2.11  94 2.11  88 2.11
 189  0.800  0.300  0.407-  68 2.11  87 2.11  88 2.11  91 2.11  89 2.11
 190  0.900  0.200  0.407-  88 2.11  84 2.11  87 2.11   7 2.11  90 2.11
 191  0.800  0.400  0.503-  74 2.11  89 2.11  93 2.11  94 2.11  91 2.11
 192  0.900  0.500  0.503-  13 2.11  93 2.11  94 2.11  98 2.11  92 2.11
 193  0.800  0.500  0.407-  72 2.11  91 2.11  92 2.11  95 2.11  93 2.11
 194  0.900  0.400  0.407-  11 2.11  88 2.11  91 2.11  92 2.11  94 2.11
 195  0.800  0.600  0.503-  78 2.11  93 2.11  97 2.11  98 2.11  95 2.11
 196  0.900  0.700  0.503- 102 2.11  97 2.11  98 2.11  17 2.11  96 2.11
 197  0.800  0.700  0.407-  76 2.11  99 2.11  96 2.11  95 2.11  97 2.11
 198  0.900  0.600  0.407-  15 2.11  92 2.11  95 2.11  96 2.11  98 2.11
 199  0.800  0.800  0.503-  82 2.11  97 2.11 101 2.11 102 2.11  99 2.11
 200  0.900  0.900  0.503-  21 2.11  86 2.11 101 2.11 102 2.11 100 2.11
 201  0.800  0.900  0.407-  80 2.11  83 2.11  99 2.11 100 2.11 101 2.11
 202  0.900  0.800  0.407-  96 2.11  19 2.11  99 2.11 100 2.11 102 2.11

  LATTYP: Found a simple tetragonal cell.
 ALAT       =    21.1388521970
 C/A-ratio  =     1.0461251639

  Lattice vectors:

 A1 = (  21.1388521970,   0.0000000000,   0.0000000000)
 A2 = (   0.0000000000,  21.1388521970,   0.0000000000)
 A3 = (   0.0000000000,   0.0000000000,  22.1138852197)

Analysis of symmetry for initial positions (statically):
 Subroutine PRICEL returns:
 Original cell was already a primitive cell.

 Routine SETGRP: Setting up the symmetry group for a
 simple tetragonal supercell.

 Subroutine GETGRP returns: Found  4 space group operations
 (whereof  2 operations were pure point group operations)
 out of a pool of 16 trial point group operations.

The static configuration has the point symmetry C_1h.
 The point group associated with its full space group is C_2v.

Analysis of symmetry for dynamics (positions and initial velocities):
 Subroutine PRICEL returns:
 Original cell was already a primitive cell.

 Routine SETGRP: Setting up the symmetry group for a
 simple tetragonal supercell.

 Subroutine GETGRP returns: Found  4 space group operations
 (whereof  2 operations were pure point group operations)
 out of a pool of 16 trial point group operations.

The dynamic configuration has the point symmetry C_1h.
 The point group associated with its full space group is C_2v.

 Subroutine INISYM returns: Found  4 space group operations
 (whereof  2 operations are pure point group operations),
 and found     1 'primitive' translations

                                     Primitive cell

  volume of cell :    9881.6133

[...]
     22     -46.6465      2.00000
     23     -46.6304      2.00000
     24     -46.6293      2.00000
     25     -46.6247      2.00000
     26     -46.6239      2.00000
     27     -46.6176      2.00000
     28     -46.6176      2.00000
     29     -46.6132      2.00000
     30     -46.6120      2.00000
     31     -46.6106      2.00000
     32     -46.6100      2.00000
     33     -46.6061      2.00000
     34     -46.6050      2.00000
     35     -46.6035      2.00000
     36     -46.6034      2.00000
     37     -46.6034      2.00000
     38     -46.6031      2.00000
     39     -46.5999      2.00000
     40     -46.5993      2.00000
     41     -46.5989      2.00000
     42     -46.5984      2.00000
     43     -46.5970      2.00000
     44     -46.5965      2.00000
     45     -46.5936      2.00000
     46     -46.5934      2.00000
     47     -46.5925      2.00000
     48     -46.5923      2.00000
     49     -46.5921      2.00000
     50     -46.5920      2.00000
     51     -46.5914      2.00000
     52     -46.5911      2.00000
     53     -46.5905      2.00000
     54     -46.5902      2.00000
     55     -46.5895      2.00000
     56     -46.5892      2.00000
     57     -46.5888      2.00000
     58     -46.5884      2.00000
     59     -46.5880      2.00000
     60     -46.5865      2.00000
[...]
   1010       7.6413      0.00000
   1011       7.7954      0.00000
   1012       7.8031      0.00000
   1013       7.8373      0.00000
   1014       7.8399      0.00000
   1015       7.8433      0.00000
   1016       7.9082      0.00000
   1017       7.9379      0.00000
   1018       7.9817      0.00000
   1019       8.0340      0.00000
   1020       8.2289      0.00000
   1021       8.3064      0.00000
   1022       8.3863      0.00000
   1023       8.4721      0.00000
   1024       8.6442      0.00000

 soft charge-density along one line, spin component           1
         0         1         2         3         4         5         6         7         8         9
 total charge-density along one line

------------------------ aborting loop because EDIFF is reached ----------------------------------------

 VOLUME and BASIS-vectors are now :
  energy-cutoff  :      520.00
  volume of cell :     9881.61
      direct lattice vectors                 reciprocal lattice vectors
    21.138852197  0.000000000  0.000000000     0.047306258  0.000000000  0.000000000
     0.000000000 21.138852197  0.000000000     0.000000000  0.047306258  0.000000000
     0.000000000  0.000000000 22.113885220     0.000000000  0.000000000  0.045220457

  length of vectors
    21.138852197 21.138852197 22.113885220     0.047306258  0.047306258  0.045220457

 FORCES acting on ions:
    Electron-Ion                     Ewald-Force                    Non-Local-Force
   0.310E-04 -.136E-03 -.170E+04   0.119E-07 -.862E-08 0.169E+04   0.000E+00 0.000E+00 0.815E+01
   0.274E-04 -.132E-03 -.187E+04   0.417E-05 -.431E-05 0.188E+04   0.000E+00 0.000E+00 -.676E+01
   0.167E+01 0.167E+01 0.931E+03   -.168E+01 -.168E+01 -.923E+03   0.312E-02 0.312E-02 -.718E+01
   0.586E+01 0.586E+01 0.933E+03   -.588E+01 -.588E+01 -.925E+03   0.132E-01 0.132E-01 -.718E+01
   0.274E+01 0.562E+01 -.922E+03   -.275E+01 -.563E+01 0.914E+03   0.602E-02 0.407E-02 0.714E+01
   0.562E+01 0.274E+01 -.922E+03   -.563E+01 -.275E+01 0.914E+03   0.407E-02 0.602E-02 0.714E+01
   0.297E+01 0.586E+01 0.934E+03   -.299E+01 -.587E+01 -.925E+03   0.120E-01 0.725E-02 -.718E+01
   0.118E+02 0.706E+01 0.938E+03   -.119E+02 -.708E+01 -.930E+03   0.477E-01 0.998E-02 -.719E+01
   0.569E+01 0.643E+01 -.920E+03   -.570E+01 -.644E+01 0.911E+03   0.119E-01 0.223E-02 0.713E+01
   0.119E+02 0.107E+02 -.919E+03   -.120E+02 -.108E+02 0.911E+03   0.230E-01 0.832E-02 0.713E+01
   0.474E+01 0.198E+01 0.936E+03   -.476E+01 -.198E+01 -.928E+03   0.163E-01 0.738E-03 -.718E+01
   0.144E+02 -.287E+01 0.940E+03   -.144E+02 0.289E+01 -.932E+03   0.486E-01 -.106E-01 -.719E+01
   0.692E+01 -.257E+01 -.919E+03   -.693E+01 0.257E+01 0.910E+03   0.467E-02 -.270E-02 0.713E+01
   0.224E+02 0.420E+01 -.914E+03   -.225E+02 -.420E+01 0.905E+03   0.367E-01 -.406E-02 0.712E+01
   0.401E+01 -.499E+01 0.935E+03   -.402E+01 0.500E+01 -.926E+03   0.533E-02 -.652E-02 -.718E+01
   0.851E+01 -.792E+01 0.936E+03   -.853E+01 0.794E+01 -.927E+03   0.139E-01 -.124E-01 -.718E+01
   0.406E+01 -.742E+01 -.921E+03   -.406E+01 0.743E+01 0.913E+03   -.167E-02 -.353E-02 0.714E+01
   0.178E+02 -.998E+01 -.916E+03   -.178E+02 0.999E+01 0.908E+03   0.119E-01 -.785E-02 0.713E+01
   0.213E+01 -.451E+01 0.932E+03   -.213E+01 0.452E+01 -.924E+03   0.170E-03 -.462E-02 -.718E+01
   0.451E+01 -.213E+01 0.932E+03   -.452E+01 0.213E+01 -.924E+03   0.462E-02 -.170E-03 -.718E+01
   0.207E+01 -.207E+01 -.923E+03   -.207E+01 0.207E+01 0.915E+03   0.624E-04 -.624E-04 0.714E+01
   0.770E+01 -.770E+01 -.921E+03   -.770E+01 0.770E+01 0.913E+03   0.245E-02 -.245E-02 0.714E+01
   0.586E+01 0.297E+01 0.934E+03   -.587E+01 -.299E+01 -.925E+03   0.725E-02 0.120E-01 -.718E+01
   0.706E+01 0.118E+02 0.938E+03   -.708E+01 -.119E+02 -.930E+03   0.998E-02 0.477E-01 -.719E+01
   0.107E+02 0.119E+02 -.919E+03   -.108E+02 -.120E+02 0.911E+03   0.832E-02 0.230E-01 0.713E+01
   0.643E+01 0.569E+01 -.920E+03   -.644E+01 -.570E+01 0.911E+03   0.223E-02 0.119E-01 0.713E+01
   0.122E+02 0.122E+02 0.940E+03   -.123E+02 -.123E+02 -.931E+03   0.402E-01 0.402E-01 -.718E+01
   0.200E+02 0.200E+02 0.959E+03   -.201E+02 -.201E+02 -.950E+03   0.117E+00 0.117E+00 -.718E+01
   0.310E+02 0.196E+02 -.906E+03   -.311E+02 -.196E+02 0.898E+03   0.103E+00 0.884E-02 0.712E+01
   0.196E+02 0.310E+02 -.906E+03   -.196E+02 -.311E+02 0.898E+03   0.884E-02 0.103E+00 0.712E+01
   0.237E+02 0.518E+01 0.951E+03   -.239E+02 -.518E+01 -.943E+03   0.163E+00 0.115E-02 -.722E+01
   0.284E+02 -.954E+01 0.972E+03   -.287E+02 0.970E+01 -.964E+03   0.184E+00 -.999E-01 -.722E+01
   0.436E+02 -.919E+01 -.899E+03   -.437E+02 0.922E+01 0.891E+03   0.877E-01 -.213E-01 0.710E+01
   0.728E+02 0.248E+02 -.857E+03   -.739E+02 -.248E+02 0.849E+03   0.726E+00 -.325E-01 0.708E+01
   0.185E+02 -.119E+02 0.946E+03   -.185E+02 0.119E+02 -.938E+03   0.588E-01 -.394E-01 -.720E+01
   0.119E+02 -.185E+02 0.946E+03   -.119E+02 0.185E+02 -.938E+03   0.394E-01 -.588E-01 -.720E+01
   0.184E+02 -.184E+02 -.914E+03   -.184E+02 0.184E+02 0.906E+03   0.125E-01 -.125E-01 0.712E+01
   0.411E+02 -.411E+02 -.886E+03   -.412E+02 0.412E+02 0.878E+03   0.765E-01 -.765E-01 0.707E+01
   0.792E+01 -.851E+01 0.936E+03   -.794E+01 0.853E+01 -.927E+03   0.124E-01 -.139E-01 -.718E+01
   0.499E+01 -.401E+01 0.935E+03   -.500E+01 0.402E+01 -.926E+03   0.652E-02 -.533E-02 -.718E+01
   0.742E+01 -.406E+01 -.921E+03   -.743E+01 0.406E+01 0.913E+03   0.353E-02 0.167E-02 0.714E+01
   0.998E+01 -.178E+02 -.916E+03   -.999E+01 0.178E+02 0.908E+03   0.785E-02 -.119E-01 0.713E+01
   0.198E+01 0.474E+01 0.936E+03   -.198E+01 -.476E+01 -.928E+03   0.738E-03 0.163E-01 -.718E+01
   -.287E+01 0.144E+02 0.940E+03   0.289E+01 -.144E+02 -.932E+03   -.106E-01 0.486E-01 -.719E+01
   0.420E+01 0.224E+02 -.914E+03   -.420E+01 -.225E+02 0.905E+03   -.406E-02 0.367E-01 0.712E+01
   -.257E+01 0.692E+01 -.919E+03   0.257E+01 -.693E+01 0.910E+03   -.270E-02 0.467E-02 0.713E+01
   0.518E+01 0.237E+02 0.951E+03   -.518E+01 -.239E+02 -.943E+03   0.115E-02 0.163E+00 -.722E+01
   -.954E+01 0.284E+02 0.972E+03   0.970E+01 -.287E+02 -.964E+03   -.999E-01 0.184E+00 -.722E+01
   0.248E+02 0.728E+02 -.857E+03   -.248E+02 -.739E+02 0.849E+03   -.325E-01 0.726E+00 0.708E+01
   -.919E+01 0.436E+02 -.899E+03   0.922E+01 -.437E+02 0.891E+03   -.213E-01 0.877E-01 0.710E+01
   0.153E+02 0.153E+02 0.997E+03   -.154E+02 -.154E+02 -.989E+03   0.327E-01 0.327E-01 -.647E+01
   -.153E+02 -.153E+02 0.997E+03   0.154E+02 0.154E+02 -.989E+03   -.327E-01 -.327E-01 -.647E+01
   0.680E+02 -.680E+02 -.749E+03   -.692E+02 0.692E+02 0.741E+03   0.653E+00 -.653E+00 0.659E+01
   -.680E+02 0.680E+02 -.749E+03   0.692E+02 -.692E+02 0.741E+03   -.653E+00 0.653E+00 0.659E+01
   0.954E+01 -.284E+02 0.972E+03   -.970E+01 0.287E+02 -.964E+03   0.999E-01 -.184E+00 -.722E+01
   -.518E+01 -.237E+02 0.951E+03   0.518E+01 0.239E+02 -.943E+03   -.115E-02 -.163E+00 -.722E+01
   0.919E+01 -.436E+02 -.899E+03   -.922E+01 0.437E+02 0.891E+03   0.213E-01 -.877E-01 0.710E+01
   -.248E+02 -.728E+02 -.857E+03   0.248E+02 0.739E+02 0.849E+03   0.325E-01 -.726E+00 0.708E+01
   0.287E+01 -.144E+02 0.940E+03   -.289E+01 0.144E+02 -.932E+03   0.106E-01 -.486E-01 -.719E+01
   -.198E+01 -.474E+01 0.936E+03   0.198E+01 0.476E+01 -.928E+03   -.738E-03 -.163E-01 -.718E+01
[...]
   -.890E+01 0.529E+01 0.705E+03   0.892E+01 -.531E+01 -.709E+03   -.245E-01 0.183E-01 0.314E+01
   -.224E+01 0.440E+01 0.701E+03   0.224E+01 -.440E+01 -.705E+03   -.156E-02 0.803E-02 0.314E+01
   -.168E+02 0.314E+01 -.686E+03   0.169E+02 -.315E+01 0.690E+03   -.243E-01 0.120E-01 -.323E+01
   -.519E+01 -.193E+01 -.690E+03   0.519E+01 0.193E+01 0.694E+03   -.907E-02 0.413E-03 -.321E+01
   -.108E+02 -.217E+01 0.706E+03   0.108E+02 0.217E+01 -.710E+03   -.440E-01 0.260E-03 0.313E+01
   -.356E+01 0.148E+01 0.703E+03   0.357E+01 -.148E+01 -.707E+03   -.883E-02 0.486E-02 0.314E+01
   -.133E+02 -.748E+01 -.688E+03   0.133E+02 0.749E+01 0.692E+03   -.303E-01 -.716E-02 -.322E+01
   -.304E+01 -.556E+01 -.692E+03   0.304E+01 0.557E+01 0.696E+03   -.896E-02 -.588E-02 -.320E+01
   -.637E+01 -.594E+01 0.703E+03   0.639E+01 0.595E+01 -.707E+03   -.268E-01 -.190E-01 0.314E+01
   -.301E+01 -.375E+01 0.702E+03   0.302E+01 0.375E+01 -.706E+03   -.131E-01 -.669E-02 0.314E+01
   -.577E+01 -.577E+01 -.692E+03   0.578E+01 0.578E+01 0.696E+03   -.124E-01 -.124E-01 -.320E+01
   -.155E+01 -.155E+01 -.694E+03   0.155E+01 0.155E+01 0.698E+03   -.284E-02 -.284E-02 -.319E+01
   -.338E+01 -.160E+01 0.700E+03   0.339E+01 0.160E+01 -.704E+03   -.744E-02 -.685E-02 0.315E+01
   -.160E+01 -.338E+01 0.700E+03   0.160E+01 0.339E+01 -.704E+03   -.685E-02 -.744E-02 0.315E+01
   -.300E-01 0.149E-01 0.304E+01   0.122E-11 0.185E-11 0.239E-10   0.460E-16 -.177E-15 -.318E+01

 POSITION                                       TOTAL-FORCE (eV/Angst)
      9.51248      9.51248     16.05027        -0.000000      0.000000      0.118068
      9.51248      9.51248     13.49036        -0.000000      0.000000      0.041151
      0.00000      0.00000      9.00000        -0.001018     -0.001018      0.563194
      2.11389      2.11389      9.00000        -0.004261     -0.004261      0.563652
      0.00000      2.11389     11.11389        -0.001859     -0.001273     -0.552203
      2.11389      0.00000     11.11389        -0.001273     -0.001859     -0.552203
      0.00000      4.22777      9.00000        -0.003694     -0.002360      0.564075
      2.11389      6.34166      9.00000        -0.014604     -0.003362      0.566640
      0.00000      6.34166     11.11389        -0.003458     -0.000728     -0.549917
      2.11389      4.22777     11.11389        -0.006813     -0.002685     -0.549114
      0.00000      8.45554      9.00000        -0.004959     -0.000234      0.565219
      2.11389     10.56943      9.00000        -0.014886      0.003574      0.568030
      0.00000     10.56943     11.11389        -0.001202      0.000872     -0.548962
      2.11389      8.45554     11.11389        -0.009666      0.001433     -0.543611
      0.00000     12.68331      9.00000        -0.001682      0.002117      0.564738
      2.11389     14.79720      9.00000        -0.004360      0.003971      0.565085
      0.00000     14.79720     11.11389         0.000563      0.001102     -0.551018
      2.11389     12.68331     11.11389        -0.002954      0.002401     -0.545687
      0.00000     16.91108      9.00000        -0.000082      0.001482      0.563491
      2.11389     19.02497      9.00000        -0.001482      0.000082      0.563491
      0.00000     19.02497     11.11389        -0.000021      0.000021     -0.552796
      2.11389     16.91108     11.11389        -0.000687      0.000687     -0.550930
      4.22777      0.00000      9.00000        -0.002360     -0.003694      0.564075
      6.34166      2.11389      9.00000        -0.003362     -0.014604      0.566640
      4.22777      2.11389     11.11389        -0.002685     -0.006813     -0.549114
      6.34166      0.00000     11.11389        -0.000728     -0.003458     -0.549917
      4.22777      4.22777      9.00000        -0.013247     -0.013247      0.565393
      6.34166      6.34166      9.00000        -0.043900     -0.043900      0.555911
      4.22777      6.34166     11.11389        -0.028997     -0.002919     -0.536259
      6.34166      4.22777     11.11389        -0.002919     -0.028997     -0.536259
      4.22777      8.45554      9.00000        -0.048207     -0.000390      0.574478
      6.34166     10.56943      9.00000        -0.060680      0.037455      0.566208
      4.22777     10.56943     11.11389        -0.023704      0.007042     -0.524234
      6.34166      8.45554     11.11389        -0.236293      0.016431     -0.480359
      4.22777     12.68331      9.00000        -0.018649      0.012931      0.570509
      6.34166     14.79720      9.00000        -0.012931      0.018649      0.570509
      4.22777     14.79720     11.11389        -0.003197      0.003197     -0.543369
      6.34166     12.68331     11.11389        -0.016823      0.016823     -0.502032
      4.22777     16.91108      9.00000        -0.003971      0.004360      0.565085
      6.34166     19.02497      9.00000        -0.002117      0.001682      0.564738
      4.22777     19.02497     11.11389        -0.001102     -0.000563     -0.551018
      6.34166     16.91108     11.11389        -0.002401      0.002954     -0.545687
      8.45554      0.00000      9.00000        -0.000234     -0.004959      0.565219
     10.56943      2.11389      9.00000         0.003574     -0.014886      0.568030
      8.45554      2.11389     11.11389         0.001433     -0.009666     -0.543611
     10.56943      0.00000     11.11389         0.000872     -0.001202     -0.548962
      8.45554      4.22777      9.00000        -0.000390     -0.048207      0.574478
     10.56943      6.34166      9.00000         0.037455     -0.060680      0.566208
      8.45554      6.34166     11.11389         0.016431     -0.236293     -0.480359
     10.56943      4.22777     11.11389         0.007042     -0.023704     -0.524234
      8.45554      8.45554      9.00000        -0.009889     -0.009889      0.351340
     10.56943     10.56943      9.00000         0.009889      0.009889      0.351340
      8.45554     10.56943     11.11389        -0.441906      0.441906     -0.870358
     10.56943      8.45554     11.11389         0.441906     -0.441906     -0.870358
      8.45554     12.68331      9.00000        -0.037455      0.060680      0.566208
     10.56943     14.79720      9.00000         0.000390      0.048207      0.574478
      8.45554     14.79720     11.11389        -0.007042      0.023704     -0.524234
     10.56943     12.68331     11.11389        -0.016431      0.236293     -0.480359
      8.45554     16.91108      9.00000        -0.003574      0.014886      0.568030
     10.56943     19.02497      9.00000         0.000234      0.004959      0.565219
[...]
     19.02497      6.34166     11.11389        -0.000542      0.001682      0.426184
     16.91108      6.34166      9.00000        -0.007953      0.005980     -0.443980
     19.02497      4.22777      9.00000        -0.000521      0.002615     -0.441536
     16.91108      8.45554     11.11389        -0.008035      0.003913      0.419106
     19.02497     10.56943     11.11389        -0.002959      0.000099      0.425136
     16.91108     10.56943      9.00000        -0.014313      0.000102     -0.444398
     19.02497      8.45554      9.00000        -0.002834      0.001595     -0.442608
     16.91108     12.68331     11.11389        -0.009959     -0.002361      0.422131
     19.02497     14.79720     11.11389        -0.002953     -0.001934      0.427698
     16.91108     14.79720      9.00000        -0.008700     -0.006193     -0.441887
     19.02497     12.68331      9.00000        -0.004252     -0.002182     -0.442019
     16.91108     16.91108     11.11389        -0.004058     -0.004058      0.427885
     19.02497     19.02497     11.11389        -0.000931     -0.000931      0.429565
     16.91108     19.02497      9.00000        -0.002465     -0.002207     -0.440858
     19.02497     16.91108      9.00000        -0.002207     -0.002465     -0.440858
    total drift:                               -0.029980      0.014866     -0.604709

  FREE ENERGIE OF THE ION-ELECTRON SYSTEM (eV)
  free  energy   TOTEN  =     -1367.15594949 eV

  energy  without entropy=    -1367.15594949  energy(sigma->0) =    -1367.15594949