 vasp.6.3.0 20Jan22 (build Apr  1 2022 16:44:48) complex
 executed on        HPECrayEX_GCC date 2023.01.09  21:26:49

 INCAR:
   SYSTEM = MgO-rocksalt
   ISMEAR = 0
   SIGMA = 0.05
   EDIFF = 1E-6
   ALGO = ALL
   ISTART = 0
   IBRION = -1
   NSW = 0
   ISYM = 2
   DIPOL = 0.5 0.5 0.5
   IDIPOL = 3
   LDIPOL = .TRUE.
   GGA = MK
   PARAM1 = 0.1234
   PARAM2 = 1.0
   LUSE_VDW = .TRUE.
   AGGAC = 0.0
   ENCUT = 520
   PREC = Accurate
   LASPH = .TRUE.
   LREAL = Auto
   ISPIN = 1
   NELM = 200
   NELMIN = 8
   NCORE = 4
   KPAR = 2
   LWAVE = .FALSE.
   LCHARG = .FALSE.

 POTCAR:    PAW_PBE Cu 22Jun2005
 POTCAR:    PAW_PBE Mg_pv 13Apr2007
 POTCAR:    PAW_PBE O 08Apr2002
|               ----> ADVICE to this user running VASP <----                  |
|     You have switched on vdW-DFT.                                           |
|     This routine was written and supplied by Jiri Klimes. We recommend      |
|     that you carefully read and cite the following publications:            |
|       J. Klimes, D.R. Bowler, A. Michelides                                 |
|          J. Phys.: Cond Matt. 22 022201 (2010)                              |
|       J. Klimes, D.R. Bowler, A. Michelides                                 |
|          Phys. Rev. B. 83, 195131 (2011)                                    |
|     and references therein.                                                 |

   TITEL  = PAW_PBE Cu 22Jun2005
   POMASS =   63.546; ZVAL   =   11.000    mass and valenz
   ENMAX  =  295.446; ENMIN  =  221.585 eV

   TITEL  = PAW_PBE Mg_pv 13Apr2007
   POMASS =   24.305; ZVAL   =    8.000    mass and valenz
   ENMAX  =  403.929; ENMIN  =  302.947 eV

   TITEL  = PAW_PBE O 08Apr2002
   POMASS =   16.000; ZVAL   =    6.000    mass and valenz
   ENMAX  =  400.000; ENMIN  =  300.000 eV

 Optimization of the real space projectors (new method)

 maximal supplied QI-value         = 16.25
 optimisation between [QCUT,QGAM] = [ 11.54, 23.24] = [ 37.28,151.24] Ry
 Optimized for a Real-space Cutoff    1.53 Angstroem

   l    n(q)    QCUT    max X(q) W(low)/X(q) W(high)/X(q)  e(spline)
   2     10    11.539     4.610    0.96E-04    0.13E-03    0.19E-06
   2     10    11.539     8.522    0.16E-03    0.21E-03    0.28E-06
   0     11    11.539    51.609    0.45E-04    0.31E-04    0.11E-06
   0     11    11.539    27.747    0.39E-04    0.29E-04    0.10E-06
   1     10    11.539    20.408    0.70E-05    0.38E-04    0.18E-06
   1     10    11.539    13.425    0.66E-05    0.34E-04    0.17E-06
 Optimization of the real space projectors (new method)

[...]

   l    n(q)    QCUT    max X(q) W(low)/X(q) W(high)/X(q)  e(spline)
   1      8    11.527     2.974    0.44E-04    0.56E-04    0.12E-06
   1      8    11.527     4.279    0.12E-03    0.12E-03    0.26E-06
   0      9    11.527    16.381    0.46E-04    0.64E-04    0.78E-07
   0      9    11.527     5.611    0.26E-04    0.43E-04    0.55E-07
   2      8    11.527     4.652    0.22E-03    0.72E-04    0.47E-07
 Optimization of the real space projectors (new method)

 maximal supplied QI-value         = 24.76
 optimisation between [QCUT,QGAM] = [ 11.64, 23.27] = [ 37.91,151.63] Ry
 Optimized for a Real-space Cutoff    1.14 Angstroem

   l    n(q)    QCUT    max X(q) W(low)/X(q) W(high)/X(q)  e(spline)
   0      8    11.635    20.381    0.10E-03    0.33E-03    0.24E-06
   0      8    11.635    15.268    0.11E-03    0.35E-03    0.26E-06
   1      7    11.635     5.964    0.24E-03    0.31E-03    0.30E-06
   1      7    11.635     5.382    0.22E-03    0.25E-03    0.26E-06
|               ----> ADVICE to this user running VASP <----                  |
|     You enforced a specific xc type in the INCAR file but a different       |
|     type was found in the POTCAR file.                                      |
|     I HOPE YOU KNOW WHAT YOU ARE DOING!                                     |

  PAW_PBE Cu 22Jun2005                  :
  PAW_PBE Mg_pv 13Apr2007               :
  PAW_PBE O 08Apr2002                   :

 POSCAR: Cu Mg  O
  positions in direct lattice
  velocities in cartesian coordinates
 exchange correlation table for  LEXCH =       43
   RHO(1)=    0.500       N(1)  =     2000
   RHO(2)=  100.500       N(2)  =     4000

 ion  position               nearest neighbor table
   1  0.400  0.558  0.598- 157 2.29   3 2.35  55 2.43   4 2.47
   2  0.400  0.499  0.790-   3 2.25
   3  0.400  0.499  0.688-   2 2.25   1 2.35   4 2.35
   4  0.400  0.441  0.597- 153 2.26   3 2.35  55 2.43   1 2.47
   5  0.000  0.000  0.407- 107 2.11 108 2.11 123 2.11 188 2.11 105 2.11
   6  0.100  0.100  0.407- 107 2.11 108 2.11 112 2.11 127 2.11 106 2.11
   7  0.000  0.100  0.503- 105 2.11 106 2.11 109 2.11 186 2.11 107 2.11
   8  0.100  0.000  0.503- 105 2.11 106 2.11 122 2.11 125 2.11 108 2.11
   9  0.000  0.200  0.407- 111 2.11 107 2.11 112 2.11 192 2.11 109 2.11
  10  0.100  0.300  0.407- 112 2.11 111 2.11 116 2.11 131 2.11 110 2.11
  11  0.000  0.300  0.503- 109 2.11 110 2.11 113 2.11 190 2.11 111 2.11
  12  0.100  0.200  0.503- 110 2.11 109 2.11 106 2.11 129 2.11 112 2.11
  13  0.000  0.400  0.407- 111 2.11 115 2.11 116 2.11 196 2.11 113 2.11
  14  0.100  0.500  0.407- 115 2.11 116 2.11 120 2.11 135 2.11 114 2.11
  15  0.000  0.500  0.503- 113 2.11 114 2.11 117 2.11 194 2.11 115 2.11
  16  0.100  0.400  0.503- 110 2.11 113 2.11 114 2.11 133 2.11 116 2.11
  17  0.000  0.600  0.407- 115 2.11 119 2.11 120 2.11 200 2.11 117 2.11
  18  0.100  0.700  0.407- 124 2.11 120 2.11 119 2.11 139 2.11 118 2.11
  19  0.000  0.700  0.503- 121 2.11 118 2.11 117 2.11 198 2.11 119 2.11
  20  0.100  0.600  0.503- 114 2.11 117 2.11 118 2.11 137 2.11 120 2.11
  21  0.000  0.800  0.407- 119 2.11 123 2.11 124 2.11 204 2.11 121 2.11
  22  0.100  0.900  0.407- 108 2.11 123 2.11 124 2.11 143 2.11 122 2.11
  23  0.000  0.900  0.503- 105 2.11 121 2.11 122 2.11 202 2.11 123 2.11
  24  0.100  0.800  0.503- 118 2.11 121 2.11 122 2.11 141 2.11 124 2.11
  25  0.200  0.000  0.407- 128 2.11 127 2.11 108 2.11 143 2.11 125 2.11
  26  0.300  0.100  0.407- 127 2.11 128 2.11 132 2.11 147 2.11 126 2.11
  27  0.200  0.100  0.503- 126 2.11 125 2.11 106 2.11 129 2.11 127 2.11
  28  0.300  0.000  0.503- 125 2.11 126 2.11 142 2.11 145 2.11 128 2.11
  29  0.200  0.200  0.407- 131 2.11 132 2.11 112 2.11 127 2.11 129 2.11
  30  0.300  0.300  0.407- 131 2.11 132 2.11 136 2.11 151 2.11 130 2.11
  31  0.200  0.300  0.503- 129 2.11 130 2.11 110 2.11 133 2.11 131 2.11
  32  0.300  0.200  0.503- 129 2.11 130 2.11 126 2.11 149 2.11 132 2.11
  33  0.200  0.400  0.407- 136 2.11 131 2.11 135 2.11 116 2.11 133 2.11
  34  0.300  0.500  0.407- 135 2.11 136 2.11 140 2.11 155 2.11 134 2.11
  35  0.200  0.500  0.503- 134 2.11 133 2.11 114 2.11 137 2.11 135 2.11
  36  0.300  0.400  0.503- 133 2.11 130 2.11 134 2.11 153 2.11 136 2.11
  37  0.200  0.600  0.407- 140 2.11 135 2.11 139 2.11 120 2.11 137 2.11
  38  0.300  0.700  0.407- 139 2.11 144 2.11 140 2.11 159 2.11 138 2.11
  39  0.200  0.700  0.503- 138 2.11 141 2.11 118 2.11 137 2.11 139 2.11
  40  0.300  0.600  0.503- 137 2.11 134 2.11 138 2.11 157 2.11 140 2.11
  41  0.200  0.800  0.407- 139 2.11 144 2.11 143 2.11 124 2.11 141 2.11
  42  0.300  0.900  0.407- 143 2.11 128 2.11 144 2.11 163 2.11 142 2.11
  43  0.200  0.900  0.503- 142 2.11 125 2.11 141 2.11 122 2.11 143 2.11
  44  0.300  0.800  0.503- 138 2.11 141 2.11 142 2.11 161 2.11 144 2.11
  45  0.400  0.000  0.407- 128 2.11 147 2.11 148 2.11 163 2.11 145 2.11
  46  0.500  0.100  0.407- 147 2.11 148 2.11 152 2.11 167 2.11 146 2.11
  47  0.400  0.100  0.503- 126 2.11 145 2.11 146 2.11 149 2.11 147 2.11
  48  0.500  0.000  0.503- 145 2.11 146 2.11 162 2.11 165 2.11 148 2.11
  49  0.400  0.200  0.407- 151 2.11 147 2.11 132 2.11 152 2.11 149 2.11
  50  0.500  0.300  0.407- 152 2.11 151 2.11 156 2.11 171 2.11 150 2.11
  51  0.400  0.300  0.503- 149 2.11 130 2.11 150 2.11 153 2.11 151 2.11
  52  0.500  0.200  0.503- 150 2.11 149 2.11 146 2.11 169 2.11 152 2.11
  53  0.400  0.400  0.407- 136 2.11 151 2.11 155 2.11 156 2.11 153 2.11
  54  0.500  0.500  0.407- 155 2.11 156 2.11 160 2.11 175 2.11 154 2.11
  55  0.400  0.500  0.503- 134 2.11 153 2.11 154 2.11 157 2.11 155 2.11   4 2.43   1 2.43
  56  0.500  0.400  0.503- 150 2.11 153 2.11 154 2.11 173 2.11 156 2.11
  57  0.400  0.600  0.407- 140 2.11 155 2.11 159 2.11 160 2.11 157 2.11
  58  0.500  0.700  0.407- 164 2.11 160 2.11 159 2.11 179 2.11 158 2.11
  59  0.400  0.700  0.503- 161 2.11 157 2.11 158 2.11 138 2.11 159 2.11
  60  0.500  0.600  0.503- 154 2.11 157 2.11 158 2.11 177 2.11 160 2.11
[...]
 190  0.900  0.300  0.503-  92 2.11  91 2.11  11 2.11  96 2.11  90 2.11
 191  0.800  0.300  0.407-  70 2.11  89 2.11  90 2.11  93 2.11  91 2.11
 192  0.900  0.200  0.407-  90 2.11  86 2.11  89 2.11   9 2.11  92 2.11
 193  0.800  0.400  0.503-  76 2.11  91 2.11  95 2.11  96 2.11  93 2.11
 194  0.900  0.500  0.503-  15 2.11  95 2.11  96 2.11 100 2.11  94 2.11
 195  0.800  0.500  0.407-  74 2.11  93 2.11  94 2.11  97 2.11  95 2.11
 196  0.900  0.400  0.407-  13 2.11  90 2.11  93 2.11  94 2.11  96 2.11
 197  0.800  0.600  0.503-  80 2.11  95 2.11  99 2.11 100 2.11  97 2.11
 198  0.900  0.700  0.503- 104 2.11  99 2.11 100 2.11  19 2.11  98 2.11
 199  0.800  0.700  0.407-  78 2.11 101 2.11  98 2.11  97 2.11  99 2.11
 200  0.900  0.600  0.407-  17 2.11  94 2.11  97 2.11  98 2.11 100 2.11
 201  0.800  0.800  0.503-  84 2.11  99 2.11 103 2.11 104 2.11 101 2.11
 202  0.900  0.900  0.503-  23 2.11  88 2.11 103 2.11 104 2.11 102 2.11
 203  0.800  0.900  0.407-  82 2.11  85 2.11 101 2.11 102 2.11 103 2.11
 204  0.900  0.800  0.407-  98 2.11  21 2.11 101 2.11 102 2.11 104 2.11

  LATTYP: Found a simple tetragonal cell.
 ALAT       =    21.1388521970
 C/A-ratio  =     1.0461251639

  Lattice vectors:

 A1 = (  21.1388521970,   0.0000000000,   0.0000000000)
 A2 = (   0.0000000000,  21.1388521970,   0.0000000000)
 A3 = (   0.0000000000,   0.0000000000,  22.1138852197)

Analysis of symmetry for initial positions (statically):
 Subroutine PRICEL returns:
 Original cell was already a primitive cell.

 Routine SETGRP: Setting up the symmetry group for a
 simple tetragonal supercell.

 Subroutine GETGRP returns: Found  1 space group operations
 (whereof  1 operations were pure point group operations)
 out of a pool of 16 trial point group operations.

The static configuration has the point symmetry C_1 .

Analysis of symmetry for dynamics (positions and initial velocities):
 Subroutine PRICEL returns:
 Original cell was already a primitive cell.

[...]

The dynamic configuration has the point symmetry C_1 .

Analysis of constrained symmetry for selective dynamics:
 Subroutine PRICEL returns:
 Original cell was already a primitive cell.

 Routine SETGRP: Setting up the symmetry group for a
 simple tetragonal supercell.

 Subroutine GETGRP returns: Found  1 space group operations
 (whereof  1 operations were pure point group operations)
 out of a pool of 16 trial point group operations.

The constrained configuration has the point symmetry C_1 .

 Subroutine INISYM returns: Found  1 space group operations
 (whereof  1 operations are pure point group operations),
 and found     1 'primitive' translations

[...]
     52     -43.3319      2.00000
     53     -43.3316      2.00000
     54     -43.3313      2.00000
     55     -43.3309      2.00000
     56     -43.3305      2.00000
     57     -43.3301      2.00000
     58     -43.3299      2.00000
     59     -43.3290      2.00000
     60     -43.3279      2.00000
[...]
    946       5.5110      0.00000
    947       5.5770      0.00000
    948       5.6375      0.00000
    949       5.6690      0.00000
    950       5.7341      0.00000
    951       5.7801      0.00000
    952       5.7988      0.00000
    953       5.8543      0.00000
    954       5.9067      0.00000
    955       5.9782      0.00000
    956       6.0450      0.00000
    957       6.0978      0.00000
    958       6.2008      0.00000
    959       6.2913      0.00000
    960       6.4341      0.00000

 soft charge-density along one line, spin component           1
         0         1         2         3         4         5         6         7         8         9
 total charge-density along one line

------------------------ aborting loop because EDIFF is reached ----------------------------------------

  FORCE on cell =-STRESS in cart. coord.  units (eV):
  Direction    XX          YY          ZZ          XY          YZ          ZX
  Alpha Z  1394.80054  1394.80054  1394.80054
  Ewald  476789.57733478031.49515************     0.08233     1.75104    -2.53842
  Hartree506523.05794507491.67404************     0.06350     1.09171    -2.00036
  E(xc)   -7911.89812 -7911.51597 -7910.68866     0.00002     0.00258    -0.00097
  Local  ************************************    -0.14451    -2.83619     4.50631
  n-local -8898.79061 -8899.96777 -9011.99886     0.00012     0.00233    -0.00033
  augment  3663.02165  3655.79039  3591.11877    -0.00030    -0.00998     0.01457
  Kinetic 23054.50034 23046.81730 23275.37799    -0.00050    -0.01407     0.02941
  Fock        0.00000     0.00000     0.00000     0.00000     0.00000     0.00000
  Total    -185.65124  -187.21318    -0.19021     0.00066    -0.01258     0.01020
  in kB     -30.10098   -30.35423    -0.03084     0.00011    -0.00204     0.00165

 VOLUME and BASIS-vectors are now :
  energy-cutoff  :      520.00
  volume of cell :     9881.61
      direct lattice vectors                 reciprocal lattice vectors
    21.138852197  0.000000000  0.000000000     0.047306258  0.000000000  0.000000000
     0.000000000 21.138852197  0.000000000     0.000000000  0.047306258  0.000000000
     0.000000000  0.000000000 22.113885220     0.000000000  0.000000000  0.045220457

  length of vectors
    21.138852197 21.138852197 22.113885220     0.047306258  0.047306258  0.045220457

 FORCES acting on ions:
    Electron-Ion                     Ewald-Force                    Non-Local-Force
   -.593E+00 -.488E+03 -.187E+04   0.583E+00 0.479E+03 0.188E+04   0.135E-01 0.939E+01 -.494E+01
   -.804E-01 -.287E+00 -.154E+04   0.676E-01 0.246E+00 0.153E+04   0.129E-01 0.402E-01 0.111E+02
   0.132E+01 0.388E+01 -.186E+04   -.129E+01 -.384E+01 0.186E+04   -.173E-01 -.469E-01 0.518E+00
   -.533E+00 0.484E+03 -.187E+04   0.524E+00 -.475E+03 0.188E+04   0.124E-01 -.918E+01 -.495E+01
   0.647E+01 0.578E-01 0.935E+03   -.650E+01 -.582E-01 -.927E+03   0.235E-01 0.317E-03 -.729E+01
   0.127E+02 0.987E+01 0.938E+03   -.128E+02 -.990E+01 -.931E+03   0.519E-01 0.197E-01 -.729E+01
   0.929E+01 0.884E+01 -.918E+03   -.932E+01 -.884E+01 0.910E+03   0.267E-01 0.186E-02 0.719E+01
   0.135E+02 0.103E+00 -.917E+03   -.135E+02 -.103E+00 0.909E+03   0.368E-01 0.514E-03 0.719E+01
   0.102E+02 0.119E+02 0.938E+03   -.102E+02 -.120E+02 -.931E+03   0.415E-01 0.830E-02 -.729E+01
   0.270E+02 0.195E+02 0.950E+03   -.272E+02 -.195E+02 -.943E+03   0.135E+00 0.230E-01 -.731E+01
   0.197E+02 0.165E+02 -.912E+03   -.198E+02 -.165E+02 0.904E+03   0.436E-01 -.195E-02 0.718E+01
   0.251E+02 0.238E+02 -.910E+03   -.252E+02 -.238E+02 0.903E+03   0.863E-01 0.121E-01 0.718E+01
   0.180E+02 0.821E+01 0.945E+03   -.181E+02 -.821E+01 -.937E+03   0.641E-01 0.277E-02 -.730E+01
   0.401E+02 -.121E+00 0.961E+03   -.403E+02 0.122E+00 -.953E+03   0.163E+00 -.738E-03 -.733E+01
   0.287E+02 -.946E-01 -.907E+03   -.288E+02 0.949E-01 0.900E+03   0.419E-01 -.285E-03 0.717E+01
   0.573E+02 0.201E+02 -.894E+03   -.575E+02 -.201E+02 0.887E+03   0.120E+00 -.410E-02 0.716E+01
   0.180E+02 -.832E+01 0.945E+03   -.181E+02 0.832E+01 -.937E+03   0.636E-01 -.331E-02 -.730E+01
   0.269E+02 -.195E+02 0.950E+03   -.271E+02 0.196E+02 -.942E+03   0.133E+00 -.233E-01 -.731E+01
   0.196E+02 -.165E+02 -.912E+03   -.197E+02 0.165E+02 0.904E+03   0.430E-01 0.179E-02 0.718E+01
   0.571E+02 -.203E+02 -.894E+03   -.573E+02 0.203E+02 0.887E+03   0.119E+00 0.325E-02 0.716E+01
   0.101E+02 -.119E+02 0.938E+03   -.102E+02 0.119E+02 -.931E+03   0.409E-01 -.808E-02 -.729E+01
   0.127E+02 -.973E+01 0.938E+03   -.128E+02 0.975E+01 -.931E+03   0.513E-01 -.187E-01 -.729E+01
   0.925E+01 -.871E+01 -.918E+03   -.928E+01 0.871E+01 0.910E+03   0.264E-01 -.143E-02 0.719E+01
   0.249E+02 -.237E+02 -.911E+03   -.250E+02 0.237E+02 0.903E+03   0.847E-01 -.118E-01 0.718E+01
   0.115E+02 0.112E+00 0.940E+03   -.116E+02 -.114E+00 -.932E+03   0.435E-01 0.957E-03 -.729E+01
   0.920E+01 0.186E+02 0.946E+03   -.925E+01 -.187E+02 -.939E+03   0.406E-01 0.978E-01 -.730E+01
   0.182E+02 0.199E+02 -.911E+03   -.183E+02 -.200E+02 0.904E+03   0.536E-01 0.502E-01 0.718E+01
   0.947E+01 0.203E+00 -.912E+03   -.950E+01 -.204E+00 0.904E+03   0.260E-01 0.123E-02 0.719E+01
   0.213E+02 0.265E+02 0.951E+03   -.215E+02 -.266E+02 -.943E+03   0.118E+00 0.860E-01 -.729E+01
   0.281E+02 0.498E+02 0.988E+03   -.284E+02 -.501E+02 -.981E+03   0.251E+00 0.243E+00 -.721E+01
   0.592E+02 0.544E+02 -.883E+03   -.596E+02 -.545E+02 0.876E+03   0.312E+00 0.169E-01 0.715E+01
   0.244E+02 0.605E+02 -.892E+03   -.245E+02 -.609E+02 0.884E+03   0.827E-01 0.269E+00 0.717E+01
   0.508E+02 0.239E+02 0.984E+03   -.512E+02 -.239E+02 -.977E+03   0.373E+00 0.370E-01 -.738E+01
   0.559E+02 -.445E+00 0.105E+04   -.565E+02 0.454E+00 -.104E+04   0.386E+00 -.651E-02 -.738E+01
   0.121E+03 -.448E+00 -.843E+03   -.122E+03 0.449E+00 0.836E+03   0.246E+00 -.112E-02 0.708E+01
   0.142E+03 0.108E+03 -.750E+03   -.144E+03 -.108E+03 0.743E+03   0.160E+01 -.462E-01 0.692E+01
   0.505E+02 -.241E+02 0.984E+03   -.510E+02 0.242E+02 -.976E+03   0.367E+00 -.397E-01 -.738E+01
   0.278E+02 -.497E+02 0.988E+03   -.281E+02 0.500E+02 -.980E+03   0.246E+00 -.240E+00 -.721E+01
   0.586E+02 -.543E+02 -.883E+03   -.590E+02 0.543E+02 0.876E+03   0.304E+00 -.178E-01 0.715E+01
   0.140E+03 -.109E+03 -.752E+03   -.142E+03 0.109E+03 0.745E+03   0.155E+01 0.377E-01 0.693E+01
   0.212E+02 -.263E+02 0.951E+03   -.213E+02 0.264E+02 -.943E+03   0.116E+00 -.843E-01 -.729E+01
   0.914E+01 -.183E+02 0.946E+03   -.919E+01 0.184E+02 -.939E+03   0.400E-01 -.945E-01 -.730E+01
   0.181E+02 -.196E+02 -.911E+03   -.181E+02 0.197E+02 0.904E+03   0.529E-01 -.482E-01 0.718E+01
   0.241E+02 -.599E+02 -.892E+03   -.242E+02 0.603E+02 0.884E+03   0.813E-01 -.262E+00 0.717E+01
   -.221E-01 0.159E+00 0.943E+03   0.220E-01 -.161E+00 -.936E+03   0.992E-04 0.157E-02 -.730E+01
   -.924E+01 0.186E+02 0.946E+03   0.929E+01 -.187E+02 -.939E+03   -.404E-01 0.979E-01 -.730E+01
   -.377E-01 0.308E+02 -.906E+03   0.375E-01 -.310E+02 0.898E+03   0.124E-03 0.123E+00 0.718E+01
   -.951E+01 0.202E+00 -.912E+03   0.955E+01 -.204E+00 0.904E+03   -.258E-01 0.123E-02 0.719E+01
   -.458E-01 0.417E+02 0.964E+03   0.456E-01 -.421E+02 -.957E+03   0.147E-03 0.335E+00 -.732E+01
   -.282E+02 0.497E+02 0.988E+03   0.285E+02 -.500E+02 -.981E+03   -.251E+00 0.243E+00 -.721E+01
   -.207E+00 0.140E+03 -.821E+03   0.206E+00 -.142E+03 0.813E+03   0.442E-03 0.157E+01 0.730E+01
   -.245E+02 0.604E+02 -.892E+03   0.246E+02 -.608E+02 0.884E+03   -.823E-01 0.269E+00 0.717E+01
   -.150E+00 0.509E+02 0.106E+04   0.149E+00 -.511E+02 -.105E+04   0.865E-03 0.147E+00 -.545E+01
   -.561E+02 -.443E+00 0.105E+04   0.566E+02 0.452E+00 -.104E+04   -.386E+00 -.652E-02 -.738E+01
   -.937E+00 -.271E+01 -.455E+03   0.939E+00 0.279E+01 0.451E+03   0.203E-02 -.504E-01 0.230E+01
   -.142E+03 0.108E+03 -.751E+03   0.144E+03 -.108E+03 0.744E+03   -.160E+01 -.465E-01 0.693E+01
   -.147E+00 -.514E+02 0.106E+04   0.146E+00 0.516E+02 -.105E+04   0.816E-03 -.156E+00 -.550E+01
   -.279E+02 -.496E+02 0.988E+03   0.282E+02 0.499E+02 -.980E+03   -.246E+00 -.240E+00 -.721E+01
   -.200E+00 -.138E+03 -.822E+03   0.200E+00 0.140E+03 0.815E+03   0.444E-03 -.153E+01 0.730E+01
   -.140E+03 -.109E+03 -.753E+03   0.142E+03 0.109E+03 0.746E+03   -.155E+01 0.381E-01 0.694E+01
[...]
   -.106E+02 0.948E+01 0.708E+03   0.106E+02 -.949E+01 -.712E+03   -.498E-01 0.914E-02 0.356E+01
   0.214E-01 0.764E+01 0.704E+03   -.213E-01 -.764E+01 -.708E+03   -.143E-03 0.599E-02 0.357E+01
   -.194E+02 0.814E+01 -.683E+03   0.194E+02 -.813E+01 0.687E+03   -.446E-01 -.236E-02 -.376E+01
   0.564E-01 -.544E-01 -.685E+03   -.562E-01 0.546E-01 0.689E+03   -.289E-03 -.262E-03 -.375E+01
   -.147E+02 -.536E-01 0.712E+03   0.147E+02 0.539E-01 -.716E+03   -.562E-01 -.436E-03 0.356E+01
   0.363E-01 0.505E+01 0.708E+03   -.361E-01 -.505E+01 -.712E+03   -.229E-03 0.128E-02 0.356E+01
   -.194E+02 -.824E+01 -.683E+03   0.194E+02 0.824E+01 0.687E+03   -.443E-01 0.178E-02 -.376E+01
   0.398E-01 -.991E+01 -.688E+03   -.397E-01 0.991E+01 0.692E+03   -.217E-03 0.106E-02 -.373E+01
   -.106E+02 -.951E+01 0.708E+03   0.106E+02 0.951E+01 -.712E+03   -.492E-01 -.933E-02 0.356E+01
   0.361E-01 -.512E+01 0.708E+03   -.360E-01 0.512E+01 -.712E+03   -.227E-03 -.177E-02 0.356E+01
   -.995E+01 -.113E+02 -.688E+03   0.998E+01 0.113E+02 0.692E+03   -.351E-01 -.578E-02 -.373E+01
   0.199E-01 -.552E+01 -.691E+03   -.198E-01 0.552E+01 0.695E+03   -.122E-03 -.160E-02 -.372E+01
   -.552E+01 -.522E+01 0.704E+03   0.555E+01 0.522E+01 -.708E+03   -.304E-01 -.838E-02 0.357E+01
   0.212E-01 -.761E+01 0.704E+03   -.211E-01 0.761E+01 -.708E+03   -.143E-03 -.579E-02 0.357E+01
   0.869E-02 -.246E+00 0.576E+01   0.223E-11 0.853E-12 0.182E-11   -.205E-02 0.250E+00 -.619E+01

 POSITION                                       TOTAL-FORCE (eV/Angst)
      8.45129     11.78922     13.22011         0.003257     -0.016696     -0.018061
      8.44827     10.55171     17.46787        -0.000048     -0.001694     -0.030460
      8.44707     10.54754     15.21331         0.004117      0.001741     -0.014383
      8.45116      9.32335     13.20450         0.003496      0.023541     -0.009254
      0.00000      0.00000      9.00000        -0.006545     -0.000102      0.362032
      2.11389      2.11389      9.00000        -0.014519     -0.005638      0.361995
      0.00000      2.11389     11.11389        -0.007217     -0.000532     -0.324131
      2.11389      0.00000     11.11389        -0.010255     -0.000152     -0.323289
      0.00000      4.22777      9.00000        -0.011188     -0.002389      0.363201
      2.11389      6.34166      9.00000        -0.035926     -0.006508      0.366298
      0.00000      6.34166     11.11389        -0.011116      0.000776     -0.318775
      2.11389      4.22777     11.11389        -0.022747     -0.003322     -0.317764
      0.00000      8.45554      9.00000        -0.017072     -0.000684      0.365530
      2.11389     10.56943      9.00000        -0.044858      0.000184      0.369655
      0.00000     10.56943     11.11389        -0.010161      0.000036     -0.314287
      2.11389      8.45554     11.11389        -0.029044      0.002127     -0.301203
      0.00000     12.68331      9.00000        -0.016931      0.000790      0.365488
      2.11389     14.79720      9.00000        -0.035330      0.006541      0.366263
      0.00000     14.79720     11.11389        -0.010965     -0.000768     -0.318845
      2.11389     12.68331     11.11389        -0.028778     -0.001929     -0.301372
      0.00000     16.91108      9.00000        -0.011018      0.002289      0.363176
      2.11389     19.02497      9.00000        -0.014354      0.005311      0.361989
      0.00000     19.02497     11.11389        -0.007139      0.000370     -0.324168
      2.11389     16.91108     11.11389        -0.022351      0.003191     -0.317894
      4.22777      0.00000      9.00000        -0.012405     -0.000275      0.362188
      6.34166      2.11389      9.00000        -0.011929     -0.026167      0.362521
      4.22777      2.11389     11.11389        -0.015078     -0.013093     -0.319045
      6.34166      0.00000     11.11389        -0.007475     -0.000335     -0.319656
      4.22777      4.22777      9.00000        -0.033853     -0.025010      0.359518
      6.34166      6.34166      9.00000        -0.082461     -0.078599      0.324854
      4.22777      6.34166     11.11389        -0.080737     -0.003214     -0.294066
      6.34166      4.22777     11.11389        -0.024714     -0.070888     -0.306659
      4.22777      8.45554      9.00000        -0.096044     -0.009025      0.377852
      6.34166     10.56943      9.00000        -0.126765      0.002106      0.337016
      4.22777     10.56943     11.11389        -0.068619      0.000197     -0.242661
      6.34166      8.45554     11.11389        -0.550412      0.021490     -0.281010
      4.22777     12.68331      9.00000        -0.094482      0.009750      0.377532
      6.34166     14.79720      9.00000        -0.080776      0.077398      0.325990
      4.22777     14.79720     11.11389        -0.078975      0.003455     -0.294648
      6.34166     12.68331     11.11389        -0.531065     -0.020435     -0.278894
      4.22777     16.91108      9.00000        -0.033224      0.024446      0.359592
      6.34166     19.02497      9.00000        -0.011777      0.025258      0.362495
      4.22777     19.02497     11.11389        -0.014890      0.012540     -0.319158
      6.34166     16.91108     11.11389        -0.024311      0.069105     -0.307118
      8.45554      0.00000      9.00000        -0.000054     -0.000435      0.362661
     10.56943      2.11389      9.00000         0.011817     -0.026175      0.362516
      8.45554      2.11389     11.11389        -0.000078     -0.031217     -0.315664
     10.56943      0.00000     11.11389         0.007366     -0.000341     -0.319674
      8.45554      4.22777      9.00000        -0.000065     -0.085971      0.362513
     10.56943      6.34166      9.00000         0.082290     -0.078711      0.324805
      8.45554      6.34166     11.11389        -0.000189     -0.491418     -0.335137
     10.56943      4.22777     11.11389         0.024541     -0.070949     -0.306716
      8.45554      8.45554      9.00000        -0.000321     -0.024249     -0.053451
     10.56943     10.56943      9.00000         0.126565      0.002124      0.337318
      8.45554     10.56943     11.11389         0.003514      0.024903     -1.418329
     10.56943      8.45554     11.11389         0.548467      0.022362     -0.279965
      8.45554     12.68331      9.00000        -0.000295      0.026049     -0.042252
     10.56943     14.79720      9.00000         0.080620      0.077487      0.325948
      8.45554     14.79720     11.11389        -0.000182      0.476951     -0.333609
     10.56943     12.68331     11.11389         0.529301     -0.021252     -0.278001
[...]
     19.02497      6.34166     11.11389        -0.000092     -0.000351      0.363622
     16.91108      6.34166      9.00000        -0.013825      0.002564     -0.407894
     19.02497      4.22777      9.00000        -0.000073      0.001670     -0.406583
     16.91108      8.45554     11.11389        -0.012425     -0.000676      0.357830
     19.02497     10.56943     11.11389        -0.000110     -0.000092      0.360670
     16.91108     10.56943      9.00000        -0.015668     -0.000139     -0.409737
     19.02497      8.45554      9.00000        -0.000094      0.000368     -0.408154
     16.91108     12.68331     11.11389        -0.012334      0.000475      0.357901
     19.02497     14.79720     11.11389        -0.000095      0.000272      0.363687
     16.91108     14.79720      9.00000        -0.013661     -0.002655     -0.407877
     19.02497     12.68331      9.00000        -0.000095     -0.000544     -0.408149
     16.91108     16.91108     11.11389        -0.009734     -0.001631      0.364709
     19.02497     19.02497     11.11389        -0.000066     -0.000468      0.367733
     16.91108     19.02497      9.00000        -0.008423     -0.002334     -0.406070
     19.02497     16.91108      9.00000        -0.000074     -0.001649     -0.406576
    total drift:                                0.006641      0.004021     -0.429063

  FREE ENERGIE OF THE ION-ELECTRON SYSTEM (eV)
  free  energy   TOTEN  =      -742.45496213 eV

  energy  without entropy=     -742.45496213  energy(sigma->0) =     -742.45496213