 vasp.6.4.0 14Feb23 (build Jul 14 2023 13:46:40) complex

 executed on             LinuxIFC date 2023.07.30  04:37:52

 INCAR:
   SYSTEM = MgO-rocksalt
   ISMEAR = 0
   SIGMA = 0.05
   EDIFF = 1E-6
   ALGO = ALL
   ISTART = 0
   IBRION = -1
   NSW = 0
   ISYM = 2
   DIPOL = 0.5 0.5 0.5
   IDIPOL = 3
   LDIPOL = .TRUE.
   METAGGA = TPSS
   ENCUT = 520
   PREC = Accurate
   LASPH = .TRUE.
   LREAL = Auto
   ISPIN = 1
   NELM = 200
   NELMIN = 8
   NCORE = 16
   KPAR = 1
   LWAVE = .FALSE.
   LCHARG = .FALSE.

 POTCAR:    PAW_PBE Ag 02Apr2005
 POTCAR:    PAW_PBE Mg_pv 13Apr2007
 POTCAR:    PAW_PBE O 08Apr2002
 POTCAR:    PAW_PBE Ag 02Apr2005
   VRHFIN =Ag : s1 d10

   TITEL  = PAW_PBE Ag 02Apr2005
   POMASS =  107.868; ZVAL   =   11.000    mass and valenz
   ENMAX  =  249.844; ENMIN  =  187.383 eV

   TITEL  = PAW_PBE Mg_pv 13Apr2007
   POMASS =   24.305; ZVAL   =    8.000    mass and valenz
   ENMAX  =  403.929; ENMIN  =  302.947 eV

   TITEL  = PAW_PBE O 08Apr2002
   POMASS =   16.000; ZVAL   =    6.000    mass and valenz
   ENMAX  =  400.000; ENMIN  =  300.000 eV

 Optimization of the real space projectors (new method)

 maximal supplied QI-value         = 15.12
 optimisation between [QCUT,QGAM] = [ 11.64, 23.28] = [ 37.95,151.78] Ry
 Optimized for a Real-space Cutoff    1.45 Angstroem

   l    n(q)    QCUT    max X(q) W(low)/X(q) W(high)/X(q)  e(spline)
   2      9    11.641    53.897    0.22E-03    0.42E-04    0.28E-06
   2      9    11.641    52.416    0.23E-03    0.44E-04    0.29E-06
   0     10    11.641   122.045    0.51E-04    0.25E-04    0.16E-06
   0     10    11.641    73.629    0.49E-04    0.24E-04    0.16E-06
   1     10    11.641    15.255    0.99E-04    0.55E-04    0.11E-06
   1     10    11.641     9.562    0.81E-04    0.47E-04    0.95E-07
 Optimization of the real space projectors (new method)

[...]

   l    n(q)    QCUT    max X(q) W(low)/X(q) W(high)/X(q)  e(spline)
   1      8    11.527     2.974    0.44E-04    0.56E-04    0.12E-06
   1      8    11.527     4.279    0.12E-03    0.12E-03    0.26E-06
   0      9    11.527    16.381    0.46E-04    0.64E-04    0.78E-07
   0      9    11.527     5.611    0.26E-04    0.43E-04    0.55E-07
   2      8    11.527     4.652    0.22E-03    0.72E-04    0.47E-07
 Optimization of the real space projectors (new method)

 maximal supplied QI-value         = 24.76
 optimisation between [QCUT,QGAM] = [ 11.64, 23.27] = [ 37.91,151.63] Ry
 Optimized for a Real-space Cutoff    1.14 Angstroem

   l    n(q)    QCUT    max X(q) W(low)/X(q) W(high)/X(q)  e(spline)
   0      8    11.635    20.381    0.10E-03    0.33E-03    0.24E-06
   0      8    11.635    15.268    0.11E-03    0.35E-03    0.26E-06
   1      7    11.635     5.964    0.24E-03    0.31E-03    0.30E-06
   1      7    11.635     5.382    0.22E-03    0.25E-03    0.26E-06
  PAW_PBE Ag 02Apr2005                  :
  PAW_PBE Mg_pv 13Apr2007               :
  PAW_PBE O 08Apr2002                   :

 POSCAR: Ag Mg  O
  positions in direct lattice

 METAGGA = TPSS                                        LMAXTAU =  6    LMIXTAU =  F

 ion  position               nearest neighbor table
   1  0.543  0.557  0.623-   2 2.59  58 2.97
   2  0.457  0.643  0.623-   1 2.59  58 2.97
   3  0.000  0.000  0.407- 105 2.11 106 2.11 121 2.11 186 2.11 103 2.11
   4  0.100  0.100  0.407- 105 2.11 106 2.11 110 2.11 125 2.11 104 2.11
   5  0.000  0.100  0.503- 103 2.11 104 2.11 107 2.11 184 2.11 105 2.11
   6  0.100  0.000  0.503- 103 2.11 104 2.11 120 2.11 123 2.11 106 2.11
   7  0.000  0.200  0.407- 109 2.11 105 2.11 110 2.11 190 2.11 107 2.11
   8  0.100  0.300  0.407- 110 2.11 109 2.11 114 2.11 129 2.11 108 2.11
   9  0.000  0.300  0.503- 107 2.11 108 2.11 111 2.11 188 2.11 109 2.11
  10  0.100  0.200  0.503- 108 2.11 107 2.11 104 2.11 127 2.11 110 2.11
  11  0.000  0.400  0.407- 109 2.11 113 2.11 114 2.11 194 2.11 111 2.11
  12  0.100  0.500  0.407- 113 2.11 114 2.11 118 2.11 133 2.11 112 2.11
  13  0.000  0.500  0.503- 111 2.11 112 2.11 115 2.11 192 2.11 113 2.11
  14  0.100  0.400  0.503- 108 2.11 111 2.11 112 2.11 131 2.11 114 2.11
  15  0.000  0.600  0.407- 113 2.11 117 2.11 118 2.11 198 2.11 115 2.11
  16  0.100  0.700  0.407- 122 2.11 118 2.11 117 2.11 137 2.11 116 2.11
  17  0.000  0.700  0.503- 119 2.11 116 2.11 115 2.11 196 2.11 117 2.11
  18  0.100  0.600  0.503- 112 2.11 115 2.11 116 2.11 135 2.11 118 2.11
  19  0.000  0.800  0.407- 117 2.11 121 2.11 122 2.11 202 2.11 119 2.11
  20  0.100  0.900  0.407- 106 2.11 121 2.11 122 2.11 141 2.11 120 2.11
  21  0.000  0.900  0.503- 103 2.11 119 2.11 120 2.11 200 2.11 121 2.11
  22  0.100  0.800  0.503- 116 2.11 119 2.11 120 2.11 139 2.11 122 2.11
  23  0.200  0.000  0.407- 126 2.11 125 2.11 106 2.11 141 2.11 123 2.11
  24  0.300  0.100  0.407- 125 2.11 126 2.11 130 2.11 145 2.11 124 2.11
  25  0.200  0.100  0.503- 124 2.11 123 2.11 104 2.11 127 2.11 125 2.11
  26  0.300  0.000  0.503- 123 2.11 124 2.11 140 2.11 143 2.11 126 2.11
  27  0.200  0.200  0.407- 129 2.11 130 2.11 110 2.11 125 2.11 127 2.11
  28  0.300  0.300  0.407- 129 2.11 130 2.11 134 2.11 149 2.11 128 2.11
  29  0.200  0.300  0.503- 127 2.11 128 2.11 108 2.11 131 2.11 129 2.11
  30  0.300  0.200  0.503- 127 2.11 128 2.11 124 2.11 147 2.11 130 2.11
  31  0.200  0.400  0.407- 134 2.11 129 2.11 133 2.11 114 2.11 131 2.11
  32  0.300  0.500  0.407- 133 2.11 134 2.11 138 2.11 153 2.11 132 2.11
  33  0.200  0.500  0.503- 132 2.11 131 2.11 112 2.11 135 2.11 133 2.11
  34  0.300  0.400  0.503- 131 2.11 128 2.11 132 2.11 151 2.11 134 2.11
  35  0.200  0.600  0.407- 138 2.11 133 2.11 137 2.11 118 2.11 135 2.11
  36  0.300  0.700  0.407- 137 2.11 142 2.11 138 2.11 157 2.11 136 2.11
  37  0.200  0.700  0.503- 136 2.11 139 2.11 116 2.11 135 2.11 137 2.11
  38  0.300  0.600  0.503- 135 2.11 132 2.11 136 2.11 155 2.11 138 2.11
  39  0.200  0.800  0.407- 137 2.11 142 2.11 141 2.11 122 2.11 139 2.11
  40  0.300  0.900  0.407- 141 2.11 126 2.11 142 2.11 161 2.11 140 2.11
  41  0.200  0.900  0.503- 140 2.11 123 2.11 139 2.11 120 2.11 141 2.11
  42  0.300  0.800  0.503- 136 2.11 139 2.11 140 2.11 159 2.11 142 2.11
  43  0.400  0.000  0.407- 126 2.11 145 2.11 146 2.11 161 2.11 143 2.11
  44  0.500  0.100  0.407- 145 2.11 146 2.11 150 2.11 165 2.11 144 2.11
  45  0.400  0.100  0.503- 124 2.11 143 2.11 144 2.11 147 2.11 145 2.11
  46  0.500  0.000  0.503- 143 2.11 144 2.11 160 2.11 163 2.11 146 2.11
  47  0.400  0.200  0.407- 149 2.11 145 2.11 130 2.11 150 2.11 147 2.11
  48  0.500  0.300  0.407- 150 2.11 149 2.11 154 2.11 169 2.11 148 2.11
  49  0.400  0.300  0.503- 147 2.11 128 2.11 148 2.11 151 2.11 149 2.11
  50  0.500  0.200  0.503- 148 2.11 147 2.11 144 2.11 167 2.11 150 2.11
  51  0.400  0.400  0.407- 134 2.11 149 2.11 153 2.11 154 2.11 151 2.11
  52  0.500  0.500  0.407- 153 2.11 154 2.11 158 2.11 173 2.11 152 2.11
  53  0.400  0.500  0.503- 132 2.11 151 2.11 152 2.11 155 2.11 153 2.11
  54  0.500  0.400  0.503- 148 2.11 151 2.11 152 2.11 171 2.11 154 2.11
  55  0.400  0.600  0.407- 138 2.11 153 2.11 157 2.11 158 2.11 155 2.11
  56  0.500  0.700  0.407- 162 2.11 158 2.11 157 2.11 177 2.11 156 2.11
  57  0.400  0.700  0.503- 159 2.11 155 2.11 156 2.11 136 2.11 157 2.11
  58  0.500  0.600  0.503- 152 2.11 155 2.11 156 2.11 175 2.11 158 2.11   2 2.97   1 2.97
  59  0.400  0.800  0.407- 157 2.11 142 2.11 161 2.11 162 2.11 159 2.11
  60  0.500  0.900  0.407- 146 2.11 161 2.11 162 2.11 181 2.11 160 2.11
[...]
 188  0.900  0.300  0.503-  90 2.11  89 2.11   9 2.11  94 2.11  88 2.11
 189  0.800  0.300  0.407-  68 2.11  87 2.11  88 2.11  91 2.11  89 2.11
 190  0.900  0.200  0.407-  88 2.11  84 2.11  87 2.11   7 2.11  90 2.11
 191  0.800  0.400  0.503-  74 2.11  89 2.11  93 2.11  94 2.11  91 2.11
 192  0.900  0.500  0.503-  13 2.11  93 2.11  94 2.11  98 2.11  92 2.11
 193  0.800  0.500  0.407-  72 2.11  91 2.11  92 2.11  95 2.11  93 2.11
 194  0.900  0.400  0.407-  11 2.11  88 2.11  91 2.11  92 2.11  94 2.11
 195  0.800  0.600  0.503-  78 2.11  93 2.11  97 2.11  98 2.11  95 2.11
 196  0.900  0.700  0.503- 102 2.11  97 2.11  98 2.11  17 2.11  96 2.11
 197  0.800  0.700  0.407-  76 2.11  99 2.11  96 2.11  95 2.11  97 2.11
 198  0.900  0.600  0.407-  15 2.11  92 2.11  95 2.11  96 2.11  98 2.11
 199  0.800  0.800  0.503-  82 2.11  97 2.11 101 2.11 102 2.11  99 2.11
 200  0.900  0.900  0.503-  21 2.11  86 2.11 101 2.11 102 2.11 100 2.11
 201  0.800  0.900  0.407-  80 2.11  83 2.11  99 2.11 100 2.11 101 2.11
 202  0.900  0.800  0.407-  96 2.11  19 2.11  99 2.11 100 2.11 102 2.11

  LATTYP: Found a simple tetragonal cell.
 ALAT       =    21.1388521970
 C/A-ratio  =     1.0461251639

  Lattice vectors:

 A1 = (  21.1388521970,   0.0000000000,   0.0000000000)
 A2 = (   0.0000000000,  21.1388521970,   0.0000000000)
 A3 = (   0.0000000000,   0.0000000000,  22.1138852197)

Analysis of symmetry for initial positions (statically):
 Subroutine PRICEL returns:
 Original cell was already a primitive cell.

 Routine SETGRP: Setting up the symmetry group for a
 simple tetragonal supercell.

 Subroutine GETGRP returns: Found  4 space group operations
 (whereof  1 operations were pure point group operations)
 out of a pool of 16 trial point group operations.

The static configuration has the point symmetry C_1 .
 The point group associated with its full space group is C_2v.

Analysis of symmetry for dynamics (positions and initial velocities):
 Subroutine PRICEL returns:
 Original cell was already a primitive cell.

 Routine SETGRP: Setting up the symmetry group for a
 simple tetragonal supercell.

 Subroutine GETGRP returns: Found  4 space group operations
 (whereof  1 operations were pure point group operations)
 out of a pool of 16 trial point group operations.

The dynamic configuration has the point symmetry C_1 .
 The point group associated with its full space group is C_2v.

 Subroutine INISYM returns: Found  4 space group operations
 (whereof  1 operations are pure point group operations),
 and found     1 'primitive' translations

                                     Primitive cell

  volume of cell :    9881.6133

  direct lattice vectors                    reciprocal lattice vectors
    21.138852197  0.000000000  0.000000000     0.047306258  0.000000000  0.000000000
     0.000000000 21.138852197  0.000000000     0.000000000  0.047306258  0.000000000
     0.000000000  0.000000000 22.113885220     0.000000000  0.000000000  0.045220457

  length of vectors
    21.138852197 21.138852197 22.113885220     0.047306258  0.047306258  0.045220457

  position of ions in fractional coordinates (direct lattice)
     0.543264150  0.556735814  0.623371474
     0.456735850  0.643264114  0.623371474
     0.000000000  0.000000000  0.406984115
     0.100000000  0.100000000  0.406984115
     0.000000000  0.100000000  0.502574971
     0.100000000  0.000000000  0.502574971
     0.000000000  0.200000000  0.406984115
     0.100000000  0.300000000  0.406984115
     0.000000000  0.300000000  0.502574971
     0.100000000  0.200000000  0.502574971
     0.000000000  0.400000000  0.406984115
     0.100000000  0.500000000  0.406984115
     0.000000000  0.500000000  0.502574971
     0.100000000  0.400000000  0.502574971
[...]
     52     -43.2889      2.00000
     53     -43.2887      2.00000
     54     -43.2885      2.00000
     55     -43.2883      2.00000
     56     -43.2869      2.00000
     57     -43.2867      2.00000
     58     -43.2867      2.00000
     59     -43.2863      2.00000
     60     -43.2857      2.00000
[...]
    850       5.3701      0.00000
    851       5.3786      0.00000
    852       5.4001      0.00000
    853       5.4448      0.00000
    854       5.4821      0.00000
    855       5.5235      0.00000
    856       5.5838      0.00000
    857       5.6075      0.00000
    858       5.6412      0.00000
    859       5.6739      0.00000
    860       5.7261      0.00000
    861       5.7855      0.00000
    862       5.8257      0.00000
    863       5.8677      0.00000
    864       6.0063      0.00000

 soft charge-density along one line, spin component           1
         0         1         2         3         4         5         6         7         8         9
 total charge-density along one line

------------------------ aborting loop because EDIFF is reached ----------------------------------------

  FORCE on cell =-STRESS in cart. coord.  units (eV):
  Direction    XX          YY          ZZ          XY          YZ          ZX
  Alpha Z  1357.53553  1357.53553  1357.53553
  Ewald  479540.84319479540.84319************  -342.47633     0.00001    -0.00001
  Hartree508368.73212508368.73212************  -247.22958     0.00000    -0.00002
  E(xc)   -8197.59289 -8197.59290 -8223.35292    -0.27385    -0.00000    -0.00000
  Local  ************************************   584.04718    -0.00001     0.00003
  n-local -8953.76087 -8953.76092 -9078.05350     0.98941     0.00002     0.00001
  augment  3961.53884  3961.53884  3906.37636     1.29740    -0.00000    -0.00000
  Kinetic 22986.72227 22986.72218 23235.25176     3.23280    -0.00001    -0.00006
  Fock        0.00000     0.00000     0.00000     0.00000     0.00000     0.00000
  Total    -166.57727  -166.57727     8.15022    -0.41296     0.00000     0.00000
  in kB     -27.00838   -27.00838     1.32145    -0.06696     0.00000     0.00000

 VOLUME and BASIS-vectors are now :
  energy-cutoff  :      520.00
  volume of cell :     9881.61
      direct lattice vectors                 reciprocal lattice vectors
    21.138852197  0.000000000  0.000000000     0.047306258  0.000000000  0.000000000
     0.000000000 21.138852197  0.000000000     0.000000000  0.047306258  0.000000000
     0.000000000  0.000000000 22.113885220     0.000000000  0.000000000  0.045220457

  length of vectors
    21.138852197 21.138852197 22.113885220     0.047306258  0.047306258  0.045220457

 FORCES acting on ions:
    Electron-Ion                     Ewald-Force                    Non-Local-Force
   -.189E+03 0.189E+03 -.207E+04   0.184E+03 -.184E+03 0.206E+04   0.509E+01 -.509E+01 0.196E+00
   0.189E+03 -.189E+03 -.207E+04   -.184E+03 0.184E+03 0.206E+04   -.509E+01 0.509E+01 0.196E+00
   0.203E+00 -.345E+01 0.932E+03   -.207E+00 0.346E+01 -.923E+03   0.307E-02 -.288E-02 -.792E+01
   0.345E+01 -.204E+00 0.932E+03   -.346E+01 0.207E+00 -.923E+03   0.288E-02 -.307E-02 -.792E+01
   -.131E-07 -.185E-03 -.924E+03   0.103E-06 -.158E-05 0.915E+03   -.121E-20 0.118E-20 0.789E+01
   0.531E+01 -.531E+01 -.923E+03   -.532E+01 0.532E+01 0.914E+03   0.686E-02 -.686E-02 0.789E+01
   -.203E+00 0.345E+01 0.932E+03   0.207E+00 -.346E+01 -.923E+03   -.307E-02 0.288E-02 -.792E+01
   0.523E+01 0.671E+01 0.934E+03   -.523E+01 -.671E+01 -.925E+03   0.932E-03 0.455E-02 -.792E+01
   -.569E+00 0.716E+01 -.922E+03   0.579E+00 -.717E+01 0.914E+03   -.768E-02 0.381E-02 0.789E+01
   0.470E+01 0.470E+01 -.923E+03   -.470E+01 -.470E+01 0.915E+03   -.683E-03 -.683E-03 0.789E+01
   -.470E+00 0.613E+01 0.935E+03   0.479E+00 -.613E+01 -.926E+03   -.767E-02 0.502E-02 -.792E+01
   0.101E+02 0.518E+01 0.938E+03   -.102E+02 -.519E+01 -.930E+03   0.106E-01 0.844E-02 -.792E+01
   -.545E+00 0.501E+01 -.920E+03   0.555E+00 -.501E+01 0.912E+03   -.729E-02 0.245E-02 0.789E+01
   0.104E+02 0.967E+01 -.920E+03   -.104E+02 -.968E+01 0.912E+03   -.241E-02 0.589E-02 0.789E+01
   0.240E-06 -.188E-03 0.937E+03   -.147E-06 0.154E-05 -.928E+03   -.109E-20 0.122E-20 -.792E+01
   0.110E+02 -.464E+01 0.938E+03   -.110E+02 0.464E+01 -.930E+03   0.278E-01 -.107E-02 -.792E+01
   0.545E+00 -.501E+01 -.920E+03   -.555E+00 0.501E+01 0.912E+03   0.729E-02 -.245E-02 0.789E+01
   0.174E+02 0.746E+00 -.917E+03   -.174E+02 -.755E+00 0.909E+03   0.166E-01 0.660E-02 0.789E+01
   0.470E+00 -.613E+01 0.935E+03   -.479E+00 0.613E+01 -.926E+03   0.767E-02 -.502E-02 -.792E+01
   0.605E+01 -.704E+01 0.934E+03   -.607E+01 0.705E+01 -.926E+03   0.125E-01 -.884E-02 -.792E+01
   0.569E+00 -.716E+01 -.922E+03   -.579E+00 0.717E+01 0.914E+03   0.768E-02 -.381E-02 0.789E+01
   0.123E+02 -.980E+01 -.919E+03   -.124E+02 0.981E+01 0.911E+03   0.223E-01 -.495E-02 0.789E+01
   0.704E+01 -.606E+01 0.934E+03   -.705E+01 0.607E+01 -.926E+03   0.884E-02 -.125E-01 -.792E+01
   0.613E+01 -.470E+00 0.935E+03   -.613E+01 0.479E+00 -.926E+03   0.502E-02 -.767E-02 -.792E+01
   0.716E+01 -.569E+00 -.922E+03   -.717E+01 0.579E+00 0.914E+03   0.381E-02 -.768E-02 0.789E+01
   0.980E+01 -.123E+02 -.919E+03   -.981E+01 0.124E+02 0.911E+03   0.495E-02 -.223E-01 0.789E+01
   0.671E+01 0.523E+01 0.934E+03   -.671E+01 -.523E+01 -.925E+03   0.455E-02 0.932E-03 -.792E+01
   0.116E+02 0.148E+02 0.940E+03   -.116E+02 -.148E+02 -.932E+03   0.150E-01 0.180E-01 -.793E+01
   0.132E+02 0.132E+02 -.919E+03   -.132E+02 -.132E+02 0.911E+03   0.228E-02 0.228E-02 0.789E+01
   0.967E+01 0.104E+02 -.920E+03   -.968E+01 -.104E+02 0.912E+03   0.589E-02 -.241E-02 0.789E+01
   0.148E+02 0.116E+02 0.940E+03   -.148E+02 -.116E+02 -.932E+03   0.180E-01 0.150E-01 -.793E+01
   0.285E+02 0.160E+02 0.961E+03   -.286E+02 -.160E+02 -.953E+03   0.940E-01 0.477E-01 -.796E+01
   0.330E+02 0.140E+02 -.910E+03   -.330E+02 -.140E+02 0.902E+03   0.135E-01 0.198E-01 0.788E+01
   0.317E+02 0.317E+02 -.906E+03   -.317E+02 -.317E+02 0.897E+03   0.169E-01 0.169E-01 0.787E+01
   0.239E+02 0.112E+01 0.948E+03   -.240E+02 -.114E+01 -.940E+03   0.590E-01 0.145E-01 -.793E+01
   0.303E+02 -.142E+02 0.965E+03   -.304E+02 0.142E+02 -.957E+03   0.561E-01 -.238E-01 -.788E+01
   0.370E+02 -.119E+02 -.908E+03   -.371E+02 0.119E+02 0.900E+03   0.720E-01 0.406E-02 0.789E+01
   0.778E+02 0.815E+01 -.871E+03   -.781E+02 -.823E+01 0.863E+03   0.189E+00 0.613E-01 0.789E+01
   0.162E+02 -.119E+02 0.942E+03   -.163E+02 0.119E+02 -.934E+03   0.326E-01 -.180E-01 -.792E+01
   0.119E+02 -.162E+02 0.942E+03   -.119E+02 0.163E+02 -.934E+03   0.180E-01 -.326E-01 -.792E+01
   0.148E+02 -.148E+02 -.918E+03   -.148E+02 0.148E+02 0.910E+03   0.187E-01 -.187E-01 0.789E+01
   0.365E+02 -.365E+02 -.900E+03   -.366E+02 0.366E+02 0.891E+03   0.561E-01 -.561E-01 0.790E+01
   0.464E+01 -.110E+02 0.938E+03   -.464E+01 0.110E+02 -.930E+03   0.107E-02 -.278E-01 -.792E+01
   0.236E-06 -.183E-03 0.937E+03   -.140E-06 -.411E-05 -.928E+03   -.118E-20 0.110E-20 -.792E+01
   0.501E+01 -.546E+00 -.920E+03   -.501E+01 0.555E+00 0.912E+03   0.245E-02 -.729E-02 0.789E+01
   -.746E+00 -.174E+02 -.917E+03   0.755E+00 0.174E+02 0.909E+03   -.660E-02 -.166E-01 0.789E+01
   0.518E+01 0.101E+02 0.938E+03   -.519E+01 -.102E+02 -.930E+03   0.844E-02 0.106E-01 -.792E+01
   0.112E+01 0.239E+02 0.948E+03   -.114E+01 -.240E+02 -.940E+03   0.145E-01 0.590E-01 -.793E+01
   0.140E+02 0.330E+02 -.910E+03   -.140E+02 -.330E+02 0.902E+03   0.198E-01 0.135E-01 0.788E+01
   0.746E+00 0.174E+02 -.917E+03   -.755E+00 -.174E+02 0.909E+03   0.660E-02 0.166E-01 0.789E+01
   0.160E+02 0.285E+02 0.961E+03   -.160E+02 -.286E+02 -.953E+03   0.477E-01 0.940E-01 -.796E+01
   0.305E+01 0.303E+02 0.100E+04   -.301E+01 -.303E+02 -.994E+03   -.346E-01 0.745E-01 -.768E+01
   0.691E+02 0.691E+02 -.838E+03   -.694E+02 -.694E+02 0.830E+03   0.203E+00 0.203E+00 0.769E+01
   0.815E+01 0.778E+02 -.871E+03   -.823E+01 -.781E+02 0.863E+03   0.613E-01 0.189E+00 0.789E+01
   0.303E+02 0.305E+01 0.100E+04   -.303E+02 -.301E+01 -.994E+03   0.745E-01 -.346E-01 -.768E+01
   -.305E+01 -.303E+02 0.100E+04   0.301E+01 0.303E+02 -.994E+03   0.346E-01 -.745E-01 -.768E+01
   0.755E+02 -.755E+02 -.796E+03   -.756E+02 0.756E+02 0.788E+03   0.661E-01 -.661E-01 0.737E+01
   -.207E-04 -.241E-03 -.667E+03   0.210E-04 0.517E-04 0.662E+03   0.559E-21 -.489E-21 0.483E+01
   0.142E+02 -.303E+02 0.965E+03   -.142E+02 0.304E+02 -.957E+03   0.238E-01 -.561E-01 -.788E+01
   -.112E+01 -.239E+02 0.948E+03   0.114E+01 0.240E+02 -.940E+03   -.145E-01 -.590E-01 -.793E+01
[...]
   -.793E+01 0.792E+01 0.704E+03   0.794E+01 -.794E+01 -.708E+03   -.193E-01 0.193E-01 0.352E+01
   -.316E+01 0.316E+01 0.701E+03   0.316E+01 -.316E+01 -.705E+03   -.729E-02 0.729E-02 0.352E+01
   -.189E+02 0.133E+02 -.686E+03   0.189E+02 -.134E+02 0.690E+03   -.382E-01 0.239E-01 -.356E+01
   -.122E+02 0.463E+01 -.689E+03   0.123E+02 -.463E+01 0.693E+03   -.206E-01 -.399E-03 -.356E+01
   -.165E+02 0.572E+01 0.711E+03   0.166E+02 -.573E+01 -.716E+03   -.514E-01 0.665E-02 0.353E+01
   -.651E+01 0.558E+01 0.704E+03   0.652E+01 -.559E+01 -.708E+03   -.194E-01 0.980E-02 0.352E+01
   -.306E+02 -.184E+01 -.681E+03   0.306E+02 0.186E+01 0.685E+03   -.408E-01 -.278E-01 -.358E+01
   -.110E+02 -.527E+01 -.690E+03   0.110E+02 0.528E+01 0.694E+03   -.632E-02 -.104E-01 -.357E+01
   -.154E+02 -.664E+01 0.710E+03   0.155E+02 0.665E+01 -.714E+03   -.258E-01 -.235E-01 0.351E+01
   -.874E+01 -.324E+00 0.706E+03   0.875E+01 0.328E+00 -.710E+03   -.173E-01 -.732E-02 0.352E+01
   -.163E+02 -.125E+02 -.688E+03   0.163E+02 0.126E+02 0.692E+03   -.779E-02 -.114E-01 -.358E+01
   -.510E+01 -.636E+01 -.693E+03   0.510E+01 0.636E+01 0.697E+03   0.129E-02 -.311E-02 -.356E+01
   -.730E+01 -.730E+01 0.703E+03   0.730E+01 0.730E+01 -.707E+03   -.839E-02 -.839E-02 0.352E+01
   -.568E+01 -.557E+01 0.703E+03   0.568E+01 0.557E+01 -.707E+03   -.339E-02 -.858E-02 0.352E+01
   -.150E-04 -.111E+00 0.826E+01   0.388E-11 -.146E-11 -.580E-11   -.685E-15 -.173E-16 -.897E+01

 POSITION                                       TOTAL-FORCE (eV/Angst)
     11.48398     11.76876     13.78517        -0.017897      0.017897      0.035171
      9.65487     13.59787     13.78517         0.017897     -0.017897      0.035171
      0.00000      0.00000      9.00000        -0.000827      0.000804      0.403178
      2.11389      2.11389      9.00000        -0.000804      0.000827      0.403178
      0.00000      2.11389     11.11389         0.000000      0.000000     -0.397851
      2.11389      0.00000     11.11389        -0.001799      0.001799     -0.397684
      0.00000      4.22777      9.00000         0.000827     -0.000804      0.403178
      2.11389      6.34166      9.00000        -0.000266     -0.001242      0.403690
      0.00000      6.34166     11.11389         0.002049     -0.000988     -0.397334
      2.11389      4.22777     11.11389         0.000258      0.000258     -0.397380
      0.00000      8.45554      9.00000         0.002029     -0.001417      0.403428
      2.11389     10.56943      9.00000        -0.002980     -0.002439      0.403962
      0.00000     10.56943     11.11389         0.001946     -0.000694     -0.396382
      2.11389      8.45554     11.11389         0.000810     -0.001543     -0.395699
      0.00000     12.68331      9.00000         0.000000      0.000000      0.403607
      2.11389     14.79720      9.00000        -0.007258      0.000340      0.403685
      0.00000     14.79720     11.11389        -0.001946      0.000694     -0.396382
      2.11389     12.68331     11.11389        -0.004110     -0.001992     -0.395287
      0.00000     16.91108      9.00000        -0.002029      0.001417      0.403428
      2.11389     19.02497      9.00000        -0.003402      0.002497      0.402989
      0.00000     19.02497     11.11389        -0.002049      0.000988     -0.397334
      2.11389     16.91108     11.11389        -0.005965      0.001473     -0.396873
      4.22777      0.00000      9.00000        -0.002497      0.003402      0.402989
      6.34166      2.11389      9.00000        -0.001417      0.002029      0.403428
      4.22777      2.11389     11.11389        -0.000988      0.002049     -0.397334
      6.34166      0.00000     11.11389        -0.001473      0.005965     -0.396873
      4.22777      4.22777      9.00000        -0.001242     -0.000266      0.403690
      6.34166      6.34166      9.00000        -0.004117     -0.004879      0.405250
      4.22777      6.34166     11.11389        -0.000416     -0.000416     -0.394935
      6.34166      4.22777     11.11389        -0.001543      0.000810     -0.395699
      4.22777      8.45554      9.00000        -0.004879     -0.004117      0.405250
      6.34166     10.56943      9.00000        -0.026567     -0.015132      0.409525
      4.22777     10.56943     11.11389        -0.002357     -0.005600     -0.390320
      6.34166      8.45554     11.11389        -0.002926     -0.002926     -0.383311
      4.22777     12.68331      9.00000        -0.016140     -0.004436      0.404837
      6.34166     14.79720      9.00000        -0.015874      0.007890      0.389869
      4.22777     14.79720     11.11389        -0.021395     -0.001178     -0.394150
      6.34166     12.68331     11.11389        -0.063927     -0.017069     -0.375555
      4.22777     16.91108      9.00000        -0.009160      0.005454      0.401998
      6.34166     19.02497      9.00000        -0.005454      0.009160      0.401998
      4.22777     19.02497     11.11389        -0.005180      0.005180     -0.397256
      6.34166     16.91108     11.11389        -0.014976      0.014976     -0.395965
      8.45554      0.00000      9.00000        -0.000340      0.007258      0.403685
     10.56943      2.11389      9.00000         0.000000      0.000000      0.403607
      8.45554      2.11389     11.11389        -0.000694      0.001946     -0.396382
     10.56943      0.00000     11.11389         0.001992      0.004110     -0.395287
      8.45554      4.22777      9.00000        -0.002439     -0.002980      0.403962
     10.56943      6.34166      9.00000        -0.004436     -0.016140      0.404837
      8.45554      6.34166     11.11389        -0.005600     -0.002357     -0.390320
     10.56943      4.22777     11.11389        -0.001992     -0.004110     -0.395287
      8.45554      8.45554      9.00000        -0.015132     -0.026567      0.409525
     10.56943     10.56943      9.00000         0.014173     -0.019666      0.329045
      8.45554     10.56943     11.11389        -0.033521     -0.033521     -0.246605
     10.56943      8.45554     11.11389        -0.017069     -0.063927     -0.375555
      8.45554     12.68331      9.00000        -0.019666      0.014173      0.329045
     10.56943     14.79720      9.00000        -0.014173      0.019666      0.329045
      8.45554     14.79720     11.11389        -0.072411      0.072411     -0.472548
     10.56943     12.68331     11.11389         0.000000      0.000000     -0.078500
      8.45554     16.91108      9.00000        -0.007890      0.015874      0.389869
     10.56943     19.02497      9.00000         0.004436      0.016140      0.404837
[...]
     19.02497      6.34166     11.11389        -0.003835      0.002892      0.510347
     16.91108      6.34166      9.00000        -0.005389      0.005389     -0.516012
     19.02497      4.22777      9.00000        -0.002065      0.002065     -0.516495
     16.91108      8.45554     11.11389        -0.010955      0.006892      0.510068
     19.02497     10.56943     11.11389        -0.005791     -0.000097      0.508849
     16.91108     10.56943      9.00000        -0.015053      0.002005     -0.513487
     19.02497      8.45554      9.00000        -0.005428      0.002753     -0.516435
     16.91108     12.68331     11.11389        -0.012084     -0.007819      0.504113
     19.02497     14.79720     11.11389        -0.001813     -0.002922      0.507780
     16.91108     14.79720      9.00000        -0.007702     -0.006765     -0.519714
     19.02497     12.68331      9.00000        -0.004866     -0.002028     -0.517215
     16.91108     16.91108     11.11389        -0.002427     -0.003311      0.504939
     19.02497     19.02497     11.11389         0.000347     -0.000910      0.509493
     16.91108     19.02497      9.00000        -0.002389     -0.002389     -0.517837
     19.02497     16.91108      9.00000        -0.000948     -0.002444     -0.517450
    total drift:                               -0.000015     -0.110734     -0.717570

  FREE ENERGIE OF THE ION-ELECTRON SYSTEM (eV)
  free  energy   TOTEN  =     -1777.04936397 eV

  energy  without entropy=    -1777.04936397  energy(sigma->0) =    -1777.04936397