 vasp.6.3.0 20Jan22 (build Apr  1 2022 16:44:48) complex
 executed on        HPECrayEX_GCC date 2023.01.09  19:51:31

 INCAR:
   SYSTEM = MgO-rocksalt
   ISMEAR = 0
   SIGMA = 0.05
   EDIFF = 1E-6
   ALGO = ALL
   ISTART = 0
   IBRION = -1
   NSW = 0
   ISYM = 2
   DIPOL = 0.5 0.5 0.5
   IDIPOL = 3
   LDIPOL = .TRUE.
   GGA = RE
   IVDW = 21
   VDW_SR = 0.6
   ENCUT = 520
   PREC = Accurate
   LASPH = .TRUE.
   LREAL = Auto
   ISPIN = 1
   NELM = 200
   NELMIN = 8
   NCORE = 4
   KPAR = 2
   LWAVE = .FALSE.
   LCHARG = .FALSE.

 POTCAR:    PAW_PBE Ag 02Apr2005
 POTCAR:    PAW_PBE Mg_pv 13Apr2007
 POTCAR:    PAW_PBE O 08Apr2002
 POTCAR:    PAW_PBE Ag 02Apr2005
   VRHFIN =Ag : s1 d10

   TITEL  = PAW_PBE Ag 02Apr2005
   POMASS =  107.868; ZVAL   =   11.000    mass and valenz
   ENMAX  =  249.844; ENMIN  =  187.383 eV

   TITEL  = PAW_PBE Mg_pv 13Apr2007
   POMASS =   24.305; ZVAL   =    8.000    mass and valenz
   ENMAX  =  403.929; ENMIN  =  302.947 eV

   TITEL  = PAW_PBE O 08Apr2002
   POMASS =   16.000; ZVAL   =    6.000    mass and valenz
   ENMAX  =  400.000; ENMIN  =  300.000 eV

 Optimization of the real space projectors (new method)

 maximal supplied QI-value         = 15.12
 optimisation between [QCUT,QGAM] = [ 11.64, 23.28] = [ 37.95,151.78] Ry
 Optimized for a Real-space Cutoff    1.45 Angstroem

   l    n(q)    QCUT    max X(q) W(low)/X(q) W(high)/X(q)  e(spline)
   2      9    11.641    53.897    0.22E-03    0.42E-04    0.28E-06
   2      9    11.641    52.416    0.23E-03    0.44E-04    0.29E-06
   0     10    11.641   122.045    0.51E-04    0.25E-04    0.16E-06
   0     10    11.641    73.629    0.49E-04    0.24E-04    0.16E-06
   1     10    11.641    15.255    0.99E-04    0.55E-04    0.11E-06
   1     10    11.641     9.562    0.81E-04    0.47E-04    0.95E-07
 Optimization of the real space projectors (new method)

[...]

   l    n(q)    QCUT    max X(q) W(low)/X(q) W(high)/X(q)  e(spline)
   1      8    11.527     2.974    0.44E-04    0.56E-04    0.12E-06
   1      8    11.527     4.279    0.12E-03    0.12E-03    0.26E-06
   0      9    11.527    16.381    0.46E-04    0.64E-04    0.78E-07
   0      9    11.527     5.611    0.26E-04    0.43E-04    0.55E-07
   2      8    11.527     4.652    0.22E-03    0.72E-04    0.47E-07
 Optimization of the real space projectors (new method)

 maximal supplied QI-value         = 24.76
 optimisation between [QCUT,QGAM] = [ 11.64, 23.27] = [ 37.91,151.63] Ry
 Optimized for a Real-space Cutoff    1.14 Angstroem

   l    n(q)    QCUT    max X(q) W(low)/X(q) W(high)/X(q)  e(spline)
   0      8    11.635    20.381    0.10E-03    0.33E-03    0.24E-06
   0      8    11.635    15.268    0.11E-03    0.35E-03    0.26E-06
   1      7    11.635     5.964    0.24E-03    0.31E-03    0.30E-06
   1      7    11.635     5.382    0.22E-03    0.25E-03    0.26E-06
|               ----> ADVICE to this user running VASP <----                  |
|     You enforced a specific xc type in the INCAR file but a different       |
|     type was found in the POTCAR file.                                      |
|     I HOPE YOU KNOW WHAT YOU ARE DOING!                                     |

  PAW_PBE Ag 02Apr2005                  :
  PAW_PBE Mg_pv 13Apr2007               :
  PAW_PBE O 08Apr2002                   :

 POSCAR: Ag Mg  O
  positions in direct lattice
  velocities in cartesian coordinates
 exchange correlation table for  LEXCH =       40
   RHO(1)=    0.500       N(1)  =     2000
   RHO(2)=  100.500       N(2)  =     4000

 ion  position               nearest neighbor table
   1  0.400  0.429  0.610- 153 2.46   2 2.60  55 2.82   4 3.42
   2  0.400  0.512  0.697-   1 2.60   4 2.64   3 2.77
   3  0.401  0.641  0.713-   4 2.63   2 2.77
   4  0.400  0.590  0.604- 157 2.26   3 2.63   2 2.64  55 2.95   1 3.42
   5  0.000  0.000  0.407- 107 2.11 108 2.11 123 2.11 188 2.11 105 2.11
   6  0.100  0.100  0.407- 107 2.11 108 2.11 112 2.11 127 2.11 106 2.11
   7  0.000  0.100  0.503- 105 2.11 106 2.11 109 2.11 186 2.11 107 2.11
   8  0.100  0.000  0.503- 105 2.11 106 2.11 122 2.11 125 2.11 108 2.11
   9  0.000  0.200  0.407- 111 2.11 107 2.11 112 2.11 192 2.11 109 2.11
  10  0.100  0.300  0.407- 112 2.11 111 2.11 116 2.11 131 2.11 110 2.11
  11  0.000  0.300  0.503- 109 2.11 110 2.11 113 2.11 190 2.11 111 2.11
  12  0.100  0.200  0.503- 110 2.11 109 2.11 106 2.11 129 2.11 112 2.11
  13  0.000  0.400  0.407- 111 2.11 115 2.11 116 2.11 196 2.11 113 2.11
  14  0.100  0.500  0.407- 115 2.11 116 2.11 120 2.11 135 2.11 114 2.11
  15  0.000  0.500  0.503- 113 2.11 114 2.11 117 2.11 194 2.11 115 2.11
  16  0.100  0.400  0.503- 110 2.11 113 2.11 114 2.11 133 2.11 116 2.11
  17  0.000  0.600  0.407- 115 2.11 119 2.11 120 2.11 200 2.11 117 2.11
  18  0.100  0.700  0.407- 124 2.11 120 2.11 119 2.11 139 2.11 118 2.11
  19  0.000  0.700  0.503- 121 2.11 118 2.11 117 2.11 198 2.11 119 2.11
  20  0.100  0.600  0.503- 114 2.11 117 2.11 118 2.11 137 2.11 120 2.11
  21  0.000  0.800  0.407- 119 2.11 123 2.11 124 2.11 204 2.11 121 2.11
  22  0.100  0.900  0.407- 108 2.11 123 2.11 124 2.11 143 2.11 122 2.11
  23  0.000  0.900  0.503- 105 2.11 121 2.11 122 2.11 202 2.11 123 2.11
  24  0.100  0.800  0.503- 118 2.11 121 2.11 122 2.11 141 2.11 124 2.11
  25  0.200  0.000  0.407- 128 2.11 127 2.11 108 2.11 143 2.11 125 2.11
  26  0.300  0.100  0.407- 127 2.11 128 2.11 132 2.11 147 2.11 126 2.11
  27  0.200  0.100  0.503- 126 2.11 125 2.11 106 2.11 129 2.11 127 2.11
  28  0.300  0.000  0.503- 125 2.11 126 2.11 142 2.11 145 2.11 128 2.11
  29  0.200  0.200  0.407- 131 2.11 132 2.11 112 2.11 127 2.11 129 2.11
  30  0.300  0.300  0.407- 131 2.11 132 2.11 136 2.11 151 2.11 130 2.11
  31  0.200  0.300  0.503- 129 2.11 130 2.11 110 2.11 133 2.11 131 2.11
  32  0.300  0.200  0.503- 129 2.11 130 2.11 126 2.11 149 2.11 132 2.11
  33  0.200  0.400  0.407- 136 2.11 131 2.11 135 2.11 116 2.11 133 2.11
  34  0.300  0.500  0.407- 135 2.11 136 2.11 140 2.11 155 2.11 134 2.11
  35  0.200  0.500  0.503- 134 2.11 133 2.11 114 2.11 137 2.11 135 2.11
  36  0.300  0.400  0.503- 133 2.11 130 2.11 134 2.11 153 2.11 136 2.11
  37  0.200  0.600  0.407- 140 2.11 135 2.11 139 2.11 120 2.11 137 2.11
  38  0.300  0.700  0.407- 139 2.11 144 2.11 140 2.11 159 2.11 138 2.11
  39  0.200  0.700  0.503- 138 2.11 141 2.11 118 2.11 137 2.11 139 2.11
  40  0.300  0.600  0.503- 137 2.11 134 2.11 138 2.11 157 2.11 140 2.11
  41  0.200  0.800  0.407- 139 2.11 144 2.11 143 2.11 124 2.11 141 2.11
  42  0.300  0.900  0.407- 143 2.11 128 2.11 144 2.11 163 2.11 142 2.11
  43  0.200  0.900  0.503- 142 2.11 125 2.11 141 2.11 122 2.11 143 2.11
  44  0.300  0.800  0.503- 138 2.11 141 2.11 142 2.11 161 2.11 144 2.11
  45  0.400  0.000  0.407- 128 2.11 147 2.11 148 2.11 163 2.11 145 2.11
  46  0.500  0.100  0.407- 147 2.11 148 2.11 152 2.11 167 2.11 146 2.11
  47  0.400  0.100  0.503- 126 2.11 145 2.11 146 2.11 149 2.11 147 2.11
  48  0.500  0.000  0.503- 145 2.11 146 2.11 162 2.11 165 2.11 148 2.11
  49  0.400  0.200  0.407- 151 2.11 147 2.11 132 2.11 152 2.11 149 2.11
  50  0.500  0.300  0.407- 152 2.11 151 2.11 156 2.11 171 2.11 150 2.11
  51  0.400  0.300  0.503- 149 2.11 130 2.11 150 2.11 153 2.11 151 2.11
  52  0.500  0.200  0.503- 150 2.11 149 2.11 146 2.11 169 2.11 152 2.11
  53  0.400  0.400  0.407- 136 2.11 151 2.11 155 2.11 156 2.11 153 2.11
  54  0.500  0.500  0.407- 155 2.11 156 2.11 160 2.11 175 2.11 154 2.11
  55  0.400  0.500  0.503- 134 2.11 153 2.11 154 2.11 157 2.11 155 2.11   1 2.82   4 2.95
  56  0.500  0.400  0.503- 150 2.11 153 2.11 154 2.11 173 2.11 156 2.11
  57  0.400  0.600  0.407- 140 2.11 155 2.11 159 2.11 160 2.11 157 2.11
  58  0.500  0.700  0.407- 164 2.11 160 2.11 159 2.11 179 2.11 158 2.11
  59  0.400  0.700  0.503- 161 2.11 157 2.11 158 2.11 138 2.11 159 2.11
  60  0.500  0.600  0.503- 154 2.11 157 2.11 158 2.11 177 2.11 160 2.11
[...]
 190  0.900  0.300  0.503-  92 2.11  91 2.11  11 2.11  96 2.11  90 2.11
 191  0.800  0.300  0.407-  70 2.11  89 2.11  90 2.11  93 2.11  91 2.11
 192  0.900  0.200  0.407-  90 2.11  86 2.11  89 2.11   9 2.11  92 2.11
 193  0.800  0.400  0.503-  76 2.11  91 2.11  95 2.11  96 2.11  93 2.11
 194  0.900  0.500  0.503-  15 2.11  95 2.11  96 2.11 100 2.11  94 2.11
 195  0.800  0.500  0.407-  74 2.11  93 2.11  94 2.11  97 2.11  95 2.11
 196  0.900  0.400  0.407-  13 2.11  90 2.11  93 2.11  94 2.11  96 2.11
 197  0.800  0.600  0.503-  80 2.11  95 2.11  99 2.11 100 2.11  97 2.11
 198  0.900  0.700  0.503- 104 2.11  99 2.11 100 2.11  19 2.11  98 2.11
 199  0.800  0.700  0.407-  78 2.11 101 2.11  98 2.11  97 2.11  99 2.11
 200  0.900  0.600  0.407-  17 2.11  94 2.11  97 2.11  98 2.11 100 2.11
 201  0.800  0.800  0.503-  84 2.11  99 2.11 103 2.11 104 2.11 101 2.11
 202  0.900  0.900  0.503-  23 2.11  88 2.11 103 2.11 104 2.11 102 2.11
 203  0.800  0.900  0.407-  82 2.11  85 2.11 101 2.11 102 2.11 103 2.11
 204  0.900  0.800  0.407-  98 2.11  21 2.11 101 2.11 102 2.11 104 2.11

  LATTYP: Found a simple tetragonal cell.
 ALAT       =    21.1388521970
 C/A-ratio  =     1.0461251639

  Lattice vectors:

 A1 = (  21.1388521970,   0.0000000000,   0.0000000000)
 A2 = (   0.0000000000,  21.1388521970,   0.0000000000)
 A3 = (   0.0000000000,   0.0000000000,  22.1138852197)

Analysis of symmetry for initial positions (statically):
 Subroutine PRICEL returns:
 Original cell was already a primitive cell.

 Routine SETGRP: Setting up the symmetry group for a
 simple tetragonal supercell.

 Subroutine GETGRP returns: Found  1 space group operations
 (whereof  1 operations were pure point group operations)
 out of a pool of 16 trial point group operations.

The static configuration has the point symmetry C_1 .

Analysis of symmetry for dynamics (positions and initial velocities):
 Subroutine PRICEL returns:
 Original cell was already a primitive cell.

[...]

The dynamic configuration has the point symmetry C_1 .

Analysis of constrained symmetry for selective dynamics:
 Subroutine PRICEL returns:
 Original cell was already a primitive cell.

 Routine SETGRP: Setting up the symmetry group for a
 simple tetragonal supercell.

 Subroutine GETGRP returns: Found  1 space group operations
 (whereof  1 operations were pure point group operations)
 out of a pool of 16 trial point group operations.

The constrained configuration has the point symmetry C_1 .

 Subroutine INISYM returns: Found  1 space group operations
 (whereof  1 operations are pure point group operations),
 and found     1 'primitive' translations

                                     Primitive cell

  volume of cell :    9881.6133

  direct lattice vectors                    reciprocal lattice vectors
    21.138852197  0.000000000  0.000000000     0.047306258  0.000000000  0.000000000
     0.000000000 21.138852197  0.000000000     0.000000000  0.047306258  0.000000000
     0.000000000  0.000000000 22.113885220     0.000000000  0.000000000  0.045220457

  length of vectors
    21.138852197 21.138852197 22.113885220     0.047306258  0.047306258  0.045220457

  position of ions in fractional coordinates (direct lattice)
     0.400075541  0.428539559  0.610367047
     0.400239325  0.511504721  0.697317580
     0.400574317  0.641329452  0.712924298
[...]
   O         168.150          4.747         17.729          3.28310207
   O         168.132          4.746         17.728          3.28293292
   O         167.107          4.742         17.674          3.27291064
   O         167.285          4.742         17.683          3.27465094
   O         168.125          4.746         17.727          3.28286367
   O         168.133          4.746         17.728          3.28293437
   O         167.280          4.742         17.683          3.27459621
   O         167.397          4.743         17.689          3.27574851
   O         168.106          4.746         17.726          3.28267289
   O         168.114          4.746         17.727          3.28275750

  vdW correction parametrized for the method         

  IVDW =  21
  VDW_RADIUS =    50.000 A
  VDW_IDAMPF =  0
  VDW_S6 =     1.000
  VDW_SR =     0.600
  VDW_D =    20.000
  LVDW_ONECELL = F F F
  LVDW_SAMETYPE T T T
  LVDW_EWALD = F

  Number of pair interactions contributing to vdW energy: 1118581
  Edisp (eV):  -69.08676

  FORCE on cell =-STRESS in cart. coord.  units (eV):
  Direction    XX          YY          ZZ          XY          YZ          ZX
  Alpha Z  1401.13727  1401.13727  1401.13727
  Ewald  477666.07547479799.93693************     3.84227   439.22239     3.11972
  Hartree507327.43415509065.06788************     3.08727   356.29374     2.36384
  E(xc)   -7909.88258 -7907.77974 -7956.51236     0.00415     0.54284     0.00493
  Local  ************************************    -6.91169  -794.02754    -5.45269
  n-local -8743.79903 -8744.92570 -8869.26694    -0.00038    -0.09740    -0.00797
  augment  3648.41299  3645.80878  3586.51216    -0.00561    -0.46213    -0.00520
  Kinetic 23254.95572 23248.14033 23487.97342    -0.01142    -1.11715    -0.02550
  Fock        0.00000     0.00000     0.00000     0.00000     0.00000     0.00000
  vdW         4.02343     0.16945    13.86737    -0.00755     0.12023    -0.00224
  Total     -98.24631  -101.37137    56.44499    -0.00297     0.47497    -0.00511
  in kB     -15.92938   -16.43607     9.15183    -0.00048     0.07701    -0.00083

 VOLUME and BASIS-vectors are now :
  energy-cutoff  :      520.00
  volume of cell :     9881.61
      direct lattice vectors                 reciprocal lattice vectors
    21.138852197  0.000000000  0.000000000     0.047306258  0.000000000  0.000000000
     0.000000000 21.138852197  0.000000000     0.000000000  0.047306258  0.000000000
     0.000000000  0.000000000 22.113885220     0.000000000  0.000000000  0.045220457

  length of vectors
    21.138852197 21.138852197 22.113885220     0.047306258  0.047306258  0.045220457

 FORCES acting on ions:
    Electron-Ion                     Ewald-Force                    Non-Local-Force
   0.593E+00 0.381E+03 -.193E+04   -.587E+00 -.376E+03 0.193E+04   -.599E-02 -.442E+01 -.402E+01
   0.161E+00 0.207E+03 -.197E+04   -.167E+00 -.207E+03 0.196E+04   0.660E-02 0.187E+00 0.670E+01
   -.148E+01 -.388E+03 -.180E+04   0.146E+01 0.384E+03 0.179E+04   0.256E-01 0.468E+01 0.498E+01
   0.687E+00 -.198E+03 -.175E+04   -.677E+00 0.199E+03 0.176E+04   -.121E-01 -.423E+00 -.394E+01
   0.711E+01 -.266E+01 0.936E+03   -.712E+01 0.267E+01 -.929E+03   0.120E-01 -.622E-02 -.754E+01
   0.128E+02 0.613E+01 0.939E+03   -.128E+02 -.614E+01 -.932E+03   0.237E-01 0.865E-02 -.755E+01
   0.932E+01 0.530E+01 -.918E+03   -.933E+01 -.530E+01 0.910E+03   0.963E-02 -.944E-03 0.748E+01
   0.155E+02 -.503E+01 -.915E+03   -.155E+02 0.504E+01 0.908E+03   0.126E-01 -.827E-02 0.747E+01
   0.955E+01 0.983E+01 0.938E+03   -.957E+01 -.985E+01 -.931E+03   0.207E-01 0.879E-02 -.755E+01
   0.248E+02 0.182E+02 0.950E+03   -.249E+02 -.183E+02 -.942E+03   0.790E-01 0.294E-01 -.757E+01
   0.181E+02 0.157E+02 -.913E+03   -.181E+02 -.157E+02 0.905E+03   0.163E-01 0.588E-02 0.747E+01
   0.235E+02 0.199E+02 -.912E+03   -.235E+02 -.199E+02 0.904E+03   0.327E-01 0.694E-02 0.747E+01
   0.168E+02 0.959E+01 0.945E+03   -.169E+02 -.960E+01 -.937E+03   0.428E-01 0.127E-01 -.756E+01
   0.383E+02 0.457E+01 0.961E+03   -.385E+02 -.459E+01 -.954E+03   0.149E+00 0.177E-01 -.759E+01
   0.281E+02 0.417E+01 -.907E+03   -.281E+02 -.417E+01 0.900E+03   0.267E-01 0.675E-02 0.746E+01
   0.527E+02 0.223E+02 -.897E+03   -.527E+02 -.223E+02 0.889E+03   0.487E-01 0.141E-01 0.745E+01
   0.186E+02 -.489E+01 0.947E+03   -.186E+02 0.489E+01 -.939E+03   0.574E-01 -.707E-03 -.756E+01
   0.302E+02 -.166E+02 0.955E+03   -.304E+02 0.166E+02 -.947E+03   0.124E+00 -.278E-01 -.757E+01
   0.226E+02 -.139E+02 -.910E+03   -.226E+02 0.140E+02 0.902E+03   0.298E-01 -.350E-02 0.747E+01
   0.607E+02 -.119E+02 -.891E+03   -.608E+02 0.119E+02 0.884E+03   0.997E-01 0.555E-02 0.744E+01
   0.118E+02 -.119E+02 0.941E+03   -.118E+02 0.119E+02 -.933E+03   0.319E-01 -.146E-01 -.755E+01
   0.152E+02 -.124E+02 0.942E+03   -.152E+02 0.124E+02 -.934E+03   0.328E-01 -.281E-01 -.755E+01
   0.114E+02 -.112E+02 -.916E+03   -.114E+02 0.112E+02 0.908E+03   0.135E-01 -.819E-02 0.747E+01
   0.319E+02 -.252E+02 -.906E+03   -.319E+02 0.253E+02 0.898E+03   0.525E-01 -.182E-01 0.746E+01
   0.130E+02 -.503E+01 0.943E+03   -.130E+02 0.505E+01 -.935E+03   0.201E-01 -.159E-01 -.755E+01
   0.925E+01 0.123E+02 0.947E+03   -.927E+01 -.124E+02 -.940E+03   0.176E-01 0.515E-01 -.756E+01
   0.184E+02 0.130E+02 -.911E+03   -.184E+02 -.130E+02 0.904E+03   0.170E-01 0.184E-01 0.747E+01
   0.114E+02 -.101E+02 -.908E+03   -.114E+02 0.101E+02 0.900E+03   0.731E-02 -.796E-02 0.747E+01
   0.199E+02 0.221E+02 0.951E+03   -.200E+02 -.222E+02 -.943E+03   0.606E-01 0.613E-01 -.756E+01
   0.251E+02 0.442E+02 0.984E+03   -.254E+02 -.445E+02 -.976E+03   0.154E+00 0.221E+00 -.757E+01
   0.539E+02 0.495E+02 -.887E+03   -.541E+02 -.495E+02 0.879E+03   0.143E+00 0.150E-01 0.743E+01
   0.231E+02 0.522E+02 -.894E+03   -.231E+02 -.523E+02 0.886E+03   0.244E-01 0.133E+00 0.745E+01
   0.454E+02 0.249E+02 0.981E+03   -.457E+02 -.250E+02 -.973E+03   0.275E+00 0.814E-01 -.766E+01
   0.487E+02 0.112E+02 0.104E+04   -.492E+02 -.113E+02 -.103E+04   0.365E+00 0.116E+00 -.762E+01
   0.110E+03 0.140E+02 -.846E+03   -.111E+03 -.141E+02 0.838E+03   0.280E+00 0.427E-01 0.738E+01
   0.119E+03 0.916E+02 -.770E+03   -.120E+03 -.917E+02 0.763E+03   0.103E+01 0.144E+00 0.699E+01
   0.514E+02 -.143E+02 0.989E+03   -.519E+02 0.144E+02 -.981E+03   0.403E+00 -.261E-01 -.767E+01
   0.327E+02 -.435E+02 0.100E+04   -.330E+02 0.439E+02 -.996E+03   0.260E+00 -.284E+00 -.755E+01
   0.739E+02 -.493E+02 -.868E+03   -.742E+02 0.493E+02 0.861E+03   0.260E+00 -.292E-01 0.742E+01
   0.146E+03 -.566E+02 -.728E+03   -.149E+03 0.566E+02 0.720E+03   0.196E+01 -.450E-01 0.726E+01
   0.261E+02 -.276E+02 0.959E+03   -.262E+02 0.278E+02 -.951E+03   0.962E-01 -.100E+00 -.757E+01
   0.116E+02 -.244E+02 0.954E+03   -.116E+02 0.245E+02 -.946E+03   0.220E-01 -.110E+00 -.758E+01
   0.242E+02 -.275E+02 -.906E+03   -.242E+02 0.276E+02 0.898E+03   0.150E-01 -.482E-01 0.746E+01
   0.359E+02 -.731E+02 -.870E+03   -.359E+02 0.734E+02 0.863E+03   -.470E-03 -.266E+00 0.741E+01
   0.249E-01 -.703E+01 0.948E+03   -.247E-01 0.705E+01 -.940E+03   -.112E-03 -.209E-01 -.756E+01
   -.921E+01 0.123E+02 0.947E+03   0.924E+01 -.124E+02 -.940E+03   -.178E-01 0.514E-01 -.756E+01
   0.304E-01 0.213E+02 -.906E+03   -.303E-01 -.214E+02 0.898E+03   -.107E-03 0.460E-01 0.746E+01
   -.114E+02 -.102E+02 -.908E+03   0.114E+02 0.102E+02 0.900E+03   -.750E-02 -.782E-02 0.747E+01
   0.300E-01 0.351E+02 0.963E+03   -.299E-01 -.354E+02 -.955E+03   -.121E-03 0.228E+00 -.760E+01
   -.251E+02 0.443E+02 0.984E+03   0.253E+02 -.446E+02 -.976E+03   -.155E+00 0.221E+00 -.757E+01
   0.107E+00 0.125E+03 -.825E+03   -.107E+00 -.126E+03 0.817E+03   -.369E-03 0.107E+01 0.742E+01
   -.230E+02 0.522E+02 -.894E+03   0.230E+02 -.524E+02 0.886E+03   -.247E-01 0.132E+00 0.745E+01
   0.862E-01 0.466E+02 0.104E+04   -.858E-01 -.471E+02 -.103E+04   -.288E-03 0.332E+00 -.640E+01
   -.486E+02 0.112E+02 0.104E+04   0.490E+02 -.114E+02 -.103E+04   -.366E+00 0.115E+00 -.762E+01
   0.463E+00 0.320E+02 -.582E+03   -.463E+00 -.334E+02 0.577E+03   -.775E-03 0.109E+01 0.511E+01
   -.118E+03 0.918E+02 -.769E+03   0.120E+03 -.919E+02 0.762E+03   -.103E+01 0.144E+00 0.699E+01
   0.139E+00 -.290E+02 0.106E+04   -.137E+00 0.291E+02 -.106E+04   -.109E-02 -.136E+00 -.532E+01
   -.326E+02 -.436E+02 0.100E+04   0.329E+02 0.440E+02 -.996E+03   -.260E+00 -.284E+00 -.755E+01
   0.331E+00 -.146E+03 -.755E+03   -.328E+00 0.148E+03 0.748E+03   -.172E-02 -.194E+01 0.712E+01
   -.146E+03 -.567E+02 -.727E+03   0.149E+03 0.567E+02 0.719E+03   -.196E+01 -.463E-01 0.726E+01
[...]
   -.986E+01 0.905E+01 0.708E+03   0.988E+01 -.906E+01 -.712E+03   -.269E-01 0.157E-01 0.342E+01
   -.162E-01 0.628E+01 0.704E+03   0.161E-01 -.628E+01 -.708E+03   0.105E-03 0.715E-02 0.343E+01
   -.183E+02 0.959E+01 -.684E+03   0.183E+02 -.960E+01 0.688E+03   -.233E-01 0.106E-01 -.356E+01
   -.495E-01 0.250E+01 -.685E+03   0.493E-01 -.250E+01 0.689E+03   0.268E-03 0.664E-02 -.355E+01
   -.144E+02 0.228E+01 0.712E+03   0.144E+02 -.228E+01 -.716E+03   -.418E-01 0.109E-01 0.341E+01
   -.283E-01 0.600E+01 0.708E+03   0.281E-01 -.601E+01 -.712E+03   0.193E-03 0.111E-01 0.342E+01
   -.207E+02 -.480E+01 -.682E+03   0.207E+02 0.480E+01 0.686E+03   -.316E-01 0.269E-02 -.356E+01
   -.472E-01 -.830E+01 -.686E+03   0.470E-01 0.830E+01 0.690E+03   0.279E-03 -.401E-02 -.354E+01
   -.118E+02 -.796E+01 0.710E+03   0.118E+02 0.797E+01 -.714E+03   -.391E-01 -.140E-01 0.342E+01
   -.356E-01 -.299E+01 0.709E+03   0.354E-01 0.299E+01 -.713E+03   0.259E-03 -.482E-04 0.342E+01
   -.123E+02 -.116E+02 -.686E+03   0.123E+02 0.116E+02 0.691E+03   -.221E-01 -.126E-01 -.354E+01
   -.260E-01 -.701E+01 -.690E+03   0.259E-01 0.702E+01 0.694E+03   0.167E-03 -.829E-02 -.353E+01
   -.654E+01 -.655E+01 0.705E+03   0.655E+01 0.656E+01 -.709E+03   -.192E-01 -.159E-01 0.343E+01
   -.259E-01 -.754E+01 0.706E+03   0.257E-01 0.755E+01 -.710E+03   0.199E-03 -.125E-01 0.343E+01
   -.258E-01 -.994E-01 0.183E+01   0.702E-12 0.682E-12 0.200E-10   0.299E-01 0.104E+00 -.249E+01

 POSITION                                       TOTAL-FORCE (eV/Angst)
      8.45714      9.05883     13.49759         0.000159      0.323306      0.110697
      8.46060     10.81262     15.42040         0.002644      0.898529     -0.300296
      8.46768     13.55697     15.76553        -0.001037     -0.683892     -0.383442
      8.45984     12.47141     13.36585         0.001348     -0.430477      0.889685
      0.00000      0.00000      9.00000        -0.003292      0.001670      0.302444
      2.11389      2.11389      9.00000        -0.006554     -0.002480      0.303474
      0.00000      2.11389     11.11389        -0.002349      0.000325     -0.278883
      2.11389      0.00000     11.11389        -0.003164      0.001970     -0.277349
      0.00000      4.22777      9.00000        -0.005480     -0.002470      0.303541
      2.11389      6.34166      9.00000        -0.020597     -0.008079      0.308895
      0.00000      6.34166     11.11389        -0.003302     -0.001171     -0.275106
      2.11389      4.22777     11.11389        -0.007374     -0.001209     -0.273473
      0.00000      8.45554      9.00000        -0.011395     -0.003558      0.306049
      2.11389     10.56943      9.00000        -0.038785     -0.005194      0.314451
      0.00000     10.56943     11.11389        -0.004839     -0.001887     -0.271619
      2.11389      8.45554     11.11389        -0.009496     -0.002694     -0.259982
      0.00000     12.68331      9.00000        -0.014902      0.000154      0.306647
      2.11389     14.79720      9.00000        -0.031963      0.007981      0.310355
      0.00000     14.79720     11.11389        -0.006390      0.000608     -0.273810
      2.11389     12.68331     11.11389        -0.021884     -0.002311     -0.258306
      0.00000     16.91108      9.00000        -0.008425      0.004093      0.304092
      2.11389     19.02497      9.00000        -0.009070      0.007699      0.303997
      0.00000     19.02497     11.11389        -0.003214      0.002010     -0.278111
      2.11389     16.91108     11.11389        -0.011539      0.004147     -0.270246
      4.22777      0.00000      9.00000        -0.005641      0.004106      0.304927
      6.34166      2.11389      9.00000        -0.005161     -0.013411      0.306868
      4.22777      2.11389     11.11389        -0.004275     -0.003906     -0.273725
      6.34166      0.00000     11.11389        -0.001706      0.001338     -0.272046
      4.22777      4.22777      9.00000        -0.017010     -0.017096      0.306485
      6.34166      6.34166      9.00000        -0.050908     -0.066248      0.294608
      4.22777      6.34166     11.11389        -0.036313     -0.000084     -0.244939
      6.34166      4.22777     11.11389        -0.007436     -0.035569     -0.256631
      4.22777      8.45554      9.00000        -0.069912     -0.022073      0.326297
      6.34166     10.56943      9.00000        -0.119869     -0.037344      0.264750
      4.22777     10.56943     11.11389        -0.082654     -0.014561     -0.204167
      6.34166      8.45554     11.11389        -0.362595     -0.032951     -0.129628
      4.22777     12.68331      9.00000        -0.098954      0.006608      0.327631
      6.34166     14.79720      9.00000        -0.084394      0.090520      0.273443
      4.22777     14.79720     11.11389        -0.071580      0.007119     -0.234120
      6.34166     12.68331     11.11389        -0.709694      0.021567     -0.292483
      4.22777     16.91108      9.00000        -0.027057      0.027912      0.308200
      6.34166     19.02497      9.00000        -0.006209      0.028010      0.311303
      4.22777     19.02497     11.11389        -0.003457      0.010371     -0.269672
      6.34166     16.91108     11.11389         0.000144      0.070554     -0.227048
      8.45554      0.00000      9.00000         0.000011      0.005418      0.307035
     10.56943      2.11389      9.00000         0.005166     -0.013408      0.306876
      8.45554      2.11389     11.11389         0.000016     -0.010889     -0.269249
     10.56943      0.00000     11.11389         0.001729      0.001296     -0.272035
      8.45554      4.22777      9.00000         0.000011     -0.057035      0.314206
     10.56943      6.34166      9.00000         0.050943     -0.066219      0.294645
      8.45554      6.34166     11.11389         0.000085     -0.341714     -0.230435
     10.56943      4.22777     11.11389         0.007456     -0.035514     -0.256612
      8.45554      8.45554      9.00000         0.000079     -0.072056      0.031265
     10.56943     10.56943      9.00000         0.119956     -0.037189      0.264586
      8.45554     10.56943     11.11389        -0.000438     -0.306650     -0.233142
     10.56943      8.45554     11.11389         0.363079     -0.033103     -0.129333
      8.45554     12.68331      9.00000         0.000322      0.026340     -0.203468
     10.56943     14.79720      9.00000         0.084512      0.090409      0.273574
      8.45554     14.79720     11.11389         0.000464      0.656893     -0.161390
     10.56943     12.68331     11.11389         0.712148      0.022367     -0.293397
[...]
     19.02497      6.34166     11.11389         0.000019      0.001924      0.865498
     16.91108      6.34166      9.00000        -0.007674      0.004424     -0.894136
     19.02497      4.22777      9.00000         0.000003      0.001997     -0.892687
     16.91108      8.45554     11.11389        -0.007316      0.003251      0.860064
     19.02497     10.56943     11.11389         0.000047      0.001855      0.862778
     16.91108     10.56943      9.00000        -0.012093      0.003002     -0.895553
     19.02497      8.45554      9.00000         0.000021      0.003084     -0.893910
     16.91108     12.68331     11.11389        -0.009796      0.000489      0.858856
     19.02497     14.79720     11.11389         0.000056     -0.001335      0.864323
     16.91108     14.79720      9.00000        -0.011120     -0.004003     -0.894347
     19.02497     12.68331      9.00000         0.000048     -0.000071     -0.893987
     16.91108     16.91108     11.11389        -0.006534     -0.003835      0.864210
     19.02497     19.02497     11.11389         0.000036     -0.002447      0.867817
     16.91108     19.02497      9.00000        -0.005384     -0.004467     -0.892599
     19.02497     16.91108      9.00000         0.000044     -0.003529     -0.892838
    total drift:                                0.004068      0.004395     -0.657424

  FREE ENERGIE OF THE ION-ELECTRON SYSTEM (eV)
  free  energy   TOTEN  =     -1160.80630127 eV

  energy  without entropy=    -1160.80630127  energy(sigma->0) =    -1160.80630127