 vasp.6.4.1 05Apr23 (build May 06 2023 19:47:20) complex

 executed on             LinuxIFC date 2023.07.04  06:24:30

 INCAR:
   SYSTEM = MgO-rocksalt
   ISMEAR = 0
   SIGMA = 0.05
   EDIFF = 1E-6
   ALGO = ALL
   ISTART = 0
   IBRION = -1
   NSW = 0
   ISYM = 2
   DIPOL = 0.5 0.5 0.5
   IDIPOL = 3
   LDIPOL = .TRUE.
   GGA = PE
   IVDW = 11
   ENCUT = 520
   PREC = Accurate
   LASPH = .TRUE.
   LREAL = Auto
   ISPIN = 1
   NELM = 200
   NELMIN = 8
   NCORE = 16
   KPAR = 1
   LWAVE = .FALSE.
   LCHARG = .FALSE.

 POTCAR:    PAW_PBE Cu 22Jun2005
 POTCAR:    PAW_PBE Mg_pv 13Apr2007
 POTCAR:    PAW_PBE O 08Apr2002
 POTCAR:    PAW_PBE Cu 22Jun2005
   VRHFIN =Cu: d10 p1

   TITEL  = PAW_PBE Cu 22Jun2005
   POMASS =   63.546; ZVAL   =   11.000    mass and valenz
   ENMAX  =  295.446; ENMIN  =  221.585 eV

   TITEL  = PAW_PBE Mg_pv 13Apr2007
   POMASS =   24.305; ZVAL   =    8.000    mass and valenz
   ENMAX  =  403.929; ENMIN  =  302.947 eV

   TITEL  = PAW_PBE O 08Apr2002
   POMASS =   16.000; ZVAL   =    6.000    mass and valenz
   ENMAX  =  400.000; ENMIN  =  300.000 eV

 Optimization of the real space projectors (new method)

 maximal supplied QI-value         = 16.25
 optimisation between [QCUT,QGAM] = [ 11.54, 23.24] = [ 37.28,151.24] Ry
 Optimized for a Real-space Cutoff    1.53 Angstroem

   l    n(q)    QCUT    max X(q) W(low)/X(q) W(high)/X(q)  e(spline)
   2     10    11.539     4.610    0.96E-04    0.13E-03    0.19E-06
   2     10    11.539     8.522    0.16E-03    0.21E-03    0.28E-06
   0     11    11.539    51.609    0.45E-04    0.31E-04    0.11E-06
   0     11    11.539    27.747    0.39E-04    0.29E-04    0.10E-06
   1     10    11.539    20.408    0.70E-05    0.38E-04    0.18E-06
   1     10    11.539    13.425    0.66E-05    0.34E-04    0.17E-06
 Optimization of the real space projectors (new method)

[...]

   l    n(q)    QCUT    max X(q) W(low)/X(q) W(high)/X(q)  e(spline)
   1      8    11.527     2.974    0.44E-04    0.56E-04    0.12E-06
   1      8    11.527     4.279    0.12E-03    0.12E-03    0.26E-06
   0      9    11.527    16.381    0.46E-04    0.64E-04    0.78E-07
   0      9    11.527     5.611    0.26E-04    0.43E-04    0.55E-07
   2      8    11.527     4.652    0.22E-03    0.72E-04    0.47E-07
 Optimization of the real space projectors (new method)

 maximal supplied QI-value         = 24.76
 optimisation between [QCUT,QGAM] = [ 11.64, 23.27] = [ 37.91,151.63] Ry
 Optimized for a Real-space Cutoff    1.14 Angstroem

   l    n(q)    QCUT    max X(q) W(low)/X(q) W(high)/X(q)  e(spline)
   0      8    11.635    20.381    0.10E-03    0.33E-03    0.24E-06
   0      8    11.635    15.268    0.11E-03    0.35E-03    0.26E-06
   1      7    11.635     5.964    0.24E-03    0.31E-03    0.30E-06
   1      7    11.635     5.382    0.22E-03    0.25E-03    0.26E-06
  PAW_PBE Cu 22Jun2005                  :
  PAW_PBE Mg_pv 13Apr2007               :
  PAW_PBE O 08Apr2002                   :

 POSCAR: Cu Mg  O
  positions in direct lattice
 exchange correlation table for  LEXCH =        8
   RHO(1)=    0.500       N(1)  =     2000
   RHO(2)=  100.500       N(2)  =     4000

 ion  position               nearest neighbor table
   1  0.553  0.500  0.630-   2 2.23
   2  0.447  0.500  0.630-   1 2.23
   3  0.000  0.000  0.407- 105 2.11 106 2.11 121 2.11 186 2.11 103 2.11
   4  0.100  0.100  0.407- 105 2.11 106 2.11 110 2.11 125 2.11 104 2.11
   5  0.000  0.100  0.503- 103 2.11 104 2.11 107 2.11 184 2.11 105 2.11
   6  0.100  0.000  0.503- 103 2.11 104 2.11 120 2.11 123 2.11 106 2.11
   7  0.000  0.200  0.407- 109 2.11 105 2.11 110 2.11 190 2.11 107 2.11
   8  0.100  0.300  0.407- 110 2.11 109 2.11 114 2.11 129 2.11 108 2.11
   9  0.000  0.300  0.503- 107 2.11 108 2.11 111 2.11 188 2.11 109 2.11
  10  0.100  0.200  0.503- 108 2.11 107 2.11 104 2.11 127 2.11 110 2.11
  11  0.000  0.400  0.407- 109 2.11 113 2.11 114 2.11 194 2.11 111 2.11
  12  0.100  0.500  0.407- 113 2.11 114 2.11 118 2.11 133 2.11 112 2.11
  13  0.000  0.500  0.503- 111 2.11 112 2.11 115 2.11 192 2.11 113 2.11
  14  0.100  0.400  0.503- 108 2.11 111 2.11 112 2.11 131 2.11 114 2.11
  15  0.000  0.600  0.407- 113 2.11 117 2.11 118 2.11 198 2.11 115 2.11
  16  0.100  0.700  0.407- 122 2.11 118 2.11 117 2.11 137 2.11 116 2.11
  17  0.000  0.700  0.503- 119 2.11 116 2.11 115 2.11 196 2.11 117 2.11
  18  0.100  0.600  0.503- 112 2.11 115 2.11 116 2.11 135 2.11 118 2.11
  19  0.000  0.800  0.407- 117 2.11 121 2.11 122 2.11 202 2.11 119 2.11
  20  0.100  0.900  0.407- 106 2.11 121 2.11 122 2.11 141 2.11 120 2.11
  21  0.000  0.900  0.503- 103 2.11 119 2.11 120 2.11 200 2.11 121 2.11
  22  0.100  0.800  0.503- 116 2.11 119 2.11 120 2.11 139 2.11 122 2.11
  23  0.200  0.000  0.407- 126 2.11 125 2.11 106 2.11 141 2.11 123 2.11
  24  0.300  0.100  0.407- 125 2.11 126 2.11 130 2.11 145 2.11 124 2.11
  25  0.200  0.100  0.503- 124 2.11 123 2.11 104 2.11 127 2.11 125 2.11
  26  0.300  0.000  0.503- 123 2.11 124 2.11 140 2.11 143 2.11 126 2.11
  27  0.200  0.200  0.407- 129 2.11 130 2.11 110 2.11 125 2.11 127 2.11
  28  0.300  0.300  0.407- 129 2.11 130 2.11 134 2.11 149 2.11 128 2.11
  29  0.200  0.300  0.503- 127 2.11 128 2.11 108 2.11 131 2.11 129 2.11
  30  0.300  0.200  0.503- 127 2.11 128 2.11 124 2.11 147 2.11 130 2.11
  31  0.200  0.400  0.407- 134 2.11 129 2.11 133 2.11 114 2.11 131 2.11
  32  0.300  0.500  0.407- 133 2.11 134 2.11 138 2.11 153 2.11 132 2.11
  33  0.200  0.500  0.503- 132 2.11 131 2.11 112 2.11 135 2.11 133 2.11
  34  0.300  0.400  0.503- 131 2.11 128 2.11 132 2.11 151 2.11 134 2.11
  35  0.200  0.600  0.407- 138 2.11 133 2.11 137 2.11 118 2.11 135 2.11
  36  0.300  0.700  0.407- 137 2.11 142 2.11 138 2.11 157 2.11 136 2.11
  37  0.200  0.700  0.503- 136 2.11 139 2.11 116 2.11 135 2.11 137 2.11
  38  0.300  0.600  0.503- 135 2.11 132 2.11 136 2.11 155 2.11 138 2.11
  39  0.200  0.800  0.407- 137 2.11 142 2.11 141 2.11 122 2.11 139 2.11
  40  0.300  0.900  0.407- 141 2.11 126 2.11 142 2.11 161 2.11 140 2.11
  41  0.200  0.900  0.503- 140 2.11 123 2.11 139 2.11 120 2.11 141 2.11
  42  0.300  0.800  0.503- 136 2.11 139 2.11 140 2.11 159 2.11 142 2.11
  43  0.400  0.000  0.407- 126 2.11 145 2.11 146 2.11 161 2.11 143 2.11
  44  0.500  0.100  0.407- 145 2.11 146 2.11 150 2.11 165 2.11 144 2.11
  45  0.400  0.100  0.503- 124 2.11 143 2.11 144 2.11 147 2.11 145 2.11
  46  0.500  0.000  0.503- 143 2.11 144 2.11 160 2.11 163 2.11 146 2.11
  47  0.400  0.200  0.407- 149 2.11 145 2.11 130 2.11 150 2.11 147 2.11
  48  0.500  0.300  0.407- 150 2.11 149 2.11 154 2.11 169 2.11 148 2.11
  49  0.400  0.300  0.503- 147 2.11 128 2.11 148 2.11 151 2.11 149 2.11
  50  0.500  0.200  0.503- 148 2.11 147 2.11 144 2.11 167 2.11 150 2.11
  51  0.400  0.400  0.407- 134 2.11 149 2.11 153 2.11 154 2.11 151 2.11
  52  0.500  0.500  0.407- 153 2.11 154 2.11 158 2.11 173 2.11 152 2.11
  53  0.400  0.500  0.503- 132 2.11 151 2.11 152 2.11 155 2.11 153 2.11
  54  0.500  0.400  0.503- 148 2.11 151 2.11 152 2.11 171 2.11 154 2.11
  55  0.400  0.600  0.407- 138 2.11 153 2.11 157 2.11 158 2.11 155 2.11
  56  0.500  0.700  0.407- 162 2.11 158 2.11 157 2.11 177 2.11 156 2.11
  57  0.400  0.700  0.503- 159 2.11 155 2.11 156 2.11 136 2.11 157 2.11
  58  0.500  0.600  0.503- 152 2.11 155 2.11 156 2.11 175 2.11 158 2.11
  59  0.400  0.800  0.407- 157 2.11 142 2.11 161 2.11 162 2.11 159 2.11
  60  0.500  0.900  0.407- 146 2.11 161 2.11 162 2.11 181 2.11 160 2.11
[...]
 188  0.900  0.300  0.503-  90 2.11  89 2.11   9 2.11  94 2.11  88 2.11
 189  0.800  0.300  0.407-  68 2.11  87 2.11  88 2.11  91 2.11  89 2.11
 190  0.900  0.200  0.407-  88 2.11  84 2.11  87 2.11   7 2.11  90 2.11
 191  0.800  0.400  0.503-  74 2.11  89 2.11  93 2.11  94 2.11  91 2.11
 192  0.900  0.500  0.503-  13 2.11  93 2.11  94 2.11  98 2.11  92 2.11
 193  0.800  0.500  0.407-  72 2.11  91 2.11  92 2.11  95 2.11  93 2.11
 194  0.900  0.400  0.407-  11 2.11  88 2.11  91 2.11  92 2.11  94 2.11
 195  0.800  0.600  0.503-  78 2.11  93 2.11  97 2.11  98 2.11  95 2.11
 196  0.900  0.700  0.503- 102 2.11  97 2.11  98 2.11  17 2.11  96 2.11
 197  0.800  0.700  0.407-  76 2.11  99 2.11  96 2.11  95 2.11  97 2.11
 198  0.900  0.600  0.407-  15 2.11  92 2.11  95 2.11  96 2.11  98 2.11
 199  0.800  0.800  0.503-  82 2.11  97 2.11 101 2.11 102 2.11  99 2.11
 200  0.900  0.900  0.503-  21 2.11  86 2.11 101 2.11 102 2.11 100 2.11
 201  0.800  0.900  0.407-  80 2.11  83 2.11  99 2.11 100 2.11 101 2.11
 202  0.900  0.800  0.407-  96 2.11  19 2.11  99 2.11 100 2.11 102 2.11

  LATTYP: Found a simple tetragonal cell.
 ALAT       =    21.1388521970
 C/A-ratio  =     1.0461251639

  Lattice vectors:

 A1 = (  21.1388521970,   0.0000000000,   0.0000000000)
 A2 = (   0.0000000000,  21.1388521970,   0.0000000000)
 A3 = (   0.0000000000,   0.0000000000,  22.1138852197)

Analysis of symmetry for initial positions (statically):
 Subroutine PRICEL returns:
 Original cell was already a primitive cell.

 Routine SETGRP: Setting up the symmetry group for a
 simple tetragonal supercell.

 Subroutine GETGRP returns: Found  4 space group operations
 (whereof  4 operations were pure point group operations)
 out of a pool of 16 trial point group operations.

The static configuration has the point symmetry C_2v.

Analysis of symmetry for dynamics (positions and initial velocities):
 Subroutine PRICEL returns:
 Original cell was already a primitive cell.

 Routine SETGRP: Setting up the symmetry group for a
 simple tetragonal supercell.

 Subroutine GETGRP returns: Found  4 space group operations
 (whereof  4 operations were pure point group operations)
 out of a pool of 16 trial point group operations.

The dynamic configuration has the point symmetry C_2v.

 Subroutine INISYM returns: Found  4 space group operations
 (whereof  4 operations are pure point group operations),
 and found     1 'primitive' translations

                                     Primitive cell

  volume of cell :    9881.6133

  direct lattice vectors                    reciprocal lattice vectors
    21.138852197  0.000000000  0.000000000     0.047306258  0.000000000  0.000000000
     0.000000000 21.138852197  0.000000000     0.000000000  0.047306258  0.000000000
     0.000000000  0.000000000 22.113885220     0.000000000  0.000000000  0.045220457

  length of vectors
    21.138852197 21.138852197 22.113885220     0.047306258  0.047306258  0.045220457

  position of ions in fractional coordinates (direct lattice)
     0.552684359  0.500000000  0.630409391
     0.447315641  0.500000000  0.630409391
     0.000000000  0.000000000  0.406984115
     0.100000000  0.100000000  0.406984115
     0.000000000  0.100000000  0.502574971
     0.100000000  0.000000000  0.502574971
     0.000000000  0.200000000  0.406984115
     0.100000000  0.300000000  0.406984115
     0.000000000  0.300000000  0.502574971
     0.100000000  0.200000000  0.502574971
     0.000000000  0.400000000  0.406984115
     0.100000000  0.500000000  0.406984115
     0.000000000  0.500000000  0.502574971
     0.100000000  0.400000000  0.502574971
     0.000000000  0.600000000  0.406984115
     0.100000000  0.700000000  0.406984115
     0.000000000  0.700000000  0.502574971
[...]
    855       4.5618      0.00000
    856       4.6008      0.00000
    857       4.6697      0.00000
    858       4.6956      0.00000
    859       4.6989      0.00000
    860       4.7046      0.00000
    861       4.7730      0.00000
    862       4.8514      0.00000
    863       5.0792      0.00000
    864       5.1822      0.00000

 soft charge-density along one line, spin component           1
         0         1         2         3         4         5         6         7         8         9
 total charge-density along one line

------------------------ aborting loop because EDIFF is reached ----------------------------------------

         DFTD3 V3.0 Rev 1
 IVDW         = 11
 DF pbe
 parameters
 VDW_S6       =    1.0000
 VDW_S8       =    0.7220
 VDW_SR       =    1.2170
 rs18     =    1.0000
 alpha6   =   14.0000
 alpha8   =   16.0000
 k1-k3    =   16.0000    1.3333   -4.0000
 VDW_RADIUS   =   50.2022 A
 VDW_CNRADIUS =   21.1671 A
 Edisp (eV)  -18.89904

 E6    (eV) :    -7.9038
 E8    (eV) :   -10.9953
 % E8        : 58.18

  FORCE on cell =-STRESS in cart. coord.  units (eV):
  Direction    XX          YY          ZZ          XY          YZ          ZX
  Alpha Z  1354.41543  1354.41543  1354.41543
  Ewald  479351.43510478555.77928************     0.00000     0.00000    -0.00000
  Hartree508051.08773507458.01931************    -0.00000     0.00000    -0.00000
  E(xc)   -7777.17174 -7777.68448 -7809.24436    -0.00000     0.00000    -0.00000
  Local  ************************************    -0.00000    -0.00000     0.00000
  n-local -8813.20051 -8810.53237 -8930.68123     0.00002    -0.00000     0.00000
  augment  3465.40855  3471.01499  3413.48177    -0.00000     0.00000     0.00000
  Kinetic 22855.18467 22861.10285 23116.36626    -0.00001    -0.00001    -0.00000
  Fock        0.00000     0.00000     0.00000     0.00000     0.00000     0.00000
  vdW       -25.77200   -25.71163    -2.91984    -0.00000    -0.00000    -0.00000
  Total    -175.89604  -176.21023    15.10990     0.00000     0.00000     0.00000
  in kB     -28.51930   -28.57024     2.44988     0.00000     0.00000     0.00000

 VOLUME and BASIS-vectors are now :
  energy-cutoff  :      520.00
  volume of cell :     9881.61
      direct lattice vectors                 reciprocal lattice vectors
    21.138852197  0.000000000  0.000000000     0.047306258  0.000000000  0.000000000
     0.000000000 21.138852197  0.000000000     0.000000000  0.047306258  0.000000000
     0.000000000  0.000000000 22.113885220     0.000000000  0.000000000  0.045220457

  length of vectors
    21.138852197 21.138852197 22.113885220     0.047306258  0.047306258  0.045220457

 FORCES acting on ions:
    Electron-Ion                     Ewald-Force                    Non-Local-Force
   -.359E+03 -.155E-05 -.202E+04   0.348E+03 0.874E-08 0.202E+04   0.120E+02 -.298E-22 -.201E-01
   0.359E+03 -.155E-05 -.202E+04   -.348E+03 0.874E-08 0.202E+04   -.120E+02 0.123E-22 -.201E-01
   0.136E-12 -.454E-08 0.931E+03   0.941E-13 0.700E-08 -.923E+03   0.658E-23 0.960E-23 -.741E+01
   0.378E+01 0.407E+01 0.932E+03   -.378E+01 -.408E+01 -.924E+03   -.120E-02 0.644E-02 -.741E+01
   0.129E-12 0.434E+01 -.922E+03   0.131E-12 -.434E+01 0.915E+03   0.135E-23 0.587E-02 0.739E+01
   0.396E+01 -.647E-08 -.923E+03   -.396E+01 0.998E-08 0.915E+03   -.259E-02 -.117E-22 0.739E+01
   0.137E-12 0.599E+01 0.932E+03   0.155E-10 -.601E+01 -.925E+03   -.199E-23 0.102E-01 -.741E+01
   0.785E+01 0.768E+01 0.936E+03   -.786E+01 -.770E+01 -.928E+03   0.526E-02 0.146E-01 -.741E+01
   0.148E-12 0.804E+01 -.920E+03   0.207E-11 -.806E+01 0.912E+03   -.167E-23 0.115E-01 0.739E+01
   0.716E+01 0.904E+01 -.921E+03   -.716E+01 -.906E+01 0.913E+03   -.685E-03 0.126E-01 0.739E+01
   0.146E-12 0.414E+01 0.936E+03   -.175E-10 -.415E+01 -.928E+03   -.136E-24 0.742E-02 -.741E+01
   0.115E+02 0.692E-08 0.939E+03   -.115E+02 -.107E-07 -.931E+03   0.242E-01 0.714E-23 -.741E+01
   0.142E-12 0.711E-08 -.918E+03   0.229E-12 -.110E-07 0.911E+03   -.505E-23 -.480E-23 0.739E+01
   0.155E+02 0.705E+01 -.916E+03   -.156E+02 -.706E+01 0.909E+03   0.170E-01 0.107E-01 0.739E+01
   0.146E-12 -.414E+01 0.936E+03   0.114E-11 0.415E+01 -.928E+03   0.226E-23 -.742E-02 -.741E+01
   0.785E+01 -.768E+01 0.936E+03   -.786E+01 0.770E+01 -.928E+03   0.526E-02 -.146E-01 -.741E+01
   0.136E-12 -.804E+01 -.920E+03   -.927E-12 0.806E+01 0.912E+03   0.484E-23 -.115E-01 0.739E+01
   0.155E+02 -.705E+01 -.916E+03   -.156E+02 0.706E+01 0.909E+03   0.170E-01 -.107E-01 0.739E+01
   0.145E-12 -.599E+01 0.932E+03   0.909E-12 0.601E+01 -.925E+03   -.620E-23 -.102E-01 -.741E+01
   0.378E+01 -.407E+01 0.932E+03   -.378E+01 0.408E+01 -.924E+03   -.120E-02 -.644E-02 -.741E+01
   0.139E-12 -.434E+01 -.922E+03   -.899E-12 0.434E+01 0.915E+03   -.954E-24 -.587E-02 0.739E+01
   0.716E+01 -.904E+01 -.921E+03   -.716E+01 0.906E+01 0.913E+03   -.685E-03 -.126E-01 0.739E+01
   0.544E+01 -.706E-08 0.932E+03   -.544E+01 0.109E-07 -.925E+03   -.323E-02 -.156E-23 -.741E+01
   0.687E+01 0.794E+01 0.935E+03   -.687E+01 -.795E+01 -.927E+03   -.390E-02 0.107E-01 -.741E+01
   0.821E+01 0.747E+01 -.921E+03   -.820E+01 -.748E+01 0.913E+03   -.522E-02 0.810E-02 0.739E+01
   0.708E+01 -.133E-07 -.920E+03   -.708E+01 0.205E-07 0.913E+03   -.556E-02 0.348E-22 0.739E+01
   0.955E+01 0.102E+02 0.936E+03   -.955E+01 -.102E+02 -.928E+03   0.568E-03 0.170E-01 -.741E+01
   0.181E+02 0.196E+02 0.950E+03   -.182E+02 -.197E+02 -.942E+03   0.116E-01 0.401E-01 -.741E+01
   0.226E+02 0.179E+02 -.913E+03   -.226E+02 -.180E+02 0.906E+03   0.498E-02 0.291E-01 0.739E+01
   0.157E+02 0.230E+02 -.914E+03   -.157E+02 -.230E+02 0.906E+03   -.121E-01 0.240E-01 0.738E+01
   0.207E+02 0.861E+01 0.946E+03   -.207E+02 -.864E+01 -.938E+03   0.259E-01 0.228E-01 -.741E+01
   0.330E+02 0.229E-07 0.969E+03   -.330E+02 -.354E-07 -.962E+03   0.214E-01 -.326E-23 -.732E+01
   0.414E+02 0.204E-07 -.904E+03   -.415E+02 -.315E-07 0.896E+03   0.767E-01 0.152E-23 0.739E+01
   0.586E+02 0.339E+02 -.880E+03   -.587E+02 -.340E+02 0.873E+03   0.539E-01 0.829E-01 0.740E+01
   0.207E+02 -.861E+01 0.946E+03   -.207E+02 0.864E+01 -.938E+03   0.259E-01 -.228E-01 -.741E+01
   0.181E+02 -.196E+02 0.950E+03   -.182E+02 0.197E+02 -.942E+03   0.116E-01 -.401E-01 -.741E+01
   0.226E+02 -.179E+02 -.913E+03   -.226E+02 0.180E+02 0.906E+03   0.498E-02 -.291E-01 0.739E+01
   0.586E+02 -.339E+02 -.880E+03   -.587E+02 0.340E+02 0.873E+03   0.539E-01 -.829E-01 0.740E+01
   0.955E+01 -.102E+02 0.936E+03   -.955E+01 0.102E+02 -.928E+03   0.568E-03 -.170E-01 -.741E+01
   0.687E+01 -.794E+01 0.935E+03   -.687E+01 0.795E+01 -.927E+03   -.390E-02 -.107E-01 -.741E+01
   0.821E+01 -.747E+01 -.921E+03   -.820E+01 0.748E+01 0.913E+03   -.522E-02 -.810E-02 0.739E+01
   0.157E+02 -.230E+02 -.914E+03   -.157E+02 0.230E+02 0.906E+03   -.121E-01 -.240E-01 0.738E+01
   0.364E+01 -.123E-07 0.935E+03   -.364E+01 0.189E-07 -.927E+03   -.271E-02 -.412E-23 -.741E+01
   -.226E-12 0.111E+02 0.938E+03   0.435E-11 -.111E+02 -.930E+03   -.182E-22 0.849E-02 -.741E+01
   0.597E+01 0.147E+02 -.917E+03   -.596E+01 -.147E+02 0.910E+03   -.521E-02 0.221E-02 0.738E+01
   -.267E-12 -.189E-07 -.919E+03   0.875E-13 0.292E-07 0.911E+03   0.559E-23 0.824E-23 0.738E+01
   0.742E+01 0.204E+02 0.945E+03   -.742E+01 -.205E+02 -.937E+03   -.333E-02 0.374E-01 -.743E+01
   -.230E-12 0.330E+02 0.965E+03   -.558E-11 -.331E+02 -.958E+03   0.175E-22 0.523E-01 -.746E+01
   0.259E+02 0.581E+02 -.886E+03   -.258E+02 -.582E+02 0.879E+03   -.385E-01 0.991E-01 0.736E+01
   -.275E-12 0.378E+02 -.907E+03   -.191E-10 -.378E+02 0.899E+03   0.703E-23 -.138E-01 0.737E+01
   0.224E+02 0.254E+02 0.985E+03   -.224E+02 -.254E+02 -.977E+03   0.155E-01 0.288E-01 -.731E+01
   -.221E-12 0.479E-07 0.102E+04   -.457E-13 -.740E-07 -.101E+04   -.307E-23 0.114E-23 -.735E+01
   0.964E+02 0.160E-06 -.750E+03   -.964E+02 -.246E-06 0.743E+03   -.360E-01 -.244E-22 0.639E+01
   -.266E-12 0.103E+03 -.787E+03   0.216E-10 -.103E+03 0.780E+03   0.525E-22 0.125E+00 0.698E+01
   0.224E+02 -.254E+02 0.985E+03   -.224E+02 0.254E+02 -.977E+03   0.155E-01 -.288E-01 -.731E+01
   -.223E-12 -.330E+02 0.965E+03   -.183E-10 0.331E+02 -.958E+03   -.136E-22 -.523E-01 -.746E+01
   0.259E+02 -.581E+02 -.886E+03   -.258E+02 0.582E+02 0.879E+03   -.385E-01 -.991E-01 0.736E+01
   -.280E-12 -.103E+03 -.787E+03   0.182E-10 0.103E+03 0.780E+03   -.407E-22 -.125E+00 0.698E+01
   0.742E+01 -.204E+02 0.945E+03   -.742E+01 0.205E+02 -.937E+03   -.333E-02 -.374E-01 -.743E+01
   -.218E-12 -.111E+02 0.938E+03   0.205E-10 0.111E+02 -.930E+03   -.157E-22 -.849E-02 -.741E+01
[...]
   -.111E+02 0.900E+01 0.707E+03   0.111E+02 -.901E+01 -.711E+03   -.952E-02 0.264E-01 0.354E+01
   -.403E+01 0.528E+01 0.702E+03   0.403E+01 -.529E+01 -.706E+03   -.126E-02 0.130E-01 0.354E+01
   -.261E+02 0.106E+02 -.682E+03   0.261E+02 -.106E+02 0.686E+03   -.325E-01 0.361E-01 -.356E+01
   -.132E+02 0.722E-08 -.688E+03   0.132E+02 -.111E-07 0.692E+03   -.185E-01 0.333E-22 -.356E+01
   -.176E+02 0.902E-08 0.713E+03   0.176E+02 -.139E-07 -.717E+03   -.445E-01 -.252E-22 0.357E+01
   -.779E+01 0.385E+01 0.705E+03   0.780E+01 -.386E+01 -.709E+03   -.139E-01 0.144E-01 0.354E+01
   -.261E+02 -.106E+02 -.682E+03   0.261E+02 0.106E+02 0.686E+03   -.325E-01 -.361E-01 -.356E+01
   -.836E+01 -.766E+01 -.691E+03   0.837E+01 0.767E+01 0.695E+03   -.695E-02 -.186E-01 -.357E+01
   -.111E+02 -.900E+01 0.707E+03   0.111E+02 0.901E+01 -.711E+03   -.952E-02 -.264E-01 0.354E+01
   -.779E+01 -.385E+01 0.705E+03   0.780E+01 0.386E+01 -.709E+03   -.139E-01 -.144E-01 0.354E+01
   -.989E+01 -.106E+02 -.690E+03   0.989E+01 0.106E+02 0.694E+03   0.538E-03 -.173E-01 -.357E+01
   -.355E+01 -.384E+01 -.693E+03   0.355E+01 0.385E+01 0.697E+03   0.158E-02 -.670E-02 -.356E+01
   -.483E+01 -.423E+01 0.702E+03   0.483E+01 0.424E+01 -.706E+03   0.231E-02 -.817E-02 0.354E+01
   -.403E+01 -.528E+01 0.702E+03   0.403E+01 0.529E+01 -.706E+03   -.126E-02 -.130E-01 0.354E+01
   0.791E-11 -.313E-05 0.722E+01   0.387E-11 -.142E-11 -.671E-11   -.507E-16 0.125E-15 -.784E+01

 POSITION                                       TOTAL-FORCE (eV/Angst)
     11.68311     10.56943     13.94080         0.055657     -0.000000     -0.016650
      9.45574     10.56943     13.94080        -0.055657     -0.000000     -0.016650
      0.00000      0.00000      9.00000        -0.000000     -0.000000      0.327784
      2.11389      2.11389      9.00000         0.000317     -0.001742      0.327791
      0.00000      2.11389     11.11389        -0.000000     -0.001596     -0.324388
      2.11389      0.00000     11.11389         0.000705     -0.000000     -0.324360
      0.00000      4.22777      9.00000        -0.000000     -0.002811      0.327475
      2.11389      6.34166      9.00000        -0.001486     -0.004093      0.327081
      0.00000      6.34166     11.11389        -0.000000     -0.003250     -0.324118
      2.11389      4.22777     11.11389         0.000225     -0.003426     -0.324013
      0.00000      8.45554      9.00000        -0.000000     -0.002152      0.327072
      2.11389     10.56943      9.00000        -0.006105     -0.000000      0.327160
      0.00000     10.56943     11.11389        -0.000000     -0.000000     -0.324060
      2.11389      8.45554     11.11389        -0.004356     -0.003082     -0.324009
      0.00000     12.68331      9.00000        -0.000000      0.002152      0.327072
      2.11389     14.79720      9.00000        -0.001486      0.004093      0.327081
      0.00000     14.79720     11.11389        -0.000000      0.003250     -0.324118
      2.11389     12.68331     11.11389        -0.004356      0.003082     -0.324009
      0.00000     16.91108      9.00000        -0.000000      0.002811      0.327475
      2.11389     19.02497      9.00000         0.000317      0.001742      0.327791
      0.00000     19.02497     11.11389        -0.000000      0.001596     -0.324388
      2.11389     16.91108     11.11389         0.000225      0.003426     -0.324013
      4.22777      0.00000      9.00000         0.000900     -0.000000      0.328114
      6.34166      2.11389      9.00000         0.001147     -0.002768      0.328733
      4.22777      2.11389     11.11389         0.001464     -0.002115     -0.323751
      6.34166      0.00000     11.11389         0.001613     -0.000000     -0.323436
      4.22777      4.22777      9.00000        -0.000185     -0.004571      0.327854
      6.34166      6.34166      9.00000        -0.003602     -0.010899      0.328282
      4.22777      6.34166     11.11389        -0.000754     -0.007661     -0.322918
      6.34166      4.22777     11.11389         0.003761     -0.005633     -0.320819
      4.22777      8.45554      9.00000        -0.007156     -0.006791      0.325664
      6.34166     10.56943      9.00000        -0.002831     -0.000000      0.307589
      4.22777     10.56943     11.11389        -0.022366     -0.000000     -0.323118
      6.34166      8.45554     11.11389        -0.005997     -0.016657     -0.313725
      4.22777     12.68331      9.00000        -0.007156      0.006791      0.325664
      6.34166     14.79720      9.00000        -0.003602      0.010899      0.328282
      4.22777     14.79720     11.11389        -0.000754      0.007661     -0.322918
      6.34166     12.68331     11.11389        -0.005997      0.016657     -0.313725
      4.22777     16.91108      9.00000        -0.000185      0.004571      0.327854
      6.34166     19.02497      9.00000         0.001147      0.002768      0.328733
      4.22777     19.02497     11.11389         0.001464      0.002115     -0.323751
      6.34166     16.91108     11.11389         0.003761      0.005633     -0.320819
      8.45554      0.00000      9.00000         0.000817     -0.000000      0.328801
     10.56943      2.11389      9.00000        -0.000000     -0.002362      0.329465
      8.45554      2.11389     11.11389         0.001650     -0.000112     -0.321836
     10.56943      0.00000     11.11389        -0.000000     -0.000000     -0.322701
      8.45554      4.22777      9.00000         0.001336     -0.009215      0.332097
     10.56943      6.34166      9.00000        -0.000000     -0.014283      0.340476
      8.45554      6.34166     11.11389         0.018769     -0.021104     -0.293071
     10.56943      4.22777     11.11389        -0.000000      0.006549     -0.314379
      8.45554      8.45554      9.00000        -0.001352     -0.003585      0.305263
     10.56943     10.56943      9.00000        -0.000000     -0.000000      0.279901
      8.45554     10.56943     11.11389        -0.028774     -0.000000     -0.342768
     10.56943      8.45554     11.11389        -0.000000     -0.028815     -0.135954
      8.45554     12.68331      9.00000        -0.001352      0.003585      0.305263
     10.56943     14.79720      9.00000        -0.000000      0.014283      0.340476
      8.45554     14.79720     11.11389         0.018769      0.021104     -0.293071
     10.56943     12.68331     11.11389        -0.000000      0.028815     -0.135954
      8.45554     16.91108      9.00000         0.001336      0.009215      0.332097
     10.56943     19.02497      9.00000        -0.000000      0.002362      0.329465
[...]
     19.02497      6.34166     11.11389        -0.001968      0.005210      0.512916
     16.91108      6.34166      9.00000        -0.002793      0.007438     -0.516383
     19.02497      4.22777      9.00000        -0.000370      0.003647     -0.516649
     16.91108      8.45554     11.11389        -0.010066      0.010478      0.514725
     19.02497     10.56943     11.11389        -0.005309     -0.000000      0.513311
     16.91108     10.56943      9.00000        -0.013502     -0.000000     -0.509275
     19.02497      8.45554      9.00000        -0.003910      0.004044     -0.515859
     16.91108     12.68331     11.11389        -0.010066     -0.010478      0.514725
     19.02497     14.79720     11.11389        -0.001968     -0.005210      0.512916
     16.91108     14.79720      9.00000        -0.002793     -0.007438     -0.516383
     19.02497     12.68331      9.00000        -0.003910     -0.004044     -0.515859
     16.91108     16.91108     11.11389         0.000047     -0.004884      0.512045
     19.02497     19.02497     11.11389         0.000419     -0.001865      0.512967
     16.91108     19.02497      9.00000         0.000603     -0.002285     -0.517040
     19.02497     16.91108      9.00000        -0.000370     -0.003647     -0.516649
    total drift:                                0.000000     -0.000003     -0.615219

  FREE ENERGIE OF THE ION-ELECTRON SYSTEM (eV)
  free  energy   TOTEN  =     -1159.80656331 eV

  energy  without entropy=    -1159.80656331  energy(sigma->0) =    -1159.80656331