 vasp.6.4.0 14Feb23 (build Dec 05 2023 14:15:48) complex

 executed on             LinuxIFC date 2023.12.06  00:12:14

 INCAR:
   SYSTEM = MgO-rocksalt
   ISMEAR = 0
   SIGMA = 0.05
   EDIFF = 1E-6
   ALGO = ALL
   ISTART = 0
   IBRION = -1
   NSW = 0
   ISYM = 0
   DIPOL = 0.5 0.5 0.5
   IDIPOL = 3
   LDIPOL = .TRUE.
   METAGGA = TPSS
   ENCUT = 520
   PREC = Accurate
   LASPH = .TRUE.
   LREAL = Auto
   ISPIN = 1
   NELM = 2000
   NELMIN = 8
   NCORE = 8
   KPAR = 1
   LWAVE = .FALSE.
   LCHARG = .FALSE.

 POTCAR:    PAW_PBE Au 04Oct2007
 POTCAR:    PAW_PBE Mg_pv 13Apr2007
 POTCAR:    PAW_PBE O 08Apr2002
 POTCAR:    PAW_PBE Au 04Oct2007
   VRHFIN =Au: s1d10

   TITEL  = PAW_PBE Au 04Oct2007
   POMASS =  196.966; ZVAL   =   11.000    mass and valenz
   ENMAX  =  229.943; ENMIN  =  172.457 eV

   TITEL  = PAW_PBE Mg_pv 13Apr2007
   POMASS =   24.305; ZVAL   =    8.000    mass and valenz
   ENMAX  =  403.929; ENMIN  =  302.947 eV

   TITEL  = PAW_PBE O 08Apr2002
   POMASS =   16.000; ZVAL   =    6.000    mass and valenz
   ENMAX  =  400.000; ENMIN  =  300.000 eV

 Optimization of the real space projectors (new method)

 maximal supplied QI-value         = 15.12
 optimisation between [QCUT,QGAM] = [ 11.64, 23.28] = [ 37.95,151.78] Ry
 Optimized for a Real-space Cutoff    1.49 Angstroem

   l    n(q)    QCUT    max X(q) W(low)/X(q) W(high)/X(q)  e(spline)
   2      9    11.641    60.898    0.24E-03    0.10E-03    0.19E-06
   2      9    11.641    58.894    0.25E-03    0.10E-03    0.19E-06
   0     10    11.641   109.617    0.73E-04    0.33E-04    0.11E-06
   0     10    11.641    75.026    0.71E-04    0.32E-04    0.11E-06
   1     10    11.641    16.344    0.27E-04    0.97E-04    0.16E-06
   1     10    11.641    10.160    0.23E-04    0.77E-04    0.13E-06
 Optimization of the real space projectors (new method)

[...]

   l    n(q)    QCUT    max X(q) W(low)/X(q) W(high)/X(q)  e(spline)
   1      8    11.527     2.974    0.44E-04    0.56E-04    0.12E-06
   1      8    11.527     4.279    0.12E-03    0.12E-03    0.26E-06
   0      9    11.527    16.381    0.46E-04    0.64E-04    0.78E-07
   0      9    11.527     5.611    0.26E-04    0.43E-04    0.55E-07
   2      8    11.527     4.652    0.22E-03    0.72E-04    0.47E-07
 Optimization of the real space projectors (new method)

 maximal supplied QI-value         = 24.76
 optimisation between [QCUT,QGAM] = [ 11.64, 23.27] = [ 37.91,151.63] Ry
 Optimized for a Real-space Cutoff    1.14 Angstroem

   l    n(q)    QCUT    max X(q) W(low)/X(q) W(high)/X(q)  e(spline)
   0      8    11.635    20.381    0.10E-03    0.33E-03    0.24E-06
   0      8    11.635    15.268    0.11E-03    0.35E-03    0.26E-06
   1      7    11.635     5.964    0.24E-03    0.31E-03    0.30E-06
   1      7    11.635     5.382    0.22E-03    0.25E-03    0.26E-06
  PAW_PBE Au 04Oct2007                  :
  PAW_PBE Mg_pv 13Apr2007               :
  PAW_PBE O 08Apr2002                   :

 POSCAR: Au Mg  O
  positions in direct lattice

 METAGGA = TPSS                                        LMAXTAU =  6    LMIXTAU =  F

 ion  position               nearest neighbor table
   1  0.492  0.408  0.630-   2 2.53  54 2.82
   2  0.408  0.492  0.630-   1 2.53  53 2.82
   3  0.000  0.000  0.407- 105 2.11 106 2.11 121 2.11 186 2.11 103 2.11
   4  0.100  0.100  0.407- 105 2.11 106 2.11 110 2.11 125 2.11 104 2.11
   5  0.000  0.100  0.503- 103 2.11 104 2.11 107 2.11 184 2.11 105 2.11
   6  0.100  0.000  0.503- 103 2.11 104 2.11 120 2.11 123 2.11 106 2.11
   7  0.000  0.200  0.407- 109 2.11 105 2.11 110 2.11 190 2.11 107 2.11
   8  0.100  0.300  0.407- 110 2.11 109 2.11 114 2.11 129 2.11 108 2.11
   9  0.000  0.300  0.503- 107 2.11 108 2.11 111 2.11 188 2.11 109 2.11
  10  0.100  0.200  0.503- 108 2.11 107 2.11 104 2.11 127 2.11 110 2.11
  11  0.000  0.400  0.407- 109 2.11 113 2.11 114 2.11 194 2.11 111 2.11
  12  0.100  0.500  0.407- 113 2.11 114 2.11 118 2.11 133 2.11 112 2.11
  13  0.000  0.500  0.503- 111 2.11 112 2.11 115 2.11 192 2.11 113 2.11
  14  0.100  0.400  0.503- 108 2.11 111 2.11 112 2.11 131 2.11 114 2.11
  15  0.000  0.600  0.407- 113 2.11 117 2.11 118 2.11 198 2.11 115 2.11
  16  0.100  0.700  0.407- 122 2.11 118 2.11 117 2.11 137 2.11 116 2.11
  17  0.000  0.700  0.503- 119 2.11 116 2.11 115 2.11 196 2.11 117 2.11
  18  0.100  0.600  0.503- 112 2.11 115 2.11 116 2.11 135 2.11 118 2.11
  19  0.000  0.800  0.407- 117 2.11 121 2.11 122 2.11 202 2.11 119 2.11
  20  0.100  0.900  0.407- 106 2.11 121 2.11 122 2.11 141 2.11 120 2.11
  21  0.000  0.900  0.503- 103 2.11 119 2.11 120 2.11 200 2.11 121 2.11
  22  0.100  0.800  0.503- 116 2.11 119 2.11 120 2.11 139 2.11 122 2.11
  23  0.200  0.000  0.407- 126 2.11 125 2.11 106 2.11 141 2.11 123 2.11
  24  0.300  0.100  0.407- 125 2.11 126 2.11 130 2.11 145 2.11 124 2.11
  25  0.200  0.100  0.503- 124 2.11 123 2.11 104 2.11 127 2.11 125 2.11
  26  0.300  0.000  0.503- 123 2.11 124 2.11 140 2.11 143 2.11 126 2.11
  27  0.200  0.200  0.407- 129 2.11 130 2.11 110 2.11 125 2.11 127 2.11
  28  0.300  0.300  0.407- 129 2.11 130 2.11 134 2.11 149 2.11 128 2.11
  29  0.200  0.300  0.503- 127 2.11 128 2.11 108 2.11 131 2.11 129 2.11
  30  0.300  0.200  0.503- 127 2.11 128 2.11 124 2.11 147 2.11 130 2.11
  31  0.200  0.400  0.407- 134 2.11 129 2.11 133 2.11 114 2.11 131 2.11
  32  0.300  0.500  0.407- 133 2.11 134 2.11 138 2.11 153 2.11 132 2.11
  33  0.200  0.500  0.503- 132 2.11 131 2.11 112 2.11 135 2.11 133 2.11
  34  0.300  0.400  0.503- 131 2.11 128 2.11 132 2.11 151 2.11 134 2.11
  35  0.200  0.600  0.407- 138 2.11 133 2.11 137 2.11 118 2.11 135 2.11
  36  0.300  0.700  0.407- 137 2.11 142 2.11 138 2.11 157 2.11 136 2.11
  37  0.200  0.700  0.503- 136 2.11 139 2.11 116 2.11 135 2.11 137 2.11
  38  0.300  0.600  0.503- 135 2.11 132 2.11 136 2.11 155 2.11 138 2.11
  39  0.200  0.800  0.407- 137 2.11 142 2.11 141 2.11 122 2.11 139 2.11
  40  0.300  0.900  0.407- 141 2.11 126 2.11 142 2.11 161 2.11 140 2.11
  41  0.200  0.900  0.503- 140 2.11 123 2.11 139 2.11 120 2.11 141 2.11
  42  0.300  0.800  0.503- 136 2.11 139 2.11 140 2.11 159 2.11 142 2.11
  43  0.400  0.000  0.407- 126 2.11 145 2.11 146 2.11 161 2.11 143 2.11
  44  0.500  0.100  0.407- 145 2.11 146 2.11 150 2.11 165 2.11 144 2.11
  45  0.400  0.100  0.503- 124 2.11 143 2.11 144 2.11 147 2.11 145 2.11
  46  0.500  0.000  0.503- 143 2.11 144 2.11 160 2.11 163 2.11 146 2.11
  47  0.400  0.200  0.407- 149 2.11 145 2.11 130 2.11 150 2.11 147 2.11
  48  0.500  0.300  0.407- 150 2.11 149 2.11 154 2.11 169 2.11 148 2.11
  49  0.400  0.300  0.503- 147 2.11 128 2.11 148 2.11 151 2.11 149 2.11
  50  0.500  0.200  0.503- 148 2.11 147 2.11 144 2.11 167 2.11 150 2.11
  51  0.400  0.400  0.407- 134 2.11 149 2.11 153 2.11 154 2.11 151 2.11
  52  0.500  0.500  0.407- 153 2.11 154 2.11 158 2.11 173 2.11 152 2.11
  53  0.400  0.500  0.503- 132 2.11 151 2.11 152 2.11 155 2.11 153 2.11   2 2.82
  54  0.500  0.400  0.503- 148 2.11 151 2.11 152 2.11 171 2.11 154 2.11   1 2.82
  55  0.400  0.600  0.407- 138 2.11 153 2.11 157 2.11 158 2.11 155 2.11
  56  0.500  0.700  0.407- 162 2.11 158 2.11 157 2.11 177 2.11 156 2.11
  57  0.400  0.700  0.503- 159 2.11 155 2.11 156 2.11 136 2.11 157 2.11
  58  0.500  0.600  0.503- 152 2.11 155 2.11 156 2.11 175 2.11 158 2.11
  59  0.400  0.800  0.407- 157 2.11 142 2.11 161 2.11 162 2.11 159 2.11
  60  0.500  0.900  0.407- 146 2.11 161 2.11 162 2.11 181 2.11 160 2.11
[...]
 188  0.900  0.300  0.503-  90 2.11  89 2.11   9 2.11  94 2.11  88 2.11
 189  0.800  0.300  0.407-  68 2.11  87 2.11  88 2.11  91 2.11  89 2.11
 190  0.900  0.200  0.407-  88 2.11  84 2.11  87 2.11   7 2.11  90 2.11
 191  0.800  0.400  0.503-  74 2.11  89 2.11  93 2.11  94 2.11  91 2.11
 192  0.900  0.500  0.503-  13 2.11  93 2.11  94 2.11  98 2.11  92 2.11
 193  0.800  0.500  0.407-  72 2.11  91 2.11  92 2.11  95 2.11  93 2.11
 194  0.900  0.400  0.407-  11 2.11  88 2.11  91 2.11  92 2.11  94 2.11
 195  0.800  0.600  0.503-  78 2.11  93 2.11  97 2.11  98 2.11  95 2.11
 196  0.900  0.700  0.503- 102 2.11  97 2.11  98 2.11  17 2.11  96 2.11
 197  0.800  0.700  0.407-  76 2.11  99 2.11  96 2.11  95 2.11  97 2.11
 198  0.900  0.600  0.407-  15 2.11  92 2.11  95 2.11  96 2.11  98 2.11
 199  0.800  0.800  0.503-  82 2.11  97 2.11 101 2.11 102 2.11  99 2.11
 200  0.900  0.900  0.503-  21 2.11  86 2.11 101 2.11 102 2.11 100 2.11
 201  0.800  0.900  0.407-  80 2.11  83 2.11  99 2.11 100 2.11 101 2.11
 202  0.900  0.800  0.407-  96 2.11  19 2.11  99 2.11 100 2.11 102 2.11

IMPORTANT INFORMATION: All symmetrisations will be switched off!
NOSYMM: (Re-)initialisation of all symmetry stuff for point group C_1.

                                     Primitive cell

  volume of cell :    9881.6133

  direct lattice vectors                    reciprocal lattice vectors
    21.138852197  0.000000000  0.000000000     0.047306258  0.000000000  0.000000000
     0.000000000 21.138852197  0.000000000     0.000000000  0.047306258  0.000000000
     0.000000000  0.000000000 22.113885220     0.000000000  0.000000000  0.045220457

  length of vectors
    21.138852197 21.138852197 22.113885220     0.047306258  0.047306258  0.045220457

  position of ions in fractional coordinates (direct lattice)
     0.492280992  0.407719014  0.629662437
     0.407718984  0.492281023  0.629662437
     0.000000000  0.000000000  0.406984115
     0.100000000  0.100000000  0.406984115
     0.000000000  0.100000000  0.502574971
     0.100000000  0.000000000  0.502574971
     0.000000000  0.200000000  0.406984115
     0.100000000  0.300000000  0.406984115
     0.000000000  0.300000000  0.502574971
     0.100000000  0.200000000  0.502574971
     0.000000000  0.400000000  0.406984115
     0.100000000  0.500000000  0.406984115
     0.000000000  0.500000000  0.502574971
     0.100000000  0.400000000  0.502574971
     0.000000000  0.600000000  0.406984115
     0.100000000  0.700000000  0.406984115
     0.000000000  0.700000000  0.502574971
     0.100000000  0.600000000  0.502574971
     0.000000000  0.800000000  0.406984115
     0.100000000  0.900000000  0.406984115
     0.000000000  0.900000000  0.502574971
     0.100000000  0.800000000  0.502574971
     0.200000000  0.000000000  0.406984115
     0.300000000  0.100000000  0.406984115
     0.200000000  0.100000000  0.502574971
     0.300000000  0.000000000  0.502574971
     0.200000000  0.200000000  0.406984115
     0.300000000  0.300000000  0.406984115
     0.200000000  0.300000000  0.502574971
     0.300000000  0.200000000  0.502574971
     0.200000000  0.400000000  0.406984115
     0.300000000  0.500000000  0.406984115
     0.200000000  0.500000000  0.502574971
     0.300000000  0.400000000  0.502574971
     0.200000000  0.600000000  0.406984115
     0.300000000  0.700000000  0.406984115
     0.200000000  0.700000000  0.502574971
     0.300000000  0.600000000  0.502574971
     0.200000000  0.800000000  0.406984115
     0.300000000  0.900000000  0.406984115
     0.200000000  0.900000000  0.502574971
     0.300000000  0.800000000  0.502574971
     0.400000000  0.000000000  0.406984115
     0.500000000  0.100000000  0.406984115
     0.400000000  0.100000000  0.502574971
[...]
     52     -43.2782      2.00000
     53     -43.2773      2.00000
     54     -43.2767      2.00000
     55     -43.2761      2.00000
     56     -43.2757      2.00000
     57     -43.2756      2.00000
     58     -43.2755      2.00000
     59     -43.2747      2.00000
     60     -43.2745      2.00000
[...]
    850       4.4788      0.00000
    851       4.4912      0.00000
    852       4.5118      0.00000
    853       4.5633      0.00000
    854       4.5726      0.00000
    855       4.6035      0.00000
    856       4.6426      0.00000
    857       4.6615      0.00000
    858       4.7022      0.00000
    859       4.7304      0.00000
    860       4.7590      0.00000
    861       4.8115      0.00000
    862       4.8307      0.00000
    863       4.8545      0.00000
    864       4.9539      0.00000

 soft charge-density along one line, spin component           1
         0         1         2         3         4         5         6         7         8         9
 total charge-density along one line

------------------------ aborting loop because EDIFF is reached ----------------------------------------

  FORCE on cell =-STRESS in cart. coord.  units (eV):
  Direction    XX          YY          ZZ          XY          YZ          ZX
  Alpha Z  1365.75682  1365.75682  1365.75682
  Ewald  478966.19865478966.19865************  -341.35603     0.00001    -0.00001
  Hartree507750.95641507750.95534************  -229.32691    -0.00036    -0.00039
  E(xc)   -8178.17789 -8178.17789 -8204.13193    -0.37381    -0.00000     0.00000
  Local  ************************************   555.81158     0.00038     0.00033
  n-local -8939.76602 -8939.76606 -9054.78852     8.28374     0.00002    -0.00001
  augment  3909.59889  3909.59890  3853.81034     1.75022    -0.00001     0.00002
  Kinetic 23021.96830 23021.96830 23269.48114     5.36323    -0.00017     0.00005
  Fock        0.00000     0.00000     0.00000     0.00000     0.00000     0.00000
  Total    -167.10082  -167.10093     8.37305     0.15202    -0.00013    -0.00001
  in kB     -27.09326   -27.09328     1.35758     0.02465    -0.00002    -0.00000

 VOLUME and BASIS-vectors are now :
  energy-cutoff  :      520.00
  volume of cell :     9881.61
      direct lattice vectors                 reciprocal lattice vectors
    21.138852197  0.000000000  0.000000000     0.047306258  0.000000000  0.000000000
     0.000000000 21.138852197  0.000000000     0.000000000  0.047306258  0.000000000
     0.000000000  0.000000000 22.113885220     0.000000000  0.000000000  0.045220457

  length of vectors
    21.138852197 21.138852197 22.113885220     0.047306258  0.047306258  0.045220457

 FORCES acting on ions:
    Electron-Ion                     Ewald-Force                    Non-Local-Force
   -.195E+03 0.195E+03 -.203E+04   0.191E+03 -.191E+03 0.203E+04   0.469E+01 -.469E+01 0.509E+00
   0.195E+03 -.195E+03 -.203E+04   -.191E+03 0.191E+03 0.203E+04   -.469E+01 0.469E+01 0.509E+00
   0.174E+01 0.174E+01 0.932E+03   -.174E+01 -.174E+01 -.923E+03   -.225E-02 -.242E-02 -.792E+01
   0.628E+01 0.628E+01 0.934E+03   -.627E+01 -.627E+01 -.925E+03   -.465E-02 -.477E-02 -.792E+01
   0.263E+01 0.602E+01 -.923E+03   -.261E+01 -.602E+01 0.914E+03   -.114E-01 -.377E-03 0.789E+01
   0.602E+01 0.263E+01 -.923E+03   -.602E+01 -.261E+01 0.914E+03   -.294E-03 -.116E-01 0.789E+01
   0.297E+01 0.642E+01 0.934E+03   -.295E+01 -.643E+01 -.926E+03   -.146E-01 0.450E-02 -.792E+01
   0.131E+02 0.814E+01 0.939E+03   -.131E+02 -.817E+01 -.931E+03   -.122E-01 0.186E-01 -.792E+01
   0.582E+01 0.718E+01 -.920E+03   -.580E+01 -.719E+01 0.912E+03   -.168E-01 0.632E-02 0.789E+01
   0.127E+02 0.117E+02 -.919E+03   -.127E+02 -.117E+02 0.911E+03   -.208E-01 0.154E-02 0.789E+01
   0.529E+01 0.235E+01 0.937E+03   -.529E+01 -.236E+01 -.929E+03   0.788E-03 0.703E-02 -.792E+01
   0.170E+02 -.270E+01 0.942E+03   -.170E+02 0.268E+01 -.934E+03   0.649E-01 0.145E-01 -.793E+01
   0.827E+01 -.258E+01 -.919E+03   -.829E+01 0.257E+01 0.910E+03   0.160E-01 0.446E-02 0.789E+01
   0.256E+02 0.587E+01 -.913E+03   -.256E+02 -.591E+01 0.905E+03   -.261E-02 0.246E-01 0.788E+01
   0.500E+01 -.548E+01 0.936E+03   -.503E+01 0.548E+01 -.928E+03   0.254E-01 -.225E-02 -.792E+01
   0.102E+02 -.908E+01 0.937E+03   -.102E+02 0.910E+01 -.929E+03   0.290E-01 -.156E-01 -.791E+01
   0.522E+01 -.823E+01 -.921E+03   -.525E+01 0.824E+01 0.913E+03   0.231E-01 -.513E-02 0.789E+01
   0.219E+02 -.112E+02 -.915E+03   -.219E+02 0.112E+02 0.907E+03   0.534E-01 0.217E-02 0.789E+01
   0.264E+01 -.504E+01 0.933E+03   -.266E+01 0.505E+01 -.924E+03   0.130E-01 -.688E-02 -.792E+01
   0.504E+01 -.264E+01 0.933E+03   -.505E+01 0.266E+01 -.924E+03   0.696E-02 -.130E-01 -.792E+01
   0.239E+01 -.239E+01 -.923E+03   -.239E+01 0.239E+01 0.915E+03   0.530E-02 -.524E-02 0.789E+01
   0.903E+01 -.903E+01 -.921E+03   -.905E+01 0.905E+01 0.913E+03   0.169E-01 -.168E-01 0.789E+01
   0.642E+01 0.297E+01 0.934E+03   -.643E+01 -.295E+01 -.926E+03   0.452E-02 -.147E-01 -.792E+01
   0.814E+01 0.131E+02 0.939E+03   -.817E+01 -.131E+02 -.931E+03   0.186E-01 -.123E-01 -.792E+01
   0.117E+02 0.127E+02 -.919E+03   -.117E+02 -.127E+02 0.911E+03   0.157E-02 -.209E-01 0.789E+01
   0.718E+01 0.582E+01 -.920E+03   -.719E+01 -.580E+01 0.912E+03   0.629E-02 -.169E-01 0.789E+01
   0.136E+02 0.136E+02 0.941E+03   -.136E+02 -.136E+02 -.933E+03   -.823E-03 -.854E-03 -.793E+01
   0.229E+02 0.229E+02 0.963E+03   -.229E+02 -.229E+02 -.954E+03   0.329E-01 0.328E-01 -.800E+01
   0.345E+02 0.229E+02 -.906E+03   -.344E+02 -.229E+02 0.898E+03   -.666E-01 0.297E-01 0.787E+01
   0.229E+02 0.345E+02 -.906E+03   -.229E+02 -.344E+02 0.898E+03   0.298E-01 -.666E-01 0.787E+01
   0.272E+02 0.713E+01 0.955E+03   -.272E+02 -.722E+01 -.947E+03   -.941E-03 0.728E-01 -.793E+01
   0.324E+02 -.885E+01 0.982E+03   -.323E+02 0.876E+01 -.974E+03   -.646E-01 0.621E-01 -.763E+01
   0.546E+02 -.782E+01 -.893E+03   -.548E+02 0.775E+01 0.885E+03   0.174E+00 0.543E-01 0.789E+01
   0.809E+02 0.359E+02 -.848E+03   -.806E+02 -.362E+02 0.840E+03   -.241E+00 0.256E+00 0.775E+01
   0.222E+02 -.136E+02 0.951E+03   -.223E+02 0.136E+02 -.942E+03   0.615E-01 -.269E-01 -.791E+01
   0.136E+02 -.222E+02 0.951E+03   -.136E+02 0.223E+02 -.942E+03   0.270E-01 -.615E-01 -.791E+01
   0.227E+02 -.227E+02 -.912E+03   -.227E+02 0.227E+02 0.904E+03   0.401E-01 -.401E-01 0.790E+01
   0.532E+02 -.532E+02 -.870E+03   -.534E+02 0.534E+02 0.862E+03   0.132E+00 -.132E+00 0.792E+01
   0.908E+01 -.102E+02 0.937E+03   -.910E+01 0.102E+02 -.929E+03   0.156E-01 -.290E-01 -.791E+01
   0.548E+01 -.500E+01 0.936E+03   -.548E+01 0.503E+01 -.928E+03   0.226E-02 -.253E-01 -.792E+01
   0.823E+01 -.522E+01 -.921E+03   -.824E+01 0.525E+01 0.913E+03   0.513E-02 -.231E-01 0.789E+01
   0.112E+02 -.219E+02 -.915E+03   -.112E+02 0.219E+02 0.907E+03   -.218E-02 -.534E-01 0.789E+01
   0.235E+01 0.529E+01 0.937E+03   -.236E+01 -.529E+01 -.929E+03   0.699E-02 0.776E-03 -.792E+01
   -.270E+01 0.170E+02 0.942E+03   0.268E+01 -.170E+02 -.934E+03   0.144E-01 0.649E-01 -.793E+01
   0.587E+01 0.256E+02 -.913E+03   -.591E+01 -.256E+02 0.905E+03   0.247E-01 -.261E-02 0.788E+01
   -.258E+01 0.827E+01 -.919E+03   0.257E+01 -.829E+01 0.910E+03   0.431E-02 0.160E-01 0.789E+01
   0.713E+01 0.272E+02 0.955E+03   -.722E+01 -.272E+02 -.947E+03   0.728E-01 -.932E-03 -.793E+01
   -.885E+01 0.324E+02 0.982E+03   0.876E+01 -.323E+02 -.974E+03   0.619E-01 -.646E-01 -.763E+01
   0.359E+02 0.809E+02 -.848E+03   -.362E+02 -.806E+02 0.840E+03   0.256E+00 -.241E+00 0.775E+01
   -.782E+01 0.546E+02 -.893E+03   0.775E+01 -.548E+02 0.885E+03   0.542E-01 0.174E+00 0.789E+01
   0.170E+02 0.170E+02 0.101E+04   -.170E+02 -.170E+02 -.997E+03   0.168E-01 0.166E-01 -.817E+01
   -.170E+02 -.170E+02 0.101E+04   0.170E+02 0.170E+02 -.997E+03   -.168E-01 -.168E-01 -.817E+01
   0.492E+02 -.492E+02 -.709E+03   -.486E+02 0.486E+02 0.704E+03   -.478E+00 0.478E+00 0.517E+01
   -.492E+02 0.492E+02 -.709E+03   0.486E+02 -.486E+02 0.704E+03   0.478E+00 -.478E+00 0.517E+01
   0.885E+01 -.324E+02 0.982E+03   -.876E+01 0.323E+02 -.974E+03   -.621E-01 0.646E-01 -.763E+01
   -.713E+01 -.272E+02 0.955E+03   0.722E+01 0.272E+02 -.947E+03   -.729E-01 0.967E-03 -.793E+01
   0.782E+01 -.546E+02 -.893E+03   -.775E+01 0.548E+02 0.885E+03   -.543E-01 -.174E+00 0.789E+01
   -.359E+02 -.809E+02 -.848E+03   0.362E+02 0.806E+02 0.840E+03   -.256E+00 0.241E+00 0.775E+01
   0.270E+01 -.170E+02 0.942E+03   -.268E+01 0.170E+02 -.934E+03   -.145E-01 -.648E-01 -.793E+01
   -.235E+01 -.529E+01 0.937E+03   0.236E+01 0.529E+01 -.929E+03   -.711E-02 -.707E-03 -.792E+01
[...]
   -.107E+02 0.587E+01 0.706E+03   0.107E+02 -.588E+01 -.710E+03   -.437E-01 0.112E-01 0.353E+01
   -.285E+01 0.488E+01 0.702E+03   0.286E+01 -.489E+01 -.706E+03   -.194E-01 0.881E-02 0.352E+01
   -.202E+02 0.279E+01 -.686E+03   0.203E+02 -.277E+01 0.690E+03   -.344E-01 -.265E-01 -.357E+01
   -.574E+01 -.234E+01 -.690E+03   0.573E+01 0.234E+01 0.694E+03   0.119E-02 -.972E-02 -.356E+01
   -.123E+02 -.287E+01 0.708E+03   0.123E+02 0.290E+01 -.712E+03   -.132E-01 -.371E-01 0.351E+01
   -.424E+01 0.152E+01 0.704E+03   0.425E+01 -.152E+01 -.708E+03   -.141E-01 -.409E-02 0.352E+01
   -.145E+02 -.865E+01 -.688E+03   0.145E+02 0.866E+01 0.693E+03   0.129E-01 -.168E-01 -.357E+01
   -.293E+01 -.605E+01 -.692E+03   0.292E+01 0.606E+01 0.696E+03   0.141E-01 -.339E-02 -.356E+01
   -.690E+01 -.655E+01 0.703E+03   0.689E+01 0.655E+01 -.707E+03   0.110E-01 -.133E-02 0.352E+01
   -.313E+01 -.419E+01 0.703E+03   0.313E+01 0.420E+01 -.707E+03   0.937E-02 -.921E-02 0.352E+01
   -.608E+01 -.608E+01 -.692E+03   0.607E+01 0.607E+01 0.696E+03   0.917E-02 0.918E-02 -.356E+01
   -.159E+01 -.159E+01 -.694E+03   0.159E+01 0.159E+01 0.698E+03   0.286E-02 0.289E-02 -.355E+01
   -.366E+01 -.157E+01 0.701E+03   0.366E+01 0.156E+01 -.705E+03   -.826E-03 0.889E-02 0.352E+01
   -.157E+01 -.366E+01 0.701E+03   0.156E+01 0.366E+01 -.705E+03   0.888E-02 -.845E-03 0.352E+01
   -.675E-03 0.260E-03 0.112E+02   0.312E-11 -.803E-12 -.239E-11   0.397E-03 0.137E-03 -.119E+02

 POSITION                                       TOTAL-FORCE (eV/Angst)
     10.40626      8.61871     13.92428        -0.022884      0.022755      0.080658
      8.61871     10.40626     13.92428         0.022555     -0.022708      0.080639
      0.00000      0.00000      9.00000         0.000579      0.000838      0.401897
      2.11389      2.11389      9.00000         0.001312      0.001538      0.402873
      0.00000      2.11389     11.11389         0.003047      0.000398     -0.398416
      2.11389      0.00000     11.11389         0.000240      0.003292     -0.398203
      0.00000      4.22777      9.00000         0.003739     -0.001026      0.402631
      2.11389      6.34166      9.00000         0.002775     -0.004937      0.403467
      0.00000      6.34166     11.11389         0.004322     -0.001720     -0.397624
      2.11389      4.22777     11.11389         0.005568      0.000003     -0.396605
      0.00000      8.45554      9.00000        -0.000520     -0.002047      0.402826
      2.11389     10.56943      9.00000        -0.016698     -0.004349      0.404799
      0.00000     10.56943     11.11389        -0.004189     -0.001417     -0.397641
      2.11389      8.45554     11.11389         0.000684     -0.007370     -0.394410
      0.00000     12.68331      9.00000        -0.006791      0.000571      0.402327
      2.11389     14.79720      9.00000        -0.008069      0.004363      0.400885
      0.00000     14.79720     11.11389        -0.006344      0.001334     -0.398311
      2.11389     12.68331     11.11389        -0.014568     -0.000373     -0.397612
      0.00000     16.91108      9.00000        -0.003633      0.001748      0.401732
      2.11389     19.02497      9.00000        -0.001819      0.003535      0.401611
      0.00000     19.02497     11.11389        -0.001509      0.001371     -0.398450
      2.11389     16.91108     11.11389        -0.004667      0.004525     -0.398393
      4.22777      0.00000      9.00000        -0.001114      0.003888      0.402375
      6.34166      2.11389      9.00000        -0.004979      0.002906      0.403297
      4.22777      2.11389     11.11389        -0.000065      0.005740     -0.396480
      6.34166      0.00000     11.11389        -0.001643      0.004481     -0.397301
      4.22777      4.22777      9.00000         0.000699      0.000829      0.406181
      6.34166      6.34166      9.00000        -0.005944     -0.005732      0.423808
      4.22777      6.34166     11.11389         0.018968     -0.006299     -0.387625
      6.34166      4.22777     11.11389        -0.006393      0.019017     -0.387512
      4.22777      8.45554      9.00000        -0.002828     -0.022626      0.404074
      6.34166     10.56943      9.00000         0.022304     -0.020239      0.327637
      4.22777     10.56943     11.11389        -0.062913     -0.017426     -0.386857
      6.34166      8.45554     11.11389         0.089439     -0.058455     -0.298249
      4.22777     12.68331      9.00000        -0.018094      0.009159      0.397688
      6.34166     14.79720      9.00000        -0.009192      0.018070      0.397683
      4.22777     14.79720     11.11389        -0.011396      0.011351     -0.399438
      6.34166     12.68331     11.11389        -0.031527      0.031525     -0.402378
      4.22777     16.91108      9.00000        -0.004354      0.008004      0.400786
      6.34166     19.02497      9.00000        -0.000589      0.006645      0.402213
      4.22777     19.02497     11.11389        -0.001304      0.006272     -0.398188
      6.34166     16.91108     11.11389         0.000429      0.014522     -0.397584
      8.45554      0.00000      9.00000        -0.001948     -0.000494      0.402638
     10.56943      2.11389      9.00000        -0.004145     -0.016729      0.404749
      8.45554      2.11389     11.11389        -0.007356      0.000693     -0.394222
     10.56943      0.00000     11.11389        -0.001209     -0.004198     -0.397523
      8.45554      4.22777      9.00000        -0.022655     -0.002836      0.403944
     10.56943      6.34166      9.00000        -0.020017      0.022301      0.327493
      8.45554      6.34166     11.11389        -0.058593      0.089504     -0.298076
     10.56943      4.22777     11.11389        -0.017302     -0.062961     -0.386729
      8.45554      8.45554      9.00000         0.000049      0.000275      0.443602
     10.56943     10.56943      9.00000        -0.000092      0.000008      0.443641
      8.45554     10.56943     11.11389         0.161265     -0.161321     -0.254544
     10.56943      8.45554     11.11389        -0.161336      0.161366     -0.254436
      8.45554     12.68331      9.00000         0.020268     -0.022332      0.327667
     10.56943     14.79720      9.00000         0.022773      0.002746      0.404182
      8.45554     14.79720     11.11389         0.017473      0.062884     -0.386817
     10.56943     12.68331     11.11389         0.058737     -0.089347     -0.298404
      8.45554     16.91108      9.00000         0.004323      0.016652      0.404794
     10.56943     19.02497      9.00000         0.002146      0.000369      0.402759
[...]
     19.02497      6.34166     11.11389        -0.005809      0.000763      0.510264
     16.91108      6.34166      9.00000        -0.011921      0.003344     -0.514719
     19.02497      4.22777      9.00000        -0.005479      0.002856     -0.515339
     16.91108      8.45554     11.11389        -0.009696     -0.007410      0.507944
     19.02497     10.56943     11.11389         0.000157     -0.002881      0.509556
     16.91108     10.56943      9.00000        -0.003551     -0.010408     -0.517915
     19.02497      8.45554      9.00000        -0.004021     -0.001156     -0.515603
     16.91108     12.68331     11.11389         0.003597     -0.004775      0.507662
     19.02497     14.79720     11.11389         0.003712     -0.001174      0.510843
     16.91108     14.79720      9.00000         0.002929     -0.000591     -0.517009
     19.02497     12.68331      9.00000         0.002466     -0.002754     -0.516217
     16.91108     16.91108     11.11389         0.002300      0.002321      0.510556
     19.02497     19.02497     11.11389         0.000478      0.000697      0.512149
     16.91108     19.02497      9.00000        -0.000625      0.002350     -0.516101
     19.02497     16.91108      9.00000         0.002159     -0.000506     -0.516167
    total drift:                               -0.000278      0.000397     -0.652871

  FREE ENERGIE OF THE ION-ELECTRON SYSTEM (eV)
  free  energy   TOTEN  =     -1761.36916518 eV

  energy  without entropy=    -1761.36916518  energy(sigma->0) =    -1761.36916518