 vasp.6.3.0 20Jan22 (build Apr  1 2022 16:44:48) complex
 executed on        HPECrayEX_GCC date 2022.10.13  12:40:49

 INCAR:
   SYSTEM = MgO-rocksalt
   ISMEAR = 0
   SIGMA = 0.05
   EDIFF = 1E-6
   ALGO = ALL
   ISTART = 0
   IBRION = -1
   NSW = 0
   ISYM = 2
   DIPOL = 0.5 0.5 0.5
   IDIPOL = 3
   LDIPOL = .TRUE.
   LHFCALC = .TRUE.
   HFSCREEN = 0.2
   GGA = PE
   IVDW = 13
   VDW_S8 = 1.19528249
   VDW_A1 = 0.38663183
   VDW_A2 = 5.19133469
   ENCUT = 520
   PREC = Accurate
   LASPH = .TRUE.
   LREAL = Auto
   ISPIN = 1
   NELM = 200
   NELMIN = 8
   NCORE = 4
   KPAR = 2
   LWAVE = .FALSE.
   LCHARG = .FALSE.

 POTCAR:    PAW_PBE Au 04Oct2007
 POTCAR:    PAW_PBE Mg_pv 13Apr2007
 POTCAR:    PAW_PBE O 08Apr2002
|           W    W    AA    RRRRR   N    N  II  N    N   GGGG   !!!           |
|           W    W   A  A   R    R  NN   N  II  NN   N  G    G  !!!           |
|           W    W  A    A  R    R  N N  N  II  N N  N  G       !!!           |
|           W WW W  AAAAAA  RRRRR   N  N N  II  N  N N  G  GGG   !            |
|           WW  WW  A    A  R   R   N   NN  II  N   NN  G    G                |
|           W    W  A    A  R    R  N    N  II  N    N   GGGG   !!!           |
|     You have selected ISYM=2 for a HF type calculation. This will           |
|     symmetrize the charge density but not the exchange potential. I         |
|     suggest to use ISYM=3 instead. This uses symmetry to obtain the         |
|     orbitals at all k-points in the Brillouin zone, but does not apply      |
|     symmetry to the Hartree potential directly. The resultant charge        |
|     might have lower symmetry than the crystal but, at least, Hartree       |
|     and exchange are fully compatible.                                      |

   TITEL  = PAW_PBE Au 04Oct2007
   POMASS =  196.966; ZVAL   =   11.000    mass and valenz
   ENMAX  =  229.943; ENMIN  =  172.457 eV

   TITEL  = PAW_PBE Mg_pv 13Apr2007
   POMASS =   24.305; ZVAL   =    8.000    mass and valenz
   ENMAX  =  403.929; ENMIN  =  302.947 eV

   TITEL  = PAW_PBE O 08Apr2002
   POMASS =   16.000; ZVAL   =    6.000    mass and valenz
   ENMAX  =  400.000; ENMIN  =  300.000 eV

 Optimization of the real space projectors (new method)

 maximal supplied QI-value         = 15.12
 optimisation between [QCUT,QGAM] = [ 11.64, 23.28] = [ 37.95,151.78] Ry
 Optimized for a Real-space Cutoff    1.49 Angstroem

   l    n(q)    QCUT    max X(q) W(low)/X(q) W(high)/X(q)  e(spline)
   2      9    11.641    60.898    0.24E-03    0.10E-03    0.19E-06
   2      9    11.641    58.894    0.25E-03    0.10E-03    0.19E-06
   0     10    11.641   109.617    0.73E-04    0.33E-04    0.11E-06
   0     10    11.641    75.026    0.71E-04    0.32E-04    0.11E-06
   1     10    11.641    16.344    0.27E-04    0.97E-04    0.16E-06
   1     10    11.641    10.160    0.23E-04    0.77E-04    0.13E-06
 Optimization of the real space projectors (new method)

[...]

   l    n(q)    QCUT    max X(q) W(low)/X(q) W(high)/X(q)  e(spline)
   1      8    11.527     2.974    0.44E-04    0.56E-04    0.12E-06
   1      8    11.527     4.279    0.12E-03    0.12E-03    0.26E-06
   0      9    11.527    16.381    0.46E-04    0.64E-04    0.78E-07
   0      9    11.527     5.611    0.26E-04    0.43E-04    0.55E-07
   2      8    11.527     4.652    0.22E-03    0.72E-04    0.47E-07
 Optimization of the real space projectors (new method)

 maximal supplied QI-value         = 24.76
 optimisation between [QCUT,QGAM] = [ 11.64, 23.27] = [ 37.91,151.63] Ry
 Optimized for a Real-space Cutoff    1.14 Angstroem

   l    n(q)    QCUT    max X(q) W(low)/X(q) W(high)/X(q)  e(spline)
   0      8    11.635    20.381    0.10E-03    0.33E-03    0.24E-06
   0      8    11.635    15.268    0.11E-03    0.35E-03    0.26E-06
   1      7    11.635     5.964    0.24E-03    0.31E-03    0.30E-06
   1      7    11.635     5.382    0.22E-03    0.25E-03    0.26E-06
  PAW_PBE Au 04Oct2007                  :
  PAW_PBE Mg_pv 13Apr2007               :
  PAW_PBE O 08Apr2002                   :

 POSCAR: Au Mg  O
  positions in direct lattice
|           W    W    AA    RRRRR   N    N  II  N    N   GGGG   !!!           |
|           W    W   A  A   R    R  NN   N  II  NN   N  G    G  !!!           |
|           W    W  A    A  R    R  N N  N  II  N N  N  G       !!!           |
|           W WW W  AAAAAA  RRRRR   N  N N  II  N  N N  G  GGG   !            |
|           WW  WW  A    A  R   R   N   NN  II  N   NN  G    G                |
|           W    W  A    A  R    R  N    N  II  N    N   GGGG   !!!           |
|     Specifying the vdW parameters                                           |
|     VDW_S8 = 1.195                                                          |
|     VDW_A1 = 0.387                                                          |
|     VDW_A2 = 5.191                                                          |
|     in the INCAR file will overwrite the defaults for hse06. Please         |
|     make sure that is what you intended.                                    |

 ion  position               nearest neighbor table
   1  0.500  0.600  0.740-   2 2.53
   2  0.500  0.600  0.626-   1 2.53  58 2.73
   3  0.000  0.000  0.407- 105 2.11 106 2.11 121 2.11 186 2.11 103 2.11
   4  0.100  0.100  0.407- 105 2.11 106 2.11 110 2.11 125 2.11 104 2.11
   5  0.000  0.100  0.503- 103 2.11 104 2.11 107 2.11 184 2.11 105 2.11
   6  0.100  0.000  0.503- 103 2.11 104 2.11 120 2.11 123 2.11 106 2.11
   7  0.000  0.200  0.407- 109 2.11 105 2.11 110 2.11 190 2.11 107 2.11
   8  0.100  0.300  0.407- 110 2.11 109 2.11 114 2.11 129 2.11 108 2.11
   9  0.000  0.300  0.503- 107 2.11 108 2.11 111 2.11 188 2.11 109 2.11
  10  0.100  0.200  0.503- 108 2.11 107 2.11 104 2.11 127 2.11 110 2.11
  11  0.000  0.400  0.407- 109 2.11 113 2.11 114 2.11 194 2.11 111 2.11
  12  0.100  0.500  0.407- 113 2.11 114 2.11 118 2.11 133 2.11 112 2.11
  13  0.000  0.500  0.503- 111 2.11 112 2.11 115 2.11 192 2.11 113 2.11
  14  0.100  0.400  0.503- 108 2.11 111 2.11 112 2.11 131 2.11 114 2.11
  15  0.000  0.600  0.407- 113 2.11 117 2.11 118 2.11 198 2.11 115 2.11
  16  0.100  0.700  0.407- 122 2.11 118 2.11 117 2.11 137 2.11 116 2.11
  17  0.000  0.700  0.503- 119 2.11 116 2.11 115 2.11 196 2.11 117 2.11
  18  0.100  0.600  0.503- 112 2.11 115 2.11 116 2.11 135 2.11 118 2.11
  19  0.000  0.800  0.407- 117 2.11 121 2.11 122 2.11 202 2.11 119 2.11
  20  0.100  0.900  0.407- 106 2.11 121 2.11 122 2.11 141 2.11 120 2.11
  21  0.000  0.900  0.503- 103 2.11 119 2.11 120 2.11 200 2.11 121 2.11
  22  0.100  0.800  0.503- 116 2.11 119 2.11 120 2.11 139 2.11 122 2.11
  23  0.200  0.000  0.407- 126 2.11 125 2.11 106 2.11 141 2.11 123 2.11
  24  0.300  0.100  0.407- 125 2.11 126 2.11 130 2.11 145 2.11 124 2.11
  25  0.200  0.100  0.503- 124 2.11 123 2.11 104 2.11 127 2.11 125 2.11
  26  0.300  0.000  0.503- 123 2.11 124 2.11 140 2.11 143 2.11 126 2.11
  27  0.200  0.200  0.407- 129 2.11 130 2.11 110 2.11 125 2.11 127 2.11
  28  0.300  0.300  0.407- 129 2.11 130 2.11 134 2.11 149 2.11 128 2.11
  29  0.200  0.300  0.503- 127 2.11 128 2.11 108 2.11 131 2.11 129 2.11
  30  0.300  0.200  0.503- 127 2.11 128 2.11 124 2.11 147 2.11 130 2.11
  31  0.200  0.400  0.407- 134 2.11 129 2.11 133 2.11 114 2.11 131 2.11
  32  0.300  0.500  0.407- 133 2.11 134 2.11 138 2.11 153 2.11 132 2.11
  33  0.200  0.500  0.503- 132 2.11 131 2.11 112 2.11 135 2.11 133 2.11
  34  0.300  0.400  0.503- 131 2.11 128 2.11 132 2.11 151 2.11 134 2.11
  35  0.200  0.600  0.407- 138 2.11 133 2.11 137 2.11 118 2.11 135 2.11
  36  0.300  0.700  0.407- 137 2.11 142 2.11 138 2.11 157 2.11 136 2.11
  37  0.200  0.700  0.503- 136 2.11 139 2.11 116 2.11 135 2.11 137 2.11
  38  0.300  0.600  0.503- 135 2.11 132 2.11 136 2.11 155 2.11 138 2.11
  39  0.200  0.800  0.407- 137 2.11 142 2.11 141 2.11 122 2.11 139 2.11
  40  0.300  0.900  0.407- 141 2.11 126 2.11 142 2.11 161 2.11 140 2.11
  41  0.200  0.900  0.503- 140 2.11 123 2.11 139 2.11 120 2.11 141 2.11
  42  0.300  0.800  0.503- 136 2.11 139 2.11 140 2.11 159 2.11 142 2.11
  43  0.400  0.000  0.407- 126 2.11 145 2.11 146 2.11 161 2.11 143 2.11
  44  0.500  0.100  0.407- 145 2.11 146 2.11 150 2.11 165 2.11 144 2.11
  45  0.400  0.100  0.503- 124 2.11 143 2.11 144 2.11 147 2.11 145 2.11
  46  0.500  0.000  0.503- 143 2.11 144 2.11 160 2.11 163 2.11 146 2.11
  47  0.400  0.200  0.407- 149 2.11 145 2.11 130 2.11 150 2.11 147 2.11
  48  0.500  0.300  0.407- 150 2.11 149 2.11 154 2.11 169 2.11 148 2.11
  49  0.400  0.300  0.503- 147 2.11 128 2.11 148 2.11 151 2.11 149 2.11
  50  0.500  0.200  0.503- 148 2.11 147 2.11 144 2.11 167 2.11 150 2.11
  51  0.400  0.400  0.407- 134 2.11 149 2.11 153 2.11 154 2.11 151 2.11
  52  0.500  0.500  0.407- 153 2.11 154 2.11 158 2.11 173 2.11 152 2.11
  53  0.400  0.500  0.503- 132 2.11 151 2.11 152 2.11 155 2.11 153 2.11
  54  0.500  0.400  0.503- 148 2.11 151 2.11 152 2.11 171 2.11 154 2.11
  55  0.400  0.600  0.407- 138 2.11 153 2.11 157 2.11 158 2.11 155 2.11
  56  0.500  0.700  0.407- 162 2.11 158 2.11 157 2.11 177 2.11 156 2.11
  57  0.400  0.700  0.503- 159 2.11 155 2.11 156 2.11 136 2.11 157 2.11
  58  0.500  0.600  0.503- 152 2.11 155 2.11 156 2.11 175 2.11 158 2.11   2 2.73
  59  0.400  0.800  0.407- 157 2.11 142 2.11 161 2.11 162 2.11 159 2.11
  60  0.500  0.900  0.407- 146 2.11 161 2.11 162 2.11 181 2.11 160 2.11
[...]
 188  0.900  0.300  0.503-  90 2.11  89 2.11   9 2.11  94 2.11  88 2.11
 189  0.800  0.300  0.407-  68 2.11  87 2.11  88 2.11  91 2.11  89 2.11
 190  0.900  0.200  0.407-  88 2.11  84 2.11  87 2.11   7 2.11  90 2.11
 191  0.800  0.400  0.503-  74 2.11  89 2.11  93 2.11  94 2.11  91 2.11
 192  0.900  0.500  0.503-  13 2.11  93 2.11  94 2.11  98 2.11  92 2.11
 193  0.800  0.500  0.407-  72 2.11  91 2.11  92 2.11  95 2.11  93 2.11
 194  0.900  0.400  0.407-  11 2.11  88 2.11  91 2.11  92 2.11  94 2.11
 195  0.800  0.600  0.503-  78 2.11  93 2.11  97 2.11  98 2.11  95 2.11
 196  0.900  0.700  0.503- 102 2.11  97 2.11  98 2.11  17 2.11  96 2.11
 197  0.800  0.700  0.407-  76 2.11  99 2.11  96 2.11  95 2.11  97 2.11
 198  0.900  0.600  0.407-  15 2.11  92 2.11  95 2.11  96 2.11  98 2.11
 199  0.800  0.800  0.503-  82 2.11  97 2.11 101 2.11 102 2.11  99 2.11
 200  0.900  0.900  0.503-  21 2.11  86 2.11 101 2.11 102 2.11 100 2.11
 201  0.800  0.900  0.407-  80 2.11  83 2.11  99 2.11 100 2.11 101 2.11
 202  0.900  0.800  0.407-  96 2.11  19 2.11  99 2.11 100 2.11 102 2.11

  LATTYP: Found a simple tetragonal cell.
 ALAT       =    21.1388521970
 C/A-ratio  =     1.0461251639

  Lattice vectors:

 A1 = (  21.1388521970,   0.0000000000,   0.0000000000)
 A2 = (   0.0000000000,  21.1388521970,   0.0000000000)
 A3 = (   0.0000000000,   0.0000000000,  22.1138852197)

Analysis of symmetry for initial positions (statically):
 Subroutine PRICEL returns:
 Original cell was already a primitive cell.

 Routine SETGRP: Setting up the symmetry group for a
 simple tetragonal supercell.

 Subroutine GETGRP returns: Found  8 space group operations
 (whereof  2 operations were pure point group operations)
 out of a pool of 16 trial point group operations.

The static configuration has the point symmetry C_1h.
[...]
     22     -46.5949      2.00000
     23     -46.5948      2.00000
     24     -46.5948      2.00000
     25     -46.5947      2.00000
     26     -46.5919      2.00000
     27     -46.5906      2.00000
     28     -46.5906      2.00000
     29     -46.5904      2.00000
     30     -46.5879      2.00000
     31     -46.5879      2.00000
     32     -46.5879      2.00000
     33     -46.5879      2.00000
     34     -46.5849      2.00000
     35     -46.5837      2.00000
     36     -46.5837      2.00000
     37     -46.5835      2.00000
     38     -46.5833      2.00000
     39     -46.5810      2.00000
     40     -46.5804      2.00000
     41     -46.5804      2.00000
     42     -46.5802      2.00000
     43     -46.5797      2.00000
     44     -46.5788      2.00000
     45     -46.5788      2.00000
     46     -46.5772      2.00000
     47     -46.5770      2.00000
     48     -46.5770      2.00000
     49     -46.5767      2.00000
     50     -46.5765      2.00000
     51     -46.5757      2.00000
     52     -46.5757      2.00000
     53     -46.5757      2.00000
     54     -46.5747      2.00000
     55     -46.5742      2.00000
     56     -46.5742      2.00000
     57     -46.5741      2.00000
     58     -46.5734      2.00000
     59     -46.5731      2.00000
     60     -46.5727      2.00000
[...]
    882       5.0930      0.00000
    883       5.1497      0.00000
    884       5.1686      0.00000
    885       5.1731      0.00000
    886       5.2017      0.00000
    887       5.4268      0.00000
    888       5.5187      0.00000
    889       5.7173      0.00000
    890       5.7773      0.00000
    891       5.8590      0.00000
    892       5.9661      0.00000
    893       6.0191      0.00000
    894       6.0866      0.00000
    895       6.1423      0.00000
    896       6.1508      0.00000

 soft charge-density along one line, spin component           1
         0         1         2         3         4         5         6         7         8         9
 total charge-density along one line

------------------------ aborting loop because EDIFF is reached ----------------------------------------

 VOLUME and BASIS-vectors are now :
  energy-cutoff  :      520.00
  volume of cell :     9881.61
      direct lattice vectors                 reciprocal lattice vectors
    21.138852197  0.000000000  0.000000000     0.047306258  0.000000000  0.000000000
     0.000000000 21.138852197  0.000000000     0.000000000  0.047306258  0.000000000
     0.000000000  0.000000000 22.113885220     0.000000000  0.000000000  0.045220457

  length of vectors
    21.138852197 21.138852197 22.113885220     0.047306258  0.047306258  0.045220457

 FORCES acting on ions:
    Electron-Ion                     Ewald-Force                    Non-Local-Force
   0.277E-03 0.278E-07 -.162E+04   -.901E-08 -.213E-07 0.161E+04   0.000E+00 0.000E+00 0.741E+01
   0.281E-03 0.829E-05 -.178E+04   -.329E-05 -.778E-05 0.178E+04   0.000E+00 0.000E+00 -.636E+01
   0.527E-04 -.299E+01 0.932E+03   -.939E-06 0.300E+01 -.923E+03   0.000E+00 -.322E-02 -.717E+01
   0.299E+01 -.319E-03 0.932E+03   -.300E+01 -.222E-05 -.923E+03   0.322E-02 0.339E-20 -.717E+01
   0.521E-04 -.319E-03 -.923E+03   -.102E-05 -.242E-05 0.915E+03   0.000E+00 0.000E+00 0.714E+01
   0.436E+01 -.436E+01 -.922E+03   -.436E+01 0.436E+01 0.914E+03   0.258E-02 -.258E-02 0.714E+01
   0.527E-04 0.299E+01 0.932E+03   -.939E-06 -.300E+01 -.923E+03   0.000E+00 0.322E-02 -.717E+01
   0.466E+01 0.582E+01 0.933E+03   -.467E+01 -.583E+01 -.925E+03   0.791E-02 0.778E-02 -.718E+01
   0.530E-04 0.630E+01 -.922E+03   -.168E-05 -.630E+01 0.913E+03   0.000E+00 0.318E-02 0.714E+01
   0.436E+01 0.436E+01 -.922E+03   -.436E+01 -.436E+01 0.914E+03   0.258E-02 0.258E-02 0.714E+01
   0.535E-04 0.525E+01 0.934E+03   -.174E-05 -.525E+01 -.925E+03   0.000E+00 0.574E-02 -.718E+01
   0.830E+01 0.407E+01 0.937E+03   -.833E+01 -.408E+01 -.928E+03   0.242E-01 0.578E-02 -.718E+01
   0.548E-04 0.434E+01 -.919E+03   -.317E-05 -.435E+01 0.911E+03   0.000E+00 0.211E-02 0.714E+01
   0.933E+01 0.829E+01 -.919E+03   -.934E+01 -.829E+01 0.911E+03   0.884E-02 0.461E-02 0.714E+01
   0.541E-04 -.324E-03 0.936E+03   -.237E-05 0.226E-05 -.927E+03   0.000E+00 -.339E-20 -.718E+01
   0.830E+01 -.407E+01 0.937E+03   -.833E+01 0.408E+01 -.928E+03   0.242E-01 -.578E-02 -.718E+01
   0.548E-04 -.434E+01 -.919E+03   -.317E-05 0.435E+01 0.911E+03   0.000E+00 -.211E-02 0.714E+01
   0.138E+02 -.325E-03 -.916E+03   -.139E+02 0.380E-05 0.908E+03   0.163E-01 0.000E+00 0.713E+01
   0.535E-04 -.525E+01 0.934E+03   -.174E-05 0.525E+01 -.925E+03   0.000E+00 -.574E-02 -.718E+01
   0.466E+01 -.582E+01 0.933E+03   -.467E+01 0.583E+01 -.925E+03   0.791E-02 -.778E-02 -.718E+01
   0.530E-04 -.630E+01 -.922E+03   -.168E-05 0.630E+01 0.913E+03   0.000E+00 -.318E-02 0.714E+01
   0.933E+01 -.829E+01 -.919E+03   -.934E+01 0.829E+01 0.911E+03   0.884E-02 -.461E-02 0.714E+01
   0.582E+01 -.466E+01 0.933E+03   -.583E+01 0.467E+01 -.925E+03   0.778E-02 -.791E-02 -.718E+01
   0.525E+01 -.318E-03 0.934E+03   -.525E+01 -.411E-05 -.925E+03   0.574E-02 0.000E+00 -.718E+01
   0.630E+01 -.318E-03 -.922E+03   -.630E+01 -.399E-05 0.913E+03   0.318E-02 -.424E-21 0.714E+01
   0.829E+01 -.933E+01 -.919E+03   -.829E+01 0.934E+01 0.911E+03   0.461E-02 -.884E-02 0.714E+01
   0.582E+01 0.466E+01 0.933E+03   -.583E+01 -.467E+01 -.925E+03   0.778E-02 0.791E-02 -.718E+01
   0.932E+01 0.121E+02 0.939E+03   -.935E+01 -.122E+02 -.931E+03   0.214E-01 0.315E-01 -.718E+01
   0.116E+02 0.116E+02 -.919E+03   -.116E+02 -.116E+02 0.910E+03   0.919E-02 0.919E-02 0.714E+01
   0.829E+01 0.933E+01 -.919E+03   -.829E+01 -.934E+01 0.911E+03   0.461E-02 0.884E-02 0.714E+01
   0.121E+02 0.932E+01 0.939E+03   -.122E+02 -.935E+01 -.931E+03   0.315E-01 0.214E-01 -.718E+01
   0.216E+02 0.112E+02 0.955E+03   -.218E+02 -.113E+02 -.946E+03   0.103E+00 0.590E-01 -.721E+01
   0.268E+02 0.102E+02 -.909E+03   -.269E+02 -.102E+02 0.901E+03   0.415E-01 0.696E-02 0.712E+01
   0.256E+02 0.256E+02 -.905E+03   -.256E+02 -.256E+02 0.896E+03   0.353E-01 0.353E-01 0.712E+01
   0.180E+02 -.326E-03 0.945E+03   -.182E+02 0.448E-05 -.936E+03   0.954E-01 -.847E-21 -.720E+01
   0.216E+02 -.112E+02 0.955E+03   -.218E+02 0.113E+02 -.946E+03   0.103E+00 -.590E-01 -.721E+01
   0.268E+02 -.102E+02 -.909E+03   -.269E+02 0.102E+02 0.901E+03   0.415E-01 -.696E-02 0.712E+01
   0.545E+02 -.339E-03 -.882E+03   -.549E+02 0.174E-04 0.873E+03   0.306E+00 0.000E+00 0.708E+01
   0.121E+02 -.932E+01 0.939E+03   -.122E+02 0.935E+01 -.931E+03   0.315E-01 -.214E-01 -.718E+01
   0.932E+01 -.121E+02 0.939E+03   -.935E+01 0.122E+02 -.931E+03   0.214E-01 -.315E-01 -.718E+01
   0.116E+02 -.116E+02 -.919E+03   -.116E+02 0.116E+02 0.910E+03   0.919E-02 -.919E-02 0.714E+01
   0.256E+02 -.256E+02 -.905E+03   -.256E+02 0.256E+02 0.896E+03   0.353E-01 -.353E-01 0.712E+01
   0.407E+01 -.830E+01 0.937E+03   -.408E+01 0.833E+01 -.928E+03   0.578E-02 -.242E-01 -.718E+01
   0.526E-04 -.316E-03 0.936E+03   0.956E-06 -.562E-05 -.927E+03   -.339E-20 0.339E-20 -.718E+01
   0.434E+01 -.314E-03 -.919E+03   -.435E+01 -.751E-05 0.911E+03   0.211E-02 0.339E-20 0.714E+01
   0.526E-04 -.138E+02 -.916E+03   0.161E-05 0.139E+02 0.908E+03   0.000E+00 -.163E-01 0.713E+01
   0.407E+01 0.830E+01 0.937E+03   -.408E+01 -.833E+01 -.928E+03   0.578E-02 0.242E-01 -.718E+01
   0.522E-04 0.180E+02 0.945E+03   0.189E-05 -.182E+02 -.936E+03   0.000E+00 0.954E-01 -.720E+01
   0.102E+02 0.268E+02 -.909E+03   -.102E+02 -.269E+02 0.901E+03   0.696E-02 0.415E-01 0.712E+01
   0.526E-04 0.138E+02 -.916E+03   0.161E-05 -.139E+02 0.908E+03   0.000E+00 0.163E-01 0.713E+01
   0.112E+02 0.216E+02 0.955E+03   -.113E+02 -.218E+02 -.946E+03   0.590E-01 0.103E+00 -.721E+01
   0.501E-04 0.224E+02 0.982E+03   0.591E-05 -.225E+02 -.974E+03   0.000E+00 0.591E-01 -.692E+01
   0.502E+02 0.502E+02 -.848E+03   -.505E+02 -.505E+02 0.840E+03   0.242E+00 0.242E+00 0.705E+01
   0.508E-04 0.545E+02 -.882E+03   0.733E-05 -.549E+02 0.873E+03   0.000E+00 0.306E+00 0.708E+01
   0.224E+02 -.335E-03 0.982E+03   -.225E+02 0.140E-04 -.974E+03   0.591E-01 -.847E-21 -.692E+01
   0.501E-04 -.224E+02 0.982E+03   0.591E-05 0.225E+02 -.974E+03   0.000E+00 -.591E-01 -.692E+01
   0.502E+02 -.502E+02 -.848E+03   -.505E+02 0.505E+02 0.840E+03   0.242E+00 -.242E+00 0.705E+01
   0.333E-04 -.415E-03 -.715E+03   0.388E-04 0.919E-04 0.707E+03   0.000E+00 0.000E+00 0.609E+01
   0.112E+02 -.216E+02 0.955E+03   -.113E+02 0.218E+02 -.946E+03   0.590E-01 -.103E+00 -.721E+01
   0.522E-04 -.180E+02 0.945E+03   0.189E-05 0.182E+02 -.936E+03   0.000E+00 -.954E-01 -.720E+01
[...]
   -.619E+01 0.618E+01 0.703E+03   0.620E+01 -.620E+01 -.707E+03   -.163E-01 0.163E-01 0.315E+01
   -.257E+01 0.256E+01 0.700E+03   0.257E+01 -.257E+01 -.704E+03   -.468E-02 0.468E-02 0.315E+01
   -.139E+02 0.104E+02 -.687E+03   0.140E+02 -.104E+02 0.691E+03   -.237E-01 0.188E-01 -.321E+01
   -.934E+01 0.417E+01 -.689E+03   0.935E+01 -.417E+01 0.693E+03   -.131E-01 0.491E-02 -.320E+01
   -.122E+02 0.483E+01 0.708E+03   0.122E+02 -.485E+01 -.712E+03   -.515E-01 0.259E-01 0.314E+01
   -.488E+01 0.466E+01 0.702E+03   0.489E+01 -.467E+01 -.706E+03   -.135E-01 0.110E-01 0.315E+01
   -.232E+02 -.156E-02 -.681E+03   0.232E+02 0.545E-05 0.686E+03   -.475E-01 0.593E-20 -.324E+01
   -.934E+01 -.417E+01 -.689E+03   0.935E+01 0.417E+01 0.693E+03   -.131E-01 -.491E-02 -.320E+01
   -.122E+02 -.483E+01 0.708E+03   0.122E+02 0.485E+01 -.712E+03   -.515E-01 -.259E-01 0.314E+01
   -.682E+01 -.156E-02 0.704E+03   0.683E+01 0.207E-05 -.708E+03   -.220E-01 -.847E-21 0.314E+01
   -.139E+02 -.104E+02 -.687E+03   0.140E+02 0.104E+02 0.691E+03   -.237E-01 -.188E-01 -.321E+01
   -.473E+01 -.567E+01 -.692E+03   0.473E+01 0.567E+01 0.696E+03   -.562E-02 -.606E-02 -.319E+01
   -.619E+01 -.619E+01 0.703E+03   0.620E+01 0.620E+01 -.707E+03   -.163E-01 -.163E-01 0.315E+01
   -.488E+01 -.466E+01 0.702E+03   0.489E+01 0.467E+01 -.706E+03   -.135E-01 -.110E-01 0.315E+01
   -.967E-02 -.189E+00 0.490E+01   0.135E-11 0.108E-11 0.124E-10   -.139E-15 0.833E-16 -.488E+01

 POSITION                                       TOTAL-FORCE (eV/Angst)
     10.56943     12.68331     16.36975         0.000000     -0.000000     -0.051519
     10.56943     12.68331     13.84123         0.000000     -0.000000      0.150232
      0.00000      0.00000      9.00000         0.000000      0.001015      0.585130
      2.11389      2.11389      9.00000        -0.001015     -0.000000      0.585130
      0.00000      2.11389     11.11389         0.000000     -0.000000     -0.577193
      2.11389      0.00000     11.11389        -0.000764      0.000764     -0.576523
      0.00000      4.22777      9.00000         0.000000     -0.001015      0.585130
      2.11389      6.34166      9.00000        -0.002442     -0.002444      0.585655
      0.00000      6.34166     11.11389         0.000000     -0.000980     -0.576163
      2.11389      4.22777     11.11389        -0.000764     -0.000764     -0.576523
      0.00000      8.45554      9.00000         0.000000     -0.001837      0.585971
      2.11389     10.56943      9.00000        -0.007270     -0.001912      0.587171
      0.00000     10.56943     11.11389         0.000000     -0.000664     -0.574310
      2.11389      8.45554     11.11389        -0.002400     -0.001406     -0.573924
      0.00000     12.68331      9.00000         0.000000     -0.000000      0.586631
      2.11389     14.79720      9.00000        -0.007270      0.001912      0.587171
      0.00000     14.79720     11.11389         0.000000      0.000664     -0.574310
      2.11389     12.68331     11.11389        -0.004087     -0.000000     -0.571771
      0.00000     16.91108      9.00000         0.000000      0.001837      0.585971
      2.11389     19.02497      9.00000        -0.002442      0.002444      0.585655
      0.00000     19.02497     11.11389         0.000000      0.000980     -0.576163
      2.11389     16.91108     11.11389        -0.002400      0.001406     -0.573924
      4.22777      0.00000      9.00000        -0.002444      0.002442      0.585655
      6.34166      2.11389      9.00000        -0.001837     -0.000000      0.585971
      4.22777      2.11389     11.11389        -0.000980     -0.000000     -0.576163
      6.34166      0.00000     11.11389        -0.001406      0.002400     -0.573924
      4.22777      4.22777      9.00000        -0.002444     -0.002442      0.585655
      6.34166      6.34166      9.00000        -0.006752     -0.009717      0.587542
      4.22777      6.34166     11.11389        -0.002567     -0.002567     -0.573356
      6.34166      4.22777     11.11389        -0.001406     -0.002400     -0.573924
      4.22777      8.45554      9.00000        -0.009717     -0.006752      0.587542
      6.34166     10.56943      9.00000        -0.032575     -0.020758      0.591201
      4.22777     10.56943     11.11389        -0.010324     -0.002068     -0.564539
      6.34166      8.45554     11.11389        -0.008132     -0.008132     -0.559302
      4.22777     12.68331      9.00000        -0.027640     -0.000000      0.592242
      6.34166     14.79720      9.00000        -0.032575      0.020758      0.591201
      4.22777     14.79720     11.11389        -0.010324      0.002068     -0.564539
      6.34166     12.68331     11.11389        -0.091860     -0.000000     -0.522549
      4.22777     16.91108      9.00000        -0.009717      0.006752      0.587542
      6.34166     19.02497      9.00000        -0.006752      0.009717      0.587542
      4.22777     19.02497     11.11389        -0.002567      0.002567     -0.573356
      6.34166     16.91108     11.11389        -0.008132      0.008132     -0.559302
      8.45554      0.00000      9.00000        -0.001912      0.007270      0.587171
     10.56943      2.11389      9.00000         0.000000     -0.000000      0.586631
      8.45554      2.11389     11.11389        -0.000664     -0.000000     -0.574310
     10.56943      0.00000     11.11389         0.000000      0.004087     -0.571771
      8.45554      4.22777      9.00000        -0.001912     -0.007270      0.587171
     10.56943      6.34166      9.00000         0.000000     -0.027640      0.592242
      8.45554      6.34166     11.11389        -0.002068     -0.010324     -0.564539
     10.56943      4.22777     11.11389         0.000000     -0.004087     -0.571771
      8.45554      8.45554      9.00000        -0.020758     -0.032575      0.591201
     10.56943     10.56943      9.00000         0.000000     -0.012974      0.505637
      8.45554     10.56943     11.11389        -0.065833     -0.065833     -0.488171
     10.56943      8.45554     11.11389         0.000000     -0.091860     -0.522549
      8.45554     12.68331      9.00000        -0.012974     -0.000000      0.505637
     10.56943     14.79720      9.00000         0.000000      0.012974      0.505637
      8.45554     14.79720     11.11389        -0.065833      0.065833     -0.488171
     10.56943     12.68331     11.11389         0.000000     -0.000000     -1.229791
      8.45554     16.91108      9.00000        -0.020758      0.032575      0.591201
     10.56943     19.02497      9.00000         0.000000      0.027640      0.592242
[...]
     19.02497      6.34166     11.11389        -0.001840      0.001980      0.398466
     16.91108      6.34166      9.00000        -0.005303      0.005303     -0.409904
     19.02497      4.22777      9.00000        -0.001519      0.001519     -0.408637
     16.91108      8.45554     11.11389        -0.007831      0.006188      0.392361
     19.02497     10.56943     11.11389        -0.004391      0.001613      0.394956
     16.91108     10.56943      9.00000        -0.016684      0.008390     -0.412913
     19.02497      8.45554      9.00000        -0.004418      0.003580     -0.409793
     16.91108     12.68331     11.11389        -0.016246     -0.000000      0.384465
     19.02497     14.79720     11.11389        -0.004391     -0.001613      0.394956
     16.91108     14.79720      9.00000        -0.016684     -0.008390     -0.412913
     19.02497     12.68331      9.00000        -0.007182     -0.000000     -0.410852
     16.91108     16.91108     11.11389        -0.007831     -0.006188      0.392361
     19.02497     19.02497     11.11389        -0.001840     -0.001980      0.398466
     16.91108     19.02497      9.00000        -0.005303     -0.005303     -0.409904
     19.02497     16.91108      9.00000        -0.004418     -0.003580     -0.409793
    total drift:                               -0.009670     -0.189237     -0.635635

  FREE ENERGIE OF THE ION-ELECTRON SYSTEM (eV)
  free  energy   TOTEN  =     -1384.60865947 eV

  energy  without entropy=    -1384.60865947  energy(sigma->0) =    -1384.60865947