 vasp.6.3.0 20Jan22 (build Apr  1 2022 16:44:48) complex
 executed on        HPECrayEX_GCC date 2022.11.18  13:23:58

 INCAR:
   SYSTEM = MgO-rocksalt
   ISMEAR = 0
   SIGMA = 0.05
   EDIFF = 1E-6
   ALGO = ALL
   ISTART = 0
   IBRION = -1
   NSW = 0
   ISYM = 2
   DIPOL = 0.5 0.5 0.5
   IDIPOL = 3
   LDIPOL = .TRUE.
   GGA = RE
   LUSE_VDW = .TRUE.
   AGGAC = 0.0
   ENCUT = 520
   PREC = Accurate
   LASPH = .TRUE.
   LREAL = Auto
   ISPIN = 1
   NELM = 200
   NELMIN = 8
   NCORE = 4
   KPAR = 2
   LWAVE = .FALSE.
   LCHARG = .FALSE.

 POTCAR:    PAW_PBE Cu 22Jun2005
 POTCAR:    PAW_PBE Mg_pv 13Apr2007
 POTCAR:    PAW_PBE O 08Apr2002
|               ----> ADVICE to this user running VASP <----                  |
|     You have switched on vdW-DFT.                                           |
|     This routine was written and supplied by Jiri Klimes. We recommend      |
|     that you carefully read and cite the following publications:            |
|       J. Klimes, D.R. Bowler, A. Michelides                                 |
|          J. Phys.: Cond Matt. 22 022201 (2010)                              |
|       J. Klimes, D.R. Bowler, A. Michelides                                 |
|          Phys. Rev. B. 83, 195131 (2011)                                    |
|     and references therein.                                                 |

   TITEL  = PAW_PBE Cu 22Jun2005
   POMASS =   63.546; ZVAL   =   11.000    mass and valenz
   ENMAX  =  295.446; ENMIN  =  221.585 eV

   TITEL  = PAW_PBE Mg_pv 13Apr2007
   POMASS =   24.305; ZVAL   =    8.000    mass and valenz
   ENMAX  =  403.929; ENMIN  =  302.947 eV

   TITEL  = PAW_PBE O 08Apr2002
   POMASS =   16.000; ZVAL   =    6.000    mass and valenz
   ENMAX  =  400.000; ENMIN  =  300.000 eV

 Optimization of the real space projectors (new method)

 maximal supplied QI-value         = 16.25
 optimisation between [QCUT,QGAM] = [ 11.54, 23.24] = [ 37.28,151.24] Ry
 Optimized for a Real-space Cutoff    1.53 Angstroem

   l    n(q)    QCUT    max X(q) W(low)/X(q) W(high)/X(q)  e(spline)
   2     10    11.539     4.610    0.96E-04    0.13E-03    0.19E-06
   2     10    11.539     8.522    0.16E-03    0.21E-03    0.28E-06
   0     11    11.539    51.609    0.45E-04    0.31E-04    0.11E-06
   0     11    11.539    27.747    0.39E-04    0.29E-04    0.10E-06
   1     10    11.539    20.408    0.70E-05    0.38E-04    0.18E-06
   1     10    11.539    13.425    0.66E-05    0.34E-04    0.17E-06
 Optimization of the real space projectors (new method)

[...]

   l    n(q)    QCUT    max X(q) W(low)/X(q) W(high)/X(q)  e(spline)
   1      8    11.527     2.974    0.44E-04    0.56E-04    0.12E-06
   1      8    11.527     4.279    0.12E-03    0.12E-03    0.26E-06
   0      9    11.527    16.381    0.46E-04    0.64E-04    0.78E-07
   0      9    11.527     5.611    0.26E-04    0.43E-04    0.55E-07
   2      8    11.527     4.652    0.22E-03    0.72E-04    0.47E-07
 Optimization of the real space projectors (new method)

 maximal supplied QI-value         = 24.76
 optimisation between [QCUT,QGAM] = [ 11.64, 23.27] = [ 37.91,151.63] Ry
 Optimized for a Real-space Cutoff    1.14 Angstroem

   l    n(q)    QCUT    max X(q) W(low)/X(q) W(high)/X(q)  e(spline)
   0      8    11.635    20.381    0.10E-03    0.33E-03    0.24E-06
   0      8    11.635    15.268    0.11E-03    0.35E-03    0.26E-06
   1      7    11.635     5.964    0.24E-03    0.31E-03    0.30E-06
   1      7    11.635     5.382    0.22E-03    0.25E-03    0.26E-06
|               ----> ADVICE to this user running VASP <----                  |
|     You enforced a specific xc type in the INCAR file but a different       |
|     type was found in the POTCAR file.                                      |
|     I HOPE YOU KNOW WHAT YOU ARE DOING!                                     |

  PAW_PBE Cu 22Jun2005                  :
  PAW_PBE Mg_pv 13Apr2007               :
  PAW_PBE O 08Apr2002                   :

 POSCAR: Cu Mg  O
  positions in direct lattice
 exchange correlation table for  LEXCH =       40
   RHO(1)=    0.500       N(1)  =     2000
   RHO(2)=  100.500       N(2)  =     4000

 ion  position               nearest neighbor table
   1  0.538  0.562  0.615-   2 2.24
   2  0.462  0.638  0.615-   1 2.24
   3  0.000  0.000  0.407- 105 2.11 106 2.11 121 2.11 186 2.11 103 2.11
   4  0.100  0.100  0.407- 105 2.11 106 2.11 110 2.11 125 2.11 104 2.11
   5  0.000  0.100  0.503- 103 2.11 104 2.11 107 2.11 184 2.11 105 2.11
   6  0.100  0.000  0.503- 103 2.11 104 2.11 120 2.11 123 2.11 106 2.11
   7  0.000  0.200  0.407- 109 2.11 105 2.11 110 2.11 190 2.11 107 2.11
   8  0.100  0.300  0.407- 110 2.11 109 2.11 114 2.11 129 2.11 108 2.11
   9  0.000  0.300  0.503- 107 2.11 108 2.11 111 2.11 188 2.11 109 2.11
  10  0.100  0.200  0.503- 108 2.11 107 2.11 104 2.11 127 2.11 110 2.11
  11  0.000  0.400  0.407- 109 2.11 113 2.11 114 2.11 194 2.11 111 2.11
  12  0.100  0.500  0.407- 113 2.11 114 2.11 118 2.11 133 2.11 112 2.11
  13  0.000  0.500  0.503- 111 2.11 112 2.11 115 2.11 192 2.11 113 2.11
  14  0.100  0.400  0.503- 108 2.11 111 2.11 112 2.11 131 2.11 114 2.11
  15  0.000  0.600  0.407- 113 2.11 117 2.11 118 2.11 198 2.11 115 2.11
  16  0.100  0.700  0.407- 122 2.11 118 2.11 117 2.11 137 2.11 116 2.11
  17  0.000  0.700  0.503- 119 2.11 116 2.11 115 2.11 196 2.11 117 2.11
  18  0.100  0.600  0.503- 112 2.11 115 2.11 116 2.11 135 2.11 118 2.11
  19  0.000  0.800  0.407- 117 2.11 121 2.11 122 2.11 202 2.11 119 2.11
  20  0.100  0.900  0.407- 106 2.11 121 2.11 122 2.11 141 2.11 120 2.11
  21  0.000  0.900  0.503- 103 2.11 119 2.11 120 2.11 200 2.11 121 2.11
  22  0.100  0.800  0.503- 116 2.11 119 2.11 120 2.11 139 2.11 122 2.11
  23  0.200  0.000  0.407- 126 2.11 125 2.11 106 2.11 141 2.11 123 2.11
  24  0.300  0.100  0.407- 125 2.11 126 2.11 130 2.11 145 2.11 124 2.11
  25  0.200  0.100  0.503- 124 2.11 123 2.11 104 2.11 127 2.11 125 2.11
  26  0.300  0.000  0.503- 123 2.11 124 2.11 140 2.11 143 2.11 126 2.11
  27  0.200  0.200  0.407- 129 2.11 130 2.11 110 2.11 125 2.11 127 2.11
  28  0.300  0.300  0.407- 129 2.11 130 2.11 134 2.11 149 2.11 128 2.11
  29  0.200  0.300  0.503- 127 2.11 128 2.11 108 2.11 131 2.11 129 2.11
  30  0.300  0.200  0.503- 127 2.11 128 2.11 124 2.11 147 2.11 130 2.11
  31  0.200  0.400  0.407- 134 2.11 129 2.11 133 2.11 114 2.11 131 2.11
  32  0.300  0.500  0.407- 133 2.11 134 2.11 138 2.11 153 2.11 132 2.11
  33  0.200  0.500  0.503- 132 2.11 131 2.11 112 2.11 135 2.11 133 2.11
  34  0.300  0.400  0.503- 131 2.11 128 2.11 132 2.11 151 2.11 134 2.11
  35  0.200  0.600  0.407- 138 2.11 133 2.11 137 2.11 118 2.11 135 2.11
  36  0.300  0.700  0.407- 137 2.11 142 2.11 138 2.11 157 2.11 136 2.11
  37  0.200  0.700  0.503- 136 2.11 139 2.11 116 2.11 135 2.11 137 2.11
  38  0.300  0.600  0.503- 135 2.11 132 2.11 136 2.11 155 2.11 138 2.11
  39  0.200  0.800  0.407- 137 2.11 142 2.11 141 2.11 122 2.11 139 2.11
  40  0.300  0.900  0.407- 141 2.11 126 2.11 142 2.11 161 2.11 140 2.11
  41  0.200  0.900  0.503- 140 2.11 123 2.11 139 2.11 120 2.11 141 2.11
  42  0.300  0.800  0.503- 136 2.11 139 2.11 140 2.11 159 2.11 142 2.11
  43  0.400  0.000  0.407- 126 2.11 145 2.11 146 2.11 161 2.11 143 2.11
  44  0.500  0.100  0.407- 145 2.11 146 2.11 150 2.11 165 2.11 144 2.11
  45  0.400  0.100  0.503- 124 2.11 143 2.11 144 2.11 147 2.11 145 2.11
  46  0.500  0.000  0.503- 143 2.11 144 2.11 160 2.11 163 2.11 146 2.11
  47  0.400  0.200  0.407- 149 2.11 145 2.11 130 2.11 150 2.11 147 2.11
  48  0.500  0.300  0.407- 150 2.11 149 2.11 154 2.11 169 2.11 148 2.11
  49  0.400  0.300  0.503- 147 2.11 128 2.11 148 2.11 151 2.11 149 2.11
  50  0.500  0.200  0.503- 148 2.11 147 2.11 144 2.11 167 2.11 150 2.11
  51  0.400  0.400  0.407- 134 2.11 149 2.11 153 2.11 154 2.11 151 2.11
  52  0.500  0.500  0.407- 153 2.11 154 2.11 158 2.11 173 2.11 152 2.11
  53  0.400  0.500  0.503- 132 2.11 151 2.11 152 2.11 155 2.11 153 2.11
  54  0.500  0.400  0.503- 148 2.11 151 2.11 152 2.11 171 2.11 154 2.11
  55  0.400  0.600  0.407- 138 2.11 153 2.11 157 2.11 158 2.11 155 2.11
  56  0.500  0.700  0.407- 162 2.11 158 2.11 157 2.11 177 2.11 156 2.11
  57  0.400  0.700  0.503- 159 2.11 155 2.11 156 2.11 136 2.11 157 2.11
  58  0.500  0.600  0.503- 152 2.11 155 2.11 156 2.11 175 2.11 158 2.11
  59  0.400  0.800  0.407- 157 2.11 142 2.11 161 2.11 162 2.11 159 2.11
  60  0.500  0.900  0.407- 146 2.11 161 2.11 162 2.11 181 2.11 160 2.11
[...]
 188  0.900  0.300  0.503-  90 2.11  89 2.11   9 2.11  94 2.11  88 2.11
 189  0.800  0.300  0.407-  68 2.11  87 2.11  88 2.11  91 2.11  89 2.11
 190  0.900  0.200  0.407-  88 2.11  84 2.11  87 2.11   7 2.11  90 2.11
 191  0.800  0.400  0.503-  74 2.11  89 2.11  93 2.11  94 2.11  91 2.11
 192  0.900  0.500  0.503-  13 2.11  93 2.11  94 2.11  98 2.11  92 2.11
 193  0.800  0.500  0.407-  72 2.11  91 2.11  92 2.11  95 2.11  93 2.11
 194  0.900  0.400  0.407-  11 2.11  88 2.11  91 2.11  92 2.11  94 2.11
 195  0.800  0.600  0.503-  78 2.11  93 2.11  97 2.11  98 2.11  95 2.11
 196  0.900  0.700  0.503- 102 2.11  97 2.11  98 2.11  17 2.11  96 2.11
 197  0.800  0.700  0.407-  76 2.11  99 2.11  96 2.11  95 2.11  97 2.11
 198  0.900  0.600  0.407-  15 2.11  92 2.11  95 2.11  96 2.11  98 2.11
 199  0.800  0.800  0.503-  82 2.11  97 2.11 101 2.11 102 2.11  99 2.11
 200  0.900  0.900  0.503-  21 2.11  86 2.11 101 2.11 102 2.11 100 2.11
 201  0.800  0.900  0.407-  80 2.11  83 2.11  99 2.11 100 2.11 101 2.11
 202  0.900  0.800  0.407-  96 2.11  19 2.11  99 2.11 100 2.11 102 2.11

  LATTYP: Found a simple tetragonal cell.
 ALAT       =    21.1388521970
 C/A-ratio  =     1.0461251639

  Lattice vectors:

 A1 = (  21.1388521970,   0.0000000000,   0.0000000000)
 A2 = (   0.0000000000,  21.1388521970,   0.0000000000)
 A3 = (   0.0000000000,   0.0000000000,  22.1138852197)

Analysis of symmetry for initial positions (statically):
 Subroutine PRICEL returns:
 Original cell was already a primitive cell.

 Routine SETGRP: Setting up the symmetry group for a
 simple tetragonal supercell.

 Subroutine GETGRP returns: Found  4 space group operations
 (whereof  1 operations were pure point group operations)
 out of a pool of 16 trial point group operations.

The static configuration has the point symmetry C_1 .
 The point group associated with its full space group is C_2v.

Analysis of symmetry for dynamics (positions and initial velocities):
 Subroutine PRICEL returns:
 Original cell was already a primitive cell.

 Routine SETGRP: Setting up the symmetry group for a
 simple tetragonal supercell.

 Subroutine GETGRP returns: Found  4 space group operations
 (whereof  1 operations were pure point group operations)
 out of a pool of 16 trial point group operations.

The dynamic configuration has the point symmetry C_1 .
 The point group associated with its full space group is C_2v.

 Subroutine INISYM returns: Found  4 space group operations
 (whereof  1 operations are pure point group operations),
 and found     1 'primitive' translations

                                     Primitive cell

  volume of cell :    9881.6133

  direct lattice vectors                    reciprocal lattice vectors
[...]
     52     -43.5576      2.00000
     53     -43.5571      2.00000
     54     -43.5568      2.00000
     55     -43.5567      2.00000
     56     -43.5558      2.00000
     57     -43.5553      2.00000
     58     -43.5550      2.00000
     59     -43.5547      2.00000
     60     -43.5545      2.00000
[...]
   1010       7.0046      0.00000
   1011       7.0164      0.00000
   1012       7.0402      0.00000
   1013       7.1032      0.00000
   1014       7.2183      0.00000
   1015       7.4105      0.00000
   1016       7.4629      0.00000
   1017       7.5092      0.00000
   1018       7.5257      0.00000
   1019       7.6049      0.00000
   1020       7.6612      0.00000
   1021       7.7180      0.00000
   1022       7.7493      0.00000
   1023       7.8959      0.00000
   1024       8.0191      0.00000

 soft charge-density along one line, spin component           1
         0         1         2         3         4         5         6         7         8         9
 total charge-density along one line

------------------------ aborting loop because EDIFF is reached ----------------------------------------

  FORCE on cell =-STRESS in cart. coord.  units (eV):
  Direction    XX          YY          ZZ          XY          YZ          ZX
  Alpha Z  1354.41543  1354.41543  1354.41543
  Ewald  480381.00929480381.00929************  -397.46722     0.00001    -0.00002
  Hartree509047.72111509047.72111************  -292.69434    -0.00000    -0.00002
  E(xc)   -7988.64318 -7988.64318 -8005.73984    -0.33451    -0.00000     0.00000
  Local  ************************************   683.93595    -0.00001     0.00004
  n-local -8815.72309 -8815.72311 -8928.28329     0.50670     0.00000    -0.00000
  augment  3564.69573  3564.69573  3510.83081     2.55775    -0.00000    -0.00000
  Kinetic 22939.36853 22939.36858 23151.66368     2.51385    -0.00000    -0.00002
  Fock        0.00000     0.00000     0.00000     0.00000     0.00000     0.00000
  Total    -119.25683  -119.25683    38.13096    -0.98182     0.00000     0.00000
  in kB     -19.33597   -19.33597     6.18245    -0.15919     0.00000     0.00000

 VOLUME and BASIS-vectors are now :
  energy-cutoff  :      520.00
  volume of cell :     9881.61
      direct lattice vectors                 reciprocal lattice vectors
    21.138852197  0.000000000  0.000000000     0.047306258  0.000000000  0.000000000
     0.000000000 21.138852197  0.000000000     0.000000000  0.047306258  0.000000000
     0.000000000  0.000000000 22.113885220     0.000000000  0.000000000  0.045220457

  length of vectors
    21.138852197 21.138852197 22.113885220     0.047306258  0.047306258  0.045220457

 FORCES acting on ions:
    Electron-Ion                     Ewald-Force                    Non-Local-Force
   -.253E+03 0.253E+03 -.212E+04   0.246E+03 -.246E+03 0.212E+04   0.791E+01 -.791E+01 -.633E+00
   0.253E+03 -.253E+03 -.212E+04   -.246E+03 0.246E+03 0.212E+04   -.791E+01 0.791E+01 -.633E+00
   0.159E+00 -.352E+01 0.930E+03   -.162E+00 0.353E+01 -.923E+03   0.227E-02 -.336E-02 -.681E+01
   0.352E+01 -.159E+00 0.930E+03   -.353E+01 0.162E+00 -.923E+03   0.336E-02 -.227E-02 -.681E+01
   0.132E-07 -.186E-03 -.922E+03   0.784E-07 -.160E-05 0.915E+03   0.000E+00 0.000E+00 0.677E+01
   0.530E+01 -.530E+01 -.922E+03   -.531E+01 0.531E+01 0.915E+03   0.632E-02 -.632E-02 0.677E+01
   -.159E+00 0.352E+01 0.930E+03   0.162E+00 -.353E+01 -.923E+03   -.227E-02 0.336E-02 -.681E+01
   0.548E+01 0.692E+01 0.932E+03   -.549E+01 -.692E+01 -.925E+03   0.357E-02 0.621E-02 -.681E+01
   -.439E+00 0.725E+01 -.921E+03   0.446E+00 -.725E+01 0.914E+03   -.578E-02 0.431E-02 0.677E+01
   0.483E+01 0.483E+01 -.922E+03   -.483E+01 -.483E+01 0.915E+03   0.651E-03 0.651E-03 0.677E+01
   -.371E+00 0.627E+01 0.933E+03   0.378E+00 -.628E+01 -.926E+03   -.566E-02 0.596E-02 -.681E+01
   0.107E+02 0.528E+01 0.937E+03   -.107E+02 -.529E+01 -.930E+03   0.154E-01 0.840E-02 -.681E+01
   -.423E+00 0.508E+01 -.919E+03   0.430E+00 -.508E+01 0.912E+03   -.553E-02 0.281E-02 0.677E+01
   0.109E+02 0.984E+01 -.919E+03   -.109E+02 -.985E+01 0.912E+03   0.230E-02 0.664E-02 0.676E+01
   0.212E-06 -.189E-03 0.935E+03   -.118E-06 0.158E-05 -.928E+03   0.000E+00 0.000E+00 -.681E+01
   0.114E+02 -.486E+01 0.937E+03   -.114E+02 0.486E+01 -.930E+03   0.273E-01 -.294E-02 -.681E+01
   0.423E+00 -.508E+01 -.919E+03   -.430E+00 0.508E+01 0.912E+03   0.553E-02 -.281E-02 0.677E+01
   0.178E+02 0.582E+00 -.916E+03   -.178E+02 -.589E+00 0.909E+03   0.209E-01 0.503E-02 0.676E+01
   0.371E+00 -.627E+01 0.933E+03   -.378E+00 0.628E+01 -.926E+03   0.566E-02 -.596E-02 -.681E+01
   0.614E+01 -.718E+01 0.933E+03   -.615E+01 0.720E+01 -.926E+03   0.121E-01 -.937E-02 -.681E+01
   0.439E+00 -.725E+01 -.921E+03   -.446E+00 0.725E+01 0.914E+03   0.578E-02 -.431E-02 0.677E+01
   0.123E+02 -.995E+01 -.918E+03   -.124E+02 0.996E+01 0.912E+03   0.213E-01 -.600E-02 0.677E+01
   0.718E+01 -.614E+01 0.933E+03   -.720E+01 0.615E+01 -.926E+03   0.937E-02 -.121E-01 -.681E+01
   0.627E+01 -.371E+00 0.933E+03   -.628E+01 0.378E+00 -.926E+03   0.596E-02 -.566E-02 -.681E+01
   0.725E+01 -.439E+00 -.921E+03   -.725E+01 0.446E+00 0.914E+03   0.431E-02 -.578E-02 0.677E+01
   0.995E+01 -.123E+02 -.918E+03   -.996E+01 0.124E+02 0.912E+03   0.600E-02 -.213E-01 0.677E+01
   0.692E+01 0.548E+01 0.932E+03   -.692E+01 -.549E+01 -.925E+03   0.621E-02 0.357E-02 -.681E+01
   0.121E+02 0.156E+02 0.939E+03   -.121E+02 -.156E+02 -.932E+03   0.179E-01 0.240E-01 -.682E+01
   0.136E+02 0.136E+02 -.918E+03   -.136E+02 -.136E+02 0.912E+03   0.600E-02 0.600E-02 0.676E+01
   0.984E+01 0.109E+02 -.919E+03   -.985E+01 -.109E+02 0.912E+03   0.664E-02 0.230E-02 0.676E+01
   0.156E+02 0.121E+02 0.939E+03   -.156E+02 -.121E+02 -.932E+03   0.240E-01 0.179E-01 -.682E+01
   0.310E+02 0.170E+02 0.961E+03   -.311E+02 -.171E+02 -.954E+03   0.102E+00 0.485E-01 -.683E+01
   0.346E+02 0.142E+02 -.909E+03   -.346E+02 -.142E+02 0.902E+03   0.296E-01 0.191E-01 0.675E+01
   0.334E+02 0.334E+02 -.905E+03   -.334E+02 -.334E+02 0.898E+03   0.285E-01 0.285E-01 0.674E+01
   0.254E+02 0.920E+00 0.947E+03   -.254E+02 -.933E+00 -.940E+03   0.657E-01 0.101E-01 -.682E+01
   0.327E+02 -.156E+02 0.964E+03   -.327E+02 0.156E+02 -.958E+03   0.662E-01 -.317E-01 -.678E+01
   0.378E+02 -.126E+02 -.908E+03   -.379E+02 0.126E+02 0.901E+03   0.745E-01 -.859E-03 0.676E+01
   0.840E+02 0.687E+01 -.871E+03   -.843E+02 -.693E+01 0.864E+03   0.221E+00 0.504E-01 0.677E+01
   0.168E+02 -.123E+02 0.941E+03   -.168E+02 0.124E+02 -.934E+03   0.334E-01 -.196E-01 -.681E+01
   0.123E+02 -.168E+02 0.941E+03   -.124E+02 0.168E+02 -.934E+03   0.196E-01 -.334E-01 -.681E+01
   0.149E+02 -.149E+02 -.918E+03   -.149E+02 0.149E+02 0.911E+03   0.188E-01 -.188E-01 0.677E+01
   0.374E+02 -.374E+02 -.900E+03   -.375E+02 0.375E+02 0.893E+03   0.599E-01 -.599E-01 0.677E+01
   0.486E+01 -.114E+02 0.937E+03   -.486E+01 0.114E+02 -.930E+03   0.294E-02 -.273E-01 -.681E+01
   0.206E-06 -.183E-03 0.935E+03   -.110E-06 -.428E-05 -.928E+03   0.000E+00 0.000E+00 -.681E+01
   0.508E+01 -.423E+00 -.919E+03   -.508E+01 0.430E+00 0.912E+03   0.281E-02 -.553E-02 0.677E+01
   -.582E+00 -.178E+02 -.916E+03   0.589E+00 0.178E+02 0.909E+03   -.503E-02 -.209E-01 0.676E+01
   0.528E+01 0.107E+02 0.937E+03   -.529E+01 -.107E+02 -.930E+03   0.840E-02 0.154E-01 -.681E+01
   0.920E+00 0.254E+02 0.947E+03   -.933E+00 -.254E+02 -.940E+03   0.101E-01 0.657E-01 -.682E+01
   0.142E+02 0.346E+02 -.909E+03   -.142E+02 -.346E+02 0.902E+03   0.191E-01 0.296E-01 0.675E+01
   0.582E+00 0.178E+02 -.916E+03   -.589E+00 -.178E+02 0.909E+03   0.503E-02 0.209E-01 0.676E+01
   0.170E+02 0.310E+02 0.961E+03   -.171E+02 -.311E+02 -.954E+03   0.485E-01 0.102E+00 -.683E+01
   0.280E+01 0.347E+02 0.101E+04   -.275E+01 -.348E+02 -.100E+04   -.420E-01 0.757E-01 -.656E+01
   0.784E+02 0.784E+02 -.832E+03   -.787E+02 -.787E+02 0.826E+03   0.241E+00 0.241E+00 0.662E+01
   0.687E+01 0.840E+02 -.871E+03   -.693E+01 -.843E+02 0.864E+03   0.504E-01 0.221E+00 0.677E+01
   0.347E+02 0.280E+01 0.101E+04   -.348E+02 -.275E+01 -.100E+04   0.757E-01 -.420E-01 -.656E+01
   -.280E+01 -.347E+02 0.101E+04   0.275E+01 0.348E+02 -.100E+04   0.420E-01 -.757E-01 -.656E+01
   0.865E+02 -.865E+02 -.794E+03   -.868E+02 0.868E+02 0.787E+03   0.184E+00 -.184E+00 0.668E+01
   -.238E-04 -.260E-03 -.614E+03   0.242E-04 0.699E-04 0.610E+03   0.000E+00 0.000E+00 0.362E+01
   0.156E+02 -.327E+02 0.964E+03   -.156E+02 0.327E+02 -.958E+03   0.317E-01 -.662E-01 -.678E+01
   -.920E+00 -.254E+02 0.947E+03   0.933E+00 0.254E+02 -.940E+03   -.101E-01 -.657E-01 -.682E+01
[...]
   -.813E+01 0.813E+01 0.704E+03   0.814E+01 -.814E+01 -.708E+03   -.198E-01 0.198E-01 0.358E+01
   -.319E+01 0.319E+01 0.700E+03   0.320E+01 -.320E+01 -.705E+03   -.716E-02 0.716E-02 0.358E+01
   -.191E+02 0.136E+02 -.687E+03   0.191E+02 -.136E+02 0.691E+03   -.392E-01 0.260E-01 -.363E+01
   -.124E+02 0.479E+01 -.690E+03   0.124E+02 -.480E+01 0.694E+03   -.211E-01 0.211E-02 -.363E+01
   -.173E+02 0.613E+01 0.711E+03   0.173E+02 -.614E+01 -.715E+03   -.521E-01 0.112E-01 0.359E+01
   -.665E+01 0.574E+01 0.703E+03   0.666E+01 -.575E+01 -.707E+03   -.190E-01 0.108E-01 0.358E+01
   -.318E+02 -.146E+01 -.682E+03   0.318E+02 0.148E+01 0.686E+03   -.507E-01 -.216E-01 -.365E+01
   -.114E+02 -.530E+01 -.690E+03   0.114E+02 0.530E+01 0.694E+03   -.104E-01 -.103E-01 -.363E+01
   -.164E+02 -.686E+01 0.710E+03   0.164E+02 0.688E+01 -.715E+03   -.345E-01 -.234E-01 0.357E+01
   -.912E+01 -.259E+00 0.705E+03   0.914E+01 0.262E+00 -.710E+03   -.202E-01 -.520E-02 0.358E+01
   -.170E+02 -.129E+02 -.688E+03   0.170E+02 0.130E+02 0.692E+03   -.159E-01 -.165E-01 -.364E+01
   -.530E+01 -.650E+01 -.693E+03   0.530E+01 0.650E+01 0.697E+03   -.157E-02 -.507E-02 -.363E+01
   -.762E+01 -.762E+01 0.703E+03   0.763E+01 0.763E+01 -.707E+03   -.120E-01 -.120E-01 0.358E+01
   -.598E+01 -.573E+01 0.703E+03   0.599E+01 0.573E+01 -.707E+03   -.723E-02 -.101E-01 0.358E+01
   -.142E-04 -.111E+00 0.872E+01   0.166E-11 0.583E-12 -.105E-10   -.154E-14 -.380E-15 -.971E+01

 POSITION                                       TOTAL-FORCE (eV/Angst)
     11.36279     11.88995     13.59669         0.235473     -0.235473      0.228165
      9.77606     13.47667     13.59669        -0.235473      0.235473      0.228165
      0.00000      0.00000      9.00000        -0.000621      0.000949      0.160412
      2.11389      2.11389      9.00000        -0.000949      0.000621      0.160412
      0.00000      2.11389     11.11389         0.000000      0.000000     -0.155847
      2.11389      0.00000     11.11389        -0.001765      0.001765     -0.155591
      0.00000      4.22777      9.00000         0.000621     -0.000949      0.160412
      2.11389      6.34166      9.00000        -0.001004     -0.001754      0.160897
      0.00000      6.34166     11.11389         0.001594     -0.001220     -0.155233
      2.11389      4.22777     11.11389        -0.000156     -0.000156     -0.155310
      0.00000      8.45554      9.00000         0.001499     -0.001704      0.160735
      2.11389     10.56943      9.00000        -0.004268     -0.002439      0.161247
      0.00000     10.56943     11.11389         0.001487     -0.000816     -0.154024
      2.11389      8.45554     11.11389        -0.000457     -0.001813     -0.153428
      0.00000     12.68331      9.00000         0.000000      0.000000      0.161014
      2.11389     14.79720      9.00000        -0.007250      0.000888      0.160933
      0.00000     14.79720     11.11389        -0.001487      0.000816     -0.154024
      2.11389     12.68331     11.11389        -0.005224     -0.001519     -0.152495
      0.00000     16.91108      9.00000        -0.001499      0.001704      0.160735
      2.11389     19.02497      9.00000        -0.003344      0.002683      0.160270
      0.00000     19.02497     11.11389        -0.001594      0.001220     -0.155233
      2.11389     16.91108     11.11389        -0.005723      0.001748     -0.154299
      4.22777      0.00000      9.00000        -0.002683      0.003344      0.160270
      6.34166      2.11389      9.00000        -0.001704      0.001499      0.160735
      4.22777      2.11389     11.11389        -0.001220      0.001594     -0.155233
      6.34166      0.00000     11.11389        -0.001748      0.005723     -0.154299
      4.22777      4.22777      9.00000        -0.001754     -0.001004      0.160897
      6.34166      6.34166      9.00000        -0.005043     -0.006625      0.162107
      4.22777      6.34166     11.11389        -0.001476     -0.001476     -0.152699
      6.34166      4.22777     11.11389        -0.001813     -0.000457     -0.153428
      4.22777      8.45554      9.00000        -0.006625     -0.005043      0.162107
      6.34166     10.56943      9.00000        -0.028872     -0.015504      0.162618
      4.22777     10.56943     11.11389        -0.006560     -0.005360     -0.146889
      6.34166      8.45554     11.11389        -0.006201     -0.006201     -0.139942
      4.22777     12.68331      9.00000        -0.018068     -0.003095      0.161213
      6.34166     14.79720      9.00000        -0.019321      0.010201      0.147506
      4.22777     14.79720     11.11389        -0.020759      0.000247     -0.150594
      6.34166     12.68331     11.11389        -0.078315     -0.015957     -0.139874
      4.22777     16.91108      9.00000        -0.009443      0.005853      0.159165
      6.34166     19.02497      9.00000        -0.005853      0.009443      0.159165
      4.22777     19.02497     11.11389        -0.005170      0.005170     -0.154404
      6.34166     16.91108     11.11389        -0.017176      0.017176     -0.152810
      8.45554      0.00000      9.00000        -0.000888      0.007250      0.160933
     10.56943      2.11389      9.00000         0.000000      0.000000      0.161014
      8.45554      2.11389     11.11389        -0.000816      0.001487     -0.154024
     10.56943      0.00000     11.11389         0.001519      0.005224     -0.152495
      8.45554      4.22777      9.00000        -0.002439     -0.004268      0.161247
     10.56943      6.34166      9.00000        -0.003095     -0.018068      0.161213
      8.45554      6.34166     11.11389        -0.005360     -0.006560     -0.146889
     10.56943      4.22777     11.11389        -0.001519     -0.005224     -0.152495
      8.45554      8.45554      9.00000        -0.015504     -0.028872      0.162618
     10.56943     10.56943      9.00000         0.015772     -0.019940      0.085332
      8.45554     10.56943     11.11389        -0.048708     -0.048708     -0.030222
     10.56943      8.45554     11.11389        -0.015957     -0.078315     -0.139874
      8.45554     12.68331      9.00000        -0.019940      0.015772      0.085332
     10.56943     14.79720      9.00000        -0.015772      0.019940      0.085332
      8.45554     14.79720     11.11389        -0.104807      0.104807     -0.293503
     10.56943     12.68331     11.11389         0.000000      0.000000     -0.137014
      8.45554     16.91108      9.00000        -0.010201      0.019321      0.147506
     10.56943     19.02497      9.00000         0.003095      0.018068      0.161213
[...]
     19.02497      6.34166     11.11389        -0.003603      0.002979      0.546080
     16.91108      6.34166      9.00000        -0.005602      0.005602     -0.551278
     19.02497      4.22777      9.00000        -0.002010      0.002010     -0.551678
     16.91108      8.45554     11.11389        -0.011418      0.007613      0.545348
     19.02497     10.56943     11.11389        -0.006025      0.000622      0.544317
     16.91108     10.56943      9.00000        -0.015378      0.003402     -0.549221
     19.02497      8.45554      9.00000        -0.005366      0.003085     -0.551645
     16.91108     12.68331     11.11389        -0.015213     -0.006182      0.540348
     19.02497     14.79720     11.11389        -0.003014     -0.002921      0.543407
     16.91108     14.79720      9.00000        -0.010433     -0.006857     -0.553887
     19.02497     12.68331      9.00000        -0.005797     -0.001443     -0.552211
     16.91108     16.91108     11.11389        -0.004737     -0.004800      0.540846
     19.02497     19.02497     11.11389        -0.000466     -0.001449      0.545390
     16.91108     19.02497      9.00000        -0.003427     -0.003427     -0.552789
     19.02497     16.91108      9.00000        -0.002073     -0.002876     -0.552498
    total drift:                               -0.000014     -0.110684     -0.994761

  FREE ENERGIE OF THE ION-ELECTRON SYSTEM (eV)
  free  energy   TOTEN  =      -681.25121969 eV

  energy  without entropy=     -681.25121969  energy(sigma->0) =     -681.25121969