 vasp.6.3.0 20Jan22 (build Apr  1 2022 16:44:48) complex
 executed on        HPECrayEX_GCC date 2023.01.09  20:23:54

 INCAR:
   SYSTEM = MgO-rocksalt
   ISMEAR = 0
   SIGMA = 0.05
   EDIFF = 1E-6
   ALGO = ALL
   ISTART = 0
   IBRION = -1
   NSW = 0
   ISYM = 2
   DIPOL = 0.5 0.5 0.5
   IDIPOL = 3
   LDIPOL = .TRUE.
   GGA = PS
   IVDW = 12
   VDW_A1 = 0.4466
   VDW_S8 = 2.9491
   VDW_A2 = 6.1742
   ENCUT = 520
   PREC = Accurate
   LASPH = .TRUE.
   LREAL = Auto
   ISPIN = 1
   NELM = 200
   NELMIN = 8
   NCORE = 4
   KPAR = 2
   LWAVE = .FALSE.
   LCHARG = .FALSE.

 POTCAR:    PAW_PBE Ag 02Apr2005
 POTCAR:    PAW_PBE Mg_pv 13Apr2007
 POTCAR:    PAW_PBE O 08Apr2002
 POTCAR:    PAW_PBE Ag 02Apr2005
   VRHFIN =Ag : s1 d10

   TITEL  = PAW_PBE Ag 02Apr2005
   POMASS =  107.868; ZVAL   =   11.000    mass and valenz
   ENMAX  =  249.844; ENMIN  =  187.383 eV

   TITEL  = PAW_PBE Mg_pv 13Apr2007
   POMASS =   24.305; ZVAL   =    8.000    mass and valenz
   ENMAX  =  403.929; ENMIN  =  302.947 eV

   TITEL  = PAW_PBE O 08Apr2002
   POMASS =   16.000; ZVAL   =    6.000    mass and valenz
   ENMAX  =  400.000; ENMIN  =  300.000 eV

 Optimization of the real space projectors (new method)

 maximal supplied QI-value         = 15.12
 optimisation between [QCUT,QGAM] = [ 11.64, 23.28] = [ 37.95,151.78] Ry
 Optimized for a Real-space Cutoff    1.45 Angstroem

   l    n(q)    QCUT    max X(q) W(low)/X(q) W(high)/X(q)  e(spline)
   2      9    11.641    53.897    0.22E-03    0.42E-04    0.28E-06
   2      9    11.641    52.416    0.23E-03    0.44E-04    0.29E-06
   0     10    11.641   122.045    0.51E-04    0.25E-04    0.16E-06
   0     10    11.641    73.629    0.49E-04    0.24E-04    0.16E-06
   1     10    11.641    15.255    0.99E-04    0.55E-04    0.11E-06
   1     10    11.641     9.562    0.81E-04    0.47E-04    0.95E-07
 Optimization of the real space projectors (new method)

[...]

   l    n(q)    QCUT    max X(q) W(low)/X(q) W(high)/X(q)  e(spline)
   1      8    11.527     2.974    0.44E-04    0.56E-04    0.12E-06
   1      8    11.527     4.279    0.12E-03    0.12E-03    0.26E-06
   0      9    11.527    16.381    0.46E-04    0.64E-04    0.78E-07
   0      9    11.527     5.611    0.26E-04    0.43E-04    0.55E-07
   2      8    11.527     4.652    0.22E-03    0.72E-04    0.47E-07
 Optimization of the real space projectors (new method)

 maximal supplied QI-value         = 24.76
 optimisation between [QCUT,QGAM] = [ 11.64, 23.27] = [ 37.91,151.63] Ry
 Optimized for a Real-space Cutoff    1.14 Angstroem

   l    n(q)    QCUT    max X(q) W(low)/X(q) W(high)/X(q)  e(spline)
   0      8    11.635    20.381    0.10E-03    0.33E-03    0.24E-06
   0      8    11.635    15.268    0.11E-03    0.35E-03    0.26E-06
   1      7    11.635     5.964    0.24E-03    0.31E-03    0.30E-06
   1      7    11.635     5.382    0.22E-03    0.25E-03    0.26E-06
|               ----> ADVICE to this user running VASP <----                  |
|     You enforced a specific xc type in the INCAR file but a different       |
|     type was found in the POTCAR file.                                      |
|     I HOPE YOU KNOW WHAT YOU ARE DOING!                                     |

  PAW_PBE Ag 02Apr2005                  :
  PAW_PBE Mg_pv 13Apr2007               :
  PAW_PBE O 08Apr2002                   :

 POSCAR: Ag Mg  O
  positions in direct lattice
  velocities in cartesian coordinates
 exchange correlation table for  LEXCH =       14
   RHO(1)=    0.500       N(1)  =     2000
   RHO(2)=  100.500       N(2)  =     4000

 ion  position               nearest neighbor table
   1  0.400  0.563  0.612- 157 2.54   4 2.67   3 2.71  55 2.75
   2  0.400  0.500  0.835-   3 2.58
   3  0.400  0.499  0.718-   2 2.58   1 2.71   4 2.71
   4  0.400  0.436  0.612- 153 2.53   1 2.67   3 2.71  55 2.76
   5  0.000  0.000  0.407- 107 2.11 108 2.11 123 2.11 188 2.11 105 2.11
   6  0.100  0.100  0.407- 107 2.11 108 2.11 112 2.11 127 2.11 106 2.11
   7  0.000  0.100  0.503- 105 2.11 106 2.11 109 2.11 186 2.11 107 2.11
   8  0.100  0.000  0.503- 105 2.11 106 2.11 122 2.11 125 2.11 108 2.11
   9  0.000  0.200  0.407- 111 2.11 107 2.11 112 2.11 192 2.11 109 2.11
  10  0.100  0.300  0.407- 112 2.11 111 2.11 116 2.11 131 2.11 110 2.11
  11  0.000  0.300  0.503- 109 2.11 110 2.11 113 2.11 190 2.11 111 2.11
  12  0.100  0.200  0.503- 110 2.11 109 2.11 106 2.11 129 2.11 112 2.11
  13  0.000  0.400  0.407- 111 2.11 115 2.11 116 2.11 196 2.11 113 2.11
  14  0.100  0.500  0.407- 115 2.11 116 2.11 120 2.11 135 2.11 114 2.11
  15  0.000  0.500  0.503- 113 2.11 114 2.11 117 2.11 194 2.11 115 2.11
  16  0.100  0.400  0.503- 110 2.11 113 2.11 114 2.11 133 2.11 116 2.11
  17  0.000  0.600  0.407- 115 2.11 119 2.11 120 2.11 200 2.11 117 2.11
  18  0.100  0.700  0.407- 124 2.11 120 2.11 119 2.11 139 2.11 118 2.11
  19  0.000  0.700  0.503- 121 2.11 118 2.11 117 2.11 198 2.11 119 2.11
  20  0.100  0.600  0.503- 114 2.11 117 2.11 118 2.11 137 2.11 120 2.11
  21  0.000  0.800  0.407- 119 2.11 123 2.11 124 2.11 204 2.11 121 2.11
  22  0.100  0.900  0.407- 108 2.11 123 2.11 124 2.11 143 2.11 122 2.11
  23  0.000  0.900  0.503- 105 2.11 121 2.11 122 2.11 202 2.11 123 2.11
  24  0.100  0.800  0.503- 118 2.11 121 2.11 122 2.11 141 2.11 124 2.11
  25  0.200  0.000  0.407- 128 2.11 127 2.11 108 2.11 143 2.11 125 2.11
  26  0.300  0.100  0.407- 127 2.11 128 2.11 132 2.11 147 2.11 126 2.11
  27  0.200  0.100  0.503- 126 2.11 125 2.11 106 2.11 129 2.11 127 2.11
  28  0.300  0.000  0.503- 125 2.11 126 2.11 142 2.11 145 2.11 128 2.11
  29  0.200  0.200  0.407- 131 2.11 132 2.11 112 2.11 127 2.11 129 2.11
  30  0.300  0.300  0.407- 131 2.11 132 2.11 136 2.11 151 2.11 130 2.11
  31  0.200  0.300  0.503- 129 2.11 130 2.11 110 2.11 133 2.11 131 2.11
  32  0.300  0.200  0.503- 129 2.11 130 2.11 126 2.11 149 2.11 132 2.11
  33  0.200  0.400  0.407- 136 2.11 131 2.11 135 2.11 116 2.11 133 2.11
  34  0.300  0.500  0.407- 135 2.11 136 2.11 140 2.11 155 2.11 134 2.11
  35  0.200  0.500  0.503- 134 2.11 133 2.11 114 2.11 137 2.11 135 2.11
  36  0.300  0.400  0.503- 133 2.11 130 2.11 134 2.11 153 2.11 136 2.11
  37  0.200  0.600  0.407- 140 2.11 135 2.11 139 2.11 120 2.11 137 2.11
  38  0.300  0.700  0.407- 139 2.11 144 2.11 140 2.11 159 2.11 138 2.11
  39  0.200  0.700  0.503- 138 2.11 141 2.11 118 2.11 137 2.11 139 2.11
  40  0.300  0.600  0.503- 137 2.11 134 2.11 138 2.11 157 2.11 140 2.11
  41  0.200  0.800  0.407- 139 2.11 144 2.11 143 2.11 124 2.11 141 2.11
  42  0.300  0.900  0.407- 143 2.11 128 2.11 144 2.11 163 2.11 142 2.11
  43  0.200  0.900  0.503- 142 2.11 125 2.11 141 2.11 122 2.11 143 2.11
  44  0.300  0.800  0.503- 138 2.11 141 2.11 142 2.11 161 2.11 144 2.11
  45  0.400  0.000  0.407- 128 2.11 147 2.11 148 2.11 163 2.11 145 2.11
  46  0.500  0.100  0.407- 147 2.11 148 2.11 152 2.11 167 2.11 146 2.11
  47  0.400  0.100  0.503- 126 2.11 145 2.11 146 2.11 149 2.11 147 2.11
  48  0.500  0.000  0.503- 145 2.11 146 2.11 162 2.11 165 2.11 148 2.11
  49  0.400  0.200  0.407- 151 2.11 147 2.11 132 2.11 152 2.11 149 2.11
  50  0.500  0.300  0.407- 152 2.11 151 2.11 156 2.11 171 2.11 150 2.11
  51  0.400  0.300  0.503- 149 2.11 130 2.11 150 2.11 153 2.11 151 2.11
  52  0.500  0.200  0.503- 150 2.11 149 2.11 146 2.11 169 2.11 152 2.11
  53  0.400  0.400  0.407- 136 2.11 151 2.11 155 2.11 156 2.11 153 2.11
  54  0.500  0.500  0.407- 155 2.11 156 2.11 160 2.11 175 2.11 154 2.11
  55  0.400  0.500  0.503- 134 2.11 153 2.11 154 2.11 157 2.11 155 2.11   1 2.75   4 2.76
  56  0.500  0.400  0.503- 150 2.11 153 2.11 154 2.11 173 2.11 156 2.11
  57  0.400  0.600  0.407- 140 2.11 155 2.11 159 2.11 160 2.11 157 2.11
  58  0.500  0.700  0.407- 164 2.11 160 2.11 159 2.11 179 2.11 158 2.11
  59  0.400  0.700  0.503- 161 2.11 157 2.11 158 2.11 138 2.11 159 2.11
  60  0.500  0.600  0.503- 154 2.11 157 2.11 158 2.11 177 2.11 160 2.11
[...]
 190  0.900  0.300  0.503-  92 2.11  91 2.11  11 2.11  96 2.11  90 2.11
 191  0.800  0.300  0.407-  70 2.11  89 2.11  90 2.11  93 2.11  91 2.11
 192  0.900  0.200  0.407-  90 2.11  86 2.11  89 2.11   9 2.11  92 2.11
 193  0.800  0.400  0.503-  76 2.11  91 2.11  95 2.11  96 2.11  93 2.11
 194  0.900  0.500  0.503-  15 2.11  95 2.11  96 2.11 100 2.11  94 2.11
 195  0.800  0.500  0.407-  74 2.11  93 2.11  94 2.11  97 2.11  95 2.11
 196  0.900  0.400  0.407-  13 2.11  90 2.11  93 2.11  94 2.11  96 2.11
 197  0.800  0.600  0.503-  80 2.11  95 2.11  99 2.11 100 2.11  97 2.11
 198  0.900  0.700  0.503- 104 2.11  99 2.11 100 2.11  19 2.11  98 2.11
 199  0.800  0.700  0.407-  78 2.11 101 2.11  98 2.11  97 2.11  99 2.11
 200  0.900  0.600  0.407-  17 2.11  94 2.11  97 2.11  98 2.11 100 2.11
 201  0.800  0.800  0.503-  84 2.11  99 2.11 103 2.11 104 2.11 101 2.11
 202  0.900  0.900  0.503-  23 2.11  88 2.11 103 2.11 104 2.11 102 2.11
 203  0.800  0.900  0.407-  82 2.11  85 2.11 101 2.11 102 2.11 103 2.11
 204  0.900  0.800  0.407-  98 2.11  21 2.11 101 2.11 102 2.11 104 2.11

  LATTYP: Found a simple tetragonal cell.
 ALAT       =    21.1388521970
 C/A-ratio  =     1.0461251639

  Lattice vectors:

 A1 = (  21.1388521970,   0.0000000000,   0.0000000000)
 A2 = (   0.0000000000,  21.1388521970,   0.0000000000)
 A3 = (   0.0000000000,   0.0000000000,  22.1138852197)

Analysis of symmetry for initial positions (statically):
 Subroutine PRICEL returns:
 Original cell was already a primitive cell.

 Routine SETGRP: Setting up the symmetry group for a
 simple tetragonal supercell.

 Subroutine GETGRP returns: Found  1 space group operations
 (whereof  1 operations were pure point group operations)
 out of a pool of 16 trial point group operations.

The static configuration has the point symmetry C_1 .

Analysis of symmetry for dynamics (positions and initial velocities):
 Subroutine PRICEL returns:
 Original cell was already a primitive cell.

[...]

The dynamic configuration has the point symmetry C_1 .

Analysis of constrained symmetry for selective dynamics:
 Subroutine PRICEL returns:
 Original cell was already a primitive cell.

 Routine SETGRP: Setting up the symmetry group for a
 simple tetragonal supercell.

 Subroutine GETGRP returns: Found  1 space group operations
 (whereof  1 operations were pure point group operations)
 out of a pool of 16 trial point group operations.

The constrained configuration has the point symmetry C_1 .

 Subroutine INISYM returns: Found  1 space group operations
 (whereof  1 operations are pure point group operations),
 and found     1 'primitive' translations

                                     Primitive cell

  volume of cell :    9881.6133

  direct lattice vectors                    reciprocal lattice vectors
    21.138852197  0.000000000  0.000000000     0.047306258  0.000000000  0.000000000
     0.000000000 21.138852197  0.000000000     0.000000000  0.047306258  0.000000000
     0.000000000  0.000000000 22.113885220     0.000000000  0.000000000  0.045220457

  length of vectors
    21.138852197 21.138852197 22.113885220     0.047306258  0.047306258  0.045220457

  position of ions in fractional coordinates (direct lattice)
     0.400262498  0.562644202  0.611757253
     0.400180406  0.499857897  0.835303009
[...]
|           WW  WW  A    A  R   R   N   NN  II  N   NN  G    G                |
|           W    W  A    A  R    R  N    N  II  N    N   GGGG   !!!           |
|     Specifying the vdW parameters                                           |
|     VDW_A1 = 0.447                                                          |
|     VDW_A2 = 6.174                                                          |
|     VDW_S8 = 2.949                                                          |
|     in the INCAR file will overwrite the defaults for pbesol. Please        |
|     make sure that is what you intended.                                    |

         DFTD3 V3.0 Rev 1
 IVDW         = 12
 DF pbesol
 parameters
 VDW_S6       =    1.0000
 VDW_S8       =    2.9491
 VDW_A1       =    0.4466
 VDW_A2       =    6.1742
 k1-k3        =   16.0000    1.3333   -4.0000
 VDW_RADIUS   =   50.2022 A
 VDW_CNRADIUS =   21.1671 A
 Edisp (eV)  -23.57334

 E6    (eV) :    -8.4693
 E8    (eV) :   -15.1041
 % E8        : 64.07

  FORCE on cell =-STRESS in cart. coord.  units (eV):
  Direction    XX          YY          ZZ          XY          YZ          ZX
  Alpha Z  1401.13727  1401.13727  1401.13727
  Ewald  473476.01013474520.77188************     0.52185     3.38727    -0.69588
  Hartree502950.05017503738.64177************     0.38740     2.59105    -0.59581
  E(xc)   -7726.22932 -7725.69641 -7742.96333     0.00024     0.00109     0.00003
  Local  ************************************    -0.90192    -5.94849     1.29703
  n-local -8837.95839 -8840.18979 -8960.21223    -0.00022     0.00667    -0.00518
  augment  3586.12381  3583.20434  3521.18072    -0.00234    -0.01406     0.00323
  Kinetic 23185.22213 23177.60325 23439.59360    -0.00444     0.00106    -0.01096
  Fock        0.00000     0.00000     0.00000     0.00000     0.00000     0.00000
  vdW       -24.67198   -24.67553    -5.10365    -0.00002    -0.00008    -0.00000
  Total    -221.17188  -222.19404   -15.13406     0.00056     0.02450    -0.00755
  in kB     -35.86019   -36.02592    -2.45379     0.00009     0.00397    -0.00122

 VOLUME and BASIS-vectors are now :
  energy-cutoff  :      520.00
  volume of cell :     9881.61
      direct lattice vectors                 reciprocal lattice vectors
    21.138852197  0.000000000  0.000000000     0.047306258  0.000000000  0.000000000
     0.000000000 21.138852197  0.000000000     0.000000000  0.047306258  0.000000000
     0.000000000  0.000000000 22.113885220     0.000000000  0.000000000  0.045220457

  length of vectors
    21.138852197 21.138852197 22.113885220     0.047306258  0.047306258  0.045220457

 FORCES acting on ions:
    Electron-Ion                     Ewald-Force                    Non-Local-Force
   -.475E+00 -.383E+03 -.187E+04   0.464E+00 0.376E+03 0.187E+04   0.723E-02 0.689E+01 -.170E+01
   -.148E+00 -.992E+00 -.113E+04   0.141E+00 0.967E+00 0.113E+04   0.597E-02 0.247E-01 0.728E+01
   0.648E+00 0.109E+01 -.162E+04   -.637E+00 -.107E+01 0.162E+04   -.909E-02 -.226E-01 -.135E+01
   -.794E-01 0.383E+03 -.187E+04   0.760E-01 -.376E+03 0.187E+04   0.981E-03 -.687E+01 -.169E+01
   0.615E+01 0.323E-01 0.935E+03   -.618E+01 -.325E-01 -.927E+03   0.242E-01 0.149E-03 -.772E+01
   0.120E+02 0.911E+01 0.938E+03   -.121E+02 -.914E+01 -.930E+03   0.526E-01 0.202E-01 -.773E+01
   0.880E+01 0.829E+01 -.918E+03   -.884E+01 -.829E+01 0.910E+03   0.286E-01 0.332E-02 0.762E+01
   0.129E+02 0.589E-01 -.917E+03   -.129E+02 -.592E-01 0.909E+03   0.394E-01 0.264E-03 0.762E+01
   0.945E+01 0.111E+02 0.938E+03   -.950E+01 -.111E+02 -.930E+03   0.421E-01 0.963E-02 -.773E+01
   0.245E+02 0.177E+02 0.949E+03   -.247E+02 -.177E+02 -.941E+03   0.134E+00 0.254E-01 -.774E+01
   0.182E+02 0.153E+02 -.912E+03   -.182E+02 -.153E+02 0.904E+03   0.488E-01 0.111E-02 0.762E+01
   0.234E+02 0.220E+02 -.911E+03   -.235E+02 -.220E+02 0.903E+03   0.908E-01 0.174E-01 0.762E+01
   0.163E+02 0.757E+01 0.944E+03   -.164E+02 -.757E+01 -.936E+03   0.660E-01 0.397E-02 -.774E+01
   0.355E+02 -.656E-01 0.958E+03   -.357E+02 0.660E-01 -.950E+03   0.164E+00 -.323E-03 -.776E+01
   0.261E+02 -.528E-01 -.908E+03   -.262E+02 0.530E-01 0.900E+03   0.501E-01 -.135E-03 0.761E+01
   0.515E+02 0.180E+02 -.895E+03   -.517E+02 -.180E+02 0.887E+03   0.136E+00 0.709E-03 0.760E+01
   0.163E+02 -.763E+01 0.944E+03   -.164E+02 0.763E+01 -.936E+03   0.658E-01 -.422E-02 -.774E+01
   0.244E+02 -.177E+02 0.949E+03   -.246E+02 0.177E+02 -.940E+03   0.133E+00 -.255E-01 -.774E+01
   0.181E+02 -.153E+02 -.912E+03   -.182E+02 0.153E+02 0.904E+03   0.485E-01 -.119E-02 0.762E+01
   0.514E+02 -.181E+02 -.895E+03   -.516E+02 0.181E+02 0.887E+03   0.135E+00 -.113E-02 0.760E+01
   0.942E+01 -.111E+02 0.938E+03   -.947E+01 0.111E+02 -.930E+03   0.419E-01 -.953E-02 -.773E+01
   0.120E+02 -.903E+01 0.938E+03   -.121E+02 0.905E+01 -.930E+03   0.523E-01 -.197E-01 -.773E+01
   0.878E+01 -.822E+01 -.918E+03   -.882E+01 0.822E+01 0.910E+03   0.284E-01 -.309E-02 0.762E+01
   0.233E+02 -.219E+02 -.911E+03   -.234E+02 0.219E+02 0.903E+03   0.901E-01 -.172E-01 0.762E+01
   0.109E+02 0.637E-01 0.939E+03   -.110E+02 -.642E-01 -.931E+03   0.444E-01 0.426E-03 -.773E+01
   0.865E+01 0.168E+02 0.945E+03   -.870E+01 -.170E+02 -.937E+03   0.405E-01 0.947E-01 -.773E+01
   0.172E+02 0.184E+02 -.911E+03   -.173E+02 -.185E+02 0.903E+03   0.568E-01 0.536E-01 0.762E+01
   0.909E+01 0.118E+00 -.912E+03   -.912E+01 -.119E+00 0.904E+03   0.276E-01 0.626E-03 0.762E+01
   0.196E+02 0.239E+02 0.950E+03   -.197E+02 -.240E+02 -.941E+03   0.115E+00 0.848E-01 -.772E+01
   0.246E+02 0.427E+02 0.982E+03   -.248E+02 -.430E+02 -.974E+03   0.215E+00 0.217E+00 -.761E+01
   0.534E+02 0.482E+02 -.884E+03   -.538E+02 -.483E+02 0.876E+03   0.313E+00 0.342E-01 0.761E+01
   0.226E+02 0.547E+02 -.892E+03   -.227E+02 -.551E+02 0.884E+03   0.875E-01 0.273E+00 0.763E+01
   0.439E+02 0.205E+02 0.978E+03   -.444E+02 -.205E+02 -.970E+03   0.338E+00 0.395E-01 -.779E+01
   0.455E+02 -.205E+00 0.103E+04   -.460E+02 0.208E+00 -.102E+04   0.347E+00 -.210E-02 -.774E+01
   0.104E+03 -.235E+00 -.848E+03   -.104E+03 0.236E+00 0.841E+03   0.285E+00 -.552E-03 0.756E+01
   0.115E+03 0.853E+02 -.768E+03   -.117E+03 -.852E+02 0.760E+03   0.127E+01 -.166E-01 0.739E+01
   0.438E+02 -.206E+02 0.978E+03   -.442E+02 0.207E+02 -.970E+03   0.337E+00 -.406E-01 -.779E+01
   0.244E+02 -.426E+02 0.982E+03   -.247E+02 0.429E+02 -.974E+03   0.214E+00 -.216E+00 -.762E+01
   0.531E+02 -.482E+02 -.885E+03   -.535E+02 0.482E+02 0.877E+03   0.310E+00 -.347E-01 0.761E+01
   0.114E+03 -.858E+02 -.769E+03   -.116E+03 0.858E+02 0.761E+03   0.126E+01 0.128E-01 0.740E+01
   0.195E+02 -.238E+02 0.949E+03   -.197E+02 0.239E+02 -.941E+03   0.114E+00 -.841E-01 -.772E+01
   0.862E+01 -.167E+02 0.945E+03   -.867E+01 0.168E+02 -.937E+03   0.402E-01 -.934E-01 -.773E+01
   0.172E+02 -.182E+02 -.912E+03   -.172E+02 0.183E+02 0.904E+03   0.565E-01 -.526E-01 0.762E+01
   0.224E+02 -.544E+02 -.892E+03   -.225E+02 0.547E+02 0.884E+03   0.868E-01 -.270E+00 0.763E+01
   0.151E-01 0.898E-01 0.943E+03   -.152E-01 -.907E-01 -.935E+03   0.213E-04 0.679E-03 -.773E+01
   -.862E+01 0.169E+02 0.945E+03   0.868E+01 -.170E+02 -.937E+03   -.404E-01 0.948E-01 -.773E+01
   0.251E-01 0.284E+02 -.906E+03   -.251E-01 -.285E+02 0.898E+03   0.238E-04 0.127E+00 0.762E+01
   -.906E+01 0.117E+00 -.912E+03   0.909E+01 -.118E+00 0.904E+03   -.276E-01 0.612E-03 0.762E+01
   0.307E-01 0.370E+02 0.962E+03   -.309E-01 -.373E+02 -.953E+03   0.835E-04 0.294E+00 -.774E+01
   -.245E+02 0.427E+02 0.982E+03   0.248E+02 -.430E+02 -.974E+03   -.215E+00 0.217E+00 -.761E+01
   0.144E+00 0.119E+03 -.825E+03   -.144E+00 -.121E+03 0.816E+03   0.335E-03 0.125E+01 0.776E+01
   -.225E+02 0.548E+02 -.892E+03   0.227E+02 -.551E+02 0.884E+03   -.874E-01 0.274E+00 0.763E+01
   0.101E+00 0.406E+02 0.104E+04   -.101E+00 -.408E+02 -.103E+04   -.240E-03 0.181E+00 -.619E+01
   -.454E+02 -.198E+00 0.103E+04   0.459E+02 0.201E+00 -.102E+04   -.347E+00 -.222E-02 -.774E+01
   0.616E+00 -.669E+00 -.563E+03   -.618E+00 0.681E+00 0.558E+03   -.207E-04 -.150E-01 0.419E+01
   -.115E+03 0.855E+02 -.768E+03   0.117E+03 -.855E+02 0.760E+03   -.127E+01 -.155E-01 0.739E+01
   0.109E+00 -.409E+02 0.104E+04   -.109E+00 0.411E+02 -.103E+04   -.436E-03 -.182E+00 -.621E+01
   -.244E+02 -.427E+02 0.982E+03   0.246E+02 0.430E+02 -.974E+03   -.214E+00 -.216E+00 -.762E+01
   0.166E+00 -.119E+03 -.826E+03   -.167E+00 0.120E+03 0.818E+03   0.542E-03 -.124E+01 0.776E+01
   -.115E+03 -.861E+02 -.769E+03   0.116E+03 0.861E+02 0.761E+03   -.126E+01 0.121E-01 0.739E+01
[...]
   -.979E+01 0.881E+01 0.707E+03   0.983E+01 -.882E+01 -.711E+03   -.515E-01 0.111E-01 0.351E+01
   -.140E-01 0.717E+01 0.704E+03   0.140E-01 -.718E+01 -.708E+03   -.112E-04 0.746E-02 0.351E+01
   -.179E+02 0.755E+01 -.683E+03   0.179E+02 -.755E+01 0.687E+03   -.504E-01 0.961E-04 -.371E+01
   -.369E-01 -.301E-01 -.685E+03   0.369E-01 0.302E-01 0.689E+03   0.911E-06 -.128E-03 -.370E+01
   -.134E+02 -.289E-01 0.710E+03   0.134E+02 0.291E-01 -.714E+03   -.590E-01 -.182E-03 0.350E+01
   -.240E-01 0.472E+01 0.707E+03   0.240E-01 -.472E+01 -.711E+03   -.712E-05 0.247E-02 0.351E+01
   -.178E+02 -.761E+01 -.683E+03   0.179E+02 0.761E+01 0.687E+03   -.503E-01 -.360E-03 -.371E+01
   -.269E-01 -.930E+01 -.687E+03   0.269E-01 0.930E+01 0.692E+03   -.125E-04 -.146E-02 -.369E+01
   -.977E+01 -.882E+01 0.707E+03   0.980E+01 0.883E+01 -.711E+03   -.513E-01 -.112E-01 0.351E+01
   -.245E-01 -.476E+01 0.707E+03   0.245E-01 0.476E+01 -.711E+03   -.162E-04 -.269E-02 0.351E+01
   -.941E+01 -.106E+02 -.688E+03   0.944E+01 0.106E+02 0.692E+03   -.381E-01 -.893E-02 -.368E+01
   -.135E-01 -.523E+01 -.691E+03   0.135E-01 0.524E+01 0.695E+03   -.131E-04 -.309E-02 -.367E+01
   -.526E+01 -.491E+01 0.703E+03   0.529E+01 0.492E+01 -.707E+03   -.315E-01 -.947E-02 0.351E+01
   -.147E-01 -.716E+01 0.704E+03   0.147E-01 0.716E+01 -.708E+03   -.213E-04 -.737E-02 0.351E+01
   -.242E-01 -.415E-02 0.561E+01   0.232E-11 0.119E-11 0.182E-11   0.217E-01 0.573E-02 -.606E+01

 POSITION                                       TOTAL-FORCE (eV/Angst)
      8.46109     11.89365     13.52833        -0.004087     -0.217150     -0.105874
      8.45935     10.56642     18.47179        -0.001370     -0.000801     -0.242066
      8.45769     10.55816     15.88881         0.001678      0.000330     -0.101823
      8.45973      9.22287     13.52627        -0.002320      0.233262     -0.112810
      0.00000      0.00000      9.00000        -0.006643     -0.000045      0.482352
      2.11389      2.11389      9.00000        -0.014533     -0.005644      0.481974
      0.00000      2.11389     11.11389        -0.007625     -0.000861     -0.442266
      2.11389      0.00000     11.11389        -0.010815     -0.000071     -0.441746
      0.00000      4.22777      9.00000        -0.011199     -0.002665      0.483219
      2.11389      6.34166      9.00000        -0.034816     -0.006788      0.485520
      0.00000      6.34166     11.11389        -0.012147      0.000117     -0.437616
      2.11389      4.22777     11.11389        -0.023509     -0.004298     -0.437422
      0.00000      8.45554      9.00000        -0.017199     -0.000927      0.485142
      2.11389     10.56943      9.00000        -0.043222      0.000077      0.489031
      0.00000     10.56943     11.11389        -0.011594      0.000028     -0.433558
      2.11389      8.45554     11.11389        -0.030553      0.001669     -0.423046
      0.00000     12.68331      9.00000        -0.017145      0.000991      0.485139
      2.11389     14.79720      9.00000        -0.034587      0.006812      0.485494
      0.00000     14.79720     11.11389        -0.012079     -0.000110     -0.437647
      2.11389     12.68331     11.11389        -0.030463     -0.001575     -0.423113
      0.00000     16.91108      9.00000        -0.011120      0.002617      0.483211
      2.11389     19.02497      9.00000        -0.014457      0.005497      0.481988
      0.00000     19.02497     11.11389        -0.007584      0.000791     -0.442268
      2.11389     16.91108     11.11389        -0.023320      0.004240     -0.437459
      4.22777      0.00000      9.00000        -0.012490     -0.000119      0.482037
      6.34166      2.11389      9.00000        -0.011657     -0.024790      0.481805
      4.22777      2.11389     11.11389        -0.015668     -0.013631     -0.438767
      6.34166      0.00000     11.11389        -0.007773     -0.000174     -0.439213
      4.22777      4.22777      9.00000        -0.032341     -0.023958      0.478744
      6.34166      6.34166      9.00000        -0.067125     -0.064893      0.443285
      4.22777      6.34166     11.11389        -0.078520     -0.003797     -0.419476
      6.34166      4.22777     11.11389        -0.023954     -0.069401     -0.431256
      4.22777      8.45554      9.00000        -0.084173     -0.008630      0.493931
      6.34166     10.56943      9.00000        -0.107948      0.000648      0.453362
      4.22777     10.56943     11.11389        -0.066660      0.000089     -0.371705
      6.34166      8.45554     11.11389        -0.429753      0.026678     -0.410681
      4.22777     12.68331      9.00000        -0.083743      0.008918      0.493875
      6.34166     14.79720      9.00000        -0.066885      0.064700      0.444040
      4.22777     14.79720     11.11389        -0.077643      0.003974     -0.419681
      6.34166     12.68331     11.11389        -0.424792     -0.025507     -0.410376
      4.22777     16.91108      9.00000        -0.032089      0.023738      0.478816
      6.34166     19.02497      9.00000        -0.011604      0.024413      0.481824
      4.22777     19.02497     11.11389        -0.015568      0.013357     -0.438788
      6.34166     16.91108     11.11389        -0.023788      0.068545     -0.431325
      8.45554      0.00000      9.00000         0.000003     -0.000187      0.482253
     10.56943      2.11389      9.00000         0.011678     -0.024812      0.481807
      8.45554      2.11389     11.11389         0.000005     -0.031458     -0.436788
     10.56943      0.00000     11.11389         0.007790     -0.000162     -0.439213
      8.45554      4.22777      9.00000        -0.000018     -0.073849      0.479420
     10.56943      6.34166      9.00000         0.067118     -0.064853      0.443176
      8.45554      6.34166     11.11389        -0.000084     -0.398253     -0.488338
     10.56943      4.22777     11.11389         0.023963     -0.069506     -0.431235
      8.45554      8.45554      9.00000         0.000117     -0.032980      0.129807
     10.56943     10.56943      9.00000         0.107923      0.000693      0.452712
      8.45554     10.56943     11.11389        -0.001943     -0.002646     -0.618919
     10.56943      8.45554     11.11389         0.430710      0.025935     -0.411688
      8.45554     12.68331      9.00000         0.000188      0.032905      0.132828
     10.56943     14.79720      9.00000         0.066857      0.064624      0.443866
      8.45554     14.79720     11.11389        -0.000144      0.394254     -0.485949
     10.56943     12.68331     11.11389         0.426063     -0.024702     -0.412087
[...]
     19.02497      6.34166     11.11389         0.000015      0.000396      0.370288
     16.91108      6.34166      9.00000        -0.014217      0.003119     -0.415172
     19.02497      4.22777      9.00000         0.000013      0.002080     -0.414492
     16.91108      8.45554     11.11389        -0.014026      0.000038      0.365364
     19.02497     10.56943     11.11389         0.000013     -0.000042      0.367568
     16.91108     10.56943      9.00000        -0.016383     -0.000057     -0.416561
     19.02497      8.45554      9.00000         0.000011      0.000699     -0.415535
     16.91108     12.68331     11.11389        -0.013986     -0.000130      0.365382
     19.02497     14.79720     11.11389         0.000004     -0.000426      0.370305
     16.91108     14.79720      9.00000        -0.014154     -0.003160     -0.415166
     19.02497     12.68331      9.00000         0.000004     -0.000770     -0.415538
     16.91108     16.91108     11.11389        -0.010504     -0.002501      0.371399
     19.02497     19.02497     11.11389         0.000005     -0.000886      0.373989
     16.91108     19.02497      9.00000        -0.008625     -0.002623     -0.414064
     19.02497     16.91108      9.00000         0.000004     -0.002070     -0.414492
    total drift:                               -0.002534      0.001577     -0.449607

  FREE ENERGIE OF THE ION-ELECTRON SYSTEM (eV)
  free  energy   TOTEN  =     -1218.49385900 eV

  energy  without entropy=    -1218.49385900  energy(sigma->0) =    -1218.49385900