 vasp.6.3.0 20Jan22 (build Apr  1 2022 16:44:48) complex
 executed on        HPECrayEX_GCC date 2023.01.09  21:14:49

 INCAR:
   SYSTEM = MgO-rocksalt
   ISMEAR = 0
   SIGMA = 0.05
   EDIFF = 1E-6
   ALGO = ALL
   ISTART = 0
   IBRION = -1
   NSW = 0
   ISYM = 2
   DIPOL = 0.5 0.5 0.5
   IDIPOL = 3
   LDIPOL = .TRUE.
   GGA = ML
   LUSE_VDW = .TRUE.
   ZAB_VDW = -1.8867
   AGGAC = 0.0000
   ENCUT = 520
   PREC = Accurate
   LASPH = .TRUE.
   LREAL = Auto
   ISPIN = 1
   NELM = 200
   NELMIN = 8
   NCORE = 4
   KPAR = 2
   LWAVE = .FALSE.
   LCHARG = .FALSE.

 POTCAR:    PAW_PBE Cu 22Jun2005
 POTCAR:    PAW_PBE Mg_pv 13Apr2007
 POTCAR:    PAW_PBE O 08Apr2002
|               ----> ADVICE to this user running VASP <----                  |
|     You have switched on vdW-DFT.                                           |
|     This routine was written and supplied by Jiri Klimes. We recommend      |
|     that you carefully read and cite the following publications:            |
|       J. Klimes, D.R. Bowler, A. Michelides                                 |
|          J. Phys.: Cond Matt. 22 022201 (2010)                              |
|       J. Klimes, D.R. Bowler, A. Michelides                                 |
|          Phys. Rev. B. 83, 195131 (2011)                                    |
|     and references therein.                                                 |

   TITEL  = PAW_PBE Cu 22Jun2005
   POMASS =   63.546; ZVAL   =   11.000    mass and valenz
   ENMAX  =  295.446; ENMIN  =  221.585 eV

   TITEL  = PAW_PBE Mg_pv 13Apr2007
   POMASS =   24.305; ZVAL   =    8.000    mass and valenz
   ENMAX  =  403.929; ENMIN  =  302.947 eV

   TITEL  = PAW_PBE O 08Apr2002
   POMASS =   16.000; ZVAL   =    6.000    mass and valenz
   ENMAX  =  400.000; ENMIN  =  300.000 eV

 Optimization of the real space projectors (new method)

 maximal supplied QI-value         = 16.25
 optimisation between [QCUT,QGAM] = [ 11.54, 23.24] = [ 37.28,151.24] Ry
 Optimized for a Real-space Cutoff    1.53 Angstroem

   l    n(q)    QCUT    max X(q) W(low)/X(q) W(high)/X(q)  e(spline)
   2     10    11.539     4.610    0.96E-04    0.13E-03    0.19E-06
   2     10    11.539     8.522    0.16E-03    0.21E-03    0.28E-06
   0     11    11.539    51.609    0.45E-04    0.31E-04    0.11E-06
   0     11    11.539    27.747    0.39E-04    0.29E-04    0.10E-06
   1     10    11.539    20.408    0.70E-05    0.38E-04    0.18E-06
   1     10    11.539    13.425    0.66E-05    0.34E-04    0.17E-06
 Optimization of the real space projectors (new method)

[...]

   l    n(q)    QCUT    max X(q) W(low)/X(q) W(high)/X(q)  e(spline)
   1      8    11.527     2.974    0.44E-04    0.56E-04    0.12E-06
   1      8    11.527     4.279    0.12E-03    0.12E-03    0.26E-06
   0      9    11.527    16.381    0.46E-04    0.64E-04    0.78E-07
   0      9    11.527     5.611    0.26E-04    0.43E-04    0.55E-07
   2      8    11.527     4.652    0.22E-03    0.72E-04    0.47E-07
 Optimization of the real space projectors (new method)

 maximal supplied QI-value         = 24.76
 optimisation between [QCUT,QGAM] = [ 11.64, 23.27] = [ 37.91,151.63] Ry
 Optimized for a Real-space Cutoff    1.14 Angstroem

   l    n(q)    QCUT    max X(q) W(low)/X(q) W(high)/X(q)  e(spline)
   0      8    11.635    20.381    0.10E-03    0.33E-03    0.24E-06
   0      8    11.635    15.268    0.11E-03    0.35E-03    0.26E-06
   1      7    11.635     5.964    0.24E-03    0.31E-03    0.30E-06
   1      7    11.635     5.382    0.22E-03    0.25E-03    0.26E-06
|               ----> ADVICE to this user running VASP <----                  |
|     You enforced a specific xc type in the INCAR file but a different       |
|     type was found in the POTCAR file.                                      |
|     I HOPE YOU KNOW WHAT YOU ARE DOING!                                     |

  PAW_PBE Cu 22Jun2005                  :
  PAW_PBE Mg_pv 13Apr2007               :
  PAW_PBE O 08Apr2002                   :

 POSCAR: Cu Mg  O
  positions in direct lattice
  velocities in cartesian coordinates
 exchange correlation table for  LEXCH =       44
   RHO(1)=    0.500       N(1)  =     2000
   RHO(2)=  100.500       N(2)  =     4000

 ion  position               nearest neighbor table
   1  0.400  0.558  0.598- 157 2.29   3 2.35  55 2.43   4 2.47
   2  0.400  0.499  0.790-   3 2.25
   3  0.400  0.499  0.688-   2 2.25   1 2.35   4 2.35
   4  0.400  0.441  0.597- 153 2.26   3 2.35  55 2.43   1 2.47
   5  0.000  0.000  0.407- 107 2.11 108 2.11 123 2.11 188 2.11 105 2.11
   6  0.100  0.100  0.407- 107 2.11 108 2.11 112 2.11 127 2.11 106 2.11
   7  0.000  0.100  0.503- 105 2.11 106 2.11 109 2.11 186 2.11 107 2.11
   8  0.100  0.000  0.503- 105 2.11 106 2.11 122 2.11 125 2.11 108 2.11
   9  0.000  0.200  0.407- 111 2.11 107 2.11 112 2.11 192 2.11 109 2.11
  10  0.100  0.300  0.407- 112 2.11 111 2.11 116 2.11 131 2.11 110 2.11
  11  0.000  0.300  0.503- 109 2.11 110 2.11 113 2.11 190 2.11 111 2.11
  12  0.100  0.200  0.503- 110 2.11 109 2.11 106 2.11 129 2.11 112 2.11
  13  0.000  0.400  0.407- 111 2.11 115 2.11 116 2.11 196 2.11 113 2.11
  14  0.100  0.500  0.407- 115 2.11 116 2.11 120 2.11 135 2.11 114 2.11
  15  0.000  0.500  0.503- 113 2.11 114 2.11 117 2.11 194 2.11 115 2.11
  16  0.100  0.400  0.503- 110 2.11 113 2.11 114 2.11 133 2.11 116 2.11
  17  0.000  0.600  0.407- 115 2.11 119 2.11 120 2.11 200 2.11 117 2.11
  18  0.100  0.700  0.407- 124 2.11 120 2.11 119 2.11 139 2.11 118 2.11
  19  0.000  0.700  0.503- 121 2.11 118 2.11 117 2.11 198 2.11 119 2.11
  20  0.100  0.600  0.503- 114 2.11 117 2.11 118 2.11 137 2.11 120 2.11
  21  0.000  0.800  0.407- 119 2.11 123 2.11 124 2.11 204 2.11 121 2.11
  22  0.100  0.900  0.407- 108 2.11 123 2.11 124 2.11 143 2.11 122 2.11
  23  0.000  0.900  0.503- 105 2.11 121 2.11 122 2.11 202 2.11 123 2.11
  24  0.100  0.800  0.503- 118 2.11 121 2.11 122 2.11 141 2.11 124 2.11
  25  0.200  0.000  0.407- 128 2.11 127 2.11 108 2.11 143 2.11 125 2.11
  26  0.300  0.100  0.407- 127 2.11 128 2.11 132 2.11 147 2.11 126 2.11
  27  0.200  0.100  0.503- 126 2.11 125 2.11 106 2.11 129 2.11 127 2.11
  28  0.300  0.000  0.503- 125 2.11 126 2.11 142 2.11 145 2.11 128 2.11
  29  0.200  0.200  0.407- 131 2.11 132 2.11 112 2.11 127 2.11 129 2.11
  30  0.300  0.300  0.407- 131 2.11 132 2.11 136 2.11 151 2.11 130 2.11
  31  0.200  0.300  0.503- 129 2.11 130 2.11 110 2.11 133 2.11 131 2.11
  32  0.300  0.200  0.503- 129 2.11 130 2.11 126 2.11 149 2.11 132 2.11
  33  0.200  0.400  0.407- 136 2.11 131 2.11 135 2.11 116 2.11 133 2.11
  34  0.300  0.500  0.407- 135 2.11 136 2.11 140 2.11 155 2.11 134 2.11
  35  0.200  0.500  0.503- 134 2.11 133 2.11 114 2.11 137 2.11 135 2.11
  36  0.300  0.400  0.503- 133 2.11 130 2.11 134 2.11 153 2.11 136 2.11
  37  0.200  0.600  0.407- 140 2.11 135 2.11 139 2.11 120 2.11 137 2.11
  38  0.300  0.700  0.407- 139 2.11 144 2.11 140 2.11 159 2.11 138 2.11
  39  0.200  0.700  0.503- 138 2.11 141 2.11 118 2.11 137 2.11 139 2.11
  40  0.300  0.600  0.503- 137 2.11 134 2.11 138 2.11 157 2.11 140 2.11
  41  0.200  0.800  0.407- 139 2.11 144 2.11 143 2.11 124 2.11 141 2.11
  42  0.300  0.900  0.407- 143 2.11 128 2.11 144 2.11 163 2.11 142 2.11
  43  0.200  0.900  0.503- 142 2.11 125 2.11 141 2.11 122 2.11 143 2.11
  44  0.300  0.800  0.503- 138 2.11 141 2.11 142 2.11 161 2.11 144 2.11
  45  0.400  0.000  0.407- 128 2.11 147 2.11 148 2.11 163 2.11 145 2.11
  46  0.500  0.100  0.407- 147 2.11 148 2.11 152 2.11 167 2.11 146 2.11
  47  0.400  0.100  0.503- 126 2.11 145 2.11 146 2.11 149 2.11 147 2.11
  48  0.500  0.000  0.503- 145 2.11 146 2.11 162 2.11 165 2.11 148 2.11
  49  0.400  0.200  0.407- 151 2.11 147 2.11 132 2.11 152 2.11 149 2.11
  50  0.500  0.300  0.407- 152 2.11 151 2.11 156 2.11 171 2.11 150 2.11
  51  0.400  0.300  0.503- 149 2.11 130 2.11 150 2.11 153 2.11 151 2.11
  52  0.500  0.200  0.503- 150 2.11 149 2.11 146 2.11 169 2.11 152 2.11
  53  0.400  0.400  0.407- 136 2.11 151 2.11 155 2.11 156 2.11 153 2.11
  54  0.500  0.500  0.407- 155 2.11 156 2.11 160 2.11 175 2.11 154 2.11
  55  0.400  0.500  0.503- 134 2.11 153 2.11 154 2.11 157 2.11 155 2.11   4 2.43   1 2.43
  56  0.500  0.400  0.503- 150 2.11 153 2.11 154 2.11 173 2.11 156 2.11
  57  0.400  0.600  0.407- 140 2.11 155 2.11 159 2.11 160 2.11 157 2.11
  58  0.500  0.700  0.407- 164 2.11 160 2.11 159 2.11 179 2.11 158 2.11
  59  0.400  0.700  0.503- 161 2.11 157 2.11 158 2.11 138 2.11 159 2.11
  60  0.500  0.600  0.503- 154 2.11 157 2.11 158 2.11 177 2.11 160 2.11
[...]
 190  0.900  0.300  0.503-  92 2.11  91 2.11  11 2.11  96 2.11  90 2.11
 191  0.800  0.300  0.407-  70 2.11  89 2.11  90 2.11  93 2.11  91 2.11
 192  0.900  0.200  0.407-  90 2.11  86 2.11  89 2.11   9 2.11  92 2.11
 193  0.800  0.400  0.503-  76 2.11  91 2.11  95 2.11  96 2.11  93 2.11
 194  0.900  0.500  0.503-  15 2.11  95 2.11  96 2.11 100 2.11  94 2.11
 195  0.800  0.500  0.407-  74 2.11  93 2.11  94 2.11  97 2.11  95 2.11
 196  0.900  0.400  0.407-  13 2.11  90 2.11  93 2.11  94 2.11  96 2.11
 197  0.800  0.600  0.503-  80 2.11  95 2.11  99 2.11 100 2.11  97 2.11
 198  0.900  0.700  0.503- 104 2.11  99 2.11 100 2.11  19 2.11  98 2.11
 199  0.800  0.700  0.407-  78 2.11 101 2.11  98 2.11  97 2.11  99 2.11
 200  0.900  0.600  0.407-  17 2.11  94 2.11  97 2.11  98 2.11 100 2.11
 201  0.800  0.800  0.503-  84 2.11  99 2.11 103 2.11 104 2.11 101 2.11
 202  0.900  0.900  0.503-  23 2.11  88 2.11 103 2.11 104 2.11 102 2.11
 203  0.800  0.900  0.407-  82 2.11  85 2.11 101 2.11 102 2.11 103 2.11
 204  0.900  0.800  0.407-  98 2.11  21 2.11 101 2.11 102 2.11 104 2.11

  LATTYP: Found a simple tetragonal cell.
 ALAT       =    21.1388521970
 C/A-ratio  =     1.0461251639

  Lattice vectors:

 A1 = (  21.1388521970,   0.0000000000,   0.0000000000)
 A2 = (   0.0000000000,  21.1388521970,   0.0000000000)
 A3 = (   0.0000000000,   0.0000000000,  22.1138852197)

Analysis of symmetry for initial positions (statically):
 Subroutine PRICEL returns:
 Original cell was already a primitive cell.

 Routine SETGRP: Setting up the symmetry group for a
 simple tetragonal supercell.

 Subroutine GETGRP returns: Found  1 space group operations
 (whereof  1 operations were pure point group operations)
 out of a pool of 16 trial point group operations.

The static configuration has the point symmetry C_1 .

Analysis of symmetry for dynamics (positions and initial velocities):
 Subroutine PRICEL returns:
 Original cell was already a primitive cell.

[...]

The dynamic configuration has the point symmetry C_1 .

Analysis of constrained symmetry for selective dynamics:
 Subroutine PRICEL returns:
 Original cell was already a primitive cell.

 Routine SETGRP: Setting up the symmetry group for a
 simple tetragonal supercell.

 Subroutine GETGRP returns: Found  1 space group operations
 (whereof  1 operations were pure point group operations)
 out of a pool of 16 trial point group operations.

The constrained configuration has the point symmetry C_1 .

 Subroutine INISYM returns: Found  1 space group operations
 (whereof  1 operations are pure point group operations),
 and found     1 'primitive' translations

[...]
     52     -44.1004      2.00000
     53     -44.1000      2.00000
     54     -44.0990      2.00000
     55     -44.0986      2.00000
     56     -44.0973      2.00000
     57     -44.0964      2.00000
     58     -44.0963      2.00000
     59     -44.0957      2.00000
     60     -44.0948      2.00000
[...]
    946       5.3036      0.00000
    947       5.3415      0.00000
    948       5.3866      0.00000
    949       5.4023      0.00000
    950       5.4429      0.00000
    951       5.4497      0.00000
    952       5.4727      0.00000
    953       5.4987      0.00000
    954       5.5532      0.00000
    955       5.6170      0.00000
    956       5.6643      0.00000
    957       5.8136      0.00000
    958       5.8583      0.00000
    959       6.0064      0.00000
    960       6.1392      0.00000

 soft charge-density along one line, spin component           1
         0         1         2         3         4         5         6         7         8         9
 total charge-density along one line

------------------------ aborting loop because EDIFF is reached ----------------------------------------

  FORCE on cell =-STRESS in cart. coord.  units (eV):
  Direction    XX          YY          ZZ          XY          YZ          ZX
  Alpha Z  1394.80054  1394.80054  1394.80054
  Ewald  476789.57733478031.49515************     0.08233     1.75104    -2.53842
  Hartree506372.50253507340.13214************     0.06338     1.08456    -1.99638
  E(xc)   -8212.21929 -8211.37757 -8218.98432     0.00002     0.00608    -0.00183
  Local  ************************************    -0.14435    -2.82332     4.50081
  n-local -8927.95068 -8929.08599 -9033.01962     0.00014     0.00110    -0.00016
  augment  3825.02015  3817.55578  3756.79691    -0.00023    -0.01179     0.01515
  Kinetic 23169.80062 23162.16756 23365.45337    -0.00049    -0.01797     0.02838
  Fock        0.00000     0.00000     0.00000     0.00000     0.00000     0.00000
  Total    -122.22358  -122.54213    43.09108     0.00080    -0.01030     0.00755
  in kB     -19.81699   -19.86864     6.98667     0.00013    -0.00167     0.00122

 VOLUME and BASIS-vectors are now :
  energy-cutoff  :      520.00
  volume of cell :     9881.61
      direct lattice vectors                 reciprocal lattice vectors
    21.138852197  0.000000000  0.000000000     0.047306258  0.000000000  0.000000000
     0.000000000 21.138852197  0.000000000     0.000000000  0.047306258  0.000000000
     0.000000000  0.000000000 22.113885220     0.000000000  0.000000000  0.045220457

  length of vectors
    21.138852197 21.138852197 22.113885220     0.047306258  0.047306258  0.045220457

 FORCES acting on ions:
    Electron-Ion                     Ewald-Force                    Non-Local-Force
   -.591E+00 -.486E+03 -.187E+04   0.583E+00 0.479E+03 0.188E+04   0.105E-01 0.762E+01 -.530E+01
   -.785E-01 -.283E+00 -.154E+04   0.676E-01 0.246E+00 0.153E+04   0.117E-01 0.384E-01 0.893E+01
   0.131E+01 0.386E+01 -.186E+04   -.129E+01 -.384E+01 0.186E+04   -.926E-02 -.231E-01 0.232E+00
   -.531E+00 0.482E+03 -.187E+04   0.524E+00 -.475E+03 0.188E+04   0.948E-02 -.744E+01 -.532E+01
   0.647E+01 0.578E-01 0.933E+03   -.650E+01 -.582E-01 -.927E+03   0.231E-01 0.368E-03 -.620E+01
   0.127E+02 0.987E+01 0.937E+03   -.128E+02 -.990E+01 -.931E+03   0.511E-01 0.207E-01 -.620E+01
   0.929E+01 0.883E+01 -.916E+03   -.932E+01 -.884E+01 0.910E+03   0.263E-01 0.304E-02 0.609E+01
   0.135E+02 0.103E+00 -.915E+03   -.135E+02 -.103E+00 0.909E+03   0.363E-01 0.588E-03 0.609E+01
   0.102E+02 0.119E+02 0.937E+03   -.102E+02 -.120E+02 -.931E+03   0.410E-01 0.992E-02 -.620E+01
   0.270E+02 0.195E+02 0.949E+03   -.272E+02 -.195E+02 -.943E+03   0.133E+00 0.256E-01 -.622E+01
   0.197E+02 0.165E+02 -.910E+03   -.198E+02 -.165E+02 0.904E+03   0.447E-01 0.224E-03 0.608E+01
   0.251E+02 0.238E+02 -.909E+03   -.252E+02 -.238E+02 0.903E+03   0.853E-01 0.158E-01 0.608E+01
   0.180E+02 0.821E+01 0.944E+03   -.181E+02 -.821E+01 -.937E+03   0.643E-01 0.395E-02 -.621E+01
   0.401E+02 -.121E+00 0.959E+03   -.403E+02 0.122E+00 -.953E+03   0.159E+00 -.848E-03 -.623E+01
   0.287E+02 -.945E-01 -.906E+03   -.288E+02 0.949E-01 0.900E+03   0.456E-01 -.328E-03 0.608E+01
   0.573E+02 0.201E+02 -.893E+03   -.575E+02 -.201E+02 0.887E+03   0.130E+00 -.829E-03 0.606E+01
   0.180E+02 -.831E+01 0.944E+03   -.181E+02 0.832E+01 -.937E+03   0.637E-01 -.458E-02 -.621E+01
   0.269E+02 -.195E+02 0.949E+03   -.271E+02 0.196E+02 -.942E+03   0.130E+00 -.258E-01 -.622E+01
   0.196E+02 -.165E+02 -.910E+03   -.197E+02 0.165E+02 0.904E+03   0.440E-01 -.416E-03 0.608E+01
   0.571E+02 -.203E+02 -.893E+03   -.573E+02 0.203E+02 0.887E+03   0.128E+00 -.219E-03 0.606E+01
   0.101E+02 -.119E+02 0.937E+03   -.102E+02 0.119E+02 -.931E+03   0.403E-01 -.965E-02 -.620E+01
   0.127E+02 -.973E+01 0.937E+03   -.128E+02 0.975E+01 -.931E+03   0.504E-01 -.195E-01 -.620E+01
   0.925E+01 -.871E+01 -.916E+03   -.928E+01 0.871E+01 0.910E+03   0.260E-01 -.251E-02 0.609E+01
   0.249E+02 -.237E+02 -.909E+03   -.250E+02 0.237E+02 0.903E+03   0.836E-01 -.154E-01 0.608E+01
   0.115E+02 0.112E+00 0.938E+03   -.116E+02 -.114E+00 -.932E+03   0.430E-01 0.105E-02 -.620E+01
   0.920E+01 0.186E+02 0.945E+03   -.925E+01 -.187E+02 -.939E+03   0.403E-01 0.961E-01 -.621E+01
   0.182E+02 0.199E+02 -.910E+03   -.183E+02 -.200E+02 0.904E+03   0.534E-01 0.512E-01 0.609E+01
   0.947E+01 0.202E+00 -.910E+03   -.950E+01 -.204E+00 0.904E+03   0.258E-01 0.140E-02 0.609E+01
   0.213E+02 0.265E+02 0.950E+03   -.215E+02 -.266E+02 -.943E+03   0.116E+00 0.876E-01 -.620E+01
   0.281E+02 0.498E+02 0.987E+03   -.284E+02 -.501E+02 -.981E+03   0.245E+00 0.243E+00 -.611E+01
   0.592E+02 0.544E+02 -.882E+03   -.596E+02 -.545E+02 0.876E+03   0.309E+00 0.318E-01 0.606E+01
   0.244E+02 0.605E+02 -.890E+03   -.245E+02 -.609E+02 0.884E+03   0.856E-01 0.271E+00 0.608E+01
   0.508E+02 0.239E+02 0.983E+03   -.512E+02 -.239E+02 -.977E+03   0.360E+00 0.370E-01 -.627E+01
   0.559E+02 -.445E+00 0.105E+04   -.565E+02 0.454E+00 -.104E+04   0.395E+00 -.680E-02 -.628E+01
   0.121E+03 -.447E+00 -.841E+03   -.122E+03 0.449E+00 0.836E+03   0.258E+00 -.156E-02 0.600E+01
   0.142E+03 0.108E+03 -.749E+03   -.144E+03 -.108E+03 0.743E+03   0.170E+01 0.382E-01 0.607E+01
   0.505E+02 -.241E+02 0.983E+03   -.510E+02 0.242E+02 -.976E+03   0.353E+00 -.399E-01 -.627E+01
   0.278E+02 -.497E+02 0.986E+03   -.281E+02 0.500E+02 -.980E+03   0.240E+00 -.240E+00 -.611E+01
   0.586E+02 -.543E+02 -.882E+03   -.590E+02 0.543E+02 0.876E+03   0.302E+00 -.325E-01 0.606E+01
   0.140E+03 -.109E+03 -.751E+03   -.142E+03 0.109E+03 0.745E+03   0.165E+01 -.464E-01 0.607E+01
   0.212E+02 -.263E+02 0.949E+03   -.213E+02 0.264E+02 -.943E+03   0.114E+00 -.857E-01 -.620E+01
   0.914E+01 -.183E+02 0.945E+03   -.919E+01 0.184E+02 -.939E+03   0.397E-01 -.926E-01 -.621E+01
   0.181E+02 -.196E+02 -.910E+03   -.181E+02 0.197E+02 0.904E+03   0.527E-01 -.489E-01 0.609E+01
   0.241E+02 -.599E+02 -.891E+03   -.242E+02 0.603E+02 0.884E+03   0.839E-01 -.264E+00 0.608E+01
   -.221E-01 0.158E+00 0.942E+03   0.220E-01 -.161E+00 -.936E+03   0.940E-04 0.170E-02 -.621E+01
   -.924E+01 0.186E+02 0.945E+03   0.929E+01 -.187E+02 -.939E+03   -.401E-01 0.961E-01 -.621E+01
   -.377E-01 0.308E+02 -.904E+03   0.375E-01 -.310E+02 0.898E+03   0.134E-03 0.124E+00 0.608E+01
   -.951E+01 0.202E+00 -.910E+03   0.955E+01 -.204E+00 0.904E+03   -.256E-01 0.140E-02 0.609E+01
   -.458E-01 0.417E+02 0.963E+03   0.456E-01 -.421E+02 -.957E+03   0.138E-03 0.322E+00 -.622E+01
   -.282E+02 0.497E+02 0.987E+03   0.285E+02 -.500E+02 -.981E+03   -.245E+00 0.244E+00 -.611E+01
   -.207E+00 0.140E+03 -.819E+03   0.206E+00 -.142E+03 0.813E+03   0.325E-03 0.157E+01 0.627E+01
   -.245E+02 0.604E+02 -.890E+03   0.246E+02 -.608E+02 0.884E+03   -.853E-01 0.272E+00 0.608E+01
   -.150E+00 0.509E+02 0.105E+04   0.149E+00 -.511E+02 -.105E+04   0.773E-03 0.155E+00 -.444E+01
   -.561E+02 -.443E+00 0.105E+04   0.566E+02 0.452E+00 -.104E+04   -.395E+00 -.681E-02 -.628E+01
   -.935E+00 -.270E+01 -.455E+03   0.939E+00 0.279E+01 0.451E+03   0.270E-04 -.579E-01 0.259E+01
   -.142E+03 0.108E+03 -.750E+03   0.144E+03 -.108E+03 0.744E+03   -.170E+01 0.371E-01 0.607E+01
   -.147E+00 -.514E+02 0.105E+04   0.146E+00 0.516E+02 -.105E+04   0.738E-03 -.163E+00 -.450E+01
   -.279E+02 -.496E+02 0.986E+03   0.282E+02 0.499E+02 -.980E+03   -.240E+00 -.240E+00 -.611E+01
   -.200E+00 -.138E+03 -.821E+03   0.200E+00 0.140E+03 0.815E+03   0.332E-03 -.152E+01 0.626E+01
   -.140E+03 -.109E+03 -.752E+03   0.142E+03 0.109E+03 0.746E+03   -.164E+01 -.453E-01 0.607E+01
[...]
   -.106E+02 0.948E+01 0.708E+03   0.106E+02 -.949E+01 -.712E+03   -.496E-01 0.109E-01 0.356E+01
   0.214E-01 0.764E+01 0.704E+03   -.213E-01 -.764E+01 -.708E+03   -.137E-03 0.739E-02 0.357E+01
   -.194E+02 0.813E+01 -.683E+03   0.194E+02 -.813E+01 0.687E+03   -.466E-01 -.364E-03 -.376E+01
   0.564E-01 -.544E-01 -.685E+03   -.562E-01 0.546E-01 0.689E+03   -.265E-03 -.327E-03 -.375E+01
   -.147E+02 -.536E-01 0.711E+03   0.147E+02 0.539E-01 -.716E+03   -.570E-01 -.504E-03 0.356E+01
   0.363E-01 0.505E+01 0.708E+03   -.361E-01 -.505E+01 -.712E+03   -.212E-03 0.237E-02 0.356E+01
   -.194E+02 -.824E+01 -.683E+03   0.194E+02 0.824E+01 0.687E+03   -.462E-01 -.348E-03 -.376E+01
   0.398E-01 -.990E+01 -.688E+03   -.397E-01 0.991E+01 0.692E+03   -.207E-03 -.982E-03 -.374E+01
   -.106E+02 -.950E+01 0.708E+03   0.106E+02 0.951E+01 -.712E+03   -.489E-01 -.111E-01 0.356E+01
   0.361E-01 -.512E+01 0.708E+03   -.360E-01 0.512E+01 -.712E+03   -.215E-03 -.294E-02 0.356E+01
   -.995E+01 -.113E+02 -.688E+03   0.998E+01 0.113E+02 0.692E+03   -.350E-01 -.784E-02 -.373E+01
   0.199E-01 -.551E+01 -.691E+03   -.198E-01 0.552E+01 0.695E+03   -.119E-03 -.251E-02 -.372E+01
   -.552E+01 -.522E+01 0.704E+03   0.555E+01 0.522E+01 -.708E+03   -.297E-01 -.904E-02 0.357E+01
   0.212E-01 -.761E+01 0.704E+03   -.211E-01 0.761E+01 -.708E+03   -.132E-03 -.715E-02 0.357E+01
   0.762E-02 -.232E+00 0.681E+01   0.223E-11 0.853E-12 0.182E-11   0.102E-02 0.243E+00 -.733E+01

 POSITION                                       TOTAL-FORCE (eV/Angst)
      8.45129     11.78922     13.22011         0.002719      0.381098      0.198227
      8.44827     10.55171     17.46787         0.000602      0.000616      0.332840
      8.44707     10.54754     15.21331         0.005884      0.003027      0.161432
      8.45116      9.32335     13.20450         0.002775     -0.370208      0.217969
      0.00000      0.00000      9.00000        -0.006508     -0.000146      0.098813
      2.11389      2.11389      9.00000        -0.014410     -0.005967      0.098647
      0.00000      2.11389     11.11389        -0.007191     -0.000894     -0.059108
      2.11389      0.00000     11.11389        -0.010209     -0.000214     -0.058269
      0.00000      4.22777      9.00000        -0.011187     -0.002900      0.099802
      2.11389      6.34166      9.00000        -0.035835     -0.007387      0.102324
      0.00000      6.34166     11.11389        -0.011609      0.000117     -0.053870
      2.11389      4.22777     11.11389        -0.022773     -0.004424     -0.052957
      0.00000      8.45554      9.00000        -0.017337     -0.001069      0.101900
      2.11389     10.56943      9.00000        -0.044519      0.000197      0.104789
      0.00000     10.56943     11.11389        -0.011433      0.000059     -0.049585
      2.11389      8.45554     11.11389        -0.032004      0.001071     -0.037607
      0.00000     12.68331      9.00000        -0.017174      0.001143      0.101878
      2.11389     14.79720      9.00000        -0.035201      0.007346      0.102305
      0.00000     14.79720     11.11389        -0.011426     -0.000168     -0.053944
      2.11389     12.68331     11.11389        -0.031636     -0.000880     -0.037753
      0.00000     16.91108      9.00000        -0.011006      0.002720      0.099775
      2.11389     19.02497      9.00000        -0.014227      0.005547      0.098644
      0.00000     19.02497     11.11389        -0.007102      0.000643     -0.059148
      2.11389     16.91108     11.11389        -0.022320      0.004182     -0.053081
      4.22777      0.00000      9.00000        -0.012354     -0.000334      0.098839
      6.34166      2.11389      9.00000        -0.011911     -0.026039      0.098892
      4.22777      2.11389     11.11389        -0.015155     -0.013559     -0.054126
      6.34166      0.00000     11.11389        -0.007468     -0.000415     -0.054658
      4.22777      4.22777      9.00000        -0.033445     -0.025604      0.095865
      6.34166      6.34166      9.00000        -0.080481     -0.078849      0.059797
      4.22777      6.34166     11.11389        -0.081629     -0.008339     -0.031862
      6.34166      4.22777     11.11389        -0.025859     -0.072129     -0.043222
      4.22777      8.45554      9.00000        -0.094230     -0.009260      0.110466
      6.34166     10.56943      9.00000        -0.131013      0.002173      0.070790
      4.22777     10.56943     11.11389        -0.074137      0.000393      0.007561
      6.34166      8.45554     11.11389        -0.582210     -0.013083     -0.086299
      4.22777     12.68331      9.00000        -0.092647      0.009989      0.110236
      6.34166     14.79720      9.00000        -0.078720      0.077537      0.061083
      4.22777     14.79720     11.11389        -0.079714      0.008401     -0.032365
      6.34166     12.68331     11.11389        -0.561452      0.013987     -0.082325
      4.22777     16.91108      9.00000        -0.032787      0.024934      0.095969
      6.34166     19.02497      9.00000        -0.011731      0.025006      0.098883
      4.22777     19.02497     11.11389        -0.014948      0.012876     -0.054230
      6.34166     16.91108     11.11389        -0.025343      0.070137     -0.043591
      8.45554      0.00000      9.00000        -0.000060     -0.000516      0.099249
     10.56943      2.11389      9.00000         0.011773     -0.026050      0.098882
      8.45554      2.11389     11.11389        -0.000074     -0.031929     -0.050879
     10.56943      0.00000     11.11389         0.007346     -0.000432     -0.054680
      8.45554      4.22777      9.00000        -0.000082     -0.083764      0.096964
     10.56943      6.34166      9.00000         0.080304     -0.078947      0.059752
      8.45554      6.34166     11.11389        -0.000129     -0.496156     -0.097041
     10.56943      4.22777     11.11389         0.025679     -0.072190     -0.043278
      8.45554      8.45554      9.00000        -0.000303     -0.029764     -0.305825
     10.56943     10.56943      9.00000         0.130797      0.002187      0.071051
      8.45554     10.56943     11.11389         0.004021      0.027694     -1.387066
     10.56943      8.45554     11.11389         0.580043     -0.012066     -0.084969
      8.45554     12.68331      9.00000        -0.000268      0.031665     -0.294566
     10.56943     14.79720      9.00000         0.078539      0.077603      0.061015
      8.45554     14.79720     11.11389        -0.000126      0.480499     -0.094031
     10.56943     12.68331     11.11389         0.559452      0.013029     -0.081130
[...]
     19.02497      6.34166     11.11389        -0.000103      0.000181      0.449675
     16.91108      6.34166      9.00000        -0.014045      0.003076     -0.495425
     19.02497      4.22777      9.00000        -0.000077      0.002072     -0.494327
     16.91108      8.45554     11.11389        -0.013216     -0.000159      0.444144
     19.02497     10.56943     11.11389        -0.000115     -0.000146      0.446781
     16.91108     10.56943      9.00000        -0.016209     -0.000192     -0.497004
     19.02497      8.45554      9.00000        -0.000100      0.000642     -0.495718
     16.91108     12.68331     11.11389        -0.013095     -0.000136      0.444207
     19.02497     14.79720     11.11389        -0.000097     -0.000325      0.449731
     16.91108     14.79720      9.00000        -0.013856     -0.003243     -0.495411
     19.02497     12.68331      9.00000        -0.000099     -0.000905     -0.495713
     16.91108     16.91108     11.11389        -0.009896     -0.002284      0.450760
     19.02497     19.02497     11.11389        -0.000075     -0.000772      0.453701
     16.91108     19.02497      9.00000        -0.008375     -0.002607     -0.493868
     19.02497     16.91108      9.00000        -0.000084     -0.002107     -0.494319
    total drift:                                0.008648      0.010491     -0.513534

  FREE ENERGIE OF THE ION-ELECTRON SYSTEM (eV)
  free  energy   TOTEN  =      -748.72432616 eV

  energy  without entropy=     -748.72432616  energy(sigma->0) =     -748.72432616