 vasp.6.3.0 20Jan22 (build Apr  1 2022 16:44:48) complex
 executed on        HPECrayEX_GCC date 2023.01.10  02:35:54

 INCAR:
   SYSTEM = MgO-rocksalt
   ISMEAR = 0
   SIGMA = 0.05
   EDIFF = 1E-6
   ALGO = ALL
   ISTART = 0
   IBRION = -1
   NSW = 0
   ISYM = 2
   DIPOL = 0.5 0.5 0.5
   IDIPOL = 3
   LDIPOL = .TRUE.
   LHFCALC = .TRUE.
   GGA = B5
   AEXX = 0.2
   AGGAX = 0.72
   AGGAC = 0.81
   ALDAC = 0.19
   ENCUT = 520
   PREC = Accurate
   LASPH = .TRUE.
   LREAL = Auto
   ISPIN = 1
   NELM = 200
   NELMIN = 8
   NCORE = 4
   KPAR = 2
   LWAVE = .FALSE.
   LCHARG = .FALSE.

 POTCAR:    PAW_PBE Au 04Oct2007
 POTCAR:    PAW_PBE Mg_pv 13Apr2007
 POTCAR:    PAW_PBE O 08Apr2002
|           W    W    AA    RRRRR   N    N  II  N    N   GGGG   !!!           |
|           W    W   A  A   R    R  NN   N  II  NN   N  G    G  !!!           |
|           W    W  A    A  R    R  N N  N  II  N N  N  G       !!!           |
|           W WW W  AAAAAA  RRRRR   N  N N  II  N  N N  G  GGG   !            |
|           WW  WW  A    A  R   R   N   NN  II  N   NN  G    G                |
|           W    W  A    A  R    R  N    N  II  N    N   GGGG   !!!           |
|     You have selected ISYM=2 for a HF type calculation. This will           |
|     symmetrize the charge density but not the exchange potential. I         |
|     suggest to use ISYM=3 instead. This uses symmetry to obtain the         |
|     orbitals at all k-points in the Brillouin zone, but does not apply      |
|     symmetry to the Hartree potential directly. The resultant charge        |
|     might have lower symmetry than the crystal but, at least, Hartree       |
|     and exchange are fully compatible.                                      |

   TITEL  = PAW_PBE Au 04Oct2007
   POMASS =  196.966; ZVAL   =   11.000    mass and valenz
   ENMAX  =  229.943; ENMIN  =  172.457 eV

   TITEL  = PAW_PBE Mg_pv 13Apr2007
   POMASS =   24.305; ZVAL   =    8.000    mass and valenz
   ENMAX  =  403.929; ENMIN  =  302.947 eV

   TITEL  = PAW_PBE O 08Apr2002
   POMASS =   16.000; ZVAL   =    6.000    mass and valenz
   ENMAX  =  400.000; ENMIN  =  300.000 eV

 Optimization of the real space projectors (new method)

 maximal supplied QI-value         = 15.12
 optimisation between [QCUT,QGAM] = [ 11.64, 23.28] = [ 37.95,151.78] Ry
 Optimized for a Real-space Cutoff    1.49 Angstroem

   l    n(q)    QCUT    max X(q) W(low)/X(q) W(high)/X(q)  e(spline)
   2      9    11.641    60.898    0.24E-03    0.10E-03    0.19E-06
   2      9    11.641    58.894    0.25E-03    0.10E-03    0.19E-06
   0     10    11.641   109.617    0.73E-04    0.33E-04    0.11E-06
   0     10    11.641    75.026    0.71E-04    0.32E-04    0.11E-06
   1     10    11.641    16.344    0.27E-04    0.97E-04    0.16E-06
   1     10    11.641    10.160    0.23E-04    0.77E-04    0.13E-06
 Optimization of the real space projectors (new method)

[...]

   l    n(q)    QCUT    max X(q) W(low)/X(q) W(high)/X(q)  e(spline)
   1      8    11.527     2.974    0.44E-04    0.56E-04    0.12E-06
   1      8    11.527     4.279    0.12E-03    0.12E-03    0.26E-06
   0      9    11.527    16.381    0.46E-04    0.64E-04    0.78E-07
   0      9    11.527     5.611    0.26E-04    0.43E-04    0.55E-07
   2      8    11.527     4.652    0.22E-03    0.72E-04    0.47E-07
 Optimization of the real space projectors (new method)

 maximal supplied QI-value         = 24.76
 optimisation between [QCUT,QGAM] = [ 11.64, 23.27] = [ 37.91,151.63] Ry
 Optimized for a Real-space Cutoff    1.14 Angstroem

   l    n(q)    QCUT    max X(q) W(low)/X(q) W(high)/X(q)  e(spline)
   0      8    11.635    20.381    0.10E-03    0.33E-03    0.24E-06
   0      8    11.635    15.268    0.11E-03    0.35E-03    0.26E-06
   1      7    11.635     5.964    0.24E-03    0.31E-03    0.30E-06
   1      7    11.635     5.382    0.22E-03    0.25E-03    0.26E-06
|               ----> ADVICE to this user running VASP <----                  |
|     You enforced a specific xc type in the INCAR file but a different       |
|     type was found in the POTCAR file.                                      |
|     I HOPE YOU KNOW WHAT YOU ARE DOING!                                     |

  PAW_PBE Au 04Oct2007                  :
  PAW_PBE Mg_pv 13Apr2007               :
  PAW_PBE O 08Apr2002                   :

 POSCAR: Au Mg  O
  positions in direct lattice
  velocities in cartesian coordinates
 exchange correlation table for  LEXCH =       12
   RHO(1)=    0.500       N(1)  =     2000
   RHO(2)=  100.500       N(2)  =     4000

 ion  position               nearest neighbor table
   1  0.400  0.565  0.604- 157 2.36   3 2.61  55 2.63   4 2.77
   2  0.400  0.500  0.818-   3 2.52
   3  0.400  0.500  0.704-   2 2.52   4 2.61   1 2.61
   4  0.400  0.434  0.604- 153 2.35   3 2.61  55 2.64   1 2.77
   5  0.000  0.000  0.407- 107 2.11 108 2.11 123 2.11 188 2.11 105 2.11
   6  0.100  0.100  0.407- 107 2.11 108 2.11 112 2.11 127 2.11 106 2.11
   7  0.000  0.100  0.503- 105 2.11 106 2.11 109 2.11 186 2.11 107 2.11
   8  0.100  0.000  0.503- 105 2.11 106 2.11 122 2.11 125 2.11 108 2.11
   9  0.000  0.200  0.407- 111 2.11 107 2.11 112 2.11 192 2.11 109 2.11
  10  0.100  0.300  0.407- 112 2.11 111 2.11 116 2.11 131 2.11 110 2.11
  11  0.000  0.300  0.503- 109 2.11 110 2.11 113 2.11 190 2.11 111 2.11
  12  0.100  0.200  0.503- 110 2.11 109 2.11 106 2.11 129 2.11 112 2.11
  13  0.000  0.400  0.407- 111 2.11 115 2.11 116 2.11 196 2.11 113 2.11
  14  0.100  0.500  0.407- 115 2.11 116 2.11 120 2.11 135 2.11 114 2.11
  15  0.000  0.500  0.503- 113 2.11 114 2.11 117 2.11 194 2.11 115 2.11
  16  0.100  0.400  0.503- 110 2.11 113 2.11 114 2.11 133 2.11 116 2.11
  17  0.000  0.600  0.407- 115 2.11 119 2.11 120 2.11 200 2.11 117 2.11
  18  0.100  0.700  0.407- 124 2.11 120 2.11 119 2.11 139 2.11 118 2.11
  19  0.000  0.700  0.503- 121 2.11 118 2.11 117 2.11 198 2.11 119 2.11
  20  0.100  0.600  0.503- 114 2.11 117 2.11 118 2.11 137 2.11 120 2.11
  21  0.000  0.800  0.407- 119 2.11 123 2.11 124 2.11 204 2.11 121 2.11
  22  0.100  0.900  0.407- 108 2.11 123 2.11 124 2.11 143 2.11 122 2.11
  23  0.000  0.900  0.503- 105 2.11 121 2.11 122 2.11 202 2.11 123 2.11
  24  0.100  0.800  0.503- 118 2.11 121 2.11 122 2.11 141 2.11 124 2.11
  25  0.200  0.000  0.407- 128 2.11 127 2.11 108 2.11 143 2.11 125 2.11
  26  0.300  0.100  0.407- 127 2.11 128 2.11 132 2.11 147 2.11 126 2.11
  27  0.200  0.100  0.503- 126 2.11 125 2.11 106 2.11 129 2.11 127 2.11
  28  0.300  0.000  0.503- 125 2.11 126 2.11 142 2.11 145 2.11 128 2.11
  29  0.200  0.200  0.407- 131 2.11 132 2.11 112 2.11 127 2.11 129 2.11
  30  0.300  0.300  0.407- 131 2.11 132 2.11 136 2.11 151 2.11 130 2.11
  31  0.200  0.300  0.503- 129 2.11 130 2.11 110 2.11 133 2.11 131 2.11
  32  0.300  0.200  0.503- 129 2.11 130 2.11 126 2.11 149 2.11 132 2.11
  33  0.200  0.400  0.407- 136 2.11 131 2.11 135 2.11 116 2.11 133 2.11
  34  0.300  0.500  0.407- 135 2.11 136 2.11 140 2.11 155 2.11 134 2.11
  35  0.200  0.500  0.503- 134 2.11 133 2.11 114 2.11 137 2.11 135 2.11
  36  0.300  0.400  0.503- 133 2.11 130 2.11 134 2.11 153 2.11 136 2.11
  37  0.200  0.600  0.407- 140 2.11 135 2.11 139 2.11 120 2.11 137 2.11
  38  0.300  0.700  0.407- 139 2.11 144 2.11 140 2.11 159 2.11 138 2.11
  39  0.200  0.700  0.503- 138 2.11 141 2.11 118 2.11 137 2.11 139 2.11
  40  0.300  0.600  0.503- 137 2.11 134 2.11 138 2.11 157 2.11 140 2.11
  41  0.200  0.800  0.407- 139 2.11 144 2.11 143 2.11 124 2.11 141 2.11
  42  0.300  0.900  0.407- 143 2.11 128 2.11 144 2.11 163 2.11 142 2.11
  43  0.200  0.900  0.503- 142 2.11 125 2.11 141 2.11 122 2.11 143 2.11
  44  0.300  0.800  0.503- 138 2.11 141 2.11 142 2.11 161 2.11 144 2.11
  45  0.400  0.000  0.407- 128 2.11 147 2.11 148 2.11 163 2.11 145 2.11
  46  0.500  0.100  0.407- 147 2.11 148 2.11 152 2.11 167 2.11 146 2.11
  47  0.400  0.100  0.503- 126 2.11 145 2.11 146 2.11 149 2.11 147 2.11
  48  0.500  0.000  0.503- 145 2.11 146 2.11 162 2.11 165 2.11 148 2.11
  49  0.400  0.200  0.407- 151 2.11 147 2.11 132 2.11 152 2.11 149 2.11
  50  0.500  0.300  0.407- 152 2.11 151 2.11 156 2.11 171 2.11 150 2.11
  51  0.400  0.300  0.503- 149 2.11 130 2.11 150 2.11 153 2.11 151 2.11
  52  0.500  0.200  0.503- 150 2.11 149 2.11 146 2.11 169 2.11 152 2.11
  53  0.400  0.400  0.407- 136 2.11 151 2.11 155 2.11 156 2.11 153 2.11
  54  0.500  0.500  0.407- 155 2.11 156 2.11 160 2.11 175 2.11 154 2.11
  55  0.400  0.500  0.503- 134 2.11 153 2.11 154 2.11 157 2.11 155 2.11   1 2.63   4 2.64
  56  0.500  0.400  0.503- 150 2.11 153 2.11 154 2.11 173 2.11 156 2.11
  57  0.400  0.600  0.407- 140 2.11 155 2.11 159 2.11 160 2.11 157 2.11
  58  0.500  0.700  0.407- 164 2.11 160 2.11 159 2.11 179 2.11 158 2.11
  59  0.400  0.700  0.503- 161 2.11 157 2.11 158 2.11 138 2.11 159 2.11
  60  0.500  0.600  0.503- 154 2.11 157 2.11 158 2.11 177 2.11 160 2.11
[...]
 190  0.900  0.300  0.503-  92 2.11  91 2.11  11 2.11  96 2.11  90 2.11
 191  0.800  0.300  0.407-  70 2.11  89 2.11  90 2.11  93 2.11  91 2.11
 192  0.900  0.200  0.407-  90 2.11  86 2.11  89 2.11   9 2.11  92 2.11
 193  0.800  0.400  0.503-  76 2.11  91 2.11  95 2.11  96 2.11  93 2.11
 194  0.900  0.500  0.503-  15 2.11  95 2.11  96 2.11 100 2.11  94 2.11
 195  0.800  0.500  0.407-  74 2.11  93 2.11  94 2.11  97 2.11  95 2.11
 196  0.900  0.400  0.407-  13 2.11  90 2.11  93 2.11  94 2.11  96 2.11
 197  0.800  0.600  0.503-  80 2.11  95 2.11  99 2.11 100 2.11  97 2.11
 198  0.900  0.700  0.503- 104 2.11  99 2.11 100 2.11  19 2.11  98 2.11
 199  0.800  0.700  0.407-  78 2.11 101 2.11  98 2.11  97 2.11  99 2.11
 200  0.900  0.600  0.407-  17 2.11  94 2.11  97 2.11  98 2.11 100 2.11
 201  0.800  0.800  0.503-  84 2.11  99 2.11 103 2.11 104 2.11 101 2.11
 202  0.900  0.900  0.503-  23 2.11  88 2.11 103 2.11 104 2.11 102 2.11
 203  0.800  0.900  0.407-  82 2.11  85 2.11 101 2.11 102 2.11 103 2.11
 204  0.900  0.800  0.407-  98 2.11  21 2.11 101 2.11 102 2.11 104 2.11

  LATTYP: Found a simple tetragonal cell.
 ALAT       =    21.1388521970
 C/A-ratio  =     1.0461251639

  Lattice vectors:

 A1 = (  21.1388521970,   0.0000000000,   0.0000000000)
 A2 = (   0.0000000000,  21.1388521970,   0.0000000000)
 A3 = (   0.0000000000,   0.0000000000,  22.1138852197)

Analysis of symmetry for initial positions (statically):
 Subroutine PRICEL returns:
 Original cell was already a primitive cell.

 Routine SETGRP: Setting up the symmetry group for a
 simple tetragonal supercell.

 Subroutine GETGRP returns: Found  1 space group operations
 (whereof  1 operations were pure point group operations)
 out of a pool of 16 trial point group operations.

The static configuration has the point symmetry C_1 .

Analysis of symmetry for dynamics (positions and initial velocities):
 Subroutine PRICEL returns:
 Original cell was already a primitive cell.

[...]

The dynamic configuration has the point symmetry C_1 .

Analysis of constrained symmetry for selective dynamics:
 Subroutine PRICEL returns:
 Original cell was already a primitive cell.

 Routine SETGRP: Setting up the symmetry group for a
 simple tetragonal supercell.

 Subroutine GETGRP returns: Found  1 space group operations
[...]
     22     -46.7278      2.00000
     23     -46.7200      2.00000
     24     -46.7175      2.00000
     25     -46.7108      2.00000
     26     -46.7103      2.00000
     27     -46.6982      2.00000
     28     -46.6980      2.00000
     29     -46.6850      2.00000
     30     -46.6378      2.00000
     31     -46.6373      2.00000
     32     -46.6369      2.00000
     33     -46.6364      2.00000
     34     -46.6109      2.00000
     35     -46.6108      2.00000
     36     -46.6106      2.00000
     37     -46.6103      2.00000
     38     -46.5756      2.00000
     39     -46.5751      2.00000
     40     -46.5692      2.00000
     41     -46.5691      2.00000
     42     -46.5688      2.00000
     43     -46.5686      2.00000
     44     -46.5468      2.00000
     45     -46.5462      2.00000
     46     -46.5460      2.00000
     47     -46.5454      2.00000
     48     -46.5447      2.00000
     49     -46.5440      2.00000
     50     -46.5439      2.00000
     51     -46.5432      2.00000
     52     -46.5234      2.00000
     53     -46.5229      2.00000
     54     -46.5223      2.00000
     55     -46.5218      2.00000
     56     -46.5130      2.00000
     57     -46.5128      2.00000
     58     -46.5091      2.00000
     59     -46.5089      2.00000
     60     -46.5086      2.00000
[...]
   1010       7.2454      0.00000
   1011       7.5109      0.00000
   1012       7.5221      0.00000
   1013       7.5463      0.00000
   1014       7.6207      0.00000
   1015       7.6811      0.00000
   1016       7.6995      0.00000
   1017       7.7174      0.00000
   1018       7.7617      0.00000
   1019       7.7901      0.00000
   1020       7.8301      0.00000
   1021       8.0745      0.00000
   1022       8.2002      0.00000
   1023       8.3005      0.00000
   1024       8.3790      0.00000

 soft charge-density along one line, spin component           1
         0         1         2         3         4         5         6         7         8         9
 total charge-density along one line

------------------------ aborting loop because EDIFF is reached ----------------------------------------

 VOLUME and BASIS-vectors are now :
  energy-cutoff  :      520.00
  volume of cell :     9881.61
      direct lattice vectors                 reciprocal lattice vectors
    21.138852197  0.000000000  0.000000000     0.047306258  0.000000000  0.000000000
     0.000000000 21.138852197  0.000000000     0.000000000  0.047306258  0.000000000
     0.000000000  0.000000000 22.113885220     0.000000000  0.000000000  0.045220457

  length of vectors
    21.138852197 21.138852197 22.113885220     0.047306258  0.047306258  0.045220457

 FORCES acting on ions:
    Electron-Ion                     Ewald-Force                    Non-Local-Force
   -.145E+00 -.384E+03 -.190E+04   0.143E+00 0.380E+03 0.191E+04   0.306E-02 0.412E+01 -.294E+01
   0.316E-01 -.107E+00 -.126E+04   -.320E-01 0.987E-01 0.126E+04   0.467E-03 0.658E-02 0.701E+01
   0.161E+00 0.643E+00 -.172E+04   -.160E+00 -.643E+00 0.172E+04   -.984E-03 0.295E-02 0.201E+01
   -.296E-01 0.383E+03 -.190E+04   0.285E-01 -.379E+03 0.191E+04   0.216E-02 -.408E+01 -.294E+01
   0.633E+01 0.232E-01 0.935E+03   -.637E+01 -.232E-01 -.927E+03   0.268E-01 0.447E-04 -.675E+01
   0.124E+02 0.940E+01 0.938E+03   -.125E+02 -.943E+01 -.930E+03   0.590E-01 0.250E-01 -.675E+01
   0.906E+01 0.847E+01 -.918E+03   -.910E+01 -.848E+01 0.910E+03   0.304E-01 0.486E-02 0.662E+01
   0.132E+02 0.415E-01 -.917E+03   -.133E+02 -.416E-01 0.909E+03   0.424E-01 0.632E-04 0.661E+01
   0.979E+01 0.114E+02 0.938E+03   -.986E+01 -.114E+02 -.930E+03   0.476E-01 0.136E-01 -.675E+01
   0.257E+02 0.183E+02 0.949E+03   -.259E+02 -.184E+02 -.941E+03   0.155E+00 0.334E-01 -.677E+01
   0.189E+02 0.157E+02 -.912E+03   -.189E+02 -.157E+02 0.904E+03   0.532E-01 0.329E-02 0.661E+01
   0.243E+02 0.227E+02 -.910E+03   -.244E+02 -.227E+02 0.903E+03   0.980E-01 0.222E-01 0.661E+01
   0.170E+02 0.780E+01 0.944E+03   -.172E+02 -.781E+01 -.936E+03   0.764E-01 0.645E-02 -.676E+01
   0.374E+02 -.460E-01 0.959E+03   -.377E+02 0.461E-01 -.951E+03   0.194E+00 -.804E-04 -.679E+01
   0.272E+02 -.374E-01 -.907E+03   -.272E+02 0.374E-01 0.900E+03   0.562E-01 0.126E-04 0.660E+01
   0.539E+02 0.187E+02 -.895E+03   -.541E+02 -.187E+02 0.887E+03   0.150E+00 0.291E-02 0.658E+01
   0.170E+02 -.784E+01 0.944E+03   -.171E+02 0.785E+01 -.936E+03   0.763E-01 -.653E-02 -.676E+01
   0.256E+02 -.184E+02 0.949E+03   -.258E+02 0.184E+02 -.941E+03   0.155E+00 -.335E-01 -.677E+01
   0.188E+02 -.157E+02 -.912E+03   -.189E+02 0.157E+02 0.904E+03   0.531E-01 -.335E-02 0.661E+01
   0.538E+02 -.188E+02 -.895E+03   -.541E+02 0.188E+02 0.887E+03   0.150E+00 -.298E-02 0.658E+01
   0.977E+01 -.114E+02 0.938E+03   -.984E+01 0.114E+02 -.930E+03   0.474E-01 -.135E-01 -.675E+01
   0.124E+02 -.934E+01 0.938E+03   -.125E+02 0.938E+01 -.930E+03   0.589E-01 -.248E-01 -.675E+01
   0.904E+01 -.842E+01 -.918E+03   -.909E+01 0.843E+01 0.910E+03   0.303E-01 -.482E-02 0.662E+01
   0.242E+02 -.226E+02 -.910E+03   -.243E+02 0.227E+02 0.903E+03   0.977E-01 -.222E-01 0.661E+01
   0.113E+02 0.447E-01 0.939E+03   -.114E+02 -.449E-01 -.932E+03   0.498E-01 0.180E-03 -.675E+01
   0.896E+01 0.176E+02 0.946E+03   -.903E+01 -.178E+02 -.938E+03   0.464E-01 0.112E+00 -.676E+01
   0.178E+02 0.190E+02 -.911E+03   -.179E+02 -.191E+02 0.904E+03   0.620E-01 0.596E-01 0.661E+01
   0.934E+01 0.817E-01 -.911E+03   -.939E+01 -.820E-01 0.904E+03   0.301E-01 0.175E-03 0.661E+01
   0.205E+02 0.249E+02 0.950E+03   -.207E+02 -.251E+02 -.942E+03   0.134E+00 0.106E+00 -.675E+01
   0.263E+02 0.455E+02 0.985E+03   -.267E+02 -.460E+02 -.977E+03   0.294E+00 0.301E+00 -.667E+01
   0.564E+02 0.507E+02 -.884E+03   -.569E+02 -.507E+02 0.876E+03   0.350E+00 0.424E-01 0.658E+01
   0.238E+02 0.576E+02 -.891E+03   -.239E+02 -.580E+02 0.884E+03   0.974E-01 0.309E+00 0.660E+01
   0.468E+02 0.217E+02 0.981E+03   -.474E+02 -.217E+02 -.973E+03   0.432E+00 0.492E-01 -.684E+01
   0.496E+02 -.146E+00 0.104E+04   -.504E+02 0.149E+00 -.103E+04   0.486E+00 -.165E-02 -.686E+01
   0.110E+03 -.160E+00 -.847E+03   -.111E+03 0.160E+00 0.839E+03   0.314E+00 -.140E-03 0.653E+01
   0.128E+03 0.922E+02 -.759E+03   -.131E+03 -.922E+02 0.752E+03   0.189E+01 0.129E-01 0.646E+01
   0.467E+02 -.218E+02 0.981E+03   -.474E+02 0.218E+02 -.973E+03   0.430E+00 -.497E-01 -.684E+01
   0.262E+02 -.455E+02 0.985E+03   -.266E+02 0.460E+02 -.977E+03   0.293E+00 -.300E+00 -.667E+01
   0.562E+02 -.506E+02 -.884E+03   -.567E+02 0.507E+02 0.876E+03   0.348E+00 -.425E-01 0.658E+01
   0.127E+03 -.926E+02 -.760E+03   -.130E+03 0.926E+02 0.753E+03   0.188E+01 -.147E-01 0.646E+01
   0.204E+02 -.249E+02 0.950E+03   -.206E+02 0.250E+02 -.942E+03   0.134E+00 -.105E+00 -.675E+01
   0.894E+01 -.175E+02 0.946E+03   -.901E+01 0.176E+02 -.938E+03   0.463E-01 -.112E+00 -.676E+01
   0.177E+02 -.189E+02 -.911E+03   -.178E+02 0.190E+02 0.904E+03   0.619E-01 -.593E-01 0.661E+01
   0.236E+02 -.573E+02 -.891E+03   -.238E+02 0.578E+02 0.884E+03   0.971E-01 -.308E+00 0.660E+01
   -.638E-02 0.626E-01 0.943E+03   0.633E-02 -.631E-01 -.935E+03   0.427E-04 0.324E-03 -.676E+01
   -.898E+01 0.176E+02 0.946E+03   0.904E+01 -.178E+02 -.938E+03   -.463E-01 0.113E+00 -.676E+01
   -.111E-01 0.296E+02 -.906E+03   0.110E-01 -.298E+02 0.898E+03   0.709E-04 0.141E+00 0.661E+01
   -.936E+01 0.812E-01 -.911E+03   0.940E+01 -.815E-01 0.904E+03   -.301E-01 0.223E-03 0.661E+01
   -.135E-01 0.391E+02 0.963E+03   0.133E-01 -.396E+02 -.955E+03   0.105E-03 0.387E+00 -.678E+01
   -.263E+02 0.455E+02 0.985E+03   0.268E+02 -.460E+02 -.977E+03   -.294E+00 0.301E+00 -.667E+01
   -.632E-01 0.130E+03 -.820E+03   0.629E-01 -.132E+03 0.812E+03   0.221E-03 0.181E+01 0.679E+01
   -.238E+02 0.575E+02 -.891E+03   0.239E+02 -.580E+02 0.884E+03   -.972E-01 0.309E+00 0.660E+01
   -.418E-01 0.440E+02 0.104E+04   0.411E-01 -.444E+02 -.104E+04   0.500E-03 0.227E+00 -.465E+01
   -.497E+02 -.143E+00 0.104E+04   0.504E+02 0.146E+00 -.103E+04   -.486E+00 -.183E-02 -.686E+01
   -.224E+00 -.539E+00 -.532E+03   0.224E+00 0.562E+00 0.527E+03   0.634E-03 -.194E-01 0.343E+01
   -.128E+03 0.921E+02 -.760E+03   0.131E+03 -.921E+02 0.752E+03   -.189E+01 0.132E-01 0.646E+01
   -.383E-01 -.442E+02 0.104E+04   0.379E-01 0.446E+02 -.104E+04   0.257E-03 -.229E+00 -.466E+01
   -.262E+02 -.455E+02 0.985E+03   0.267E+02 0.459E+02 -.977E+03   -.293E+00 -.300E+00 -.667E+01
   -.542E-01 -.129E+03 -.821E+03   0.540E-01 0.132E+03 0.813E+03   0.168E-03 -.180E+01 0.679E+01
   -.127E+03 -.925E+02 -.760E+03   0.130E+03 0.925E+02 0.753E+03   -.188E+01 -.150E-01 0.646E+01
[...]
   -.102E+02 0.904E+01 0.708E+03   0.102E+02 -.906E+01 -.712E+03   -.574E-01 0.153E-01 0.311E+01
   0.619E-02 0.733E+01 0.704E+03   -.613E-02 -.734E+01 -.708E+03   -.628E-04 0.103E-01 0.312E+01
   -.185E+02 0.775E+01 -.683E+03   0.185E+02 -.775E+01 0.687E+03   -.545E-01 0.163E-02 -.335E+01
   0.156E-01 -.216E-01 -.685E+03   -.156E-01 0.217E-01 0.689E+03   -.721E-04 -.302E-04 -.334E+01
   -.139E+02 -.208E-01 0.711E+03   0.140E+02 0.209E-01 -.715E+03   -.676E-01 -.947E-04 0.311E+01
   0.102E-01 0.484E+01 0.707E+03   -.101E-01 -.484E+01 -.711E+03   -.928E-04 0.448E-02 0.311E+01
   -.185E+02 -.779E+01 -.683E+03   0.185E+02 0.779E+01 0.687E+03   -.544E-01 -.170E-02 -.335E+01
   0.110E-01 -.949E+01 -.688E+03   -.110E-01 0.949E+01 0.692E+03   -.855E-04 -.322E-02 -.332E+01
   -.101E+02 -.905E+01 0.708E+03   0.102E+02 0.907E+01 -.712E+03   -.572E-01 -.153E-01 0.311E+01
   0.999E-02 -.487E+01 0.707E+03   -.994E-02 0.487E+01 -.711E+03   -.711E-04 -.455E-02 0.311E+01
   -.969E+01 -.109E+02 -.688E+03   0.972E+01 0.109E+02 0.692E+03   -.403E-01 -.113E-01 -.332E+01
   0.564E-02 -.534E+01 -.691E+03   -.560E-02 0.535E+01 0.695E+03   -.515E-04 -.432E-02 -.331E+01
   -.541E+01 -.504E+01 0.703E+03   0.543E+01 0.505E+01 -.707E+03   -.337E-01 -.119E-01 0.312E+01
   0.595E-02 -.732E+01 0.704E+03   -.591E-02 0.733E+01 -.708E+03   -.484E-04 -.103E-01 0.312E+01
   0.611E-02 -.409E-01 0.383E+01   0.152E-11 0.136E-11 0.200E-10   -.389E-02 0.370E-01 -.316E+01

 POSITION                                       TOTAL-FORCE (eV/Angst)
      8.45440     11.94847     13.35506         0.000962      0.301101      0.074771
      8.45328     10.56231     18.09008        -0.000033     -0.000949      0.524670
      8.45334     10.56083     15.56737         0.000194      0.002830      0.126547
      8.45399      9.17859     13.35199         0.001254     -0.289678      0.074959
      0.00000      0.00000      9.00000        -0.008439     -0.000008      0.439744
      2.11389      2.11389      9.00000        -0.018663     -0.007981      0.440199
      0.00000      2.11389     11.11389        -0.009314     -0.001504     -0.381302
      2.11389      0.00000     11.11389        -0.013321     -0.000016     -0.380129
      0.00000      4.22777      9.00000        -0.014541     -0.004321      0.441027
      2.11389      6.34166      9.00000        -0.047043     -0.010647      0.444108
      0.00000      6.34166     11.11389        -0.015567     -0.000788     -0.374745
      2.11389      4.22777     11.11389        -0.029486     -0.006955     -0.374193
      0.00000      8.45554      9.00000        -0.023035     -0.001924      0.443402
      2.11389     10.56943      9.00000        -0.059705      0.000039      0.448403
      0.00000     10.56943     11.11389        -0.016026     -0.000003     -0.369404
      2.11389      8.45554     11.11389        -0.042308     -0.000021     -0.356384
      0.00000     12.68331      9.00000        -0.023022      0.001964      0.443402
      2.11389     14.79720      9.00000        -0.046927      0.010676      0.443922
      0.00000     14.79720     11.11389        -0.015553      0.000817     -0.374773
      2.11389     12.68331     11.11389        -0.042244      0.000052     -0.356379
      0.00000     16.91108      9.00000        -0.014505      0.004323      0.441044
      2.11389     19.02497      9.00000        -0.018619      0.007938      0.440111
      0.00000     19.02497     11.11389        -0.009299      0.001499     -0.381310
      2.11389     16.91108     11.11389        -0.029416      0.006968     -0.374414
      4.22777      0.00000      9.00000        -0.016011     -0.000049      0.440329
      6.34166      2.11389      9.00000        -0.015296     -0.034128      0.440109
      4.22777      2.11389     11.11389        -0.019733     -0.017762     -0.375739
      6.34166      0.00000     11.11389        -0.009718     -0.000047     -0.376246
      4.22777      4.22777      9.00000        -0.043372     -0.034294      0.436755
      6.34166      6.34166      9.00000        -0.106856     -0.107388      0.392625
      4.22777      6.34166     11.11389        -0.103166     -0.012512     -0.349675
      6.34166      4.22777     11.11389        -0.032855     -0.091949     -0.362831
      4.22777      8.45554      9.00000        -0.127204     -0.014065      0.454729
      6.34166     10.56943      9.00000        -0.179713      0.000640      0.413580
      4.22777     10.56943     11.11389        -0.092334      0.000052     -0.307633
      6.34166      8.45554     11.11389        -0.702587      0.003565     -0.344564
      4.22777     12.68331      9.00000        -0.126712      0.014228      0.454921
      6.34166     14.79720      9.00000        -0.106348      0.106983      0.392907
      4.22777     14.79720     11.11389        -0.102676      0.012570     -0.349753
      6.34166     12.68331     11.11389        -0.696258     -0.003263     -0.343923
      4.22777     16.91108      9.00000        -0.043218      0.034206      0.436579
      6.34166     19.02497      9.00000        -0.015256      0.033958      0.440038
      4.22777     19.02497     11.11389        -0.019702      0.017684     -0.375726
      6.34166     16.91108     11.11389        -0.032765      0.091501     -0.363041
      8.45554      0.00000      9.00000        -0.000015     -0.000087      0.440556
     10.56943      2.11389      9.00000         0.015266     -0.034149      0.440160
      8.45554      2.11389     11.11389        -0.000023     -0.040794     -0.371813
     10.56943      0.00000     11.11389         0.009697     -0.000058     -0.376210
      8.45554      4.22777      9.00000        -0.000031     -0.113277      0.438822
     10.56943      6.34166      9.00000         0.106765     -0.107462      0.392608
      8.45554      6.34166     11.11389        -0.000079     -0.629546     -0.409446
     10.56943      4.22777     11.11389         0.032784     -0.091995     -0.362804
      8.45554      8.45554      9.00000        -0.000193     -0.053653     -0.108287
     10.56943     10.56943      9.00000         0.179622      0.000698      0.413645
      8.45554     10.56943     11.11389         0.000691      0.001659     -1.124507
     10.56943      8.45554     11.11389         0.701823      0.003721     -0.344257
      8.45554     12.68331      9.00000        -0.000111      0.053848     -0.104492
     10.56943     14.79720      9.00000         0.106326      0.107049      0.392745
      8.45554     14.79720     11.11389        -0.000069      0.624407     -0.408418
     10.56943     12.68331     11.11389         0.695736     -0.003344     -0.343892
[...]
     19.02497      6.34166     11.11389        -0.000039      0.001058      0.417060
     16.91108      6.34166      9.00000        -0.018538      0.004943     -0.481988
     19.02497      4.22777      9.00000        -0.000024      0.003363     -0.480771
     16.91108      8.45554     11.11389        -0.017698      0.000541      0.410121
     19.02497     10.56943     11.11389        -0.000038      0.000001      0.413408
     16.91108     10.56943      9.00000        -0.021863     -0.000028     -0.483891
     19.02497      8.45554      9.00000        -0.000034      0.001446     -0.482371
     16.91108     12.68331     11.11389        -0.017669     -0.000563      0.410128
     19.02497     14.79720     11.11389        -0.000034     -0.001063      0.417092
     16.91108     14.79720      9.00000        -0.018501     -0.004933     -0.481974
     19.02497     12.68331      9.00000        -0.000028     -0.001468     -0.482365
     16.91108     16.91108     11.11389        -0.013035     -0.003672      0.418333
     19.02497     19.02497     11.11389        -0.000026     -0.001424      0.422099
     16.91108     19.02497      9.00000        -0.010866     -0.003826     -0.480236
     19.02497     16.91108      9.00000        -0.000018     -0.003327     -0.480771
    total drift:                                0.001054     -0.001034     -0.263695

  FREE ENERGIE OF THE ION-ELECTRON SYSTEM (eV)
  free  energy   TOTEN  =     -1337.36548690 eV

  energy  without entropy=    -1337.36548690  energy(sigma->0) =    -1337.36548690