 vasp.6.4.0 14Feb23 (build Jul 14 2023 13:46:40) complex

 executed on             LinuxIFC date 2023.07.30  05:40:57

 INCAR:
   SYSTEM = MgO-rocksalt
   ISMEAR = 0
   SIGMA = 0.05
   EDIFF = 1E-6
   ALGO = ALL
   ISTART = 0
   IBRION = -1
   NSW = 0
   ISYM = 2
   DIPOL = 0.5 0.5 0.5
   IDIPOL = 3
   LDIPOL = .TRUE.
   METAGGA = R2SCAN
   LUSE_VDW = .TRUE.
   BPARAM = 11.95
   CPARAM = 0.0093
   ENCUT = 520
   PREC = Accurate
   LASPH = .TRUE.
   LREAL = Auto
   ISPIN = 1
   NELM = 200
   NELMIN = 8
   NCORE = 16
   KPAR = 1
   LWAVE = .FALSE.
   LCHARG = .FALSE.

 POTCAR:    PAW_PBE Ag 02Apr2005
 POTCAR:    PAW_PBE Mg_pv 13Apr2007
 POTCAR:    PAW_PBE O 08Apr2002
|               ----> ADVICE to this user running VASP <----                  |
|     You have switched on vdW-DFT.                                           |
|     This routine was written and supplied by Jiri Klimes. We recommend      |
|     that you carefully read and cite the following publications:            |
|       J. Klimes, D.R. Bowler, A. Michelides                                 |
|          J. Phys.: Cond Matt. 22 022201 (2010)                              |
|       J. Klimes, D.R. Bowler, A. Michelides                                 |
|          Phys. Rev. B. 83, 195131 (2011)                                    |
|     and references therein.                                                 |

   TITEL  = PAW_PBE Ag 02Apr2005
   POMASS =  107.868; ZVAL   =   11.000    mass and valenz
   ENMAX  =  249.844; ENMIN  =  187.383 eV

   TITEL  = PAW_PBE Mg_pv 13Apr2007
   POMASS =   24.305; ZVAL   =    8.000    mass and valenz
   ENMAX  =  403.929; ENMIN  =  302.947 eV

   TITEL  = PAW_PBE O 08Apr2002
   POMASS =   16.000; ZVAL   =    6.000    mass and valenz
   ENMAX  =  400.000; ENMIN  =  300.000 eV

 Optimization of the real space projectors (new method)

 maximal supplied QI-value         = 15.12
 optimisation between [QCUT,QGAM] = [ 11.64, 23.28] = [ 37.95,151.78] Ry
 Optimized for a Real-space Cutoff    1.45 Angstroem

   l    n(q)    QCUT    max X(q) W(low)/X(q) W(high)/X(q)  e(spline)
   2      9    11.641    53.897    0.22E-03    0.42E-04    0.28E-06
   2      9    11.641    52.416    0.23E-03    0.44E-04    0.29E-06
   0     10    11.641   122.045    0.51E-04    0.25E-04    0.16E-06
   0     10    11.641    73.629    0.49E-04    0.24E-04    0.16E-06
   1     10    11.641    15.255    0.99E-04    0.55E-04    0.11E-06
   1     10    11.641     9.562    0.81E-04    0.47E-04    0.95E-07
 Optimization of the real space projectors (new method)

[...]

   l    n(q)    QCUT    max X(q) W(low)/X(q) W(high)/X(q)  e(spline)
   1      8    11.527     2.974    0.44E-04    0.56E-04    0.12E-06
   1      8    11.527     4.279    0.12E-03    0.12E-03    0.26E-06
   0      9    11.527    16.381    0.46E-04    0.64E-04    0.78E-07
   0      9    11.527     5.611    0.26E-04    0.43E-04    0.55E-07
   2      8    11.527     4.652    0.22E-03    0.72E-04    0.47E-07
 Optimization of the real space projectors (new method)

 maximal supplied QI-value         = 24.76
 optimisation between [QCUT,QGAM] = [ 11.64, 23.27] = [ 37.91,151.63] Ry
 Optimized for a Real-space Cutoff    1.14 Angstroem

   l    n(q)    QCUT    max X(q) W(low)/X(q) W(high)/X(q)  e(spline)
   0      8    11.635    20.381    0.10E-03    0.33E-03    0.24E-06
   0      8    11.635    15.268    0.11E-03    0.35E-03    0.26E-06
   1      7    11.635     5.964    0.24E-03    0.31E-03    0.30E-06
   1      7    11.635     5.382    0.22E-03    0.25E-03    0.26E-06
  PAW_PBE Ag 02Apr2005                  :
  PAW_PBE Mg_pv 13Apr2007               :
  PAW_PBE O 08Apr2002                   :

 POSCAR: Ag Mg  O
  positions in direct lattice
  velocities in cartesian coordinates

 METAGGA = R2SCAN                                      LMAXTAU =  6    LMIXTAU =  F

 ion  position               nearest neighbor table
   1  0.400  0.429  0.610- 153 2.46   2 2.60  55 2.82   4 3.42
   2  0.400  0.512  0.697-   1 2.60   4 2.64   3 2.77
   3  0.401  0.641  0.713-   4 2.63   2 2.77
   4  0.400  0.590  0.604- 157 2.26   3 2.63   2 2.64  55 2.95   1 3.42
   5  0.000  0.000  0.407- 107 2.11 108 2.11 123 2.11 188 2.11 105 2.11
   6  0.100  0.100  0.407- 107 2.11 108 2.11 112 2.11 127 2.11 106 2.11
   7  0.000  0.100  0.503- 105 2.11 106 2.11 109 2.11 186 2.11 107 2.11
   8  0.100  0.000  0.503- 105 2.11 106 2.11 122 2.11 125 2.11 108 2.11
   9  0.000  0.200  0.407- 111 2.11 107 2.11 112 2.11 192 2.11 109 2.11
  10  0.100  0.300  0.407- 112 2.11 111 2.11 116 2.11 131 2.11 110 2.11
  11  0.000  0.300  0.503- 109 2.11 110 2.11 113 2.11 190 2.11 111 2.11
  12  0.100  0.200  0.503- 110 2.11 109 2.11 106 2.11 129 2.11 112 2.11
  13  0.000  0.400  0.407- 111 2.11 115 2.11 116 2.11 196 2.11 113 2.11
  14  0.100  0.500  0.407- 115 2.11 116 2.11 120 2.11 135 2.11 114 2.11
  15  0.000  0.500  0.503- 113 2.11 114 2.11 117 2.11 194 2.11 115 2.11
  16  0.100  0.400  0.503- 110 2.11 113 2.11 114 2.11 133 2.11 116 2.11
  17  0.000  0.600  0.407- 115 2.11 119 2.11 120 2.11 200 2.11 117 2.11
  18  0.100  0.700  0.407- 124 2.11 120 2.11 119 2.11 139 2.11 118 2.11
  19  0.000  0.700  0.503- 121 2.11 118 2.11 117 2.11 198 2.11 119 2.11
  20  0.100  0.600  0.503- 114 2.11 117 2.11 118 2.11 137 2.11 120 2.11
  21  0.000  0.800  0.407- 119 2.11 123 2.11 124 2.11 204 2.11 121 2.11
  22  0.100  0.900  0.407- 108 2.11 123 2.11 124 2.11 143 2.11 122 2.11
  23  0.000  0.900  0.503- 105 2.11 121 2.11 122 2.11 202 2.11 123 2.11
  24  0.100  0.800  0.503- 118 2.11 121 2.11 122 2.11 141 2.11 124 2.11
  25  0.200  0.000  0.407- 128 2.11 127 2.11 108 2.11 143 2.11 125 2.11
  26  0.300  0.100  0.407- 127 2.11 128 2.11 132 2.11 147 2.11 126 2.11
  27  0.200  0.100  0.503- 126 2.11 125 2.11 106 2.11 129 2.11 127 2.11
  28  0.300  0.000  0.503- 125 2.11 126 2.11 142 2.11 145 2.11 128 2.11
  29  0.200  0.200  0.407- 131 2.11 132 2.11 112 2.11 127 2.11 129 2.11
  30  0.300  0.300  0.407- 131 2.11 132 2.11 136 2.11 151 2.11 130 2.11
  31  0.200  0.300  0.503- 129 2.11 130 2.11 110 2.11 133 2.11 131 2.11
  32  0.300  0.200  0.503- 129 2.11 130 2.11 126 2.11 149 2.11 132 2.11
  33  0.200  0.400  0.407- 136 2.11 131 2.11 135 2.11 116 2.11 133 2.11
  34  0.300  0.500  0.407- 135 2.11 136 2.11 140 2.11 155 2.11 134 2.11
  35  0.200  0.500  0.503- 134 2.11 133 2.11 114 2.11 137 2.11 135 2.11
  36  0.300  0.400  0.503- 133 2.11 130 2.11 134 2.11 153 2.11 136 2.11
  37  0.200  0.600  0.407- 140 2.11 135 2.11 139 2.11 120 2.11 137 2.11
  38  0.300  0.700  0.407- 139 2.11 144 2.11 140 2.11 159 2.11 138 2.11
  39  0.200  0.700  0.503- 138 2.11 141 2.11 118 2.11 137 2.11 139 2.11
  40  0.300  0.600  0.503- 137 2.11 134 2.11 138 2.11 157 2.11 140 2.11
  41  0.200  0.800  0.407- 139 2.11 144 2.11 143 2.11 124 2.11 141 2.11
  42  0.300  0.900  0.407- 143 2.11 128 2.11 144 2.11 163 2.11 142 2.11
  43  0.200  0.900  0.503- 142 2.11 125 2.11 141 2.11 122 2.11 143 2.11
  44  0.300  0.800  0.503- 138 2.11 141 2.11 142 2.11 161 2.11 144 2.11
  45  0.400  0.000  0.407- 128 2.11 147 2.11 148 2.11 163 2.11 145 2.11
  46  0.500  0.100  0.407- 147 2.11 148 2.11 152 2.11 167 2.11 146 2.11
  47  0.400  0.100  0.503- 126 2.11 145 2.11 146 2.11 149 2.11 147 2.11
  48  0.500  0.000  0.503- 145 2.11 146 2.11 162 2.11 165 2.11 148 2.11
  49  0.400  0.200  0.407- 151 2.11 147 2.11 132 2.11 152 2.11 149 2.11
  50  0.500  0.300  0.407- 152 2.11 151 2.11 156 2.11 171 2.11 150 2.11
  51  0.400  0.300  0.503- 149 2.11 130 2.11 150 2.11 153 2.11 151 2.11
  52  0.500  0.200  0.503- 150 2.11 149 2.11 146 2.11 169 2.11 152 2.11
  53  0.400  0.400  0.407- 136 2.11 151 2.11 155 2.11 156 2.11 153 2.11
  54  0.500  0.500  0.407- 155 2.11 156 2.11 160 2.11 175 2.11 154 2.11
  55  0.400  0.500  0.503- 134 2.11 153 2.11 154 2.11 157 2.11 155 2.11   1 2.82   4 2.95
  56  0.500  0.400  0.503- 150 2.11 153 2.11 154 2.11 173 2.11 156 2.11
  57  0.400  0.600  0.407- 140 2.11 155 2.11 159 2.11 160 2.11 157 2.11
  58  0.500  0.700  0.407- 164 2.11 160 2.11 159 2.11 179 2.11 158 2.11
  59  0.400  0.700  0.503- 161 2.11 157 2.11 158 2.11 138 2.11 159 2.11
  60  0.500  0.600  0.503- 154 2.11 157 2.11 158 2.11 177 2.11 160 2.11
[...]
 190  0.900  0.300  0.503-  92 2.11  91 2.11  11 2.11  96 2.11  90 2.11
 191  0.800  0.300  0.407-  70 2.11  89 2.11  90 2.11  93 2.11  91 2.11
 192  0.900  0.200  0.407-  90 2.11  86 2.11  89 2.11   9 2.11  92 2.11
 193  0.800  0.400  0.503-  76 2.11  91 2.11  95 2.11  96 2.11  93 2.11
 194  0.900  0.500  0.503-  15 2.11  95 2.11  96 2.11 100 2.11  94 2.11
 195  0.800  0.500  0.407-  74 2.11  93 2.11  94 2.11  97 2.11  95 2.11
 196  0.900  0.400  0.407-  13 2.11  90 2.11  93 2.11  94 2.11  96 2.11
 197  0.800  0.600  0.503-  80 2.11  95 2.11  99 2.11 100 2.11  97 2.11
 198  0.900  0.700  0.503- 104 2.11  99 2.11 100 2.11  19 2.11  98 2.11
 199  0.800  0.700  0.407-  78 2.11 101 2.11  98 2.11  97 2.11  99 2.11
 200  0.900  0.600  0.407-  17 2.11  94 2.11  97 2.11  98 2.11 100 2.11
 201  0.800  0.800  0.503-  84 2.11  99 2.11 103 2.11 104 2.11 101 2.11
 202  0.900  0.900  0.503-  23 2.11  88 2.11 103 2.11 104 2.11 102 2.11
 203  0.800  0.900  0.407-  82 2.11  85 2.11 101 2.11 102 2.11 103 2.11
 204  0.900  0.800  0.407-  98 2.11  21 2.11 101 2.11 102 2.11 104 2.11

  LATTYP: Found a simple tetragonal cell.
 ALAT       =    21.1388521970
 C/A-ratio  =     1.0461251639

  Lattice vectors:

 A1 = (  21.1388521970,   0.0000000000,   0.0000000000)
 A2 = (   0.0000000000,  21.1388521970,   0.0000000000)
 A3 = (   0.0000000000,   0.0000000000,  22.1138852197)

Analysis of symmetry for initial positions (statically):
 Subroutine PRICEL returns:
 Original cell was already a primitive cell.

 Routine SETGRP: Setting up the symmetry group for a
 simple tetragonal supercell.

 Subroutine GETGRP returns: Found  1 space group operations
 (whereof  1 operations were pure point group operations)
 out of a pool of 16 trial point group operations.

The static configuration has the point symmetry C_1 .

Analysis of symmetry for dynamics (positions and initial velocities):
 Subroutine PRICEL returns:
 Original cell was already a primitive cell.

[...]

The dynamic configuration has the point symmetry C_1 .

Analysis of constrained symmetry for selective dynamics:
 Subroutine PRICEL returns:
 Original cell was already a primitive cell.

 Routine SETGRP: Setting up the symmetry group for a
 simple tetragonal supercell.

 Subroutine GETGRP returns: Found  1 space group operations
 (whereof  1 operations were pure point group operations)
 out of a pool of 16 trial point group operations.

The constrained configuration has the point symmetry C_1 .

 Subroutine INISYM returns: Found  1 space group operations
 (whereof  1 operations are pure point group operations),
 and found     1 'primitive' translations

                                     Primitive cell

  volume of cell :    9881.6133

  direct lattice vectors                    reciprocal lattice vectors
    21.138852197  0.000000000  0.000000000     0.047306258  0.000000000  0.000000000
     0.000000000 21.138852197  0.000000000     0.000000000  0.047306258  0.000000000
[...]
     52     -44.4107      2.00000
     53     -44.4105      2.00000
     54     -44.4103      2.00000
     55     -44.4099      2.00000
     56     -44.4081      2.00000
     57     -44.4071      2.00000
     58     -44.4066      2.00000
     59     -44.4063      2.00000
     60     -44.4060      2.00000
[...]
    882       5.0153      0.00000
    883       5.0545      0.00000
    884       5.0547      0.00000
    885       5.0742      0.00000
    886       5.1060      0.00000
    887       5.2176      0.00000
    888       5.3351      0.00000
    889       5.3817      0.00000
    890       5.4590      0.00000
    891       5.5593      0.00000
    892       5.6310      0.00000
    893       5.6847      0.00000
    894       5.8149      0.00000
    895       5.9166      0.00000
    896       5.9795      0.00000

 soft charge-density along one line, spin component           1
         0         1         2         3         4         5         6         7         8         9
 total charge-density along one line

------------------------ aborting loop because EDIFF is reached ----------------------------------------

  FORCE on cell =-STRESS in cart. coord.  units (eV):
  Direction    XX          YY          ZZ          XY          YZ          ZX
  Alpha Z  1401.13727  1401.13727  1401.13727
  Ewald  477666.07547479799.93693************     3.84227   439.22239     3.11972
  Hartree507455.84014509193.28338************     3.08632   356.02882     2.36239
  E(xc)   -8524.89605 -8524.33119 -8515.15716     0.00120     0.22926     0.00170
  Local  ************************************    -6.91155  -793.86686    -5.45235
  n-local -8719.39472 -8720.50833 -8846.82730    -0.00024    -0.14408    -0.00883
  augment  4075.91911  4073.65824  4015.01222    -0.00482    -0.37528    -0.00368
  Kinetic 23285.86752 23278.94193 23497.80673    -0.01177    -1.20902    -0.02546
  Fock        0.00000     0.00000     0.00000     0.00000     0.00000     0.00000
  Total    -230.36380  -231.35060   -20.99342     0.00141    -0.11477    -0.00651
  in kB     -37.35055   -37.51054    -3.40382     0.00023    -0.01861    -0.00105

 VOLUME and BASIS-vectors are now :
  energy-cutoff  :      520.00
  volume of cell :     9881.61
      direct lattice vectors                 reciprocal lattice vectors
    21.138852197  0.000000000  0.000000000     0.047306258  0.000000000  0.000000000
     0.000000000 21.138852197  0.000000000     0.000000000  0.047306258  0.000000000
     0.000000000  0.000000000 22.113885220     0.000000000  0.000000000  0.045220457

  length of vectors
    21.138852197 21.138852197 22.113885220     0.047306258  0.047306258  0.045220457

 FORCES acting on ions:
    Electron-Ion                     Ewald-Force                    Non-Local-Force
   0.593E+00 0.381E+03 -.193E+04   -.587E+00 -.376E+03 0.193E+04   -.641E-02 -.483E+01 -.461E+01
   0.161E+00 0.207E+03 -.197E+04   -.167E+00 -.207E+03 0.196E+04   0.582E-02 0.388E+00 0.723E+01
   -.148E+01 -.389E+03 -.180E+04   0.146E+01 0.384E+03 0.179E+04   0.220E-01 0.511E+01 0.554E+01
   0.689E+00 -.198E+03 -.175E+04   -.677E+00 0.199E+03 0.176E+04   -.130E-01 -.599E+00 -.424E+01
   0.711E+01 -.266E+01 0.937E+03   -.712E+01 0.267E+01 -.929E+03   0.119E-01 -.650E-02 -.751E+01
   0.128E+02 0.613E+01 0.940E+03   -.128E+02 -.614E+01 -.932E+03   0.239E-01 0.819E-02 -.752E+01
   0.932E+01 0.530E+01 -.918E+03   -.933E+01 -.530E+01 0.910E+03   0.917E-02 -.197E-02 0.750E+01
   0.155E+02 -.503E+01 -.915E+03   -.155E+02 0.504E+01 0.908E+03   0.123E-01 -.831E-02 0.750E+01
   0.955E+01 0.984E+01 0.939E+03   -.957E+01 -.985E+01 -.931E+03   0.207E-01 0.816E-02 -.752E+01
   0.248E+02 0.182E+02 0.950E+03   -.249E+02 -.183E+02 -.942E+03   0.798E-01 0.293E-01 -.754E+01
   0.181E+02 0.157E+02 -.913E+03   -.181E+02 -.157E+02 0.905E+03   0.148E-01 0.445E-02 0.750E+01
   0.235E+02 0.199E+02 -.912E+03   -.235E+02 -.199E+02 0.904E+03   0.314E-01 0.478E-02 0.749E+01
   0.168E+02 0.959E+01 0.945E+03   -.169E+02 -.960E+01 -.937E+03   0.431E-01 0.128E-01 -.753E+01
   0.383E+02 0.456E+01 0.962E+03   -.385E+02 -.459E+01 -.954E+03   0.148E+00 0.184E-01 -.756E+01
   0.281E+02 0.416E+01 -.907E+03   -.281E+02 -.417E+01 0.900E+03   0.239E-01 0.737E-02 0.749E+01
   0.527E+02 0.223E+02 -.897E+03   -.527E+02 -.223E+02 0.889E+03   0.486E-01 0.127E-01 0.747E+01
   0.186E+02 -.489E+01 0.947E+03   -.186E+02 0.489E+01 -.939E+03   0.574E-01 -.966E-04 -.753E+01
   0.302E+02 -.166E+02 0.955E+03   -.304E+02 0.166E+02 -.947E+03   0.123E+00 -.281E-01 -.755E+01
   0.226E+02 -.139E+02 -.910E+03   -.226E+02 0.140E+02 0.902E+03   0.279E-01 -.201E-02 0.749E+01
   0.607E+02 -.119E+02 -.891E+03   -.608E+02 0.119E+02 0.884E+03   0.101E+00 0.761E-02 0.746E+01
   0.118E+02 -.119E+02 0.941E+03   -.118E+02 0.119E+02 -.933E+03   0.314E-01 -.143E-01 -.752E+01
   0.152E+02 -.124E+02 0.942E+03   -.152E+02 0.124E+02 -.934E+03   0.326E-01 -.278E-01 -.752E+01
   0.114E+02 -.112E+02 -.916E+03   -.114E+02 0.112E+02 0.908E+03   0.126E-01 -.785E-02 0.750E+01
   0.319E+02 -.252E+02 -.906E+03   -.319E+02 0.253E+02 0.898E+03   0.492E-01 -.168E-01 0.749E+01
   0.130E+02 -.503E+01 0.943E+03   -.130E+02 0.505E+01 -.935E+03   0.205E-01 -.157E-01 -.752E+01
   0.924E+01 0.123E+02 0.948E+03   -.927E+01 -.124E+02 -.940E+03   0.186E-01 0.518E-01 -.753E+01
   0.184E+02 0.130E+02 -.911E+03   -.184E+02 -.130E+02 0.904E+03   0.168E-01 0.166E-01 0.749E+01
   0.114E+02 -.101E+02 -.908E+03   -.114E+02 0.101E+02 0.900E+03   0.703E-02 -.743E-02 0.749E+01
   0.199E+02 0.221E+02 0.951E+03   -.200E+02 -.222E+02 -.943E+03   0.620E-01 0.616E-01 -.753E+01
   0.251E+02 0.442E+02 0.984E+03   -.254E+02 -.445E+02 -.976E+03   0.155E+00 0.219E+00 -.753E+01
   0.539E+02 0.495E+02 -.887E+03   -.541E+02 -.495E+02 0.879E+03   0.146E+00 0.120E-01 0.744E+01
   0.231E+02 0.522E+02 -.894E+03   -.231E+02 -.523E+02 0.886E+03   0.264E-01 0.136E+00 0.746E+01
   0.454E+02 0.249E+02 0.981E+03   -.457E+02 -.250E+02 -.973E+03   0.269E+00 0.799E-01 -.762E+01
   0.487E+02 0.112E+02 0.104E+04   -.492E+02 -.113E+02 -.103E+04   0.373E+00 0.118E+00 -.757E+01
   0.110E+03 0.140E+02 -.846E+03   -.111E+03 -.141E+02 0.838E+03   0.279E+00 0.473E-01 0.737E+01
   0.119E+03 0.915E+02 -.770E+03   -.120E+03 -.917E+02 0.763E+03   0.105E+01 0.146E+00 0.699E+01
   0.515E+02 -.143E+02 0.989E+03   -.519E+02 0.144E+02 -.981E+03   0.393E+00 -.252E-01 -.763E+01
   0.327E+02 -.435E+02 0.100E+04   -.330E+02 0.439E+02 -.996E+03   0.263E+00 -.287E+00 -.751E+01
   0.739E+02 -.493E+02 -.869E+03   -.742E+02 0.493E+02 0.861E+03   0.255E+00 -.312E-01 0.742E+01
   0.146E+03 -.566E+02 -.728E+03   -.149E+03 0.566E+02 0.720E+03   0.199E+01 -.522E-01 0.728E+01
   0.261E+02 -.276E+02 0.959E+03   -.262E+02 0.278E+02 -.951E+03   0.966E-01 -.100E+00 -.754E+01
   0.116E+02 -.244E+02 0.954E+03   -.116E+02 0.245E+02 -.946E+03   0.229E-01 -.109E+00 -.755E+01
   0.242E+02 -.275E+02 -.906E+03   -.242E+02 0.276E+02 0.898E+03   0.144E-01 -.449E-01 0.749E+01
   0.359E+02 -.731E+02 -.870E+03   -.359E+02 0.734E+02 0.863E+03   0.198E-03 -.260E+00 0.741E+01
   0.248E-01 -.703E+01 0.948E+03   -.247E-01 0.705E+01 -.940E+03   -.115E-03 -.206E-01 -.753E+01
   -.921E+01 0.123E+02 0.948E+03   0.924E+01 -.124E+02 -.940E+03   -.187E-01 0.518E-01 -.753E+01
   0.304E-01 0.213E+02 -.906E+03   -.303E-01 -.214E+02 0.898E+03   -.126E-03 0.465E-01 0.749E+01
   -.114E+02 -.102E+02 -.908E+03   0.114E+02 0.102E+02 0.900E+03   -.722E-02 -.729E-02 0.749E+01
   0.300E-01 0.351E+02 0.963E+03   -.299E-01 -.354E+02 -.955E+03   -.106E-03 0.221E+00 -.757E+01
   -.251E+02 0.443E+02 0.984E+03   0.253E+02 -.446E+02 -.976E+03   -.156E+00 0.219E+00 -.753E+01
   0.107E+00 0.125E+03 -.825E+03   -.107E+00 -.126E+03 0.817E+03   -.347E-03 0.106E+01 0.740E+01
   -.230E+02 0.522E+02 -.894E+03   0.230E+02 -.524E+02 0.886E+03   -.266E-01 0.136E+00 0.746E+01
   0.862E-01 0.466E+02 0.104E+04   -.858E-01 -.471E+02 -.103E+04   -.272E-03 0.325E+00 -.643E+01
   -.486E+02 0.112E+02 0.104E+04   0.490E+02 -.114E+02 -.103E+04   -.373E+00 0.117E+00 -.757E+01
   0.463E+00 0.320E+02 -.582E+03   -.463E+00 -.334E+02 0.577E+03   -.437E-03 0.108E+01 0.543E+01
   -.118E+03 0.918E+02 -.769E+03   0.120E+03 -.919E+02 0.762E+03   -.105E+01 0.146E+00 0.699E+01
   0.139E+00 -.290E+02 0.106E+04   -.137E+00 0.291E+02 -.106E+04   -.102E-02 -.133E+00 -.538E+01
   -.326E+02 -.436E+02 0.100E+04   0.329E+02 0.440E+02 -.996E+03   -.263E+00 -.286E+00 -.751E+01
   0.331E+00 -.146E+03 -.756E+03   -.328E+00 0.148E+03 0.748E+03   -.175E-02 -.196E+01 0.709E+01
   -.146E+03 -.566E+02 -.727E+03   0.149E+03 0.567E+02 0.719E+03   -.200E+01 -.538E-01 0.727E+01
[...]
   -.986E+01 0.905E+01 0.708E+03   0.988E+01 -.906E+01 -.712E+03   -.273E-01 0.153E-01 0.343E+01
   -.162E-01 0.628E+01 0.705E+03   0.161E-01 -.628E+01 -.708E+03   0.109E-03 0.645E-02 0.344E+01
   -.183E+02 0.959E+01 -.684E+03   0.183E+02 -.960E+01 0.688E+03   -.216E-01 0.996E-02 -.357E+01
   -.495E-01 0.250E+01 -.685E+03   0.493E-01 -.250E+01 0.689E+03   0.280E-03 0.721E-02 -.356E+01
   -.144E+02 0.228E+01 0.712E+03   0.144E+02 -.228E+01 -.716E+03   -.426E-01 0.114E-01 0.342E+01
   -.282E-01 0.600E+01 0.708E+03   0.281E-01 -.601E+01 -.712E+03   0.197E-03 0.111E-01 0.343E+01
   -.207E+02 -.480E+01 -.682E+03   0.207E+02 0.480E+01 0.686E+03   -.302E-01 0.410E-02 -.357E+01
   -.472E-01 -.830E+01 -.687E+03   0.470E-01 0.830E+01 0.690E+03   0.280E-03 -.271E-02 -.355E+01
   -.118E+02 -.796E+01 0.710E+03   0.118E+02 0.797E+01 -.714E+03   -.396E-01 -.136E-01 0.343E+01
   -.356E-01 -.299E+01 0.709E+03   0.354E-01 0.299E+01 -.713E+03   0.260E-03 0.640E-03 0.343E+01
   -.123E+02 -.116E+02 -.687E+03   0.123E+02 0.116E+02 0.691E+03   -.213E-01 -.116E-01 -.355E+01
   -.260E-01 -.701E+01 -.690E+03   0.259E-01 0.702E+01 0.694E+03   0.159E-03 -.803E-02 -.354E+01
   -.654E+01 -.655E+01 0.705E+03   0.655E+01 0.656E+01 -.709E+03   -.191E-01 -.158E-01 0.344E+01
   -.259E-01 -.754E+01 0.706E+03   0.257E-01 0.755E+01 -.710E+03   0.195E-03 -.121E-01 0.344E+01
   -.270E-01 -.117E+00 0.263E+01   0.244E-11 -.178E-11 -.140E-10   0.234E-01 0.108E+00 0.133E+00

 POSITION                                       TOTAL-FORCE (eV/Angst)
      8.45714      9.05883     13.49759        -0.000252      0.081837     -0.057064
      8.46060     10.81262     15.42040        -0.000027      0.064081     -0.147130
      8.46768     13.55697     15.76553        -0.005169     -0.115789     -0.126552
      8.45984     12.47141     13.36585        -0.000454     -0.028288      0.063264
      0.00000      0.00000      9.00000        -0.003351      0.001879      0.521001
      2.11389      2.11389      9.00000        -0.006758     -0.002333      0.522018
      0.00000      2.11389     11.11389        -0.002486      0.000621     -0.471946
      2.11389      0.00000     11.11389        -0.003453      0.002309     -0.470319
      0.00000      4.22777      9.00000        -0.005631     -0.002247      0.522146
      2.11389      6.34166      9.00000        -0.021573     -0.008160      0.527462
      0.00000      6.34166     11.11389        -0.003565     -0.001078     -0.467493
      2.11389      4.22777     11.11389        -0.008083     -0.001059     -0.465511
      0.00000      8.45554      9.00000        -0.011687     -0.003552      0.524683
      2.11389     10.56943      9.00000        -0.040111     -0.005556      0.532550
      0.00000     10.56943     11.11389        -0.005534     -0.002140     -0.463520
      2.11389      8.45554     11.11389        -0.010228     -0.002980     -0.449281
      0.00000     12.68331      9.00000        -0.015320      0.000016      0.525141
      2.11389     14.79720      9.00000        -0.033186      0.008352      0.528442
      0.00000     14.79720     11.11389        -0.006970      0.000549     -0.466287
      2.11389     12.68331     11.11389        -0.023565     -0.002627     -0.447529
      0.00000     16.91108      9.00000        -0.008571      0.004152      0.522567
      2.11389     19.02497      9.00000        -0.009251      0.007907      0.522442
      0.00000     19.02497     11.11389        -0.003414      0.002272     -0.471242
      2.11389     16.91108     11.11389        -0.012514      0.004611     -0.462239
      4.22777      0.00000      9.00000        -0.005842      0.004271      0.523359
      6.34166      2.11389      9.00000        -0.005481     -0.013950      0.525288
      4.22777      2.11389     11.11389        -0.004704     -0.004065     -0.465933
      6.34166      0.00000     11.11389        -0.001925      0.001718     -0.464358
      4.22777      4.22777      9.00000        -0.018047     -0.017755      0.524654
      6.34166      6.34166      9.00000        -0.051336     -0.067140      0.510945
      4.22777      6.34166     11.11389        -0.035095      0.000935     -0.430319
      6.34166      4.22777     11.11389        -0.007274     -0.034215     -0.444340
      4.22777      8.45554      9.00000        -0.071613     -0.022539      0.542579
      6.34166     10.56943      9.00000        -0.124177     -0.038850      0.492350
      4.22777     10.56943     11.11389        -0.065816     -0.016117     -0.380395
      6.34166      8.45554     11.11389        -0.367246     -0.023615     -0.322171
      4.22777     12.68331      9.00000        -0.101637      0.006736      0.542257
      6.34166     14.79720      9.00000        -0.086577      0.093089      0.497190
      4.22777     14.79720     11.11389        -0.062470      0.006977     -0.417359
      6.34166     12.68331     11.11389        -0.705419      0.018323     -0.485661
      4.22777     16.91108      9.00000        -0.028307      0.029158      0.525854
      6.34166     19.02497      9.00000        -0.006620      0.029129      0.529367
      4.22777     19.02497     11.11389        -0.003910      0.011298     -0.461711
      6.34166     16.91108     11.11389         0.004039      0.061342     -0.410058
      8.45554      0.00000      9.00000         0.000043      0.005647      0.525342
     10.56943      2.11389      9.00000         0.005559     -0.013951      0.525295
      8.45554      2.11389     11.11389         0.000028     -0.011294     -0.460505
     10.56943      0.00000     11.11389         0.002013      0.001679     -0.464352
      8.45554      4.22777      9.00000         0.000064     -0.057459      0.530998
     10.56943      6.34166      9.00000         0.051441     -0.067098      0.511005
      8.45554      6.34166     11.11389         0.000150     -0.338858     -0.420892
     10.56943      4.22777     11.11389         0.007378     -0.034158     -0.444308
      8.45554      8.45554      9.00000         0.000121     -0.076127      0.256653
     10.56943     10.56943      9.00000         0.124342     -0.038715      0.492263
      8.45554     10.56943     11.11389        -0.000385     -0.307492     -0.440717
     10.56943      8.45554     11.11389         0.367862     -0.023677     -0.321911
      8.45554     12.68331      9.00000         0.000329      0.027865      0.030618
     10.56943     14.79720      9.00000         0.086795      0.092995      0.497445
      8.45554     14.79720     11.11389         0.000594      0.653221     -0.341875
     10.56943     12.68331     11.11389         0.707954      0.019170     -0.486592
[...]
     19.02497      6.34166     11.11389         0.000062      0.001469      0.308243
     16.91108      6.34166      9.00000        -0.007537      0.004297     -0.360932
     19.02497      4.22777      9.00000         0.000048      0.001843     -0.358872
     16.91108      8.45554     11.11389        -0.006043      0.002787      0.302742
     19.02497     10.56943     11.11389         0.000100      0.002016      0.305608
     16.91108     10.56943      9.00000        -0.011761      0.003176     -0.362977
     19.02497      8.45554      9.00000         0.000071      0.003121     -0.360621
     16.91108     12.68331     11.11389        -0.008452      0.001153      0.301802
     19.02497     14.79720     11.11389         0.000095     -0.000723      0.307335
     16.91108     14.79720      9.00000        -0.010913     -0.003722     -0.361323
     19.02497     12.68331      9.00000         0.000090      0.000206     -0.360729
     16.91108     16.91108     11.11389        -0.005895     -0.003174      0.307330
     19.02497     19.02497     11.11389         0.000062     -0.002172      0.310814
     16.91108     19.02497      9.00000        -0.005234     -0.004310     -0.358860
     19.02497     16.91108      9.00000         0.000074     -0.003317     -0.359153
    total drift:                               -0.003594     -0.009284      2.762834

  FREE ENERGIE OF THE ION-ELECTRON SYSTEM (eV)
  free  energy   TOTEN  =     -1577.30614048 eV

  energy  without entropy=    -1577.30614048  energy(sigma->0) =    -1577.30614048