 vasp.6.4.0 14Feb23 (build Jul 14 2023 13:46:40) complex

 executed on             LinuxIFC date 2023.08.23  22:02:42

 INCAR:
   SYSTEM = MgO-rocksalt
   ISMEAR = 0
   SIGMA = 0.05
   EDIFF = 1E-4
   ALGO = ALL
   ISTART = 0
   IBRION = -1
   NSW = 0
   ISYM = 3
   DIPOL = 0.5 0.5 0.5
   IDIPOL = 3
   LDIPOL = .TRUE.
   LHFCALC = .TRUE.
   GGA = PE
   IVDW = 21
   VDW_SR = 0.96
   ENCUT = 520
   PREC = Normal
   LASPH = .TRUE.
   LREAL = Auto
   ISPIN = 1
   NELM = 200
   NELMIN = 8
   NCORE = 16
   KPAR = 1
   LWAVE = .FALSE.
   LCHARG = .FALSE.

 POTCAR:    PAW_PBE Au 04Oct2007
 POTCAR:    PAW_PBE Mg_pv 13Apr2007
 POTCAR:    PAW_PBE O 08Apr2002
 POTCAR:    PAW_PBE Au 04Oct2007
   VRHFIN =Au: s1d10

   TITEL  = PAW_PBE Au 04Oct2007
   POMASS =  196.966; ZVAL   =   11.000    mass and valenz
   ENMAX  =  229.943; ENMIN  =  172.457 eV

   TITEL  = PAW_PBE Mg_pv 13Apr2007
   POMASS =   24.305; ZVAL   =    8.000    mass and valenz
   ENMAX  =  403.929; ENMIN  =  302.947 eV

   TITEL  = PAW_PBE O 08Apr2002
   POMASS =   16.000; ZVAL   =    6.000    mass and valenz
   ENMAX  =  400.000; ENMIN  =  300.000 eV

 Optimization of the real space projectors (new method)

 maximal supplied QI-value         = 15.12
 optimisation between [QCUT,QGAM] = [ 11.64, 23.28] = [ 37.95,151.78] Ry
 Optimized for a Real-space Cutoff    1.36 Angstroem

   l    n(q)    QCUT    max X(q) W(low)/X(q) W(high)/X(q)  e(spline)
   2      9    11.641    60.898    0.44E-03    0.10E-02    0.32E-06
   2      9    11.641    58.894    0.45E-03    0.11E-02    0.32E-06
   0      9    11.641   109.617    0.19E-03    0.78E-04    0.11E-06
   0      9    11.641    75.026    0.19E-03    0.76E-04    0.10E-06
   1      9    11.641    16.344    0.43E-03    0.28E-03    0.32E-06
   1      9    11.641    10.160    0.36E-03    0.22E-03    0.26E-06
 Optimization of the real space projectors (new method)

[...]

   l    n(q)    QCUT    max X(q) W(low)/X(q) W(high)/X(q)  e(spline)
   1      8    11.527     2.974    0.16E-03    0.13E-03    0.98E-07
   1      8    11.527     4.279    0.42E-03    0.30E-03    0.22E-06
   0      8    11.527    16.381    0.13E-03    0.20E-03    0.72E-07
   0      8    11.527     5.611    0.88E-04    0.13E-03    0.50E-07
   2      7    11.527     4.652    0.25E-03    0.73E-04    0.51E-07
 Optimization of the real space projectors (new method)

 maximal supplied QI-value         = 24.76
 optimisation between [QCUT,QGAM] = [ 11.64, 23.27] = [ 37.91,151.63] Ry
 Optimized for a Real-space Cutoff    1.04 Angstroem

   l    n(q)    QCUT    max X(q) W(low)/X(q) W(high)/X(q)  e(spline)
   0      7    11.635    20.381    0.14E-03    0.49E-03    0.18E-06
   0      7    11.635    15.268    0.16E-03    0.52E-03    0.19E-06
   1      7    11.635     5.964    0.30E-03    0.44E-03    0.22E-06
   1      7    11.635     5.382    0.27E-03    0.34E-03    0.19E-06
  PAW_PBE Au 04Oct2007                  :
  PAW_PBE Mg_pv 13Apr2007               :
  PAW_PBE O 08Apr2002                   :

 POSCAR: Mg  O
  positions in direct lattice
  velocities in cartesian coordinates
 exchange correlation table for  LEXCH =        8
   RHO(1)=    0.500       N(1)  =     2000
   RHO(2)=  100.500       N(2)  =     4000

 ion  position               nearest neighbor table
   1  0.497  0.433  0.611-  11 2.69  17 2.70  13 2.70   3 2.72   4 2.75   8 2.77
   2  0.327  0.314  0.576- 246 2.40  14 2.68  13 2.69  19 2.72  11 2.75  67 2.86  52 3.06
   3  0.557  0.543  0.591-   9 2.69   8 2.71   1 2.72  17 2.74  91 3.04
   4  0.567  0.324  0.619-  17 2.68   7 2.69  15 2.70  13 2.70   6 2.74   1 2.75
   5  0.449  0.097  0.601-  10 2.64  19 2.70   7 2.80
   6  0.636  0.214  0.616-   7 2.69  15 2.70  16 2.71   4 2.74  10 2.75  20 2.75
   7  0.509  0.211  0.624-  19 2.66   4 2.69   6 2.69  10 2.73  13 2.75   5 2.80
   8  0.429  0.541  0.591-  11 2.67   3 2.71   1 2.77  71 2.92
   9  0.684  0.547  0.594-  18 2.65   3 2.69  17 2.71
  10  0.574  0.101  0.609-  16 2.62   5 2.64   7 2.73   6 2.75
  11  0.370  0.430  0.605-  14 2.64   8 2.67   1 2.69   2 2.75  13 2.78
  12  0.817  0.335  0.591-  18 2.65  15 2.68  20 2.73 107 2.86
  13  0.439  0.320  0.619-   2 2.69   4 2.70   1 2.70   7 2.75  19 2.75  11 2.78
  14  0.252  0.416  0.579- 249 2.61  11 2.64   2 2.68  52 2.69
  15  0.693  0.328  0.609-  12 2.68  17 2.69   4 2.70   6 2.70  20 2.74  18 2.80
  16  0.686  0.114  0.572- 282 2.25  10 2.62   6 2.71  20 2.75  83 2.90  88 2.95
  17  0.625  0.435  0.606-   4 2.68  15 2.69   1 2.70   9 2.71   3 2.74  18 2.77
  18  0.754  0.444  0.595-   9 2.65  12 2.65  17 2.77  15 2.80
  19  0.404  0.211  0.575- 265 2.26   7 2.66   5 2.70   2 2.72  13 2.75  67 3.02
  20  0.758  0.221  0.583- 305 2.69  12 2.73  15 2.74  16 2.75   6 2.75  88 2.87
  21  0.000  1.000  0.429- 321 2.09 221 2.11 239 2.11 224 2.11 304 2.12 223 2.12
  22  0.100  0.100  0.429- 322 2.09 222 2.11 224 2.11 223 2.11 243 2.12 228 2.12
  23  0.000  0.100  0.498- 223 2.07 302 2.11 221 2.11 222 2.11 225 2.12
  24  0.100  1.000  0.498- 224 2.07 238 2.11 241 2.11 221 2.11 222 2.12
  25  0.000  0.200  0.429- 325 2.09 225 2.11 223 2.11 227 2.11 228 2.12 308 2.12
  26  0.100  0.300  0.429- 326 2.09 232 2.11 228 2.11 227 2.11 226 2.11 247 2.12
  27  0.000  0.300  0.498- 227 2.07 306 2.11 229 2.11 225 2.11 226 2.12
  28  0.100  0.200  0.498- 228 2.07 245 2.11 225 2.11 222 2.11 226 2.12
  29  1.000  0.400  0.429- 329 2.09 312 2.10 229 2.11 231 2.11 227 2.12 232 2.13
  30  0.100  0.500  0.429- 330 2.09 230 2.11 231 2.11 236 2.11 251 2.11 232 2.12
  31  1.000  0.500  0.498- 231 2.07 310 2.10 233 2.11 230 2.12 229 2.12
  32  0.099  0.400  0.498- 232 2.07 229 2.09 230 2.10 249 2.11 226 2.12
  33  1.000  0.600  0.429- 333 2.09 233 2.10 316 2.11 235 2.11 236 2.12 231 2.12
  34  0.100  0.700  0.429- 334 2.09 234 2.11 235 2.11 255 2.11 240 2.12 236 2.12
  35  1.000  0.700  0.498- 235 2.07 314 2.11 233 2.12 234 2.12 237 2.12
  36  0.100  0.600  0.498- 236 2.07 233 2.11 253 2.11 234 2.11 230 2.12
  37  1.000  0.800  0.429- 337 2.09 237 2.11 320 2.11 235 2.11 240 2.11 239 2.12
  38  0.100  0.900  0.429- 338 2.09 238 2.11 240 2.11 259 2.11 239 2.11 224 2.12
  39  0.000  0.900  0.498- 239 2.07 237 2.11 318 2.11 238 2.11 221 2.12
  40  0.100  0.800  0.498- 240 2.07 237 2.11 257 2.11 234 2.11 238 2.12
  41  0.200  1.000  0.429- 341 2.09 241 2.11 259 2.11 224 2.11 244 2.12 243 2.12
  42  0.300  0.100  0.429- 342 2.09 263 2.10 244 2.11 242 2.11 243 2.11 248 2.12
  43  0.200  0.100  0.498- 243 2.07 241 2.10 222 2.11 242 2.11 245 2.12
  44  0.300  1.000  0.498- 244 2.07 258 2.11 242 2.11 241 2.11 261 2.12
  45  0.200  0.200  0.429- 345 2.09 228 2.11 243 2.11 245 2.11 248 2.12 247 2.12
  46  0.300  0.300  0.429- 346 2.08 252 2.10 267 2.10 247 2.11 248 2.11 246 2.13
  47  0.199  0.300  0.499- 226 2.08 247 2.09 245 2.11 246 2.12 249 2.13
  48  0.297  0.197  0.498- 248 2.06 245 2.07 242 2.07 265 2.13 246 2.14
  49  0.200  0.400  0.429- 349 2.08 251 2.10 232 2.10 252 2.10 247 2.11 249 2.18
  50  0.300  0.500  0.429- 250 2.07 350 2.09 271 2.10 256 2.11 251 2.12 252 2.13
  51  0.200  0.501  0.498- 251 2.07 253 2.10 230 2.11 250 2.11 249 2.13
  52  0.303  0.403  0.498- 252 2.06 269 2.07 250 2.07 249 2.20 246 2.21  14 2.69   2 3.06
  53  0.200  0.600  0.429- 353 2.09 253 2.10 256 2.11 236 2.11 255 2.11 251 2.13
  54  0.300  0.700  0.429- 354 2.09 254 2.10 275 2.11 256 2.11 255 2.12 260 2.12
  55  0.200  0.700  0.498- 255 2.07 254 2.11 234 2.11 253 2.12 257 2.12
  56  0.300  0.600  0.498- 256 2.08 250 2.10 273 2.11 254 2.11 253 2.12
  57  0.200  0.800  0.429- 357 2.09 257 2.11 260 2.11 240 2.11 255 2.11 259 2.12
  58  0.300  0.900  0.429- 358 2.09 258 2.11 260 2.11 279 2.11 259 2.11 244 2.12
  59  0.200  0.900  0.498- 259 2.07 257 2.11 258 2.11 238 2.11 241 2.12
  60  0.300  0.800  0.498- 260 2.07 277 2.11 254 2.11 257 2.12 258 2.12
[...]
 406  0.900  0.300  0.359- 106 2.09 208 2.11 207 2.11 127 2.11 212 2.11 206 2.11
 407  0.800  0.300  0.289- 186 2.11 205 2.11 206 2.11 209 2.11 207 2.11
 408  0.900  0.200  0.289- 206 2.11 202 2.11 205 2.11 125 2.11 208 2.11
 409  0.800  0.400  0.359- 109 2.09 192 2.11 207 2.11 211 2.11 212 2.11 209 2.11
 410  0.900  0.500  0.359- 110 2.09 131 2.11 211 2.11 212 2.11 216 2.11 210 2.11
 411  0.800  0.500  0.289- 190 2.11 209 2.11 210 2.11 213 2.11 211 2.11
 412  0.900  0.400  0.289- 129 2.11 206 2.11 209 2.11 210 2.11 212 2.11
 413  0.800  0.600  0.359- 113 2.09 196 2.11 211 2.11 215 2.11 216 2.11 213 2.11
 414  0.900  0.700  0.359- 114 2.09 220 2.11 215 2.11 216 2.11 135 2.11 214 2.11
 415  0.800  0.700  0.289- 194 2.11 217 2.11 214 2.11 213 2.11 215 2.11
 416  0.900  0.600  0.289- 133 2.11 210 2.11 213 2.11 214 2.11 216 2.11
 417  0.800  0.800  0.359- 117 2.09 200 2.11 215 2.11 219 2.11 220 2.11 217 2.11
 418  0.900  0.900  0.359- 118 2.09 139 2.11 204 2.11 219 2.11 220 2.11 218 2.11
 419  0.800  0.900  0.289- 198 2.11 201 2.11 217 2.11 218 2.11 219 2.11
 420  0.900  0.800  0.289- 214 2.11 137 2.11 217 2.11 218 2.11 220 2.11

  LATTYP: Found a simple tetragonal cell.
 ALAT       =    21.1388521970
 C/A-ratio  =     1.4191877459

  Lattice vectors:

 A1 = (  21.1388521970,   0.0000000000,   0.0000000000)
 A2 = (   0.0000000000,  21.1388521970,   0.0000000000)
 A3 = (   0.0000000000,   0.0000000000,  30.0000000000)

Analysis of symmetry for initial positions (statically):
 Subroutine PRICEL returns:
 Original cell was already a primitive cell.

 Routine SETGRP: Setting up the symmetry group for a
 simple tetragonal supercell.

 Subroutine GETGRP returns: Found  1 space group operations
 (whereof  1 operations were pure point group operations)
 out of a pool of 16 trial point group operations.

The static configuration has the point symmetry C_1 .

Analysis of symmetry for dynamics (positions and initial velocities):
 Subroutine PRICEL returns:
 Original cell was already a primitive cell.

[...]

The dynamic configuration has the point symmetry C_1 .

Analysis of constrained symmetry for selective dynamics:
 Subroutine PRICEL returns:
 Original cell was already a primitive cell.

 Routine SETGRP: Setting up the symmetry group for a
 simple tetragonal supercell.

 Subroutine GETGRP returns: Found  1 space group operations
 (whereof  1 operations were pure point group operations)
 out of a pool of 16 trial point group operations.

The constrained configuration has the point symmetry C_1 .

 Subroutine INISYM returns: Found  1 space group operations
 (whereof  1 operations are pure point group operations),
 and found     1 'primitive' translations

                                     Primitive cell

  volume of cell :   13405.5322

  direct lattice vectors                    reciprocal lattice vectors
    21.138852197  0.000000000  0.000000000     0.047306258  0.000000000  0.000000000
     0.000000000 21.138852197  0.000000000     0.000000000  0.047306258  0.000000000
     0.000000000  0.000000000 30.000000000     0.000000000  0.000000000  0.033333333

  length of vectors
    21.138852197 21.138852197 30.000000000     0.047306258  0.047306258  0.033333333

  position of ions in fractional coordinates (direct lattice)
     0.497307861  0.432900223  0.610914457
     0.327380804  0.314211214  0.576178778
[...]
   Mg          1.368          1.538          3.317          0.04671787
   Mg          1.385          1.541          3.337          0.04699648
   Mg          1.322          1.529          3.260          0.04591391
   Mg          1.321          1.529          3.258          0.04589387
   Mg          1.375          1.539          3.325          0.04683145
   Mg          1.361          1.537          3.308          0.04658996
   Mg          1.321          1.529          3.259          0.04589738
   Mg          1.321          1.529          3.259          0.04589626
   Mg          1.376          1.540          3.326          0.04684439
   Mg          1.376          1.540          3.326          0.04684596
[...]
   O         234.548          5.017         20.939          3.87750591
   O         197.219          4.874         19.200          3.55558339
   O         197.188          4.874         19.199          3.55530235
   O         235.241          5.020         20.969          3.88323091
   O         234.030          5.015         20.915          3.87321926
   O         197.328          4.875         19.205          3.55656891
   O         197.289          4.875         19.204          3.55621240
   O         234.168          5.016         20.922          3.87435877
   O         233.331          5.013         20.884          3.86743263
   O         197.452          4.875         19.211          3.55768096
   O         197.422          4.875         19.210          3.55740806
   O         233.411          5.013         20.888          3.86809496
   O         233.481          5.013         20.891          3.86867739
   O         197.258          4.875         19.202          3.55593270
   O         197.397          4.875         19.209          3.55718719

  vdW correction parametrized for the method        

  IVDW =  21
  VDW_RADIUS =    50.000 A
  VDW_IDAMPF =  0
  VDW_S6 =     1.000
  VDW_SR =     0.960
  VDW_D =    20.000
  LVDW_ONECELL = F F F
  LVDW_SAMETYPE T T T
  LVDW_EWALD = F

  Number of pair interactions contributing to vdW energy: 3519541
  Edisp (eV):  -27.99059

 VOLUME and BASIS-vectors are now :
  energy-cutoff  :      520.00
  volume of cell :    13405.53
      direct lattice vectors                 reciprocal lattice vectors
    21.138852197  0.000000000  0.000000000     0.047306258  0.000000000  0.000000000
     0.000000000 21.138852197  0.000000000     0.000000000  0.047306258  0.000000000
     0.000000000  0.000000000 30.000000000     0.000000000  0.000000000  0.033333333

  length of vectors
    21.138852197 21.138852197 30.000000000     0.047306258  0.047306258  0.033333333

 FORCES acting on ions:
    Electron-Ion                     Ewald-Force                    Non-Local-Force
   0.140E+03 -.331E+03 -.368E+04   -.140E+03 0.328E+03 0.368E+04   0.230E+00 0.223E+01 0.463E+00
   0.682E+03 0.244E+03 -.365E+04   -.680E+03 -.243E+03 0.365E+04   -.238E+01 -.163E+01 -.213E+01
   0.676E+01 -.798E+03 -.364E+04   -.608E+01 0.796E+03 0.364E+04   -.696E+00 0.269E+01 -.648E+00
   -.325E+02 -.649E+01 -.366E+04   0.343E+02 0.633E+01 0.366E+04   -.166E+01 0.267E+00 0.369E+00
   0.457E+03 0.773E+03 -.365E+04   -.454E+03 -.769E+03 0.365E+04   -.308E+01 -.371E+01 0.427E+00
   -.272E+03 0.336E+03 -.374E+04   0.271E+03 -.335E+03 0.374E+04   0.950E+00 -.103E+01 0.548E+00
   0.183E+03 0.356E+03 -.377E+04   -.182E+03 -.354E+03 0.377E+04   -.934E+00 -.235E+01 0.134E+01
   0.400E+03 -.775E+03 -.366E+04   -.399E+03 0.771E+03 0.366E+04   -.173E+01 0.462E+01 -.682E+00
   -.417E+03 -.779E+03 -.368E+04   0.415E+03 0.775E+03 0.368E+04   0.188E+01 0.436E+01 0.523E-01
   -.565E+02 0.824E+03 -.367E+04   0.579E+02 -.822E+03 0.367E+04   -.124E+01 -.207E+01 0.124E+01
   0.515E+03 -.383E+03 -.375E+04   -.516E+03 0.383E+03 0.375E+04   0.408E+00 -.306E+00 0.760E+00
   -.859E+03 -.181E+02 -.370E+04   0.854E+03 0.187E+02 0.370E+04   0.572E+01 -.523E+00 -.296E+00
   0.370E+03 0.588E+02 -.379E+04   -.369E+03 -.590E+02 0.379E+04   -.486E+00 0.268E-01 0.176E+01
   0.739E+03 -.257E+03 -.378E+04   -.732E+03 0.254E+03 0.378E+04   -.666E+01 0.235E+01 -.144E+01
   -.395E+03 -.106E+02 -.370E+04   0.394E+03 0.102E+02 0.370E+04   0.137E+01 0.297E+00 0.675E-01
   -.429E+03 0.696E+03 -.363E+04   0.427E+03 -.694E+03 0.363E+04   0.255E+01 -.228E+01 -.340E+01
   -.197E+03 -.327E+03 -.366E+04   0.195E+03 0.325E+03 0.366E+04   0.197E+01 0.161E+01 -.252E+00
   -.679E+03 -.433E+03 -.366E+04   0.678E+03 0.432E+03 0.366E+04   0.141E+01 0.842E+00 -.642E-02
   0.546E+03 0.427E+03 -.353E+04   -.546E+03 -.426E+03 0.353E+04   -.567E+00 -.143E+01 -.295E+01
   -.696E+03 0.397E+03 -.365E+04   0.693E+03 -.395E+03 0.365E+04   0.310E+01 -.203E+01 -.191E+01
   -.265E+02 0.511E+02 -.696E+03   0.265E+02 -.513E+02 0.696E+03   -.362E-01 0.178E+00 -.291E+00
   0.237E+02 0.610E+02 -.674E+03   -.238E+02 -.612E+02 0.674E+03   0.665E-01 0.204E+00 -.290E+00
   -.613E+02 0.913E+02 -.233E+04   0.613E+02 -.916E+02 0.232E+04   -.978E-02 0.203E+00 0.629E+01
   0.262E+02 0.693E+02 -.236E+04   -.263E+02 -.696E+02 0.235E+04   -.306E-02 0.230E+00 0.631E+01
   -.417E+02 0.490E+02 -.643E+03   0.417E+02 -.490E+02 0.643E+03   -.809E-02 0.942E-02 -.270E+00
   0.397E+02 0.200E+02 -.625E+03   -.399E+02 -.199E+02 0.625E+03   0.221E+00 -.417E-01 -.209E+00
   -.867E+02 0.276E+02 -.228E+04   0.866E+02 -.274E+02 0.227E+04   0.139E+00 -.145E+00 0.625E+01
   0.598E+02 0.822E+02 -.231E+04   -.600E+02 -.825E+02 0.230E+04   0.145E+00 0.245E+00 0.627E+01
   -.418E+02 -.264E+02 -.626E+03   0.412E+02 0.266E+02 0.627E+03   0.496E+00 -.183E+00 -.292E+00
   0.395E+02 -.571E+02 -.644E+03   -.397E+02 0.574E+02 0.644E+03   0.119E+00 -.242E+00 -.277E+00
   -.550E+02 -.883E+02 -.231E+04   0.545E+02 0.887E+02 0.230E+04   0.406E+00 -.264E+00 0.629E+01
   0.990E+02 -.328E+02 -.226E+04   -.999E+02 0.332E+02 0.226E+04   0.718E+00 -.346E+00 0.620E+01
   -.237E+02 -.619E+02 -.679E+03   0.236E+02 0.620E+02 0.679E+03   0.164E+00 -.963E-01 -.333E+00
   0.194E+02 -.457E+02 -.702E+03   -.194E+02 0.458E+02 0.703E+03   0.180E-01 -.541E-01 -.314E+00
   -.277E+02 -.627E+02 -.236E+04   0.276E+02 0.627E+02 0.235E+04   0.118E+00 0.270E-01 0.631E+01
   0.488E+02 -.984E+02 -.233E+04   -.490E+02 0.987E+02 0.233E+04   0.115E+00 -.219E+00 0.631E+01
   -.169E+02 -.119E+02 -.715E+03   0.169E+02 0.118E+02 0.715E+03   0.206E-01 0.921E-01 -.308E+00
   0.139E+02 0.216E+02 -.714E+03   -.139E+02 -.218E+02 0.714E+03   -.214E-02 0.138E+00 -.298E+00
   -.284E+02 0.322E+02 -.237E+04   0.284E+02 -.324E+02 0.236E+04   0.211E-01 0.204E+00 0.631E+01
   0.197E+02 -.192E+02 -.237E+04   -.197E+02 0.191E+02 0.237E+04   0.142E-01 0.949E-01 0.631E+01
   0.549E+02 0.605E+02 -.680E+03   -.549E+02 -.608E+02 0.680E+03   0.489E-01 0.243E+00 -.298E+00
   0.992E+02 0.100E+03 -.584E+03   -.989E+02 -.101E+03 0.584E+03   -.187E+00 0.394E+00 -.156E+00
   0.131E+03 0.123E+03 -.230E+04   -.132E+03 -.124E+03 0.229E+04   0.276E+00 0.525E+00 0.628E+01
   0.131E+03 0.141E+03 -.229E+04   -.131E+03 -.142E+03 0.228E+04   0.176E+00 0.328E+00 0.628E+01
   0.948E+02 0.631E+02 -.599E+03   -.952E+02 -.634E+02 0.599E+03   0.269E+00 0.293E+00 -.109E+00
   0.128E+03 0.331E+02 -.477E+03   -.128E+03 -.330E+02 0.475E+03   -.576E-01 -.102E+00 0.110E+01
   0.234E+03 0.750E+02 -.217E+04   -.235E+03 -.756E+02 0.216E+04   0.103E+01 0.553E+00 0.634E+01
   0.256E+03 0.173E+03 -.207E+04   -.257E+03 -.175E+03 0.206E+04   0.142E+01 0.127E+01 0.623E+01
   0.108E+03 -.257E+02 -.567E+03   -.108E+03 0.260E+02 0.566E+03   0.713E-01 -.212E+00 0.151E+01
   0.108E+03 -.947E+02 -.513E+03   -.107E+03 0.954E+02 0.514E+03   -.419E+00 -.589E+00 -.794E+00
   0.192E+03 -.157E+03 -.219E+04   -.192E+03 0.159E+03 0.218E+04   0.803E-01 -.100E+01 0.611E+01
   0.235E+03 -.741E+02 -.187E+04   -.234E+03 0.766E+02 0.186E+04   -.157E+01 -.231E+01 0.412E+01
   0.700E+02 -.809E+02 -.645E+03   -.699E+02 0.813E+02 0.646E+03   -.253E-01 -.377E+00 -.324E+00
   0.630E+02 -.753E+02 -.657E+03   -.629E+02 0.752E+02 0.657E+03   -.970E-01 0.740E-01 -.334E+00
   0.757E+02 -.891E+02 -.234E+04   -.757E+02 0.892E+02 0.234E+04   -.564E-01 -.483E-01 0.631E+01
   0.159E+03 -.207E+03 -.222E+04   -.159E+03 0.207E+03 0.221E+04   -.103E+00 0.569E-01 0.631E+01
   0.404E+02 -.168E+02 -.704E+03   -.404E+02 0.168E+02 0.704E+03   -.166E-01 0.671E-01 -.313E+00
   0.565E+02 0.363E+02 -.678E+03   -.565E+02 -.365E+02 0.679E+03   -.168E-01 0.173E+00 -.322E+00
   0.617E+02 0.389E+02 -.236E+04   -.616E+02 -.391E+02 0.235E+04   -.346E-01 0.187E+00 0.631E+01
   0.757E+02 -.322E+02 -.234E+04   -.756E+02 0.320E+02 0.234E+04   -.650E-01 0.129E+00 0.631E+01
[...]
   -.248E+02 0.380E+01 0.197E+04   0.248E+02 -.373E+01 -.197E+04   0.262E-01 -.758E-01 0.303E+01
   -.199E+02 0.141E+02 0.195E+04   0.199E+02 -.141E+02 -.195E+04   0.159E-01 -.242E-01 0.306E+01
   -.474E+02 -.183E+02 0.793E+03   0.473E+02 0.184E+02 -.793E+03   0.930E-01 -.151E+00 -.395E-01
   -.345E+02 -.305E+02 0.747E+03   0.345E+02 0.306E+02 -.747E+03   0.110E+00 -.684E-01 -.712E-01
   -.222E+02 -.199E+02 0.196E+04   0.222E+02 0.199E+02 -.196E+04   0.449E-01 -.434E-01 0.297E+01
   -.201E+02 -.847E+01 0.195E+04   0.200E+02 0.852E+01 -.196E+04   0.559E-01 -.650E-01 0.301E+01
   -.351E+02 -.406E+02 0.748E+03   0.351E+02 0.406E+02 -.748E+03   0.445E-01 0.376E-01 -.115E+00
   -.227E+02 -.235E+02 0.713E+03   0.227E+02 0.235E+02 -.713E+03   0.426E-01 0.340E-01 -.318E-01
   -.166E+02 -.158E+02 0.193E+04   0.166E+02 0.157E+02 -.194E+04   0.250E-01 0.382E-01 0.298E+01
   -.155E+02 -.192E+02 0.193E+04   0.155E+02 0.192E+02 -.194E+04   0.466E-01 -.909E-02 0.299E+01
   -.251E+02 -.624E+01 0.716E+03   0.251E+02 0.617E+01 -.717E+03   0.157E-01 0.831E-01 -.199E-01
   -.220E+02 0.142E+02 0.708E+03   0.220E+02 -.143E+02 -.708E+03   -.563E-02 0.864E-01 0.870E-02
   -.158E+02 0.978E+01 0.193E+04   0.158E+02 -.983E+01 -.193E+04   -.603E-04 0.674E-01 0.303E+01
   -.125E+02 -.336E+01 0.192E+04   0.125E+02 0.332E+01 -.192E+04   0.140E-01 0.444E-01 0.300E+01
   0.952E+00 -.197E+01 0.114E+03   -.136E-11 -.157E-11 -.937E-10   -.909E+00 0.163E+01 -.968E+02

 POSITION                                       TOTAL-FORCE (eV/Angst)
     10.51252      9.15101     18.32743         0.119747      0.079302      0.077905
      6.92045      6.64206     17.28536        -0.215017      0.085819      0.001937
     11.77188     11.48627     17.73281        -0.019678      0.058995      0.060790
     11.98186      6.84217     18.56754        -0.028860      0.069207      0.020828
      9.49558      2.05370     18.03872        -0.114396     -0.113375      0.107649
     13.44926      4.53054     18.48838         0.020550     -0.078207      0.016077
     10.76652      4.44984     18.71409         0.009243     -0.031399      0.124770
      9.06093     11.42659     17.71548        -0.106944      0.176890      0.064612
     14.45832     11.57043     17.82855         0.049327      0.157174      0.077375
     12.12695      2.12582     18.25604         0.013136     -0.067390      0.053323
      7.83084      9.09462     18.14771        -0.015580     -0.157693     -0.014785
     17.27713      7.08269     17.71669         0.098015      0.013155      0.031023
      9.28057      6.75527     18.56493         0.022011     -0.061520      0.095018
      5.32916      8.79641     17.37260        -0.205621      0.075172      0.121601
     14.65865      6.93076     18.26302         0.001579     -0.079499      0.006691
     14.49440      2.40717     17.17487         0.049279     -0.093840     -0.135889
     13.20884      9.19804     18.19064        -0.006979     -0.020818      0.059270
     15.94818      9.37726     17.84485         0.072484     -0.003739      0.087307
      8.55037      4.45901     17.24022         0.090222     -0.010145     -0.147076
     16.01375      4.67646     17.49400         0.123370     -0.011250      0.073260
      0.00046     21.13805     12.86120         0.004238     -0.004525      0.024798
      2.11333      2.11286     12.86093        -0.005870     -0.007135      0.021360
      0.00190      2.11239     14.92792         0.031044     -0.020474     -0.034807
      2.11320     21.13739     14.92762        -0.012884     -0.018203     -0.034452
      0.00028      4.22783     12.86165        -0.001911      0.001995      0.024847
      2.11253      6.34168     12.86269        -0.006935      0.002962      0.036735
      0.00132      6.34252     14.93084         0.024822      0.005665     -0.026032
      2.11058      4.22478     14.92886        -0.050394     -0.042896     -0.030477
     21.13656      8.45642     12.86159        -0.015490      0.003759      0.022686
      2.11291     10.57081     12.86170        -0.007921      0.006557      0.026597
     21.13700     10.57125     14.92895        -0.018444      0.025852     -0.034628
      2.09767      8.45999     14.93447        -0.112947      0.028764     -0.029742
     21.13812     12.68368     12.86184        -0.005890      0.001135      0.027713
      2.11381     14.79759     12.86162         0.000022      0.003526      0.027466
     21.13868     14.79732     14.92777         0.001287      0.004162     -0.035436
      2.11289     12.68498     14.92822        -0.015790      0.023574     -0.036718
     21.13884     16.91071     12.86156         0.000589     -0.000813      0.028130
      2.11388     19.02440     12.86144        -0.000324     -0.002342      0.027111
      0.00045     19.02407     14.92762         0.007920     -0.008433     -0.034766
      2.11386     16.91094     14.92765         0.000089      0.002021     -0.035447
      4.22738     21.13738     12.86115        -0.002766     -0.011647      0.022566
      6.34327      2.10922     12.86119         0.024795     -0.044838      0.022894
      4.21927      2.10403     14.92873        -0.075866     -0.085138     -0.022116
      6.33745     21.13347     14.92979        -0.057813     -0.069078     -0.027926
      4.22396      4.22694     12.86045        -0.038040      0.004617      0.015028
      6.34174      6.34076     12.85699         0.002371     -0.020625      0.013235
      4.19687      6.33335     14.96179        -0.001754     -0.019665     -0.135658
      6.28185      4.17269     14.92914         0.095999      0.135724     -0.067337
      4.22814      8.45668     12.85585         0.009300      0.004065      0.021686
      6.34590     10.57608     12.85773         0.049539      0.063216     -0.005033
      4.22498     10.58693     14.93003        -0.016141      0.138640     -0.080046
      6.40078      8.51600     14.92621        -0.044555     -0.117854     -0.123637
      4.22802     12.68549     12.86142         0.007306      0.014574      0.021471
      6.34206     14.79731     12.86173         0.006238      0.000263      0.026892
      4.22775     14.79790     14.92794        -0.001314      0.013755     -0.037500
      6.34098     12.68591     14.93044        -0.005364      0.044483     -0.040168
      4.22777     16.91086     12.86153         0.000344     -0.000383      0.027436
      6.34163     19.02395     12.86166         0.000225     -0.007134      0.026276
      4.22733     19.02404     14.92768        -0.010231     -0.010226     -0.034944
      6.34136     16.91081     14.92785        -0.007617     -0.001517     -0.035491
[...]
     19.02497      6.34166     10.77222         0.017587     -0.043348     -0.116161
     16.91108      6.34166      8.65833         0.008325     -0.025559     -0.418384
     19.02497      4.22777      8.65833         0.004662     -0.008061     -0.410978
     16.91108      8.45554     10.77222         0.034564     -0.056957     -0.135079
     19.02497     10.56943     10.77222         0.040718     -0.025022     -0.136835
     16.91108     10.56943      8.65833         0.014612     -0.014907     -0.437290
     19.02497      8.45554      8.65833         0.018187     -0.022023     -0.424102
     16.91108     12.68331     10.77222         0.016426      0.014513     -0.144472
     19.02497     14.79720     10.77222         0.014502      0.011491     -0.134397
     16.91108     14.79720      8.65833         0.008006      0.012262     -0.434758
     19.02497     12.68331      8.65833         0.015240     -0.003466     -0.433236
     16.91108     16.91108     10.77222         0.005397      0.029309     -0.132323
     19.02497     19.02497     10.77222        -0.002631      0.031335     -0.125515
     16.91108     19.02497      8.65833        -0.000277      0.022650     -0.421345
     19.02497     16.91108      8.65833         0.004514      0.014712     -0.428722
    total drift:                                0.009508      0.060624     -0.668515

  FREE ENERGIE OF THE ION-ELECTRON SYSTEM (eV)
  free  energy   TOTEN  =     -2982.21852784 eV

  energy  without entropy=    -2982.21852784  energy(sigma->0) =    -2982.21852784