 vasp.6.4.0 14Feb23 (build Mar 22 2023 21:21:37) complex

 executed on           IFC15_impi date 2023.05.05  20:41:45

 INCAR:
   SYSTEM = MgO-rocksalt
   ISMEAR = 0
   SIGMA = 0.05
   EDIFF = 1E-6
   ALGO = ALL
   ISTART = 0
   IBRION = -1
   NSW = 0
   ISYM = 2
   DIPOL = 0.5 0.5 0.5
   IDIPOL = 3
   LDIPOL = .TRUE.
   METAGGA = R2SCAN
   ENCUT = 520
   PREC = Accurate
   LASPH = .TRUE.
   LREAL = Auto
   ISPIN = 1
   NELM = 200
   NELMIN = 8
   NCORE = 4
   KPAR = 2
   LWAVE = .FALSE.
   LCHARG = .FALSE.

 POTCAR:    PAW_PBE Au 04Oct2007
 POTCAR:    PAW_PBE Mg_pv 13Apr2007
 POTCAR:    PAW_PBE O 08Apr2002
 POTCAR:    PAW_PBE Au 04Oct2007
   VRHFIN =Au: s1d10

   TITEL  = PAW_PBE Au 04Oct2007
   POMASS =  196.966; ZVAL   =   11.000    mass and valenz
   ENMAX  =  229.943; ENMIN  =  172.457 eV

   TITEL  = PAW_PBE Mg_pv 13Apr2007
   POMASS =   24.305; ZVAL   =    8.000    mass and valenz
   ENMAX  =  403.929; ENMIN  =  302.947 eV

   TITEL  = PAW_PBE O 08Apr2002
   POMASS =   16.000; ZVAL   =    6.000    mass and valenz
   ENMAX  =  400.000; ENMIN  =  300.000 eV

 Optimization of the real space projectors (new method)

 maximal supplied QI-value         = 15.12
 optimisation between [QCUT,QGAM] = [ 11.64, 23.28] = [ 37.95,151.78] Ry
 Optimized for a Real-space Cutoff    1.49 Angstroem

   l    n(q)    QCUT    max X(q) W(low)/X(q) W(high)/X(q)  e(spline)
   2      9    11.641    60.898    0.24E-03    0.10E-03    0.19E-06
   2      9    11.641    58.894    0.25E-03    0.10E-03    0.19E-06
   0     10    11.641   109.617    0.73E-04    0.33E-04    0.11E-06
   0     10    11.641    75.026    0.71E-04    0.32E-04    0.11E-06
   1     10    11.641    16.344    0.27E-04    0.97E-04    0.16E-06
   1     10    11.641    10.160    0.23E-04    0.77E-04    0.13E-06
 Optimization of the real space projectors (new method)

[...]

   l    n(q)    QCUT    max X(q) W(low)/X(q) W(high)/X(q)  e(spline)
   1      8    11.527     2.974    0.44E-04    0.56E-04    0.12E-06
   1      8    11.527     4.279    0.12E-03    0.12E-03    0.26E-06
   0      9    11.527    16.381    0.46E-04    0.64E-04    0.78E-07
   0      9    11.527     5.611    0.26E-04    0.43E-04    0.55E-07
   2      8    11.527     4.652    0.22E-03    0.72E-04    0.47E-07
 Optimization of the real space projectors (new method)

 maximal supplied QI-value         = 24.76
 optimisation between [QCUT,QGAM] = [ 11.64, 23.27] = [ 37.91,151.63] Ry
 Optimized for a Real-space Cutoff    1.14 Angstroem

   l    n(q)    QCUT    max X(q) W(low)/X(q) W(high)/X(q)  e(spline)
   0      8    11.635    20.381    0.10E-03    0.33E-03    0.24E-06
   0      8    11.635    15.268    0.11E-03    0.35E-03    0.26E-06
   1      7    11.635     5.964    0.24E-03    0.31E-03    0.30E-06
   1      7    11.635     5.382    0.22E-03    0.25E-03    0.26E-06
  PAW_PBE Au 04Oct2007                  :
  PAW_PBE Mg_pv 13Apr2007               :
  PAW_PBE O 08Apr2002                   :

 POSCAR: Mg  O
  positions in direct lattice
  velocities in cartesian coordinates

 METAGGA = R2SCAN                                      LMAXTAU =  6    LMIXTAU =  F

 ion  position               nearest neighbor table
   1  0.525  0.447  0.604-   9 2.67   5 2.69   6 2.74  10 2.79   2 2.83
   2  0.392  0.462  0.611-  10 2.68   6 2.70   7 2.71   3 2.74  11 2.75   1 2.83
   3  0.263  0.476  0.611-   8 2.71   4 2.74   2 2.74  12 2.74  11 2.75   7 2.76
   4  0.142  0.488  0.581- 230 2.54  12 2.68   3 2.74   8 2.75  51 2.76
   5  0.597  0.552  0.599-   1 2.69  13 2.70   6 2.73  14 2.76
   6  0.469  0.564  0.610-   7 2.70   2 2.70   5 2.73   1 2.74  14 2.75  15 2.77
   7  0.342  0.580  0.615-  16 2.70   6 2.70   2 2.71   8 2.75   3 2.76  15 2.77
   8  0.223  0.590  0.580- 253 2.44   3 2.71  16 2.73   7 2.75   4 2.75  56 2.95
   9  0.567  0.328  0.608-  17 2.66   1 2.67  10 2.67  18 2.84
  10  0.441  0.345  0.606-   9 2.67  11 2.67   2 2.68  18 2.72   1 2.79  19 2.83
  11  0.316  0.357  0.606-  10 2.67  19 2.71  12 2.72   2 2.75   3 2.75  20 2.78
  12  0.189  0.372  0.596-  20 2.66   4 2.68  11 2.72   3 2.74
  13  0.664  0.657  0.580- 294 2.61  14 2.66   5 2.70  96 2.83  95 2.91
  14  0.542  0.671  0.600-  15 2.63  13 2.66   6 2.75   5 2.76
  15  0.420  0.685  0.613-  14 2.63  16 2.66   7 2.77   6 2.77
  16  0.306  0.688  0.576- 254 2.29  15 2.66   7 2.70   8 2.73  56 2.97  75 3.04
  17  0.590  0.216  0.572- 285 2.19  18 2.62   9 2.66  87 2.86  68 2.93
  18  0.483  0.224  0.615-  17 2.62  19 2.63  10 2.72   9 2.84
  19  0.361  0.238  0.599-  18 2.63  20 2.71  11 2.71  10 2.83
  20  0.235  0.255  0.591-  12 2.66  19 2.71  11 2.78  47 2.95
  21  0.000  0.000  0.430- 223 2.11 224 2.11 304 2.11 239 2.12 321 2.12 221 2.13
  22  0.100  0.100  0.430- 243 2.11 228 2.11 223 2.11 224 2.12 322 2.12 222 2.13
  23  1.000  0.100  0.500- 223 2.11 222 2.11 302 2.11 225 2.11 221 2.11
  24  0.100  0.000  0.500- 224 2.11 222 2.11 221 2.11 238 2.11 241 2.11
  25  0.000  0.200  0.430- 228 2.11 308 2.11 223 2.11 227 2.12 325 2.12 225 2.13
  26  0.100  0.300  0.430- 247 2.10 228 2.11 227 2.12 326 2.12 232 2.13 226 2.13
  27  1.000  0.300  0.500- 306 2.11 227 2.11 226 2.11 225 2.11 229 2.12
  28  0.100  0.200  0.500- 225 2.11 228 2.11 226 2.11 222 2.11 245 2.11
  29  1.000  0.400  0.430- 232 2.11 227 2.11 312 2.11 231 2.12 329 2.12 229 2.13
  30  0.100  0.500  0.429- 232 2.10 251 2.10 231 2.11 330 2.11 236 2.12 230 2.19
  31  0.998  0.500  0.500- 310 2.08 231 2.11 229 2.11 230 2.12 233 2.12
  32  0.100  0.398  0.500- 226 2.09 229 2.11 232 2.11 249 2.12 230 2.16
  33  1.000  0.600  0.430- 316 2.11 231 2.11 235 2.11 333 2.12 236 2.12 233 2.14
  34  0.099  0.700  0.430- 235 2.10 240 2.11 334 2.12 255 2.12 236 2.12 234 2.14
  35  0.999  0.701  0.500- 314 2.10 235 2.11 237 2.11 234 2.11 233 2.12
  36  0.098  0.601  0.500- 233 2.08 234 2.10 236 2.10 253 2.12 230 2.13
  37  1.000  0.800  0.430- 239 2.11 320 2.11 240 2.12 337 2.12 235 2.12 237 2.13
  38  0.100  0.900  0.430- 224 2.11 239 2.11 259 2.11 338 2.12 240 2.12 238 2.13
  39  1.000  0.900  0.500- 239 2.10 221 2.11 318 2.11 238 2.11 237 2.12
  40  0.099  0.801  0.500- 238 2.10 237 2.10 240 2.11 257 2.12 234 2.12
  41  0.200  0.000  0.430- 243 2.11 244 2.11 224 2.11 259 2.12 341 2.12 241 2.13
  42  0.300  0.100  0.430- 248 2.10 243 2.12 263 2.12 244 2.12 342 2.12 242 2.13
  43  0.200  0.100  0.500- 241 2.11 245 2.11 243 2.11 242 2.11 222 2.12
  44  0.300  0.000  0.500- 242 2.10 258 2.10 244 2.11 261 2.12 241 2.12
  45  0.200  0.200  0.430- 248 2.10 247 2.10 243 2.12 228 2.12 345 2.12 245 2.15
  46  0.300  0.300  0.430- 246 2.08 267 2.11 252 2.12 248 2.12 346 2.12 247 2.13
  47  0.200  0.300  0.501- 249 2.11 246 2.12 245 2.13 226 2.13 247 2.14  20 2.95
  48  0.300  0.200  0.501- 265 2.10 246 2.12 242 2.12 245 2.13 248 2.14
  49  0.200  0.399  0.429- 249 2.08 252 2.11 247 2.11 349 2.11 232 2.13 251 2.14
  50  0.301  0.499  0.430- 271 2.10 252 2.10 250 2.10 350 2.11 256 2.14 251 2.14
  51  0.202  0.498  0.500- 250 2.07 249 2.08 251 2.09 253 2.19 230 2.20   4 2.76
  52  0.301  0.399  0.501- 246 2.10 269 2.10 250 2.12 249 2.14 252 2.14
  53  0.200  0.600  0.429- 256 2.10 251 2.10 353 2.10 255 2.11 236 2.11 253 2.16
  54  0.300  0.700  0.429- 354 2.10 275 2.10 256 2.11 260 2.11 255 2.12 254 2.14
  55  0.198  0.702  0.500- 234 2.08 257 2.08 255 2.09 254 2.13 253 2.13
  56  0.302  0.598  0.500- 273 2.06 250 2.07 256 2.10 253 2.20 254 2.22   8 2.95  16 2.97
  57  0.200  0.801  0.430- 259 2.10 260 2.11 240 2.11 357 2.12 255 2.13 257 2.13
  58  0.300  0.901  0.430- 244 2.10 279 2.11 358 2.11 259 2.12 260 2.12 258 2.13
  59  0.200  0.901  0.500- 241 2.10 259 2.11 238 2.11 257 2.11 258 2.12
  60  0.300  0.803  0.499- 258 2.07 260 2.10 277 2.11 254 2.12 257 2.13
[...]
 406  0.900  0.300  0.359- 208 2.11 207 2.11 127 2.11 212 2.11 206 2.11 106 2.12
 407  0.800  0.300  0.289- 186 2.11 205 2.11 206 2.11 209 2.11 207 2.11
 408  0.900  0.200  0.289- 206 2.11 202 2.11 205 2.11 125 2.11 208 2.11
 409  0.800  0.400  0.359- 192 2.11 207 2.11 211 2.11 212 2.11 209 2.11 109 2.12
 410  0.900  0.500  0.359- 131 2.11 211 2.11 212 2.11 216 2.11 210 2.11 110 2.12
 411  0.800  0.500  0.289- 190 2.11 209 2.11 210 2.11 213 2.11 211 2.11
 412  0.900  0.400  0.289- 129 2.11 206 2.11 209 2.11 210 2.11 212 2.11
 413  0.800  0.600  0.359- 196 2.11 211 2.11 215 2.11 216 2.11 213 2.11 113 2.12
 414  0.900  0.700  0.359- 220 2.11 215 2.11 216 2.11 135 2.11 214 2.11 114 2.12
 415  0.800  0.700  0.289- 194 2.11 217 2.11 214 2.11 213 2.11 215 2.11
 416  0.900  0.600  0.289- 133 2.11 210 2.11 213 2.11 214 2.11 216 2.11
 417  0.800  0.800  0.359- 200 2.11 215 2.11 219 2.11 220 2.11 217 2.11 117 2.12
 418  0.900  0.900  0.359- 139 2.11 204 2.11 219 2.11 220 2.11 218 2.11 118 2.12
 419  0.800  0.900  0.289- 198 2.11 201 2.11 217 2.11 218 2.11 219 2.11
 420  0.900  0.800  0.289- 214 2.11 137 2.11 217 2.11 218 2.11 220 2.11

  LATTYP: Found a simple tetragonal cell.
 ALAT       =    21.1388521970
 C/A-ratio  =     1.4191877459

  Lattice vectors:

 A1 = (  21.1388521970,   0.0000000000,   0.0000000000)
 A2 = (   0.0000000000,  21.1388521970,   0.0000000000)
 A3 = (   0.0000000000,   0.0000000000,  30.0000000000)

Analysis of symmetry for initial positions (statically):
 Subroutine PRICEL returns:
 Original cell was already a primitive cell.

 Routine SETGRP: Setting up the symmetry group for a
 simple tetragonal supercell.

 Subroutine GETGRP returns: Found  1 space group operations
 (whereof  1 operations were pure point group operations)
 out of a pool of 16 trial point group operations.

The static configuration has the point symmetry C_1 .

Analysis of symmetry for dynamics (positions and initial velocities):
 Subroutine PRICEL returns:
 Original cell was already a primitive cell.

[...]

The dynamic configuration has the point symmetry C_1 .

Analysis of constrained symmetry for selective dynamics:
 Subroutine PRICEL returns:
 Original cell was already a primitive cell.

 Routine SETGRP: Setting up the symmetry group for a
 simple tetragonal supercell.

 Subroutine GETGRP returns: Found  1 space group operations
 (whereof  1 operations were pure point group operations)
 out of a pool of 16 trial point group operations.

The constrained configuration has the point symmetry C_1 .

 Subroutine INISYM returns: Found  1 space group operations
 (whereof  1 operations are pure point group operations),
 and found     1 'primitive' translations

                                     Primitive cell

  volume of cell :   13405.5322

  direct lattice vectors                    reciprocal lattice vectors
    21.138852197  0.000000000  0.000000000     0.047306258  0.000000000  0.000000000
     0.000000000 21.138852197  0.000000000     0.000000000  0.047306258  0.000000000
     0.000000000  0.000000000 30.000000000     0.000000000  0.000000000  0.033333333

  length of vectors
    21.138852197 21.138852197 30.000000000     0.047306258  0.047306258  0.033333333

  position of ions in fractional coordinates (direct lattice)
     0.524872048  0.447271952  0.603950655
     0.392311328  0.461651392  0.610786995
     0.263393047  0.476088550  0.610793772
     0.141708215  0.487800132  0.580924024
[...]
  506                  m_alltoallv_z                         0.070196                  6   8
  507                  map_scatter                           0.019293                  6   8
  508          m_sumb_d                              0.001732                          3   4
  509        fortau                                3.019829                            1   3
  510          m_sumb_d                              0.012453                          1   4
  511        forhar                                2.967557                            1   3
  512          m_sumb_d                              0.000244                          1   4
  513        strehar                               0.040432                            1   3
  514          m_sumb_d                              0.007460                          1   4
  515        m_bcast_d                             0.018423                            2   3
  516      potlok                                0.169182                              1   2
  517        fft3d_mpi                             0.114546                            5   3
  518          fftbrc_mpi                            0.105400                          5   4
  519            fftbas_plan_mpi                       0.105380                        5   5
  520              dfftw_execute                         0.037764                     15   6
  521              map_backward                          0.025726                      4   6
  522                map_gather                            0.003312                    2   7
  523                m_alltoallv_z                         0.015760                    2   7
  524                map_scatter                           0.006597                    2   7
  525              map_forward                           0.037509                      6   6
  526                map_gather                            0.006331                    4   7
  527                m_alltoallv_z                         0.021033                    4   7
  528                map_scatter                           0.010042                    4   7
  529        m_sumb_d                              0.000597                            2   3
  530        fewald                                0.001408                            2   3
  531          rsp                                   0.001236                          2   4
  532          rcp                                   0.000159                          2   4
  533        pothar                                0.005875                            1   3
  534          m_sumb_d                              0.002260                          1   4
  535        m_bcast_d                             0.012065                            1   3
  536      potlok_metagga                        2.932172                              1   2
  537        fft3d_mpi                             0.409117                           17   3
  538          fftbrc_mpi                            0.382424                         17   4
  539            fftbas_plan_mpi                       0.382364                       17   5
  540              dfftw_execute                         0.117213                     51   6
  541              map_forward                           0.158281                     22   6
  542                map_gather                            0.026796                   13   7
  543                m_alltoallv_z                         0.102980                   13   7
  544                map_scatter                           0.028085                   13   7
  545              map_backward                          0.093802                     12   6
  546                map_gather                            0.009404                    6   7
  547                m_alltoallv_z                         0.063784                    6   7
  548                map_scatter                           0.020374                    6   7
  549        m_sumb_d                              0.001154                            3   3
  550        m_bcast_d                             0.025439                            2   3
  551      set_dd_magatom                        0.000001                              1   2
  552      set_dd_paw                            5.089081                              1   2
  553        set_rsgf_all                          0.000002                            1   3
  554        m_sumb_d                              3.935906                            8   3

 Flat profile

 dfftw_execute                        1650.782742      216867
 edwav                                 732.613595          42
 lincom                                292.608923         133
 map_scatter                           267.890148       72526
 kinhamil_tau                          266.430889        7307
 m_sumb_d                              225.371183       26025
 map_gather                            224.134040       72526
 fftwav_mpi                            199.231615       40651
 orth1                                 167.441716        6645
 eddav                                 155.400585           5
 m_alltoallv_z                         144.581713       72526
 map_forward                           141.981173       82716
 potlok_metagga                        109.364690          44
 wfinit                                 91.299878           1
 set_kineden                            74.181279          62
 m_alltoall_d                           57.524965       48470
 ggemm                                  54.296856        1265
 set_dd_paw                             51.001825          45
 eccp_tau                               48.685281        5073
 fftbas_plan_mpi                        45.584741       72289
 choleski                               28.556311          43
 fftext_mpi                             28.029658       30425
 total_time                             27.161346           1
 eddiag                                 25.309970          22
 m_bcast_z                              19.063405        2891
 crrexp_mul_work_add                    17.984239      914340
 crrexp_mul_wave                        14.405126     1105860
 vhamil                                 13.685534        2234
 rpro1                                  12.976851        1892
 pw_charge                              11.352367        2064
 racc0                                   9.448640        1197
 lapack                                  7.267673         980
 gemm                                    6.821384      411600
 w1_dscal                                5.313313        1197
 redis_pw                                4.983789        7675
 setdij_                                 3.874978          71
 rspher_all                              3.663869          14
 augmentation_charge                     3.599919          43
 fortau                                  3.007376           1
 phaser                                  2.999618          39
 forloc                                  2.988306           1
 forhar                                  2.967313           1
 rpromu_gemm                             2.641611       81900
 potxc_metagga                           2.492312           1
 fft3d_mpi                               2.464616       72289
 m_bcast_d                               1.951660        2096
 racc0mu                                 1.889636         980
 stufak                                  1.822329           1
 potlok                                  1.719533          44
 orthch                                  1.008568          43
 map_backward                            0.888254       61862
 rpromu                                  0.858919         195
 w1_copy                                 0.857592        2940
 overl                                   0.835188        2958
 stretau                                 0.620201           1
 elmin_all                               0.597423           1
 soft_charge                             0.345558          43
 redis_proj                              0.328392        7419
 fftbas_mpi                              0.281784       71076
 setup_precond                           0.267849         285
 apply_precond                           0.236738         695
 depsum                                  0.185665          43
 inisym                                  0.179910           1
 pothar                                  0.161411          44
 overl1                                  0.132981         980
 fft_gq                                  0.076095          43
 rsp                                     0.068931          89
 set_charge                              0.055075          43
 strnlr                                  0.053222           1
 densta                                  0.038111          54
 strehar                                 0.032972           1
 strkin                                  0.032688           1
 hamiltmu_tau                            0.028750         980
 force_and_stress                        0.027984           1
 strelo                                  0.026914           1
 hamilt_local_tau                        0.023035        1254
 newband                                 0.019853         985
 fornlr                                  0.017308           1
 raccmu_                                 0.013976         980
 fewald                                  0.011666          89
 rpro_isp                                0.010320          13
 rcp                                     0.005397          89
 w1_projall                              0.004864         695
 fftbrc_mpi                              0.004852        1213
 brgrid                                  0.002836           1
 truncate_high_frequency_w1              0.001710        1265
 fordep                                  0.000754           1
 redis_pw_all                            0.000403          42
 posmap                                  0.000254           2
 crpa_reader                             0.000251           1
 redis_pw_over_bands                     0.000177          43
 shift_bands_between_low_high            0.000139           1
 vectorpot                               0.000114           1
 set_rsgf_all                            0.000113          45
 proall                                  0.000066           1
 rotate_active_occupied_orbital          0.000018           1
 set_dd_magatom                          0.000009           2
  summed up times    5279.19581007957

 Accumulative profile

 total_time                           5279.195810           1
 elmin_all                            4906.090622           1
 edwav                                2841.395515          42
 fft3d_mpi                            2478.594063       72289
 fftbas_plan_mpi                      2475.842812       72289
 fftbas_mpi                           2449.276346       71076
 kinhamil_tau                         2139.400082        7307
 fftwav_mpi                           1663.474148       40651
 dfftw_execute                        1650.782742      216867
 eccp_tau                             1532.038526        5073
 fftext_mpi                           1013.365209       30425
 eddav                                 787.925562           5
 set_kineden                           516.875412          62
 map_forward                           512.635391       82716
 eddiag                                457.391245          22
 hamilt_local_tau                      374.870715        1254
 hamiltmu_tau                          312.642141         980
 lincom                                292.608923         133
 map_scatter                           267.890148       72526
 map_backward                          266.839937       61862
 set_dd_paw                            228.452435          45
 m_sumb_d                              225.371183       26025
 map_gather                            224.134040       72526
 force_and_stress                      217.738790           1
 orthch                                173.083144          43
 orth1                                 167.441716        6645
 stretau                               159.335758           1
 m_alltoallv_z                         144.581713       72526
 potlok_metagga                        129.001270          44
 wfinit                                109.764327           1
 set_charge                            104.938350          43
 soft_charge                            99.915144          43
 newband                                99.636888         985
 m_alltoall_d                           57.524965       48470
 ggemm                                  54.296856        1265
 redis_pw                               48.967225        7675
 rpro_isp                               37.828037          13
 strnlr                                 29.722539           1
 choleski                               28.556311          43
 fftbrc_mpi                             26.853101        1213
 rpro1                                  23.921327        1892
 racc0                                  19.708049        1197
 m_bcast_z                              19.063405        2891
 crrexp_mul_work_add                    17.984239      914340
 raccmu_                                17.181352         980
 racc0mu                                17.034395         980
 crrexp_mul_wave                        14.405126     1105860
 redis_proj                             13.869921        7419
 vhamil                                 13.685534        2234
 pw_charge                              11.352367        2064
 fornlr                                  9.931013           1
 w1_projall                              8.870290         695
 potlok                                  7.747582          44
 rpromu                                  7.638800         195
 lapack                                  7.267673         980
 gemm                                    6.821384      411600
 redis_pw_over_bands                     6.649802          43
 redis_pw_all                            6.649625          42
 w1_dscal                                5.313313        1197
 setdij_                                 4.769757          71
 augmentation_charge                     4.669500          43
 rspher_all                              3.663869          14
 proall                                  3.068592           1
 fortau                                  3.019829           1
 phaser                                  2.999618          39
 forloc                                  2.993559           1
 forhar                                  2.967557           1
 potxc_metagga                           2.829542           1
 rpromu_gemm                             2.641611       81900
 m_bcast_d                               1.951660        2096
 stufak                                  1.822329           1
 fft_gq                                  1.001994          43
 w1_copy                                 0.857592        2940
 overl                                   0.835188        2958
 fordep                                  0.392345           1
 densta                                  0.388024          54
 depsum                                  0.298630          43
 setup_precond                           0.286887         285
 apply_precond                           0.236738         695
 pothar                                  0.234721          44
 inisym                                  0.180164           1
 fewald                                  0.171722          89
 overl1                                  0.132981         980
 rsp                                     0.068931          89
 strehar                                 0.040432           1
 strkin                                  0.033604           1
 strelo                                  0.027513           1
 rcp                                     0.005397          89
 brgrid                                  0.002836           1
 truncate_high_frequency_w1              0.001710        1265
 posmap                                  0.000254           2
 crpa_reader                             0.000251           1
 shift_bands_between_low_high            0.000139           1
 vectorpot                               0.000114           1
 set_rsgf_all                            0.000113          45
 rotate_active_occupied_orbital          0.000018           1
 set_dd_magatom                          0.000009           2

Profiling took   4.618494  1.188285  0.006728  0.006269 seconds
Profiling took   3.896018 seconds