 vasp.6.4.0 14Feb23 (build Jul 14 2023 13:46:40) complex

 executed on             LinuxIFC date 2023.07.30  06:27:52

 INCAR:
   SYSTEM = MgO-rocksalt
   ISMEAR = 0
   SIGMA = 0.05
   EDIFF = 1E-6
   ALGO = ALL
   ISTART = 0
   IBRION = -1
   NSW = 0
   ISYM = 2
   DIPOL = 0.5 0.5 0.5
   IDIPOL = 3
   LDIPOL = .TRUE.
   METAGGA = R2SCAN
   LUSE_VDW = .TRUE.
   BPARAM = 11.95
   CPARAM = 0.0093
   ENCUT = 520
   PREC = Accurate
   LASPH = .TRUE.
   LREAL = Auto
   ISPIN = 1
   NELM = 200
   NELMIN = 8
   NCORE = 16
   KPAR = 1
   LWAVE = .FALSE.
   LCHARG = .FALSE.

 POTCAR:    PAW_PBE Mg_pv 13Apr2007
 POTCAR:    PAW_PBE O 08Apr2002
|               ----> ADVICE to this user running VASP <----                  |
|     You have switched on vdW-DFT.                                           |
|     This routine was written and supplied by Jiri Klimes. We recommend      |
|     that you carefully read and cite the following publications:            |
|       J. Klimes, D.R. Bowler, A. Michelides                                 |
|          J. Phys.: Cond Matt. 22 022201 (2010)                              |
|       J. Klimes, D.R. Bowler, A. Michelides                                 |
|          Phys. Rev. B. 83, 195131 (2011)                                    |
|     and references therein.                                                 |

   TITEL  = PAW_PBE Mg_pv 13Apr2007
   POMASS =   24.305; ZVAL   =    8.000    mass and valenz
   ENMAX  =  403.929; ENMIN  =  302.947 eV

   TITEL  = PAW_PBE O 08Apr2002
   POMASS =   16.000; ZVAL   =    6.000    mass and valenz
   ENMAX  =  400.000; ENMIN  =  300.000 eV

 Optimization of the real space projectors (new method)

 maximal supplied QI-value         = 18.90
 optimisation between [QCUT,QGAM] = [ 11.53, 23.24] = [ 37.21,151.29] Ry
 Optimized for a Real-space Cutoff    1.28 Angstroem

   l    n(q)    QCUT    max X(q) W(low)/X(q) W(high)/X(q)  e(spline)
   1      8    11.527     2.974    0.44E-04    0.56E-04    0.12E-06
   1      8    11.527     4.279    0.12E-03    0.12E-03    0.26E-06
   0      9    11.527    16.381    0.46E-04    0.64E-04    0.78E-07
   0      9    11.527     5.611    0.26E-04    0.43E-04    0.55E-07
   2      8    11.527     4.652    0.22E-03    0.72E-04    0.47E-07
 Optimization of the real space projectors (new method)

 maximal supplied QI-value         = 24.76
 optimisation between [QCUT,QGAM] = [ 11.64, 23.27] = [ 37.91,151.63] Ry
 Optimized for a Real-space Cutoff    1.14 Angstroem

   l    n(q)    QCUT    max X(q) W(low)/X(q) W(high)/X(q)  e(spline)
   0      8    11.635    20.381    0.10E-03    0.33E-03    0.24E-06
   0      8    11.635    15.268    0.11E-03    0.35E-03    0.26E-06
   1      7    11.635     5.964    0.24E-03    0.31E-03    0.30E-06
   1      7    11.635     5.382    0.22E-03    0.25E-03    0.26E-06
  PAW_PBE Mg_pv 13Apr2007               :
  PAW_PBE O 08Apr2002                   :

 POSCAR: Mg  O
  positions in direct lattice

 METAGGA = R2SCAN                                      LMAXTAU =  6    LMIXTAU =  F

 ion  position               nearest neighbor table
   1  0.000  0.000  0.407- 103 2.11 104 2.11 119 2.11 184 2.11 101 2.11
   2  0.100  0.100  0.407- 103 2.11 104 2.11 108 2.11 123 2.11 102 2.11
   3  0.000  0.100  0.503- 101 2.11 102 2.11 105 2.11 182 2.11 103 2.11
   4  0.100  0.000  0.503- 101 2.11 102 2.11 118 2.11 121 2.11 104 2.11
   5  0.000  0.200  0.407- 107 2.11 103 2.11 108 2.11 188 2.11 105 2.11
   6  0.100  0.300  0.407- 108 2.11 107 2.11 112 2.11 127 2.11 106 2.11
   7  0.000  0.300  0.503- 105 2.11 106 2.11 109 2.11 186 2.11 107 2.11
   8  0.100  0.200  0.503- 106 2.11 105 2.11 102 2.11 125 2.11 108 2.11
   9  0.000  0.400  0.407- 107 2.11 111 2.11 112 2.11 192 2.11 109 2.11
  10  0.100  0.500  0.407- 111 2.11 112 2.11 116 2.11 131 2.11 110 2.11
  11  0.000  0.500  0.503- 109 2.11 110 2.11 113 2.11 190 2.11 111 2.11
  12  0.100  0.400  0.503- 106 2.11 109 2.11 110 2.11 129 2.11 112 2.11
  13  0.000  0.600  0.407- 111 2.11 115 2.11 116 2.11 196 2.11 113 2.11
  14  0.100  0.700  0.407- 120 2.11 116 2.11 115 2.11 135 2.11 114 2.11
  15  0.000  0.700  0.503- 117 2.11 114 2.11 113 2.11 194 2.11 115 2.11
  16  0.100  0.600  0.503- 110 2.11 113 2.11 114 2.11 133 2.11 116 2.11
  17  0.000  0.800  0.407- 115 2.11 119 2.11 120 2.11 200 2.11 117 2.11
  18  0.100  0.900  0.407- 104 2.11 119 2.11 120 2.11 139 2.11 118 2.11
  19  0.000  0.900  0.503- 101 2.11 117 2.11 118 2.11 198 2.11 119 2.11
  20  0.100  0.800  0.503- 114 2.11 117 2.11 118 2.11 137 2.11 120 2.11
  21  0.200  0.000  0.407- 124 2.11 123 2.11 104 2.11 139 2.11 121 2.11
  22  0.300  0.100  0.407- 123 2.11 124 2.11 128 2.11 143 2.11 122 2.11
  23  0.200  0.100  0.503- 122 2.11 121 2.11 102 2.11 125 2.11 123 2.11
  24  0.300  0.000  0.503- 121 2.11 122 2.11 138 2.11 141 2.11 124 2.11
  25  0.200  0.200  0.407- 127 2.11 128 2.11 108 2.11 123 2.11 125 2.11
  26  0.300  0.300  0.407- 127 2.11 128 2.11 132 2.11 147 2.11 126 2.11
  27  0.200  0.300  0.503- 125 2.11 126 2.11 106 2.11 129 2.11 127 2.11
  28  0.300  0.200  0.503- 125 2.11 126 2.11 122 2.11 145 2.11 128 2.11
  29  0.200  0.400  0.407- 132 2.11 127 2.11 131 2.11 112 2.11 129 2.11
  30  0.300  0.500  0.407- 131 2.11 132 2.11 136 2.11 151 2.11 130 2.11
  31  0.200  0.500  0.503- 130 2.11 129 2.11 110 2.11 133 2.11 131 2.11
  32  0.300  0.400  0.503- 129 2.11 126 2.11 130 2.11 149 2.11 132 2.11
  33  0.200  0.600  0.407- 136 2.11 131 2.11 135 2.11 116 2.11 133 2.11
  34  0.300  0.700  0.407- 135 2.11 140 2.11 136 2.11 155 2.11 134 2.11
  35  0.200  0.700  0.503- 134 2.11 137 2.11 114 2.11 133 2.11 135 2.11
  36  0.300  0.600  0.503- 133 2.11 130 2.11 134 2.11 153 2.11 136 2.11
  37  0.200  0.800  0.407- 135 2.11 140 2.11 139 2.11 120 2.11 137 2.11
  38  0.300  0.900  0.407- 139 2.11 124 2.11 140 2.11 159 2.11 138 2.11
  39  0.200  0.900  0.503- 138 2.11 121 2.11 137 2.11 118 2.11 139 2.11
  40  0.300  0.800  0.503- 134 2.11 137 2.11 138 2.11 157 2.11 140 2.11
  41  0.400  0.000  0.407- 124 2.11 143 2.11 144 2.11 159 2.11 141 2.11
  42  0.500  0.100  0.407- 143 2.11 144 2.11 148 2.11 163 2.11 142 2.11
  43  0.400  0.100  0.503- 122 2.11 141 2.11 142 2.11 145 2.11 143 2.11
  44  0.500  0.000  0.503- 141 2.11 142 2.11 158 2.11 161 2.11 144 2.11
  45  0.400  0.200  0.407- 147 2.11 143 2.11 128 2.11 148 2.11 145 2.11
  46  0.500  0.300  0.407- 148 2.11 147 2.11 152 2.11 167 2.11 146 2.11
  47  0.400  0.300  0.503- 145 2.11 126 2.11 146 2.11 149 2.11 147 2.11
  48  0.500  0.200  0.503- 146 2.11 145 2.11 142 2.11 165 2.11 148 2.11
  49  0.400  0.400  0.407- 132 2.11 147 2.11 151 2.11 152 2.11 149 2.11
  50  0.500  0.500  0.407- 151 2.11 152 2.11 156 2.11 171 2.11 150 2.11
  51  0.400  0.500  0.503- 130 2.11 149 2.11 150 2.11 153 2.11 151 2.11
  52  0.500  0.400  0.503- 146 2.11 149 2.11 150 2.11 169 2.11 152 2.11
  53  0.400  0.600  0.407- 136 2.11 151 2.11 155 2.11 156 2.11 153 2.11
  54  0.500  0.700  0.407- 160 2.11 156 2.11 155 2.11 175 2.11 154 2.11
  55  0.400  0.700  0.503- 157 2.11 153 2.11 154 2.11 134 2.11 155 2.11
  56  0.500  0.600  0.503- 150 2.11 153 2.11 154 2.11 173 2.11 156 2.11
  57  0.400  0.800  0.407- 155 2.11 140 2.11 159 2.11 160 2.11 157 2.11
  58  0.500  0.900  0.407- 144 2.11 159 2.11 160 2.11 179 2.11 158 2.11
  59  0.400  0.900  0.503- 138 2.11 141 2.11 157 2.11 158 2.11 159 2.11
  60  0.500  0.800  0.503- 154 2.11 157 2.11 158 2.11 177 2.11 160 2.11
[...]
 186  0.900  0.300  0.503-  88 2.11  87 2.11   7 2.11  92 2.11  86 2.11
 187  0.800  0.300  0.407-  66 2.11  85 2.11  86 2.11  89 2.11  87 2.11
 188  0.900  0.200  0.407-  86 2.11  82 2.11  85 2.11   5 2.11  88 2.11
 189  0.800  0.400  0.503-  72 2.11  87 2.11  91 2.11  92 2.11  89 2.11
 190  0.900  0.500  0.503-  11 2.11  91 2.11  92 2.11  96 2.11  90 2.11
 191  0.800  0.500  0.407-  70 2.11  89 2.11  90 2.11  93 2.11  91 2.11
 192  0.900  0.400  0.407-   9 2.11  86 2.11  89 2.11  90 2.11  92 2.11
 193  0.800  0.600  0.503-  76 2.11  91 2.11  95 2.11  96 2.11  93 2.11
 194  0.900  0.700  0.503- 100 2.11  95 2.11  96 2.11  15 2.11  94 2.11
 195  0.800  0.700  0.407-  74 2.11  97 2.11  94 2.11  93 2.11  95 2.11
 196  0.900  0.600  0.407-  13 2.11  90 2.11  93 2.11  94 2.11  96 2.11
 197  0.800  0.800  0.503-  80 2.11  95 2.11  99 2.11 100 2.11  97 2.11
 198  0.900  0.900  0.503-  19 2.11  84 2.11  99 2.11 100 2.11  98 2.11
 199  0.800  0.900  0.407-  78 2.11  81 2.11  97 2.11  98 2.11  99 2.11
 200  0.900  0.800  0.407-  94 2.11  17 2.11  97 2.11  98 2.11 100 2.11

  LATTYP: Found a simple tetragonal cell.
 ALAT       =    21.1388521970
 C/A-ratio  =     1.0461251639

  Lattice vectors:

 A1 = (  21.1388521970,   0.0000000000,   0.0000000000)
 A2 = (   0.0000000000,  21.1388521970,   0.0000000000)
 A3 = (   0.0000000000,   0.0000000000,  22.1138852197)

Analysis of symmetry for initial positions (statically):
 Subroutine PRICEL returns following result:

[...]

  50 primitive cells build up your supercell.

 Routine SETGRP: Setting up the symmetry group for a
 simple tetragonal supercell.

 Subroutine GETGRP returns: Found 16 space group operations
 (whereof  8 operations were pure point group operations)
 out of a pool of 16 trial point group operations.

The static configuration has the point symmetry C_4v.
 The point group associated with its full space group is D_4h.

Analysis of symmetry for dynamics (positions and initial velocities):
 Subroutine PRICEL returns following result:

  LATTYP: Found a simple tetragonal cell.
 ALAT       =     2.9894851470
 C/A-ratio  =     7.3972219738

  Lattice vectors:

 A1 = (   2.1138852197,  -2.1138852197,   0.0000000000)
 A2 = (   2.1138852197,   2.1138852197,   0.0000000000)
 A3 = (   0.0000000000,   0.0000000000,  22.1138852197)

  50 primitive cells build up your supercell.

 Routine SETGRP: Setting up the symmetry group for a
 simple tetragonal supercell.

 Subroutine GETGRP returns: Found 16 space group operations
 (whereof  8 operations were pure point group operations)
 out of a pool of 16 trial point group operations.

The dynamic configuration has the point symmetry C_4v.
 The point group associated with its full space group is D_4h.

 Subroutine INISYM returns: Found 16 space group operations
 (whereof  8 operations are pure point group operations),
 and found    50 'primitive' translations

                                     Primitive cell

  volume of cell :     197.6323

  direct lattice vectors                    reciprocal lattice vectors
     2.113885220 -2.113885220  0.000000000     0.236531291 -0.236531291  0.000000000
     2.113885220  2.113885220  0.000000000     0.236531291  0.236531291  0.000000000
     0.000000000  0.000000000 22.113885220     0.000000000  0.000000000  0.045220457

  length of vectors
     2.989485147  2.989485147 22.113885220     0.334505760  0.334505760  0.045220457

  position of ions in fractional coordinates (direct lattice)
     0.000000000  0.000000000  0.406984115
     0.500000000  0.500000000  0.502574971
     0.000000000  0.000000000  0.502574971
     0.500000000  0.500000000  0.406984115

  ion indices of the primitive-cell ions
   primitive index   ion index
                 1           1
[...]
     52     -44.3875      2.00000
     53     -44.3875      2.00000
     54     -44.3858      2.00000
     55     -44.3858      2.00000
     56     -44.3858      2.00000
     57     -44.3858      2.00000
     58     -44.3856      2.00000
     59     -44.3856      2.00000
     60     -44.3856      2.00000
[...]
    850       4.8662      0.00000
    851       5.0342      0.00000
    852       5.0633      0.00000
    853       5.1040      0.00000
    854       5.1094      0.00000
    855       5.1137      0.00000
    856       5.1175      0.00000
    857       5.1696      0.00000
    858       5.3145      0.00000
    859       5.3970      0.00000
    860       5.4505      0.00000
    861       5.4899      0.00000
    862       5.6560      0.00000
    863       5.9318      0.00000
    864       5.9937      0.00000

 soft charge-density along one line, spin component           1
         0         1         2         3         4         5         6         7         8         9
 total charge-density along one line

------------------------ aborting loop because EDIFF is reached ----------------------------------------

  FORCE on cell =-STRESS in cart. coord.  units (eV):
  Direction    XX          YY          ZZ          XY          YZ          ZX
  Alpha Z  1314.62240  1314.62240  1314.62240
  Ewald  475375.07443475375.07443************     0.00000     0.00000    -0.00000
  Hartree503468.91018503468.91018************    -0.00000    -0.00000    -0.00000
  E(xc)   -8269.96968 -8269.96968 -8260.89535    -0.00000     0.00000     0.00000
  Local  ************************************     0.00000    -0.00000     0.00000
  n-local -8680.16949 -8680.16948 -8805.07296     0.00000     0.00000     0.00000
  augment  3691.61041  3691.61041  3633.09383     0.00000    -0.00000     0.00000
  Kinetic 22729.63666 22729.63662 22955.39449    -0.00003     0.00000     0.00001
  Fock        0.00000     0.00000     0.00000     0.00000     0.00000     0.00000
  Total    -232.24962  -232.24962   -20.17515     0.00000     0.00000     0.00000
  in kB     -37.65631   -37.65631    -3.27114     0.00000     0.00000     0.00000

 VOLUME and BASIS-vectors are now :
  energy-cutoff  :      520.00
  volume of cell :     9881.61
      direct lattice vectors                 reciprocal lattice vectors
    21.138852197  0.000000000  0.000000000     0.047306258  0.000000000  0.000000000
     0.000000000 21.138852197  0.000000000     0.000000000  0.047306258  0.000000000
     0.000000000  0.000000000 22.113885220     0.000000000  0.000000000  0.045220457

  length of vectors
    21.138852197 21.138852197 22.113885220     0.047306258  0.047306258  0.045220457

 FORCES acting on ions:
    Electron-Ion                     Ewald-Force                    Non-Local-Force
   0.163E-12 0.118E-12 0.927E+03   0.941E-13 0.746E-13 -.919E+03   0.260E-22 -.455E-23 -.751E+01
   -.235E-12 -.844E-12 0.927E+03   0.101E-09 0.101E-09 -.919E+03   0.228E-22 0.856E-23 -.751E+01
   0.163E-12 -.995E-12 -.927E+03   0.131E-12 0.101E-09 0.919E+03   -.142E-22 -.117E-22 0.751E+01
   -.214E-12 0.140E-12 -.927E+03   0.101E-09 0.515E-13 0.919E+03   -.114E-22 0.259E-23 0.751E+01
   0.161E-12 -.114E-11 0.927E+03   0.155E-10 -.470E-10 -.919E+03   0.174E-22 0.209E-22 -.751E+01
   -.231E-12 0.860E-12 0.927E+03   0.988E-10 0.268E-10 -.919E+03   0.213E-22 0.845E-23 -.751E+01
   0.182E-12 0.111E-11 -.927E+03   0.207E-11 0.268E-10 0.919E+03   -.149E-22 0.427E-23 0.751E+01
   -.184E-12 -.122E-11 -.927E+03   0.852E-10 -.471E-10 0.919E+03   -.132E-22 -.236E-23 0.751E+01
   0.156E-12 0.780E-12 0.927E+03   -.175E-10 -.803E-10 -.919E+03   0.233E-22 0.109E-22 -.751E+01
   -.240E-12 -.774E-12 0.927E+03   0.101E-09 0.123E-12 -.919E+03   0.272E-22 0.100E-22 -.751E+01
   0.166E-12 -.242E-12 -.927E+03   0.229E-12 0.266E-13 0.919E+03   -.157E-22 -.175E-24 0.751E+01
   -.190E-12 0.127E-11 -.927E+03   0.118E-09 -.804E-10 0.919E+03   -.209E-22 0.414E-23 0.751E+01
   0.142E-12 -.142E-11 0.927E+03   0.114E-11 0.950E-10 -.919E+03   0.296E-22 0.232E-23 -.751E+01
   -.278E-12 -.183E-11 0.927E+03   0.863E-10 -.402E-10 -.919E+03   0.131E-22 -.101E-22 -.751E+01
   0.160E-12 -.159E-11 -.927E+03   -.927E-12 -.402E-10 0.919E+03   -.284E-22 -.152E-23 0.751E+01
   -.223E-12 -.181E-11 -.927E+03   0.115E-09 0.843E-10 0.919E+03   -.337E-22 0.607E-23 0.751E+01
   0.145E-12 0.446E-12 0.927E+03   0.909E-12 0.253E-10 -.919E+03   0.203E-22 -.896E-24 -.751E+01
   -.273E-12 0.489E-12 0.927E+03   0.117E-09 -.800E-10 -.919E+03   0.165E-22 -.451E-23 -.751E+01
   0.156E-12 0.887E-12 -.927E+03   -.899E-12 -.799E-10 0.919E+03   -.169E-22 -.264E-23 0.751E+01
   -.242E-12 0.645E-12 -.927E+03   0.842E-10 0.360E-10 0.919E+03   -.212E-22 0.286E-23 0.751E+01
   -.511E-12 0.140E-12 0.927E+03   -.487E-10 0.293E-13 -.919E+03   0.137E-22 -.986E-23 -.751E+01
   0.301E-12 -.187E-11 0.927E+03   0.267E-10 0.993E-10 -.919E+03   0.166E-22 -.594E-23 -.751E+01
   -.590E-12 -.104E-11 -.927E+03   -.293E-10 0.892E-10 0.919E+03   -.143E-22 -.140E-23 0.751E+01
   0.247E-12 0.167E-12 -.927E+03   0.229E-10 0.528E-13 0.919E+03   -.180E-22 0.175E-23 0.751E+01
   -.482E-12 -.118E-12 0.927E+03   -.527E-10 -.477E-10 -.919E+03   0.281E-22 0.998E-23 -.751E+01
   0.302E-12 0.592E-12 0.927E+03   0.173E-10 0.245E-10 -.919E+03   0.256E-22 0.156E-22 -.751E+01
   -.591E-12 0.307E-12 -.927E+03   -.662E-10 0.274E-10 0.919E+03   -.188E-22 -.333E-23 0.751E+01
   0.244E-12 0.102E-12 -.927E+03   0.382E-11 -.448E-10 0.919E+03   -.152E-22 0.257E-23 0.751E+01
   -.502E-12 0.261E-11 0.927E+03   -.468E-10 -.689E-10 -.919E+03   0.276E-22 0.526E-23 -.751E+01
   0.297E-12 -.127E-11 0.927E+03   0.231E-10 0.426E-13 -.919E+03   0.176E-22 -.435E-24 -.751E+01
   -.632E-12 -.184E-11 -.927E+03   -.488E-10 -.853E-13 0.919E+03   -.186E-22 0.112E-22 0.751E+01
   0.221E-12 0.273E-11 -.927E+03   0.441E-10 -.788E-10 0.919E+03   -.225E-22 0.111E-22 0.751E+01
   -.516E-12 -.592E-12 0.927E+03   -.284E-10 0.833E-10 -.919E+03   0.112E-22 -.486E-23 -.751E+01
   0.296E-12 -.245E-11 0.927E+03   0.476E-11 -.380E-10 -.919E+03   0.798E-23 -.104E-22 -.751E+01
   -.634E-12 -.139E-11 -.927E+03   -.692E-10 -.410E-10 0.919E+03   -.219E-22 -.742E-23 0.751E+01
   0.225E-12 0.436E-12 -.927E+03   0.412E-10 0.828E-10 0.919E+03   -.138E-22 -.131E-22 0.751E+01
   -.513E-12 0.484E-12 0.927E+03   -.671E-10 0.258E-10 -.919E+03   0.199E-23 -.161E-22 -.751E+01
   0.298E-12 0.161E-12 0.927E+03   0.432E-10 -.785E-10 -.919E+03   0.108E-22 0.214E-23 -.751E+01
   -.623E-12 0.699E-13 -.927E+03   -.304E-10 -.686E-10 0.919E+03   -.173E-22 -.271E-23 0.751E+01
   0.237E-12 0.302E-11 -.927E+03   0.265E-11 0.337E-10 0.919E+03   -.194E-22 -.433E-23 0.751E+01
   0.236E-12 0.161E-12 0.927E+03   -.749E-10 0.857E-13 -.919E+03   0.137E-22 -.109E-23 -.751E+01
   -.244E-12 0.360E-12 0.927E+03   0.435E-11 0.991E-10 -.919E+03   0.193E-22 -.427E-23 -.751E+01
   0.316E-12 -.153E-10 -.927E+03   -.545E-10 0.890E-10 0.919E+03   -.158E-22 0.160E-24 0.751E+01
   -.265E-12 0.161E-12 -.927E+03   0.875E-13 0.546E-13 0.919E+03   -.218E-22 -.248E-23 0.751E+01
   0.226E-12 0.966E-11 0.927E+03   -.797E-10 -.471E-10 -.919E+03   0.184E-22 -.180E-22 -.751E+01
   -.246E-12 -.215E-11 0.927E+03   -.558E-11 0.243E-10 -.919E+03   0.170E-22 -.764E-23 -.751E+01
   0.301E-12 0.105E-10 -.927E+03   -.934E-10 0.267E-10 0.919E+03   -.222E-22 -.623E-24 0.751E+01
   -.304E-12 -.239E-11 -.927E+03   -.191E-10 -.447E-10 0.919E+03   -.250E-22 -.294E-23 0.751E+01
   0.216E-12 -.918E-11 0.927E+03   -.720E-10 -.686E-10 -.919E+03   0.223E-22 0.887E-23 -.751E+01
   -.224E-12 0.139E-11 0.927E+03   -.457E-13 0.941E-13 -.919E+03   0.157E-22 -.192E-23 -.751E+01
   0.307E-12 0.161E-10 -.927E+03   -.752E-10 -.200E-13 0.919E+03   -.202E-22 -.675E-24 0.751E+01
   -.285E-12 -.309E-11 -.927E+03   0.216E-10 -.786E-10 0.919E+03   -.263E-22 -.912E-23 0.751E+01
   0.244E-12 -.116E-10 0.927E+03   -.534E-10 0.832E-10 -.919E+03   0.124E-23 0.561E-23 -.751E+01
   -.208E-12 -.148E-11 0.927E+03   -.183E-10 -.378E-10 -.919E+03   0.153E-22 -.241E-23 -.751E+01
   0.323E-12 0.870E-11 -.927E+03   -.966E-10 -.403E-10 0.919E+03   -.193E-22 0.922E-25 0.751E+01
   -.257E-12 -.326E-11 -.927E+03   0.182E-10 0.826E-10 0.919E+03   -.210E-22 0.148E-23 0.751E+01
   0.238E-12 0.120E-10 0.927E+03   -.946E-10 0.252E-10 -.919E+03   0.776E-23 -.205E-23 -.751E+01
   -.213E-12 -.616E-11 0.927E+03   0.205E-10 -.784E-10 -.919E+03   0.137E-22 0.334E-23 -.751E+01
   0.317E-12 -.164E-10 -.927E+03   -.557E-10 -.683E-10 0.919E+03   -.883E-23 -.611E-23 0.751E+01
   -.241E-12 -.597E-12 -.927E+03   -.206E-10 0.335E-10 0.919E+03   -.247E-22 0.349E-23 0.751E+01
[...]
   0.545E-10 0.393E-10 0.697E+03   0.433E-10 0.495E-10 -.700E+03   0.580E-22 -.988E-22 0.348E+01
   0.314E-10 -.496E-10 0.697E+03   0.222E-11 -.613E-10 -.700E+03   0.292E-22 -.561E-22 0.348E+01
   0.546E-10 0.259E-10 -.697E+03   0.507E-10 -.136E-10 0.700E+03   0.824E-22 -.171E-21 -.348E+01
   0.313E-10 -.470E-11 -.697E+03   -.485E-11 0.104E-10 0.700E+03   -.145E-22 -.798E-22 -.348E+01
   0.545E-10 0.288E-10 0.697E+03   0.512E-10 -.166E-11 -.700E+03   0.971E-22 -.548E-22 0.348E+01
   0.314E-10 0.866E-10 0.697E+03   0.168E-11 -.149E-11 -.700E+03   -.864E-23 -.135E-21 0.348E+01
   0.546E-10 -.403E-10 -.697E+03   0.608E-10 0.120E-11 0.700E+03   0.126E-22 -.640E-22 -.348E+01
   0.314E-10 -.559E-10 -.697E+03   -.419E-11 -.488E-10 0.700E+03   0.305E-22 0.130E-22 -.348E+01
   0.545E-10 -.698E-10 0.697E+03   0.409E-10 -.598E-10 -.700E+03   0.637E-22 0.323E-22 0.348E+01
   0.314E-10 -.905E-10 0.697E+03   -.267E-12 0.700E-11 -.700E+03   0.435E-22 0.138E-21 0.348E+01
   0.546E-10 0.242E-10 -.697E+03   0.415E-10 0.415E-10 0.700E+03   0.417E-22 0.798E-22 -.348E+01
   0.314E-10 0.890E-10 -.697E+03   -.306E-11 -.298E-11 0.700E+03   0.583E-22 -.327E-22 -.348E+01
   0.545E-10 0.350E-10 0.697E+03   0.621E-10 0.568E-11 -.700E+03   0.272E-22 -.131E-23 0.348E+01
   0.314E-10 0.515E-10 0.697E+03   0.277E-12 0.562E-10 -.700E+03   -.832E-23 -.208E-22 0.348E+01
   0.105E-10 -.163E-10 -.860E-01   0.439E-11 -.322E-12 0.239E-11   0.661E-21 -.644E-21 0.864E-12

 POSITION                                       TOTAL-FORCE (eV/Angst)
      0.00000      0.00000      9.00000        -0.000000     -0.000000      0.498881
      2.11389      2.11389      9.00000         0.000000     -0.000000      0.498881
      0.00000      2.11389     11.11389        -0.000000      0.000000     -0.498881
      2.11389      0.00000     11.11389        -0.000000      0.000000     -0.498881
      0.00000      4.22777      9.00000        -0.000000      0.000000      0.498881
      2.11389      6.34166      9.00000        -0.000000      0.000000      0.498881
      0.00000      6.34166     11.11389        -0.000000      0.000000     -0.498881
      2.11389      4.22777     11.11389         0.000000      0.000000     -0.498881
      0.00000      8.45554      9.00000        -0.000000     -0.000000      0.498881
      2.11389     10.56943      9.00000        -0.000000     -0.000000      0.498881
      0.00000     10.56943     11.11389        -0.000000     -0.000000     -0.498881
      2.11389      8.45554     11.11389        -0.000000      0.000000     -0.498881
      0.00000     12.68331      9.00000        -0.000000     -0.000000      0.498881
      2.11389     14.79720      9.00000        -0.000000      0.000000      0.498881
      0.00000     14.79720     11.11389         0.000000      0.000000     -0.498881
      2.11389     12.68331     11.11389        -0.000000     -0.000000     -0.498881
      0.00000     16.91108      9.00000        -0.000000      0.000000      0.498881
      2.11389     19.02497      9.00000        -0.000000      0.000000      0.498881
      0.00000     19.02497     11.11389        -0.000000     -0.000000     -0.498881
      2.11389     16.91108     11.11389         0.000000     -0.000000     -0.498881
      4.22777      0.00000      9.00000         0.000000      0.000000      0.498881
      6.34166      2.11389      9.00000         0.000000      0.000000      0.498881
      4.22777      2.11389     11.11389        -0.000000      0.000000     -0.498881
      6.34166      0.00000     11.11389         0.000000      0.000000     -0.498881
      4.22777      4.22777      9.00000        -0.000000      0.000000      0.498881
      6.34166      6.34166      9.00000        -0.000000     -0.000000      0.498881
      4.22777      6.34166     11.11389        -0.000000      0.000000     -0.498881
      6.34166      4.22777     11.11389        -0.000000      0.000000     -0.498881
      4.22777      8.45554      9.00000        -0.000000     -0.000000      0.498881
      6.34166     10.56943      9.00000         0.000000     -0.000000      0.498881
      4.22777     10.56943     11.11389         0.000000      0.000000     -0.498881
      6.34166      8.45554     11.11389        -0.000000      0.000000     -0.498881
      4.22777     12.68331      9.00000         0.000000     -0.000000      0.498881
      6.34166     14.79720      9.00000         0.000000     -0.000000      0.498881
      4.22777     14.79720     11.11389         0.000000     -0.000000     -0.498881
      6.34166     12.68331     11.11389         0.000000      0.000000     -0.498881
      4.22777     16.91108      9.00000         0.000000     -0.000000      0.498881
      6.34166     19.02497      9.00000        -0.000000     -0.000000      0.498881
      4.22777     19.02497     11.11389         0.000000      0.000000     -0.498881
      6.34166     16.91108     11.11389         0.000000     -0.000000     -0.498881
      8.45554      0.00000      9.00000        -0.000000     -0.000000      0.498881
     10.56943      2.11389      9.00000        -0.000000     -0.000000      0.498881
      8.45554      2.11389     11.11389         0.000000      0.000000     -0.498881
     10.56943      0.00000     11.11389         0.000000      0.000000     -0.498881
      8.45554      4.22777      9.00000        -0.000000      0.000000      0.498881
     10.56943      6.34166      9.00000        -0.000000      0.000000      0.498881
      8.45554      6.34166     11.11389        -0.000000     -0.000000     -0.498881
     10.56943      4.22777     11.11389         0.000000      0.000000     -0.498881
      8.45554      8.45554      9.00000        -0.000000      0.000000      0.498881
     10.56943     10.56943      9.00000        -0.000000      0.000000      0.498881
      8.45554     10.56943     11.11389         0.000000      0.000000     -0.498881
     10.56943      8.45554     11.11389        -0.000000      0.000000     -0.498881
      8.45554     12.68331      9.00000         0.000000      0.000000      0.498881
     10.56943     14.79720      9.00000        -0.000000      0.000000      0.498881
      8.45554     14.79720     11.11389        -0.000000      0.000000     -0.498881
     10.56943     12.68331     11.11389        -0.000000      0.000000     -0.498881
      8.45554     16.91108      9.00000         0.000000     -0.000000      0.498881
     10.56943     19.02497      9.00000         0.000000     -0.000000      0.498881
      8.45554     19.02497     11.11389         0.000000     -0.000000     -0.498881
     10.56943     16.91108     11.11389        -0.000000      0.000000     -0.498881
[...]
     19.02497      6.34166     11.11389        -0.000000      0.000000      0.337089
     16.91108      6.34166      9.00000        -0.000000      0.000000     -0.337089
     19.02497      4.22777      9.00000         0.000000      0.000000     -0.337089
     16.91108      8.45554     11.11389        -0.000000     -0.000000      0.337089
     19.02497     10.56943     11.11389         0.000000     -0.000000      0.337089
     16.91108     10.56943      9.00000         0.000000      0.000000     -0.337089
     19.02497      8.45554      9.00000        -0.000000      0.000000     -0.337089
     16.91108     12.68331     11.11389        -0.000000     -0.000000      0.337089
     19.02497     14.79720     11.11389        -0.000000     -0.000000      0.337089
     16.91108     14.79720      9.00000        -0.000000     -0.000000     -0.337089
     19.02497     12.68331      9.00000         0.000000     -0.000000     -0.337089
     16.91108     16.91108     11.11389         0.000000      0.000000      0.337089
     19.02497     19.02497     11.11389         0.000000      0.000000      0.337089
     16.91108     19.02497      9.00000        -0.000000     -0.000000     -0.337089
     19.02497     16.91108      9.00000         0.000000     -0.000000     -0.337089
    total drift:                                0.000000     -0.000000     -0.086003

  FREE ENERGIE OF THE ION-ELECTRON SYSTEM (eV)
  free  energy   TOTEN  =     -1498.99062625 eV

  energy  without entropy=    -1498.99062625  energy(sigma->0) =    -1498.99062625