 vasp.6.3.0 20Jan22 (build Apr  1 2022 16:44:48) complex
 executed on        HPECrayEX_GCC date 2022.10.21  08:27:55

 INCAR:
   SYSTEM = MgO-rocksalt
   ISMEAR = 0
   SIGMA = 0.05
   EDIFF = 1E-6
   ALGO = ALL
   ISTART = 0
   IBRION = -1
   NSW = 0
   ISYM = 2
   DIPOL = 0.5 0.5 0.5
   IDIPOL = 3
   LDIPOL = .TRUE.
   LHFCALC = .TRUE.
   GGA = PE
   IVDW = 21
   VDW_SR = 0.96
   ENCUT = 520
   PREC = Accurate
   LASPH = .TRUE.
   LREAL = Auto
   ISPIN = 1
   NELM = 200
   NELMIN = 8
   NCORE = 4
   KPAR = 2
   LWAVE = .FALSE.
   LCHARG = .FALSE.

 POTCAR:    PAW_PBE Ag 02Apr2005
 POTCAR:    PAW_PBE Mg_pv 13Apr2007
 POTCAR:    PAW_PBE O 08Apr2002
|           W    W    AA    RRRRR   N    N  II  N    N   GGGG   !!!           |
|           W    W   A  A   R    R  NN   N  II  NN   N  G    G  !!!           |
|           W    W  A    A  R    R  N N  N  II  N N  N  G       !!!           |
|           W WW W  AAAAAA  RRRRR   N  N N  II  N  N N  G  GGG   !            |
|           WW  WW  A    A  R   R   N   NN  II  N   NN  G    G                |
|           W    W  A    A  R    R  N    N  II  N    N   GGGG   !!!           |
|     You have selected ISYM=2 for a HF type calculation. This will           |
|     symmetrize the charge density but not the exchange potential. I         |
|     suggest to use ISYM=3 instead. This uses symmetry to obtain the         |
|     orbitals at all k-points in the Brillouin zone, but does not apply      |
|     symmetry to the Hartree potential directly. The resultant charge        |
|     might have lower symmetry than the crystal but, at least, Hartree       |
|     and exchange are fully compatible.                                      |

   TITEL  = PAW_PBE Ag 02Apr2005
   POMASS =  107.868; ZVAL   =   11.000    mass and valenz
   ENMAX  =  249.844; ENMIN  =  187.383 eV

   TITEL  = PAW_PBE Mg_pv 13Apr2007
   POMASS =   24.305; ZVAL   =    8.000    mass and valenz
   ENMAX  =  403.929; ENMIN  =  302.947 eV

   TITEL  = PAW_PBE O 08Apr2002
   POMASS =   16.000; ZVAL   =    6.000    mass and valenz
   ENMAX  =  400.000; ENMIN  =  300.000 eV

 Optimization of the real space projectors (new method)

 maximal supplied QI-value         = 15.12
 optimisation between [QCUT,QGAM] = [ 11.64, 23.28] = [ 37.95,151.78] Ry
 Optimized for a Real-space Cutoff    1.45 Angstroem

   l    n(q)    QCUT    max X(q) W(low)/X(q) W(high)/X(q)  e(spline)
   2      9    11.641    53.897    0.22E-03    0.42E-04    0.28E-06
   2      9    11.641    52.416    0.23E-03    0.44E-04    0.29E-06
   0     10    11.641   122.045    0.51E-04    0.25E-04    0.16E-06
   0     10    11.641    73.629    0.49E-04    0.24E-04    0.16E-06
   1     10    11.641    15.255    0.99E-04    0.55E-04    0.11E-06
   1     10    11.641     9.562    0.81E-04    0.47E-04    0.95E-07
 Optimization of the real space projectors (new method)

[...]

   l    n(q)    QCUT    max X(q) W(low)/X(q) W(high)/X(q)  e(spline)
   1      8    11.527     2.974    0.44E-04    0.56E-04    0.12E-06
   1      8    11.527     4.279    0.12E-03    0.12E-03    0.26E-06
   0      9    11.527    16.381    0.46E-04    0.64E-04    0.78E-07
   0      9    11.527     5.611    0.26E-04    0.43E-04    0.55E-07
   2      8    11.527     4.652    0.22E-03    0.72E-04    0.47E-07
 Optimization of the real space projectors (new method)

 maximal supplied QI-value         = 24.76
 optimisation between [QCUT,QGAM] = [ 11.64, 23.27] = [ 37.91,151.63] Ry
 Optimized for a Real-space Cutoff    1.14 Angstroem

   l    n(q)    QCUT    max X(q) W(low)/X(q) W(high)/X(q)  e(spline)
   0      8    11.635    20.381    0.10E-03    0.33E-03    0.24E-06
   0      8    11.635    15.268    0.11E-03    0.35E-03    0.26E-06
   1      7    11.635     5.964    0.24E-03    0.31E-03    0.30E-06
   1      7    11.635     5.382    0.22E-03    0.25E-03    0.26E-06
  PAW_PBE Ag 02Apr2005                  :
  PAW_PBE Mg_pv 13Apr2007               :
  PAW_PBE O 08Apr2002                   :

 POSCAR: Ag Mg  O
  positions in direct lattice
 exchange correlation table for  LEXCH =        8
   RHO(1)=    0.500       N(1)  =     2000
   RHO(2)=  100.500       N(2)  =     4000

 ion  position               nearest neighbor table
   1  0.493  0.407  0.638-   2 2.57  54 2.99
   2  0.407  0.493  0.638-   1 2.57  53 2.99
   3  0.000  0.000  0.407- 105 2.11 106 2.11 121 2.11 186 2.11 103 2.11
   4  0.100  0.100  0.407- 105 2.11 106 2.11 110 2.11 125 2.11 104 2.11
   5  0.000  0.100  0.503- 103 2.11 104 2.11 107 2.11 184 2.11 105 2.11
   6  0.100  0.000  0.503- 103 2.11 104 2.11 120 2.11 123 2.11 106 2.11
   7  0.000  0.200  0.407- 109 2.11 105 2.11 110 2.11 190 2.11 107 2.11
   8  0.100  0.300  0.407- 110 2.11 109 2.11 114 2.11 129 2.11 108 2.11
   9  0.000  0.300  0.503- 107 2.11 108 2.11 111 2.11 188 2.11 109 2.11
  10  0.100  0.200  0.503- 108 2.11 107 2.11 104 2.11 127 2.11 110 2.11
  11  0.000  0.400  0.407- 109 2.11 113 2.11 114 2.11 194 2.11 111 2.11
  12  0.100  0.500  0.407- 113 2.11 114 2.11 118 2.11 133 2.11 112 2.11
  13  0.000  0.500  0.503- 111 2.11 112 2.11 115 2.11 192 2.11 113 2.11
  14  0.100  0.400  0.503- 108 2.11 111 2.11 112 2.11 131 2.11 114 2.11
  15  0.000  0.600  0.407- 113 2.11 117 2.11 118 2.11 198 2.11 115 2.11
  16  0.100  0.700  0.407- 122 2.11 118 2.11 117 2.11 137 2.11 116 2.11
  17  0.000  0.700  0.503- 119 2.11 116 2.11 115 2.11 196 2.11 117 2.11
  18  0.100  0.600  0.503- 112 2.11 115 2.11 116 2.11 135 2.11 118 2.11
  19  0.000  0.800  0.407- 117 2.11 121 2.11 122 2.11 202 2.11 119 2.11
  20  0.100  0.900  0.407- 106 2.11 121 2.11 122 2.11 141 2.11 120 2.11
  21  0.000  0.900  0.503- 103 2.11 119 2.11 120 2.11 200 2.11 121 2.11
  22  0.100  0.800  0.503- 116 2.11 119 2.11 120 2.11 139 2.11 122 2.11
  23  0.200  0.000  0.407- 126 2.11 125 2.11 106 2.11 141 2.11 123 2.11
  24  0.300  0.100  0.407- 125 2.11 126 2.11 130 2.11 145 2.11 124 2.11
  25  0.200  0.100  0.503- 124 2.11 123 2.11 104 2.11 127 2.11 125 2.11
  26  0.300  0.000  0.503- 123 2.11 124 2.11 140 2.11 143 2.11 126 2.11
  27  0.200  0.200  0.407- 129 2.11 130 2.11 110 2.11 125 2.11 127 2.11
  28  0.300  0.300  0.407- 129 2.11 130 2.11 134 2.11 149 2.11 128 2.11
  29  0.200  0.300  0.503- 127 2.11 128 2.11 108 2.11 131 2.11 129 2.11
  30  0.300  0.200  0.503- 127 2.11 128 2.11 124 2.11 147 2.11 130 2.11
  31  0.200  0.400  0.407- 134 2.11 129 2.11 133 2.11 114 2.11 131 2.11
  32  0.300  0.500  0.407- 133 2.11 134 2.11 138 2.11 153 2.11 132 2.11
  33  0.200  0.500  0.503- 132 2.11 131 2.11 112 2.11 135 2.11 133 2.11
  34  0.300  0.400  0.503- 131 2.11 128 2.11 132 2.11 151 2.11 134 2.11
  35  0.200  0.600  0.407- 138 2.11 133 2.11 137 2.11 118 2.11 135 2.11
  36  0.300  0.700  0.407- 137 2.11 142 2.11 138 2.11 157 2.11 136 2.11
  37  0.200  0.700  0.503- 136 2.11 139 2.11 116 2.11 135 2.11 137 2.11
  38  0.300  0.600  0.503- 135 2.11 132 2.11 136 2.11 155 2.11 138 2.11
  39  0.200  0.800  0.407- 137 2.11 142 2.11 141 2.11 122 2.11 139 2.11
  40  0.300  0.900  0.407- 141 2.11 126 2.11 142 2.11 161 2.11 140 2.11
  41  0.200  0.900  0.503- 140 2.11 123 2.11 139 2.11 120 2.11 141 2.11
  42  0.300  0.800  0.503- 136 2.11 139 2.11 140 2.11 159 2.11 142 2.11
  43  0.400  0.000  0.407- 126 2.11 145 2.11 146 2.11 161 2.11 143 2.11
  44  0.500  0.100  0.407- 145 2.11 146 2.11 150 2.11 165 2.11 144 2.11
  45  0.400  0.100  0.503- 124 2.11 143 2.11 144 2.11 147 2.11 145 2.11
  46  0.500  0.000  0.503- 143 2.11 144 2.11 160 2.11 163 2.11 146 2.11
  47  0.400  0.200  0.407- 149 2.11 145 2.11 130 2.11 150 2.11 147 2.11
  48  0.500  0.300  0.407- 150 2.11 149 2.11 154 2.11 169 2.11 148 2.11
  49  0.400  0.300  0.503- 147 2.11 128 2.11 148 2.11 151 2.11 149 2.11
  50  0.500  0.200  0.503- 148 2.11 147 2.11 144 2.11 167 2.11 150 2.11
  51  0.400  0.400  0.407- 134 2.11 149 2.11 153 2.11 154 2.11 151 2.11
  52  0.500  0.500  0.407- 153 2.11 154 2.11 158 2.11 173 2.11 152 2.11
  53  0.400  0.500  0.503- 132 2.11 151 2.11 152 2.11 155 2.11 153 2.11   2 2.99
  54  0.500  0.400  0.503- 148 2.11 151 2.11 152 2.11 171 2.11 154 2.11   1 2.99
  55  0.400  0.600  0.407- 138 2.11 153 2.11 157 2.11 158 2.11 155 2.11
  56  0.500  0.700  0.407- 162 2.11 158 2.11 157 2.11 177 2.11 156 2.11
  57  0.400  0.700  0.503- 159 2.11 155 2.11 156 2.11 136 2.11 157 2.11
  58  0.500  0.600  0.503- 152 2.11 155 2.11 156 2.11 175 2.11 158 2.11
  59  0.400  0.800  0.407- 157 2.11 142 2.11 161 2.11 162 2.11 159 2.11
  60  0.500  0.900  0.407- 146 2.11 161 2.11 162 2.11 181 2.11 160 2.11
[...]
 188  0.900  0.300  0.503-  90 2.11  89 2.11   9 2.11  94 2.11  88 2.11
 189  0.800  0.300  0.407-  68 2.11  87 2.11  88 2.11  91 2.11  89 2.11
 190  0.900  0.200  0.407-  88 2.11  84 2.11  87 2.11   7 2.11  90 2.11
 191  0.800  0.400  0.503-  74 2.11  89 2.11  93 2.11  94 2.11  91 2.11
 192  0.900  0.500  0.503-  13 2.11  93 2.11  94 2.11  98 2.11  92 2.11
 193  0.800  0.500  0.407-  72 2.11  91 2.11  92 2.11  95 2.11  93 2.11
 194  0.900  0.400  0.407-  11 2.11  88 2.11  91 2.11  92 2.11  94 2.11
 195  0.800  0.600  0.503-  78 2.11  93 2.11  97 2.11  98 2.11  95 2.11
 196  0.900  0.700  0.503- 102 2.11  97 2.11  98 2.11  17 2.11  96 2.11
 197  0.800  0.700  0.407-  76 2.11  99 2.11  96 2.11  95 2.11  97 2.11
 198  0.900  0.600  0.407-  15 2.11  92 2.11  95 2.11  96 2.11  98 2.11
 199  0.800  0.800  0.503-  82 2.11  97 2.11 101 2.11 102 2.11  99 2.11
 200  0.900  0.900  0.503-  21 2.11  86 2.11 101 2.11 102 2.11 100 2.11
 201  0.800  0.900  0.407-  80 2.11  83 2.11  99 2.11 100 2.11 101 2.11
 202  0.900  0.800  0.407-  96 2.11  19 2.11  99 2.11 100 2.11 102 2.11

  LATTYP: Found a simple tetragonal cell.
 ALAT       =    21.1388521970
 C/A-ratio  =     1.0461251639

  Lattice vectors:

 A1 = (  21.1388521970,   0.0000000000,   0.0000000000)
 A2 = (   0.0000000000,  21.1388521970,   0.0000000000)
 A3 = (   0.0000000000,   0.0000000000,  22.1138852197)

Analysis of symmetry for initial positions (statically):
 Subroutine PRICEL returns:
 Original cell was already a primitive cell.

 Routine SETGRP: Setting up the symmetry group for a
 simple tetragonal supercell.

 Subroutine GETGRP returns: Found  4 space group operations
 (whereof  2 operations were pure point group operations)
 out of a pool of 16 trial point group operations.

The static configuration has the point symmetry C_1h.
 The point group associated with its full space group is C_2v.

Analysis of symmetry for dynamics (positions and initial velocities):
 Subroutine PRICEL returns:
 Original cell was already a primitive cell.

 Routine SETGRP: Setting up the symmetry group for a
 simple tetragonal supercell.

 Subroutine GETGRP returns: Found  4 space group operations
 (whereof  2 operations were pure point group operations)
 out of a pool of 16 trial point group operations.

The dynamic configuration has the point symmetry C_1h.
 The point group associated with its full space group is C_2v.

 Subroutine INISYM returns: Found  4 space group operations
 (whereof  2 operations are pure point group operations),
 and found     1 'primitive' translations

                                     Primitive cell

  volume of cell :    9881.6133

[...]
   Mg          1.376          1.540          3.326          0.04684527
   Mg          1.376          1.540          3.326          0.04684527
   Mg          1.383          1.541          3.335          0.04696702
   Mg          1.383          1.541          3.335          0.04696702
   Mg          1.377          1.540          3.327          0.04686174
   Mg          1.378          1.540          3.328          0.04687531
   Mg          1.379          1.540          3.330          0.04690069
   Mg          1.374          1.539          3.324          0.04681684
   Mg          1.377          1.540          3.328          0.04687141
   Mg          1.377          1.540          3.328          0.04687127
[...]
   O         199.761          4.885         19.323          3.57842356
   O         199.524          4.884         19.312          3.57629717
   O         199.555          4.884         19.314          3.57657951
   O         199.993          4.886         19.335          3.58049863
   O         199.735          4.885         19.322          3.57818645
   O         199.570          4.884         19.314          3.57671084
   O         199.554          4.884         19.313          3.57656696
   O         199.719          4.885         19.321          3.57804640
   O         199.730          4.885         19.322          3.57814694
   O         199.584          4.884         19.315          3.57683311
   O         199.565          4.884         19.314          3.57666974
   O         199.726          4.885         19.322          3.57811240
   O         199.741          4.885         19.323          3.57824783
   O         199.571          4.884         19.314          3.57672365
   O         199.571          4.884         19.314          3.57672361

  vdW correction parametrized for the method         

  IVDW =  21
  VDW_RADIUS =    50.000 A
  VDW_IDAMPF =  0
  VDW_S6 =     1.000
  VDW_SR =     0.960
  VDW_D =    20.000
  LVDW_ONECELL = F F F
  LVDW_SAMETYPE T T T
  LVDW_EWALD = F

  Number of pair interactions contributing to vdW energy: 1096995
  Edisp (eV):   -7.02605

 VOLUME and BASIS-vectors are now :
  energy-cutoff  :      520.00
  volume of cell :     9881.61
      direct lattice vectors                 reciprocal lattice vectors
    21.138852197  0.000000000  0.000000000     0.047306258  0.000000000  0.000000000
     0.000000000 21.138852197  0.000000000     0.000000000  0.047306258  0.000000000
     0.000000000  0.000000000 22.113885220     0.000000000  0.000000000  0.045220457

  length of vectors
    21.138852197 21.138852197 22.113885220     0.047306258  0.047306258  0.045220457

 FORCES acting on ions:
    Electron-Ion                     Ewald-Force                    Non-Local-Force
   -.190E+03 0.190E+03 -.198E+04   0.185E+03 -.185E+03 0.198E+04   0.548E+01 -.548E+01 0.161E+00
   0.190E+03 -.190E+03 -.198E+04   -.185E+03 0.185E+03 0.198E+04   -.548E+01 0.548E+01 0.161E+00
   0.171E+01 0.171E+01 0.932E+03   -.170E+01 -.170E+01 -.923E+03   -.203E-02 -.203E-02 -.709E+01
   0.612E+01 0.612E+01 0.934E+03   -.611E+01 -.611E+01 -.925E+03   -.514E-02 -.514E-02 -.709E+01
   0.258E+01 0.593E+01 -.923E+03   -.256E+01 -.593E+01 0.914E+03   -.870E-02 -.114E-02 0.707E+01
   0.593E+01 0.258E+01 -.923E+03   -.593E+01 -.256E+01 0.914E+03   -.114E-02 -.870E-02 0.707E+01
   0.287E+01 0.628E+01 0.934E+03   -.285E+01 -.629E+01 -.926E+03   -.107E-01 0.969E-03 -.709E+01
   0.126E+02 0.789E+01 0.939E+03   -.126E+02 -.790E+01 -.931E+03   -.136E-01 0.732E-02 -.709E+01
   0.567E+01 0.707E+01 -.920E+03   -.566E+01 -.707E+01 0.911E+03   -.135E-01 0.352E-02 0.707E+01
   0.124E+02 0.115E+02 -.919E+03   -.124E+02 -.115E+02 0.911E+03   -.166E-01 -.120E-02 0.707E+01
   0.510E+01 0.230E+01 0.937E+03   -.509E+01 -.230E+01 -.929E+03   -.356E-02 0.410E-02 -.709E+01
   0.163E+02 -.260E+01 0.943E+03   -.163E+02 0.258E+01 -.934E+03   0.172E-01 0.113E-01 -.708E+01
   0.808E+01 -.253E+01 -.919E+03   -.810E+01 0.252E+01 0.910E+03   0.100E-01 0.378E-02 0.707E+01
   0.249E+02 0.574E+01 -.913E+03   -.249E+02 -.577E+01 0.905E+03   -.593E-02 0.180E-01 0.707E+01
   0.485E+01 -.535E+01 0.936E+03   -.487E+01 0.534E+01 -.928E+03   0.132E-01 0.147E-03 -.709E+01
   0.986E+01 -.883E+01 0.937E+03   -.988E+01 0.884E+01 -.929E+03   0.138E-01 -.571E-02 -.708E+01
   0.514E+01 -.811E+01 -.921E+03   -.516E+01 0.812E+01 0.913E+03   0.162E-01 -.267E-02 0.707E+01
   0.213E+02 -.109E+02 -.915E+03   -.213E+02 0.109E+02 0.906E+03   0.352E-01 0.304E-02 0.708E+01
   0.259E+01 -.494E+01 0.933E+03   -.260E+01 0.495E+01 -.924E+03   0.778E-02 -.318E-02 -.709E+01
   0.494E+01 -.259E+01 0.933E+03   -.495E+01 0.260E+01 -.924E+03   0.318E-02 -.778E-02 -.709E+01
   0.236E+01 -.236E+01 -.923E+03   -.237E+01 0.237E+01 0.915E+03   0.349E-02 -.349E-02 0.707E+01
   0.889E+01 -.889E+01 -.921E+03   -.890E+01 0.890E+01 0.913E+03   0.112E-01 -.112E-01 0.707E+01
   0.628E+01 0.287E+01 0.934E+03   -.629E+01 -.285E+01 -.926E+03   0.969E-03 -.107E-01 -.709E+01
   0.789E+01 0.126E+02 0.939E+03   -.790E+01 -.126E+02 -.931E+03   0.732E-02 -.136E-01 -.709E+01
   0.115E+02 0.124E+02 -.919E+03   -.115E+02 -.124E+02 0.911E+03   -.120E-02 -.166E-01 0.707E+01
   0.707E+01 0.567E+01 -.920E+03   -.707E+01 -.566E+01 0.911E+03   0.352E-02 -.135E-01 0.707E+01
   0.131E+02 0.131E+02 0.941E+03   -.131E+02 -.131E+02 -.932E+03   -.629E-02 -.629E-02 -.709E+01
   0.215E+02 0.215E+02 0.962E+03   -.215E+02 -.215E+02 -.953E+03   0.104E-02 0.104E-02 -.713E+01
   0.332E+02 0.221E+02 -.906E+03   -.331E+02 -.221E+02 0.898E+03   -.492E-01 0.170E-01 0.706E+01
   0.221E+02 0.332E+02 -.906E+03   -.221E+02 -.331E+02 0.898E+03   0.170E-01 -.492E-01 0.706E+01
   0.258E+02 0.680E+01 0.954E+03   -.257E+02 -.685E+01 -.946E+03   -.193E-01 0.318E-01 -.708E+01
   0.299E+02 -.818E+01 0.979E+03   -.298E+02 0.812E+01 -.971E+03   -.434E-01 0.415E-01 -.695E+01
   0.521E+02 -.742E+01 -.893E+03   -.522E+02 0.736E+01 0.885E+03   0.829E-01 0.415E-01 0.709E+01
   0.745E+02 0.331E+02 -.850E+03   -.743E+02 -.333E+02 0.842E+03   -.157E+00 0.151E+00 0.700E+01
   0.212E+02 -.129E+02 0.950E+03   -.212E+02 0.129E+02 -.942E+03   0.175E-01 -.851E-03 -.706E+01
   0.129E+02 -.212E+02 0.950E+03   -.129E+02 0.212E+02 -.942E+03   0.851E-03 -.175E-01 -.706E+01
   0.220E+02 -.220E+02 -.912E+03   -.221E+02 0.221E+02 0.904E+03   0.259E-01 -.259E-01 0.708E+01
   0.498E+02 -.498E+02 -.871E+03   -.499E+02 0.499E+02 0.862E+03   0.563E-01 -.563E-01 0.713E+01
   0.883E+01 -.986E+01 0.937E+03   -.884E+01 0.988E+01 -.929E+03   0.571E-02 -.138E-01 -.708E+01
   0.535E+01 -.485E+01 0.936E+03   -.534E+01 0.487E+01 -.928E+03   -.147E-03 -.132E-01 -.709E+01
   0.811E+01 -.514E+01 -.921E+03   -.812E+01 0.516E+01 0.913E+03   0.267E-02 -.162E-01 0.707E+01
   0.109E+02 -.213E+02 -.915E+03   -.109E+02 0.213E+02 0.906E+03   -.304E-02 -.352E-01 0.708E+01
   0.230E+01 0.510E+01 0.937E+03   -.230E+01 -.509E+01 -.929E+03   0.410E-02 -.356E-02 -.709E+01
   -.260E+01 0.163E+02 0.943E+03   0.258E+01 -.163E+02 -.934E+03   0.113E-01 0.172E-01 -.708E+01
   0.574E+01 0.249E+02 -.913E+03   -.577E+01 -.249E+02 0.905E+03   0.180E-01 -.593E-02 0.707E+01
   -.253E+01 0.808E+01 -.919E+03   0.252E+01 -.810E+01 0.910E+03   0.378E-02 0.100E-01 0.707E+01
   0.680E+01 0.258E+02 0.954E+03   -.685E+01 -.257E+02 -.946E+03   0.318E-01 -.193E-01 -.708E+01
   -.818E+01 0.299E+02 0.979E+03   0.812E+01 -.298E+02 -.971E+03   0.415E-01 -.434E-01 -.695E+01
   0.331E+02 0.745E+02 -.850E+03   -.333E+02 -.743E+02 0.842E+03   0.151E+00 -.157E+00 0.700E+01
   -.742E+01 0.521E+02 -.893E+03   0.736E+01 -.522E+02 0.885E+03   0.415E-01 0.829E-01 0.709E+01
   0.154E+02 0.154E+02 0.100E+04   -.154E+02 -.154E+02 -.992E+03   0.809E-02 0.809E-02 -.726E+01
   -.154E+02 -.154E+02 0.100E+04   0.154E+02 0.154E+02 -.992E+03   -.809E-02 -.809E-02 -.726E+01
   0.431E+02 -.431E+02 -.732E+03   -.426E+02 0.426E+02 0.724E+03   -.298E+00 0.298E+00 0.607E+01
   -.431E+02 0.431E+02 -.732E+03   0.426E+02 -.426E+02 0.724E+03   0.298E+00 -.298E+00 0.607E+01
   0.818E+01 -.299E+02 0.979E+03   -.812E+01 0.298E+02 -.971E+03   -.415E-01 0.434E-01 -.695E+01
   -.680E+01 -.258E+02 0.954E+03   0.685E+01 0.257E+02 -.946E+03   -.318E-01 0.193E-01 -.708E+01
   0.742E+01 -.521E+02 -.893E+03   -.736E+01 0.522E+02 0.885E+03   -.415E-01 -.829E-01 0.709E+01
   -.331E+02 -.745E+02 -.850E+03   0.333E+02 0.743E+02 0.842E+03   -.151E+00 0.157E+00 0.700E+01
   0.260E+01 -.163E+02 0.943E+03   -.258E+01 0.163E+02 -.934E+03   -.113E-01 -.172E-01 -.708E+01
   -.230E+01 -.510E+01 0.937E+03   0.230E+01 0.509E+01 -.929E+03   -.410E-02 0.356E-02 -.709E+01
[...]
   -.103E+02 0.568E+01 0.706E+03   0.103E+02 -.568E+01 -.710E+03   -.186E-01 -.534E-03 0.311E+01
   -.278E+01 0.478E+01 0.702E+03   0.278E+01 -.478E+01 -.706E+03   -.112E-01 0.294E-02 0.310E+01
   -.196E+02 0.270E+01 -.686E+03   0.197E+02 -.268E+01 0.690E+03   -.171E-01 -.197E-01 -.310E+01
   -.559E+01 -.230E+01 -.690E+03   0.559E+01 0.231E+01 0.694E+03   0.264E-02 -.623E-02 -.311E+01
   -.118E+02 -.279E+01 0.708E+03   0.118E+02 0.280E+01 -.712E+03   0.239E-02 -.170E-01 0.310E+01
   -.409E+01 0.148E+01 0.704E+03   0.410E+01 -.148E+01 -.708E+03   -.606E-02 -.355E-02 0.310E+01
   -.141E+02 -.846E+01 -.688E+03   0.141E+02 0.847E+01 0.692E+03   0.130E-01 -.847E-02 -.312E+01
   -.286E+01 -.596E+01 -.692E+03   0.285E+01 0.596E+01 0.696E+03   0.109E-01 -.621E-03 -.311E+01
   -.668E+01 -.637E+01 0.703E+03   0.667E+01 0.636E+01 -.707E+03   0.105E-01 0.241E-02 0.310E+01
   -.302E+01 -.410E+01 0.703E+03   0.301E+01 0.410E+01 -.707E+03   0.853E-02 -.325E-02 0.310E+01
   -.597E+01 -.597E+01 -.692E+03   0.596E+01 0.596E+01 0.696E+03   0.775E-02 0.775E-02 -.311E+01
   -.157E+01 -.157E+01 -.694E+03   0.156E+01 0.156E+01 0.698E+03   0.239E-02 0.239E-02 -.311E+01
   -.358E+01 -.153E+01 0.701E+03   0.358E+01 0.152E+01 -.705E+03   0.101E-02 0.655E-02 0.310E+01
   -.153E+01 -.358E+01 0.701E+03   0.152E+01 0.358E+01 -.705E+03   0.655E-02 0.101E-02 0.310E+01
   -.306E-01 0.150E-01 0.490E+01   0.129E-11 0.142E-11 0.716E-11   0.670E-15 0.670E-15 -.473E+01

 POSITION                                       TOTAL-FORCE (eV/Angst)
     10.42106      8.60391     14.09831         0.042976     -0.042976      0.088687
      8.60390     10.42106     14.09831        -0.042976      0.042976      0.088687
      0.00000      0.00000      9.00000         0.000647      0.000647      0.565478
      2.11389      2.11389      9.00000         0.001711      0.001711      0.565993
      0.00000      2.11389     11.11389         0.002762      0.000397     -0.564459
      2.11389      0.00000     11.11389         0.000397      0.002762     -0.564459
      0.00000      4.22777      9.00000         0.003331     -0.000281      0.565476
      2.11389      6.34166      9.00000         0.004035     -0.002313      0.566028
      0.00000      6.34166     11.11389         0.004238     -0.001136     -0.564181
      2.11389      4.22777     11.11389         0.005349      0.000627     -0.563253
      0.00000      8.45554      9.00000         0.001022     -0.001393      0.565084
      2.11389     10.56943      9.00000        -0.005178     -0.003878      0.564167
      0.00000     10.56943     11.11389        -0.003101     -0.001296     -0.564776
      2.11389      8.45554     11.11389         0.001816     -0.006197     -0.563781
      0.00000     12.68331      9.00000        -0.004042     -0.000014      0.564729
      2.11389     14.79720      9.00000        -0.004494      0.002024      0.563406
      0.00000     14.79720     11.11389        -0.005113      0.000926     -0.565007
      2.11389     12.68331     11.11389        -0.011380     -0.000798     -0.567087
      0.00000     16.91108      9.00000        -0.002480      0.001043      0.565054
      2.11389     19.02497      9.00000        -0.001043      0.002480      0.565054
      0.00000     19.02497     11.11389        -0.001114      0.001114     -0.564761
      2.11389     16.91108     11.11389        -0.003619      0.003619     -0.565463
      4.22777      0.00000      9.00000        -0.000281      0.003331      0.565476
      6.34166      2.11389      9.00000        -0.002313      0.004035      0.566028
      4.22777      2.11389     11.11389         0.000627      0.005349     -0.563253
      6.34166      0.00000     11.11389        -0.001136      0.004238     -0.564181
      4.22777      4.22777      9.00000         0.002408      0.002408      0.568333
      6.34166      6.34166      9.00000         0.001383      0.001383      0.578744
      4.22777      6.34166     11.11389         0.016502     -0.004174     -0.557546
      6.34166      4.22777     11.11389        -0.004174      0.016502     -0.557546
      4.22777      8.45554      9.00000         0.003996     -0.011562      0.564007
      6.34166     10.56943      9.00000         0.014786     -0.014820      0.524240
      4.22777     10.56943     11.11389        -0.033840     -0.015349     -0.570947
      6.34166      8.45554     11.11389         0.061756     -0.047359     -0.512502
      4.22777     12.68331      9.00000        -0.006333      0.001213      0.557026
      6.34166     14.79720      9.00000        -0.001213      0.006333      0.557026
      4.22777     14.79720     11.11389        -0.008964      0.008964     -0.570124
      6.34166     12.68331     11.11389        -0.020878      0.020878     -0.601668
      4.22777     16.91108      9.00000        -0.002024      0.004494      0.563406
      6.34166     19.02497      9.00000         0.000014      0.004042      0.564729
      4.22777     19.02497     11.11389        -0.000926      0.005113     -0.565007
      6.34166     16.91108     11.11389         0.000798      0.011380     -0.567087
      8.45554      0.00000      9.00000        -0.001393      0.001022      0.565084
     10.56943      2.11389      9.00000        -0.003878     -0.005178      0.564167
      8.45554      2.11389     11.11389        -0.006197      0.001816     -0.563781
     10.56943      0.00000     11.11389        -0.001296     -0.003101     -0.564776
      8.45554      4.22777      9.00000        -0.011562      0.003996      0.564007
     10.56943      6.34166      9.00000        -0.014820      0.014786      0.524240
      8.45554      6.34166     11.11389        -0.047359      0.061756     -0.512502
     10.56943      4.22777     11.11389        -0.015349     -0.033840     -0.570947
      8.45554      8.45554      9.00000        -0.000271     -0.000271      0.594053
     10.56943     10.56943      9.00000         0.000271      0.000271      0.594053
      8.45554     10.56943     11.11389         0.134333     -0.134333     -0.545750
     10.56943      8.45554     11.11389        -0.134333      0.134333     -0.545750
      8.45554     12.68331      9.00000         0.014820     -0.014786      0.524240
     10.56943     14.79720      9.00000         0.011562     -0.003996      0.564007
      8.45554     14.79720     11.11389         0.015349      0.033840     -0.570947
     10.56943     12.68331     11.11389         0.047359     -0.061756     -0.512502
      8.45554     16.91108      9.00000         0.003878      0.005178      0.564167
     10.56943     19.02497      9.00000         0.001393     -0.001022      0.565084
[...]
     19.02497      6.34166     11.11389        -0.004558      0.000131      0.423862
     16.91108      6.34166      9.00000        -0.006180     -0.000272     -0.421535
     19.02497      4.22777      9.00000        -0.003745      0.001011     -0.423702
     16.91108      8.45554     11.11389        -0.006920     -0.006423      0.425449
     19.02497     10.56943     11.11389         0.000683     -0.002124      0.423162
     16.91108     10.56943      9.00000         0.000769     -0.005557     -0.424398
     19.02497      8.45554      9.00000        -0.002084     -0.001152     -0.423598
     16.91108     12.68331     11.11389         0.003707     -0.003108      0.421558
     19.02497     14.79720     11.11389         0.003555     -0.000281      0.422975
     16.91108     14.79720      9.00000         0.003461      0.000748     -0.425240
     19.02497     12.68331      9.00000         0.002807     -0.001114     -0.424324
     16.91108     16.91108     11.11389         0.002460      0.002460      0.422514
     19.02497     19.02497     11.11389         0.000783      0.000783      0.423259
     16.91108     19.02497      9.00000         0.000298      0.002159     -0.424383
     19.02497     16.91108      9.00000         0.002159      0.000298     -0.424383
    total drift:                               -0.030626      0.015034     -0.523328

  FREE ENERGIE OF THE ION-ELECTRON SYSTEM (eV)
  free  energy   TOTEN  =     -1429.46896366 eV

  energy  without entropy=    -1429.46896366  energy(sigma->0) =    -1429.46896366