 vasp.6.4.0 14Feb23 (build Jul 14 2023 13:46:40) complex

 executed on             LinuxIFC date 2023.07.30  06:17:24

 INCAR:
   SYSTEM = MgO-rocksalt
   ISMEAR = 0
   SIGMA = 0.05
   EDIFF = 1E-6
   ALGO = ALL
   ISTART = 0
   IBRION = -1
   NSW = 0
   ISYM = 2
   DIPOL = 0.5 0.5 0.5
   IDIPOL = 3
   LDIPOL = .TRUE.
   METAGGA = TPSS
   ENCUT = 520
   PREC = Accurate
   LASPH = .TRUE.
   LREAL = Auto
   ISPIN = 1
   NELM = 200
   NELMIN = 8
   NCORE = 16
   KPAR = 1
   LWAVE = .FALSE.
   LCHARG = .FALSE.

 POTCAR:    PAW_PBE Cu 22Jun2005
 POTCAR:    PAW_PBE Mg_pv 13Apr2007
 POTCAR:    PAW_PBE O 08Apr2002
 POTCAR:    PAW_PBE Cu 22Jun2005
   VRHFIN =Cu: d10 p1

   TITEL  = PAW_PBE Cu 22Jun2005
   POMASS =   63.546; ZVAL   =   11.000    mass and valenz
   ENMAX  =  295.446; ENMIN  =  221.585 eV

   TITEL  = PAW_PBE Mg_pv 13Apr2007
   POMASS =   24.305; ZVAL   =    8.000    mass and valenz
   ENMAX  =  403.929; ENMIN  =  302.947 eV

   TITEL  = PAW_PBE O 08Apr2002
   POMASS =   16.000; ZVAL   =    6.000    mass and valenz
   ENMAX  =  400.000; ENMIN  =  300.000 eV

 Optimization of the real space projectors (new method)

 maximal supplied QI-value         = 16.25
 optimisation between [QCUT,QGAM] = [ 11.54, 23.24] = [ 37.28,151.24] Ry
 Optimized for a Real-space Cutoff    1.53 Angstroem

   l    n(q)    QCUT    max X(q) W(low)/X(q) W(high)/X(q)  e(spline)
   2     10    11.539     4.610    0.96E-04    0.13E-03    0.19E-06
   2     10    11.539     8.522    0.16E-03    0.21E-03    0.28E-06
   0     11    11.539    51.609    0.45E-04    0.31E-04    0.11E-06
   0     11    11.539    27.747    0.39E-04    0.29E-04    0.10E-06
   1     10    11.539    20.408    0.70E-05    0.38E-04    0.18E-06
   1     10    11.539    13.425    0.66E-05    0.34E-04    0.17E-06
 Optimization of the real space projectors (new method)

[...]

   l    n(q)    QCUT    max X(q) W(low)/X(q) W(high)/X(q)  e(spline)
   1      8    11.527     2.974    0.44E-04    0.56E-04    0.12E-06
   1      8    11.527     4.279    0.12E-03    0.12E-03    0.26E-06
   0      9    11.527    16.381    0.46E-04    0.64E-04    0.78E-07
   0      9    11.527     5.611    0.26E-04    0.43E-04    0.55E-07
   2      8    11.527     4.652    0.22E-03    0.72E-04    0.47E-07
 Optimization of the real space projectors (new method)

 maximal supplied QI-value         = 24.76
 optimisation between [QCUT,QGAM] = [ 11.64, 23.27] = [ 37.91,151.63] Ry
 Optimized for a Real-space Cutoff    1.14 Angstroem

   l    n(q)    QCUT    max X(q) W(low)/X(q) W(high)/X(q)  e(spline)
   0      8    11.635    20.381    0.10E-03    0.33E-03    0.24E-06
   0      8    11.635    15.268    0.11E-03    0.35E-03    0.26E-06
   1      7    11.635     5.964    0.24E-03    0.31E-03    0.30E-06
   1      7    11.635     5.382    0.22E-03    0.25E-03    0.26E-06
  PAW_PBE Cu 22Jun2005                  :
  PAW_PBE Mg_pv 13Apr2007               :
  PAW_PBE O 08Apr2002                   :

 POSCAR: Cu Mg  O
  positions in direct lattice

 METAGGA = TPSS                                        LMAXTAU =  6    LMIXTAU =  F

 ion  position               nearest neighbor table
   1  0.538  0.462  0.618-   2 2.25
   2  0.462  0.538  0.618-   1 2.25
   3  0.000  0.000  0.407- 105 2.11 106 2.11 121 2.11 186 2.11 103 2.11
   4  0.100  0.100  0.407- 105 2.11 106 2.11 110 2.11 125 2.11 104 2.11
   5  0.000  0.100  0.503- 103 2.11 104 2.11 107 2.11 184 2.11 105 2.11
   6  0.100  0.000  0.503- 103 2.11 104 2.11 120 2.11 123 2.11 106 2.11
   7  0.000  0.200  0.407- 109 2.11 105 2.11 110 2.11 190 2.11 107 2.11
   8  0.100  0.300  0.407- 110 2.11 109 2.11 114 2.11 129 2.11 108 2.11
   9  0.000  0.300  0.503- 107 2.11 108 2.11 111 2.11 188 2.11 109 2.11
  10  0.100  0.200  0.503- 108 2.11 107 2.11 104 2.11 127 2.11 110 2.11
  11  0.000  0.400  0.407- 109 2.11 113 2.11 114 2.11 194 2.11 111 2.11
  12  0.100  0.500  0.407- 113 2.11 114 2.11 118 2.11 133 2.11 112 2.11
  13  0.000  0.500  0.503- 111 2.11 112 2.11 115 2.11 192 2.11 113 2.11
  14  0.100  0.400  0.503- 108 2.11 111 2.11 112 2.11 131 2.11 114 2.11
  15  0.000  0.600  0.407- 113 2.11 117 2.11 118 2.11 198 2.11 115 2.11
  16  0.100  0.700  0.407- 122 2.11 118 2.11 117 2.11 137 2.11 116 2.11
  17  0.000  0.700  0.503- 119 2.11 116 2.11 115 2.11 196 2.11 117 2.11
  18  0.100  0.600  0.503- 112 2.11 115 2.11 116 2.11 135 2.11 118 2.11
  19  0.000  0.800  0.407- 117 2.11 121 2.11 122 2.11 202 2.11 119 2.11
  20  0.100  0.900  0.407- 106 2.11 121 2.11 122 2.11 141 2.11 120 2.11
  21  0.000  0.900  0.503- 103 2.11 119 2.11 120 2.11 200 2.11 121 2.11
  22  0.100  0.800  0.503- 116 2.11 119 2.11 120 2.11 139 2.11 122 2.11
  23  0.200  0.000  0.407- 126 2.11 125 2.11 106 2.11 141 2.11 123 2.11
  24  0.300  0.100  0.407- 125 2.11 126 2.11 130 2.11 145 2.11 124 2.11
  25  0.200  0.100  0.503- 124 2.11 123 2.11 104 2.11 127 2.11 125 2.11
  26  0.300  0.000  0.503- 123 2.11 124 2.11 140 2.11 143 2.11 126 2.11
  27  0.200  0.200  0.407- 129 2.11 130 2.11 110 2.11 125 2.11 127 2.11
  28  0.300  0.300  0.407- 129 2.11 130 2.11 134 2.11 149 2.11 128 2.11
  29  0.200  0.300  0.503- 127 2.11 128 2.11 108 2.11 131 2.11 129 2.11
  30  0.300  0.200  0.503- 127 2.11 128 2.11 124 2.11 147 2.11 130 2.11
  31  0.200  0.400  0.407- 134 2.11 129 2.11 133 2.11 114 2.11 131 2.11
  32  0.300  0.500  0.407- 133 2.11 134 2.11 138 2.11 153 2.11 132 2.11
  33  0.200  0.500  0.503- 132 2.11 131 2.11 112 2.11 135 2.11 133 2.11
  34  0.300  0.400  0.503- 131 2.11 128 2.11 132 2.11 151 2.11 134 2.11
  35  0.200  0.600  0.407- 138 2.11 133 2.11 137 2.11 118 2.11 135 2.11
  36  0.300  0.700  0.407- 137 2.11 142 2.11 138 2.11 157 2.11 136 2.11
  37  0.200  0.700  0.503- 136 2.11 139 2.11 116 2.11 135 2.11 137 2.11
  38  0.300  0.600  0.503- 135 2.11 132 2.11 136 2.11 155 2.11 138 2.11
  39  0.200  0.800  0.407- 137 2.11 142 2.11 141 2.11 122 2.11 139 2.11
  40  0.300  0.900  0.407- 141 2.11 126 2.11 142 2.11 161 2.11 140 2.11
  41  0.200  0.900  0.503- 140 2.11 123 2.11 139 2.11 120 2.11 141 2.11
  42  0.300  0.800  0.503- 136 2.11 139 2.11 140 2.11 159 2.11 142 2.11
  43  0.400  0.000  0.407- 126 2.11 145 2.11 146 2.11 161 2.11 143 2.11
  44  0.500  0.100  0.407- 145 2.11 146 2.11 150 2.11 165 2.11 144 2.11
  45  0.400  0.100  0.503- 124 2.11 143 2.11 144 2.11 147 2.11 145 2.11
  46  0.500  0.000  0.503- 143 2.11 144 2.11 160 2.11 163 2.11 146 2.11
  47  0.400  0.200  0.407- 149 2.11 145 2.11 130 2.11 150 2.11 147 2.11
  48  0.500  0.300  0.407- 150 2.11 149 2.11 154 2.11 169 2.11 148 2.11
  49  0.400  0.300  0.503- 147 2.11 128 2.11 148 2.11 151 2.11 149 2.11
  50  0.500  0.200  0.503- 148 2.11 147 2.11 144 2.11 167 2.11 150 2.11
  51  0.400  0.400  0.407- 134 2.11 149 2.11 153 2.11 154 2.11 151 2.11
  52  0.500  0.500  0.407- 153 2.11 154 2.11 158 2.11 173 2.11 152 2.11
  53  0.400  0.500  0.503- 132 2.11 151 2.11 152 2.11 155 2.11 153 2.11
  54  0.500  0.400  0.503- 148 2.11 151 2.11 152 2.11 171 2.11 154 2.11
  55  0.400  0.600  0.407- 138 2.11 153 2.11 157 2.11 158 2.11 155 2.11
  56  0.500  0.700  0.407- 162 2.11 158 2.11 157 2.11 177 2.11 156 2.11
  57  0.400  0.700  0.503- 159 2.11 155 2.11 156 2.11 136 2.11 157 2.11
  58  0.500  0.600  0.503- 152 2.11 155 2.11 156 2.11 175 2.11 158 2.11
  59  0.400  0.800  0.407- 157 2.11 142 2.11 161 2.11 162 2.11 159 2.11
  60  0.500  0.900  0.407- 146 2.11 161 2.11 162 2.11 181 2.11 160 2.11
[...]
 188  0.900  0.300  0.503-  90 2.11  89 2.11   9 2.11  94 2.11  88 2.11
 189  0.800  0.300  0.407-  68 2.11  87 2.11  88 2.11  91 2.11  89 2.11
 190  0.900  0.200  0.407-  88 2.11  84 2.11  87 2.11   7 2.11  90 2.11
 191  0.800  0.400  0.503-  74 2.11  89 2.11  93 2.11  94 2.11  91 2.11
 192  0.900  0.500  0.503-  13 2.11  93 2.11  94 2.11  98 2.11  92 2.11
 193  0.800  0.500  0.407-  72 2.11  91 2.11  92 2.11  95 2.11  93 2.11
 194  0.900  0.400  0.407-  11 2.11  88 2.11  91 2.11  92 2.11  94 2.11
 195  0.800  0.600  0.503-  78 2.11  93 2.11  97 2.11  98 2.11  95 2.11
 196  0.900  0.700  0.503- 102 2.11  97 2.11  98 2.11  17 2.11  96 2.11
 197  0.800  0.700  0.407-  76 2.11  99 2.11  96 2.11  95 2.11  97 2.11
 198  0.900  0.600  0.407-  15 2.11  92 2.11  95 2.11  96 2.11  98 2.11
 199  0.800  0.800  0.503-  82 2.11  97 2.11 101 2.11 102 2.11  99 2.11
 200  0.900  0.900  0.503-  21 2.11  86 2.11 101 2.11 102 2.11 100 2.11
 201  0.800  0.900  0.407-  80 2.11  83 2.11  99 2.11 100 2.11 101 2.11
 202  0.900  0.800  0.407-  96 2.11  19 2.11  99 2.11 100 2.11 102 2.11

  LATTYP: Found a simple tetragonal cell.
 ALAT       =    21.1388521970
 C/A-ratio  =     1.0461251639

  Lattice vectors:

 A1 = (  21.1388521970,   0.0000000000,   0.0000000000)
 A2 = (   0.0000000000,  21.1388521970,   0.0000000000)
 A3 = (   0.0000000000,   0.0000000000,  22.1138852197)

Analysis of symmetry for initial positions (statically):
 Subroutine PRICEL returns:
 Original cell was already a primitive cell.

 Routine SETGRP: Setting up the symmetry group for a
 simple tetragonal supercell.

 Subroutine GETGRP returns: Found  4 space group operations
 (whereof  4 operations were pure point group operations)
 out of a pool of 16 trial point group operations.

The static configuration has the point symmetry C_2v.

Analysis of symmetry for dynamics (positions and initial velocities):
 Subroutine PRICEL returns:
 Original cell was already a primitive cell.

 Routine SETGRP: Setting up the symmetry group for a
 simple tetragonal supercell.

 Subroutine GETGRP returns: Found  4 space group operations
 (whereof  4 operations were pure point group operations)
 out of a pool of 16 trial point group operations.

The dynamic configuration has the point symmetry C_2v.

 Subroutine INISYM returns: Found  4 space group operations
 (whereof  4 operations are pure point group operations),
 and found     1 'primitive' translations

                                     Primitive cell

  volume of cell :    9881.6133

  direct lattice vectors                    reciprocal lattice vectors
    21.138852197  0.000000000  0.000000000     0.047306258  0.000000000  0.000000000
     0.000000000 21.138852197  0.000000000     0.000000000  0.047306258  0.000000000
     0.000000000  0.000000000 22.113885220     0.000000000  0.000000000  0.045220457

  length of vectors
    21.138852197 21.138852197 22.113885220     0.047306258  0.047306258  0.045220457

  position of ions in fractional coordinates (direct lattice)
     0.537549167  0.462450833  0.617673691
     0.462450833  0.537549167  0.617673691
     0.000000000  0.000000000  0.406984115
     0.100000000  0.100000000  0.406984115
     0.000000000  0.100000000  0.502574971
     0.100000000  0.000000000  0.502574971
     0.000000000  0.200000000  0.406984115
     0.100000000  0.300000000  0.406984115
     0.000000000  0.300000000  0.502574971
     0.100000000  0.200000000  0.502574971
     0.000000000  0.400000000  0.406984115
     0.100000000  0.500000000  0.406984115
     0.000000000  0.500000000  0.502574971
     0.100000000  0.400000000  0.502574971
     0.000000000  0.600000000  0.406984115
     0.100000000  0.700000000  0.406984115
     0.000000000  0.700000000  0.502574971
     0.100000000  0.600000000  0.502574971
[...]
     52     -43.3051      2.00000
     53     -43.3049      2.00000
     54     -43.3036      2.00000
     55     -43.3036      2.00000
     56     -43.3030      2.00000
     57     -43.3028      2.00000
     58     -43.3024      2.00000
     59     -43.3021      2.00000
     60     -43.3020      2.00000
[...]
    850       6.3391      0.00000
    851       6.4025      0.00000
    852       6.4437      0.00000
    853       6.5247      0.00000
    854       6.5672      0.00000
    855       6.6109      0.00000
    856       6.6954      0.00000
    857       6.7543      0.00000
    858       6.8061      0.00000
    859       6.8258      0.00000
    860       6.9091      0.00000
    861       6.9289      0.00000
    862       7.0171      0.00000
    863       7.0933      0.00000
    864       7.1971      0.00000

 soft charge-density along one line, spin component           1
         0         1         2         3         4         5         6         7         8         9
 total charge-density along one line

------------------------ aborting loop because EDIFF is reached ----------------------------------------

  FORCE on cell =-STRESS in cart. coord.  units (eV):
  Direction    XX          YY          ZZ          XY          YZ          ZX
  Alpha Z  1354.41543  1354.41543  1354.41543
  Ewald  480118.83707480118.83707************  -374.58146     0.00000     0.00000
  Hartree509098.29146509098.29146************  -285.50756    -0.00000    -0.00000
  E(xc)   -8232.21403 -8232.21403 -8257.79060    -0.04216     0.00000     0.00000
  Local  ************************************   654.11193    -0.00000    -0.00000
  n-local -8992.54688 -8992.54662 -9116.30126     2.14085    -0.00019    -0.00013
  augment  3995.05370  3995.05370  3942.73388     2.18851    -0.00000     0.00000
  Kinetic 22893.84276 22893.84277 23144.37212     2.46297     0.00011     0.00015
  Fock        0.00000     0.00000     0.00000     0.00000     0.00000     0.00000
  Total    -167.04166  -167.04166     7.87007     0.77309     0.00000     0.00000
  in kB     -27.08367   -27.08367     1.27603     0.12535     0.00000     0.00000

 VOLUME and BASIS-vectors are now :
  energy-cutoff  :      520.00
  volume of cell :     9881.61
      direct lattice vectors                 reciprocal lattice vectors
    21.138852197  0.000000000  0.000000000     0.047306258  0.000000000  0.000000000
     0.000000000 21.138852197  0.000000000     0.000000000  0.047306258  0.000000000
     0.000000000  0.000000000 22.113885220     0.000000000  0.000000000  0.045220457

  length of vectors
    21.138852197 21.138852197 22.113885220     0.047306258  0.047306258  0.045220457

 FORCES acting on ions:
    Electron-Ion                     Ewald-Force                    Non-Local-Force
   -.252E+03 0.252E+03 -.210E+04   0.243E+03 -.243E+03 0.210E+04   0.828E+01 -.828E+01 -.102E+01
   0.252E+03 -.252E+03 -.210E+04   -.243E+03 0.243E+03 0.210E+04   -.828E+01 0.828E+01 -.102E+01
   -.489E-10 0.112E-08 0.931E+03   0.758E-10 -.173E-08 -.923E+03   0.417E-22 -.359E-22 -.792E+01
   0.392E+01 0.392E+01 0.932E+03   -.391E+01 -.391E+01 -.924E+03   -.411E-02 -.411E-02 -.792E+01
   -.212E+00 0.423E+01 -.923E+03   0.225E+00 -.424E+01 0.915E+03   -.102E-01 0.218E-02 0.789E+01
   0.423E+01 -.212E+00 -.923E+03   -.424E+01 0.225E+00 0.915E+03   0.218E-02 -.102E-01 0.789E+01
   -.283E+00 0.590E+01 0.933E+03   0.305E+00 -.591E+01 -.925E+03   -.173E-01 0.483E-02 -.792E+01
   0.791E+01 0.757E+01 0.936E+03   -.789E+01 -.758E+01 -.927E+03   -.110E-01 0.830E-02 -.792E+01
   -.534E+00 0.772E+01 -.921E+03   0.565E+00 -.773E+01 0.913E+03   -.239E-01 0.318E-02 0.789E+01
   0.705E+01 0.862E+01 -.922E+03   -.703E+01 -.862E+01 0.914E+03   -.150E-01 -.117E-02 0.789E+01
   -.252E+00 0.403E+01 0.936E+03   0.271E+00 -.403E+01 -.928E+03   -.157E-01 0.276E-02 -.792E+01
   0.120E+02 0.325E+00 0.939E+03   -.120E+02 -.343E+00 -.931E+03   0.234E-01 0.140E-01 -.793E+01
   0.150E-09 -.168E-08 -.920E+03   -.231E-09 0.260E-08 0.911E+03   -.152E-21 0.509E-22 0.789E+01
   0.151E+02 0.701E+01 -.918E+03   -.151E+02 -.703E+01 0.910E+03   -.121E-01 0.134E-01 0.788E+01
   0.252E+00 -.403E+01 0.936E+03   -.271E+00 0.403E+01 -.928E+03   0.157E-01 -.276E-02 -.792E+01
   0.872E+01 -.759E+01 0.936E+03   -.877E+01 0.760E+01 -.928E+03   0.417E-01 -.550E-02 -.792E+01
   0.534E+00 -.772E+01 -.921E+03   -.565E+00 0.773E+01 0.913E+03   0.239E-01 -.318E-02 0.789E+01
   0.163E+02 -.637E+01 -.918E+03   -.164E+02 0.636E+01 0.910E+03   0.408E-01 0.881E-02 0.789E+01
   0.283E+00 -.590E+01 0.933E+03   -.305E+00 0.591E+01 -.925E+03   0.173E-01 -.483E-02 -.792E+01
   0.422E+01 -.422E+01 0.932E+03   -.423E+01 0.423E+01 -.924E+03   0.127E-01 -.127E-01 -.792E+01
   0.212E+00 -.423E+01 -.923E+03   -.225E+00 0.424E+01 0.915E+03   0.102E-01 -.218E-02 0.789E+01
   0.801E+01 -.906E+01 -.922E+03   -.805E+01 0.907E+01 0.913E+03   0.302E-01 -.109E-01 0.789E+01
   0.590E+01 -.283E+00 0.933E+03   -.591E+01 0.305E+00 -.925E+03   0.483E-02 -.173E-01 -.792E+01
   0.757E+01 0.791E+01 0.936E+03   -.758E+01 -.789E+01 -.927E+03   0.830E-02 -.110E-01 -.792E+01
   0.862E+01 0.705E+01 -.922E+03   -.862E+01 -.703E+01 0.914E+03   -.117E-02 -.150E-01 0.789E+01
   0.772E+01 -.534E+00 -.921E+03   -.773E+01 0.565E+00 0.913E+03   0.318E-02 -.239E-01 0.789E+01
   0.101E+02 0.101E+02 0.936E+03   -.101E+02 -.101E+02 -.928E+03   -.114E-02 -.114E-02 -.793E+01
   0.200E+02 0.200E+02 0.950E+03   -.200E+02 -.200E+02 -.941E+03   0.213E-01 0.213E-01 -.796E+01
   0.226E+02 0.171E+02 -.916E+03   -.225E+02 -.171E+02 0.907E+03   -.287E-01 0.809E-02 0.788E+01
   0.171E+02 0.226E+02 -.916E+03   -.171E+02 -.225E+02 0.907E+03   0.809E-02 -.287E-01 0.788E+01
   0.216E+02 0.899E+01 0.946E+03   -.216E+02 -.903E+01 -.937E+03   0.835E-02 0.359E-01 -.793E+01
   0.367E+02 0.179E+01 0.970E+03   -.368E+02 -.193E+01 -.962E+03   0.901E-01 0.102E+00 -.794E+01
   0.419E+02 0.188E+01 -.907E+03   -.419E+02 -.194E+01 0.899E+03   0.292E-01 0.457E-01 0.788E+01
   0.596E+02 0.332E+02 -.889E+03   -.595E+02 -.333E+02 0.880E+03   -.918E-01 0.742E-01 0.783E+01
   0.226E+02 -.809E+01 0.947E+03   -.228E+02 0.807E+01 -.939E+03   0.113E+00 0.144E-01 -.794E+01
   0.209E+02 -.209E+02 0.952E+03   -.210E+02 0.210E+02 -.944E+03   0.709E-01 -.709E-01 -.789E+01
   0.251E+02 -.180E+02 -.914E+03   -.252E+02 0.180E+02 0.906E+03   0.970E-01 -.841E-02 0.789E+01
   0.681E+02 -.314E+02 -.880E+03   -.687E+02 0.313E+02 0.872E+03   0.468E+00 0.790E-01 0.791E+01
   0.107E+02 -.107E+02 0.937E+03   -.107E+02 0.107E+02 -.929E+03   0.320E-01 -.320E-01 -.792E+01
   0.759E+01 -.872E+01 0.936E+03   -.760E+01 0.877E+01 -.928E+03   0.550E-02 -.417E-01 -.792E+01
   0.906E+01 -.801E+01 -.922E+03   -.907E+01 0.805E+01 0.913E+03   0.109E-01 -.302E-01 0.789E+01
   0.180E+02 -.251E+02 -.914E+03   -.180E+02 0.252E+02 0.906E+03   0.841E-02 -.970E-01 0.789E+01
   0.403E+01 -.252E+00 0.936E+03   -.403E+01 0.271E+00 -.928E+03   0.276E-02 -.157E-01 -.792E+01
   0.325E+00 0.120E+02 0.939E+03   -.343E+00 -.120E+02 -.931E+03   0.140E-01 0.234E-01 -.793E+01
   0.701E+01 0.151E+02 -.918E+03   -.703E+01 -.151E+02 0.910E+03   0.134E-01 -.121E-01 0.788E+01
   0.150E-09 0.507E-08 -.920E+03   -.231E-09 -.785E-08 0.911E+03   -.502E-22 0.149E-21 0.789E+01
   0.899E+01 0.216E+02 0.946E+03   -.903E+01 -.216E+02 -.937E+03   0.359E-01 0.835E-02 -.793E+01
   0.179E+01 0.367E+02 0.970E+03   -.193E+01 -.368E+02 -.962E+03   0.102E+00 0.901E-01 -.794E+01
   0.332E+02 0.596E+02 -.889E+03   -.333E+02 -.595E+02 0.880E+03   0.742E-01 -.918E-01 0.783E+01
   0.188E+01 0.419E+02 -.907E+03   -.194E+01 -.419E+02 0.899E+03   0.457E-01 0.292E-01 0.788E+01
   0.276E+02 0.276E+02 0.988E+03   -.278E+02 -.278E+02 -.980E+03   0.116E+00 0.116E+00 -.809E+01
   -.121E-08 -.130E-07 0.103E+04   0.187E-08 0.201E-07 -.102E+04   0.359E-21 -.375E-21 -.769E+01
   0.121E+03 0.210E+02 -.753E+03   -.121E+03 -.218E+02 0.746E+03   0.209E+00 0.527E+00 0.672E+01
   0.210E+02 0.121E+03 -.753E+03   -.218E+02 -.121E+03 0.746E+03   0.527E+00 0.209E+00 0.672E+01
   0.267E+02 -.267E+02 0.993E+03   -.267E+02 0.267E+02 -.985E+03   -.181E-01 0.181E-01 -.732E+01
   -.179E+01 -.367E+02 0.970E+03   0.193E+01 0.368E+02 -.962E+03   -.102E+00 -.901E-01 -.794E+01
   0.314E+02 -.681E+02 -.880E+03   -.313E+02 0.687E+02 0.872E+03   -.790E-01 -.468E+00 0.791E+01
   -.210E+02 -.121E+03 -.753E+03   0.218E+02 0.121E+03 0.746E+03   -.527E+00 -.209E+00 0.672E+01
   0.809E+01 -.226E+02 0.947E+03   -.807E+01 0.228E+02 -.939E+03   -.144E-01 -.113E+00 -.794E+01
   -.325E+00 -.120E+02 0.939E+03   0.343E+00 0.120E+02 -.931E+03   -.140E-01 -.234E-01 -.793E+01
[...]
   -.124E+02 0.913E+01 0.708E+03   0.124E+02 -.915E+01 -.712E+03   -.703E-01 0.309E-01 0.353E+01
   -.455E+01 0.534E+01 0.702E+03   0.457E+01 -.535E+01 -.706E+03   -.269E-01 0.163E-01 0.352E+01
   -.281E+02 0.936E+01 -.683E+03   0.281E+02 -.934E+01 0.687E+03   -.782E-01 -.351E-01 -.358E+01
   -.132E+02 -.421E+00 -.689E+03   0.132E+02 0.437E+00 0.693E+03   -.143E-01 -.215E-01 -.357E+01
   -.187E+02 -.642E+00 0.713E+03   0.188E+02 0.683E+00 -.717E+03   -.450E-01 -.564E-01 0.351E+01
   -.841E+01 0.362E+01 0.705E+03   0.844E+01 -.361E+01 -.709E+03   -.346E-01 -.674E-02 0.352E+01
   -.257E+02 -.105E+02 -.684E+03   0.257E+02 0.106E+02 0.688E+03   0.478E-02 -.397E-01 -.360E+01
   -.810E+01 -.734E+01 -.691E+03   0.809E+01 0.735E+01 0.695E+03   0.133E-01 -.568E-02 -.357E+01
   -.116E+02 -.896E+01 0.707E+03   0.116E+02 0.897E+01 -.711E+03   0.482E-02 -.112E-01 0.350E+01
   -.791E+01 -.392E+01 0.705E+03   0.791E+01 0.393E+01 -.709E+03   -.557E-03 -.174E-01 0.351E+01
   -.102E+02 -.102E+02 -.691E+03   0.101E+02 0.101E+02 0.695E+03   0.119E-01 0.119E-01 -.357E+01
   -.361E+01 -.361E+01 -.694E+03   0.361E+01 0.361E+01 0.698E+03   0.587E-02 0.587E-02 -.356E+01
   -.515E+01 -.408E+01 0.701E+03   0.515E+01 0.408E+01 -.706E+03   -.979E-03 0.907E-02 0.352E+01
   -.408E+01 -.515E+01 0.701E+03   0.408E+01 0.515E+01 -.706E+03   0.907E-02 -.979E-03 0.352E+01
   0.162E-06 0.607E-06 0.119E+02   0.168E-11 -.109E-11 -.853E-11   0.373E-15 -.269E-15 -.126E+02

 POSITION                                       TOTAL-FORCE (eV/Angst)
     11.36317      9.77568     13.65917        -0.056664      0.056664     -0.007670
      9.77568     11.36317     13.65917         0.056664     -0.056664     -0.007670
      0.00000      0.00000      9.00000        -0.000000     -0.000000      0.403196
      2.11389      2.11389      9.00000         0.001247      0.001247      0.403662
      0.00000      2.11389     11.11389         0.002758     -0.000549     -0.396601
      2.11389      0.00000     11.11389        -0.000549      0.002758     -0.396601
      0.00000      4.22777      9.00000         0.004559     -0.001164      0.403459
      2.11389      6.34166      9.00000         0.002910     -0.002121      0.404539
      0.00000      6.34166     11.11389         0.006365     -0.000738     -0.395753
      2.11389      4.22777     11.11389         0.004149      0.000619     -0.395629
      0.00000      8.45554      9.00000         0.004074     -0.000725      0.403941
      2.11389     10.56943      9.00000        -0.006362     -0.004171      0.404524
      0.00000     10.56943     11.11389        -0.000000     -0.000000     -0.395137
      2.11389      8.45554     11.11389         0.003376     -0.003701     -0.393590
      0.00000     12.68331      9.00000        -0.004074      0.000725      0.403941
      2.11389     14.79720      9.00000        -0.010929      0.001640      0.403328
      0.00000     14.79720     11.11389        -0.006365      0.000738     -0.395753
      2.11389     12.68331     11.11389        -0.010622     -0.002604     -0.394689
      0.00000     16.91108      9.00000        -0.004559      0.001164      0.403459
      2.11389     19.02497      9.00000        -0.003430      0.003430      0.402944
      0.00000     19.02497     11.11389        -0.002758      0.000549     -0.396601
      2.11389     16.91108     11.11389        -0.008008      0.002957     -0.396326
      4.22777      0.00000      9.00000        -0.001164      0.004559      0.403459
      6.34166      2.11389      9.00000        -0.002121      0.002910      0.404539
      4.22777      2.11389     11.11389         0.000619      0.004149     -0.395629
      6.34166      0.00000     11.11389        -0.000738      0.006365     -0.395753
      4.22777      4.22777      9.00000         0.000613      0.000613      0.405536
      6.34166      6.34166      9.00000        -0.004614     -0.004614      0.413987
      4.22777      6.34166     11.11389         0.008500     -0.001466     -0.390492
      6.34166      4.22777     11.11389        -0.001466      0.008500     -0.390492
      4.22777      8.45554      9.00000        -0.002921     -0.010108      0.407022
      6.34166     10.56943      9.00000        -0.026453     -0.032854      0.404171
      4.22777     10.56943     11.11389        -0.008949     -0.014120     -0.387387
      6.34166      8.45554     11.11389         0.033021     -0.013848     -0.354634
      4.22777     12.68331      9.00000        -0.028479     -0.004209      0.405617
      6.34166     14.79720      9.00000        -0.023928      0.023928      0.390065
      4.22777     14.79720     11.11389        -0.025737      0.003318     -0.395779
      6.34166     12.68331     11.11389        -0.141533     -0.029040     -0.390837
      4.22777     16.91108      9.00000        -0.009041      0.009041      0.401290
      6.34166     19.02497      9.00000        -0.001640      0.010929      0.403328
      4.22777     19.02497     11.11389        -0.002957      0.008008     -0.396326
      6.34166     16.91108     11.11389        -0.003318      0.025737     -0.395779
      8.45554      0.00000      9.00000        -0.000725      0.004074      0.403941
     10.56943      2.11389      9.00000        -0.004171     -0.006362      0.404524
      8.45554      2.11389     11.11389        -0.003701      0.003376     -0.393590
     10.56943      0.00000     11.11389        -0.000000     -0.000000     -0.395137
      8.45554      4.22777      9.00000        -0.010108     -0.002921      0.407022
     10.56943      6.34166      9.00000        -0.032854     -0.026453      0.404171
      8.45554      6.34166     11.11389        -0.013848      0.033021     -0.354634
     10.56943      4.22777     11.11389        -0.014120     -0.008949     -0.387387
      8.45554      8.45554      9.00000        -0.031534     -0.031534      0.435622
     10.56943     10.56943      9.00000        -0.000000     -0.000000      0.275939
      8.45554     10.56943     11.11389        -0.132730     -0.255089     -0.273525
     10.56943      8.45554     11.11389        -0.255089     -0.132730     -0.273525
      8.45554     12.68331      9.00000         0.006610     -0.006610      0.256553
     10.56943     14.79720      9.00000         0.032854      0.026453      0.404171
      8.45554     14.79720     11.11389         0.029040      0.141533     -0.390837
     10.56943     12.68331     11.11389         0.255089      0.132730     -0.273525
      8.45554     16.91108      9.00000         0.004209      0.028479      0.405617
     10.56943     19.02497      9.00000         0.004171      0.006362      0.404524
[...]
     19.02497      6.34166     11.11389        -0.010083      0.001897      0.509028
     16.91108      6.34166      9.00000        -0.019913      0.008707     -0.514640
     19.02497      4.22777      9.00000        -0.007583      0.004710     -0.516816
     16.91108      8.45554     11.11389        -0.022683     -0.009512      0.506133
     19.02497     10.56943     11.11389        -0.004073     -0.005941      0.506684
     16.91108     10.56943      9.00000        -0.013531     -0.015368     -0.520134
     19.02497      8.45554      9.00000        -0.009704     -0.001745     -0.517326
     16.91108     12.68331     11.11389         0.000582     -0.011270      0.499673
     19.02497     14.79720     11.11389         0.003578     -0.001717      0.507758
     16.91108     14.79720      9.00000         0.001077     -0.003380     -0.520999
     19.02497     12.68331      9.00000        -0.000233     -0.004955     -0.518837
     16.91108     16.91108     11.11389         0.003053      0.003053      0.506846
     19.02497     19.02497     11.11389         0.001512      0.001512      0.510000
     16.91108     19.02497      9.00000        -0.000477      0.002383     -0.518058
     19.02497     16.91108      9.00000         0.002383     -0.000477     -0.518058
    total drift:                                0.000000      0.000001     -0.731545

  FREE ENERGIE OF THE ION-ELECTRON SYSTEM (eV)
  free  energy   TOTEN  =     -1776.49461378 eV

  energy  without entropy=    -1776.49461378  energy(sigma->0) =    -1776.49461378