 vasp.6.3.0 20Jan22 (build Apr  1 2022 16:44:48) complex
 executed on        HPECrayEX_GCC date 2022.08.15  19:55:58

 INCAR:
   SYSTEM = MgO-rocksalt
   ISMEAR = 0
   SIGMA = 0.05
   EDIFF = 1E-6
   ALGO = ALL
   ISTART = 0
   IBRION = -1
   NSW = 0
   ISYM = 2
   DIPOL = 0.5 0.5 0.5
   IDIPOL = 3
   LDIPOL = .TRUE.
   METAGGA = R2SCAN
   IVDW = 13
   VDW_S8 = 0.6019
   VDW_A1 = 0.5156
   VDW_A2 = 5.7734
   ENCUT = 520
   PREC = Accurate
   LASPH = .TRUE.
   LREAL = Auto
   ISPIN = 1
   NELM = 200
   NELMIN = 8
   NCORE = 4
   KPAR = 2
   LWAVE = .FALSE.
   LCHARG = .FALSE.

 POTCAR:    PAW_PBE Au 04Oct2007
 POTCAR:    PAW_PBE Mg_pv 13Apr2007
 POTCAR:    PAW_PBE O 08Apr2002
 POTCAR:    PAW_PBE Au 04Oct2007
   VRHFIN =Au: s1d10

   TITEL  = PAW_PBE Au 04Oct2007
   POMASS =  196.966; ZVAL   =   11.000    mass and valenz
   ENMAX  =  229.943; ENMIN  =  172.457 eV

   TITEL  = PAW_PBE Mg_pv 13Apr2007
   POMASS =   24.305; ZVAL   =    8.000    mass and valenz
   ENMAX  =  403.929; ENMIN  =  302.947 eV

   TITEL  = PAW_PBE O 08Apr2002
   POMASS =   16.000; ZVAL   =    6.000    mass and valenz
   ENMAX  =  400.000; ENMIN  =  300.000 eV

 Optimization of the real space projectors (new method)

 maximal supplied QI-value         = 15.12
 optimisation between [QCUT,QGAM] = [ 11.64, 23.28] = [ 37.95,151.78] Ry
 Optimized for a Real-space Cutoff    1.49 Angstroem

   l    n(q)    QCUT    max X(q) W(low)/X(q) W(high)/X(q)  e(spline)
   2      9    11.641    60.898    0.24E-03    0.10E-03    0.19E-06
   2      9    11.641    58.894    0.25E-03    0.10E-03    0.19E-06
   0     10    11.641   109.617    0.73E-04    0.33E-04    0.11E-06
   0     10    11.641    75.026    0.71E-04    0.32E-04    0.11E-06
   1     10    11.641    16.344    0.27E-04    0.97E-04    0.16E-06
   1     10    11.641    10.160    0.23E-04    0.77E-04    0.13E-06
 Optimization of the real space projectors (new method)

[...]

   l    n(q)    QCUT    max X(q) W(low)/X(q) W(high)/X(q)  e(spline)
   1      8    11.527     2.974    0.44E-04    0.56E-04    0.12E-06
   1      8    11.527     4.279    0.12E-03    0.12E-03    0.26E-06
   0      9    11.527    16.381    0.46E-04    0.64E-04    0.78E-07
   0      9    11.527     5.611    0.26E-04    0.43E-04    0.55E-07
   2      8    11.527     4.652    0.22E-03    0.72E-04    0.47E-07
 Optimization of the real space projectors (new method)

 maximal supplied QI-value         = 24.76
 optimisation between [QCUT,QGAM] = [ 11.64, 23.27] = [ 37.91,151.63] Ry
 Optimized for a Real-space Cutoff    1.14 Angstroem

   l    n(q)    QCUT    max X(q) W(low)/X(q) W(high)/X(q)  e(spline)
   0      8    11.635    20.381    0.10E-03    0.33E-03    0.24E-06
   0      8    11.635    15.268    0.11E-03    0.35E-03    0.26E-06
   1      7    11.635     5.964    0.24E-03    0.31E-03    0.30E-06
   1      7    11.635     5.382    0.22E-03    0.25E-03    0.26E-06
  PAW_PBE Au 04Oct2007                  :
  PAW_PBE Mg_pv 13Apr2007               :
  PAW_PBE O 08Apr2002                   :

 POSCAR: Au Mg  O
  positions in direct lattice

 METAGGA = R2SCA    LMAXTAU =  6    LMIXTAU =  F

 WARNING: Using user supplied parameters
     VDW_S8 = 0.602
     VDW_A1 = 0.516
     VDW_A2 = 5.773
     because the xc functional is not supported. Required parameters not
     defined in the INCAR file will be replaced with PBE defaults ones.

 ion  position               nearest neighbor table
   1  0.661  0.500  0.614-   2 2.57 172 2.59  73 2.77
   2  0.539  0.500  0.614-   1 2.57 152 2.59  73 2.77
   3  0.000  0.000  0.407- 105 2.11 106 2.11 121 2.11 186 2.11 103 2.11
   4  0.100  0.100  0.407- 105 2.11 106 2.11 110 2.11 125 2.11 104 2.11
   5  0.000  0.100  0.503- 103 2.11 104 2.11 107 2.11 184 2.11 105 2.11
   6  0.100  0.000  0.503- 103 2.11 104 2.11 120 2.11 123 2.11 106 2.11
   7  0.000  0.200  0.407- 109 2.11 105 2.11 110 2.11 190 2.11 107 2.11
   8  0.100  0.300  0.407- 110 2.11 109 2.11 114 2.11 129 2.11 108 2.11
   9  0.000  0.300  0.503- 107 2.11 108 2.11 111 2.11 188 2.11 109 2.11
  10  0.100  0.200  0.503- 108 2.11 107 2.11 104 2.11 127 2.11 110 2.11
  11  0.000  0.400  0.407- 109 2.11 113 2.11 114 2.11 194 2.11 111 2.11
  12  0.100  0.500  0.407- 113 2.11 114 2.11 118 2.11 133 2.11 112 2.11
  13  0.000  0.500  0.503- 111 2.11 112 2.11 115 2.11 192 2.11 113 2.11
  14  0.100  0.400  0.503- 108 2.11 111 2.11 112 2.11 131 2.11 114 2.11
  15  0.000  0.600  0.407- 113 2.11 117 2.11 118 2.11 198 2.11 115 2.11
  16  0.100  0.700  0.407- 122 2.11 118 2.11 117 2.11 137 2.11 116 2.11
  17  0.000  0.700  0.503- 119 2.11 116 2.11 115 2.11 196 2.11 117 2.11
  18  0.100  0.600  0.503- 112 2.11 115 2.11 116 2.11 135 2.11 118 2.11
  19  0.000  0.800  0.407- 117 2.11 121 2.11 122 2.11 202 2.11 119 2.11
  20  0.100  0.900  0.407- 106 2.11 121 2.11 122 2.11 141 2.11 120 2.11
  21  0.000  0.900  0.503- 103 2.11 119 2.11 120 2.11 200 2.11 121 2.11
  22  0.100  0.800  0.503- 116 2.11 119 2.11 120 2.11 139 2.11 122 2.11
  23  0.200  0.000  0.407- 126 2.11 125 2.11 106 2.11 141 2.11 123 2.11
  24  0.300  0.100  0.407- 125 2.11 126 2.11 130 2.11 145 2.11 124 2.11
  25  0.200  0.100  0.503- 124 2.11 123 2.11 104 2.11 127 2.11 125 2.11
  26  0.300  0.000  0.503- 123 2.11 124 2.11 140 2.11 143 2.11 126 2.11
  27  0.200  0.200  0.407- 129 2.11 130 2.11 110 2.11 125 2.11 127 2.11
  28  0.300  0.300  0.407- 129 2.11 130 2.11 134 2.11 149 2.11 128 2.11
  29  0.200  0.300  0.503- 127 2.11 128 2.11 108 2.11 131 2.11 129 2.11
  30  0.300  0.200  0.503- 127 2.11 128 2.11 124 2.11 147 2.11 130 2.11
  31  0.200  0.400  0.407- 134 2.11 129 2.11 133 2.11 114 2.11 131 2.11
  32  0.300  0.500  0.407- 133 2.11 134 2.11 138 2.11 153 2.11 132 2.11
  33  0.200  0.500  0.503- 132 2.11 131 2.11 112 2.11 135 2.11 133 2.11
  34  0.300  0.400  0.503- 131 2.11 128 2.11 132 2.11 151 2.11 134 2.11
  35  0.200  0.600  0.407- 138 2.11 133 2.11 137 2.11 118 2.11 135 2.11
  36  0.300  0.700  0.407- 137 2.11 142 2.11 138 2.11 157 2.11 136 2.11
  37  0.200  0.700  0.503- 136 2.11 139 2.11 116 2.11 135 2.11 137 2.11
  38  0.300  0.600  0.503- 135 2.11 132 2.11 136 2.11 155 2.11 138 2.11
  39  0.200  0.800  0.407- 137 2.11 142 2.11 141 2.11 122 2.11 139 2.11
  40  0.300  0.900  0.407- 141 2.11 126 2.11 142 2.11 161 2.11 140 2.11
  41  0.200  0.900  0.503- 140 2.11 123 2.11 139 2.11 120 2.11 141 2.11
  42  0.300  0.800  0.503- 136 2.11 139 2.11 140 2.11 159 2.11 142 2.11
  43  0.400  0.000  0.407- 126 2.11 145 2.11 146 2.11 161 2.11 143 2.11
  44  0.500  0.100  0.407- 145 2.11 146 2.11 150 2.11 165 2.11 144 2.11
  45  0.400  0.100  0.503- 124 2.11 143 2.11 144 2.11 147 2.11 145 2.11
  46  0.500  0.000  0.503- 143 2.11 144 2.11 160 2.11 163 2.11 146 2.11
  47  0.400  0.200  0.407- 149 2.11 145 2.11 130 2.11 150 2.11 147 2.11
  48  0.500  0.300  0.407- 150 2.11 149 2.11 154 2.11 169 2.11 148 2.11
  49  0.400  0.300  0.503- 147 2.11 128 2.11 148 2.11 151 2.11 149 2.11
  50  0.500  0.200  0.503- 148 2.11 147 2.11 144 2.11 167 2.11 150 2.11
  51  0.400  0.400  0.407- 134 2.11 149 2.11 153 2.11 154 2.11 151 2.11
  52  0.500  0.500  0.407- 153 2.11 154 2.11 158 2.11 173 2.11 152 2.11
  53  0.400  0.500  0.503- 132 2.11 151 2.11 152 2.11 155 2.11 153 2.11
  54  0.500  0.400  0.503- 148 2.11 151 2.11 152 2.11 171 2.11 154 2.11
  55  0.400  0.600  0.407- 138 2.11 153 2.11 157 2.11 158 2.11 155 2.11
  56  0.500  0.700  0.407- 162 2.11 158 2.11 157 2.11 177 2.11 156 2.11
  57  0.400  0.700  0.503- 159 2.11 155 2.11 156 2.11 136 2.11 157 2.11
  58  0.500  0.600  0.503- 152 2.11 155 2.11 156 2.11 175 2.11 158 2.11
  59  0.400  0.800  0.407- 157 2.11 142 2.11 161 2.11 162 2.11 159 2.11
  60  0.500  0.900  0.407- 146 2.11 161 2.11 162 2.11 181 2.11 160 2.11
[...]
 188  0.900  0.300  0.503-  90 2.11  89 2.11   9 2.11  94 2.11  88 2.11
 189  0.800  0.300  0.407-  68 2.11  87 2.11  88 2.11  91 2.11  89 2.11
 190  0.900  0.200  0.407-  88 2.11  84 2.11  87 2.11   7 2.11  90 2.11
 191  0.800  0.400  0.503-  74 2.11  89 2.11  93 2.11  94 2.11  91 2.11
 192  0.900  0.500  0.503-  13 2.11  93 2.11  94 2.11  98 2.11  92 2.11
 193  0.800  0.500  0.407-  72 2.11  91 2.11  92 2.11  95 2.11  93 2.11
 194  0.900  0.400  0.407-  11 2.11  88 2.11  91 2.11  92 2.11  94 2.11
 195  0.800  0.600  0.503-  78 2.11  93 2.11  97 2.11  98 2.11  95 2.11
 196  0.900  0.700  0.503- 102 2.11  97 2.11  98 2.11  17 2.11  96 2.11
 197  0.800  0.700  0.407-  76 2.11  99 2.11  96 2.11  95 2.11  97 2.11
 198  0.900  0.600  0.407-  15 2.11  92 2.11  95 2.11  96 2.11  98 2.11
 199  0.800  0.800  0.503-  82 2.11  97 2.11 101 2.11 102 2.11  99 2.11
 200  0.900  0.900  0.503-  21 2.11  86 2.11 101 2.11 102 2.11 100 2.11
 201  0.800  0.900  0.407-  80 2.11  83 2.11  99 2.11 100 2.11 101 2.11
 202  0.900  0.800  0.407-  96 2.11  19 2.11  99 2.11 100 2.11 102 2.11

  LATTYP: Found a simple tetragonal cell.
 ALAT       =    21.1388521970
 C/A-ratio  =     1.0461251639

  Lattice vectors:

 A1 = (  21.1388521970,   0.0000000000,   0.0000000000)
 A2 = (   0.0000000000,  21.1388521970,   0.0000000000)
 A3 = (   0.0000000000,   0.0000000000,  22.1138852197)

Analysis of symmetry for initial positions (statically):
 Subroutine PRICEL returns:
 Original cell was already a primitive cell.

 Routine SETGRP: Setting up the symmetry group for a
 simple tetragonal supercell.

 Subroutine GETGRP returns: Found  4 space group operations
 (whereof  2 operations were pure point group operations)
 out of a pool of 16 trial point group operations.

The static configuration has the point symmetry C_1h.
 The point group associated with its full space group is C_2v.

Analysis of symmetry for dynamics (positions and initial velocities):
 Subroutine PRICEL returns:
 Original cell was already a primitive cell.

 Routine SETGRP: Setting up the symmetry group for a
 simple tetragonal supercell.

 Subroutine GETGRP returns: Found  4 space group operations
 (whereof  2 operations were pure point group operations)
 out of a pool of 16 trial point group operations.

The dynamic configuration has the point symmetry C_1h.
 The point group associated with its full space group is C_2v.

 Subroutine INISYM returns: Found  4 space group operations
 (whereof  2 operations are pure point group operations),
 and found     1 'primitive' translations

                                     Primitive cell

  volume of cell :    9881.6133

  direct lattice vectors                    reciprocal lattice vectors
    21.138852197  0.000000000  0.000000000     0.047306258  0.000000000  0.000000000
     0.000000000 21.138852197  0.000000000     0.000000000  0.047306258  0.000000000
     0.000000000  0.000000000 22.113885220     0.000000000  0.000000000  0.045220457

  length of vectors
    21.138852197 21.138852197 22.113885220     0.047306258  0.047306258  0.045220457

  position of ions in fractional coordinates (direct lattice)
     0.660731451  0.500000000  0.613578390
     0.539268477  0.500000000  0.613578390
     0.000000000  0.000000000  0.406984115
     0.100000000  0.100000000  0.406984115
     0.000000000  0.100000000  0.502574971
     0.100000000  0.000000000  0.502574971
     0.000000000  0.200000000  0.406984115
     0.100000000  0.300000000  0.406984115
[...]
     54     -44.4267      2.00000
     55     -44.4266      2.00000
     56     -44.4263      2.00000
     57     -44.4262      2.00000
     58     -44.4252      2.00000
     59     -44.4241      2.00000
     60     -44.4226      2.00000
[...]
    882       5.3968      0.00000
    883       5.4124      0.00000
    884       5.4474      0.00000
    885       5.5401      0.00000
    886       5.6361      0.00000
    887       5.6495      0.00000
    888       5.7851      0.00000
    889       5.9445      0.00000
    890       6.0115      0.00000
    891       6.0758      0.00000
    892       6.1052      0.00000
    893       6.1210      0.00000
    894       6.1387      0.00000
    895       6.1646      0.00000
    896       6.1926      0.00000

 soft charge-density along one line, spin component           1
         0         1         2         3         4         5         6         7         8         9
 total charge-density along one line

------------------------ aborting loop because EDIFF is reached ----------------------------------------

  FORCE on cell =-STRESS in cart. coord.  units (eV):
  Direction    XX          YY          ZZ          XY          YZ          ZX
  Alpha Z  1365.75682  1365.75682  1365.75682
  Ewald  480802.96044480097.24197************    -0.00000     0.00000     0.00003
  Hartree509432.05991508947.70973************     0.00000    -0.00000     0.00001
  E(xc)   -8375.82508 -8376.36876 -8376.84313     0.00000    -0.00000    -0.00000
  Local  ************************************     0.00000    -0.00000    -0.00003
  n-local -8697.42180 -8682.32202 -8813.11562     0.00000    -0.00001     0.00000
  augment  3830.62353  3831.89917  3774.35670     0.00001     0.00000     0.00000
  Kinetic 23044.98551 23051.66131 23275.13897     0.00000    -0.00001    -0.00000
  Fock        0.00000     0.00000     0.00000     0.00000     0.00000     0.00000
  vdW        -7.99819    -7.99914    -1.96355    -0.00000     0.00000     0.00000
  Total    -229.67432  -229.37981   -19.09904     0.00000     0.00000     0.00000
  in kB     -37.23876   -37.19101    -3.09666     0.00000     0.00000     0.00000

 VOLUME and BASIS-vectors are now :
  energy-cutoff  :      520.00
  volume of cell :     9881.61
      direct lattice vectors                 reciprocal lattice vectors
    21.138852197  0.000000000  0.000000000     0.047306258  0.000000000  0.000000000
     0.000000000 21.138852197  0.000000000     0.000000000  0.047306258  0.000000000
     0.000000000  0.000000000 22.113885220     0.000000000  0.000000000  0.045220457

  length of vectors
    21.138852197 21.138852197 22.113885220     0.047306258  0.047306258  0.045220457

 FORCES acting on ions:
    Electron-Ion                     Ewald-Force                    Non-Local-Force
   -.270E+03 -.141E-05 -.213E+04   0.264E+03 0.167E-07 0.213E+04   0.629E+01 0.000E+00 -.106E+01
   0.270E+03 -.105E-05 -.213E+04   -.264E+03 0.167E-07 0.213E+04   -.629E+01 0.000E+00 -.106E+01
   -.334E+01 0.482E-06 0.931E+03   0.333E+01 0.847E-08 -.923E+03   0.385E-02 0.000E+00 -.755E+01
   -.183E-03 0.373E+01 0.931E+03   -.146E-05 -.375E+01 -.923E+03   0.339E-20 0.154E-01 -.755E+01
   -.483E+01 0.534E+01 -.923E+03   0.482E+01 -.536E+01 0.915E+03   0.596E-02 0.169E-01 0.755E+01
   -.183E-03 0.480E-06 -.923E+03   -.150E-05 0.890E-08 0.915E+03   0.000E+00 0.000E+00 0.755E+01
   -.564E+01 0.748E+01 0.934E+03   0.565E+01 -.753E+01 -.926E+03   -.395E-02 0.336E-01 -.755E+01
   -.182E-03 0.677E+01 0.934E+03   -.302E-05 -.681E+01 -.926E+03   0.339E-20 0.294E-01 -.755E+01
   -.117E+02 0.108E+02 -.919E+03   0.117E+02 -.109E+02 0.911E+03   -.195E-01 0.359E-01 0.755E+01
   -.182E-03 0.778E+01 -.922E+03   -.268E-05 -.781E+01 0.914E+03   -.339E-20 0.248E-01 0.755E+01
   -.112E+02 0.557E+01 0.939E+03   0.113E+02 -.560E+01 -.931E+03   -.546E-01 0.274E-01 -.755E+01
   -.180E-03 0.493E-06 0.937E+03   -.440E-05 -.915E-08 -.929E+03   0.000E+00 0.000E+00 -.755E+01
   -.189E+02 0.459E-06 -.916E+03   0.190E+02 -.161E-07 0.908E+03   -.684E-01 0.000E+00 0.755E+01
   -.179E-03 0.562E+01 -.920E+03   -.565E-05 -.565E+01 0.912E+03   -.339E-20 0.181E-01 0.755E+01
   -.112E+02 -.557E+01 0.939E+03   0.113E+02 0.560E+01 -.931E+03   -.546E-01 -.274E-01 -.755E+01
   -.182E-03 -.677E+01 0.934E+03   -.302E-05 0.681E+01 -.926E+03   0.339E-20 -.294E-01 -.755E+01
   -.117E+02 -.108E+02 -.919E+03   0.117E+02 0.109E+02 0.911E+03   -.195E-01 -.359E-01 0.755E+01
   -.179E-03 -.562E+01 -.920E+03   -.565E-05 0.565E+01 0.912E+03   -.339E-20 -.181E-01 0.755E+01
   -.564E+01 -.748E+01 0.934E+03   0.565E+01 0.753E+01 -.926E+03   -.395E-02 -.336E-01 -.755E+01
   -.183E-03 -.373E+01 0.931E+03   -.146E-05 0.375E+01 -.923E+03   0.339E-20 -.154E-01 -.755E+01
   -.483E+01 -.534E+01 -.923E+03   0.482E+01 0.536E+01 0.915E+03   0.596E-02 -.169E-01 0.755E+01
   -.182E-03 -.778E+01 -.922E+03   -.268E-05 0.781E+01 0.914E+03   -.339E-20 -.248E-01 0.755E+01
   0.334E+01 0.480E-06 0.931E+03   -.333E+01 0.847E-08 -.923E+03   -.385E-02 0.000E+00 -.755E+01
   0.666E+01 0.599E+01 0.933E+03   -.665E+01 -.602E+01 -.925E+03   -.640E-02 0.241E-01 -.755E+01
   0.483E+01 0.534E+01 -.923E+03   -.482E+01 -.536E+01 0.915E+03   -.596E-02 0.169E-01 0.755E+01
   0.678E+01 0.475E-06 -.922E+03   -.676E+01 0.148E-07 0.914E+03   -.109E-01 0.000E+00 0.755E+01
   0.564E+01 0.748E+01 0.934E+03   -.565E+01 -.753E+01 -.926E+03   0.395E-02 0.336E-01 -.755E+01
   0.159E+02 0.131E+02 0.941E+03   -.159E+02 -.132E+02 -.933E+03   0.334E-01 0.779E-01 -.755E+01
   0.117E+02 0.108E+02 -.919E+03   -.117E+02 -.109E+02 0.911E+03   0.195E-01 0.359E-01 0.755E+01
   0.136E+02 0.150E+02 -.919E+03   -.136E+02 -.150E+02 0.911E+03   -.149E-01 0.517E-01 0.755E+01
   0.112E+02 0.557E+01 0.939E+03   -.113E+02 -.560E+01 -.931E+03   0.546E-01 0.274E-01 -.755E+01
   0.259E+02 0.546E-06 0.950E+03   -.262E+02 -.210E-07 -.942E+03   0.208E+00 0.000E+00 -.757E+01
   0.189E+02 0.535E-06 -.916E+03   -.190E+02 -.161E-07 0.908E+03   0.684E-01 0.000E+00 0.755E+01
   0.378E+02 0.157E+02 -.908E+03   -.380E+02 -.157E+02 0.900E+03   0.142E+00 0.566E-01 0.754E+01
   0.112E+02 -.557E+01 0.939E+03   -.113E+02 0.560E+01 -.931E+03   0.546E-01 -.274E-01 -.755E+01
   0.159E+02 -.131E+02 0.941E+03   -.159E+02 0.132E+02 -.933E+03   0.334E-01 -.779E-01 -.755E+01
   0.117E+02 -.108E+02 -.919E+03   -.117E+02 0.109E+02 0.911E+03   0.195E-01 -.359E-01 0.755E+01
   0.378E+02 -.157E+02 -.908E+03   -.380E+02 0.157E+02 0.900E+03   0.142E+00 -.566E-01 0.754E+01
   0.564E+01 -.748E+01 0.934E+03   -.565E+01 0.753E+01 -.926E+03   0.395E-02 -.336E-01 -.755E+01
   0.666E+01 -.599E+01 0.933E+03   -.665E+01 0.602E+01 -.925E+03   -.640E-02 -.241E-01 -.755E+01
   0.483E+01 -.534E+01 -.923E+03   -.482E+01 0.536E+01 0.915E+03   -.596E-02 -.169E-01 0.755E+01
   0.136E+02 -.150E+02 -.919E+03   -.136E+02 0.150E+02 0.911E+03   -.149E-01 -.517E-01 0.755E+01
   0.583E+01 0.474E-06 0.934E+03   -.582E+01 0.160E-07 -.926E+03   -.866E-02 0.000E+00 -.755E+01
   0.464E+01 0.108E+02 0.937E+03   -.463E+01 -.109E+02 -.929E+03   -.712E-02 0.252E-01 -.756E+01
   0.910E+01 0.116E+02 -.920E+03   -.908E+01 -.116E+02 0.912E+03   -.157E-01 0.150E-01 0.755E+01
   0.462E+01 0.467E-06 -.920E+03   -.461E+01 0.276E-07 0.912E+03   -.865E-02 0.000E+00 0.755E+01
   0.114E+02 0.165E+02 0.941E+03   -.114E+02 -.166E+02 -.933E+03   -.837E-02 0.780E-01 -.757E+01
   0.146E+02 0.321E+02 0.963E+03   -.146E+02 -.324E+02 -.954E+03   -.132E-01 0.236E+00 -.765E+01
   0.332E+02 0.378E+02 -.903E+03   -.331E+02 -.380E+02 0.896E+03   -.645E-01 0.196E+00 0.751E+01
   0.116E+02 0.350E+02 -.911E+03   -.116E+02 -.351E+02 0.903E+03   -.252E-01 0.122E-01 0.752E+01
   0.310E+02 0.180E+02 0.966E+03   -.312E+02 -.183E+02 -.958E+03   0.123E+00 0.176E+00 -.750E+01
   0.316E+02 0.658E-06 0.101E+04   -.317E+02 -.741E-07 -.100E+04   0.117E+00 0.000E+00 -.622E+01
   0.915E+02 0.739E-06 -.859E+03   -.928E+02 -.109E-06 0.851E+03   0.983E+00 0.000E+00 0.761E+01
   0.678E+02 0.939E+02 -.815E+03   -.674E+02 -.953E+02 0.807E+03   -.283E+00 0.106E+01 0.710E+01
   0.310E+02 -.180E+02 0.966E+03   -.312E+02 0.183E+02 -.958E+03   0.123E+00 -.176E+00 -.750E+01
   0.146E+02 -.321E+02 0.963E+03   -.146E+02 0.324E+02 -.954E+03   -.132E-01 -.236E+00 -.765E+01
   0.332E+02 -.378E+02 -.903E+03   -.331E+02 0.380E+02 0.896E+03   -.645E-01 -.196E+00 0.751E+01
   0.678E+02 -.939E+02 -.815E+03   -.674E+02 0.953E+02 0.807E+03   -.283E+00 -.106E+01 0.710E+01
   0.114E+02 -.165E+02 0.941E+03   -.114E+02 0.166E+02 -.933E+03   -.837E-02 -.780E-01 -.757E+01
   0.464E+01 -.108E+02 0.937E+03   -.463E+01 0.109E+02 -.929E+03   -.712E-02 -.252E-01 -.756E+01
[...]
   -.148E+02 0.164E+02 0.715E+03   0.148E+02 -.165E+02 -.719E+03   -.256E-01 0.155E+00 0.342E+01
   -.754E+01 0.824E+01 0.704E+03   0.754E+01 -.828E+01 -.708E+03   -.664E-02 0.531E-01 0.343E+01
   -.495E+02 0.299E+02 -.661E+03   0.496E+02 -.302E+02 0.665E+03   -.226E+00 0.404E+00 -.358E+01
   -.343E+02 0.232E-05 -.680E+03   0.344E+02 -.268E-07 0.684E+03   -.161E+00 0.000E+00 -.354E+01
   -.280E+02 0.233E-05 0.732E+03   0.283E+02 -.316E-07 -.736E+03   -.381E+00 0.000E+00 0.371E+01
   -.170E+02 0.720E+01 0.712E+03   0.171E+02 -.727E+01 -.716E+03   -.116E+00 0.915E-01 0.344E+01
   -.495E+02 -.299E+02 -.661E+03   0.496E+02 0.302E+02 0.665E+03   -.226E+00 -.404E+00 -.358E+01
   -.179E+02 -.145E+02 -.687E+03   0.179E+02 0.146E+02 0.691E+03   -.488E-01 -.102E+00 -.353E+01
   -.148E+02 -.164E+02 0.715E+03   0.148E+02 0.165E+02 -.719E+03   -.256E-01 -.155E+00 0.342E+01
   -.170E+02 -.720E+01 0.712E+03   0.171E+02 0.727E+01 -.716E+03   -.116E+00 -.915E-01 0.344E+01
   -.122E+02 -.183E+02 -.688E+03   0.122E+02 0.184E+02 0.692E+03   0.307E-01 -.410E-01 -.354E+01
   -.626E+01 -.586E+01 -.693E+03   0.625E+01 0.587E+01 0.697E+03   0.114E-01 -.174E-01 -.351E+01
   -.533E+01 -.636E+01 0.703E+03   0.532E+01 0.638E+01 -.707E+03   0.101E-01 -.224E-01 0.342E+01
   -.754E+01 -.824E+01 0.704E+03   0.754E+01 0.828E+01 -.708E+03   -.664E-02 -.531E-01 0.343E+01
   -.109E+00 0.285E-03 0.132E+02   0.128E-11 0.734E-12 0.284E-11   -.124E-14 0.694E-17 -.105E+02

 POSITION                                       TOTAL-FORCE (eV/Angst)
     13.96710     10.56943     13.56860        -0.236283      0.000000     -0.074735
     11.39952     10.56943     13.56860         0.236283      0.000000     -0.074735
      0.00000      0.00000      9.00000        -0.001075      0.000000      0.524029
      2.11389      2.11389      9.00000        -0.000000     -0.004345      0.523752
      0.00000      2.11389     11.11389        -0.001670     -0.004682     -0.483235
      2.11389      0.00000     11.11389        -0.000000      0.000000     -0.483961
      0.00000      4.22777      9.00000         0.001250     -0.009527      0.523898
      2.11389      6.34166      9.00000        -0.000000     -0.008493      0.523899
      0.00000      6.34166     11.11389         0.005175     -0.010413     -0.480467
      2.11389      4.22777     11.11389        -0.000000     -0.007102     -0.482847
      0.00000      8.45554      9.00000         0.014789     -0.008199      0.524431
      2.11389     10.56943      9.00000        -0.000000      0.000000      0.524218
      0.00000     10.56943     11.11389         0.017572      0.000000     -0.478912
      2.11389      8.45554     11.11389        -0.000000     -0.005349     -0.481072
      0.00000     12.68331      9.00000         0.014789      0.008199      0.524431
      2.11389     14.79720      9.00000        -0.000000      0.008493      0.523899
      0.00000     14.79720     11.11389         0.005175      0.010413     -0.480467
      2.11389     12.68331     11.11389        -0.000000      0.005349     -0.481072
      0.00000     16.91108      9.00000         0.001250      0.009527      0.523898
      2.11389     19.02497      9.00000        -0.000000      0.004345      0.523752
      0.00000     19.02497     11.11389        -0.001670      0.004682     -0.483235
      2.11389     16.91108     11.11389        -0.000000      0.007102     -0.482847
      4.22777      0.00000      9.00000         0.001075      0.000000      0.524029
      6.34166      2.11389      9.00000         0.001811     -0.006525      0.524985
      4.22777      2.11389     11.11389         0.001670     -0.004682     -0.483235
      6.34166      0.00000     11.11389         0.003186      0.000000     -0.482789
      4.22777      4.22777      9.00000        -0.001250     -0.009527      0.523898
      6.34166      6.34166      9.00000        -0.010258     -0.022560      0.523552
      4.22777      6.34166     11.11389        -0.005175     -0.010413     -0.480467
      6.34166      4.22777     11.11389         0.004188     -0.013867     -0.479288
      4.22777      8.45554      9.00000        -0.014789     -0.008199      0.524431
      6.34166     10.56943      9.00000        -0.053887      0.000000      0.526116
      4.22777     10.56943     11.11389        -0.017572      0.000000     -0.478912
      6.34166      8.45554     11.11389        -0.038008     -0.017122     -0.471641
      4.22777     12.68331      9.00000        -0.014789      0.008199      0.524431
      6.34166     14.79720      9.00000        -0.010258      0.022560      0.523552
      4.22777     14.79720     11.11389        -0.005175      0.010413     -0.480467
      6.34166     12.68331     11.11389        -0.038008      0.017122     -0.471641
      4.22777     16.91108      9.00000        -0.001250      0.009527      0.523898
      6.34166     19.02497      9.00000         0.001811      0.006525      0.524985
      4.22777     19.02497     11.11389         0.001670      0.004682     -0.483235
      6.34166     16.91108     11.11389         0.004188      0.013867     -0.479288
      8.45554      0.00000      9.00000         0.002562      0.000000      0.525391
     10.56943      2.11389      9.00000         0.002219     -0.006753      0.527402
      8.45554      2.11389     11.11389         0.004742     -0.003716     -0.479857
     10.56943      0.00000     11.11389         0.002650      0.000000     -0.480211
      8.45554      4.22777      9.00000         0.002626     -0.020520      0.529631
     10.56943      6.34166      9.00000         0.006131     -0.059500      0.550142
      8.45554      6.34166     11.11389         0.021006     -0.050213     -0.457527
     10.56943      4.22777     11.11389         0.008469     -0.000347     -0.466023
      8.45554      8.45554      9.00000        -0.041627     -0.057559      0.501715
     10.56943     10.56943      9.00000        -0.018639      0.000000      0.196040
      8.45554     10.56943     11.11389        -0.321885      0.000000     -0.489713
     10.56943      8.45554     11.11389         0.117261     -0.336751     -0.308536
      8.45554     12.68331      9.00000        -0.041627      0.057559      0.501715
     10.56943     14.79720      9.00000         0.006131      0.059500      0.550142
      8.45554     14.79720     11.11389         0.021006      0.050213     -0.457527
     10.56943     12.68331     11.11389         0.117261      0.336751     -0.308536
      8.45554     16.91108      9.00000         0.002626      0.020520      0.529631
     10.56943     19.02497      9.00000         0.002219      0.006753      0.527402
[...]
     19.02497      6.34166     11.11389        -0.014087      0.028648      0.324761
     16.91108      6.34166      9.00000        -0.007277      0.043780     -0.374856
     19.02497      4.22777      9.00000        -0.001872      0.014777     -0.373523
     16.91108      8.45554     11.11389        -0.072641      0.117961      0.321865
     19.02497     10.56943     11.11389        -0.047386      0.000000      0.322587
     16.91108     10.56943      9.00000        -0.119671      0.000000     -0.295933
     19.02497      8.45554      9.00000        -0.032406      0.025181     -0.368855
     16.91108     12.68331     11.11389        -0.072641     -0.117961      0.321865
     19.02497     14.79720     11.11389        -0.014087     -0.028648      0.324761
     16.91108     14.79720      9.00000        -0.007277     -0.043780     -0.374856
     19.02497     12.68331      9.00000        -0.032406     -0.025181     -0.368855
     16.91108     16.91108     11.11389         0.008304     -0.011809      0.321493
     19.02497     19.02497     11.11389         0.003120     -0.004864      0.330454
     16.91108     19.02497      9.00000         0.002769     -0.006260     -0.374386
     19.02497     16.91108      9.00000        -0.001872     -0.014777     -0.373523
    total drift:                               -0.108895      0.000285      2.689933

  FREE ENERGIE OF THE ION-ELECTRON SYSTEM (eV)
  free  energy   TOTEN  =     -1654.48565284 eV

  energy  without entropy=    -1654.48565284  energy(sigma->0) =    -1654.48565284