 vasp.6.4.0 14Feb23 (build Dec 05 2023 14:15:48) complex

 executed on             LinuxIFC date 2023.12.07  22:36:02

 INCAR:
   SYSTEM = MgO-rocksalt
   ISMEAR = 0
   SIGMA = 0.05
   EDIFF = 1E-4
   ALGO = ALL
   ISTART = 0
   IBRION = -1
   NSW = 0
   ISYM = 3
   DIPOL = 0.5 0.5 0.5
   IDIPOL = 3
   LDIPOL = .TRUE.
   LHFCALC = .TRUE.
   GGA = B5
   AEXX = 0.2
   AGGAX = 0.72
   AGGAC = 0.81
   ALDAC = 0.19
   IVDW = 13
   VDW_S8 = 2.0293
   VDW_A1 = 0.4087
   VDW_A2 = 4.5381
   ENCUT = 520
   PREC = Normal
   LASPH = .TRUE.
   LREAL = Auto
   ISPIN = 1
   NELM = 2000
   NELMIN = 8
   NCORE = 32
   LWAVE = .FALSE.
   LCHARG = .FALSE.

 POTCAR:    PAW_PBE Au 04Oct2007
 POTCAR:    PAW_PBE Mg_pv 13Apr2007
 POTCAR:    PAW_PBE O 08Apr2002
 POTCAR:    PAW_PBE Au 04Oct2007
   VRHFIN =Au: s1d10

   TITEL  = PAW_PBE Au 04Oct2007
   POMASS =  196.966; ZVAL   =   11.000    mass and valenz
   ENMAX  =  229.943; ENMIN  =  172.457 eV

   TITEL  = PAW_PBE Mg_pv 13Apr2007
   POMASS =   24.305; ZVAL   =    8.000    mass and valenz
   ENMAX  =  403.929; ENMIN  =  302.947 eV

   TITEL  = PAW_PBE O 08Apr2002
   POMASS =   16.000; ZVAL   =    6.000    mass and valenz
   ENMAX  =  400.000; ENMIN  =  300.000 eV

 Optimization of the real space projectors (new method)

 maximal supplied QI-value         = 15.12
 optimisation between [QCUT,QGAM] = [ 11.64, 23.28] = [ 37.95,151.78] Ry
 Optimized for a Real-space Cutoff    1.36 Angstroem

   l    n(q)    QCUT    max X(q) W(low)/X(q) W(high)/X(q)  e(spline)
   2      9    11.641    60.898    0.44E-03    0.10E-02    0.32E-06
   2      9    11.641    58.894    0.45E-03    0.11E-02    0.32E-06
   0      9    11.641   109.617    0.19E-03    0.78E-04    0.11E-06
   0      9    11.641    75.026    0.19E-03    0.76E-04    0.10E-06
   1      9    11.641    16.344    0.43E-03    0.28E-03    0.32E-06
   1      9    11.641    10.160    0.36E-03    0.22E-03    0.26E-06
 Optimization of the real space projectors (new method)

[...]

   l    n(q)    QCUT    max X(q) W(low)/X(q) W(high)/X(q)  e(spline)
   1      8    11.527     2.974    0.16E-03    0.13E-03    0.98E-07
   1      8    11.527     4.279    0.42E-03    0.30E-03    0.22E-06
   0      8    11.527    16.381    0.13E-03    0.20E-03    0.72E-07
   0      8    11.527     5.611    0.88E-04    0.13E-03    0.50E-07
   2      7    11.527     4.652    0.25E-03    0.73E-04    0.51E-07
 Optimization of the real space projectors (new method)

 maximal supplied QI-value         = 24.76
 optimisation between [QCUT,QGAM] = [ 11.64, 23.27] = [ 37.91,151.63] Ry
 Optimized for a Real-space Cutoff    1.04 Angstroem

   l    n(q)    QCUT    max X(q) W(low)/X(q) W(high)/X(q)  e(spline)
   0      7    11.635    20.381    0.14E-03    0.49E-03    0.18E-06
   0      7    11.635    15.268    0.16E-03    0.52E-03    0.19E-06
   1      7    11.635     5.964    0.30E-03    0.44E-03    0.22E-06
   1      7    11.635     5.382    0.27E-03    0.34E-03    0.19E-06
|               ----> ADVICE to this user running VASP <----                  |
|     You enforced a specific xc type in the INCAR file but a different       |
|     type was found in the POTCAR file.                                      |
|     I HOPE YOU KNOW WHAT YOU ARE DOING!                                     |

  PAW_PBE Au 04Oct2007                  :
  PAW_PBE Mg_pv 13Apr2007               :
  PAW_PBE O 08Apr2002                   :

 POSCAR: Au Mg  O
  positions in direct lattice
  velocities in cartesian coordinates
 WARNING: Using user supplied parameters
     VDW_S8 = 2.029
     VDW_A1 = 0.409
     VDW_A2 = 4.538
     because the xc functional is not supported. Required parameters not
     defined in the INCAR file will be replaced with PBE defaults ones.

 ion  position               nearest neighbor table
   1  0.400  0.425  0.603- 153 2.29   2 2.53  55 2.73
   2  0.400  0.510  0.684-   1 2.53   3 2.68   4 2.74
   3  0.400  0.633  0.713-   4 2.57   2 2.68
   4  0.400  0.605  0.600- 157 2.16   3 2.57   2 2.74  59 2.95  40 3.02  60 3.02
   5  0.000  0.000  0.407- 107 2.11 108 2.11 123 2.11 188 2.11 105 2.11
   6  0.100  0.100  0.407- 107 2.11 108 2.11 112 2.11 127 2.11 106 2.11
   7  0.000  0.100  0.503- 105 2.11 106 2.11 109 2.11 186 2.11 107 2.11
   8  0.100  0.000  0.503- 105 2.11 106 2.11 122 2.11 125 2.11 108 2.11
   9  0.000  0.200  0.407- 111 2.11 107 2.11 112 2.11 192 2.11 109 2.11
  10  0.100  0.300  0.407- 112 2.11 111 2.11 116 2.11 131 2.11 110 2.11
  11  0.000  0.300  0.503- 109 2.11 110 2.11 113 2.11 190 2.11 111 2.11
  12  0.100  0.200  0.503- 110 2.11 109 2.11 106 2.11 129 2.11 112 2.11
  13  0.000  0.400  0.407- 111 2.11 115 2.11 116 2.11 196 2.11 113 2.11
  14  0.100  0.500  0.407- 115 2.11 116 2.11 120 2.11 135 2.11 114 2.11
  15  0.000  0.500  0.503- 113 2.11 114 2.11 117 2.11 194 2.11 115 2.11
  16  0.100  0.400  0.503- 110 2.11 113 2.11 114 2.11 133 2.11 116 2.11
  17  0.000  0.600  0.407- 115 2.11 119 2.11 120 2.11 200 2.11 117 2.11
  18  0.100  0.700  0.407- 124 2.11 120 2.11 119 2.11 139 2.11 118 2.11
  19  0.000  0.700  0.503- 121 2.11 118 2.11 117 2.11 198 2.11 119 2.11
  20  0.100  0.600  0.503- 114 2.11 117 2.11 118 2.11 137 2.11 120 2.11
  21  0.000  0.800  0.407- 119 2.11 123 2.11 124 2.11 204 2.11 121 2.11
  22  0.100  0.900  0.407- 108 2.11 123 2.11 124 2.11 143 2.11 122 2.11
  23  0.000  0.900  0.503- 105 2.11 121 2.11 122 2.11 202 2.11 123 2.11
  24  0.100  0.800  0.503- 118 2.11 121 2.11 122 2.11 141 2.11 124 2.11
  25  0.200  0.000  0.407- 128 2.11 127 2.11 108 2.11 143 2.11 125 2.11
  26  0.300  0.100  0.407- 127 2.11 128 2.11 132 2.11 147 2.11 126 2.11
  27  0.200  0.100  0.503- 126 2.11 125 2.11 106 2.11 129 2.11 127 2.11
  28  0.300  0.000  0.503- 125 2.11 126 2.11 142 2.11 145 2.11 128 2.11
  29  0.200  0.200  0.407- 131 2.11 132 2.11 112 2.11 127 2.11 129 2.11
  30  0.300  0.300  0.407- 131 2.11 132 2.11 136 2.11 151 2.11 130 2.11
  31  0.200  0.300  0.503- 129 2.11 130 2.11 110 2.11 133 2.11 131 2.11
  32  0.300  0.200  0.503- 129 2.11 130 2.11 126 2.11 149 2.11 132 2.11
  33  0.200  0.400  0.407- 136 2.11 131 2.11 135 2.11 116 2.11 133 2.11
  34  0.300  0.500  0.407- 135 2.11 136 2.11 140 2.11 155 2.11 134 2.11
  35  0.200  0.500  0.503- 134 2.11 133 2.11 114 2.11 137 2.11 135 2.11
  36  0.300  0.400  0.503- 133 2.11 130 2.11 134 2.11 153 2.11 136 2.11
  37  0.200  0.600  0.407- 140 2.11 135 2.11 139 2.11 120 2.11 137 2.11
  38  0.300  0.700  0.407- 139 2.11 144 2.11 140 2.11 159 2.11 138 2.11
  39  0.200  0.700  0.503- 138 2.11 141 2.11 118 2.11 137 2.11 139 2.11
  40  0.300  0.600  0.503- 137 2.11 134 2.11 138 2.11 157 2.11 140 2.11   4 3.02
  41  0.200  0.800  0.407- 139 2.11 144 2.11 143 2.11 124 2.11 141 2.11
  42  0.300  0.900  0.407- 143 2.11 128 2.11 144 2.11 163 2.11 142 2.11
  43  0.200  0.900  0.503- 142 2.11 125 2.11 141 2.11 122 2.11 143 2.11
  44  0.300  0.800  0.503- 138 2.11 141 2.11 142 2.11 161 2.11 144 2.11
  45  0.400  0.000  0.407- 128 2.11 147 2.11 148 2.11 163 2.11 145 2.11
  46  0.500  0.100  0.407- 147 2.11 148 2.11 152 2.11 167 2.11 146 2.11
  47  0.400  0.100  0.503- 126 2.11 145 2.11 146 2.11 149 2.11 147 2.11
  48  0.500  0.000  0.503- 145 2.11 146 2.11 162 2.11 165 2.11 148 2.11
  49  0.400  0.200  0.407- 151 2.11 147 2.11 132 2.11 152 2.11 149 2.11
  50  0.500  0.300  0.407- 152 2.11 151 2.11 156 2.11 171 2.11 150 2.11
  51  0.400  0.300  0.503- 149 2.11 130 2.11 150 2.11 153 2.11 151 2.11
  52  0.500  0.200  0.503- 150 2.11 149 2.11 146 2.11 169 2.11 152 2.11
  53  0.400  0.400  0.407- 136 2.11 151 2.11 155 2.11 156 2.11 153 2.11
  54  0.500  0.500  0.407- 155 2.11 156 2.11 160 2.11 175 2.11 154 2.11
  55  0.400  0.500  0.503- 134 2.11 153 2.11 154 2.11 157 2.11 155 2.11   1 2.73
  56  0.500  0.400  0.503- 150 2.11 153 2.11 154 2.11 173 2.11 156 2.11
  57  0.400  0.600  0.407- 140 2.11 155 2.11 159 2.11 160 2.11 157 2.11
  58  0.500  0.700  0.407- 164 2.11 160 2.11 159 2.11 179 2.11 158 2.11
  59  0.400  0.700  0.503- 161 2.11 157 2.11 158 2.11 138 2.11 159 2.11   4 2.95
  60  0.500  0.600  0.503- 154 2.11 157 2.11 158 2.11 177 2.11 160 2.11   4 3.02
[...]
 190  0.900  0.300  0.503-  92 2.11  91 2.11  11 2.11  96 2.11  90 2.11
 191  0.800  0.300  0.407-  70 2.11  89 2.11  90 2.11  93 2.11  91 2.11
 192  0.900  0.200  0.407-  90 2.11  86 2.11  89 2.11   9 2.11  92 2.11
 193  0.800  0.400  0.503-  76 2.11  91 2.11  95 2.11  96 2.11  93 2.11
 194  0.900  0.500  0.503-  15 2.11  95 2.11  96 2.11 100 2.11  94 2.11
 195  0.800  0.500  0.407-  74 2.11  93 2.11  94 2.11  97 2.11  95 2.11
 196  0.900  0.400  0.407-  13 2.11  90 2.11  93 2.11  94 2.11  96 2.11
 197  0.800  0.600  0.503-  80 2.11  95 2.11  99 2.11 100 2.11  97 2.11
 198  0.900  0.700  0.503- 104 2.11  99 2.11 100 2.11  19 2.11  98 2.11
 199  0.800  0.700  0.407-  78 2.11 101 2.11  98 2.11  97 2.11  99 2.11
 200  0.900  0.600  0.407-  17 2.11  94 2.11  97 2.11  98 2.11 100 2.11
 201  0.800  0.800  0.503-  84 2.11  99 2.11 103 2.11 104 2.11 101 2.11
 202  0.900  0.900  0.503-  23 2.11  88 2.11 103 2.11 104 2.11 102 2.11
 203  0.800  0.900  0.407-  82 2.11  85 2.11 101 2.11 102 2.11 103 2.11
 204  0.900  0.800  0.407-  98 2.11  21 2.11 101 2.11 102 2.11 104 2.11

  LATTYP: Found a simple tetragonal cell.
 ALAT       =    21.1388521970
 C/A-ratio  =     1.0461251639

  Lattice vectors:

 A1 = (  21.1388521970,   0.0000000000,   0.0000000000)
 A2 = (   0.0000000000,  21.1388521970,   0.0000000000)
 A3 = (   0.0000000000,   0.0000000000,  22.1138852197)

Analysis of symmetry for initial positions (statically):
 Subroutine PRICEL returns:
 Original cell was already a primitive cell.

 Routine SETGRP: Setting up the symmetry group for a
 simple tetragonal supercell.

 Subroutine GETGRP returns: Found  1 space group operations
 (whereof  1 operations were pure point group operations)
 out of a pool of 16 trial point group operations.

The static configuration has the point symmetry C_1 .

Analysis of symmetry for dynamics (positions and initial velocities):
 Subroutine PRICEL returns:
 Original cell was already a primitive cell.

[...]

The dynamic configuration has the point symmetry C_1 .

Analysis of constrained symmetry for selective dynamics:
 Subroutine PRICEL returns:
 Original cell was already a primitive cell.

 Routine SETGRP: Setting up the symmetry group for a
 simple tetragonal supercell.

 Subroutine GETGRP returns: Found  1 space group operations
 (whereof  1 operations were pure point group operations)
 out of a pool of 16 trial point group operations.

The constrained configuration has the point symmetry C_1 .

 Subroutine INISYM returns: Found  1 space group operations
 (whereof  1 operations are pure point group operations),
 and found     1 'primitive' translations

                                     Primitive cell

  volume of cell :    9881.6133

  direct lattice vectors                    reciprocal lattice vectors
    21.138852197  0.000000000  0.000000000     0.047306258  0.000000000  0.000000000
     0.000000000 21.138852197  0.000000000     0.000000000  0.047306258  0.000000000
     0.000000000  0.000000000 22.113885220     0.000000000  0.000000000  0.045220457

  length of vectors
[...]
     22     -46.5988      2.00000
     23     -46.5982      2.00000
     24     -46.5610      2.00000
     25     -46.5602      2.00000
     26     -46.5552      2.00000
     27     -46.5400      2.00000
     28     -46.5265      2.00000
     29     -46.5259      2.00000
     30     -46.5253      2.00000
     31     -46.5248      2.00000
     32     -46.5242      2.00000
     33     -46.5238      2.00000
     34     -46.5095      2.00000
     35     -46.5056      2.00000
     36     -46.4973      2.00000
     37     -46.4973      2.00000
     38     -46.4956      2.00000
     39     -46.4953      2.00000
     40     -46.4852      2.00000
     41     -46.4699      2.00000
     42     -46.4699      2.00000
     43     -46.4685      2.00000
     44     -46.4681      2.00000
     45     -46.4622      2.00000
     46     -46.4622      2.00000
     47     -46.4484      2.00000
     48     -46.4273      2.00000
     49     -46.4269      2.00000
     50     -46.4220      2.00000
     51     -46.4214      2.00000
     52     -46.4198      2.00000
     53     -46.4195      2.00000
     54     -46.4150      2.00000
     55     -46.4143      2.00000
     56     -46.4116      2.00000
     57     -46.4102      2.00000
     58     -46.4089      2.00000
     59     -46.4082      2.00000
     60     -46.4067      2.00000
[...]
    882       5.1168      0.00000
    883       5.1875      0.00000
    884       5.2084      0.00000
    885       5.2411      0.00000
    886       5.3695      0.00000
    887       5.3798      0.00000
    888       5.4387      0.00000
    889       5.4633      0.00000
    890       5.4747      0.00000
    891       5.5080      0.00000
    892       5.5536      0.00000
    893       5.7053      0.00000
    894       5.7947      0.00000
    895       5.8416      0.00000
    896       5.9068      0.00000

 soft charge-density along one line, spin component           1
         0         1         2         3         4         5         6         7         8         9
 total charge-density along one line

------------------------ aborting loop because EDIFF is reached ----------------------------------------

 VOLUME and BASIS-vectors are now :
  energy-cutoff  :      520.00
  volume of cell :     9881.61
      direct lattice vectors                 reciprocal lattice vectors
    21.138852197  0.000000000  0.000000000     0.047306258  0.000000000  0.000000000
     0.000000000 21.138852197  0.000000000     0.000000000  0.047306258  0.000000000
     0.000000000  0.000000000 22.113885220     0.000000000  0.000000000  0.045220457

  length of vectors
    21.138852197 21.138852197 22.113885220     0.047306258  0.047306258  0.045220457

 FORCES acting on ions:
    Electron-Ion                     Ewald-Force                    Non-Local-Force
   0.615E-01 0.369E+03 -.196E+04   -.629E-01 -.366E+03 0.197E+04   0.201E-01 -.372E+01 -.444E+01
   0.195E+00 0.208E+03 -.198E+04   -.196E+00 -.211E+03 0.198E+04   0.114E-01 0.252E+01 0.428E+01
   -.393E+00 -.355E+03 -.186E+04   0.386E+00 0.351E+03 0.185E+04   0.401E-02 0.397E+01 0.607E+01
   0.139E+00 -.226E+03 -.180E+04   -.137E+00 0.227E+03 0.180E+04   0.154E-01 -.889E+00 -.251E+01
   0.728E+01 -.275E+01 0.936E+03   -.731E+01 0.276E+01 -.929E+03   0.156E-01 -.673E-02 -.672E+01
   0.131E+02 0.618E+01 0.939E+03   -.131E+02 -.620E+01 -.932E+03   0.325E-01 0.112E-01 -.672E+01
   0.949E+01 0.529E+01 -.918E+03   -.951E+01 -.529E+01 0.910E+03   0.132E-01 -.200E-02 0.665E+01
   0.158E+02 -.519E+01 -.915E+03   -.158E+02 0.521E+01 0.908E+03   0.181E-01 -.901E-02 0.665E+01
   0.977E+01 0.992E+01 0.938E+03   -.981E+01 -.994E+01 -.931E+03   0.271E-01 0.943E-02 -.672E+01
   0.254E+02 0.185E+02 0.950E+03   -.256E+02 -.186E+02 -.942E+03   0.102E+00 0.328E-01 -.675E+01
   0.184E+02 0.158E+02 -.913E+03   -.185E+02 -.158E+02 0.906E+03   0.206E-01 0.441E-02 0.664E+01
   0.240E+02 0.201E+02 -.912E+03   -.240E+02 -.201E+02 0.904E+03   0.435E-01 0.620E-02 0.663E+01
   0.172E+02 0.972E+01 0.945E+03   -.173E+02 -.974E+01 -.937E+03   0.523E-01 0.135E-01 -.673E+01
   0.394E+02 0.476E+01 0.962E+03   -.396E+02 -.479E+01 -.954E+03   0.172E+00 0.182E-01 -.677E+01
   0.286E+02 0.429E+01 -.908E+03   -.286E+02 -.430E+01 0.900E+03   0.293E-01 0.826E-02 0.663E+01
   0.538E+02 0.225E+02 -.897E+03   -.538E+02 -.225E+02 0.889E+03   0.602E-01 0.129E-01 0.660E+01
   0.191E+02 -.486E+01 0.947E+03   -.192E+02 0.486E+01 -.939E+03   0.655E-01 -.515E-03 -.673E+01
   0.313E+02 -.168E+02 0.955E+03   -.315E+02 0.168E+02 -.948E+03   0.142E+00 -.313E-01 -.675E+01
   0.231E+02 -.140E+02 -.910E+03   -.232E+02 0.140E+02 0.902E+03   0.341E-01 -.183E-02 0.664E+01
   0.622E+02 -.117E+02 -.892E+03   -.623E+02 0.117E+02 0.884E+03   0.108E+00 0.911E-02 0.660E+01
   0.122E+02 -.120E+02 0.941E+03   -.122E+02 0.121E+02 -.933E+03   0.372E-01 -.157E-01 -.672E+01
   0.157E+02 -.127E+02 0.942E+03   -.157E+02 0.128E+02 -.934E+03   0.402E-01 -.310E-01 -.672E+01
   0.116E+02 -.114E+02 -.916E+03   -.117E+02 0.114E+02 0.909E+03   0.167E-01 -.895E-02 0.664E+01
   0.329E+02 -.257E+02 -.906E+03   -.330E+02 0.258E+02 0.898E+03   0.608E-01 -.192E-01 0.663E+01
   0.133E+02 -.528E+01 0.943E+03   -.134E+02 0.530E+01 -.935E+03   0.276E-01 -.151E-01 -.673E+01
   0.951E+01 0.126E+02 0.948E+03   -.955E+01 -.127E+02 -.940E+03   0.254E-01 0.675E-01 -.674E+01
   0.188E+02 0.132E+02 -.911E+03   -.188E+02 -.132E+02 0.904E+03   0.252E-01 0.224E-01 0.664E+01
   0.117E+02 -.106E+02 -.908E+03   -.117E+02 0.106E+02 0.901E+03   0.118E-01 -.880E-02 0.663E+01
   0.206E+02 0.226E+02 0.951E+03   -.207E+02 -.227E+02 -.943E+03   0.823E-01 0.765E-01 -.674E+01
   0.265E+02 0.457E+02 0.986E+03   -.268E+02 -.462E+02 -.978E+03   0.221E+00 0.284E+00 -.675E+01
   0.559E+02 0.505E+02 -.887E+03   -.561E+02 -.506E+02 0.880E+03   0.186E+00 0.111E-01 0.658E+01
   0.240E+02 0.539E+02 -.894E+03   -.241E+02 -.542E+02 0.886E+03   0.391E-01 0.166E+00 0.660E+01
   0.470E+02 0.254E+02 0.982E+03   -.475E+02 -.255E+02 -.974E+03   0.357E+00 0.846E-01 -.685E+01
   0.504E+02 0.115E+02 0.104E+04   -.512E+02 -.117E+02 -.103E+04   0.511E+00 0.126E+00 -.689E+01
   0.113E+03 0.144E+02 -.846E+03   -.113E+03 -.145E+02 0.839E+03   0.279E+00 0.455E-01 0.651E+01
   0.128E+03 0.927E+02 -.764E+03   -.130E+03 -.928E+02 0.757E+03   0.153E+01 0.108E+00 0.614E+01
   0.535E+02 -.141E+02 0.991E+03   -.541E+02 0.141E+02 -.983E+03   0.487E+00 -.318E-01 -.686E+01
   0.350E+02 -.448E+02 0.101E+04   -.355E+02 0.454E+02 -.100E+04   0.329E+00 -.365E+00 -.674E+01
   0.779E+02 -.504E+02 -.868E+03   -.783E+02 0.504E+02 0.860E+03   0.275E+00 -.295E-01 0.657E+01
   0.155E+03 -.488E+02 -.722E+03   -.159E+03 0.489E+02 0.714E+03   0.252E+01 -.216E-01 0.634E+01
   0.274E+02 -.286E+02 0.960E+03   -.275E+02 0.288E+02 -.952E+03   0.113E+00 -.114E+00 -.674E+01
   0.121E+02 -.255E+02 0.954E+03   -.121E+02 0.257E+02 -.947E+03   0.282E-01 -.120E+00 -.675E+01
   0.250E+02 -.284E+02 -.906E+03   -.250E+02 0.285E+02 0.898E+03   0.243E-01 -.514E-01 0.663E+01
   0.386E+02 -.776E+02 -.869E+03   -.386E+02 0.779E+02 0.862E+03   0.899E-02 -.274E+00 0.657E+01
   -.160E-02 -.744E+01 0.948E+03   0.172E-02 0.747E+01 -.940E+03   -.858E-04 -.182E-01 -.673E+01
   -.952E+01 0.126E+02 0.948E+03   0.955E+01 -.127E+02 -.940E+03   -.252E-01 0.678E-01 -.674E+01
   -.403E-02 0.219E+02 -.906E+03   0.401E-02 -.220E+02 0.898E+03   -.265E-04 0.622E-01 0.663E+01
   -.117E+02 -.106E+02 -.908E+03   0.117E+02 0.106E+02 0.901E+03   -.116E-01 -.870E-02 0.663E+01
   -.593E-02 0.364E+02 0.964E+03   0.574E-02 -.368E+02 -.956E+03   0.186E-03 0.300E+00 -.679E+01
   -.265E+02 0.457E+02 0.986E+03   0.268E+02 -.461E+02 -.978E+03   -.221E+00 0.284E+00 -.675E+01
   -.364E-01 0.133E+03 -.820E+03   0.361E-01 -.135E+03 0.813E+03   0.280E-03 0.152E+01 0.665E+01
   -.240E+02 0.539E+02 -.894E+03   0.241E+02 -.542E+02 0.886E+03   -.389E-01 0.166E+00 0.660E+01
   -.202E-01 0.474E+02 0.105E+04   0.198E-01 -.480E+02 -.104E+04   0.258E-03 0.410E+00 -.506E+01
   -.505E+02 0.115E+02 0.104E+04   0.512E+02 -.117E+02 -.103E+04   -.510E+00 0.126E+00 -.689E+01
   -.976E-01 0.195E+02 -.584E+03   0.971E-01 -.212E+02 0.579E+03   0.520E-03 0.129E+01 0.466E+01
   -.128E+03 0.926E+02 -.764E+03   0.130E+03 -.928E+02 0.757E+03   -.153E+01 0.109E+00 0.614E+01
   -.161E-01 -.272E+02 0.107E+04   0.157E-01 0.276E+02 -.106E+04   0.277E-03 -.260E+00 -.388E+01
   -.351E+02 -.448E+02 0.101E+04   0.355E+02 0.454E+02 -.100E+04   -.329E+00 -.365E+00 -.674E+01
   -.274E-01 -.162E+03 -.734E+03   0.275E-01 0.166E+03 0.727E+03   0.845E-05 -.245E+01 0.593E+01
   -.155E+03 -.488E+02 -.722E+03   0.159E+03 0.488E+02 0.715E+03   -.252E+01 -.221E-01 0.635E+01
[...]
   -.101E+02 0.914E+01 0.708E+03   0.101E+02 -.915E+01 -.712E+03   -.338E-01 0.164E-01 0.313E+01
   0.193E-02 0.632E+01 0.704E+03   -.206E-02 -.632E+01 -.708E+03   0.171E-04 0.697E-02 0.314E+01
   -.185E+02 0.966E+01 -.684E+03   0.185E+02 -.967E+01 0.688E+03   -.266E-01 0.940E-02 -.331E+01
   0.476E-02 0.256E+01 -.686E+03   -.466E-02 -.257E+01 0.690E+03   -.716E-04 0.770E-02 -.329E+01
   -.147E+02 0.235E+01 0.712E+03   0.147E+02 -.236E+01 -.716E+03   -.493E-01 0.110E-01 0.312E+01
   0.373E-02 0.607E+01 0.708E+03   -.342E-02 -.608E+01 -.712E+03   0.337E-04 0.112E-01 0.313E+01
   -.210E+02 -.474E+01 -.682E+03   0.210E+02 0.474E+01 0.687E+03   -.352E-01 0.511E-02 -.331E+01
   0.255E-02 -.831E+01 -.687E+03   -.247E-02 0.831E+01 0.691E+03   0.464E-04 -.209E-02 -.329E+01
   -.121E+02 -.801E+01 0.710E+03   0.121E+02 0.803E+01 -.714E+03   -.453E-01 -.140E-01 0.313E+01
   0.274E-02 -.296E+01 0.709E+03   -.287E-02 0.296E+01 -.713E+03   0.754E-05 0.608E-03 0.313E+01
   -.126E+02 -.117E+02 -.687E+03   0.126E+02 0.117E+02 0.691E+03   -.255E-01 -.120E-01 -.328E+01
   0.924E-03 -.709E+01 -.690E+03   -.107E-02 0.710E+01 0.694E+03   -.516E-04 -.866E-02 -.327E+01
   -.669E+01 -.666E+01 0.705E+03   0.671E+01 0.667E+01 -.709E+03   -.228E-01 -.167E-01 0.314E+01
   0.141E-02 -.762E+01 0.706E+03   -.135E-02 0.763E+01 -.710E+03   -.343E-05 -.126E-01 0.313E+01
   -.130E-02 -.373E+01 0.159E+00   0.264E-11 -.120E-11 -.898E-11   0.428E-01 0.345E+01 0.856E+00

 POSITION                                       TOTAL-FORCE (eV/Angst)
      8.45451      8.98915     13.34135         0.011768     -0.180618      0.049246
      8.45464     10.77395     15.12987         0.006066     -0.226441      0.301808
      8.45667     13.37210     15.77041        -0.002232      0.360069      0.369857
      8.45496     12.78393     13.26751         0.011075      0.200505     -0.204770
      0.00000      0.00000      9.00000        -0.004933      0.001542      0.491816
      2.11389      2.11389      9.00000        -0.010206     -0.004215      0.493260
      0.00000      2.11389     11.11389        -0.004066      0.000096     -0.444491
      2.11389      0.00000     11.11389        -0.006056      0.002077     -0.444423
      0.00000      4.22777      9.00000        -0.008434     -0.003702      0.493769
      2.11389      6.34166      9.00000        -0.030022     -0.010407      0.499328
      0.00000      6.34166     11.11389        -0.005794     -0.001759     -0.439244
      2.11389      4.22777     11.11389        -0.012650     -0.002188     -0.437702
      0.00000      8.45554      9.00000        -0.015664     -0.004938      0.497427
      2.11389     10.56943      9.00000        -0.050831     -0.006943      0.504939
      0.00000     10.56943     11.11389        -0.007780     -0.003442     -0.434602
      2.11389      8.45554     11.11389        -0.012246     -0.003958     -0.416144
      0.00000     12.68331      9.00000        -0.019452     -0.000702      0.498059
      2.11389     14.79720      9.00000        -0.042150      0.009176      0.499168
      0.00000     14.79720     11.11389        -0.009749     -0.000221     -0.439293
      2.11389     12.68331     11.11389        -0.025461     -0.004468     -0.415353
      0.00000     16.91108      9.00000        -0.011475      0.004414      0.494463
      2.11389     19.02497      9.00000        -0.012788      0.009055      0.493262
      0.00000     19.02497     11.11389        -0.005073      0.001986     -0.442414
      2.11389     16.91108     11.11389        -0.017525      0.005267     -0.434363
      4.22777      0.00000      9.00000        -0.008996      0.004006      0.494481
      6.34166      2.11389      9.00000        -0.008260     -0.020484      0.494846
      4.22777      2.11389     11.11389        -0.008281     -0.006843     -0.438249
      6.34166      0.00000     11.11389        -0.003846      0.001834     -0.436171
      4.22777      4.22777      9.00000        -0.025925     -0.024553      0.495005
      6.34166      6.34166      9.00000        -0.079186     -0.095987      0.489663
      4.22777      6.34166     11.11389        -0.042885      0.003598     -0.392240
      6.34166      4.22777     11.11389        -0.011089     -0.040399     -0.408360
      4.22777      8.45554      9.00000        -0.101156     -0.025763      0.527494
      6.34166     10.56943      9.00000        -0.183540     -0.047706      0.505211
      4.22777     10.56943     11.11389        -0.047577     -0.017339     -0.330817
      6.34166      8.45554     11.11389        -0.566643     -0.001696     -0.236389
      4.22777     12.68331      9.00000        -0.136508      0.007632      0.528863
      6.34166     14.79720      9.00000        -0.117406      0.127448      0.477054
      4.22777     14.79720     11.11389        -0.065741      0.002909     -0.382449
      6.34166     12.68331     11.11389        -0.956849     -0.018915     -0.381874
      4.22777     16.91108      9.00000        -0.035898      0.035028      0.496749
      6.34166     19.02497      9.00000        -0.009060      0.034574      0.499251
      4.22777     19.02497     11.11389        -0.007503      0.013651     -0.433887
      6.34166     16.91108     11.11389         0.004674      0.060512     -0.374121
      8.45554      0.00000      9.00000        -0.000106      0.005160      0.494972
     10.56943      2.11389      9.00000         0.008011     -0.020597      0.495558
      8.45554      2.11389     11.11389        -0.000118     -0.015969     -0.429755
     10.56943      0.00000     11.11389         0.003523      0.001882     -0.433019
      8.45554      4.22777      9.00000        -0.000167     -0.083966      0.505525
     10.56943      6.34166      9.00000         0.078934     -0.095903      0.489646
      8.45554      6.34166     11.11389        -0.000127     -0.517675     -0.378539
     10.56943      4.22777     11.11389         0.010858     -0.040318     -0.408727
      8.45554      8.45554      9.00000        -0.000207     -0.102067      0.100574
     10.56943     10.56943      9.00000         0.183274     -0.047730      0.505921
      8.45554     10.56943     11.11389        -0.000111     -0.195331     -0.320954
     10.56943      8.45554     11.11389         0.565688     -0.001665     -0.236294
      8.45554     12.68331      9.00000        -0.000239      0.065691     -0.186426
     10.56943     14.79720      9.00000         0.117294      0.127701      0.476955
      8.45554     14.79720     11.11389         0.000025      0.983751     -0.338019
     10.56943     12.68331     11.11389         0.955989     -0.018846     -0.381156
[...]
     19.02497      6.34166     11.11389        -0.000268      0.001021      0.353728
     16.91108      6.34166      9.00000        -0.010974      0.004190     -0.410229
     19.02497      4.22777      9.00000        -0.000235      0.001487     -0.407724
     16.91108      8.45554     11.11389        -0.008729      0.002308      0.346515
     19.02497     10.56943     11.11389        -0.000111      0.001845      0.350175
     16.91108     10.56943      9.00000        -0.015806      0.003125     -0.412311
     19.02497      8.45554      9.00000         0.000260      0.003099     -0.409569
     16.91108     12.68331     11.11389        -0.011729      0.001036      0.345364
     19.02497     14.79720     11.11389         0.000011     -0.001266      0.352626
     16.91108     14.79720      9.00000        -0.014741     -0.005092     -0.410397
     19.02497     12.68331      9.00000        -0.000241     -0.000217     -0.409927
     16.91108     16.91108     11.11389        -0.008503     -0.004514      0.353201
     19.02497     19.02497     11.11389        -0.000353     -0.003341      0.356995
     16.91108     19.02497      9.00000        -0.007344     -0.006002     -0.407785
     19.02497     16.91108      9.00000        -0.000057     -0.004688     -0.408461
    total drift:                                0.024653      0.132480      0.243347

  FREE ENERGIE OF THE ION-ELECTRON SYSTEM (eV)
  free  energy   TOTEN  =     -1369.30404137 eV

  energy  without entropy=    -1369.30404137  energy(sigma->0) =    -1369.30404137