 vasp.6.3.0 20Jan22 (build Apr  1 2022 16:44:48) complex
 executed on        HPECrayEX_GCC date 2022.11.18  08:34:52

 INCAR:
   SYSTEM = MgO-rocksalt
   ISMEAR = 0
   SIGMA = 0.05
   EDIFF = 1E-6
   ALGO = ALL
   ISTART = 0
   IBRION = -1
   NSW = 0
   ISYM = 2
   DIPOL = 0.5 0.5 0.5
   IDIPOL = 3
   LDIPOL = .TRUE.
   GGA = PE
   IVDW = 20
   ENCUT = 520
   PREC = Accurate
   LASPH = .TRUE.
   LREAL = Auto
   ISPIN = 1
   NELM = 200
   NELMIN = 8
   NCORE = 4
   KPAR = 2
   LWAVE = .FALSE.
   LCHARG = .FALSE.

 POTCAR:    PAW_PBE Cu 22Jun2005
 POTCAR:    PAW_PBE Mg_pv 13Apr2007
 POTCAR:    PAW_PBE O 08Apr2002
 POTCAR:    PAW_PBE Cu 22Jun2005
   VRHFIN =Cu: d10 p1

   TITEL  = PAW_PBE Cu 22Jun2005
   POMASS =   63.546; ZVAL   =   11.000    mass and valenz
   ENMAX  =  295.446; ENMIN  =  221.585 eV

   TITEL  = PAW_PBE Mg_pv 13Apr2007
   POMASS =   24.305; ZVAL   =    8.000    mass and valenz
   ENMAX  =  403.929; ENMIN  =  302.947 eV

   TITEL  = PAW_PBE O 08Apr2002
   POMASS =   16.000; ZVAL   =    6.000    mass and valenz
   ENMAX  =  400.000; ENMIN  =  300.000 eV

 Optimization of the real space projectors (new method)

 maximal supplied QI-value         = 16.25
 optimisation between [QCUT,QGAM] = [ 11.54, 23.24] = [ 37.28,151.24] Ry
 Optimized for a Real-space Cutoff    1.53 Angstroem

   l    n(q)    QCUT    max X(q) W(low)/X(q) W(high)/X(q)  e(spline)
   2     10    11.539     4.610    0.96E-04    0.13E-03    0.19E-06
   2     10    11.539     8.522    0.16E-03    0.21E-03    0.28E-06
   0     11    11.539    51.609    0.45E-04    0.31E-04    0.11E-06
   0     11    11.539    27.747    0.39E-04    0.29E-04    0.10E-06
   1     10    11.539    20.408    0.70E-05    0.38E-04    0.18E-06
   1     10    11.539    13.425    0.66E-05    0.34E-04    0.17E-06
 Optimization of the real space projectors (new method)

[...]

   l    n(q)    QCUT    max X(q) W(low)/X(q) W(high)/X(q)  e(spline)
   1      8    11.527     2.974    0.44E-04    0.56E-04    0.12E-06
   1      8    11.527     4.279    0.12E-03    0.12E-03    0.26E-06
   0      9    11.527    16.381    0.46E-04    0.64E-04    0.78E-07
   0      9    11.527     5.611    0.26E-04    0.43E-04    0.55E-07
   2      8    11.527     4.652    0.22E-03    0.72E-04    0.47E-07
 Optimization of the real space projectors (new method)

 maximal supplied QI-value         = 24.76
 optimisation between [QCUT,QGAM] = [ 11.64, 23.27] = [ 37.91,151.63] Ry
 Optimized for a Real-space Cutoff    1.14 Angstroem

   l    n(q)    QCUT    max X(q) W(low)/X(q) W(high)/X(q)  e(spline)
   0      8    11.635    20.381    0.10E-03    0.33E-03    0.24E-06
   0      8    11.635    15.268    0.11E-03    0.35E-03    0.26E-06
   1      7    11.635     5.964    0.24E-03    0.31E-03    0.30E-06
   1      7    11.635     5.382    0.22E-03    0.25E-03    0.26E-06
  PAW_PBE Cu 22Jun2005                  :
  PAW_PBE Mg_pv 13Apr2007               :
  PAW_PBE O 08Apr2002                   :

 POSCAR: Cu Mg  O
  positions in direct lattice
 exchange correlation table for  LEXCH =        8
   RHO(1)=    0.500       N(1)  =     2000
   RHO(2)=  100.500       N(2)  =     4000

 ion  position               nearest neighbor table
   1  0.487  0.413  0.634-   2 2.23
   2  0.413  0.487  0.634-   1 2.23
   3  0.000  0.000  0.407- 105 2.11 106 2.11 121 2.11 186 2.11 103 2.11
   4  0.100  0.100  0.407- 105 2.11 106 2.11 110 2.11 125 2.11 104 2.11
   5  0.000  0.100  0.503- 103 2.11 104 2.11 107 2.11 184 2.11 105 2.11
   6  0.100  0.000  0.503- 103 2.11 104 2.11 120 2.11 123 2.11 106 2.11
   7  0.000  0.200  0.407- 109 2.11 105 2.11 110 2.11 190 2.11 107 2.11
   8  0.100  0.300  0.407- 110 2.11 109 2.11 114 2.11 129 2.11 108 2.11
   9  0.000  0.300  0.503- 107 2.11 108 2.11 111 2.11 188 2.11 109 2.11
  10  0.100  0.200  0.503- 108 2.11 107 2.11 104 2.11 127 2.11 110 2.11
  11  0.000  0.400  0.407- 109 2.11 113 2.11 114 2.11 194 2.11 111 2.11
  12  0.100  0.500  0.407- 113 2.11 114 2.11 118 2.11 133 2.11 112 2.11
  13  0.000  0.500  0.503- 111 2.11 112 2.11 115 2.11 192 2.11 113 2.11
  14  0.100  0.400  0.503- 108 2.11 111 2.11 112 2.11 131 2.11 114 2.11
  15  0.000  0.600  0.407- 113 2.11 117 2.11 118 2.11 198 2.11 115 2.11
  16  0.100  0.700  0.407- 122 2.11 118 2.11 117 2.11 137 2.11 116 2.11
  17  0.000  0.700  0.503- 119 2.11 116 2.11 115 2.11 196 2.11 117 2.11
  18  0.100  0.600  0.503- 112 2.11 115 2.11 116 2.11 135 2.11 118 2.11
  19  0.000  0.800  0.407- 117 2.11 121 2.11 122 2.11 202 2.11 119 2.11
  20  0.100  0.900  0.407- 106 2.11 121 2.11 122 2.11 141 2.11 120 2.11
  21  0.000  0.900  0.503- 103 2.11 119 2.11 120 2.11 200 2.11 121 2.11
  22  0.100  0.800  0.503- 116 2.11 119 2.11 120 2.11 139 2.11 122 2.11
  23  0.200  0.000  0.407- 126 2.11 125 2.11 106 2.11 141 2.11 123 2.11
  24  0.300  0.100  0.407- 125 2.11 126 2.11 130 2.11 145 2.11 124 2.11
  25  0.200  0.100  0.503- 124 2.11 123 2.11 104 2.11 127 2.11 125 2.11
  26  0.300  0.000  0.503- 123 2.11 124 2.11 140 2.11 143 2.11 126 2.11
  27  0.200  0.200  0.407- 129 2.11 130 2.11 110 2.11 125 2.11 127 2.11
  28  0.300  0.300  0.407- 129 2.11 130 2.11 134 2.11 149 2.11 128 2.11
  29  0.200  0.300  0.503- 127 2.11 128 2.11 108 2.11 131 2.11 129 2.11
  30  0.300  0.200  0.503- 127 2.11 128 2.11 124 2.11 147 2.11 130 2.11
  31  0.200  0.400  0.407- 134 2.11 129 2.11 133 2.11 114 2.11 131 2.11
  32  0.300  0.500  0.407- 133 2.11 134 2.11 138 2.11 153 2.11 132 2.11
  33  0.200  0.500  0.503- 132 2.11 131 2.11 112 2.11 135 2.11 133 2.11
  34  0.300  0.400  0.503- 131 2.11 128 2.11 132 2.11 151 2.11 134 2.11
  35  0.200  0.600  0.407- 138 2.11 133 2.11 137 2.11 118 2.11 135 2.11
  36  0.300  0.700  0.407- 137 2.11 142 2.11 138 2.11 157 2.11 136 2.11
  37  0.200  0.700  0.503- 136 2.11 139 2.11 116 2.11 135 2.11 137 2.11
  38  0.300  0.600  0.503- 135 2.11 132 2.11 136 2.11 155 2.11 138 2.11
  39  0.200  0.800  0.407- 137 2.11 142 2.11 141 2.11 122 2.11 139 2.11
  40  0.300  0.900  0.407- 141 2.11 126 2.11 142 2.11 161 2.11 140 2.11
  41  0.200  0.900  0.503- 140 2.11 123 2.11 139 2.11 120 2.11 141 2.11
  42  0.300  0.800  0.503- 136 2.11 139 2.11 140 2.11 159 2.11 142 2.11
  43  0.400  0.000  0.407- 126 2.11 145 2.11 146 2.11 161 2.11 143 2.11
  44  0.500  0.100  0.407- 145 2.11 146 2.11 150 2.11 165 2.11 144 2.11
  45  0.400  0.100  0.503- 124 2.11 143 2.11 144 2.11 147 2.11 145 2.11
  46  0.500  0.000  0.503- 143 2.11 144 2.11 160 2.11 163 2.11 146 2.11
  47  0.400  0.200  0.407- 149 2.11 145 2.11 130 2.11 150 2.11 147 2.11
  48  0.500  0.300  0.407- 150 2.11 149 2.11 154 2.11 169 2.11 148 2.11
  49  0.400  0.300  0.503- 147 2.11 128 2.11 148 2.11 151 2.11 149 2.11
  50  0.500  0.200  0.503- 148 2.11 147 2.11 144 2.11 167 2.11 150 2.11
  51  0.400  0.400  0.407- 134 2.11 149 2.11 153 2.11 154 2.11 151 2.11
  52  0.500  0.500  0.407- 153 2.11 154 2.11 158 2.11 173 2.11 152 2.11
  53  0.400  0.500  0.503- 132 2.11 151 2.11 152 2.11 155 2.11 153 2.11
  54  0.500  0.400  0.503- 148 2.11 151 2.11 152 2.11 171 2.11 154 2.11
  55  0.400  0.600  0.407- 138 2.11 153 2.11 157 2.11 158 2.11 155 2.11
  56  0.500  0.700  0.407- 162 2.11 158 2.11 157 2.11 177 2.11 156 2.11
  57  0.400  0.700  0.503- 159 2.11 155 2.11 156 2.11 136 2.11 157 2.11
  58  0.500  0.600  0.503- 152 2.11 155 2.11 156 2.11 175 2.11 158 2.11
  59  0.400  0.800  0.407- 157 2.11 142 2.11 161 2.11 162 2.11 159 2.11
  60  0.500  0.900  0.407- 146 2.11 161 2.11 162 2.11 181 2.11 160 2.11
[...]
 188  0.900  0.300  0.503-  90 2.11  89 2.11   9 2.11  94 2.11  88 2.11
 189  0.800  0.300  0.407-  68 2.11  87 2.11  88 2.11  91 2.11  89 2.11
 190  0.900  0.200  0.407-  88 2.11  84 2.11  87 2.11   7 2.11  90 2.11
 191  0.800  0.400  0.503-  74 2.11  89 2.11  93 2.11  94 2.11  91 2.11
 192  0.900  0.500  0.503-  13 2.11  93 2.11  94 2.11  98 2.11  92 2.11
 193  0.800  0.500  0.407-  72 2.11  91 2.11  92 2.11  95 2.11  93 2.11
 194  0.900  0.400  0.407-  11 2.11  88 2.11  91 2.11  92 2.11  94 2.11
 195  0.800  0.600  0.503-  78 2.11  93 2.11  97 2.11  98 2.11  95 2.11
 196  0.900  0.700  0.503- 102 2.11  97 2.11  98 2.11  17 2.11  96 2.11
 197  0.800  0.700  0.407-  76 2.11  99 2.11  96 2.11  95 2.11  97 2.11
 198  0.900  0.600  0.407-  15 2.11  92 2.11  95 2.11  96 2.11  98 2.11
 199  0.800  0.800  0.503-  82 2.11  97 2.11 101 2.11 102 2.11  99 2.11
 200  0.900  0.900  0.503-  21 2.11  86 2.11 101 2.11 102 2.11 100 2.11
 201  0.800  0.900  0.407-  80 2.11  83 2.11  99 2.11 100 2.11 101 2.11
 202  0.900  0.800  0.407-  96 2.11  19 2.11  99 2.11 100 2.11 102 2.11

  LATTYP: Found a simple tetragonal cell.
 ALAT       =    21.1388521970
 C/A-ratio  =     1.0461251639

  Lattice vectors:

 A1 = (  21.1388521970,   0.0000000000,   0.0000000000)
 A2 = (   0.0000000000,  21.1388521970,   0.0000000000)
 A3 = (   0.0000000000,   0.0000000000,  22.1138852197)

Analysis of symmetry for initial positions (statically):
 Subroutine PRICEL returns:
 Original cell was already a primitive cell.

 Routine SETGRP: Setting up the symmetry group for a
 simple tetragonal supercell.

 Subroutine GETGRP returns: Found  4 space group operations
 (whereof  2 operations were pure point group operations)
 out of a pool of 16 trial point group operations.

The static configuration has the point symmetry C_1h.
 The point group associated with its full space group is C_2v.

Analysis of symmetry for dynamics (positions and initial velocities):
 Subroutine PRICEL returns:
 Original cell was already a primitive cell.

 Routine SETGRP: Setting up the symmetry group for a
 simple tetragonal supercell.

 Subroutine GETGRP returns: Found  4 space group operations
 (whereof  2 operations were pure point group operations)
 out of a pool of 16 trial point group operations.

The dynamic configuration has the point symmetry C_1h.
 The point group associated with its full space group is C_2v.

 Subroutine INISYM returns: Found  4 space group operations
 (whereof  2 operations are pure point group operations),
 and found     1 'primitive' translations

                                     Primitive cell

  volume of cell :    9881.6133

  direct lattice vectors                    reciprocal lattice vectors
    21.138852197  0.000000000  0.000000000     0.047306258  0.000000000  0.000000000
     0.000000000 21.138852197  0.000000000     0.000000000  0.047306258  0.000000000
     0.000000000  0.000000000 22.113885220     0.000000000  0.000000000  0.045220457

  length of vectors
    21.138852197 21.138852197 22.113885220     0.047306258  0.047306258  0.045220457

  position of ions in fractional coordinates (direct lattice)
     0.487233885  0.412766122  0.633890230
     0.412766091  0.487233915  0.633890230
     0.000000000  0.000000000  0.406984115
     0.100000000  0.100000000  0.406984115
     0.000000000  0.100000000  0.502574971
     0.100000000  0.000000000  0.502574971
     0.000000000  0.200000000  0.406984115
     0.100000000  0.300000000  0.406984115
     0.000000000  0.300000000  0.502574971
     0.100000000  0.200000000  0.502574971
     0.000000000  0.400000000  0.406984115
     0.100000000  0.500000000  0.406984115
     0.000000000  0.500000000  0.502574971
     0.100000000  0.400000000  0.502574971
[...]
   O          14.773          3.165          5.255          0.97311355
   O          14.773          3.165          5.255          0.97311912
   O          14.770          3.165          5.254          0.97301792
   O          14.771          3.165          5.255          0.97306394
   O          14.773          3.165          5.255          0.97313341
   O          14.773          3.165          5.255          0.97312090
   O          14.771          3.165          5.255          0.97306587
   O          14.771          3.165          5.255          0.97307397
   O          14.773          3.165          5.255          0.97312470
   O          14.773          3.165          5.255          0.97312471

  vdW correction parametrized for the method pbe

  IVDW =  20
  VDW_RADIUS =    50.000 A
  VDW_IDAMPF =  0
  VDW_S6 =     1.000
  VDW_SR =     0.940
  VDW_D =    20.000
  LVDW_ONECELL = F F F
  LVDW_SAMETYPE T T T
  LVDW_EWALD = F

  Number of pair interactions contributing to vdW energy: 1097033
  Edisp (eV):  -28.84675

  FORCE on cell =-STRESS in cart. coord.  units (eV):
  Direction    XX          YY          ZZ          XY          YZ          ZX
  Alpha Z  1354.41543  1354.41543  1354.41543
  Ewald  478638.37410478638.37410************  -389.48255     0.00001    -0.00000
  Hartree507459.62105507459.62108************  -288.73701     0.00000    -0.00000
  E(xc)   -7777.40517 -7777.40517 -7809.26484    -0.26647    -0.00000    -0.00000
  Local  ************************************   670.78138    -0.00001     0.00000
  n-local -8811.74892 -8811.74893 -8930.13136     1.64430     0.00000     0.00000
  augment  3468.45227  3468.45228  3413.11599     3.03769     0.00000     0.00001
  Kinetic 22858.40901 22858.40900 23115.40250     3.15620    -0.00000    -0.00000
  Fock        0.00000     0.00000     0.00000     0.00000     0.00000     0.00000
  vdW       -37.20763   -37.20763    -2.12538    -0.06411    -0.00006     0.00006
  Total    -187.59311  -187.59311    15.95529     0.06942     0.00000     0.00000
  in kB     -30.41583   -30.41583     2.58695     0.01126     0.00000     0.00000

 VOLUME and BASIS-vectors are now :
  energy-cutoff  :      520.00
  volume of cell :     9881.61
      direct lattice vectors                 reciprocal lattice vectors
    21.138852197  0.000000000  0.000000000     0.047306258  0.000000000  0.000000000
     0.000000000 21.138852197  0.000000000     0.000000000  0.047306258  0.000000000
     0.000000000  0.000000000 22.113885220     0.000000000  0.000000000  0.045220457

  length of vectors
    21.138852197 21.138852197 22.113885220     0.047306258  0.047306258  0.045220457

 FORCES acting on ions:
    Electron-Ion                     Ewald-Force                    Non-Local-Force
   -.255E+03 0.255E+03 -.200E+04   0.246E+03 -.246E+03 0.200E+04   0.888E+01 -.888E+01 0.428E+00
   0.255E+03 -.255E+03 -.200E+04   -.246E+03 0.246E+03 0.200E+04   -.888E+01 0.888E+01 0.428E+00
   0.175E+01 0.175E+01 0.931E+03   -.174E+01 -.174E+01 -.923E+03   -.183E-02 -.183E-02 -.740E+01
   0.626E+01 0.626E+01 0.933E+03   -.626E+01 -.626E+01 -.925E+03   -.427E-02 -.427E-02 -.741E+01
   0.269E+01 0.599E+01 -.922E+03   -.268E+01 -.599E+01 0.914E+03   -.845E-02 -.659E-03 0.739E+01
   0.599E+01 0.269E+01 -.922E+03   -.599E+01 -.268E+01 0.914E+03   -.659E-03 -.845E-02 0.739E+01
   0.302E+01 0.636E+01 0.933E+03   -.300E+01 -.637E+01 -.926E+03   -.105E-01 0.203E-02 -.741E+01
   0.130E+02 0.799E+01 0.939E+03   -.130E+02 -.801E+01 -.931E+03   -.112E-01 0.998E-02 -.741E+01
   0.590E+01 0.710E+01 -.919E+03   -.588E+01 -.710E+01 0.911E+03   -.127E-01 0.397E-02 0.739E+01
   0.127E+02 0.117E+02 -.919E+03   -.127E+02 -.117E+02 0.911E+03   -.159E-01 0.586E-04 0.739E+01
   0.524E+01 0.229E+01 0.936E+03   -.524E+01 -.229E+01 -.929E+03   -.181E-02 0.448E-02 -.741E+01
   0.166E+02 -.279E+01 0.942E+03   -.166E+02 0.278E+01 -.934E+03   0.303E-01 0.106E-01 -.741E+01
   0.808E+01 -.261E+01 -.918E+03   -.810E+01 0.261E+01 0.910E+03   0.104E-01 0.335E-02 0.739E+01
   0.254E+02 0.555E+01 -.913E+03   -.254E+02 -.558E+01 0.905E+03   -.389E-02 0.174E-01 0.739E+01
   0.483E+01 -.543E+01 0.935E+03   -.485E+01 0.543E+01 -.927E+03   0.152E-01 -.709E-03 -.740E+01
   0.991E+01 -.892E+01 0.936E+03   -.993E+01 0.893E+01 -.928E+03   0.164E-01 -.807E-02 -.740E+01
   0.501E+01 -.814E+01 -.920E+03   -.503E+01 0.814E+01 0.913E+03   0.160E-01 -.309E-02 0.739E+01
   0.212E+02 -.111E+02 -.915E+03   -.213E+02 0.111E+02 0.907E+03   0.357E-01 0.229E-02 0.739E+01
   0.255E+01 -.497E+01 0.932E+03   -.256E+01 0.498E+01 -.924E+03   0.832E-02 -.397E-02 -.740E+01
   0.497E+01 -.255E+01 0.932E+03   -.498E+01 0.256E+01 -.924E+03   0.397E-02 -.832E-02 -.740E+01
   0.234E+01 -.234E+01 -.923E+03   -.234E+01 0.234E+01 0.915E+03   0.358E-02 -.358E-02 0.739E+01
   0.883E+01 -.883E+01 -.921E+03   -.884E+01 0.884E+01 0.913E+03   0.113E-01 -.113E-01 0.739E+01
   0.636E+01 0.302E+01 0.933E+03   -.637E+01 -.300E+01 -.926E+03   0.203E-02 -.105E-01 -.741E+01
   0.799E+01 0.130E+02 0.939E+03   -.801E+01 -.130E+02 -.931E+03   0.998E-02 -.112E-01 -.741E+01
   0.117E+02 0.127E+02 -.919E+03   -.117E+02 -.127E+02 0.911E+03   0.586E-04 -.159E-01 0.739E+01
   0.710E+01 0.590E+01 -.919E+03   -.710E+01 -.588E+01 0.911E+03   0.397E-02 -.127E-01 0.739E+01
   0.135E+02 0.135E+02 0.940E+03   -.135E+02 -.135E+02 -.933E+03   -.330E-02 -.330E-02 -.741E+01
   0.225E+02 0.225E+02 0.962E+03   -.225E+02 -.225E+02 -.954E+03   0.143E-01 0.143E-01 -.746E+01
   0.344E+02 0.225E+02 -.905E+03   -.343E+02 -.226E+02 0.898E+03   -.479E-01 0.195E-01 0.738E+01
   0.225E+02 0.344E+02 -.905E+03   -.226E+02 -.343E+02 0.898E+03   0.195E-01 -.479E-01 0.738E+01
   0.268E+02 0.674E+01 0.954E+03   -.268E+02 -.679E+01 -.946E+03   -.777E-02 0.401E-01 -.741E+01
   0.316E+02 -.914E+01 0.980E+03   -.316E+02 0.909E+01 -.972E+03   -.407E-01 0.382E-01 -.723E+01
   0.529E+02 -.840E+01 -.893E+03   -.531E+02 0.835E+01 0.886E+03   0.986E-01 0.389E-01 0.739E+01
   0.800E+02 0.335E+02 -.847E+03   -.798E+02 -.337E+02 0.840E+03   -.138E+00 0.165E+00 0.731E+01
   0.216E+02 -.133E+02 0.949E+03   -.217E+02 0.134E+02 -.942E+03   0.283E-01 -.928E-02 -.739E+01
   0.133E+02 -.216E+02 0.949E+03   -.134E+02 0.217E+02 -.942E+03   0.928E-02 -.283E-01 -.739E+01
   0.220E+02 -.220E+02 -.912E+03   -.220E+02 0.220E+02 0.904E+03   0.265E-01 -.265E-01 0.740E+01
   0.510E+02 -.510E+02 -.872E+03   -.511E+02 0.511E+02 0.864E+03   0.738E-01 -.738E-01 0.743E+01
   0.892E+01 -.991E+01 0.936E+03   -.893E+01 0.993E+01 -.928E+03   0.807E-02 -.164E-01 -.740E+01
   0.543E+01 -.483E+01 0.935E+03   -.543E+01 0.485E+01 -.927E+03   0.709E-03 -.152E-01 -.740E+01
   0.814E+01 -.501E+01 -.920E+03   -.814E+01 0.503E+01 0.913E+03   0.309E-02 -.160E-01 0.739E+01
   0.111E+02 -.212E+02 -.915E+03   -.111E+02 0.213E+02 0.907E+03   -.229E-02 -.357E-01 0.739E+01
   0.229E+01 0.524E+01 0.936E+03   -.229E+01 -.524E+01 -.929E+03   0.448E-02 -.181E-02 -.741E+01
   -.279E+01 0.166E+02 0.942E+03   0.278E+01 -.166E+02 -.934E+03   0.106E-01 0.303E-01 -.741E+01
   0.555E+01 0.254E+02 -.913E+03   -.558E+01 -.254E+02 0.905E+03   0.174E-01 -.389E-02 0.739E+01
   -.261E+01 0.808E+01 -.918E+03   0.261E+01 -.810E+01 0.910E+03   0.335E-02 0.104E-01 0.739E+01
   0.674E+01 0.268E+02 0.954E+03   -.679E+01 -.268E+02 -.946E+03   0.401E-01 -.777E-02 -.741E+01
   -.914E+01 0.316E+02 0.980E+03   0.909E+01 -.316E+02 -.972E+03   0.382E-01 -.407E-01 -.723E+01
   0.335E+02 0.800E+02 -.847E+03   -.337E+02 -.798E+02 0.840E+03   0.165E+00 -.138E+00 0.731E+01
   -.840E+01 0.529E+02 -.893E+03   0.835E+01 -.531E+02 0.886E+03   0.389E-01 0.986E-01 0.739E+01
   0.165E+02 0.165E+02 0.100E+04   -.165E+02 -.165E+02 -.996E+03   0.118E-01 0.118E-01 -.756E+01
   -.165E+02 -.165E+02 0.100E+04   0.165E+02 0.165E+02 -.996E+03   -.118E-01 -.118E-01 -.756E+01
   0.522E+02 -.522E+02 -.719E+03   -.518E+02 0.518E+02 0.713E+03   -.319E+00 0.319E+00 0.589E+01
   -.522E+02 0.522E+02 -.719E+03   0.518E+02 -.518E+02 0.713E+03   0.319E+00 -.319E+00 0.589E+01
   0.914E+01 -.316E+02 0.980E+03   -.909E+01 0.316E+02 -.972E+03   -.382E-01 0.407E-01 -.723E+01
   -.674E+01 -.268E+02 0.954E+03   0.679E+01 0.268E+02 -.946E+03   -.401E-01 0.777E-02 -.741E+01
   0.840E+01 -.529E+02 -.893E+03   -.835E+01 0.531E+02 0.886E+03   -.389E-01 -.986E-01 0.739E+01
   -.335E+02 -.800E+02 -.847E+03   0.337E+02 0.798E+02 0.840E+03   -.165E+00 0.138E+00 0.731E+01
   0.279E+01 -.166E+02 0.942E+03   -.278E+01 0.166E+02 -.934E+03   -.106E-01 -.303E-01 -.741E+01
   -.229E+01 -.524E+01 0.936E+03   0.229E+01 0.524E+01 -.929E+03   -.448E-02 0.181E-02 -.741E+01
[...]
   -.104E+02 0.582E+01 0.706E+03   0.104E+02 -.582E+01 -.710E+03   -.240E-01 0.333E-02 0.355E+01
   -.274E+01 0.482E+01 0.702E+03   0.275E+01 -.482E+01 -.706E+03   -.124E-01 0.444E-02 0.354E+01
   -.198E+02 0.294E+01 -.686E+03   0.198E+02 -.292E+01 0.690E+03   -.197E-01 -.190E-01 -.356E+01
   -.571E+01 -.227E+01 -.690E+03   0.571E+01 0.227E+01 0.694E+03   0.181E-02 -.655E-02 -.356E+01
   -.122E+02 -.274E+01 0.708E+03   0.122E+02 0.275E+01 -.712E+03   -.273E-02 -.214E-01 0.354E+01
   -.414E+01 0.153E+01 0.704E+03   0.414E+01 -.153E+01 -.708E+03   -.778E-02 -.330E-02 0.354E+01
   -.145E+02 -.851E+01 -.688E+03   0.145E+02 0.852E+01 0.692E+03   0.110E-01 -.102E-01 -.357E+01
   -.301E+01 -.601E+01 -.692E+03   0.300E+01 0.601E+01 0.696E+03   0.105E-01 -.146E-02 -.356E+01
   -.688E+01 -.649E+01 0.703E+03   0.687E+01 0.649E+01 -.707E+03   0.953E-02 0.971E-03 0.354E+01
   -.315E+01 -.414E+01 0.703E+03   0.315E+01 0.414E+01 -.707E+03   0.777E-02 -.476E-02 0.354E+01
   -.609E+01 -.609E+01 -.692E+03   0.609E+01 0.609E+01 0.696E+03   0.739E-02 0.739E-02 -.356E+01
   -.160E+01 -.160E+01 -.694E+03   0.160E+01 0.160E+01 0.698E+03   0.229E-02 0.229E-02 -.356E+01
   -.363E+01 -.160E+01 0.701E+03   0.363E+01 0.159E+01 -.705E+03   0.344E-03 0.657E-02 0.354E+01
   -.160E+01 -.363E+01 0.701E+03   0.159E+01 0.363E+01 -.705E+03   0.657E-02 0.344E-03 0.354E+01
   -.308E-01 0.152E-01 0.591E+01   0.144E-11 0.125E-11 0.114E-12   0.179E-14 0.179E-14 -.652E+01

 POSITION                                       TOTAL-FORCE (eV/Angst)
     10.29957      8.72540     14.01778         0.060795     -0.060795     -0.065088
      8.72540     10.29957     14.01778        -0.060795      0.060795     -0.065088
      0.00000      0.00000      9.00000         0.000520      0.000520      0.356682
      2.11389      2.11389      9.00000         0.001320      0.001320      0.357251
      0.00000      2.11389     11.11389         0.002348      0.000260     -0.355567
      2.11389      0.00000     11.11389         0.000260      0.002348     -0.355567
      0.00000      4.22777      9.00000         0.002836     -0.000473      0.356852
      2.11389      6.34166      9.00000         0.003485     -0.002281      0.357742
      0.00000      6.34166     11.11389         0.003525     -0.000983     -0.355035
      2.11389      4.22777     11.11389         0.004713      0.000530     -0.354321
      0.00000      8.45554      9.00000         0.000588     -0.001264      0.356813
      2.11389     10.56943      9.00000        -0.006627     -0.003260      0.357693
      0.00000     10.56943     11.11389        -0.002960     -0.001049     -0.355305
      2.11389      8.45554     11.11389        -0.000464     -0.004878     -0.353587
      0.00000     12.68331      9.00000        -0.003783      0.000158      0.356526
      2.11389     14.79720      9.00000        -0.004106      0.002062      0.355675
      0.00000     14.79720     11.11389        -0.004275      0.000801     -0.355741
      2.11389     12.68331     11.11389        -0.010394     -0.000929     -0.356240
      0.00000     16.91108      9.00000        -0.002209      0.001066      0.356440
      2.11389     19.02497      9.00000        -0.001066      0.002209      0.356440
      0.00000     19.02497     11.11389        -0.000951      0.000951     -0.355813
      2.11389     16.91108     11.11389        -0.002973      0.002973     -0.356040
      4.22777      0.00000      9.00000        -0.000473      0.002836      0.356852
      6.34166      2.11389      9.00000        -0.002281      0.003485      0.357742
      4.22777      2.11389     11.11389         0.000530      0.004713     -0.354321
      6.34166      0.00000     11.11389        -0.000983      0.003525     -0.355035
      4.22777      4.22777      9.00000         0.002158      0.002158      0.360048
      6.34166      6.34166      9.00000         0.000943      0.000943      0.373728
      4.22777      6.34166     11.11389         0.013972     -0.002609     -0.347559
      6.34166      4.22777     11.11389        -0.002609      0.013972     -0.347559
      4.22777      8.45554      9.00000         0.002884     -0.011679      0.359117
      6.34166     10.56943      9.00000         0.018576     -0.013707      0.323010
      4.22777     10.56943     11.11389        -0.036804     -0.013489     -0.349944
      6.34166      8.45554     11.11389         0.068629     -0.031649     -0.270423
      4.22777     12.68331      9.00000        -0.006279      0.002306      0.353239
      6.34166     14.79720      9.00000        -0.002306      0.006279      0.353239
      4.22777     14.79720     11.11389        -0.006776      0.006776     -0.358004
      6.34166     12.68331     11.11389        -0.006718      0.006718     -0.356008
      4.22777     16.91108      9.00000        -0.002062      0.004106      0.355675
      6.34166     19.02497      9.00000        -0.000158      0.003783      0.356526
      4.22777     19.02497     11.11389        -0.000801      0.004275     -0.355741
      6.34166     16.91108     11.11389         0.000929      0.010394     -0.356240
      8.45554      0.00000      9.00000        -0.001264      0.000588      0.356813
     10.56943      2.11389      9.00000        -0.003260     -0.006627      0.357693
      8.45554      2.11389     11.11389        -0.004878     -0.000464     -0.353587
     10.56943      0.00000     11.11389        -0.001049     -0.002960     -0.355305
      8.45554      4.22777      9.00000        -0.011679      0.002884      0.359117
     10.56943      6.34166      9.00000        -0.013707      0.018576      0.323010
      8.45554      6.34166     11.11389        -0.031649      0.068629     -0.270423
     10.56943      4.22777     11.11389        -0.013489     -0.036804     -0.349944
      8.45554      8.45554      9.00000         0.003784      0.003784      0.391633
     10.56943     10.56943      9.00000        -0.003784     -0.003784      0.391633
      8.45554     10.56943     11.11389         0.105249     -0.105249     -0.271610
     10.56943      8.45554     11.11389        -0.105249      0.105249     -0.271610
      8.45554     12.68331      9.00000         0.013707     -0.018576      0.323010
     10.56943     14.79720      9.00000         0.011679     -0.002884      0.359117
      8.45554     14.79720     11.11389         0.013489      0.036804     -0.349944
     10.56943     12.68331     11.11389         0.031649     -0.068629     -0.270423
      8.45554     16.91108      9.00000         0.003260      0.006627      0.357693
     10.56943     19.02497      9.00000         0.001264     -0.000588      0.356813
[...]
     19.02497      6.34166     11.11389        -0.003855      0.000280      0.554891
     16.91108      6.34166      9.00000        -0.006752      0.000908     -0.554859
     19.02497      4.22777      9.00000        -0.003447      0.001279     -0.555915
     16.91108      8.45554     11.11389        -0.006112     -0.005214      0.554859
     19.02497     10.56943     11.11389         0.000394     -0.001834      0.554304
     16.91108     10.56943      9.00000        -0.000965     -0.005825     -0.557126
     19.02497      8.45554      9.00000        -0.002233     -0.000881     -0.556023
     16.91108     12.68331     11.11389         0.002712     -0.002981      0.552884
     19.02497     14.79720     11.11389         0.002868     -0.000444      0.554524
     16.91108     14.79720      9.00000         0.002543      0.000195     -0.557119
     19.02497     12.68331      9.00000         0.002109     -0.001363     -0.556425
     16.91108     16.91108     11.11389         0.001976      0.001976      0.554233
     19.02497     19.02497     11.11389         0.000624      0.000624      0.554946
     16.91108     19.02497      9.00000         0.000065      0.001794     -0.556340
     19.02497     16.91108      9.00000         0.001794      0.000065     -0.556340
    total drift:                               -0.030791      0.015226     -0.609439

  FREE ENERGIE OF THE ION-ELECTRON SYSTEM (eV)
  free  energy   TOTEN  =     -1169.77108837 eV

  energy  without entropy=    -1169.77108837  energy(sigma->0) =    -1169.77108837