 vasp.6.3.0 20Jan22 (build Apr  1 2022 16:44:48) complex
 executed on        HPECrayEX_GCC date 2023.01.09  23:38:41

 INCAR:
   SYSTEM = MgO-rocksalt
   ISMEAR = 0
   SIGMA = 0.05
   EDIFF = 1E-6
   ALGO = ALL
   ISTART = 0
   IBRION = -1
   NSW = 0
   ISYM = 2
   DIPOL = 0.5 0.5 0.5
   IDIPOL = 3
   LDIPOL = .TRUE.
   METAGGA = R2SCAN
   IVDW = 13
   VDW_S8 = 0.6019
   VDW_A1 = 0.5156
   VDW_A2 = 5.7734
   ENCUT = 520
   PREC = Accurate
   LASPH = .TRUE.
   LREAL = Auto
   ISPIN = 1
   NELM = 200
   NELMIN = 8
   NCORE = 4
   KPAR = 2
   LWAVE = .FALSE.
   LCHARG = .FALSE.

 POTCAR:    PAW_PBE Au 04Oct2007
 POTCAR:    PAW_PBE Mg_pv 13Apr2007
 POTCAR:    PAW_PBE O 08Apr2002
 POTCAR:    PAW_PBE Au 04Oct2007
   VRHFIN =Au: s1d10

   TITEL  = PAW_PBE Au 04Oct2007
   POMASS =  196.966; ZVAL   =   11.000    mass and valenz
   ENMAX  =  229.943; ENMIN  =  172.457 eV

   TITEL  = PAW_PBE Mg_pv 13Apr2007
   POMASS =   24.305; ZVAL   =    8.000    mass and valenz
   ENMAX  =  403.929; ENMIN  =  302.947 eV

   TITEL  = PAW_PBE O 08Apr2002
   POMASS =   16.000; ZVAL   =    6.000    mass and valenz
   ENMAX  =  400.000; ENMIN  =  300.000 eV

 Optimization of the real space projectors (new method)

 maximal supplied QI-value         = 15.12
 optimisation between [QCUT,QGAM] = [ 11.64, 23.28] = [ 37.95,151.78] Ry
 Optimized for a Real-space Cutoff    1.49 Angstroem

   l    n(q)    QCUT    max X(q) W(low)/X(q) W(high)/X(q)  e(spline)
   2      9    11.641    60.898    0.24E-03    0.10E-03    0.19E-06
   2      9    11.641    58.894    0.25E-03    0.10E-03    0.19E-06
   0     10    11.641   109.617    0.73E-04    0.33E-04    0.11E-06
   0     10    11.641    75.026    0.71E-04    0.32E-04    0.11E-06
   1     10    11.641    16.344    0.27E-04    0.97E-04    0.16E-06
   1     10    11.641    10.160    0.23E-04    0.77E-04    0.13E-06
 Optimization of the real space projectors (new method)

[...]

   l    n(q)    QCUT    max X(q) W(low)/X(q) W(high)/X(q)  e(spline)
   1      8    11.527     2.974    0.44E-04    0.56E-04    0.12E-06
   1      8    11.527     4.279    0.12E-03    0.12E-03    0.26E-06
   0      9    11.527    16.381    0.46E-04    0.64E-04    0.78E-07
   0      9    11.527     5.611    0.26E-04    0.43E-04    0.55E-07
   2      8    11.527     4.652    0.22E-03    0.72E-04    0.47E-07
 Optimization of the real space projectors (new method)

 maximal supplied QI-value         = 24.76
 optimisation between [QCUT,QGAM] = [ 11.64, 23.27] = [ 37.91,151.63] Ry
 Optimized for a Real-space Cutoff    1.14 Angstroem

   l    n(q)    QCUT    max X(q) W(low)/X(q) W(high)/X(q)  e(spline)
   0      8    11.635    20.381    0.10E-03    0.33E-03    0.24E-06
   0      8    11.635    15.268    0.11E-03    0.35E-03    0.26E-06
   1      7    11.635     5.964    0.24E-03    0.31E-03    0.30E-06
   1      7    11.635     5.382    0.22E-03    0.25E-03    0.26E-06
  PAW_PBE Au 04Oct2007                  :
  PAW_PBE Mg_pv 13Apr2007               :
  PAW_PBE O 08Apr2002                   :

 POSCAR: Au Mg  O
  positions in direct lattice
  velocities in cartesian coordinates

 METAGGA = R2SCA    LMAXTAU =  6    LMIXTAU =  F

 WARNING: Using user supplied parameters
     VDW_S8 = 0.602
     VDW_A1 = 0.516
     VDW_A2 = 5.773
     because the xc functional is not supported. Required parameters not
     defined in the INCAR file will be replaced with PBE defaults ones.

 ion  position               nearest neighbor table
   1  0.400  0.565  0.604- 157 2.36   3 2.61  55 2.63   4 2.77
   2  0.400  0.500  0.818-   3 2.52
   3  0.400  0.500  0.704-   2 2.52   4 2.61   1 2.61
   4  0.400  0.434  0.604- 153 2.35   3 2.61  55 2.64   1 2.77
   5  0.000  0.000  0.407- 107 2.11 108 2.11 123 2.11 188 2.11 105 2.11
   6  0.100  0.100  0.407- 107 2.11 108 2.11 112 2.11 127 2.11 106 2.11
   7  0.000  0.100  0.503- 105 2.11 106 2.11 109 2.11 186 2.11 107 2.11
   8  0.100  0.000  0.503- 105 2.11 106 2.11 122 2.11 125 2.11 108 2.11
   9  0.000  0.200  0.407- 111 2.11 107 2.11 112 2.11 192 2.11 109 2.11
  10  0.100  0.300  0.407- 112 2.11 111 2.11 116 2.11 131 2.11 110 2.11
  11  0.000  0.300  0.503- 109 2.11 110 2.11 113 2.11 190 2.11 111 2.11
  12  0.100  0.200  0.503- 110 2.11 109 2.11 106 2.11 129 2.11 112 2.11
  13  0.000  0.400  0.407- 111 2.11 115 2.11 116 2.11 196 2.11 113 2.11
  14  0.100  0.500  0.407- 115 2.11 116 2.11 120 2.11 135 2.11 114 2.11
  15  0.000  0.500  0.503- 113 2.11 114 2.11 117 2.11 194 2.11 115 2.11
  16  0.100  0.400  0.503- 110 2.11 113 2.11 114 2.11 133 2.11 116 2.11
  17  0.000  0.600  0.407- 115 2.11 119 2.11 120 2.11 200 2.11 117 2.11
  18  0.100  0.700  0.407- 124 2.11 120 2.11 119 2.11 139 2.11 118 2.11
  19  0.000  0.700  0.503- 121 2.11 118 2.11 117 2.11 198 2.11 119 2.11
  20  0.100  0.600  0.503- 114 2.11 117 2.11 118 2.11 137 2.11 120 2.11
  21  0.000  0.800  0.407- 119 2.11 123 2.11 124 2.11 204 2.11 121 2.11
  22  0.100  0.900  0.407- 108 2.11 123 2.11 124 2.11 143 2.11 122 2.11
  23  0.000  0.900  0.503- 105 2.11 121 2.11 122 2.11 202 2.11 123 2.11
  24  0.100  0.800  0.503- 118 2.11 121 2.11 122 2.11 141 2.11 124 2.11
  25  0.200  0.000  0.407- 128 2.11 127 2.11 108 2.11 143 2.11 125 2.11
  26  0.300  0.100  0.407- 127 2.11 128 2.11 132 2.11 147 2.11 126 2.11
  27  0.200  0.100  0.503- 126 2.11 125 2.11 106 2.11 129 2.11 127 2.11
  28  0.300  0.000  0.503- 125 2.11 126 2.11 142 2.11 145 2.11 128 2.11
  29  0.200  0.200  0.407- 131 2.11 132 2.11 112 2.11 127 2.11 129 2.11
  30  0.300  0.300  0.407- 131 2.11 132 2.11 136 2.11 151 2.11 130 2.11
  31  0.200  0.300  0.503- 129 2.11 130 2.11 110 2.11 133 2.11 131 2.11
  32  0.300  0.200  0.503- 129 2.11 130 2.11 126 2.11 149 2.11 132 2.11
  33  0.200  0.400  0.407- 136 2.11 131 2.11 135 2.11 116 2.11 133 2.11
  34  0.300  0.500  0.407- 135 2.11 136 2.11 140 2.11 155 2.11 134 2.11
  35  0.200  0.500  0.503- 134 2.11 133 2.11 114 2.11 137 2.11 135 2.11
  36  0.300  0.400  0.503- 133 2.11 130 2.11 134 2.11 153 2.11 136 2.11
  37  0.200  0.600  0.407- 140 2.11 135 2.11 139 2.11 120 2.11 137 2.11
  38  0.300  0.700  0.407- 139 2.11 144 2.11 140 2.11 159 2.11 138 2.11
  39  0.200  0.700  0.503- 138 2.11 141 2.11 118 2.11 137 2.11 139 2.11
  40  0.300  0.600  0.503- 137 2.11 134 2.11 138 2.11 157 2.11 140 2.11
  41  0.200  0.800  0.407- 139 2.11 144 2.11 143 2.11 124 2.11 141 2.11
  42  0.300  0.900  0.407- 143 2.11 128 2.11 144 2.11 163 2.11 142 2.11
  43  0.200  0.900  0.503- 142 2.11 125 2.11 141 2.11 122 2.11 143 2.11
  44  0.300  0.800  0.503- 138 2.11 141 2.11 142 2.11 161 2.11 144 2.11
  45  0.400  0.000  0.407- 128 2.11 147 2.11 148 2.11 163 2.11 145 2.11
  46  0.500  0.100  0.407- 147 2.11 148 2.11 152 2.11 167 2.11 146 2.11
  47  0.400  0.100  0.503- 126 2.11 145 2.11 146 2.11 149 2.11 147 2.11
  48  0.500  0.000  0.503- 145 2.11 146 2.11 162 2.11 165 2.11 148 2.11
  49  0.400  0.200  0.407- 151 2.11 147 2.11 132 2.11 152 2.11 149 2.11
  50  0.500  0.300  0.407- 152 2.11 151 2.11 156 2.11 171 2.11 150 2.11
  51  0.400  0.300  0.503- 149 2.11 130 2.11 150 2.11 153 2.11 151 2.11
  52  0.500  0.200  0.503- 150 2.11 149 2.11 146 2.11 169 2.11 152 2.11
  53  0.400  0.400  0.407- 136 2.11 151 2.11 155 2.11 156 2.11 153 2.11
  54  0.500  0.500  0.407- 155 2.11 156 2.11 160 2.11 175 2.11 154 2.11
  55  0.400  0.500  0.503- 134 2.11 153 2.11 154 2.11 157 2.11 155 2.11   1 2.63   4 2.64
  56  0.500  0.400  0.503- 150 2.11 153 2.11 154 2.11 173 2.11 156 2.11
  57  0.400  0.600  0.407- 140 2.11 155 2.11 159 2.11 160 2.11 157 2.11
  58  0.500  0.700  0.407- 164 2.11 160 2.11 159 2.11 179 2.11 158 2.11
  59  0.400  0.700  0.503- 161 2.11 157 2.11 158 2.11 138 2.11 159 2.11
  60  0.500  0.600  0.503- 154 2.11 157 2.11 158 2.11 177 2.11 160 2.11
[...]
 190  0.900  0.300  0.503-  92 2.11  91 2.11  11 2.11  96 2.11  90 2.11
 191  0.800  0.300  0.407-  70 2.11  89 2.11  90 2.11  93 2.11  91 2.11
 192  0.900  0.200  0.407-  90 2.11  86 2.11  89 2.11   9 2.11  92 2.11
 193  0.800  0.400  0.503-  76 2.11  91 2.11  95 2.11  96 2.11  93 2.11
 194  0.900  0.500  0.503-  15 2.11  95 2.11  96 2.11 100 2.11  94 2.11
 195  0.800  0.500  0.407-  74 2.11  93 2.11  94 2.11  97 2.11  95 2.11
 196  0.900  0.400  0.407-  13 2.11  90 2.11  93 2.11  94 2.11  96 2.11
 197  0.800  0.600  0.503-  80 2.11  95 2.11  99 2.11 100 2.11  97 2.11
 198  0.900  0.700  0.503- 104 2.11  99 2.11 100 2.11  19 2.11  98 2.11
 199  0.800  0.700  0.407-  78 2.11 101 2.11  98 2.11  97 2.11  99 2.11
 200  0.900  0.600  0.407-  17 2.11  94 2.11  97 2.11  98 2.11 100 2.11
 201  0.800  0.800  0.503-  84 2.11  99 2.11 103 2.11 104 2.11 101 2.11
 202  0.900  0.900  0.503-  23 2.11  88 2.11 103 2.11 104 2.11 102 2.11
 203  0.800  0.900  0.407-  82 2.11  85 2.11 101 2.11 102 2.11 103 2.11
 204  0.900  0.800  0.407-  98 2.11  21 2.11 101 2.11 102 2.11 104 2.11

  LATTYP: Found a simple tetragonal cell.
 ALAT       =    21.1388521970
 C/A-ratio  =     1.0461251639

  Lattice vectors:

 A1 = (  21.1388521970,   0.0000000000,   0.0000000000)
 A2 = (   0.0000000000,  21.1388521970,   0.0000000000)
 A3 = (   0.0000000000,   0.0000000000,  22.1138852197)

Analysis of symmetry for initial positions (statically):
 Subroutine PRICEL returns:
 Original cell was already a primitive cell.

 Routine SETGRP: Setting up the symmetry group for a
 simple tetragonal supercell.

 Subroutine GETGRP returns: Found  1 space group operations
 (whereof  1 operations were pure point group operations)
 out of a pool of 16 trial point group operations.

The static configuration has the point symmetry C_1 .

Analysis of symmetry for dynamics (positions and initial velocities):
 Subroutine PRICEL returns:
 Original cell was already a primitive cell.

[...]

The dynamic configuration has the point symmetry C_1 .

Analysis of constrained symmetry for selective dynamics:
 Subroutine PRICEL returns:
 Original cell was already a primitive cell.

 Routine SETGRP: Setting up the symmetry group for a
 simple tetragonal supercell.

 Subroutine GETGRP returns: Found  1 space group operations
 (whereof  1 operations were pure point group operations)
 out of a pool of 16 trial point group operations.

The constrained configuration has the point symmetry C_1 .

 Subroutine INISYM returns: Found  1 space group operations
 (whereof  1 operations are pure point group operations),
 and found     1 'primitive' translations

                                     Primitive cell

  volume of cell :    9881.6133

  direct lattice vectors                    reciprocal lattice vectors
    21.138852197  0.000000000  0.000000000     0.047306258  0.000000000  0.000000000
     0.000000000 21.138852197  0.000000000     0.000000000  0.047306258  0.000000000
     0.000000000  0.000000000 22.113885220     0.000000000  0.000000000  0.045220457

  length of vectors
    21.138852197 21.138852197 22.113885220     0.047306258  0.047306258  0.045220457

  position of ions in fractional coordinates (direct lattice)
     0.399945942  0.565237308  0.603921872
     0.399892951  0.499663424  0.818041467
     0.399895844  0.499593335  0.703963759
     0.399926654  0.434204818  0.603783199
     0.000000000  0.000000000  0.406984115
     0.100000000  0.100000000  0.406984115
[...]
     54     -44.5543      2.00000
     55     -44.5542      2.00000
     56     -44.5440      2.00000
     57     -44.5437      2.00000
     58     -44.5436      2.00000
     59     -44.5433      2.00000
     60     -44.5425      2.00000
[...]
    946       6.7318      0.00000
    947       6.7993      0.00000
    948       6.8333      0.00000
    949       6.8682      0.00000
    950       6.9612      0.00000
    951       7.0440      0.00000
    952       7.0761      0.00000
    953       7.1811      0.00000
    954       7.2331      0.00000
    955       7.2615      0.00000
    956       7.3309      0.00000
    957       7.4250      0.00000
    958       7.4670      0.00000
    959       7.5488      0.00000
    960       7.5904      0.00000

 soft charge-density along one line, spin component           1
         0         1         2         3         4         5         6         7         8         9
 total charge-density along one line

------------------------ aborting loop because EDIFF is reached ----------------------------------------

  FORCE on cell =-STRESS in cart. coord.  units (eV):
  Direction    XX          YY          ZZ          XY          YZ          ZX
  Alpha Z  1417.83424  1417.83424  1417.83424
  Ewald  475017.55858476123.61356************     0.15895     0.50430    -0.54556
  Hartree504635.57604505432.99034************     0.11371     0.17893    -0.38668
  E(xc)   -8482.24761 -8481.68262 -8481.61789     0.00004     0.00071    -0.00027
  Local  ************************************    -0.26850    -0.67230     0.91268
  n-local -8673.19498 -8683.43253 -8819.85703    -0.00093     0.02152     0.00817
  augment  3973.07581  3968.67244  3905.87638    -0.00097    -0.00879     0.00222
  Kinetic 23368.28046 23356.30894 23565.58183    -0.00231     0.00499     0.01309
  Fock        0.00000     0.00000     0.00000     0.00000     0.00000     0.00000
  vdW        -8.06939    -8.06923    -2.13647    -0.00000    -0.00000    -0.00000
  Total    -228.48302  -229.29868   -20.34049    -0.00002     0.02936     0.00367
  in kB     -37.04560   -37.17785    -3.29795    -0.00000     0.00476     0.00060

 VOLUME and BASIS-vectors are now :
  energy-cutoff  :      520.00
  volume of cell :     9881.61
      direct lattice vectors                 reciprocal lattice vectors
    21.138852197  0.000000000  0.000000000     0.047306258  0.000000000  0.000000000
     0.000000000 21.138852197  0.000000000     0.000000000  0.047306258  0.000000000
     0.000000000  0.000000000 22.113885220     0.000000000  0.000000000  0.045220457

  length of vectors
    21.138852197 21.138852197 22.113885220     0.047306258  0.047306258  0.045220457

 FORCES acting on ions:
    Electron-Ion                     Ewald-Force                    Non-Local-Force
   -.145E+00 -.384E+03 -.190E+04   0.143E+00 0.380E+03 0.191E+04   0.317E-02 0.390E+01 -.316E+01
   0.316E-01 -.107E+00 -.126E+04   -.320E-01 0.987E-01 0.126E+04   0.969E-03 0.907E-02 0.755E+01
   0.161E+00 0.644E+00 -.172E+04   -.160E+00 -.643E+00 0.172E+04   -.918E-03 0.330E-02 0.218E+01
   -.300E-01 0.383E+03 -.190E+04   0.285E-01 -.379E+03 0.191E+04   0.271E-02 -.385E+01 -.316E+01
   0.633E+01 0.232E-01 0.935E+03   -.637E+01 -.232E-01 -.927E+03   0.287E-01 0.382E-04 -.759E+01
   0.124E+02 0.940E+01 0.938E+03   -.125E+02 -.943E+01 -.930E+03   0.637E-01 0.264E-01 -.759E+01
   0.906E+01 0.847E+01 -.918E+03   -.910E+01 -.848E+01 0.910E+03   0.321E-01 0.392E-02 0.751E+01
   0.132E+02 0.415E-01 -.917E+03   -.133E+02 -.416E-01 0.909E+03   0.442E-01 0.397E-04 0.751E+01
   0.980E+01 0.114E+02 0.938E+03   -.986E+01 -.114E+02 -.930E+03   0.515E-01 0.132E-01 -.759E+01
   0.257E+02 0.184E+02 0.950E+03   -.259E+02 -.184E+02 -.941E+03   0.171E+00 0.345E-01 -.762E+01
   0.189E+02 0.157E+02 -.912E+03   -.189E+02 -.157E+02 0.904E+03   0.540E-01 0.132E-02 0.750E+01
   0.243E+02 0.227E+02 -.911E+03   -.244E+02 -.227E+02 0.903E+03   0.103E+00 0.193E-01 0.750E+01
   0.171E+02 0.780E+01 0.945E+03   -.172E+02 -.781E+01 -.936E+03   0.829E-01 0.593E-02 -.761E+01
   0.374E+02 -.460E-01 0.959E+03   -.377E+02 0.461E-01 -.951E+03   0.215E+00 -.970E-04 -.764E+01
   0.272E+02 -.374E-01 -.908E+03   -.272E+02 0.374E-01 0.900E+03   0.546E-01 -.220E-04 0.749E+01
   0.540E+02 0.187E+02 -.895E+03   -.541E+02 -.187E+02 0.887E+03   0.150E+00 -.575E-03 0.747E+01
   0.170E+02 -.785E+01 0.945E+03   -.171E+02 0.785E+01 -.936E+03   0.828E-01 -.599E-02 -.761E+01
   0.256E+02 -.184E+02 0.950E+03   -.258E+02 0.184E+02 -.941E+03   0.171E+00 -.346E-01 -.762E+01
   0.188E+02 -.157E+02 -.912E+03   -.189E+02 0.157E+02 0.904E+03   0.540E-01 -.134E-02 0.750E+01
   0.539E+02 -.188E+02 -.895E+03   -.541E+02 0.188E+02 0.887E+03   0.150E+00 0.518E-03 0.747E+01
   0.977E+01 -.114E+02 0.938E+03   -.984E+01 0.114E+02 -.930E+03   0.514E-01 -.132E-01 -.759E+01
   0.124E+02 -.934E+01 0.938E+03   -.125E+02 0.938E+01 -.930E+03   0.636E-01 -.262E-01 -.759E+01
   0.905E+01 -.842E+01 -.918E+03   -.909E+01 0.843E+01 0.910E+03   0.320E-01 -.392E-02 0.751E+01
   0.242E+02 -.226E+02 -.911E+03   -.243E+02 0.227E+02 0.903E+03   0.103E+00 -.193E-01 0.750E+01
   0.113E+02 0.447E-01 0.940E+03   -.114E+02 -.449E-01 -.932E+03   0.531E-01 0.163E-03 -.759E+01
   0.897E+01 0.176E+02 0.946E+03   -.903E+01 -.178E+02 -.938E+03   0.496E-01 0.126E+00 -.760E+01
   0.178E+02 0.191E+02 -.912E+03   -.179E+02 -.191E+02 0.904E+03   0.637E-01 0.618E-01 0.750E+01
   0.935E+01 0.818E-01 -.912E+03   -.939E+01 -.820E-01 0.904E+03   0.311E-01 0.168E-03 0.750E+01
   0.205E+02 0.249E+02 0.951E+03   -.207E+02 -.251E+02 -.942E+03   0.148E+00 0.115E+00 -.760E+01
   0.263E+02 0.455E+02 0.985E+03   -.267E+02 -.460E+02 -.977E+03   0.333E+00 0.336E+00 -.752E+01
   0.564E+02 0.507E+02 -.884E+03   -.569E+02 -.507E+02 0.876E+03   0.372E+00 0.301E-01 0.746E+01
   0.238E+02 0.576E+02 -.892E+03   -.239E+02 -.580E+02 0.884E+03   0.954E-01 0.327E+00 0.748E+01
   0.468E+02 0.217E+02 0.981E+03   -.474E+02 -.217E+02 -.973E+03   0.489E+00 0.551E-01 -.771E+01
   0.496E+02 -.146E+00 0.104E+04   -.504E+02 0.149E+00 -.103E+04   0.539E+00 -.176E-02 -.773E+01
   0.110E+03 -.160E+00 -.847E+03   -.111E+03 0.160E+00 0.839E+03   0.325E+00 -.116E-03 0.738E+01
   0.128E+03 0.923E+02 -.759E+03   -.131E+03 -.922E+02 0.752E+03   0.202E+01 -.246E-01 0.706E+01
   0.467E+02 -.218E+02 0.981E+03   -.474E+02 0.218E+02 -.973E+03   0.487E+00 -.556E-01 -.771E+01
   0.262E+02 -.455E+02 0.985E+03   -.266E+02 0.460E+02 -.977E+03   0.331E+00 -.334E+00 -.752E+01
   0.562E+02 -.507E+02 -.884E+03   -.567E+02 0.507E+02 0.876E+03   0.371E+00 -.303E-01 0.746E+01
   0.128E+03 -.926E+02 -.760E+03   -.130E+03 0.926E+02 0.753E+03   0.201E+01 0.232E-01 0.706E+01
   0.204E+02 -.249E+02 0.950E+03   -.206E+02 0.250E+02 -.942E+03   0.148E+00 -.115E+00 -.760E+01
   0.894E+01 -.175E+02 0.946E+03   -.901E+01 0.176E+02 -.938E+03   0.495E-01 -.125E+00 -.760E+01
   0.178E+02 -.189E+02 -.912E+03   -.178E+02 0.190E+02 0.904E+03   0.636E-01 -.615E-01 0.750E+01
   0.237E+02 -.574E+02 -.892E+03   -.238E+02 0.578E+02 0.884E+03   0.953E-01 -.326E+00 0.748E+01
   -.638E-02 0.627E-01 0.943E+03   0.633E-02 -.631E-01 -.935E+03   0.522E-04 0.266E-03 -.760E+01
   -.898E+01 0.176E+02 0.946E+03   0.904E+01 -.178E+02 -.938E+03   -.495E-01 0.126E+00 -.760E+01
   -.111E-01 0.296E+02 -.906E+03   0.110E-01 -.298E+02 0.898E+03   0.758E-04 0.145E+00 0.750E+01
   -.936E+01 0.814E-01 -.912E+03   0.940E+01 -.815E-01 0.904E+03   -.311E-01 0.149E-03 0.750E+01
   -.134E-01 0.390E+02 0.963E+03   0.133E-01 -.396E+02 -.955E+03   0.715E-04 0.444E+00 -.765E+01
   -.263E+02 0.455E+02 0.985E+03   0.268E+02 -.460E+02 -.977E+03   -.332E+00 0.336E+00 -.752E+01
   -.633E-01 0.130E+03 -.820E+03   0.629E-01 -.132E+03 0.812E+03   0.252E-03 0.198E+01 0.754E+01
   -.238E+02 0.576E+02 -.892E+03   0.239E+02 -.580E+02 0.884E+03   -.953E-01 0.327E+00 0.748E+01
   -.417E-01 0.441E+02 0.104E+04   0.411E-01 -.444E+02 -.104E+04   0.493E-03 0.250E+00 -.520E+01
   -.497E+02 -.143E+00 0.104E+04   0.504E+02 0.146E+00 -.103E+04   -.539E+00 -.183E-02 -.773E+01
   -.224E+00 -.540E+00 -.531E+03   0.224E+00 0.562E+00 0.527E+03   0.889E-03 -.202E-01 0.341E+01
   -.128E+03 0.922E+02 -.759E+03   0.131E+03 -.921E+02 0.752E+03   -.202E+01 -.242E-01 0.706E+01
   -.384E-01 -.443E+02 0.104E+04   0.379E-01 0.446E+02 -.104E+04   0.364E-03 -.251E+00 -.521E+01
   -.262E+02 -.455E+02 0.985E+03   0.267E+02 0.459E+02 -.977E+03   -.331E+00 -.335E+00 -.752E+01
   -.543E-01 -.129E+03 -.821E+03   0.540E-01 0.132E+03 0.813E+03   0.247E-03 -.197E+01 0.754E+01
   -.128E+03 -.925E+02 -.760E+03   0.130E+03 0.925E+02 0.753E+03   -.201E+01 0.229E-01 0.707E+01
[...]
   -.102E+02 0.905E+01 0.708E+03   0.102E+02 -.906E+01 -.712E+03   -.636E-01 0.157E-01 0.337E+01
   0.620E-02 0.733E+01 0.704E+03   -.613E-02 -.734E+01 -.708E+03   -.886E-04 0.103E-01 0.338E+01
   -.185E+02 0.775E+01 -.683E+03   0.185E+02 -.775E+01 0.687E+03   -.578E-01 0.150E-03 -.362E+01
   0.156E-01 -.216E-01 -.685E+03   -.156E-01 0.217E-01 0.689E+03   -.107E-03 -.992E-05 -.361E+01
   -.139E+02 -.208E-01 0.711E+03   0.140E+02 0.209E-01 -.715E+03   -.743E-01 -.533E-04 0.336E+01
   0.102E-01 0.484E+01 0.708E+03   -.101E-01 -.484E+01 -.711E+03   -.106E-03 0.409E-02 0.337E+01
   -.185E+02 -.779E+01 -.683E+03   0.185E+02 0.779E+01 0.687E+03   -.578E-01 -.203E-03 -.362E+01
   0.110E-01 -.949E+01 -.688E+03   -.110E-01 0.949E+01 0.692E+03   -.103E-03 -.179E-02 -.360E+01
   -.101E+02 -.905E+01 0.708E+03   0.102E+02 0.907E+01 -.712E+03   -.635E-01 -.157E-01 0.337E+01
   0.100E-01 -.487E+01 0.708E+03   -.994E-02 0.487E+01 -.711E+03   -.942E-04 -.413E-02 0.337E+01
   -.969E+01 -.109E+02 -.688E+03   0.972E+01 0.109E+02 0.692E+03   -.438E-01 -.105E-01 -.359E+01
   0.566E-02 -.535E+01 -.691E+03   -.560E-02 0.535E+01 0.695E+03   -.715E-04 -.386E-02 -.358E+01
   -.541E+01 -.504E+01 0.704E+03   0.543E+01 0.505E+01 -.707E+03   -.377E-01 -.126E-01 0.338E+01
   0.596E-02 -.732E+01 0.704E+03   -.591E-02 0.733E+01 -.708E+03   -.688E-04 -.103E-01 0.338E+01
   0.551E-02 -.449E-01 0.655E+01   0.152E-11 0.136E-11 0.200E-10   -.386E-02 0.460E-01 -.383E+01

 POSITION                                       TOTAL-FORCE (eV/Angst)
      8.45440     11.94847     13.35506         0.000733     -0.156057     -0.017646
      8.45328     10.56231     18.09008         0.000512      0.000199     -0.191096
      8.45334     10.56083     15.56737         0.000663      0.004081     -0.093098
      8.45399      9.17859     13.35199         0.001209      0.166982     -0.017998
      0.00000      0.00000      9.00000        -0.008172     -0.000008      0.540090
      2.11389      2.11389      9.00000        -0.018172     -0.007645      0.540355
      0.00000      2.11389     11.11389        -0.008946     -0.001123     -0.463990
      2.11389      0.00000     11.11389        -0.012671     -0.000019     -0.462979
      0.00000      4.22777      9.00000        -0.014230     -0.003855      0.541565
      2.11389      6.34166      9.00000        -0.046668     -0.009921      0.546148
      0.00000      6.34166     11.11389        -0.014339     -0.000141     -0.457624
      2.11389      4.22777     11.11389        -0.028113     -0.005453     -0.456267
      0.00000      8.45554      9.00000        -0.022573     -0.001590      0.544533
      2.11389     10.56943      9.00000        -0.059560      0.000055      0.551311
      0.00000     10.56943     11.11389        -0.013916     -0.000026     -0.452402
      2.11389      8.45554     11.11389        -0.037243      0.001165     -0.437264
      0.00000     12.68331      9.00000        -0.022543      0.001596      0.544540
      2.11389     14.79720      9.00000        -0.046523      0.009921      0.546107
      0.00000     14.79720     11.11389        -0.014315      0.000142     -0.457669
      2.11389     12.68331     11.11389        -0.037218     -0.001181     -0.437308
      0.00000     16.91108      9.00000        -0.014191      0.003848      0.541545
      2.11389     19.02497      9.00000        -0.018152      0.007595      0.540364
      0.00000     19.02497     11.11389        -0.008943      0.001104     -0.464015
      2.11389     16.91108     11.11389        -0.028059      0.005420     -0.456334
      4.22777      0.00000      9.00000        -0.015428     -0.000054      0.540797
      6.34166      2.11389      9.00000        -0.014785     -0.034276      0.541889
      4.22777      2.11389     11.11389        -0.018462     -0.016650     -0.457608
      6.34166      0.00000     11.11389        -0.009160     -0.000034     -0.458323
      4.22777      4.22777      9.00000        -0.043097     -0.033721      0.538742
      6.34166      6.34166      9.00000        -0.108628     -0.107317      0.499648
      4.22777      6.34166     11.11389        -0.097624     -0.005615     -0.423693
      6.34166      4.22777     11.11389        -0.028391     -0.087022     -0.438187
      4.22777      8.45554      9.00000        -0.128366     -0.014027      0.562837
      6.34166     10.56943      9.00000        -0.178480      0.000621      0.522266
      4.22777     10.56943     11.11389        -0.081608     -0.000045     -0.369796
      6.34166      8.45554     11.11389        -0.673019      0.025975     -0.327462
      4.22777     12.68331      9.00000        -0.127909      0.014174      0.562680
      6.34166     14.79720      9.00000        -0.108217      0.106893      0.499977
      4.22777     14.79720     11.11389        -0.097225      0.005687     -0.423981
      6.34166     12.68331     11.11389        -0.667247     -0.025925     -0.327396
      4.22777     16.91108      9.00000        -0.042976      0.033586      0.538727
      6.34166     19.02497      9.00000        -0.014759      0.034109      0.541852
      4.22777     19.02497     11.11389        -0.018443      0.016573     -0.457650
      6.34166     16.91108     11.11389        -0.028383      0.086656     -0.438433
      8.45554      0.00000      9.00000        -0.000011     -0.000075      0.541578
     10.56943      2.11389      9.00000         0.014754     -0.034293      0.541875
      8.45554      2.11389     11.11389        -0.000012     -0.037592     -0.452930
     10.56943      0.00000     11.11389         0.009116     -0.000030     -0.458325
      8.45554      4.22777      9.00000        -0.000039     -0.116042      0.546030
     10.56943      6.34166      9.00000         0.108563     -0.107382      0.499652
      8.45554      6.34166     11.11389        -0.000135     -0.623020     -0.427903
     10.56943      4.22777     11.11389         0.028322     -0.087086     -0.438204
      8.45554      8.45554      9.00000        -0.000185     -0.049057     -0.021545
     10.56943     10.56943      9.00000         0.178368      0.000625      0.522224
      8.45554     10.56943     11.11389         0.000552      0.001556     -0.941575
     10.56943      8.45554     11.11389         0.672395      0.026058     -0.327391
      8.45554     12.68331      9.00000        -0.000149      0.049134     -0.018082
     10.56943     14.79720      9.00000         0.108148      0.106953      0.499968
      8.45554     14.79720     11.11389        -0.000089      0.618495     -0.427678
     10.56943     12.68331     11.11389         0.666785     -0.025990     -0.327469
[...]
     19.02497      6.34166     11.11389        -0.000031      0.000516      0.306856
     16.91108      6.34166      9.00000        -0.017667      0.004362     -0.388710
     19.02497      4.22777      9.00000        -0.000031      0.002851     -0.387024
     16.91108      8.45554     11.11389        -0.016203      0.000071      0.299723
     19.02497     10.56943     11.11389        -0.000044     -0.000008      0.303299
     16.91108     10.56943      9.00000        -0.020656     -0.000013     -0.390969
     19.02497      8.45554      9.00000        -0.000035      0.001129     -0.388872
     16.91108     12.68331     11.11389        -0.016193     -0.000098      0.299742
     19.02497     14.79720     11.11389        -0.000036     -0.000513      0.306883
     16.91108     14.79720      9.00000        -0.017629     -0.004384     -0.388696
     19.02497     12.68331      9.00000        -0.000040     -0.001155     -0.388852
     16.91108     16.91108     11.11389        -0.012215     -0.002952      0.308024
     19.02497     19.02497     11.11389        -0.000020     -0.001081      0.311841
     16.91108     19.02497      9.00000        -0.010462     -0.003501     -0.386490
     19.02497     16.91108      9.00000        -0.000019     -0.002862     -0.387010
    total drift:                                0.001645      0.001052      2.718876

  FREE ENERGIE OF THE ION-ELECTRON SYSTEM (eV)
  free  energy   TOTEN  =     -1753.94392522 eV

  energy  without entropy=    -1753.94392522  energy(sigma->0) =    -1753.94392522