 vasp.6.4.0 14Feb23 (build Jul 14 2023 13:46:40) complex

 executed on             LinuxIFC date 2023.07.30  06:17:31

 INCAR:
   SYSTEM = MgO-rocksalt
   ISMEAR = 0
   SIGMA = 0.05
   EDIFF = 1E-6
   ALGO = ALL
   ISTART = 0
   IBRION = -1
   NSW = 0
   ISYM = 2
   DIPOL = 0.5 0.5 0.5
   IDIPOL = 3
   LDIPOL = .TRUE.
   METAGGA = TPSS
   ENCUT = 520
   PREC = Accurate
   LASPH = .TRUE.
   LREAL = Auto
   ISPIN = 1
   NELM = 200
   NELMIN = 8
   NCORE = 16
   KPAR = 1
   LWAVE = .FALSE.
   LCHARG = .FALSE.

 POTCAR:    PAW_PBE Cu 22Jun2005
 POTCAR:    PAW_PBE Mg_pv 13Apr2007
 POTCAR:    PAW_PBE O 08Apr2002
 POTCAR:    PAW_PBE Cu 22Jun2005
   VRHFIN =Cu: d10 p1

   TITEL  = PAW_PBE Cu 22Jun2005
   POMASS =   63.546; ZVAL   =   11.000    mass and valenz
   ENMAX  =  295.446; ENMIN  =  221.585 eV

   TITEL  = PAW_PBE Mg_pv 13Apr2007
   POMASS =   24.305; ZVAL   =    8.000    mass and valenz
   ENMAX  =  403.929; ENMIN  =  302.947 eV

   TITEL  = PAW_PBE O 08Apr2002
   POMASS =   16.000; ZVAL   =    6.000    mass and valenz
   ENMAX  =  400.000; ENMIN  =  300.000 eV

 Optimization of the real space projectors (new method)

 maximal supplied QI-value         = 16.25
 optimisation between [QCUT,QGAM] = [ 11.54, 23.24] = [ 37.28,151.24] Ry
 Optimized for a Real-space Cutoff    1.53 Angstroem

   l    n(q)    QCUT    max X(q) W(low)/X(q) W(high)/X(q)  e(spline)
   2     10    11.539     4.610    0.96E-04    0.13E-03    0.19E-06
   2     10    11.539     8.522    0.16E-03    0.21E-03    0.28E-06
   0     11    11.539    51.609    0.45E-04    0.31E-04    0.11E-06
   0     11    11.539    27.747    0.39E-04    0.29E-04    0.10E-06
   1     10    11.539    20.408    0.70E-05    0.38E-04    0.18E-06
   1     10    11.539    13.425    0.66E-05    0.34E-04    0.17E-06
 Optimization of the real space projectors (new method)

[...]

   l    n(q)    QCUT    max X(q) W(low)/X(q) W(high)/X(q)  e(spline)
   1      8    11.527     2.974    0.44E-04    0.56E-04    0.12E-06
   1      8    11.527     4.279    0.12E-03    0.12E-03    0.26E-06
   0      9    11.527    16.381    0.46E-04    0.64E-04    0.78E-07
   0      9    11.527     5.611    0.26E-04    0.43E-04    0.55E-07
   2      8    11.527     4.652    0.22E-03    0.72E-04    0.47E-07
 Optimization of the real space projectors (new method)

 maximal supplied QI-value         = 24.76
 optimisation between [QCUT,QGAM] = [ 11.64, 23.27] = [ 37.91,151.63] Ry
 Optimized for a Real-space Cutoff    1.14 Angstroem

   l    n(q)    QCUT    max X(q) W(low)/X(q) W(high)/X(q)  e(spline)
   0      8    11.635    20.381    0.10E-03    0.33E-03    0.24E-06
   0      8    11.635    15.268    0.11E-03    0.35E-03    0.26E-06
   1      7    11.635     5.964    0.24E-03    0.31E-03    0.30E-06
   1      7    11.635     5.382    0.22E-03    0.25E-03    0.26E-06
  PAW_PBE Cu 22Jun2005                  :
  PAW_PBE Mg_pv 13Apr2007               :
  PAW_PBE O 08Apr2002                   :

 POSCAR: Cu Mg  O
  positions in direct lattice

 METAGGA = TPSS                                        LMAXTAU =  6    LMIXTAU =  F

 ion  position               nearest neighbor table
   1  0.538  0.562  0.615-   2 2.24
   2  0.462  0.638  0.615-   1 2.24
   3  0.000  0.000  0.407- 105 2.11 106 2.11 121 2.11 186 2.11 103 2.11
   4  0.100  0.100  0.407- 105 2.11 106 2.11 110 2.11 125 2.11 104 2.11
   5  0.000  0.100  0.503- 103 2.11 104 2.11 107 2.11 184 2.11 105 2.11
   6  0.100  0.000  0.503- 103 2.11 104 2.11 120 2.11 123 2.11 106 2.11
   7  0.000  0.200  0.407- 109 2.11 105 2.11 110 2.11 190 2.11 107 2.11
   8  0.100  0.300  0.407- 110 2.11 109 2.11 114 2.11 129 2.11 108 2.11
   9  0.000  0.300  0.503- 107 2.11 108 2.11 111 2.11 188 2.11 109 2.11
  10  0.100  0.200  0.503- 108 2.11 107 2.11 104 2.11 127 2.11 110 2.11
  11  0.000  0.400  0.407- 109 2.11 113 2.11 114 2.11 194 2.11 111 2.11
  12  0.100  0.500  0.407- 113 2.11 114 2.11 118 2.11 133 2.11 112 2.11
  13  0.000  0.500  0.503- 111 2.11 112 2.11 115 2.11 192 2.11 113 2.11
  14  0.100  0.400  0.503- 108 2.11 111 2.11 112 2.11 131 2.11 114 2.11
  15  0.000  0.600  0.407- 113 2.11 117 2.11 118 2.11 198 2.11 115 2.11
  16  0.100  0.700  0.407- 122 2.11 118 2.11 117 2.11 137 2.11 116 2.11
  17  0.000  0.700  0.503- 119 2.11 116 2.11 115 2.11 196 2.11 117 2.11
  18  0.100  0.600  0.503- 112 2.11 115 2.11 116 2.11 135 2.11 118 2.11
  19  0.000  0.800  0.407- 117 2.11 121 2.11 122 2.11 202 2.11 119 2.11
  20  0.100  0.900  0.407- 106 2.11 121 2.11 122 2.11 141 2.11 120 2.11
  21  0.000  0.900  0.503- 103 2.11 119 2.11 120 2.11 200 2.11 121 2.11
  22  0.100  0.800  0.503- 116 2.11 119 2.11 120 2.11 139 2.11 122 2.11
  23  0.200  0.000  0.407- 126 2.11 125 2.11 106 2.11 141 2.11 123 2.11
  24  0.300  0.100  0.407- 125 2.11 126 2.11 130 2.11 145 2.11 124 2.11
  25  0.200  0.100  0.503- 124 2.11 123 2.11 104 2.11 127 2.11 125 2.11
  26  0.300  0.000  0.503- 123 2.11 124 2.11 140 2.11 143 2.11 126 2.11
  27  0.200  0.200  0.407- 129 2.11 130 2.11 110 2.11 125 2.11 127 2.11
  28  0.300  0.300  0.407- 129 2.11 130 2.11 134 2.11 149 2.11 128 2.11
  29  0.200  0.300  0.503- 127 2.11 128 2.11 108 2.11 131 2.11 129 2.11
  30  0.300  0.200  0.503- 127 2.11 128 2.11 124 2.11 147 2.11 130 2.11
  31  0.200  0.400  0.407- 134 2.11 129 2.11 133 2.11 114 2.11 131 2.11
  32  0.300  0.500  0.407- 133 2.11 134 2.11 138 2.11 153 2.11 132 2.11
  33  0.200  0.500  0.503- 132 2.11 131 2.11 112 2.11 135 2.11 133 2.11
  34  0.300  0.400  0.503- 131 2.11 128 2.11 132 2.11 151 2.11 134 2.11
  35  0.200  0.600  0.407- 138 2.11 133 2.11 137 2.11 118 2.11 135 2.11
  36  0.300  0.700  0.407- 137 2.11 142 2.11 138 2.11 157 2.11 136 2.11
  37  0.200  0.700  0.503- 136 2.11 139 2.11 116 2.11 135 2.11 137 2.11
  38  0.300  0.600  0.503- 135 2.11 132 2.11 136 2.11 155 2.11 138 2.11
  39  0.200  0.800  0.407- 137 2.11 142 2.11 141 2.11 122 2.11 139 2.11
  40  0.300  0.900  0.407- 141 2.11 126 2.11 142 2.11 161 2.11 140 2.11
  41  0.200  0.900  0.503- 140 2.11 123 2.11 139 2.11 120 2.11 141 2.11
  42  0.300  0.800  0.503- 136 2.11 139 2.11 140 2.11 159 2.11 142 2.11
  43  0.400  0.000  0.407- 126 2.11 145 2.11 146 2.11 161 2.11 143 2.11
  44  0.500  0.100  0.407- 145 2.11 146 2.11 150 2.11 165 2.11 144 2.11
  45  0.400  0.100  0.503- 124 2.11 143 2.11 144 2.11 147 2.11 145 2.11
  46  0.500  0.000  0.503- 143 2.11 144 2.11 160 2.11 163 2.11 146 2.11
  47  0.400  0.200  0.407- 149 2.11 145 2.11 130 2.11 150 2.11 147 2.11
  48  0.500  0.300  0.407- 150 2.11 149 2.11 154 2.11 169 2.11 148 2.11
  49  0.400  0.300  0.503- 147 2.11 128 2.11 148 2.11 151 2.11 149 2.11
  50  0.500  0.200  0.503- 148 2.11 147 2.11 144 2.11 167 2.11 150 2.11
  51  0.400  0.400  0.407- 134 2.11 149 2.11 153 2.11 154 2.11 151 2.11
  52  0.500  0.500  0.407- 153 2.11 154 2.11 158 2.11 173 2.11 152 2.11
  53  0.400  0.500  0.503- 132 2.11 151 2.11 152 2.11 155 2.11 153 2.11
  54  0.500  0.400  0.503- 148 2.11 151 2.11 152 2.11 171 2.11 154 2.11
  55  0.400  0.600  0.407- 138 2.11 153 2.11 157 2.11 158 2.11 155 2.11
  56  0.500  0.700  0.407- 162 2.11 158 2.11 157 2.11 177 2.11 156 2.11
  57  0.400  0.700  0.503- 159 2.11 155 2.11 156 2.11 136 2.11 157 2.11
  58  0.500  0.600  0.503- 152 2.11 155 2.11 156 2.11 175 2.11 158 2.11
  59  0.400  0.800  0.407- 157 2.11 142 2.11 161 2.11 162 2.11 159 2.11
  60  0.500  0.900  0.407- 146 2.11 161 2.11 162 2.11 181 2.11 160 2.11
[...]
 188  0.900  0.300  0.503-  90 2.11  89 2.11   9 2.11  94 2.11  88 2.11
 189  0.800  0.300  0.407-  68 2.11  87 2.11  88 2.11  91 2.11  89 2.11
 190  0.900  0.200  0.407-  88 2.11  84 2.11  87 2.11   7 2.11  90 2.11
 191  0.800  0.400  0.503-  74 2.11  89 2.11  93 2.11  94 2.11  91 2.11
 192  0.900  0.500  0.503-  13 2.11  93 2.11  94 2.11  98 2.11  92 2.11
 193  0.800  0.500  0.407-  72 2.11  91 2.11  92 2.11  95 2.11  93 2.11
 194  0.900  0.400  0.407-  11 2.11  88 2.11  91 2.11  92 2.11  94 2.11
 195  0.800  0.600  0.503-  78 2.11  93 2.11  97 2.11  98 2.11  95 2.11
 196  0.900  0.700  0.503- 102 2.11  97 2.11  98 2.11  17 2.11  96 2.11
 197  0.800  0.700  0.407-  76 2.11  99 2.11  96 2.11  95 2.11  97 2.11
 198  0.900  0.600  0.407-  15 2.11  92 2.11  95 2.11  96 2.11  98 2.11
 199  0.800  0.800  0.503-  82 2.11  97 2.11 101 2.11 102 2.11  99 2.11
 200  0.900  0.900  0.503-  21 2.11  86 2.11 101 2.11 102 2.11 100 2.11
 201  0.800  0.900  0.407-  80 2.11  83 2.11  99 2.11 100 2.11 101 2.11
 202  0.900  0.800  0.407-  96 2.11  19 2.11  99 2.11 100 2.11 102 2.11

  LATTYP: Found a simple tetragonal cell.
 ALAT       =    21.1388521970
 C/A-ratio  =     1.0461251639

  Lattice vectors:

 A1 = (  21.1388521970,   0.0000000000,   0.0000000000)
 A2 = (   0.0000000000,  21.1388521970,   0.0000000000)
 A3 = (   0.0000000000,   0.0000000000,  22.1138852197)

Analysis of symmetry for initial positions (statically):
 Subroutine PRICEL returns:
 Original cell was already a primitive cell.

 Routine SETGRP: Setting up the symmetry group for a
 simple tetragonal supercell.

 Subroutine GETGRP returns: Found  4 space group operations
 (whereof  1 operations were pure point group operations)
 out of a pool of 16 trial point group operations.

The static configuration has the point symmetry C_1 .
 The point group associated with its full space group is C_2v.

Analysis of symmetry for dynamics (positions and initial velocities):
 Subroutine PRICEL returns:
 Original cell was already a primitive cell.

 Routine SETGRP: Setting up the symmetry group for a
 simple tetragonal supercell.

 Subroutine GETGRP returns: Found  4 space group operations
 (whereof  1 operations were pure point group operations)
 out of a pool of 16 trial point group operations.

The dynamic configuration has the point symmetry C_1 .
 The point group associated with its full space group is C_2v.

 Subroutine INISYM returns: Found  4 space group operations
 (whereof  1 operations are pure point group operations),
 and found     1 'primitive' translations

                                     Primitive cell

  volume of cell :    9881.6133

  direct lattice vectors                    reciprocal lattice vectors
    21.138852197  0.000000000  0.000000000     0.047306258  0.000000000  0.000000000
     0.000000000 21.138852197  0.000000000     0.000000000  0.047306258  0.000000000
     0.000000000  0.000000000 22.113885220     0.000000000  0.000000000  0.045220457

  length of vectors
    21.138852197 21.138852197 22.113885220     0.047306258  0.047306258  0.045220457

  position of ions in fractional coordinates (direct lattice)
     0.537531089  0.562468875  0.614848637
     0.462468911  0.637531053  0.614848637
     0.000000000  0.000000000  0.406984115
     0.100000000  0.100000000  0.406984115
     0.000000000  0.100000000  0.502574971
     0.100000000  0.000000000  0.502574971
     0.000000000  0.200000000  0.406984115
     0.100000000  0.300000000  0.406984115
     0.000000000  0.300000000  0.502574971
     0.100000000  0.200000000  0.502574971
     0.000000000  0.400000000  0.406984115
     0.100000000  0.500000000  0.406984115
     0.000000000  0.500000000  0.502574971
     0.100000000  0.400000000  0.502574971
     0.000000000  0.600000000  0.406984115
[...]
     52     -43.3073      2.00000
     53     -43.3072      2.00000
     54     -43.3068      2.00000
     55     -43.3067      2.00000
     56     -43.3054      2.00000
     57     -43.3050      2.00000
     58     -43.3048      2.00000
     59     -43.3046      2.00000
     60     -43.3044      2.00000
[...]
    850       4.4730      0.00000
    851       4.4864      0.00000
    852       4.5008      0.00000
    853       4.5217      0.00000
    854       4.5594      0.00000
    855       4.5815      0.00000
    856       4.6068      0.00000
    857       4.6275      0.00000
    858       4.6628      0.00000
    859       4.6822      0.00000
    860       4.6865      0.00000
    861       4.6948      0.00000
    862       4.7759      0.00000
    863       4.7865      0.00000
    864       4.8387      0.00000

 soft charge-density along one line, spin component           1
         0         1         2         3         4         5         6         7         8         9
 total charge-density along one line

------------------------ aborting loop EDIFF was not reached (unconverged)  ----------------------------

  FORCE on cell =-STRESS in cart. coord.  units (eV):
  Direction    XX          YY          ZZ          XY          YZ          ZX
  Alpha Z  1354.41543  1354.41543  1354.41543
  Ewald  480381.00929480381.00929************  -397.46722     0.00001    -0.00002
  Hartree509363.25030509363.25030************  -292.73827    -0.00000    -0.00002
  E(xc)   -8232.37790 -8232.37779 -8258.09991    -0.02842     0.00006    -0.00000
  Local  ************************************   683.98265    -0.00001     0.00004
  n-local -8992.05547 -8992.05402 -9116.35554     0.57193    -0.00376    -0.00210
  augment  3995.42227  3995.42227  3941.27057     2.60079    -0.00000    -0.00000
  Kinetic 22894.96237 22894.96613 23142.86104     2.46452     0.00336    -0.00142
  Fock        0.00000     0.00000     0.00000     0.00000     0.00000     0.00000
  Total    -166.23712  -166.23712     8.23498    -0.61405     0.00000     0.00000
  in kB     -26.95322   -26.95322     1.33520    -0.09956     0.00000     0.00000

 VOLUME and BASIS-vectors are now :
  energy-cutoff  :      520.00
  volume of cell :     9881.61
      direct lattice vectors                 reciprocal lattice vectors
    21.138852197  0.000000000  0.000000000     0.047306258  0.000000000  0.000000000
     0.000000000 21.138852197  0.000000000     0.000000000  0.047306258  0.000000000
     0.000000000  0.000000000 22.113885220     0.000000000  0.000000000  0.045220457

  length of vectors
    21.138852197 21.138852197 22.113885220     0.047306258  0.047306258  0.045220457

 FORCES acting on ions:
    Electron-Ion                     Ewald-Force                    Non-Local-Force
   -.255E+03 0.255E+03 -.212E+04   0.246E+03 -.246E+03 0.212E+04   0.889E+01 -.889E+01 -.149E+00
   0.255E+03 -.255E+03 -.212E+04   -.246E+03 0.246E+03 0.212E+04   -.889E+01 0.889E+01 -.149E+00
   0.158E+00 -.352E+01 0.932E+03   -.162E+00 0.353E+01 -.923E+03   0.228E-02 -.389E-02 -.792E+01
   0.352E+01 -.158E+00 0.932E+03   -.353E+01 0.162E+00 -.923E+03   0.389E-02 -.228E-02 -.792E+01
   0.121E-07 -.185E-03 -.924E+03   0.784E-07 -.160E-05 0.915E+03   -.308E-21 0.297E-21 0.789E+01
   0.530E+01 -.530E+01 -.923E+03   -.531E+01 0.531E+01 0.915E+03   0.742E-02 -.742E-02 0.789E+01
   -.158E+00 0.352E+01 0.932E+03   0.162E+00 -.353E+01 -.923E+03   -.228E-02 0.389E-02 -.792E+01
   0.548E+01 0.692E+01 0.934E+03   -.549E+01 -.692E+01 -.925E+03   0.355E-02 0.674E-02 -.792E+01
   -.437E+00 0.725E+01 -.923E+03   0.446E+00 -.725E+01 0.914E+03   -.705E-02 0.494E-02 0.789E+01
   0.483E+01 0.483E+01 -.923E+03   -.483E+01 -.483E+01 0.915E+03   0.687E-03 0.687E-03 0.789E+01
   -.369E+00 0.627E+01 0.934E+03   0.378E+00 -.628E+01 -.926E+03   -.663E-02 0.667E-02 -.792E+01
   0.107E+02 0.528E+01 0.938E+03   -.107E+02 -.529E+01 -.930E+03   0.163E-01 0.967E-02 -.793E+01
   -.421E+00 0.508E+01 -.920E+03   0.430E+00 -.508E+01 0.912E+03   -.692E-02 0.343E-02 0.789E+01
   0.109E+02 0.984E+01 -.920E+03   -.109E+02 -.985E+01 0.912E+03   0.201E-02 0.816E-02 0.789E+01
   0.211E-06 -.188E-03 0.936E+03   -.118E-06 0.158E-05 -.928E+03   0.277E-21 0.144E-20 -.792E+01
   0.114E+02 -.486E+01 0.938E+03   -.114E+02 0.486E+01 -.930E+03   0.332E-01 -.334E-02 -.792E+01
   0.421E+00 -.508E+01 -.920E+03   -.430E+00 0.508E+01 0.912E+03   0.692E-02 -.343E-02 0.789E+01
   0.178E+02 0.581E+00 -.917E+03   -.178E+02 -.589E+00 0.909E+03   0.228E-01 0.663E-02 0.789E+01
   0.369E+00 -.628E+01 0.934E+03   -.378E+00 0.628E+01 -.926E+03   0.663E-02 -.667E-02 -.792E+01
   0.613E+01 -.719E+01 0.934E+03   -.615E+01 0.720E+01 -.926E+03   0.141E-01 -.115E-01 -.792E+01
   0.437E+00 -.725E+01 -.923E+03   -.446E+00 0.725E+01 0.914E+03   0.705E-02 -.494E-02 0.789E+01
   0.123E+02 -.995E+01 -.920E+03   -.124E+02 0.996E+01 0.912E+03   0.265E-01 -.774E-02 0.789E+01
   0.719E+01 -.613E+01 0.934E+03   -.720E+01 0.615E+01 -.926E+03   0.115E-01 -.141E-01 -.792E+01
   0.628E+01 -.369E+00 0.934E+03   -.628E+01 0.378E+00 -.926E+03   0.667E-02 -.663E-02 -.792E+01
   0.725E+01 -.437E+00 -.923E+03   -.725E+01 0.446E+00 0.914E+03   0.494E-02 -.705E-02 0.789E+01
   0.995E+01 -.123E+02 -.920E+03   -.996E+01 0.124E+02 0.912E+03   0.774E-02 -.265E-01 0.789E+01
   0.692E+01 0.548E+01 0.934E+03   -.692E+01 -.549E+01 -.925E+03   0.674E-02 0.355E-02 -.792E+01
   0.121E+02 0.156E+02 0.941E+03   -.121E+02 -.156E+02 -.932E+03   0.200E-01 0.270E-01 -.793E+01
   0.136E+02 0.136E+02 -.920E+03   -.136E+02 -.136E+02 0.912E+03   0.725E-02 0.725E-02 0.789E+01
   0.984E+01 0.109E+02 -.920E+03   -.985E+01 -.109E+02 0.912E+03   0.816E-02 0.201E-02 0.789E+01
   0.156E+02 0.121E+02 0.941E+03   -.156E+02 -.121E+02 -.932E+03   0.270E-01 0.200E-01 -.793E+01
   0.310E+02 0.170E+02 0.962E+03   -.311E+02 -.171E+02 -.954E+03   0.115E+00 0.544E-01 -.796E+01
   0.346E+02 0.142E+02 -.911E+03   -.346E+02 -.142E+02 0.902E+03   0.237E-01 0.206E-01 0.788E+01
   0.334E+02 0.334E+02 -.906E+03   -.334E+02 -.334E+02 0.898E+03   0.242E-01 0.242E-01 0.787E+01
   0.254E+02 0.916E+00 0.949E+03   -.254E+02 -.933E+00 -.940E+03   0.738E-01 0.136E-01 -.794E+01
   0.327E+02 -.156E+02 0.966E+03   -.327E+02 0.156E+02 -.958E+03   0.684E-01 -.341E-01 -.789E+01
   0.378E+02 -.126E+02 -.909E+03   -.379E+02 0.126E+02 0.901E+03   0.820E-01 0.255E-02 0.789E+01
   0.840E+02 0.686E+01 -.872E+03   -.843E+02 -.693E+01 0.864E+03   0.225E+00 0.579E-01 0.789E+01
   0.168E+02 -.123E+02 0.942E+03   -.168E+02 0.124E+02 -.934E+03   0.378E-01 -.237E-01 -.792E+01
   0.123E+02 -.168E+02 0.942E+03   -.124E+02 0.168E+02 -.934E+03   0.237E-01 -.378E-01 -.792E+01
   0.149E+02 -.149E+02 -.919E+03   -.149E+02 0.149E+02 0.911E+03   0.235E-01 -.235E-01 0.789E+01
   0.374E+02 -.374E+02 -.902E+03   -.375E+02 0.375E+02 0.893E+03   0.635E-01 -.635E-01 0.790E+01
   0.486E+01 -.114E+02 0.938E+03   -.486E+01 0.114E+02 -.930E+03   0.334E-02 -.332E-01 -.792E+01
   0.206E-06 -.183E-03 0.936E+03   -.110E-06 -.428E-05 -.928E+03   -.124E-20 -.243E-21 -.792E+01
   0.508E+01 -.422E+00 -.920E+03   -.508E+01 0.430E+00 0.912E+03   0.343E-02 -.692E-02 0.789E+01
   -.581E+00 -.178E+02 -.917E+03   0.589E+00 0.178E+02 0.909E+03   -.663E-02 -.228E-01 0.789E+01
   0.528E+01 0.107E+02 0.938E+03   -.529E+01 -.107E+02 -.930E+03   0.967E-02 0.163E-01 -.793E+01
   0.916E+00 0.254E+02 0.949E+03   -.933E+00 -.254E+02 -.940E+03   0.136E-01 0.738E-01 -.794E+01
   0.142E+02 0.346E+02 -.911E+03   -.142E+02 -.346E+02 0.902E+03   0.206E-01 0.237E-01 0.788E+01
   0.581E+00 0.178E+02 -.917E+03   -.589E+00 -.178E+02 0.909E+03   0.663E-02 0.228E-01 0.789E+01
   0.170E+02 0.310E+02 0.962E+03   -.171E+02 -.311E+02 -.954E+03   0.544E-01 0.115E+00 -.796E+01
   0.281E+01 0.347E+02 0.101E+04   -.275E+01 -.348E+02 -.100E+04   -.499E-01 0.790E-01 -.763E+01
   0.784E+02 0.784E+02 -.833E+03   -.787E+02 -.787E+02 0.826E+03   0.229E+00 0.229E+00 0.764E+01
   0.686E+01 0.840E+02 -.872E+03   -.693E+01 -.843E+02 0.864E+03   0.579E-01 0.225E+00 0.789E+01
   0.347E+02 0.281E+01 0.101E+04   -.348E+02 -.275E+01 -.100E+04   0.790E-01 -.499E-01 -.763E+01
   -.281E+01 -.347E+02 0.101E+04   0.275E+01 0.348E+02 -.100E+04   0.499E-01 -.790E-01 -.763E+01
   0.867E+02 -.867E+02 -.795E+03   -.868E+02 0.868E+02 0.787E+03   0.950E-01 -.950E-01 0.748E+01
   -.239E-04 -.260E-03 -.613E+03   0.242E-04 0.699E-04 0.610E+03   -.423E-20 -.147E-20 0.354E+01
   0.156E+02 -.327E+02 0.966E+03   -.156E+02 0.327E+02 -.958E+03   0.341E-01 -.684E-01 -.789E+01
   -.916E+00 -.254E+02 0.949E+03   0.933E+00 0.254E+02 -.940E+03   -.136E-01 -.738E-01 -.794E+01
[...]
   -.813E+01 0.813E+01 0.704E+03   0.814E+01 -.814E+01 -.708E+03   -.198E-01 0.198E-01 0.352E+01
   -.319E+01 0.319E+01 0.700E+03   0.320E+01 -.320E+01 -.705E+03   -.701E-02 0.701E-02 0.352E+01
   -.191E+02 0.136E+02 -.687E+03   0.191E+02 -.136E+02 0.691E+03   -.393E-01 0.255E-01 -.357E+01
   -.124E+02 0.480E+01 -.690E+03   0.124E+02 -.480E+01 0.694E+03   -.210E-01 0.500E-03 -.357E+01
   -.173E+02 0.613E+01 0.711E+03   0.173E+02 -.614E+01 -.715E+03   -.549E-01 0.107E-01 0.353E+01
   -.664E+01 0.574E+01 0.703E+03   0.666E+01 -.575E+01 -.707E+03   -.200E-01 0.105E-01 0.352E+01
   -.318E+02 -.146E+01 -.682E+03   0.318E+02 0.148E+01 0.686E+03   -.453E-01 -.263E-01 -.359E+01
   -.114E+02 -.530E+01 -.690E+03   0.114E+02 0.530E+01 0.694E+03   -.771E-02 -.105E-01 -.357E+01
   -.164E+02 -.686E+01 0.711E+03   0.164E+02 0.688E+01 -.715E+03   -.318E-01 -.256E-01 0.351E+01
   -.912E+01 -.258E+00 0.706E+03   0.914E+01 0.262E+00 -.710E+03   -.191E-01 -.642E-02 0.352E+01
   -.170E+02 -.129E+02 -.688E+03   0.170E+02 0.130E+02 0.692E+03   -.111E-01 -.134E-01 -.358E+01
   -.530E+01 -.650E+01 -.693E+03   0.530E+01 0.650E+01 0.697E+03   0.346E-03 -.396E-02 -.356E+01
   -.762E+01 -.762E+01 0.703E+03   0.763E+01 0.763E+01 -.707E+03   -.102E-01 -.102E-01 0.351E+01
   -.598E+01 -.573E+01 0.703E+03   0.599E+01 0.573E+01 -.707E+03   -.509E-02 -.931E-02 0.352E+01
   -.144E-04 -.111E+00 0.944E+01   0.436E-11 -.952E-12 -.580E-11   -.891E-15 -.538E-16 -.105E+02

 POSITION                                       TOTAL-FORCE (eV/Angst)
     11.36279     11.88995     13.59669        -0.081387      0.081387     -0.027133
      9.77606     13.47667     13.59669         0.081387     -0.081387     -0.027133
      0.00000      0.00000      9.00000        -0.001911      0.000211      0.396876
      2.11389      2.11389      9.00000        -0.000211      0.001911      0.396876
      0.00000      2.11389     11.11389         0.000000      0.000000     -0.391419
      2.11389      0.00000     11.11389        -0.001212      0.001212     -0.390823
      0.00000      4.22777      9.00000         0.001911     -0.000211      0.396876
      2.11389      6.34166      9.00000         0.001636     -0.000041      0.397846
      0.00000      6.34166     11.11389         0.002140      0.000387     -0.390987
      2.11389      4.22777     11.11389         0.001275      0.001275     -0.392309
      0.00000      8.45554      9.00000         0.002514     -0.000144      0.398653
      2.11389     10.56943      9.00000         0.000516     -0.000663      0.398571
      0.00000     10.56943     11.11389         0.001778     -0.000011     -0.390729
      2.11389      8.45554     11.11389         0.004932      0.001127     -0.390470
      0.00000     12.68331      9.00000         0.000000      0.000000      0.398550
      2.11389     14.79720      9.00000        -0.000595     -0.001503      0.399494
      0.00000     14.79720     11.11389        -0.001778      0.000011     -0.390729
      2.11389     12.68331     11.11389         0.002446     -0.001331     -0.391062
      0.00000     16.91108      9.00000        -0.002514      0.000144      0.398653
      2.11389     19.02497      9.00000        -0.001816     -0.000494      0.396333
      0.00000     19.02497     11.11389        -0.002140     -0.000387     -0.390987
      2.11389     16.91108     11.11389         0.000386     -0.002113     -0.391457
      4.22777      0.00000      9.00000         0.000494      0.001816      0.396333
      6.34166      2.11389      9.00000        -0.000144      0.002514      0.398653
      4.22777      2.11389     11.11389         0.000387      0.002140     -0.390987
      6.34166      0.00000     11.11389         0.002113     -0.000386     -0.391457
      4.22777      4.22777      9.00000        -0.000041      0.001636      0.397846
      6.34166      6.34166      9.00000         0.000099      0.001416      0.402076
      4.22777      6.34166     11.11389         0.004984      0.004984     -0.389517
      6.34166      4.22777     11.11389         0.001127      0.004932     -0.390470
      4.22777      8.45554      9.00000         0.001416      0.000099      0.402076
      6.34166     10.56943      9.00000        -0.022842     -0.013529      0.408611
      4.22777     10.56943     11.11389         0.005488     -0.003930     -0.386209
      6.34166      8.45554     11.11389         0.002311      0.002311     -0.381028
      4.22777     12.68331      9.00000        -0.010993     -0.003429      0.401398
      6.34166     14.79720      9.00000        -0.014071      0.004640      0.395247
      4.22777     14.79720     11.11389        -0.009395     -0.001037     -0.391264
      6.34166     12.68331     11.11389        -0.055517     -0.013644     -0.375363
      4.22777     16.91108      9.00000        -0.004694     -0.000332      0.399339
      6.34166     19.02497      9.00000         0.000332      0.004694      0.399339
      4.22777     19.02497     11.11389         0.001884     -0.001884     -0.389632
      6.34166     16.91108     11.11389        -0.007032      0.007032     -0.389983
      8.45554      0.00000      9.00000         0.001503      0.000595      0.399494
     10.56943      2.11389      9.00000         0.000000      0.000000      0.398550
      8.45554      2.11389     11.11389        -0.000011      0.001778     -0.390729
     10.56943      0.00000     11.11389         0.001331     -0.002446     -0.391062
      8.45554      4.22777      9.00000        -0.000663      0.000516      0.398571
     10.56943      6.34166      9.00000        -0.003429     -0.010993      0.401398
      8.45554      6.34166     11.11389        -0.003930      0.005488     -0.386209
     10.56943      4.22777     11.11389        -0.001331      0.002446     -0.391062
      8.45554      8.45554      9.00000        -0.013529     -0.022842      0.408611
     10.56943     10.56943      9.00000         0.016908     -0.008617      0.326666
      8.45554     10.56943     11.11389        -0.017757     -0.017757     -0.214911
     10.56943      8.45554     11.11389        -0.013644     -0.055517     -0.375363
      8.45554     12.68331      9.00000        -0.008617      0.016908      0.326666
     10.56943     14.79720      9.00000        -0.016908      0.008617      0.326666
      8.45554     14.79720     11.11389        -0.065780      0.065780     -0.478545
     10.56943     12.68331     11.11389         0.000000      0.000000     -0.139723
      8.45554     16.91108      9.00000        -0.004640      0.014071      0.395247
     10.56943     19.02497      9.00000         0.003429      0.010993      0.401398
[...]
     19.02497      6.34166     11.11389        -0.003452      0.002445      0.508178
     16.91108      6.34166      9.00000        -0.004983      0.004983     -0.516307
     19.02497      4.22777      9.00000        -0.001973      0.001973     -0.518013
     16.91108      8.45554     11.11389        -0.010548      0.006954      0.505974
     19.02497     10.56943     11.11389        -0.005250     -0.000299      0.505959
     16.91108     10.56943      9.00000        -0.015309      0.002999     -0.512028
     19.02497      8.45554      9.00000        -0.005477      0.002556     -0.516691
     16.91108     12.68331     11.11389        -0.013704     -0.007780      0.499084
     19.02497     14.79720     11.11389        -0.001221     -0.002683      0.505004
     16.91108     14.79720      9.00000        -0.009003     -0.007649     -0.518807
     19.02497     12.68331      9.00000        -0.005369     -0.002059     -0.516957
     16.91108     16.91108     11.11389        -0.002301     -0.003119      0.501234
     19.02497     19.02497     11.11389         0.000367     -0.000419      0.507432
     16.91108     19.02497      9.00000        -0.002094     -0.002094     -0.518518
     19.02497     16.91108      9.00000        -0.001200     -0.001757     -0.517964
    total drift:                               -0.000014     -0.110730     -1.078660

  FREE ENERGIE OF THE ION-ELECTRON SYSTEM (eV)
  free  energy   TOTEN  =     -1776.65598268 eV

  energy  without entropy=    -1776.65598268  energy(sigma->0) =    -1776.65598268