 vasp.6.3.0 20Jan22 (build Apr  1 2022 16:44:48) complex
 executed on        HPECrayEX_GCC date 2023.01.09  20:08:36

 INCAR:
   SYSTEM = MgO-rocksalt
   ISMEAR = 0
   SIGMA = 0.05
   EDIFF = 1E-6
   ALGO = ALL
   ISTART = 0
   IBRION = -1
   NSW = 0
   ISYM = 2
   DIPOL = 0.5 0.5 0.5
   IDIPOL = 3
   LDIPOL = .TRUE.
   GGA = PS
   IVDW = 13
   VDW_S8 = 1.71885698
   VDW_A1 = 0.47901421
   VDW_A2 = 5.96771589
   ENCUT = 520
   PREC = Accurate
   LASPH = .TRUE.
   LREAL = Auto
   ISPIN = 1
   NELM = 200
   NELMIN = 8
   NCORE = 4
   KPAR = 2
   LWAVE = .FALSE.
   LCHARG = .FALSE.

 POTCAR:    PAW_PBE Au 04Oct2007
 POTCAR:    PAW_PBE Mg_pv 13Apr2007
 POTCAR:    PAW_PBE O 08Apr2002
 POTCAR:    PAW_PBE Au 04Oct2007
   VRHFIN =Au: s1d10

   TITEL  = PAW_PBE Au 04Oct2007
   POMASS =  196.966; ZVAL   =   11.000    mass and valenz
   ENMAX  =  229.943; ENMIN  =  172.457 eV

   TITEL  = PAW_PBE Mg_pv 13Apr2007
   POMASS =   24.305; ZVAL   =    8.000    mass and valenz
   ENMAX  =  403.929; ENMIN  =  302.947 eV

   TITEL  = PAW_PBE O 08Apr2002
   POMASS =   16.000; ZVAL   =    6.000    mass and valenz
   ENMAX  =  400.000; ENMIN  =  300.000 eV

 Optimization of the real space projectors (new method)

 maximal supplied QI-value         = 15.12
 optimisation between [QCUT,QGAM] = [ 11.64, 23.28] = [ 37.95,151.78] Ry
 Optimized for a Real-space Cutoff    1.49 Angstroem

   l    n(q)    QCUT    max X(q) W(low)/X(q) W(high)/X(q)  e(spline)
   2      9    11.641    60.898    0.24E-03    0.10E-03    0.19E-06
   2      9    11.641    58.894    0.25E-03    0.10E-03    0.19E-06
   0     10    11.641   109.617    0.73E-04    0.33E-04    0.11E-06
   0     10    11.641    75.026    0.71E-04    0.32E-04    0.11E-06
   1     10    11.641    16.344    0.27E-04    0.97E-04    0.16E-06
   1     10    11.641    10.160    0.23E-04    0.77E-04    0.13E-06
 Optimization of the real space projectors (new method)

[...]

   l    n(q)    QCUT    max X(q) W(low)/X(q) W(high)/X(q)  e(spline)
   1      8    11.527     2.974    0.44E-04    0.56E-04    0.12E-06
   1      8    11.527     4.279    0.12E-03    0.12E-03    0.26E-06
   0      9    11.527    16.381    0.46E-04    0.64E-04    0.78E-07
   0      9    11.527     5.611    0.26E-04    0.43E-04    0.55E-07
   2      8    11.527     4.652    0.22E-03    0.72E-04    0.47E-07
 Optimization of the real space projectors (new method)

 maximal supplied QI-value         = 24.76
 optimisation between [QCUT,QGAM] = [ 11.64, 23.27] = [ 37.91,151.63] Ry
 Optimized for a Real-space Cutoff    1.14 Angstroem

   l    n(q)    QCUT    max X(q) W(low)/X(q) W(high)/X(q)  e(spline)
   0      8    11.635    20.381    0.10E-03    0.33E-03    0.24E-06
   0      8    11.635    15.268    0.11E-03    0.35E-03    0.26E-06
   1      7    11.635     5.964    0.24E-03    0.31E-03    0.30E-06
   1      7    11.635     5.382    0.22E-03    0.25E-03    0.26E-06
|               ----> ADVICE to this user running VASP <----                  |
|     You enforced a specific xc type in the INCAR file but a different       |
|     type was found in the POTCAR file.                                      |
|     I HOPE YOU KNOW WHAT YOU ARE DOING!                                     |

  PAW_PBE Au 04Oct2007                  :
  PAW_PBE Mg_pv 13Apr2007               :
  PAW_PBE O 08Apr2002                   :

 POSCAR: Au Mg  O
  positions in direct lattice
  velocities in cartesian coordinates
|           W    W    AA    RRRRR   N    N  II  N    N   GGGG   !!!           |
|           W    W   A  A   R    R  NN   N  II  NN   N  G    G  !!!           |
|           W    W  A    A  R    R  N N  N  II  N N  N  G       !!!           |
|           W WW W  AAAAAA  RRRRR   N  N N  II  N  N N  G  GGG   !            |
|           WW  WW  A    A  R   R   N   NN  II  N   NN  G    G                |
|           W    W  A    A  R    R  N    N  II  N    N   GGGG   !!!           |
|     Specifying the vdW parameters                                           |
|     VDW_S8 = 1.719                                                          |
|     VDW_A1 = 0.479                                                          |
|     VDW_A2 = 5.968                                                          |
|     in the INCAR file will overwrite the defaults for pbesol. Please        |
|     make sure that is what you intended.                                    |

 ion  position               nearest neighbor table
   1  0.400  0.565  0.604- 157 2.36   3 2.61  55 2.63   4 2.77
   2  0.400  0.500  0.818-   3 2.52
   3  0.400  0.500  0.704-   2 2.52   4 2.61   1 2.61
   4  0.400  0.434  0.604- 153 2.35   3 2.61  55 2.64   1 2.77
   5  0.000  0.000  0.407- 107 2.11 108 2.11 123 2.11 188 2.11 105 2.11
   6  0.100  0.100  0.407- 107 2.11 108 2.11 112 2.11 127 2.11 106 2.11
   7  0.000  0.100  0.503- 105 2.11 106 2.11 109 2.11 186 2.11 107 2.11
   8  0.100  0.000  0.503- 105 2.11 106 2.11 122 2.11 125 2.11 108 2.11
   9  0.000  0.200  0.407- 111 2.11 107 2.11 112 2.11 192 2.11 109 2.11
  10  0.100  0.300  0.407- 112 2.11 111 2.11 116 2.11 131 2.11 110 2.11
  11  0.000  0.300  0.503- 109 2.11 110 2.11 113 2.11 190 2.11 111 2.11
  12  0.100  0.200  0.503- 110 2.11 109 2.11 106 2.11 129 2.11 112 2.11
  13  0.000  0.400  0.407- 111 2.11 115 2.11 116 2.11 196 2.11 113 2.11
  14  0.100  0.500  0.407- 115 2.11 116 2.11 120 2.11 135 2.11 114 2.11
  15  0.000  0.500  0.503- 113 2.11 114 2.11 117 2.11 194 2.11 115 2.11
  16  0.100  0.400  0.503- 110 2.11 113 2.11 114 2.11 133 2.11 116 2.11
  17  0.000  0.600  0.407- 115 2.11 119 2.11 120 2.11 200 2.11 117 2.11
  18  0.100  0.700  0.407- 124 2.11 120 2.11 119 2.11 139 2.11 118 2.11
  19  0.000  0.700  0.503- 121 2.11 118 2.11 117 2.11 198 2.11 119 2.11
  20  0.100  0.600  0.503- 114 2.11 117 2.11 118 2.11 137 2.11 120 2.11
  21  0.000  0.800  0.407- 119 2.11 123 2.11 124 2.11 204 2.11 121 2.11
  22  0.100  0.900  0.407- 108 2.11 123 2.11 124 2.11 143 2.11 122 2.11
  23  0.000  0.900  0.503- 105 2.11 121 2.11 122 2.11 202 2.11 123 2.11
  24  0.100  0.800  0.503- 118 2.11 121 2.11 122 2.11 141 2.11 124 2.11
  25  0.200  0.000  0.407- 128 2.11 127 2.11 108 2.11 143 2.11 125 2.11
  26  0.300  0.100  0.407- 127 2.11 128 2.11 132 2.11 147 2.11 126 2.11
  27  0.200  0.100  0.503- 126 2.11 125 2.11 106 2.11 129 2.11 127 2.11
  28  0.300  0.000  0.503- 125 2.11 126 2.11 142 2.11 145 2.11 128 2.11
  29  0.200  0.200  0.407- 131 2.11 132 2.11 112 2.11 127 2.11 129 2.11
  30  0.300  0.300  0.407- 131 2.11 132 2.11 136 2.11 151 2.11 130 2.11
  31  0.200  0.300  0.503- 129 2.11 130 2.11 110 2.11 133 2.11 131 2.11
  32  0.300  0.200  0.503- 129 2.11 130 2.11 126 2.11 149 2.11 132 2.11
  33  0.200  0.400  0.407- 136 2.11 131 2.11 135 2.11 116 2.11 133 2.11
  34  0.300  0.500  0.407- 135 2.11 136 2.11 140 2.11 155 2.11 134 2.11
  35  0.200  0.500  0.503- 134 2.11 133 2.11 114 2.11 137 2.11 135 2.11
  36  0.300  0.400  0.503- 133 2.11 130 2.11 134 2.11 153 2.11 136 2.11
  37  0.200  0.600  0.407- 140 2.11 135 2.11 139 2.11 120 2.11 137 2.11
  38  0.300  0.700  0.407- 139 2.11 144 2.11 140 2.11 159 2.11 138 2.11
  39  0.200  0.700  0.503- 138 2.11 141 2.11 118 2.11 137 2.11 139 2.11
  40  0.300  0.600  0.503- 137 2.11 134 2.11 138 2.11 157 2.11 140 2.11
  41  0.200  0.800  0.407- 139 2.11 144 2.11 143 2.11 124 2.11 141 2.11
  42  0.300  0.900  0.407- 143 2.11 128 2.11 144 2.11 163 2.11 142 2.11
  43  0.200  0.900  0.503- 142 2.11 125 2.11 141 2.11 122 2.11 143 2.11
  44  0.300  0.800  0.503- 138 2.11 141 2.11 142 2.11 161 2.11 144 2.11
  45  0.400  0.000  0.407- 128 2.11 147 2.11 148 2.11 163 2.11 145 2.11
  46  0.500  0.100  0.407- 147 2.11 148 2.11 152 2.11 167 2.11 146 2.11
  47  0.400  0.100  0.503- 126 2.11 145 2.11 146 2.11 149 2.11 147 2.11
  48  0.500  0.000  0.503- 145 2.11 146 2.11 162 2.11 165 2.11 148 2.11
  49  0.400  0.200  0.407- 151 2.11 147 2.11 132 2.11 152 2.11 149 2.11
  50  0.500  0.300  0.407- 152 2.11 151 2.11 156 2.11 171 2.11 150 2.11
  51  0.400  0.300  0.503- 149 2.11 130 2.11 150 2.11 153 2.11 151 2.11
  52  0.500  0.200  0.503- 150 2.11 149 2.11 146 2.11 169 2.11 152 2.11
  53  0.400  0.400  0.407- 136 2.11 151 2.11 155 2.11 156 2.11 153 2.11
  54  0.500  0.500  0.407- 155 2.11 156 2.11 160 2.11 175 2.11 154 2.11
  55  0.400  0.500  0.503- 134 2.11 153 2.11 154 2.11 157 2.11 155 2.11   1 2.63   4 2.64
  56  0.500  0.400  0.503- 150 2.11 153 2.11 154 2.11 173 2.11 156 2.11
  57  0.400  0.600  0.407- 140 2.11 155 2.11 159 2.11 160 2.11 157 2.11
  58  0.500  0.700  0.407- 164 2.11 160 2.11 159 2.11 179 2.11 158 2.11
  59  0.400  0.700  0.503- 161 2.11 157 2.11 158 2.11 138 2.11 159 2.11
  60  0.500  0.600  0.503- 154 2.11 157 2.11 158 2.11 177 2.11 160 2.11
[...]
 190  0.900  0.300  0.503-  92 2.11  91 2.11  11 2.11  96 2.11  90 2.11
 191  0.800  0.300  0.407-  70 2.11  89 2.11  90 2.11  93 2.11  91 2.11
 192  0.900  0.200  0.407-  90 2.11  86 2.11  89 2.11   9 2.11  92 2.11
 193  0.800  0.400  0.503-  76 2.11  91 2.11  95 2.11  96 2.11  93 2.11
 194  0.900  0.500  0.503-  15 2.11  95 2.11  96 2.11 100 2.11  94 2.11
 195  0.800  0.500  0.407-  74 2.11  93 2.11  94 2.11  97 2.11  95 2.11
 196  0.900  0.400  0.407-  13 2.11  90 2.11  93 2.11  94 2.11  96 2.11
 197  0.800  0.600  0.503-  80 2.11  95 2.11  99 2.11 100 2.11  97 2.11
 198  0.900  0.700  0.503- 104 2.11  99 2.11 100 2.11  19 2.11  98 2.11
 199  0.800  0.700  0.407-  78 2.11 101 2.11  98 2.11  97 2.11  99 2.11
 200  0.900  0.600  0.407-  17 2.11  94 2.11  97 2.11  98 2.11 100 2.11
 201  0.800  0.800  0.503-  84 2.11  99 2.11 103 2.11 104 2.11 101 2.11
 202  0.900  0.900  0.503-  23 2.11  88 2.11 103 2.11 104 2.11 102 2.11
 203  0.800  0.900  0.407-  82 2.11  85 2.11 101 2.11 102 2.11 103 2.11
 204  0.900  0.800  0.407-  98 2.11  21 2.11 101 2.11 102 2.11 104 2.11

  LATTYP: Found a simple tetragonal cell.
 ALAT       =    21.1388521970
 C/A-ratio  =     1.0461251639

  Lattice vectors:

 A1 = (  21.1388521970,   0.0000000000,   0.0000000000)
 A2 = (   0.0000000000,  21.1388521970,   0.0000000000)
 A3 = (   0.0000000000,   0.0000000000,  22.1138852197)

Analysis of symmetry for initial positions (statically):
 Subroutine PRICEL returns:
 Original cell was already a primitive cell.

 Routine SETGRP: Setting up the symmetry group for a
 simple tetragonal supercell.

 Subroutine GETGRP returns: Found  1 space group operations
 (whereof  1 operations were pure point group operations)
 out of a pool of 16 trial point group operations.

The static configuration has the point symmetry C_1 .

Analysis of symmetry for dynamics (positions and initial velocities):
 Subroutine PRICEL returns:
 Original cell was already a primitive cell.

[...]

The dynamic configuration has the point symmetry C_1 .

Analysis of constrained symmetry for selective dynamics:
 Subroutine PRICEL returns:
 Original cell was already a primitive cell.

 Routine SETGRP: Setting up the symmetry group for a
 simple tetragonal supercell.

 Subroutine GETGRP returns: Found  1 space group operations
 (whereof  1 operations were pure point group operations)
 out of a pool of 16 trial point group operations.

The constrained configuration has the point symmetry C_1 .

[...]
     54     -42.9681      2.00000
     55     -42.9567      2.00000
     56     -42.9565      2.00000
     57     -42.9563      2.00000
     58     -42.9560      2.00000
     59     -42.9540      2.00000
     60     -42.9538      2.00000
[...]
    946       6.1615      0.00000
    947       6.1836      0.00000
    948       6.2366      0.00000
    949       6.2497      0.00000
    950       6.3165      0.00000
    951       6.3537      0.00000
    952       6.3712      0.00000
    953       6.4206      0.00000
    954       6.5236      0.00000
    955       6.5921      0.00000
    956       6.6048      0.00000
    957       6.6348      0.00000
    958       6.6825      0.00000
    959       6.7134      0.00000
    960       6.7649      0.00000

 soft charge-density along one line, spin component           1
         0         1         2         3         4         5         6         7         8         9
 total charge-density along one line

------------------------ aborting loop because EDIFF is reached ----------------------------------------

  FORCE on cell =-STRESS in cart. coord.  units (eV):
  Direction    XX          YY          ZZ          XY          YZ          ZX
  Alpha Z  1417.83424  1417.83424  1417.83424
  Ewald  475017.55858476123.61356************     0.15895     0.50430    -0.54556
  Hartree504390.69900505187.56718************     0.11373     0.17935    -0.38570
  E(xc)   -7692.82071 -7692.11298 -7709.15857     0.00010    -0.00048    -0.00048
  Local  ************************************    -0.26858    -0.67071     0.91233
  n-local -8789.79750 -8798.78538 -8929.47586    -0.00089     0.01854     0.00697
  augment  3489.98972  3484.80213  3419.16361    -0.00104    -0.00827     0.00290
  Kinetic 23259.41082 23246.91329 23496.81215    -0.00231     0.00570     0.01346
  Fock        0.00000     0.00000     0.00000     0.00000     0.00000     0.00000
  vdW       -11.44493   -11.44508    -3.02532    -0.00000     0.00001     0.00001
  Total    -207.21928  -208.46584   -13.90821    -0.00004     0.02844     0.00393
  in kB     -33.59796   -33.80007    -2.25504    -0.00001     0.00461     0.00064

 VOLUME and BASIS-vectors are now :
  energy-cutoff  :      520.00
  volume of cell :     9881.61
      direct lattice vectors                 reciprocal lattice vectors
    21.138852197  0.000000000  0.000000000     0.047306258  0.000000000  0.000000000
     0.000000000 21.138852197  0.000000000     0.000000000  0.047306258  0.000000000
     0.000000000  0.000000000 22.113885220     0.000000000  0.000000000  0.045220457

  length of vectors
    21.138852197 21.138852197 22.113885220     0.047306258  0.047306258  0.045220457

 FORCES acting on ions:
    Electron-Ion                     Ewald-Force                    Non-Local-Force
   -.145E+00 -.384E+03 -.190E+04   0.143E+00 0.380E+03 0.191E+04   0.289E-02 0.350E+01 -.287E+01
   0.316E-01 -.106E+00 -.126E+04   -.320E-01 0.987E-01 0.126E+04   0.388E-03 0.657E-02 0.684E+01
   0.161E+00 0.645E+00 -.172E+04   -.160E+00 -.643E+00 0.172E+04   -.105E-02 0.246E-02 0.179E+01
   -.298E-01 0.383E+03 -.190E+04   0.285E-01 -.379E+03 0.191E+04   0.245E-02 -.346E+01 -.287E+01
   0.633E+01 0.232E-01 0.935E+03   -.637E+01 -.232E-01 -.927E+03   0.275E-01 0.240E-04 -.773E+01
   0.124E+02 0.940E+01 0.939E+03   -.125E+02 -.943E+01 -.930E+03   0.608E-01 0.244E-01 -.774E+01
   0.906E+01 0.848E+01 -.918E+03   -.910E+01 -.848E+01 0.910E+03   0.308E-01 0.287E-02 0.762E+01
   0.132E+02 0.415E-01 -.917E+03   -.133E+02 -.416E-01 0.909E+03   0.417E-01 0.379E-04 0.762E+01
   0.980E+01 0.114E+02 0.938E+03   -.986E+01 -.114E+02 -.930E+03   0.495E-01 0.113E-01 -.774E+01
   0.257E+02 0.184E+02 0.950E+03   -.259E+02 -.184E+02 -.941E+03   0.165E+00 0.308E-01 -.776E+01
   0.189E+02 0.157E+02 -.912E+03   -.189E+02 -.157E+02 0.904E+03   0.503E-01 0.201E-03 0.761E+01
   0.243E+02 0.227E+02 -.911E+03   -.244E+02 -.227E+02 0.903E+03   0.985E-01 0.154E-01 0.761E+01
   0.171E+02 0.780E+01 0.945E+03   -.172E+02 -.781E+01 -.936E+03   0.787E-01 0.489E-02 -.775E+01
   0.374E+02 -.460E-01 0.959E+03   -.377E+02 0.461E-01 -.951E+03   0.208E+00 -.100E-03 -.778E+01
   0.272E+02 -.374E-01 -.908E+03   -.272E+02 0.374E-01 0.900E+03   0.498E-01 -.139E-05 0.760E+01
   0.540E+02 0.187E+02 -.895E+03   -.541E+02 -.187E+02 0.887E+03   0.133E+00 -.183E-02 0.758E+01
   0.170E+02 -.785E+01 0.945E+03   -.171E+02 0.785E+01 -.936E+03   0.786E-01 -.492E-02 -.775E+01
   0.256E+02 -.184E+02 0.950E+03   -.258E+02 0.184E+02 -.941E+03   0.165E+00 -.308E-01 -.776E+01
   0.188E+02 -.157E+02 -.912E+03   -.189E+02 0.157E+02 0.904E+03   0.503E-01 -.209E-03 0.761E+01
   0.539E+02 -.188E+02 -.895E+03   -.541E+02 0.188E+02 0.887E+03   0.133E+00 0.180E-02 0.758E+01
   0.978E+01 -.114E+02 0.938E+03   -.984E+01 0.114E+02 -.930E+03   0.494E-01 -.113E-01 -.774E+01
   0.124E+02 -.934E+01 0.939E+03   -.125E+02 0.938E+01 -.930E+03   0.607E-01 -.242E-01 -.774E+01
   0.905E+01 -.843E+01 -.918E+03   -.909E+01 0.843E+01 0.910E+03   0.308E-01 -.287E-02 0.762E+01
   0.242E+02 -.226E+02 -.911E+03   -.243E+02 0.227E+02 0.903E+03   0.983E-01 -.154E-01 0.761E+01
   0.113E+02 0.448E-01 0.940E+03   -.114E+02 -.449E-01 -.932E+03   0.499E-01 0.124E-03 -.774E+01
   0.897E+01 0.176E+02 0.946E+03   -.903E+01 -.178E+02 -.938E+03   0.462E-01 0.122E+00 -.775E+01
   0.178E+02 0.191E+02 -.912E+03   -.179E+02 -.191E+02 0.904E+03   0.590E-01 0.582E-01 0.761E+01
   0.935E+01 0.819E-01 -.912E+03   -.939E+01 -.820E-01 0.904E+03   0.290E-01 0.886E-04 0.761E+01
   0.205E+02 0.250E+02 0.951E+03   -.207E+02 -.251E+02 -.942E+03   0.142E+00 0.109E+00 -.774E+01
   0.263E+02 0.456E+02 0.986E+03   -.267E+02 -.460E+02 -.977E+03   0.322E+00 0.323E+00 -.769E+01
   0.564E+02 0.507E+02 -.884E+03   -.569E+02 -.507E+02 0.876E+03   0.350E+00 0.168E-01 0.757E+01
   0.238E+02 0.576E+02 -.892E+03   -.239E+02 -.580E+02 0.884E+03   0.833E-01 0.304E+00 0.759E+01
   0.468E+02 0.217E+02 0.981E+03   -.474E+02 -.217E+02 -.973E+03   0.486E+00 0.548E-01 -.787E+01
   0.497E+02 -.147E+00 0.104E+04   -.504E+02 0.149E+00 -.103E+04   0.514E+00 -.159E-02 -.789E+01
   0.110E+03 -.161E+00 -.847E+03   -.111E+03 0.160E+00 0.839E+03   0.298E+00 0.304E-04 0.750E+01
   0.128E+03 0.923E+02 -.759E+03   -.131E+03 -.922E+02 0.752E+03   0.188E+01 -.568E-01 0.703E+01
   0.467E+02 -.218E+02 0.981E+03   -.474E+02 0.218E+02 -.973E+03   0.484E+00 -.553E-01 -.787E+01
   0.262E+02 -.455E+02 0.985E+03   -.266E+02 0.460E+02 -.977E+03   0.321E+00 -.322E+00 -.769E+01
   0.562E+02 -.507E+02 -.884E+03   -.567E+02 0.507E+02 0.876E+03   0.348E+00 -.170E-01 0.757E+01
   0.128E+03 -.927E+02 -.760E+03   -.130E+03 0.926E+02 0.753E+03   0.187E+01 0.558E-01 0.703E+01
   0.204E+02 -.249E+02 0.950E+03   -.206E+02 0.250E+02 -.942E+03   0.142E+00 -.108E+00 -.774E+01
   0.895E+01 -.175E+02 0.946E+03   -.901E+01 0.176E+02 -.938E+03   0.461E-01 -.121E+00 -.775E+01
   0.178E+02 -.189E+02 -.912E+03   -.178E+02 0.190E+02 0.904E+03   0.590E-01 -.580E-01 0.761E+01
   0.237E+02 -.574E+02 -.892E+03   -.238E+02 0.578E+02 0.884E+03   0.833E-01 -.303E+00 0.759E+01
   -.638E-02 0.628E-01 0.943E+03   0.633E-02 -.631E-01 -.935E+03   0.410E-04 0.209E-03 -.775E+01
   -.898E+01 0.176E+02 0.946E+03   0.904E+01 -.178E+02 -.938E+03   -.461E-01 0.122E+00 -.775E+01
   -.111E-01 0.296E+02 -.906E+03   0.110E-01 -.298E+02 0.898E+03   0.594E-04 0.133E+00 0.761E+01
   -.936E+01 0.814E-01 -.912E+03   0.940E+01 -.815E-01 0.904E+03   -.289E-01 0.904E-04 0.761E+01
   -.134E-01 0.391E+02 0.963E+03   0.133E-01 -.396E+02 -.955E+03   0.732E-04 0.443E+00 -.781E+01
   -.263E+02 0.455E+02 0.985E+03   0.268E+02 -.460E+02 -.977E+03   -.322E+00 0.323E+00 -.769E+01
   -.633E-01 0.130E+03 -.820E+03   0.629E-01 -.132E+03 0.812E+03   0.282E-03 0.190E+01 0.760E+01
   -.238E+02 0.576E+02 -.892E+03   0.239E+02 -.580E+02 0.884E+03   -.831E-01 0.304E+00 0.759E+01
   -.418E-01 0.441E+02 0.104E+04   0.411E-01 -.444E+02 -.104E+04   0.539E-03 0.245E+00 -.532E+01
   -.497E+02 -.144E+00 0.104E+04   0.504E+02 0.146E+00 -.103E+04   -.513E+00 -.166E-02 -.789E+01
   -.224E+00 -.541E+00 -.530E+03   0.224E+00 0.562E+00 0.527E+03   0.118E-02 -.198E-01 0.287E+01
   -.128E+03 0.922E+02 -.759E+03   0.131E+03 -.921E+02 0.752E+03   -.188E+01 -.563E-01 0.703E+01
   -.385E-01 -.443E+02 0.104E+04   0.379E-01 0.446E+02 -.104E+04   0.385E-03 -.246E+00 -.533E+01
   -.262E+02 -.455E+02 0.985E+03   0.267E+02 0.459E+02 -.977E+03   -.321E+00 -.322E+00 -.769E+01
   -.543E-01 -.129E+03 -.821E+03   0.540E-01 0.132E+03 0.813E+03   0.261E-03 -.188E+01 0.761E+01
   -.128E+03 -.926E+02 -.760E+03   0.130E+03 0.925E+02 0.753E+03   -.187E+01 0.554E-01 0.704E+01
[...]
   -.102E+02 0.905E+01 0.708E+03   0.102E+02 -.906E+01 -.712E+03   -.596E-01 0.137E-01 0.349E+01
   0.618E-02 0.733E+01 0.704E+03   -.613E-02 -.734E+01 -.708E+03   -.670E-04 0.882E-02 0.350E+01
   -.185E+02 0.775E+01 -.683E+03   0.185E+02 -.775E+01 0.687E+03   -.535E-01 -.539E-03 -.373E+01
   0.157E-01 -.217E-01 -.685E+03   -.156E-01 0.217E-01 0.689E+03   -.129E-03 -.184E-05 -.372E+01
   -.139E+02 -.208E-01 0.711E+03   0.140E+02 0.209E-01 -.715E+03   -.689E-01 -.428E-04 0.349E+01
   0.102E-01 0.484E+01 0.707E+03   -.101E-01 -.484E+01 -.711E+03   -.107E-03 0.325E-02 0.349E+01
   -.185E+02 -.779E+01 -.683E+03   0.185E+02 0.779E+01 0.687E+03   -.535E-01 0.517E-03 -.373E+01
   0.110E-01 -.949E+01 -.688E+03   -.110E-01 0.949E+01 0.692E+03   -.965E-04 -.907E-03 -.371E+01
   -.101E+02 -.906E+01 0.708E+03   0.102E+02 0.907E+01 -.712E+03   -.595E-01 -.137E-01 0.349E+01
   0.100E-01 -.487E+01 0.707E+03   -.994E-02 0.487E+01 -.711E+03   -.108E-03 -.328E-02 0.349E+01
   -.969E+01 -.109E+02 -.688E+03   0.972E+01 0.109E+02 0.692E+03   -.414E-01 -.880E-02 -.370E+01
   0.564E-02 -.535E+01 -.691E+03   -.560E-02 0.535E+01 0.695E+03   -.529E-04 -.313E-02 -.369E+01
   -.541E+01 -.504E+01 0.703E+03   0.543E+01 0.505E+01 -.707E+03   -.362E-01 -.115E-01 0.350E+01
   0.595E-02 -.732E+01 0.704E+03   -.591E-02 0.733E+01 -.708E+03   -.653E-04 -.881E-02 0.350E+01
   0.631E-02 -.367E-01 0.663E+01   0.152E-11 0.136E-11 0.200E-10   -.549E-02 0.355E-01 -.709E+01

 POSITION                                       TOTAL-FORCE (eV/Angst)
      8.45440     11.94847     13.35506         0.000649     -0.282534     -0.093857
      8.45328     10.56231     18.09008         0.000002     -0.001362     -0.343682
      8.45334     10.56083     15.56737         0.000550      0.003965     -0.110802
      8.45399      9.17859     13.35199         0.001139      0.292782     -0.095164
      0.00000      0.00000      9.00000        -0.007594      0.000006      0.467853
      2.11389      2.11389      9.00000        -0.016849     -0.006837      0.468015
      0.00000      2.11389     11.11389        -0.008247     -0.000766     -0.420814
      2.11389      0.00000     11.11389        -0.011513      0.000001     -0.419710
      0.00000      4.22777      9.00000        -0.013179     -0.003162      0.469247
      2.11389      6.34166      9.00000        -0.043309     -0.008399      0.474230
      0.00000      6.34166     11.11389        -0.012591      0.000276     -0.414865
      2.11389      4.22777     11.11389        -0.025532     -0.004002     -0.413304
      0.00000      8.45554      9.00000        -0.020686     -0.001198      0.472020
      2.11389     10.56943      9.00000        -0.055601      0.000034      0.479479
      0.00000     10.56943     11.11389        -0.011689     -0.000002     -0.410019
      2.11389      8.45554     11.11389        -0.030056      0.001852     -0.395011
      0.00000     12.68331      9.00000        -0.020657      0.001225      0.472010
      2.11389     14.79720      9.00000        -0.043182      0.008416      0.474181
      0.00000     14.79720     11.11389        -0.012588     -0.000264     -0.414892
      2.11389     12.68331     11.11389        -0.030059     -0.001835     -0.395076
      0.00000     16.91108      9.00000        -0.013158      0.003165      0.469236
      2.11389     19.02497      9.00000        -0.016818      0.006812      0.468013
      0.00000     19.02497     11.11389        -0.008244      0.000782     -0.420828
      2.11389     16.91108     11.11389        -0.025476      0.004019     -0.413352
      4.22777      0.00000      9.00000        -0.014086     -0.000024      0.468483
      6.34166      2.11389      9.00000        -0.013411     -0.032059      0.470129
      4.22777      2.11389     11.11389        -0.016430     -0.014826     -0.414407
      6.34166      0.00000     11.11389        -0.008209     -0.000010     -0.415137
      4.22777      4.22777      9.00000        -0.040146     -0.030797      0.467104
      6.34166      6.34166      9.00000        -0.104171     -0.101307      0.435854
      4.22777      6.34166     11.11389        -0.086327      0.000034     -0.380434
      6.34166      4.22777     11.11389        -0.023553     -0.076430     -0.394066
      4.22777      8.45554      9.00000        -0.122069     -0.013128      0.496035
      6.34166     10.56943      9.00000        -0.167664      0.000550      0.458168
      4.22777     10.56943     11.11389        -0.068471     -0.000018     -0.325439
      6.34166      8.45554     11.11389        -0.624617      0.035853     -0.241355
      4.22777     12.68331      9.00000        -0.121674      0.013275      0.495907
      6.34166     14.79720      9.00000        -0.103874      0.100966      0.436112
      4.22777     14.79720     11.11389        -0.085998      0.000082     -0.380710
      6.34166     12.68331     11.11389        -0.619115     -0.035993     -0.241366
      4.22777     16.91108      9.00000        -0.040033      0.030703      0.467097
      6.34166     19.02497      9.00000        -0.013391      0.031929      0.470102
      4.22777     19.02497     11.11389        -0.016422      0.014781     -0.414453
      6.34166     16.91108     11.11389        -0.023594      0.076131     -0.394315
      8.45554      0.00000      9.00000        -0.000016     -0.000046      0.469492
     10.56943      2.11389      9.00000         0.013377     -0.032066      0.470121
      8.45554      2.11389     11.11389        -0.000020     -0.032430     -0.409494
     10.56943      0.00000     11.11389         0.008181     -0.000012     -0.415140
      8.45554      4.22777      9.00000        -0.000025     -0.111313      0.478691
     10.56943      6.34166      9.00000         0.104112     -0.101386      0.435829
      8.45554      6.34166     11.11389        -0.000109     -0.580320     -0.355440
     10.56943      4.22777     11.11389         0.023503     -0.076476     -0.394084
      8.45554      8.45554      9.00000        -0.000186     -0.042917     -0.071227
     10.56943     10.56943      9.00000         0.167580      0.000572      0.458179
      8.45554     10.56943     11.11389         0.000543      0.000869     -0.858454
     10.56943      8.45554     11.11389         0.623962      0.035967     -0.241310
      8.45554     12.68331      9.00000        -0.000139      0.042825     -0.068005
     10.56943     14.79720      9.00000         0.103817      0.101025      0.436097
      8.45554     14.79720     11.11389        -0.000098      0.576300     -0.355725
     10.56943     12.68331     11.11389         0.618644     -0.036068     -0.241444
[...]
     19.02497      6.34166     11.11389        -0.000025      0.000250      0.362222
     16.91108      6.34166      9.00000        -0.016415      0.003807     -0.416047
     19.02497      4.22777      9.00000        -0.000021      0.002446     -0.414366
     16.91108      8.45554     11.11389        -0.014849     -0.000136      0.355461
     19.02497     10.56943     11.11389        -0.000036      0.000007      0.358947
     16.91108     10.56943      9.00000        -0.018999     -0.000009     -0.418193
     19.02497      8.45554      9.00000        -0.000030      0.000916     -0.416078
     16.91108     12.68331     11.11389        -0.014841      0.000137      0.355488
     19.02497     14.79720     11.11389        -0.000029     -0.000240      0.362249
     16.91108     14.79720      9.00000        -0.016385     -0.003801     -0.416037
     19.02497     12.68331      9.00000        -0.000036     -0.000910     -0.416075
     16.91108     16.91108     11.11389        -0.011381     -0.002429      0.363233
     19.02497     19.02497     11.11389        -0.000019     -0.000864      0.366845
     16.91108     19.02497      9.00000        -0.009922     -0.003152     -0.413854
     19.02497     16.91108      9.00000        -0.000021     -0.002430     -0.414360
    total drift:                                0.000821     -0.001206     -0.454913

  FREE ENERGIE OF THE ION-ELECTRON SYSTEM (eV)
  free  energy   TOTEN  =     -1207.49817002 eV

  energy  without entropy=    -1207.49817002  energy(sigma->0) =    -1207.49817002