 vasp.6.4.0 14Feb23 (build Dec 05 2023 14:15:48) complex

 executed on             LinuxIFC date 2023.12.05  22:56:14

 INCAR:
   SYSTEM = MgO-rocksalt
   ISMEAR = 0
   SIGMA = 0.05
   EDIFF = 1E-6
   ALGO = ALL
   ISTART = 0
   IBRION = -1
   NSW = 0
   ISYM = 2
   DIPOL = 0.5 0.5 0.5
   IDIPOL = 3
   LDIPOL = .TRUE.
   METAGGA = TPSS
   ENCUT = 520
   PREC = Accurate
   LASPH = .TRUE.
   LREAL = Auto
   ISPIN = 1
   NELM = 2000
   NELMIN = 8
   NCORE = 8
   KPAR = 1
   LWAVE = .FALSE.
   LCHARG = .FALSE.

 POTCAR:    PAW_PBE Ag 02Apr2005
 POTCAR:    PAW_PBE Mg_pv 13Apr2007
 POTCAR:    PAW_PBE O 08Apr2002
 POTCAR:    PAW_PBE Ag 02Apr2005
   VRHFIN =Ag : s1 d10

   TITEL  = PAW_PBE Ag 02Apr2005
   POMASS =  107.868; ZVAL   =   11.000    mass and valenz
   ENMAX  =  249.844; ENMIN  =  187.383 eV

   TITEL  = PAW_PBE Mg_pv 13Apr2007
   POMASS =   24.305; ZVAL   =    8.000    mass and valenz
   ENMAX  =  403.929; ENMIN  =  302.947 eV

   TITEL  = PAW_PBE O 08Apr2002
   POMASS =   16.000; ZVAL   =    6.000    mass and valenz
   ENMAX  =  400.000; ENMIN  =  300.000 eV

 Optimization of the real space projectors (new method)

 maximal supplied QI-value         = 15.12
 optimisation between [QCUT,QGAM] = [ 11.64, 23.28] = [ 37.95,151.78] Ry
 Optimized for a Real-space Cutoff    1.45 Angstroem

   l    n(q)    QCUT    max X(q) W(low)/X(q) W(high)/X(q)  e(spline)
   2      9    11.641    53.897    0.22E-03    0.42E-04    0.28E-06
   2      9    11.641    52.416    0.23E-03    0.44E-04    0.29E-06
   0     10    11.641   122.045    0.51E-04    0.25E-04    0.16E-06
   0     10    11.641    73.629    0.49E-04    0.24E-04    0.16E-06
   1     10    11.641    15.255    0.99E-04    0.55E-04    0.11E-06
   1     10    11.641     9.562    0.81E-04    0.47E-04    0.95E-07
 Optimization of the real space projectors (new method)

[...]

   l    n(q)    QCUT    max X(q) W(low)/X(q) W(high)/X(q)  e(spline)
   1      8    11.527     2.974    0.44E-04    0.56E-04    0.12E-06
   1      8    11.527     4.279    0.12E-03    0.12E-03    0.26E-06
   0      9    11.527    16.381    0.46E-04    0.64E-04    0.78E-07
   0      9    11.527     5.611    0.26E-04    0.43E-04    0.55E-07
   2      8    11.527     4.652    0.22E-03    0.72E-04    0.47E-07
 Optimization of the real space projectors (new method)

 maximal supplied QI-value         = 24.76
 optimisation between [QCUT,QGAM] = [ 11.64, 23.27] = [ 37.91,151.63] Ry
 Optimized for a Real-space Cutoff    1.14 Angstroem

   l    n(q)    QCUT    max X(q) W(low)/X(q) W(high)/X(q)  e(spline)
   0      8    11.635    20.381    0.10E-03    0.33E-03    0.24E-06
   0      8    11.635    15.268    0.11E-03    0.35E-03    0.26E-06
   1      7    11.635     5.964    0.24E-03    0.31E-03    0.30E-06
   1      7    11.635     5.382    0.22E-03    0.25E-03    0.26E-06
  PAW_PBE Ag 02Apr2005                  :
  PAW_PBE Mg_pv 13Apr2007               :
  PAW_PBE O 08Apr2002                   :

 POSCAR: Ag Mg  O
  positions in direct lattice

 METAGGA = TPSS                                        LMAXTAU =  6    LMIXTAU =  F

 ion  position               nearest neighbor table
   1  0.500  0.600  0.746-   2 2.56
   2  0.500  0.600  0.630-   1 2.56  58 2.81
   3  0.000  0.000  0.407- 105 2.11 106 2.11 121 2.11 186 2.11 103 2.11
   4  0.100  0.100  0.407- 105 2.11 106 2.11 110 2.11 125 2.11 104 2.11
   5  0.000  0.100  0.503- 103 2.11 104 2.11 107 2.11 184 2.11 105 2.11
   6  0.100  0.000  0.503- 103 2.11 104 2.11 120 2.11 123 2.11 106 2.11
   7  0.000  0.200  0.407- 109 2.11 105 2.11 110 2.11 190 2.11 107 2.11
   8  0.100  0.300  0.407- 110 2.11 109 2.11 114 2.11 129 2.11 108 2.11
   9  0.000  0.300  0.503- 107 2.11 108 2.11 111 2.11 188 2.11 109 2.11
  10  0.100  0.200  0.503- 108 2.11 107 2.11 104 2.11 127 2.11 110 2.11
  11  0.000  0.400  0.407- 109 2.11 113 2.11 114 2.11 194 2.11 111 2.11
  12  0.100  0.500  0.407- 113 2.11 114 2.11 118 2.11 133 2.11 112 2.11
  13  0.000  0.500  0.503- 111 2.11 112 2.11 115 2.11 192 2.11 113 2.11
  14  0.100  0.400  0.503- 108 2.11 111 2.11 112 2.11 131 2.11 114 2.11
  15  0.000  0.600  0.407- 113 2.11 117 2.11 118 2.11 198 2.11 115 2.11
  16  0.100  0.700  0.407- 122 2.11 118 2.11 117 2.11 137 2.11 116 2.11
  17  0.000  0.700  0.503- 119 2.11 116 2.11 115 2.11 196 2.11 117 2.11
  18  0.100  0.600  0.503- 112 2.11 115 2.11 116 2.11 135 2.11 118 2.11
  19  0.000  0.800  0.407- 117 2.11 121 2.11 122 2.11 202 2.11 119 2.11
  20  0.100  0.900  0.407- 106 2.11 121 2.11 122 2.11 141 2.11 120 2.11
  21  0.000  0.900  0.503- 103 2.11 119 2.11 120 2.11 200 2.11 121 2.11
  22  0.100  0.800  0.503- 116 2.11 119 2.11 120 2.11 139 2.11 122 2.11
  23  0.200  0.000  0.407- 126 2.11 125 2.11 106 2.11 141 2.11 123 2.11
  24  0.300  0.100  0.407- 125 2.11 126 2.11 130 2.11 145 2.11 124 2.11
  25  0.200  0.100  0.503- 124 2.11 123 2.11 104 2.11 127 2.11 125 2.11
  26  0.300  0.000  0.503- 123 2.11 124 2.11 140 2.11 143 2.11 126 2.11
  27  0.200  0.200  0.407- 129 2.11 130 2.11 110 2.11 125 2.11 127 2.11
  28  0.300  0.300  0.407- 129 2.11 130 2.11 134 2.11 149 2.11 128 2.11
  29  0.200  0.300  0.503- 127 2.11 128 2.11 108 2.11 131 2.11 129 2.11
  30  0.300  0.200  0.503- 127 2.11 128 2.11 124 2.11 147 2.11 130 2.11
  31  0.200  0.400  0.407- 134 2.11 129 2.11 133 2.11 114 2.11 131 2.11
  32  0.300  0.500  0.407- 133 2.11 134 2.11 138 2.11 153 2.11 132 2.11
  33  0.200  0.500  0.503- 132 2.11 131 2.11 112 2.11 135 2.11 133 2.11
  34  0.300  0.400  0.503- 131 2.11 128 2.11 132 2.11 151 2.11 134 2.11
  35  0.200  0.600  0.407- 138 2.11 133 2.11 137 2.11 118 2.11 135 2.11
  36  0.300  0.700  0.407- 137 2.11 142 2.11 138 2.11 157 2.11 136 2.11
  37  0.200  0.700  0.503- 136 2.11 139 2.11 116 2.11 135 2.11 137 2.11
  38  0.300  0.600  0.503- 135 2.11 132 2.11 136 2.11 155 2.11 138 2.11
  39  0.200  0.800  0.407- 137 2.11 142 2.11 141 2.11 122 2.11 139 2.11
  40  0.300  0.900  0.407- 141 2.11 126 2.11 142 2.11 161 2.11 140 2.11
  41  0.200  0.900  0.503- 140 2.11 123 2.11 139 2.11 120 2.11 141 2.11
  42  0.300  0.800  0.503- 136 2.11 139 2.11 140 2.11 159 2.11 142 2.11
  43  0.400  0.000  0.407- 126 2.11 145 2.11 146 2.11 161 2.11 143 2.11
  44  0.500  0.100  0.407- 145 2.11 146 2.11 150 2.11 165 2.11 144 2.11
  45  0.400  0.100  0.503- 124 2.11 143 2.11 144 2.11 147 2.11 145 2.11
  46  0.500  0.000  0.503- 143 2.11 144 2.11 160 2.11 163 2.11 146 2.11
  47  0.400  0.200  0.407- 149 2.11 145 2.11 130 2.11 150 2.11 147 2.11
  48  0.500  0.300  0.407- 150 2.11 149 2.11 154 2.11 169 2.11 148 2.11
  49  0.400  0.300  0.503- 147 2.11 128 2.11 148 2.11 151 2.11 149 2.11
  50  0.500  0.200  0.503- 148 2.11 147 2.11 144 2.11 167 2.11 150 2.11
  51  0.400  0.400  0.407- 134 2.11 149 2.11 153 2.11 154 2.11 151 2.11
  52  0.500  0.500  0.407- 153 2.11 154 2.11 158 2.11 173 2.11 152 2.11
  53  0.400  0.500  0.503- 132 2.11 151 2.11 152 2.11 155 2.11 153 2.11
  54  0.500  0.400  0.503- 148 2.11 151 2.11 152 2.11 171 2.11 154 2.11
  55  0.400  0.600  0.407- 138 2.11 153 2.11 157 2.11 158 2.11 155 2.11
  56  0.500  0.700  0.407- 162 2.11 158 2.11 157 2.11 177 2.11 156 2.11
  57  0.400  0.700  0.503- 159 2.11 155 2.11 156 2.11 136 2.11 157 2.11
  58  0.500  0.600  0.503- 152 2.11 155 2.11 156 2.11 175 2.11 158 2.11   2 2.81
  59  0.400  0.800  0.407- 157 2.11 142 2.11 161 2.11 162 2.11 159 2.11
  60  0.500  0.900  0.407- 146 2.11 161 2.11 162 2.11 181 2.11 160 2.11
[...]
 188  0.900  0.300  0.503-  90 2.11  89 2.11   9 2.11  94 2.11  88 2.11
 189  0.800  0.300  0.407-  68 2.11  87 2.11  88 2.11  91 2.11  89 2.11
 190  0.900  0.200  0.407-  88 2.11  84 2.11  87 2.11   7 2.11  90 2.11
 191  0.800  0.400  0.503-  74 2.11  89 2.11  93 2.11  94 2.11  91 2.11
 192  0.900  0.500  0.503-  13 2.11  93 2.11  94 2.11  98 2.11  92 2.11
 193  0.800  0.500  0.407-  72 2.11  91 2.11  92 2.11  95 2.11  93 2.11
 194  0.900  0.400  0.407-  11 2.11  88 2.11  91 2.11  92 2.11  94 2.11
 195  0.800  0.600  0.503-  78 2.11  93 2.11  97 2.11  98 2.11  95 2.11
 196  0.900  0.700  0.503- 102 2.11  97 2.11  98 2.11  17 2.11  96 2.11
 197  0.800  0.700  0.407-  76 2.11  99 2.11  96 2.11  95 2.11  97 2.11
 198  0.900  0.600  0.407-  15 2.11  92 2.11  95 2.11  96 2.11  98 2.11
 199  0.800  0.800  0.503-  82 2.11  97 2.11 101 2.11 102 2.11  99 2.11
 200  0.900  0.900  0.503-  21 2.11  86 2.11 101 2.11 102 2.11 100 2.11
 201  0.800  0.900  0.407-  80 2.11  83 2.11  99 2.11 100 2.11 101 2.11
 202  0.900  0.800  0.407-  96 2.11  19 2.11  99 2.11 100 2.11 102 2.11

  LATTYP: Found a simple tetragonal cell.
 ALAT       =    21.1388521970
 C/A-ratio  =     1.0461251639

  Lattice vectors:

 A1 = (  21.1388521970,   0.0000000000,   0.0000000000)
 A2 = (   0.0000000000,  21.1388521970,   0.0000000000)
 A3 = (   0.0000000000,   0.0000000000,  22.1138852197)

Analysis of symmetry for initial positions (statically):
 Subroutine PRICEL returns:
 Original cell was already a primitive cell.

 Routine SETGRP: Setting up the symmetry group for a
 simple tetragonal supercell.

 Subroutine GETGRP returns: Found  8 space group operations
 (whereof  2 operations were pure point group operations)
 out of a pool of 16 trial point group operations.

The static configuration has the point symmetry C_1h.
 The point group associated with its full space group is C_4v.

Analysis of symmetry for dynamics (positions and initial velocities):
 Subroutine PRICEL returns:
 Original cell was already a primitive cell.

 Routine SETGRP: Setting up the symmetry group for a
 simple tetragonal supercell.

 Subroutine GETGRP returns: Found  8 space group operations
 (whereof  2 operations were pure point group operations)
 out of a pool of 16 trial point group operations.

The dynamic configuration has the point symmetry C_1h.
 The point group associated with its full space group is C_4v.

 Subroutine INISYM returns: Found  8 space group operations
 (whereof  2 operations are pure point group operations),
 and found     1 'primitive' translations

                                     Primitive cell

  volume of cell :    9881.6133

  direct lattice vectors                    reciprocal lattice vectors
    21.138852197  0.000000000  0.000000000     0.047306258  0.000000000  0.000000000
     0.000000000 21.138852197  0.000000000     0.000000000  0.047306258  0.000000000
     0.000000000  0.000000000 22.113885220     0.000000000  0.000000000  0.045220457

  length of vectors
    21.138852197 21.138852197 22.113885220     0.047306258  0.047306258  0.045220457

  position of ions in fractional coordinates (direct lattice)
     0.499999974  0.599999938  0.745598720
     0.499999974  0.599999938  0.629641752
     0.000000000  0.000000000  0.406984115
     0.100000000  0.100000000  0.406984115
     0.000000000  0.100000000  0.502574971
     0.100000000  0.000000000  0.502574971
     0.000000000  0.200000000  0.406984115
     0.100000000  0.300000000  0.406984115
     0.000000000  0.300000000  0.502574971
     0.100000000  0.200000000  0.502574971
     0.000000000  0.400000000  0.406984115
     0.100000000  0.500000000  0.406984115
     0.000000000  0.500000000  0.502574971
     0.100000000  0.400000000  0.502574971
     0.000000000  0.600000000  0.406984115
[...]
     52     -43.2814      2.00000
     53     -43.2814      2.00000
     54     -43.2808      2.00000
     55     -43.2808      2.00000
     56     -43.2805      2.00000
     57     -43.2805      2.00000
     58     -43.2805      2.00000
     59     -43.2791      2.00000
     60     -43.2786      2.00000
[...]
    850       4.0751      0.00000
    851       4.0882      0.00000
    852       4.1389      0.00000
    853       4.1953      0.00000
    854       4.2231      0.00000
    855       4.2395      0.00000
    856       4.2933      0.00000
    857       4.3482      0.00000
    858       4.3601      0.00000
    859       4.4177      0.00000
    860       4.4277      0.00000
    861       4.4688      0.00000
    862       4.5091      0.00000
    863       4.5297      0.00000
    864       4.5723      0.00000

 soft charge-density along one line, spin component           1
         0         1         2         3         4         5         6         7         8         9
 total charge-density along one line

------------------------ aborting loop because EDIFF is reached ----------------------------------------

  FORCE on cell =-STRESS in cart. coord.  units (eV):
  Direction    XX          YY          ZZ          XY          YZ          ZX
  Alpha Z  1357.53553  1357.53553  1357.53553
  Ewald  474351.88775474351.88775************     0.00000    -0.00002    -0.00001
  Hartree503279.40915503279.40911************     0.00000    -0.00001    -0.00000
  E(xc)   -8197.65848 -8197.65848 -8222.92183     0.00000     0.00000    -0.00000
  Local  ************************************    -0.00000     0.00003     0.00001
  n-local -8953.16962 -8953.16955 -9081.40740    -0.00001     0.00001     0.00002
  augment  3962.59729  3962.59729  3904.35390     0.00000     0.00000    -0.00000
  Kinetic 22988.55244 22988.55229 23230.22371    -0.00000     0.00004    -0.00006
  Fock        0.00000     0.00000     0.00000     0.00000     0.00000     0.00000
  Total    -167.64046  -167.64046     8.04096     0.00000     0.00000     0.00000
  in kB     -27.18076   -27.18076     1.30374     0.00000     0.00000     0.00000

 VOLUME and BASIS-vectors are now :
  energy-cutoff  :      520.00
  volume of cell :     9881.61
      direct lattice vectors                 reciprocal lattice vectors
    21.138852197  0.000000000  0.000000000     0.047306258  0.000000000  0.000000000
     0.000000000 21.138852197  0.000000000     0.000000000  0.047306258  0.000000000
     0.000000000  0.000000000 22.113885220     0.000000000  0.000000000  0.045220457

  length of vectors
    21.138852197 21.138852197 22.113885220     0.047306258  0.047306258  0.045220457

 FORCES acting on ions:
    Electron-Ion                     Ewald-Force                    Non-Local-Force
   0.241E-03 0.136E-07 -.158E+04   -.699E-08 -.165E-07 0.157E+04   -.365E-21 -.690E-21 0.755E+01
   0.245E-03 0.687E-05 -.176E+04   -.266E-05 -.630E-05 0.177E+04   0.321E-21 -.110E-21 -.673E+01
   0.521E-04 -.296E+01 0.931E+03   -.928E-06 0.297E+01 -.923E+03   -.104E-20 -.283E-02 -.792E+01
   0.296E+01 -.321E-03 0.931E+03   -.297E+01 -.220E-05 -.923E+03   0.283E-02 -.263E-20 -.792E+01
   0.516E-04 -.320E-03 -.923E+03   -.101E-05 -.240E-05 0.915E+03   -.146E-20 0.487E-20 0.789E+01
   0.432E+01 -.432E+01 -.922E+03   -.432E+01 0.432E+01 0.914E+03   0.222E-02 -.222E-02 0.789E+01
   0.521E-04 0.296E+01 0.931E+03   -.928E-06 -.297E+01 -.923E+03   0.102E-20 0.283E-02 -.792E+01
   0.459E+01 0.574E+01 0.933E+03   -.460E+01 -.575E+01 -.925E+03   0.702E-02 0.685E-02 -.792E+01
   0.525E-04 0.624E+01 -.922E+03   -.166E-05 -.624E+01 0.913E+03   0.369E-21 0.267E-02 0.789E+01
   0.432E+01 0.432E+01 -.922E+03   -.432E+01 -.432E+01 0.914E+03   0.222E-02 0.222E-02 0.789E+01
   0.529E-04 0.518E+01 0.934E+03   -.171E-05 -.519E+01 -.925E+03   -.450E-21 0.492E-02 -.792E+01
   0.814E+01 0.401E+01 0.936E+03   -.817E+01 -.401E+01 -.928E+03   0.220E-01 0.497E-02 -.792E+01
   0.542E-04 0.430E+01 -.919E+03   -.312E-05 -.430E+01 0.911E+03   -.174E-21 0.176E-02 0.789E+01
   0.920E+01 0.819E+01 -.919E+03   -.921E+01 -.819E+01 0.911E+03   0.770E-02 0.380E-02 0.789E+01
   0.535E-04 -.325E-03 0.935E+03   -.233E-05 0.223E-05 -.927E+03   -.130E-20 0.755E-21 -.792E+01
   0.814E+01 -.401E+01 0.936E+03   -.817E+01 0.401E+01 -.928E+03   0.220E-01 -.497E-02 -.792E+01
   0.542E-04 -.430E+01 -.919E+03   -.312E-05 0.430E+01 0.911E+03   0.164E-20 -.176E-02 0.789E+01
   0.136E+02 -.327E-03 -.916E+03   -.136E+02 0.375E-05 0.908E+03   0.140E-01 0.724E-21 0.788E+01
   0.529E-04 -.519E+01 0.934E+03   -.171E-05 0.519E+01 -.925E+03   0.158E-20 -.492E-02 -.792E+01
   0.459E+01 -.574E+01 0.933E+03   -.460E+01 0.575E+01 -.925E+03   0.702E-02 -.685E-02 -.792E+01
   0.525E-04 -.624E+01 -.922E+03   -.166E-05 0.624E+01 0.913E+03   -.282E-20 -.267E-02 0.789E+01
   0.920E+01 -.819E+01 -.919E+03   -.921E+01 0.819E+01 0.911E+03   0.770E-02 -.380E-02 0.789E+01
   0.574E+01 -.459E+01 0.933E+03   -.575E+01 0.460E+01 -.925E+03   0.685E-02 -.702E-02 -.792E+01
   0.519E+01 -.319E-03 0.934E+03   -.519E+01 -.404E-05 -.925E+03   0.492E-02 -.287E-21 -.792E+01
   0.624E+01 -.319E-03 -.922E+03   -.624E+01 -.394E-05 0.913E+03   0.267E-02 -.557E-21 0.789E+01
   0.819E+01 -.920E+01 -.919E+03   -.819E+01 0.921E+01 0.911E+03   0.380E-02 -.770E-02 0.789E+01
   0.574E+01 0.459E+01 0.933E+03   -.575E+01 -.460E+01 -.925E+03   0.685E-02 0.702E-02 -.792E+01
   0.915E+01 0.119E+02 0.939E+03   -.917E+01 -.119E+02 -.930E+03   0.193E-01 0.283E-01 -.793E+01
   0.114E+02 0.114E+02 -.918E+03   -.114E+02 -.114E+02 0.910E+03   0.790E-02 0.790E-02 0.789E+01
   0.819E+01 0.920E+01 -.919E+03   -.819E+01 -.921E+01 0.911E+03   0.380E-02 0.770E-02 0.789E+01
   0.119E+02 0.915E+01 0.939E+03   -.119E+02 -.917E+01 -.930E+03   0.283E-01 0.193E-01 -.793E+01
   0.210E+02 0.109E+02 0.954E+03   -.211E+02 -.109E+02 -.946E+03   0.949E-01 0.549E-01 -.795E+01
   0.263E+02 0.100E+02 -.909E+03   -.263E+02 -.100E+02 0.901E+03   0.359E-01 0.539E-02 0.788E+01
   0.250E+02 0.250E+02 -.904E+03   -.250E+02 -.250E+02 0.896E+03   0.304E-01 0.304E-01 0.787E+01
   0.176E+02 -.327E-03 0.944E+03   -.177E+02 0.438E-05 -.936E+03   0.904E-01 -.457E-20 -.795E+01
   0.210E+02 -.109E+02 0.954E+03   -.211E+02 0.109E+02 -.946E+03   0.949E-01 -.549E-01 -.795E+01
   0.263E+02 -.100E+02 -.909E+03   -.263E+02 0.100E+02 0.901E+03   0.359E-01 -.539E-02 0.788E+01
   0.528E+02 -.339E-03 -.882E+03   -.531E+02 0.168E-04 0.874E+03   0.279E+00 -.451E-20 0.784E+01
   0.119E+02 -.915E+01 0.939E+03   -.119E+02 0.917E+01 -.930E+03   0.283E-01 -.193E-01 -.793E+01
   0.915E+01 -.119E+02 0.939E+03   -.917E+01 0.119E+02 -.930E+03   0.193E-01 -.283E-01 -.793E+01
   0.114E+02 -.114E+02 -.918E+03   -.114E+02 0.114E+02 0.910E+03   0.790E-02 -.790E-02 0.789E+01
   0.250E+02 -.250E+02 -.904E+03   -.250E+02 0.250E+02 0.896E+03   0.304E-01 -.304E-01 0.787E+01
   0.401E+01 -.814E+01 0.936E+03   -.401E+01 0.817E+01 -.928E+03   0.497E-02 -.220E-01 -.792E+01
   0.517E-04 -.317E-03 0.935E+03   0.943E-06 -.551E-05 -.927E+03   -.747E-21 0.451E-20 -.792E+01
   0.430E+01 -.315E-03 -.919E+03   -.430E+01 -.740E-05 0.911E+03   0.176E-02 -.124E-20 0.789E+01
   0.516E-04 -.136E+02 -.916E+03   0.158E-05 0.136E+02 0.908E+03   -.127E-20 -.140E-01 0.788E+01
   0.401E+01 0.814E+01 0.936E+03   -.401E+01 -.817E+01 -.928E+03   0.497E-02 0.220E-01 -.792E+01
   0.512E-04 0.176E+02 0.944E+03   0.185E-05 -.177E+02 -.936E+03   0.106E-20 0.904E-01 -.795E+01
   0.100E+02 0.263E+02 -.909E+03   -.100E+02 -.263E+02 0.901E+03   0.539E-02 0.359E-01 0.788E+01
   0.516E-04 0.136E+02 -.916E+03   0.158E-05 -.136E+02 0.908E+03   -.130E-20 0.140E-01 0.788E+01
   0.109E+02 0.210E+02 0.954E+03   -.109E+02 -.211E+02 -.946E+03   0.549E-01 0.949E-01 -.795E+01
   0.489E-04 0.214E+02 0.980E+03   0.565E-05 -.215E+02 -.972E+03   -.180E-21 0.462E-01 -.768E+01
   0.480E+02 0.480E+02 -.850E+03   -.483E+02 -.483E+02 0.842E+03   0.216E+00 0.216E+00 0.781E+01
   0.491E-04 0.528E+02 -.882E+03   0.710E-05 -.531E+02 0.874E+03   0.102E-20 0.279E+00 0.784E+01
   0.214E+02 -.336E-03 0.980E+03   -.215E+02 0.134E-04 -.972E+03   0.462E-01 0.219E-20 -.768E+01
   0.489E-04 -.214E+02 0.980E+03   0.565E-05 0.215E+02 -.972E+03   0.940E-21 -.462E-01 -.768E+01
   0.480E+02 -.480E+02 -.850E+03   -.483E+02 0.483E+02 0.842E+03   0.216E+00 -.216E+00 0.781E+01
   0.311E-04 -.409E-03 -.726E+03   0.355E-04 0.842E-04 0.719E+03   0.101E-20 0.204E-20 0.662E+01
   0.109E+02 -.210E+02 0.954E+03   -.109E+02 0.211E+02 -.946E+03   0.549E-01 -.949E-01 -.795E+01
   0.512E-04 -.176E+02 0.944E+03   0.185E-05 0.177E+02 -.936E+03   -.112E-20 -.904E-01 -.795E+01
[...]
   -.609E+01 0.609E+01 0.703E+03   0.610E+01 -.610E+01 -.707E+03   -.149E-01 0.149E-01 0.352E+01
   -.253E+01 0.253E+01 0.700E+03   0.254E+01 -.254E+01 -.704E+03   -.426E-02 0.426E-02 0.352E+01
   -.137E+02 0.102E+02 -.687E+03   0.137E+02 -.102E+02 0.691E+03   -.218E-01 0.173E-01 -.358E+01
   -.919E+01 0.411E+01 -.689E+03   0.920E+01 -.412E+01 0.693E+03   -.119E-01 0.435E-02 -.357E+01
   -.119E+02 0.473E+01 0.708E+03   0.119E+02 -.475E+01 -.712E+03   -.474E-01 0.249E-01 0.351E+01
   -.480E+01 0.459E+01 0.702E+03   0.481E+01 -.460E+01 -.706E+03   -.125E-01 0.101E-01 0.352E+01
   -.227E+02 -.157E-02 -.681E+03   0.227E+02 0.534E-05 0.686E+03   -.432E-01 -.391E-20 -.361E+01
   -.919E+01 -.411E+01 -.689E+03   0.920E+01 0.412E+01 0.693E+03   -.119E-01 -.435E-02 -.357E+01
   -.119E+02 -.473E+01 0.708E+03   0.119E+02 0.475E+01 -.712E+03   -.474E-01 -.249E-01 0.351E+01
   -.668E+01 -.157E-02 0.704E+03   0.669E+01 0.204E-05 -.708E+03   -.201E-01 -.537E-20 0.351E+01
   -.137E+02 -.102E+02 -.687E+03   0.137E+02 0.102E+02 0.691E+03   -.218E-01 -.173E-01 -.358E+01
   -.467E+01 -.561E+01 -.692E+03   0.467E+01 0.561E+01 0.696E+03   -.517E-02 -.555E-02 -.356E+01
   -.609E+01 -.609E+01 0.703E+03   0.610E+01 0.610E+01 -.707E+03   -.149E-01 -.149E-01 0.352E+01
   -.480E+01 -.460E+01 0.702E+03   0.481E+01 0.460E+01 -.706E+03   -.125E-01 -.101E-01 0.352E+01
   -.997E-02 -.191E+00 0.423E+01   0.462E-11 -.122E-11 -.239E-11   0.520E-15 0.194E-15 -.496E+01

 POSITION                                       TOTAL-FORCE (eV/Angst)
     10.56943     12.68331     16.48808         0.000000      0.000000      0.023908
     10.56943     12.68331     13.92383         0.000000      0.000000      0.062439
      0.00000      0.00000      9.00000         0.000000      0.000769      0.402887
      2.11389      2.11389      9.00000        -0.000769      0.000000      0.402887
      0.00000      2.11389     11.11389         0.000000      0.000000     -0.398377
      2.11389      0.00000     11.11389        -0.000613      0.000613     -0.397851
      0.00000      4.22777      9.00000         0.000000     -0.000769      0.402887
      2.11389      6.34166      9.00000        -0.001995     -0.001963      0.403216
      0.00000      6.34166     11.11389         0.000000     -0.000808     -0.397518
      2.11389      4.22777     11.11389        -0.000613     -0.000613     -0.397851
      0.00000      8.45554      9.00000         0.000000     -0.001456      0.403362
      2.11389     10.56943      9.00000        -0.005775     -0.001424      0.404279
      0.00000     10.56943     11.11389         0.000000     -0.000454     -0.395844
      2.11389      8.45554     11.11389        -0.001839     -0.001072     -0.395558
      0.00000     12.68331      9.00000         0.000000      0.000000      0.403789
      2.11389     14.79720      9.00000        -0.005775      0.001424      0.404279
      0.00000     14.79720     11.11389         0.000000      0.000454     -0.395844
      2.11389     12.68331     11.11389        -0.003032      0.000000     -0.393755
      0.00000     16.91108      9.00000         0.000000      0.001456      0.403362
      2.11389     19.02497      9.00000        -0.001995      0.001963      0.403216
      0.00000     19.02497     11.11389         0.000000      0.000808     -0.397518
      2.11389     16.91108     11.11389        -0.001839      0.001072     -0.395558
      4.22777      0.00000      9.00000        -0.001963      0.001995      0.403216
      6.34166      2.11389      9.00000        -0.001456      0.000000      0.403362
      4.22777      2.11389     11.11389        -0.000808      0.000000     -0.397518
      6.34166      0.00000     11.11389        -0.001072      0.001839     -0.395558
      4.22777      4.22777      9.00000        -0.001963     -0.001995      0.403216
      6.34166      6.34166      9.00000        -0.005272     -0.007630      0.404700
      4.22777      6.34166     11.11389        -0.001977     -0.001977     -0.395107
      6.34166      4.22777     11.11389        -0.001072     -0.001839     -0.395558
      4.22777      8.45554      9.00000        -0.007630     -0.005272      0.404700
      6.34166     10.56943      9.00000        -0.026692     -0.017382      0.407925
      4.22777     10.56943     11.11389        -0.007995     -0.001505     -0.388078
      6.34166      8.45554     11.11389        -0.006540     -0.006540     -0.384244
      4.22777     12.68331      9.00000        -0.022528      0.000000      0.409204
      6.34166     14.79720      9.00000        -0.026692      0.017382      0.407925
      4.22777     14.79720     11.11389        -0.007995      0.001505     -0.388078
      6.34166     12.68331     11.11389        -0.079577      0.000000     -0.356454
      4.22777     16.91108      9.00000        -0.007630      0.005272      0.404700
      6.34166     19.02497      9.00000        -0.005272      0.007630      0.404700
      4.22777     19.02497     11.11389        -0.001977      0.001977     -0.395107
      6.34166     16.91108     11.11389        -0.006540      0.006540     -0.384244
      8.45554      0.00000      9.00000        -0.001424      0.005775      0.404279
     10.56943      2.11389      9.00000         0.000000      0.000000      0.403789
      8.45554      2.11389     11.11389        -0.000454      0.000000     -0.395844
     10.56943      0.00000     11.11389         0.000000      0.003032     -0.393755
      8.45554      4.22777      9.00000        -0.001424     -0.005775      0.404279
     10.56943      6.34166      9.00000         0.000000     -0.022528      0.409204
      8.45554      6.34166     11.11389        -0.001505     -0.007995     -0.388078
     10.56943      4.22777     11.11389         0.000000     -0.003032     -0.393755
      8.45554      8.45554      9.00000        -0.017382     -0.026692      0.407925
     10.56943     10.56943      9.00000         0.000000     -0.009647      0.334838
      8.45554     10.56943     11.11389        -0.054646     -0.054646     -0.328343
     10.56943      8.45554     11.11389         0.000000     -0.079577     -0.356454
      8.45554     12.68331      9.00000        -0.009647      0.000000      0.334838
     10.56943     14.79720      9.00000         0.000000      0.009647      0.334838
      8.45554     14.79720     11.11389        -0.054646      0.054646     -0.328343
     10.56943     12.68331     11.11389         0.000000      0.000000     -0.823946
      8.45554     16.91108      9.00000        -0.017382      0.026692      0.407925
     10.56943     19.02497      9.00000         0.000000      0.022528      0.409204
[...]
     19.02497      6.34166     11.11389        -0.001326      0.001444      0.510006
     16.91108      6.34166      9.00000        -0.004077      0.004077     -0.517685
     19.02497      4.22777      9.00000        -0.001129      0.001129     -0.516265
     16.91108      8.45554     11.11389        -0.006023      0.004846      0.505092
     19.02497     10.56943     11.11389        -0.003292      0.001267      0.507275
     16.91108     10.56943      9.00000        -0.013184      0.006955     -0.520711
     19.02497      8.45554      9.00000        -0.003441      0.002767     -0.517579
     16.91108     12.68331     11.11389        -0.012291      0.000000      0.498399
     19.02497     14.79720     11.11389        -0.003292     -0.001267      0.507275
     16.91108     14.79720      9.00000        -0.013184     -0.006955     -0.520711
     19.02497     12.68331      9.00000        -0.005648      0.000000     -0.518585
     16.91108     16.91108     11.11389        -0.006023     -0.004846      0.505092
     19.02497     19.02497     11.11389        -0.001326     -0.001444      0.510006
     16.91108     19.02497      9.00000        -0.004077     -0.004077     -0.517685
     19.02497     16.91108      9.00000        -0.003441     -0.002767     -0.517579
    total drift:                               -0.009966     -0.191362     -0.726786

  FREE ENERGIE OF THE ION-ELECTRON SYSTEM (eV)
  free  energy   TOTEN  =     -1776.85532820 eV

  energy  without entropy=    -1776.85532820  energy(sigma->0) =    -1776.85532820