 vasp.6.3.0 20Jan22 (build Apr  1 2022 16:44:48) complex
 executed on        HPECrayEX_GCC date 2023.01.17  19:01:13

 INCAR:
   SYSTEM = MgO-rocksalt
   ISMEAR = 0
   SIGMA = 0.05
   EDIFF = 1E-6
   ALGO = ALL
   ISTART = 0
   IBRION = -1
   NSW = 0
   ISYM = 2
   DIPOL = 0.5 0.5 0.5
   IDIPOL = 3
   LDIPOL = .TRUE.
   LHFCALC = .TRUE.
   GGA = PE
   IVDW = 21
   VDW_SR = 0.96
   ENCUT = 520
   PREC = Accurate
   LASPH = .TRUE.
   LREAL = Auto
   ISPIN = 1
   NELM = 200
   NELMIN = 8
   NCORE = 4
   KPAR = 2
   LWAVE = .FALSE.
   LCHARG = .FALSE.

 POTCAR:    PAW_PBE Cu 22Jun2005
 POTCAR:    PAW_PBE Mg_pv 13Apr2007
 POTCAR:    PAW_PBE O 08Apr2002
|           W    W    AA    RRRRR   N    N  II  N    N   GGGG   !!!           |
|           W    W   A  A   R    R  NN   N  II  NN   N  G    G  !!!           |
|           W    W  A    A  R    R  N N  N  II  N N  N  G       !!!           |
|           W WW W  AAAAAA  RRRRR   N  N N  II  N  N N  G  GGG   !            |
|           WW  WW  A    A  R   R   N   NN  II  N   NN  G    G                |
|           W    W  A    A  R    R  N    N  II  N    N   GGGG   !!!           |
|     You have selected ISYM=2 for a HF type calculation. This will           |
|     symmetrize the charge density but not the exchange potential. I         |
|     suggest to use ISYM=3 instead. This uses symmetry to obtain the         |
|     orbitals at all k-points in the Brillouin zone, but does not apply      |
|     symmetry to the Hartree potential directly. The resultant charge        |
|     might have lower symmetry than the crystal but, at least, Hartree       |
|     and exchange are fully compatible.                                      |

   TITEL  = PAW_PBE Cu 22Jun2005
   POMASS =   63.546; ZVAL   =   11.000    mass and valenz
   ENMAX  =  295.446; ENMIN  =  221.585 eV

   TITEL  = PAW_PBE Mg_pv 13Apr2007
   POMASS =   24.305; ZVAL   =    8.000    mass and valenz
   ENMAX  =  403.929; ENMIN  =  302.947 eV

   TITEL  = PAW_PBE O 08Apr2002
   POMASS =   16.000; ZVAL   =    6.000    mass and valenz
   ENMAX  =  400.000; ENMIN  =  300.000 eV

 Optimization of the real space projectors (new method)

 maximal supplied QI-value         = 16.25
 optimisation between [QCUT,QGAM] = [ 11.54, 23.24] = [ 37.28,151.24] Ry
 Optimized for a Real-space Cutoff    1.53 Angstroem

   l    n(q)    QCUT    max X(q) W(low)/X(q) W(high)/X(q)  e(spline)
   2     10    11.539     4.610    0.96E-04    0.13E-03    0.19E-06
   2     10    11.539     8.522    0.16E-03    0.21E-03    0.28E-06
   0     11    11.539    51.609    0.45E-04    0.31E-04    0.11E-06
   0     11    11.539    27.747    0.39E-04    0.29E-04    0.10E-06
   1     10    11.539    20.408    0.70E-05    0.38E-04    0.18E-06
   1     10    11.539    13.425    0.66E-05    0.34E-04    0.17E-06
 Optimization of the real space projectors (new method)

[...]

   l    n(q)    QCUT    max X(q) W(low)/X(q) W(high)/X(q)  e(spline)
   1      8    11.527     2.974    0.44E-04    0.56E-04    0.12E-06
   1      8    11.527     4.279    0.12E-03    0.12E-03    0.26E-06
   0      9    11.527    16.381    0.46E-04    0.64E-04    0.78E-07
   0      9    11.527     5.611    0.26E-04    0.43E-04    0.55E-07
   2      8    11.527     4.652    0.22E-03    0.72E-04    0.47E-07
 Optimization of the real space projectors (new method)

 maximal supplied QI-value         = 24.76
 optimisation between [QCUT,QGAM] = [ 11.64, 23.27] = [ 37.91,151.63] Ry
 Optimized for a Real-space Cutoff    1.14 Angstroem

   l    n(q)    QCUT    max X(q) W(low)/X(q) W(high)/X(q)  e(spline)
   0      8    11.635    20.381    0.10E-03    0.33E-03    0.24E-06
   0      8    11.635    15.268    0.11E-03    0.35E-03    0.26E-06
   1      7    11.635     5.964    0.24E-03    0.31E-03    0.30E-06
   1      7    11.635     5.382    0.22E-03    0.25E-03    0.26E-06
  PAW_PBE Cu 22Jun2005                  :
  PAW_PBE Mg_pv 13Apr2007               :
  PAW_PBE O 08Apr2002                   :

 POSCAR: Cu Mg  O
  positions in direct lattice
  velocities in cartesian coordinates
 exchange correlation table for  LEXCH =        8
   RHO(1)=    0.500       N(1)  =     2000
   RHO(2)=  100.500       N(2)  =     4000

 ion  position               nearest neighbor table
   1  0.400  0.558  0.598- 157 2.29   3 2.35  55 2.43   4 2.47
   2  0.400  0.499  0.790-   3 2.25
   3  0.400  0.499  0.688-   2 2.25   1 2.35   4 2.35
   4  0.400  0.441  0.597- 153 2.26   3 2.35  55 2.43   1 2.47
   5  0.000  0.000  0.407- 107 2.11 108 2.11 123 2.11 188 2.11 105 2.11
   6  0.100  0.100  0.407- 107 2.11 108 2.11 112 2.11 127 2.11 106 2.11
   7  0.000  0.100  0.503- 105 2.11 106 2.11 109 2.11 186 2.11 107 2.11
   8  0.100  0.000  0.503- 105 2.11 106 2.11 122 2.11 125 2.11 108 2.11
   9  0.000  0.200  0.407- 111 2.11 107 2.11 112 2.11 192 2.11 109 2.11
  10  0.100  0.300  0.407- 112 2.11 111 2.11 116 2.11 131 2.11 110 2.11
  11  0.000  0.300  0.503- 109 2.11 110 2.11 113 2.11 190 2.11 111 2.11
  12  0.100  0.200  0.503- 110 2.11 109 2.11 106 2.11 129 2.11 112 2.11
  13  0.000  0.400  0.407- 111 2.11 115 2.11 116 2.11 196 2.11 113 2.11
  14  0.100  0.500  0.407- 115 2.11 116 2.11 120 2.11 135 2.11 114 2.11
  15  0.000  0.500  0.503- 113 2.11 114 2.11 117 2.11 194 2.11 115 2.11
  16  0.100  0.400  0.503- 110 2.11 113 2.11 114 2.11 133 2.11 116 2.11
  17  0.000  0.600  0.407- 115 2.11 119 2.11 120 2.11 200 2.11 117 2.11
  18  0.100  0.700  0.407- 124 2.11 120 2.11 119 2.11 139 2.11 118 2.11
  19  0.000  0.700  0.503- 121 2.11 118 2.11 117 2.11 198 2.11 119 2.11
  20  0.100  0.600  0.503- 114 2.11 117 2.11 118 2.11 137 2.11 120 2.11
  21  0.000  0.800  0.407- 119 2.11 123 2.11 124 2.11 204 2.11 121 2.11
  22  0.100  0.900  0.407- 108 2.11 123 2.11 124 2.11 143 2.11 122 2.11
  23  0.000  0.900  0.503- 105 2.11 121 2.11 122 2.11 202 2.11 123 2.11
  24  0.100  0.800  0.503- 118 2.11 121 2.11 122 2.11 141 2.11 124 2.11
  25  0.200  0.000  0.407- 128 2.11 127 2.11 108 2.11 143 2.11 125 2.11
  26  0.300  0.100  0.407- 127 2.11 128 2.11 132 2.11 147 2.11 126 2.11
  27  0.200  0.100  0.503- 126 2.11 125 2.11 106 2.11 129 2.11 127 2.11
  28  0.300  0.000  0.503- 125 2.11 126 2.11 142 2.11 145 2.11 128 2.11
  29  0.200  0.200  0.407- 131 2.11 132 2.11 112 2.11 127 2.11 129 2.11
  30  0.300  0.300  0.407- 131 2.11 132 2.11 136 2.11 151 2.11 130 2.11
  31  0.200  0.300  0.503- 129 2.11 130 2.11 110 2.11 133 2.11 131 2.11
  32  0.300  0.200  0.503- 129 2.11 130 2.11 126 2.11 149 2.11 132 2.11
  33  0.200  0.400  0.407- 136 2.11 131 2.11 135 2.11 116 2.11 133 2.11
  34  0.300  0.500  0.407- 135 2.11 136 2.11 140 2.11 155 2.11 134 2.11
  35  0.200  0.500  0.503- 134 2.11 133 2.11 114 2.11 137 2.11 135 2.11
  36  0.300  0.400  0.503- 133 2.11 130 2.11 134 2.11 153 2.11 136 2.11
  37  0.200  0.600  0.407- 140 2.11 135 2.11 139 2.11 120 2.11 137 2.11
  38  0.300  0.700  0.407- 139 2.11 144 2.11 140 2.11 159 2.11 138 2.11
  39  0.200  0.700  0.503- 138 2.11 141 2.11 118 2.11 137 2.11 139 2.11
  40  0.300  0.600  0.503- 137 2.11 134 2.11 138 2.11 157 2.11 140 2.11
  41  0.200  0.800  0.407- 139 2.11 144 2.11 143 2.11 124 2.11 141 2.11
  42  0.300  0.900  0.407- 143 2.11 128 2.11 144 2.11 163 2.11 142 2.11
  43  0.200  0.900  0.503- 142 2.11 125 2.11 141 2.11 122 2.11 143 2.11
  44  0.300  0.800  0.503- 138 2.11 141 2.11 142 2.11 161 2.11 144 2.11
  45  0.400  0.000  0.407- 128 2.11 147 2.11 148 2.11 163 2.11 145 2.11
  46  0.500  0.100  0.407- 147 2.11 148 2.11 152 2.11 167 2.11 146 2.11
  47  0.400  0.100  0.503- 126 2.11 145 2.11 146 2.11 149 2.11 147 2.11
  48  0.500  0.000  0.503- 145 2.11 146 2.11 162 2.11 165 2.11 148 2.11
  49  0.400  0.200  0.407- 151 2.11 147 2.11 132 2.11 152 2.11 149 2.11
  50  0.500  0.300  0.407- 152 2.11 151 2.11 156 2.11 171 2.11 150 2.11
  51  0.400  0.300  0.503- 149 2.11 130 2.11 150 2.11 153 2.11 151 2.11
  52  0.500  0.200  0.503- 150 2.11 149 2.11 146 2.11 169 2.11 152 2.11
  53  0.400  0.400  0.407- 136 2.11 151 2.11 155 2.11 156 2.11 153 2.11
  54  0.500  0.500  0.407- 155 2.11 156 2.11 160 2.11 175 2.11 154 2.11
  55  0.400  0.500  0.503- 134 2.11 153 2.11 154 2.11 157 2.11 155 2.11   4 2.43   1 2.43
  56  0.500  0.400  0.503- 150 2.11 153 2.11 154 2.11 173 2.11 156 2.11
  57  0.400  0.600  0.407- 140 2.11 155 2.11 159 2.11 160 2.11 157 2.11
  58  0.500  0.700  0.407- 164 2.11 160 2.11 159 2.11 179 2.11 158 2.11
  59  0.400  0.700  0.503- 161 2.11 157 2.11 158 2.11 138 2.11 159 2.11
  60  0.500  0.600  0.503- 154 2.11 157 2.11 158 2.11 177 2.11 160 2.11
[...]
 190  0.900  0.300  0.503-  92 2.11  91 2.11  11 2.11  96 2.11  90 2.11
 191  0.800  0.300  0.407-  70 2.11  89 2.11  90 2.11  93 2.11  91 2.11
 192  0.900  0.200  0.407-  90 2.11  86 2.11  89 2.11   9 2.11  92 2.11
 193  0.800  0.400  0.503-  76 2.11  91 2.11  95 2.11  96 2.11  93 2.11
 194  0.900  0.500  0.503-  15 2.11  95 2.11  96 2.11 100 2.11  94 2.11
 195  0.800  0.500  0.407-  74 2.11  93 2.11  94 2.11  97 2.11  95 2.11
 196  0.900  0.400  0.407-  13 2.11  90 2.11  93 2.11  94 2.11  96 2.11
 197  0.800  0.600  0.503-  80 2.11  95 2.11  99 2.11 100 2.11  97 2.11
 198  0.900  0.700  0.503- 104 2.11  99 2.11 100 2.11  19 2.11  98 2.11
 199  0.800  0.700  0.407-  78 2.11 101 2.11  98 2.11  97 2.11  99 2.11
 200  0.900  0.600  0.407-  17 2.11  94 2.11  97 2.11  98 2.11 100 2.11
 201  0.800  0.800  0.503-  84 2.11  99 2.11 103 2.11 104 2.11 101 2.11
 202  0.900  0.900  0.503-  23 2.11  88 2.11 103 2.11 104 2.11 102 2.11
 203  0.800  0.900  0.407-  82 2.11  85 2.11 101 2.11 102 2.11 103 2.11
 204  0.900  0.800  0.407-  98 2.11  21 2.11 101 2.11 102 2.11 104 2.11

  LATTYP: Found a simple tetragonal cell.
 ALAT       =    21.1388521970
 C/A-ratio  =     1.0461251639

  Lattice vectors:

 A1 = (  21.1388521970,   0.0000000000,   0.0000000000)
 A2 = (   0.0000000000,  21.1388521970,   0.0000000000)
 A3 = (   0.0000000000,   0.0000000000,  22.1138852197)

Analysis of symmetry for initial positions (statically):
 Subroutine PRICEL returns:
 Original cell was already a primitive cell.

 Routine SETGRP: Setting up the symmetry group for a
 simple tetragonal supercell.

 Subroutine GETGRP returns: Found  1 space group operations
 (whereof  1 operations were pure point group operations)
 out of a pool of 16 trial point group operations.

The static configuration has the point symmetry C_1 .

Analysis of symmetry for dynamics (positions and initial velocities):
 Subroutine PRICEL returns:
 Original cell was already a primitive cell.

[...]

The dynamic configuration has the point symmetry C_1 .

Analysis of constrained symmetry for selective dynamics:
 Subroutine PRICEL returns:
 Original cell was already a primitive cell.

 Routine SETGRP: Setting up the symmetry group for a
 simple tetragonal supercell.

 Subroutine GETGRP returns: Found  1 space group operations
 (whereof  1 operations were pure point group operations)
 out of a pool of 16 trial point group operations.

The constrained configuration has the point symmetry C_1 .

 Subroutine INISYM returns: Found  1 space group operations
 (whereof  1 operations are pure point group operations),
 and found     1 'primitive' translations

[...]
   Mg          1.379          1.540          3.329          0.04689260
   Mg          1.379          1.540          3.330          0.04689803
   Mg          1.373          1.539          3.323          0.04680021
   Mg          1.377          1.540          3.328          0.04687154
   Mg          1.427          1.549          3.387          0.04770463
   Mg          1.376          1.540          3.326          0.04684983
   Mg          1.373          1.539          3.323          0.04680280
   Mg          1.378          1.540          3.329          0.04688488
   Mg          1.379          1.540          3.329          0.04689361
   Mg          1.376          1.540          3.326          0.04684894
[...]
   O         198.767          4.881         19.275          3.56950725
   O         199.912          4.885         19.331          3.57977865
   O         199.933          4.886         19.332          3.57996778
   O         198.551          4.880         19.265          3.56756753
   O         198.645          4.880         19.269          3.56841233
   O         199.925          4.885         19.331          3.57989365
   O         199.932          4.886         19.332          3.57995366
   O         198.554          4.880         19.265          3.56759226
   O         198.769          4.881         19.275          3.56952931
   O         199.913          4.885         19.331          3.57978250
   O         199.932          4.886         19.332          3.57995494
   O         198.806          4.881         19.277          3.56986083
   O         198.921          4.881         19.283          3.57089452
   O         199.923          4.885         19.331          3.57987421
   O         199.934          4.886         19.332          3.57997208

  vdW correction parametrized for the method         

  IVDW =  21
  VDW_RADIUS =    50.000 A
  VDW_IDAMPF =  0
  VDW_S6 =     1.000
  VDW_SR =     0.960
  VDW_D =    20.000
  LVDW_ONECELL = F F F
  LVDW_SAMETYPE T T T
  LVDW_EWALD = F

  Number of pair interactions contributing to vdW energy: 1118598
  Edisp (eV):   -7.22808

 VOLUME and BASIS-vectors are now :
  energy-cutoff  :      520.00
  volume of cell :     9881.61
      direct lattice vectors                 reciprocal lattice vectors
    21.138852197  0.000000000  0.000000000     0.047306258  0.000000000  0.000000000
     0.000000000 21.138852197  0.000000000     0.000000000  0.047306258  0.000000000
     0.000000000  0.000000000 22.113885220     0.000000000  0.000000000  0.045220457

  length of vectors
    21.138852197 21.138852197 22.113885220     0.047306258  0.047306258  0.045220457

 FORCES acting on ions:
    Electron-Ion                     Ewald-Force                    Non-Local-Force
   -.591E+00 -.490E+03 -.187E+04   0.583E+00 0.479E+03 0.188E+04   0.901E-02 0.113E+02 -.460E+01
   -.817E-01 -.286E+00 -.155E+04   0.676E-01 0.246E+00 0.153E+04   0.169E-01 0.351E-01 0.117E+02
   0.132E+01 0.389E+01 -.186E+04   -.129E+01 -.384E+01 0.186E+04   -.185E-01 -.541E-01 -.323E+00
   -.530E+00 0.486E+03 -.187E+04   0.524E+00 -.475E+03 0.188E+04   0.141E-01 -.111E+02 -.459E+01
   0.647E+01 0.577E-01 0.936E+03   -.650E+01 -.582E-01 -.927E+03   0.237E-01 0.336E-03 -.713E+01
   0.127E+02 0.987E+01 0.939E+03   -.128E+02 -.990E+01 -.931E+03   0.522E-01 0.201E-01 -.713E+01
   0.928E+01 0.883E+01 -.919E+03   -.932E+01 -.884E+01 0.910E+03   0.274E-01 0.284E-02 0.702E+01
   0.135E+02 0.103E+00 -.918E+03   -.135E+02 -.103E+00 0.909E+03   0.385E-01 0.548E-03 0.702E+01
   0.102E+02 0.119E+02 0.939E+03   -.102E+02 -.120E+02 -.931E+03   0.414E-01 0.917E-02 -.714E+01
   0.270E+02 0.195E+02 0.951E+03   -.272E+02 -.195E+02 -.943E+03   0.132E+00 0.239E-01 -.715E+01
   0.197E+02 0.165E+02 -.913E+03   -.198E+02 -.165E+02 0.904E+03   0.466E-01 -.878E-03 0.701E+01
   0.251E+02 0.238E+02 -.911E+03   -.252E+02 -.238E+02 0.903E+03   0.888E-01 0.158E-01 0.702E+01
   0.180E+02 0.821E+01 0.946E+03   -.181E+02 -.821E+01 -.937E+03   0.640E-01 0.310E-02 -.715E+01
   0.401E+02 -.121E+00 0.962E+03   -.403E+02 0.122E+00 -.953E+03   0.157E+00 -.783E-03 -.717E+01
   0.287E+02 -.945E-01 -.908E+03   -.288E+02 0.949E-01 0.900E+03   0.454E-01 -.295E-03 0.701E+01
   0.573E+02 0.201E+02 -.895E+03   -.575E+02 -.201E+02 0.887E+03   0.133E+00 -.283E-02 0.699E+01
   0.180E+02 -.831E+01 0.946E+03   -.181E+02 0.832E+01 -.937E+03   0.634E-01 -.368E-02 -.715E+01
   0.269E+02 -.195E+02 0.951E+03   -.271E+02 0.196E+02 -.942E+03   0.130E+00 -.241E-01 -.715E+01
   0.196E+02 -.165E+02 -.913E+03   -.197E+02 0.165E+02 0.904E+03   0.459E-01 0.700E-03 0.701E+01
   0.571E+02 -.203E+02 -.895E+03   -.573E+02 0.203E+02 0.887E+03   0.131E+00 0.188E-02 0.699E+01
   0.101E+02 -.119E+02 0.939E+03   -.102E+02 0.119E+02 -.931E+03   0.408E-01 -.893E-02 -.714E+01
   0.127E+02 -.972E+01 0.939E+03   -.128E+02 0.975E+01 -.931E+03   0.515E-01 -.191E-01 -.713E+01
   0.924E+01 -.871E+01 -.919E+03   -.928E+01 0.871E+01 0.910E+03   0.271E-01 -.237E-02 0.702E+01
   0.249E+02 -.237E+02 -.911E+03   -.250E+02 0.237E+02 0.903E+03   0.871E-01 -.154E-01 0.702E+01
   0.115E+02 0.112E+00 0.941E+03   -.116E+02 -.114E+00 -.932E+03   0.445E-01 0.102E-02 -.714E+01
   0.919E+01 0.186E+02 0.947E+03   -.925E+01 -.187E+02 -.939E+03   0.413E-01 0.947E-01 -.714E+01
   0.182E+02 0.199E+02 -.912E+03   -.183E+02 -.200E+02 0.904E+03   0.570E-01 0.522E-01 0.702E+01
   0.946E+01 0.202E+00 -.913E+03   -.950E+01 -.204E+00 0.904E+03   0.276E-01 0.137E-02 0.702E+01
   0.213E+02 0.265E+02 0.952E+03   -.215E+02 -.266E+02 -.943E+03   0.116E+00 0.850E-01 -.713E+01
   0.281E+02 0.498E+02 0.989E+03   -.284E+02 -.501E+02 -.981E+03   0.234E+00 0.226E+00 -.703E+01
   0.592E+02 0.544E+02 -.884E+03   -.596E+02 -.545E+02 0.876E+03   0.320E+00 0.306E-01 0.700E+01
   0.244E+02 0.605E+02 -.892E+03   -.245E+02 -.609E+02 0.884E+03   0.922E-01 0.278E+00 0.702E+01
   0.507E+02 0.239E+02 0.985E+03   -.512E+02 -.239E+02 -.977E+03   0.345E+00 0.325E-01 -.720E+01
   0.559E+02 -.444E+00 0.105E+04   -.565E+02 0.454E+00 -.104E+04   0.365E+00 -.646E-02 -.720E+01
   0.121E+03 -.447E+00 -.844E+03   -.122E+03 0.449E+00 0.836E+03   0.255E+00 -.141E-02 0.694E+01
   0.142E+03 0.108E+03 -.751E+03   -.144E+03 -.108E+03 0.743E+03   0.149E+01 -.412E-01 0.693E+01
   0.505E+02 -.241E+02 0.985E+03   -.510E+02 0.242E+02 -.976E+03   0.338E+00 -.353E-01 -.720E+01
   0.278E+02 -.496E+02 0.989E+03   -.281E+02 0.500E+02 -.980E+03   0.229E+00 -.224E+00 -.703E+01
   0.586E+02 -.543E+02 -.884E+03   -.590E+02 0.543E+02 0.876E+03   0.312E+00 -.313E-01 0.700E+01
   0.140E+03 -.109E+03 -.753E+03   -.142E+03 0.109E+03 0.745E+03   0.145E+01 0.321E-01 0.694E+01
   0.212E+02 -.263E+02 0.952E+03   -.213E+02 0.264E+02 -.943E+03   0.114E+00 -.832E-01 -.713E+01
   0.913E+01 -.183E+02 0.947E+03   -.919E+01 0.184E+02 -.939E+03   0.407E-01 -.912E-01 -.714E+01
   0.181E+02 -.196E+02 -.912E+03   -.181E+02 0.197E+02 0.904E+03   0.562E-01 -.501E-01 0.702E+01
   0.240E+02 -.599E+02 -.893E+03   -.242E+02 0.603E+02 0.884E+03   0.904E-01 -.271E+00 0.702E+01
   -.221E-01 0.158E+00 0.944E+03   0.220E-01 -.161E+00 -.936E+03   0.665E-04 0.167E-02 -.714E+01
   -.923E+01 0.186E+02 0.947E+03   0.929E+01 -.187E+02 -.939E+03   -.412E-01 0.947E-01 -.714E+01
   -.377E-01 0.308E+02 -.907E+03   0.375E-01 -.310E+02 0.898E+03   0.938E-04 0.130E+00 0.702E+01
   -.951E+01 0.202E+00 -.913E+03   0.955E+01 -.204E+00 0.904E+03   -.275E-01 0.137E-02 0.702E+01
   -.458E-01 0.417E+02 0.965E+03   0.456E-01 -.421E+02 -.957E+03   0.790E-04 0.305E+00 -.714E+01
   -.282E+02 0.497E+02 0.989E+03   0.285E+02 -.500E+02 -.981E+03   -.234E+00 0.227E+00 -.703E+01
   -.207E+00 0.140E+03 -.822E+03   0.206E+00 -.142E+03 0.813E+03   0.105E-03 0.144E+01 0.721E+01
   -.244E+02 0.604E+02 -.893E+03   0.246E+02 -.608E+02 0.884E+03   -.920E-01 0.278E+00 0.702E+01
   -.150E+00 0.509E+02 0.106E+04   0.149E+00 -.511E+02 -.105E+04   0.609E-03 0.144E+00 -.551E+01
   -.560E+02 -.442E+00 0.105E+04   0.566E+02 0.452E+00 -.104E+04   -.365E+00 -.648E-02 -.720E+01
   -.937E+00 -.271E+01 -.456E+03   0.939E+00 0.279E+01 0.451E+03   0.168E-02 -.453E-01 0.270E+01
   -.142E+03 0.108E+03 -.752E+03   0.144E+03 -.108E+03 0.744E+03   -.149E+01 -.415E-01 0.694E+01
   -.147E+00 -.514E+02 0.106E+04   0.146E+00 0.516E+02 -.105E+04   0.569E-03 -.153E+00 -.556E+01
   -.279E+02 -.496E+02 0.988E+03   0.282E+02 0.499E+02 -.980E+03   -.229E+00 -.224E+00 -.703E+01
   -.200E+00 -.138E+03 -.823E+03   0.200E+00 0.140E+03 0.815E+03   0.117E-03 -.140E+01 0.720E+01
   -.140E+03 -.109E+03 -.754E+03   0.142E+03 0.109E+03 0.746E+03   -.145E+01 0.324E-01 0.694E+01
[...]
   -.106E+02 0.948E+01 0.708E+03   0.106E+02 -.949E+01 -.712E+03   -.489E-01 0.952E-02 0.303E+01
   0.214E-01 0.764E+01 0.704E+03   -.213E-01 -.764E+01 -.708E+03   -.103E-03 0.649E-02 0.304E+01
   -.194E+02 0.814E+01 -.683E+03   0.194E+02 -.813E+01 0.687E+03   -.455E-01 -.205E-02 -.323E+01
   0.564E-01 -.544E-01 -.685E+03   -.562E-01 0.546E-01 0.689E+03   -.222E-03 -.275E-03 -.322E+01
   -.147E+02 -.535E-01 0.712E+03   0.147E+02 0.539E-01 -.716E+03   -.555E-01 -.452E-03 0.303E+01
   0.362E-01 0.505E+01 0.708E+03   -.361E-01 -.505E+01 -.712E+03   -.166E-03 0.156E-02 0.303E+01
   -.193E+02 -.824E+01 -.683E+03   0.194E+02 0.824E+01 0.687E+03   -.452E-01 0.144E-02 -.323E+01
   0.398E-01 -.991E+01 -.688E+03   -.397E-01 0.991E+01 0.692E+03   -.165E-03 0.430E-03 -.321E+01
   -.106E+02 -.950E+01 0.708E+03   0.106E+02 0.951E+01 -.712E+03   -.483E-01 -.972E-02 0.303E+01
   0.361E-01 -.512E+01 0.708E+03   -.360E-01 0.512E+01 -.712E+03   -.166E-03 -.206E-02 0.303E+01
   -.995E+01 -.113E+02 -.688E+03   0.998E+01 0.113E+02 0.692E+03   -.351E-01 -.679E-02 -.321E+01
   0.199E-01 -.551E+01 -.691E+03   -.198E-01 0.552E+01 0.695E+03   -.922E-04 -.210E-02 -.320E+01
   -.552E+01 -.522E+01 0.704E+03   0.555E+01 0.522E+01 -.708E+03   -.294E-01 -.842E-02 0.304E+01
   0.212E-01 -.761E+01 0.704E+03   -.211E-01 0.761E+01 -.708E+03   -.103E-03 -.628E-02 0.304E+01
   0.151E-01 -.254E+00 0.484E+01   0.223E-11 0.853E-12 0.182E-11   0.845E-03 0.237E+00 -.487E+01

 POSITION                                       TOTAL-FORCE (eV/Angst)
      8.45129     11.78922     13.22011         0.003091      0.104611     -0.079559
      8.44827     10.55171     17.46787        -0.000443     -0.000944      0.225220
      8.44707     10.54754     15.21331         0.002097     -0.004669      0.060379
      8.45116      9.32335     13.20450         0.003329     -0.094214     -0.075060
      0.00000      0.00000      9.00000        -0.007655     -0.000110      0.584369
      2.11389      2.11389      9.00000        -0.016919     -0.006632      0.583978
      0.00000      2.11389     11.11389        -0.008623     -0.000905     -0.537325
      2.11389      0.00000     11.11389        -0.012408     -0.000173     -0.536607
      0.00000      4.22777      9.00000        -0.012969     -0.003016      0.585589
      2.11389      6.34166      9.00000        -0.040989     -0.007802      0.587802
      0.00000      6.34166     11.11389        -0.013910      0.000554     -0.531415
      2.11389      4.22777     11.11389        -0.027342     -0.005022     -0.530966
      0.00000      8.45554      9.00000        -0.019741     -0.000853      0.587979
      2.11389     10.56943      9.00000        -0.049856      0.000261      0.591649
      0.00000     10.56943     11.11389        -0.013032      0.000096     -0.526266
      2.11389      8.45554     11.11389        -0.037958      0.002112     -0.514158
      0.00000     12.68331      9.00000        -0.019575      0.001041      0.587996
      2.11389     14.79720      9.00000        -0.040279      0.007888      0.587787
      0.00000     14.79720     11.11389        -0.013720     -0.000498     -0.531512
      2.11389     12.68331     11.11389        -0.037578     -0.001808     -0.514309
      0.00000     16.91108      9.00000        -0.012761      0.002929      0.585532
      2.11389     19.02497      9.00000        -0.016704      0.006281      0.583999
      0.00000     19.02497     11.11389        -0.008522      0.000749     -0.537378
      2.11389     16.91108     11.11389        -0.026843      0.004886     -0.531136
      4.22777      0.00000      9.00000        -0.014660     -0.000318      0.583752
      6.34166      2.11389      9.00000        -0.013995     -0.029430      0.583163
      4.22777      2.11389     11.11389        -0.018594     -0.015937     -0.532458
      6.34166      0.00000     11.11389        -0.009171     -0.000415     -0.532953
      4.22777      4.22777      9.00000        -0.038627     -0.028609      0.579741
      6.34166      6.34166      9.00000        -0.087655     -0.083932      0.533934
      4.22777      6.34166     11.11389        -0.097730     -0.008998     -0.512359
      6.34166      4.22777     11.11389        -0.031823     -0.085658     -0.524872
      4.22777      8.45554      9.00000        -0.104483     -0.009210      0.593475
      6.34166     10.56943      9.00000        -0.137486      0.002438      0.550217
      4.22777     10.56943     11.11389        -0.081225      0.000396     -0.461808
      6.34166      8.45554     11.11389        -0.582650      0.025286     -0.557678
      4.22777     12.68331      9.00000        -0.102693      0.010135      0.593454
      6.34166     14.79720      9.00000        -0.085689      0.082655      0.535468
      4.22777     14.79720     11.11389        -0.095501      0.009252     -0.512903
      6.34166     12.68331     11.11389        -0.562607     -0.023146     -0.555090
      4.22777     16.91108      9.00000        -0.037864      0.027977      0.579863
      6.34166     19.02497      9.00000        -0.013795      0.028357      0.583257
      4.22777     19.02497     11.11389        -0.018355      0.015284     -0.532597
      6.34166     16.91108     11.11389        -0.031221      0.083487     -0.525260
      8.45554      0.00000      9.00000        -0.000037     -0.000523      0.584051
     10.56943      2.11389      9.00000         0.013921     -0.029435      0.583153
      8.45554      2.11389     11.11389        -0.000044     -0.038602     -0.529888
     10.56943      0.00000     11.11389         0.009095     -0.000415     -0.532968
      8.45554      4.22777      9.00000        -0.000042     -0.092043      0.577739
     10.56943      6.34166      9.00000         0.087555     -0.084007      0.533961
      8.45554      6.34166     11.11389        -0.000043     -0.517591     -0.599882
     10.56943      4.22777     11.11389         0.031720     -0.085653     -0.524917
      8.45554      8.45554      9.00000        -0.000243     -0.031358      0.152533
     10.56943     10.56943      9.00000         0.137344      0.002443      0.550539
      8.45554     10.56943     11.11389         0.003735      0.025467     -1.698225
     10.56943      8.45554     11.11389         0.580693      0.026124     -0.556081
      8.45554     12.68331      9.00000        -0.000228      0.033589      0.164553
     10.56943     14.79720      9.00000         0.085590      0.082731      0.535496
      8.45554     14.79720     11.11389        -0.000054      0.502106     -0.596953
     10.56943     12.68331     11.11389         0.560748     -0.023964     -0.553711
[...]
     19.02497      6.34166     11.11389        -0.000071     -0.000133      0.391021
     16.91108      6.34166      9.00000        -0.016378      0.003239     -0.444373
     19.02497      4.22777      9.00000        -0.000050      0.002202     -0.443347
     16.91108      8.45554     11.11389        -0.015707     -0.000540      0.384710
     19.02497     10.56943     11.11389        -0.000088     -0.000091      0.387612
     16.91108     10.56943      9.00000        -0.018654     -0.000150     -0.446319
     19.02497      8.45554      9.00000        -0.000073      0.000565     -0.444913
     16.91108     12.68331     11.11389        -0.015583      0.000339      0.384793
     19.02497     14.79720     11.11389        -0.000069      0.000071      0.391094
     16.91108     14.79720      9.00000        -0.016171     -0.003308     -0.444361
     19.02497     12.68331      9.00000        -0.000071     -0.000729     -0.444903
     16.91108     16.91108     11.11389        -0.011812     -0.002363      0.392441
     19.02497     19.02497     11.11389        -0.000046     -0.000724      0.395732
     16.91108     19.02497      9.00000        -0.009809     -0.002817     -0.442755
     19.02497     16.91108      9.00000        -0.000049     -0.002137     -0.443337
    total drift:                                0.003303      0.000282     -0.526792

  FREE ENERGIE OF THE ION-ELECTRON SYSTEM (eV)
  free  energy   TOTEN  =     -1435.64356607 eV

  energy  without entropy=    -1435.64356607  energy(sigma->0) =    -1435.64356607