 vasp.6.3.0 20Jan22 (build Apr  1 2022 16:44:48) complex
 executed on        HPECrayEX_GCC date 2023.01.10  02:31:54

 INCAR:
   SYSTEM = MgO-rocksalt
   ISMEAR = 0
   SIGMA = 0.05
   EDIFF = 1E-6
   ALGO = ALL
   ISTART = 0
   IBRION = -1
   NSW = 0
   ISYM = 2
   DIPOL = 0.5 0.5 0.5
   IDIPOL = 3
   LDIPOL = .TRUE.
   LHFCALC = .TRUE.
   HFSCREEN = 0.2
   GGA = PE
   IVDW = 13
   VDW_S8 = 1.19528249
   VDW_A1 = 0.38663183
   VDW_A2 = 5.19133469
   ENCUT = 520
   PREC = Accurate
   LASPH = .TRUE.
   LREAL = Auto
   ISPIN = 1
   NELM = 200
   NELMIN = 8
   NCORE = 4
   KPAR = 2
   LWAVE = .FALSE.
   LCHARG = .FALSE.

 POTCAR:    PAW_PBE Au 04Oct2007
 POTCAR:    PAW_PBE Mg_pv 13Apr2007
 POTCAR:    PAW_PBE O 08Apr2002
|           W    W    AA    RRRRR   N    N  II  N    N   GGGG   !!!           |
|           W    W   A  A   R    R  NN   N  II  NN   N  G    G  !!!           |
|           W    W  A    A  R    R  N N  N  II  N N  N  G       !!!           |
|           W WW W  AAAAAA  RRRRR   N  N N  II  N  N N  G  GGG   !            |
|           WW  WW  A    A  R   R   N   NN  II  N   NN  G    G                |
|           W    W  A    A  R    R  N    N  II  N    N   GGGG   !!!           |
|     You have selected ISYM=2 for a HF type calculation. This will           |
|     symmetrize the charge density but not the exchange potential. I         |
|     suggest to use ISYM=3 instead. This uses symmetry to obtain the         |
|     orbitals at all k-points in the Brillouin zone, but does not apply      |
|     symmetry to the Hartree potential directly. The resultant charge        |
|     might have lower symmetry than the crystal but, at least, Hartree       |
|     and exchange are fully compatible.                                      |

   TITEL  = PAW_PBE Au 04Oct2007
   POMASS =  196.966; ZVAL   =   11.000    mass and valenz
   ENMAX  =  229.943; ENMIN  =  172.457 eV

   TITEL  = PAW_PBE Mg_pv 13Apr2007
   POMASS =   24.305; ZVAL   =    8.000    mass and valenz
   ENMAX  =  403.929; ENMIN  =  302.947 eV

   TITEL  = PAW_PBE O 08Apr2002
   POMASS =   16.000; ZVAL   =    6.000    mass and valenz
   ENMAX  =  400.000; ENMIN  =  300.000 eV

 Optimization of the real space projectors (new method)

 maximal supplied QI-value         = 15.12
 optimisation between [QCUT,QGAM] = [ 11.64, 23.28] = [ 37.95,151.78] Ry
 Optimized for a Real-space Cutoff    1.49 Angstroem

   l    n(q)    QCUT    max X(q) W(low)/X(q) W(high)/X(q)  e(spline)
   2      9    11.641    60.898    0.24E-03    0.10E-03    0.19E-06
   2      9    11.641    58.894    0.25E-03    0.10E-03    0.19E-06
   0     10    11.641   109.617    0.73E-04    0.33E-04    0.11E-06
   0     10    11.641    75.026    0.71E-04    0.32E-04    0.11E-06
   1     10    11.641    16.344    0.27E-04    0.97E-04    0.16E-06
   1     10    11.641    10.160    0.23E-04    0.77E-04    0.13E-06
 Optimization of the real space projectors (new method)

[...]

   l    n(q)    QCUT    max X(q) W(low)/X(q) W(high)/X(q)  e(spline)
   1      8    11.527     2.974    0.44E-04    0.56E-04    0.12E-06
   1      8    11.527     4.279    0.12E-03    0.12E-03    0.26E-06
   0      9    11.527    16.381    0.46E-04    0.64E-04    0.78E-07
   0      9    11.527     5.611    0.26E-04    0.43E-04    0.55E-07
   2      8    11.527     4.652    0.22E-03    0.72E-04    0.47E-07
 Optimization of the real space projectors (new method)

 maximal supplied QI-value         = 24.76
 optimisation between [QCUT,QGAM] = [ 11.64, 23.27] = [ 37.91,151.63] Ry
 Optimized for a Real-space Cutoff    1.14 Angstroem

   l    n(q)    QCUT    max X(q) W(low)/X(q) W(high)/X(q)  e(spline)
   0      8    11.635    20.381    0.10E-03    0.33E-03    0.24E-06
   0      8    11.635    15.268    0.11E-03    0.35E-03    0.26E-06
   1      7    11.635     5.964    0.24E-03    0.31E-03    0.30E-06
   1      7    11.635     5.382    0.22E-03    0.25E-03    0.26E-06
  PAW_PBE Au 04Oct2007                  :
  PAW_PBE Mg_pv 13Apr2007               :
  PAW_PBE O 08Apr2002                   :

 POSCAR: Au Mg  O
  positions in direct lattice
  velocities in cartesian coordinates
|           W    W    AA    RRRRR   N    N  II  N    N   GGGG   !!!           |
|           W    W   A  A   R    R  NN   N  II  NN   N  G    G  !!!           |
|           W    W  A    A  R    R  N N  N  II  N N  N  G       !!!           |
|           W WW W  AAAAAA  RRRRR   N  N N  II  N  N N  G  GGG   !            |
|           WW  WW  A    A  R   R   N   NN  II  N   NN  G    G                |
|           W    W  A    A  R    R  N    N  II  N    N   GGGG   !!!           |
|     Specifying the vdW parameters                                           |
|     VDW_S8 = 1.195                                                          |
|     VDW_A1 = 0.387                                                          |
|     VDW_A2 = 5.191                                                          |
|     in the INCAR file will overwrite the defaults for hse06. Please         |
|     make sure that is what you intended.                                    |

 ion  position               nearest neighbor table
   1  0.400  0.425  0.603- 153 2.29   2 2.53  55 2.73
   2  0.400  0.510  0.684-   1 2.53   3 2.68   4 2.74
   3  0.400  0.633  0.713-   4 2.57   2 2.68
   4  0.400  0.605  0.600- 157 2.16   3 2.57   2 2.74  59 2.95  40 3.02  60 3.02
   5  0.000  0.000  0.407- 107 2.11 108 2.11 123 2.11 188 2.11 105 2.11
   6  0.100  0.100  0.407- 107 2.11 108 2.11 112 2.11 127 2.11 106 2.11
   7  0.000  0.100  0.503- 105 2.11 106 2.11 109 2.11 186 2.11 107 2.11
   8  0.100  0.000  0.503- 105 2.11 106 2.11 122 2.11 125 2.11 108 2.11
   9  0.000  0.200  0.407- 111 2.11 107 2.11 112 2.11 192 2.11 109 2.11
  10  0.100  0.300  0.407- 112 2.11 111 2.11 116 2.11 131 2.11 110 2.11
  11  0.000  0.300  0.503- 109 2.11 110 2.11 113 2.11 190 2.11 111 2.11
  12  0.100  0.200  0.503- 110 2.11 109 2.11 106 2.11 129 2.11 112 2.11
  13  0.000  0.400  0.407- 111 2.11 115 2.11 116 2.11 196 2.11 113 2.11
  14  0.100  0.500  0.407- 115 2.11 116 2.11 120 2.11 135 2.11 114 2.11
  15  0.000  0.500  0.503- 113 2.11 114 2.11 117 2.11 194 2.11 115 2.11
  16  0.100  0.400  0.503- 110 2.11 113 2.11 114 2.11 133 2.11 116 2.11
  17  0.000  0.600  0.407- 115 2.11 119 2.11 120 2.11 200 2.11 117 2.11
  18  0.100  0.700  0.407- 124 2.11 120 2.11 119 2.11 139 2.11 118 2.11
  19  0.000  0.700  0.503- 121 2.11 118 2.11 117 2.11 198 2.11 119 2.11
  20  0.100  0.600  0.503- 114 2.11 117 2.11 118 2.11 137 2.11 120 2.11
  21  0.000  0.800  0.407- 119 2.11 123 2.11 124 2.11 204 2.11 121 2.11
  22  0.100  0.900  0.407- 108 2.11 123 2.11 124 2.11 143 2.11 122 2.11
  23  0.000  0.900  0.503- 105 2.11 121 2.11 122 2.11 202 2.11 123 2.11
  24  0.100  0.800  0.503- 118 2.11 121 2.11 122 2.11 141 2.11 124 2.11
  25  0.200  0.000  0.407- 128 2.11 127 2.11 108 2.11 143 2.11 125 2.11
  26  0.300  0.100  0.407- 127 2.11 128 2.11 132 2.11 147 2.11 126 2.11
  27  0.200  0.100  0.503- 126 2.11 125 2.11 106 2.11 129 2.11 127 2.11
  28  0.300  0.000  0.503- 125 2.11 126 2.11 142 2.11 145 2.11 128 2.11
  29  0.200  0.200  0.407- 131 2.11 132 2.11 112 2.11 127 2.11 129 2.11
  30  0.300  0.300  0.407- 131 2.11 132 2.11 136 2.11 151 2.11 130 2.11
  31  0.200  0.300  0.503- 129 2.11 130 2.11 110 2.11 133 2.11 131 2.11
  32  0.300  0.200  0.503- 129 2.11 130 2.11 126 2.11 149 2.11 132 2.11
  33  0.200  0.400  0.407- 136 2.11 131 2.11 135 2.11 116 2.11 133 2.11
  34  0.300  0.500  0.407- 135 2.11 136 2.11 140 2.11 155 2.11 134 2.11
  35  0.200  0.500  0.503- 134 2.11 133 2.11 114 2.11 137 2.11 135 2.11
  36  0.300  0.400  0.503- 133 2.11 130 2.11 134 2.11 153 2.11 136 2.11
  37  0.200  0.600  0.407- 140 2.11 135 2.11 139 2.11 120 2.11 137 2.11
  38  0.300  0.700  0.407- 139 2.11 144 2.11 140 2.11 159 2.11 138 2.11
  39  0.200  0.700  0.503- 138 2.11 141 2.11 118 2.11 137 2.11 139 2.11
  40  0.300  0.600  0.503- 137 2.11 134 2.11 138 2.11 157 2.11 140 2.11   4 3.02
  41  0.200  0.800  0.407- 139 2.11 144 2.11 143 2.11 124 2.11 141 2.11
  42  0.300  0.900  0.407- 143 2.11 128 2.11 144 2.11 163 2.11 142 2.11
  43  0.200  0.900  0.503- 142 2.11 125 2.11 141 2.11 122 2.11 143 2.11
  44  0.300  0.800  0.503- 138 2.11 141 2.11 142 2.11 161 2.11 144 2.11
  45  0.400  0.000  0.407- 128 2.11 147 2.11 148 2.11 163 2.11 145 2.11
  46  0.500  0.100  0.407- 147 2.11 148 2.11 152 2.11 167 2.11 146 2.11
  47  0.400  0.100  0.503- 126 2.11 145 2.11 146 2.11 149 2.11 147 2.11
  48  0.500  0.000  0.503- 145 2.11 146 2.11 162 2.11 165 2.11 148 2.11
  49  0.400  0.200  0.407- 151 2.11 147 2.11 132 2.11 152 2.11 149 2.11
  50  0.500  0.300  0.407- 152 2.11 151 2.11 156 2.11 171 2.11 150 2.11
  51  0.400  0.300  0.503- 149 2.11 130 2.11 150 2.11 153 2.11 151 2.11
  52  0.500  0.200  0.503- 150 2.11 149 2.11 146 2.11 169 2.11 152 2.11
  53  0.400  0.400  0.407- 136 2.11 151 2.11 155 2.11 156 2.11 153 2.11
  54  0.500  0.500  0.407- 155 2.11 156 2.11 160 2.11 175 2.11 154 2.11
  55  0.400  0.500  0.503- 134 2.11 153 2.11 154 2.11 157 2.11 155 2.11   1 2.73
  56  0.500  0.400  0.503- 150 2.11 153 2.11 154 2.11 173 2.11 156 2.11
  57  0.400  0.600  0.407- 140 2.11 155 2.11 159 2.11 160 2.11 157 2.11
  58  0.500  0.700  0.407- 164 2.11 160 2.11 159 2.11 179 2.11 158 2.11
  59  0.400  0.700  0.503- 161 2.11 157 2.11 158 2.11 138 2.11 159 2.11   4 2.95
  60  0.500  0.600  0.503- 154 2.11 157 2.11 158 2.11 177 2.11 160 2.11   4 3.02
[...]
 190  0.900  0.300  0.503-  92 2.11  91 2.11  11 2.11  96 2.11  90 2.11
 191  0.800  0.300  0.407-  70 2.11  89 2.11  90 2.11  93 2.11  91 2.11
 192  0.900  0.200  0.407-  90 2.11  86 2.11  89 2.11   9 2.11  92 2.11
 193  0.800  0.400  0.503-  76 2.11  91 2.11  95 2.11  96 2.11  93 2.11
 194  0.900  0.500  0.503-  15 2.11  95 2.11  96 2.11 100 2.11  94 2.11
 195  0.800  0.500  0.407-  74 2.11  93 2.11  94 2.11  97 2.11  95 2.11
 196  0.900  0.400  0.407-  13 2.11  90 2.11  93 2.11  94 2.11  96 2.11
 197  0.800  0.600  0.503-  80 2.11  95 2.11  99 2.11 100 2.11  97 2.11
 198  0.900  0.700  0.503- 104 2.11  99 2.11 100 2.11  19 2.11  98 2.11
 199  0.800  0.700  0.407-  78 2.11 101 2.11  98 2.11  97 2.11  99 2.11
 200  0.900  0.600  0.407-  17 2.11  94 2.11  97 2.11  98 2.11 100 2.11
 201  0.800  0.800  0.503-  84 2.11  99 2.11 103 2.11 104 2.11 101 2.11
 202  0.900  0.900  0.503-  23 2.11  88 2.11 103 2.11 104 2.11 102 2.11
 203  0.800  0.900  0.407-  82 2.11  85 2.11 101 2.11 102 2.11 103 2.11
 204  0.900  0.800  0.407-  98 2.11  21 2.11 101 2.11 102 2.11 104 2.11

  LATTYP: Found a simple tetragonal cell.
 ALAT       =    21.1388521970
 C/A-ratio  =     1.0461251639

  Lattice vectors:

 A1 = (  21.1388521970,   0.0000000000,   0.0000000000)
 A2 = (   0.0000000000,  21.1388521970,   0.0000000000)
 A3 = (   0.0000000000,   0.0000000000,  22.1138852197)

Analysis of symmetry for initial positions (statically):
 Subroutine PRICEL returns:
 Original cell was already a primitive cell.

 Routine SETGRP: Setting up the symmetry group for a
 simple tetragonal supercell.

 Subroutine GETGRP returns: Found  1 space group operations
 (whereof  1 operations were pure point group operations)
[...]
     22     -46.7974      2.00000
     23     -46.7968      2.00000
     24     -46.7835      2.00000
     25     -46.7820      2.00000
     26     -46.7670      2.00000
     27     -46.7518      2.00000
     28     -46.7445      2.00000
     29     -46.7440      2.00000
     30     -46.7440      2.00000
     31     -46.7435      2.00000
     32     -46.7255      2.00000
     33     -46.7249      2.00000
     34     -46.7236      2.00000
     35     -46.7190      2.00000
     36     -46.7188      2.00000
     37     -46.7187      2.00000
     38     -46.7088      2.00000
     39     -46.7037      2.00000
     40     -46.7031      2.00000
     41     -46.6920      2.00000
     42     -46.6920      2.00000
     43     -46.6905      2.00000
     44     -46.6900      2.00000
     45     -46.6834      2.00000
     46     -46.6833      2.00000
     47     -46.6724      2.00000
     48     -46.6504      2.00000
     49     -46.6498      2.00000
     50     -46.6446      2.00000
     51     -46.6440      2.00000
     52     -46.6396      2.00000
     53     -46.6392      2.00000
     54     -46.6377      2.00000
     55     -46.6373      2.00000
     56     -46.6348      2.00000
     57     -46.6330      2.00000
     58     -46.6320      2.00000
     59     -46.6310      2.00000
     60     -46.6295      2.00000
[...]
   1010       7.2555      0.00000
   1011       7.2637      0.00000
   1012       7.3460      0.00000
   1013       7.4400      0.00000
   1014       7.4551      0.00000
   1015       7.5323      0.00000
   1016       7.6600      0.00000
   1017       7.6750      0.00000
   1018       7.6940      0.00000
   1019       7.7223      0.00000
   1020       7.8857      0.00000
   1021       7.8980      0.00000
   1022       7.9427      0.00000
   1023       7.9461      0.00000
   1024       8.0276      0.00000

 soft charge-density along one line, spin component           1
         0         1         2         3         4         5         6         7         8         9
 total charge-density along one line

------------------------ aborting loop because EDIFF is reached ----------------------------------------

 VOLUME and BASIS-vectors are now :
  energy-cutoff  :      520.00
  volume of cell :     9881.61
      direct lattice vectors                 reciprocal lattice vectors
    21.138852197  0.000000000  0.000000000     0.047306258  0.000000000  0.000000000
     0.000000000 21.138852197  0.000000000     0.000000000  0.047306258  0.000000000
     0.000000000  0.000000000 22.113885220     0.000000000  0.000000000  0.045220457

  length of vectors
    21.138852197 21.138852197 22.113885220     0.047306258  0.047306258  0.045220457

 FORCES acting on ions:
    Electron-Ion                     Ewald-Force                    Non-Local-Force
   0.616E-01 0.370E+03 -.196E+04   -.629E-01 -.366E+03 0.197E+04   0.216E-02 -.409E+01 -.470E+01
   0.196E+00 0.209E+03 -.198E+04   -.196E+00 -.211E+03 0.198E+04   0.794E-03 0.246E+01 0.458E+01
   -.395E+00 -.355E+03 -.186E+04   0.386E+00 0.351E+03 0.185E+04   0.745E-02 0.440E+01 0.653E+01
   0.139E+00 -.226E+03 -.180E+04   -.137E+00 0.227E+03 0.180E+04   -.109E-02 -.107E+01 -.270E+01
   0.728E+01 -.275E+01 0.937E+03   -.731E+01 0.276E+01 -.929E+03   0.152E-01 -.696E-02 -.720E+01
   0.131E+02 0.619E+01 0.940E+03   -.131E+02 -.620E+01 -.932E+03   0.317E-01 0.985E-02 -.721E+01
   0.949E+01 0.529E+01 -.919E+03   -.951E+01 -.529E+01 0.910E+03   0.128E-01 -.341E-02 0.711E+01
   0.158E+02 -.519E+01 -.916E+03   -.158E+02 0.521E+01 0.908E+03   0.180E-01 -.927E-02 0.711E+01
   0.977E+01 0.993E+01 0.939E+03   -.981E+01 -.994E+01 -.931E+03   0.266E-01 0.770E-02 -.721E+01
   0.254E+02 0.185E+02 0.951E+03   -.256E+02 -.186E+02 -.942E+03   0.100E+00 0.297E-01 -.723E+01
   0.184E+02 0.158E+02 -.914E+03   -.185E+02 -.158E+02 0.906E+03   0.192E-01 0.247E-02 0.710E+01
   0.240E+02 0.201E+02 -.913E+03   -.240E+02 -.201E+02 0.904E+03   0.427E-01 0.319E-02 0.710E+01
   0.172E+02 0.972E+01 0.946E+03   -.173E+02 -.974E+01 -.937E+03   0.505E-01 0.123E-01 -.722E+01
   0.394E+02 0.476E+01 0.962E+03   -.396E+02 -.479E+01 -.954E+03   0.168E+00 0.177E-01 -.725E+01
   0.286E+02 0.429E+01 -.908E+03   -.286E+02 -.430E+01 0.900E+03   0.255E-01 0.831E-02 0.709E+01
   0.538E+02 0.225E+02 -.898E+03   -.538E+02 -.225E+02 0.889E+03   0.530E-01 0.982E-02 0.707E+01
   0.191E+02 -.486E+01 0.948E+03   -.192E+02 0.486E+01 -.939E+03   0.633E-01 0.960E-03 -.722E+01
   0.313E+02 -.168E+02 0.956E+03   -.315E+02 0.168E+02 -.948E+03   0.139E+00 -.277E-01 -.723E+01
   0.231E+02 -.140E+02 -.911E+03   -.232E+02 0.140E+02 0.902E+03   0.320E-01 0.554E-03 0.710E+01
   0.622E+02 -.117E+02 -.892E+03   -.623E+02 0.117E+02 0.884E+03   0.987E-01 0.120E-01 0.707E+01
   0.122E+02 -.120E+02 0.942E+03   -.122E+02 0.121E+02 -.933E+03   0.364E-01 -.139E-01 -.721E+01
   0.157E+02 -.127E+02 0.943E+03   -.157E+02 0.128E+02 -.934E+03   0.394E-01 -.295E-01 -.721E+01
   0.116E+02 -.114E+02 -.917E+03   -.117E+02 0.114E+02 0.909E+03   0.164E-01 -.793E-02 0.711E+01
   0.329E+02 -.257E+02 -.907E+03   -.330E+02 0.258E+02 0.898E+03   0.595E-01 -.157E-01 0.710E+01
   0.133E+02 -.528E+01 0.944E+03   -.134E+02 0.530E+01 -.935E+03   0.269E-01 -.151E-01 -.721E+01
   0.951E+01 0.126E+02 0.949E+03   -.955E+01 -.127E+02 -.940E+03   0.247E-01 0.664E-01 -.722E+01
   0.188E+02 0.132E+02 -.912E+03   -.188E+02 -.132E+02 0.904E+03   0.247E-01 0.205E-01 0.710E+01
   0.117E+02 -.106E+02 -.909E+03   -.117E+02 0.106E+02 0.901E+03   0.115E-01 -.866E-02 0.710E+01
   0.206E+02 0.226E+02 0.952E+03   -.207E+02 -.227E+02 -.943E+03   0.812E-01 0.733E-01 -.722E+01
   0.264E+02 0.457E+02 0.987E+03   -.268E+02 -.462E+02 -.978E+03   0.218E+00 0.276E+00 -.724E+01
   0.559E+02 0.506E+02 -.888E+03   -.561E+02 -.506E+02 0.880E+03   0.184E+00 0.213E-02 0.704E+01
   0.240E+02 0.539E+02 -.895E+03   -.241E+02 -.542E+02 0.886E+03   0.364E-01 0.162E+00 0.707E+01
   0.470E+02 0.254E+02 0.983E+03   -.475E+02 -.255E+02 -.974E+03   0.354E+00 0.808E-01 -.734E+01
   0.505E+02 0.115E+02 0.104E+04   -.512E+02 -.117E+02 -.103E+04   0.499E+00 0.124E+00 -.738E+01
   0.113E+03 0.144E+02 -.847E+03   -.113E+03 -.145E+02 0.839E+03   0.263E+00 0.422E-01 0.696E+01
   0.128E+03 0.927E+02 -.765E+03   -.130E+03 -.928E+02 0.757E+03   0.143E+01 0.643E-01 0.644E+01
   0.535E+02 -.141E+02 0.991E+03   -.541E+02 0.141E+02 -.983E+03   0.485E+00 -.289E-01 -.735E+01
   0.351E+02 -.449E+02 0.101E+04   -.355E+02 0.454E+02 -.100E+04   0.322E+00 -.356E+00 -.723E+01
   0.779E+02 -.504E+02 -.869E+03   -.783E+02 0.504E+02 0.860E+03   0.269E+00 -.174E-01 0.703E+01
   0.155E+03 -.488E+02 -.722E+03   -.159E+03 0.489E+02 0.714E+03   0.239E+01 -.157E-01 0.663E+01
   0.274E+02 -.286E+02 0.961E+03   -.275E+02 0.288E+02 -.952E+03   0.111E+00 -.110E+00 -.723E+01
   0.121E+02 -.255E+02 0.955E+03   -.121E+02 0.257E+02 -.947E+03   0.273E-01 -.118E+00 -.723E+01
   0.250E+02 -.284E+02 -.907E+03   -.250E+02 0.285E+02 0.898E+03   0.229E-01 -.494E-01 0.710E+01
   0.386E+02 -.776E+02 -.870E+03   -.386E+02 0.779E+02 0.862E+03   0.388E-02 -.266E+00 0.703E+01
   -.176E-02 -.744E+01 0.949E+03   0.172E-02 0.747E+01 -.940E+03   0.256E-04 -.179E-01 -.722E+01
   -.952E+01 0.126E+02 0.949E+03   0.955E+01 -.127E+02 -.940E+03   -.247E-01 0.665E-01 -.722E+01
   -.408E-02 0.219E+02 -.907E+03   0.401E-02 -.220E+02 0.898E+03   0.475E-04 0.588E-01 0.709E+01
   -.117E+02 -.106E+02 -.909E+03   0.117E+02 0.106E+02 0.901E+03   -.114E-01 -.864E-02 0.710E+01
   -.583E-02 0.364E+02 0.965E+03   0.574E-02 -.368E+02 -.956E+03   0.671E-04 0.299E+00 -.727E+01
   -.265E+02 0.457E+02 0.987E+03   0.268E+02 -.461E+02 -.978E+03   -.218E+00 0.276E+00 -.724E+01
   -.365E-01 0.133E+03 -.821E+03   0.361E-01 -.135E+03 0.813E+03   0.264E-03 0.146E+01 0.703E+01
   -.240E+02 0.539E+02 -.895E+03   0.241E+02 -.542E+02 0.886E+03   -.362E-01 0.162E+00 0.707E+01
   -.203E-01 0.474E+02 0.105E+04   0.198E-01 -.480E+02 -.104E+04   0.329E-03 0.406E+00 -.554E+01
   -.505E+02 0.115E+02 0.104E+04   0.512E+02 -.117E+02 -.103E+04   -.499E+00 0.124E+00 -.738E+01
   -.979E-01 0.195E+02 -.584E+03   0.971E-01 -.212E+02 0.579E+03   0.766E-03 0.132E+01 0.463E+01
   -.128E+03 0.927E+02 -.765E+03   0.130E+03 -.928E+02 0.757E+03   -.143E+01 0.647E-01 0.645E+01
   -.162E-01 -.272E+02 0.107E+04   0.157E-01 0.276E+02 -.106E+04   0.347E-03 -.258E+00 -.436E+01
   -.351E+02 -.448E+02 0.101E+04   0.355E+02 0.454E+02 -.100E+04   -.322E+00 -.356E+00 -.723E+01
   -.276E-01 -.162E+03 -.735E+03   0.275E-01 0.166E+03 0.727E+03   0.653E-04 -.229E+01 0.619E+01
   -.155E+03 -.488E+02 -.722E+03   0.159E+03 0.488E+02 0.715E+03   -.239E+01 -.161E-01 0.663E+01
[...]
   -.101E+02 0.914E+01 0.708E+03   0.101E+02 -.915E+01 -.712E+03   -.327E-01 0.143E-01 0.310E+01
   0.210E-02 0.632E+01 0.704E+03   -.206E-02 -.632E+01 -.708E+03   -.465E-04 0.547E-02 0.311E+01
   -.185E+02 0.966E+01 -.684E+03   0.185E+02 -.967E+01 0.688E+03   -.242E-01 0.785E-02 -.327E+01
   0.473E-02 0.256E+01 -.686E+03   -.466E-02 -.257E+01 0.690E+03   -.802E-04 0.773E-02 -.326E+01
   -.147E+02 0.235E+01 0.712E+03   0.147E+02 -.236E+01 -.716E+03   -.471E-01 0.111E-01 0.310E+01
   0.348E-02 0.607E+01 0.708E+03   -.342E-02 -.608E+01 -.712E+03   -.731E-04 0.102E-01 0.311E+01
   -.210E+02 -.474E+01 -.682E+03   0.210E+02 0.474E+01 0.687E+03   -.324E-01 0.688E-02 -.328E+01
   0.252E-02 -.831E+01 -.687E+03   -.247E-02 0.831E+01 0.691E+03   -.528E-04 -.128E-03 -.325E+01
   -.121E+02 -.802E+01 0.710E+03   0.121E+02 0.803E+01 -.714E+03   -.438E-01 -.120E-01 0.310E+01
   0.292E-02 -.297E+01 0.709E+03   -.287E-02 0.296E+01 -.713E+03   -.613E-04 0.188E-02 0.311E+01
   -.126E+02 -.117E+02 -.687E+03   0.126E+02 0.117E+02 0.691E+03   -.247E-01 -.985E-02 -.325E+01
   0.110E-02 -.709E+01 -.690E+03   -.107E-02 0.710E+01 0.694E+03   -.272E-04 -.764E-02 -.324E+01
   -.669E+01 -.666E+01 0.705E+03   0.671E+01 0.667E+01 -.709E+03   -.225E-01 -.159E-01 0.311E+01
   0.138E-02 -.762E+01 0.706E+03   -.135E-02 0.763E+01 -.710E+03   -.334E-04 -.111E-01 0.311E+01
   -.683E-03 -.393E+01 0.867E+00   0.958E-12 0.122E-11 0.209E-10   0.739E-03 0.336E+01 -.933E+00

 POSITION                                       TOTAL-FORCE (eV/Angst)
      8.45451      8.98915     13.34135         0.000864     -0.017284     -0.031508
      8.45464     10.77395     15.12987         0.000215     -0.061951     -0.065921
      8.45667     13.37210     15.77041        -0.000954      0.063920     -0.011915
      8.45496     12.78393     13.26751         0.001517     -0.027294     -0.104008
      0.00000      0.00000      9.00000        -0.004822      0.002237      0.595412
      2.11389      2.11389      9.00000        -0.009995     -0.003117      0.596575
      0.00000      2.11389     11.11389        -0.003853      0.001153     -0.561137
      2.11389      0.00000     11.11389        -0.005645      0.002872     -0.559455
      0.00000      4.22777      9.00000        -0.008066     -0.002374      0.597156
      2.11389      6.34166      9.00000        -0.030000     -0.009100      0.604025
      0.00000      6.34166     11.11389        -0.005046     -0.000485     -0.555139
      2.11389      4.22777     11.11389        -0.012115     -0.000569     -0.552485
      0.00000      8.45554      9.00000        -0.015171     -0.003840      0.600451
      2.11389     10.56943      9.00000        -0.050606     -0.005990      0.610785
      0.00000     10.56943     11.11389        -0.006252     -0.002758     -0.550224
      2.11389      8.45554     11.11389        -0.010401     -0.002201     -0.531916
      0.00000     12.68331      9.00000        -0.018838     -0.000441      0.600557
      2.11389     14.79720      9.00000        -0.041882      0.008915      0.604396
      0.00000     14.79720     11.11389        -0.008818     -0.000337     -0.554488
      2.11389     12.68331     11.11389        -0.023104     -0.004629     -0.531104
      0.00000     16.91108      9.00000        -0.011103      0.004483      0.597095
      2.11389     19.02497      9.00000        -0.012471      0.009341      0.596724
      0.00000     19.02497     11.11389        -0.004950      0.002493     -0.560779
      2.11389     16.91108     11.11389        -0.016901      0.004631     -0.550392
      4.22777      0.00000      9.00000        -0.008579      0.004602      0.597766
      6.34166      2.11389      9.00000        -0.008160     -0.019910      0.600336
      4.22777      2.11389     11.11389        -0.007647     -0.005394     -0.553420
      6.34166      0.00000     11.11389        -0.003557      0.002392     -0.552818
      4.22777      4.22777      9.00000        -0.025993     -0.023274      0.600025
      6.34166      6.34166      9.00000        -0.079864     -0.095078      0.591532
      4.22777      6.34166     11.11389        -0.044701      0.006345     -0.508217
      6.34166      4.22777     11.11389        -0.010508     -0.040910     -0.525389
      4.22777      8.45554      9.00000        -0.102311     -0.024363      0.632468
      6.34166     10.56943      9.00000        -0.185103     -0.046817      0.604781
      4.22777     10.56943     11.11389        -0.051287     -0.015830     -0.446286
      6.34166      8.45554     11.11389        -0.547144      0.010102     -0.312930
      4.22777     12.68331      9.00000        -0.137863      0.007612      0.633966
      6.34166     14.79720      9.00000        -0.117729      0.128152      0.579253
      4.22777     14.79720     11.11389        -0.068159      0.000359     -0.498064
      6.34166     12.68331     11.11389        -0.932895     -0.016526     -0.449882
      4.22777     16.91108      9.00000        -0.035489      0.034914      0.601030
      6.34166     19.02497      9.00000        -0.008707      0.035107      0.604102
      4.22777     19.02497     11.11389        -0.007021      0.013739     -0.550515
      6.34166     16.91108     11.11389         0.006034      0.062956     -0.494957
      8.45554      0.00000      9.00000        -0.000005      0.005515      0.600054
     10.56943      2.11389      9.00000         0.008143     -0.019921      0.600340
      8.45554      2.11389     11.11389        -0.000008     -0.014643     -0.546547
     10.56943      0.00000     11.11389         0.003547      0.002388     -0.552825
      8.45554      4.22777      9.00000        -0.000019     -0.085208      0.612761
     10.56943      6.34166      9.00000         0.079815     -0.095121      0.591469
      8.45554      6.34166     11.11389        -0.000094     -0.509363     -0.476582
     10.56943      4.22777     11.11389         0.010475     -0.040984     -0.525423
      8.45554      8.45554      9.00000        -0.000124     -0.101714      0.187449
     10.56943     10.56943      9.00000         0.185019     -0.046825      0.604627
      8.45554     10.56943     11.11389        -0.000025     -0.200211     -0.301422
     10.56943      8.45554     11.11389         0.546385      0.010131     -0.312890
      8.45554     12.68331      9.00000        -0.000130      0.067979     -0.100886
     10.56943     14.79720      9.00000         0.117711      0.128223      0.579285
      8.45554     14.79720     11.11389         0.000046      0.954922     -0.402153
     10.56943     12.68331     11.11389         0.932357     -0.016343     -0.449462
[...]
     19.02497      6.34166     11.11389        -0.000019      0.000996      0.380782
     16.91108      6.34166      9.00000        -0.010672      0.004677     -0.422600
     19.02497      4.22777      9.00000        -0.000013      0.001792     -0.419897
     16.91108      8.45554     11.11389        -0.008149      0.002584      0.373474
     19.02497     10.56943     11.11389        -0.000024      0.002520      0.377472
     16.91108     10.56943      9.00000        -0.015367      0.003616     -0.425265
     19.02497      8.45554      9.00000        -0.000022      0.003314     -0.422226
     16.91108     12.68331     11.11389        -0.010837      0.002241      0.372928
     19.02497     14.79720     11.11389        -0.000015     -0.000041      0.380306
     16.91108     14.79720      9.00000        -0.014273     -0.003889     -0.422733
     19.02497     12.68331      9.00000        -0.000020      0.000643     -0.422253
     16.91108     16.91108     11.11389        -0.008148     -0.003230      0.380634
     19.02497     19.02497     11.11389        -0.000005     -0.002508      0.384870
     16.91108     19.02497      9.00000        -0.007328     -0.005174     -0.419589
     19.02497     16.91108      9.00000        -0.000007     -0.003600     -0.420014
    total drift:                               -0.000437     -0.002894     -0.643639

  FREE ENERGIE OF THE ION-ELECTRON SYSTEM (eV)
  free  energy   TOTEN  =     -1391.34289351 eV

  energy  without entropy=    -1391.34289351  energy(sigma->0) =    -1391.34289351