 vasp.6.3.0 20Jan22 (build Apr  1 2022 16:44:48) complex
 executed on        HPECrayEX_GCC date 2022.10.18  08:56:38

 INCAR:
   SYSTEM = MgO-rocksalt
   ISMEAR = 0
   SIGMA = 0.05
   EDIFF = 1E-6
   ALGO = ALL
   ISTART = 0
   IBRION = -1
   NSW = 0
   ISYM = 2
   DIPOL = 0.5 0.5 0.5
   IDIPOL = 3
   LDIPOL = .TRUE.
   LHFCALC = .TRUE.
   GGA = PE
   IVDW = 12
   VDW_S8 = 1.2177
   VDW_A1 = 0.4145
   VDW_A2 = 4.8593
   ENCUT = 520
   PREC = Accurate
   LASPH = .TRUE.
   LREAL = Auto
   ISPIN = 1
   NELM = 200
   NELMIN = 8
   NCORE = 4
   KPAR = 2
   LWAVE = .FALSE.
   LCHARG = .FALSE.

 POTCAR:    PAW_PBE Au 04Oct2007
 POTCAR:    PAW_PBE Mg_pv 13Apr2007
 POTCAR:    PAW_PBE O 08Apr2002
|           W    W    AA    RRRRR   N    N  II  N    N   GGGG   !!!           |
|           W    W   A  A   R    R  NN   N  II  NN   N  G    G  !!!           |
|           W    W  A    A  R    R  N N  N  II  N N  N  G       !!!           |
|           W WW W  AAAAAA  RRRRR   N  N N  II  N  N N  G  GGG   !            |
|           WW  WW  A    A  R   R   N   NN  II  N   NN  G    G                |
|           W    W  A    A  R    R  N    N  II  N    N   GGGG   !!!           |
|     You have selected ISYM=2 for a HF type calculation. This will           |
|     symmetrize the charge density but not the exchange potential. I         |
|     suggest to use ISYM=3 instead. This uses symmetry to obtain the         |
|     orbitals at all k-points in the Brillouin zone, but does not apply      |
|     symmetry to the Hartree potential directly. The resultant charge        |
|     might have lower symmetry than the crystal but, at least, Hartree       |
|     and exchange are fully compatible.                                      |

   TITEL  = PAW_PBE Au 04Oct2007
   POMASS =  196.966; ZVAL   =   11.000    mass and valenz
   ENMAX  =  229.943; ENMIN  =  172.457 eV

   TITEL  = PAW_PBE Mg_pv 13Apr2007
   POMASS =   24.305; ZVAL   =    8.000    mass and valenz
   ENMAX  =  403.929; ENMIN  =  302.947 eV

   TITEL  = PAW_PBE O 08Apr2002
   POMASS =   16.000; ZVAL   =    6.000    mass and valenz
   ENMAX  =  400.000; ENMIN  =  300.000 eV

 Optimization of the real space projectors (new method)

 maximal supplied QI-value         = 15.12
 optimisation between [QCUT,QGAM] = [ 11.64, 23.28] = [ 37.95,151.78] Ry
 Optimized for a Real-space Cutoff    1.49 Angstroem

   l    n(q)    QCUT    max X(q) W(low)/X(q) W(high)/X(q)  e(spline)
   2      9    11.641    60.898    0.24E-03    0.10E-03    0.19E-06
   2      9    11.641    58.894    0.25E-03    0.10E-03    0.19E-06
   0     10    11.641   109.617    0.73E-04    0.33E-04    0.11E-06
   0     10    11.641    75.026    0.71E-04    0.32E-04    0.11E-06
   1     10    11.641    16.344    0.27E-04    0.97E-04    0.16E-06
   1     10    11.641    10.160    0.23E-04    0.77E-04    0.13E-06
 Optimization of the real space projectors (new method)

[...]

   l    n(q)    QCUT    max X(q) W(low)/X(q) W(high)/X(q)  e(spline)
   1      8    11.527     2.974    0.44E-04    0.56E-04    0.12E-06
   1      8    11.527     4.279    0.12E-03    0.12E-03    0.26E-06
   0      9    11.527    16.381    0.46E-04    0.64E-04    0.78E-07
   0      9    11.527     5.611    0.26E-04    0.43E-04    0.55E-07
   2      8    11.527     4.652    0.22E-03    0.72E-04    0.47E-07
 Optimization of the real space projectors (new method)

 maximal supplied QI-value         = 24.76
 optimisation between [QCUT,QGAM] = [ 11.64, 23.27] = [ 37.91,151.63] Ry
 Optimized for a Real-space Cutoff    1.14 Angstroem

   l    n(q)    QCUT    max X(q) W(low)/X(q) W(high)/X(q)  e(spline)
   0      8    11.635    20.381    0.10E-03    0.33E-03    0.24E-06
   0      8    11.635    15.268    0.11E-03    0.35E-03    0.26E-06
   1      7    11.635     5.964    0.24E-03    0.31E-03    0.30E-06
   1      7    11.635     5.382    0.22E-03    0.25E-03    0.26E-06
  PAW_PBE Au 04Oct2007                  :
  PAW_PBE Mg_pv 13Apr2007               :
  PAW_PBE O 08Apr2002                   :

 POSCAR: Au Mg  O
  positions in direct lattice
 exchange correlation table for  LEXCH =        8
   RHO(1)=    0.500       N(1)  =     2000
   RHO(2)=  100.500       N(2)  =     4000

 ion  position               nearest neighbor table
   1  0.560  0.500  0.629-   2 2.54  73 2.92
   2  0.440  0.500  0.629-   1 2.54  53 2.92
   3  0.000  0.000  0.407- 105 2.11 106 2.11 121 2.11 186 2.11 103 2.11
   4  0.100  0.100  0.407- 105 2.11 106 2.11 110 2.11 125 2.11 104 2.11
   5  0.000  0.100  0.503- 103 2.11 104 2.11 107 2.11 184 2.11 105 2.11
   6  0.100  0.000  0.503- 103 2.11 104 2.11 120 2.11 123 2.11 106 2.11
   7  0.000  0.200  0.407- 109 2.11 105 2.11 110 2.11 190 2.11 107 2.11
   8  0.100  0.300  0.407- 110 2.11 109 2.11 114 2.11 129 2.11 108 2.11
   9  0.000  0.300  0.503- 107 2.11 108 2.11 111 2.11 188 2.11 109 2.11
  10  0.100  0.200  0.503- 108 2.11 107 2.11 104 2.11 127 2.11 110 2.11
  11  0.000  0.400  0.407- 109 2.11 113 2.11 114 2.11 194 2.11 111 2.11
  12  0.100  0.500  0.407- 113 2.11 114 2.11 118 2.11 133 2.11 112 2.11
  13  0.000  0.500  0.503- 111 2.11 112 2.11 115 2.11 192 2.11 113 2.11
  14  0.100  0.400  0.503- 108 2.11 111 2.11 112 2.11 131 2.11 114 2.11
  15  0.000  0.600  0.407- 113 2.11 117 2.11 118 2.11 198 2.11 115 2.11
  16  0.100  0.700  0.407- 122 2.11 118 2.11 117 2.11 137 2.11 116 2.11
  17  0.000  0.700  0.503- 119 2.11 116 2.11 115 2.11 196 2.11 117 2.11
  18  0.100  0.600  0.503- 112 2.11 115 2.11 116 2.11 135 2.11 118 2.11
  19  0.000  0.800  0.407- 117 2.11 121 2.11 122 2.11 202 2.11 119 2.11
  20  0.100  0.900  0.407- 106 2.11 121 2.11 122 2.11 141 2.11 120 2.11
  21  0.000  0.900  0.503- 103 2.11 119 2.11 120 2.11 200 2.11 121 2.11
  22  0.100  0.800  0.503- 116 2.11 119 2.11 120 2.11 139 2.11 122 2.11
  23  0.200  0.000  0.407- 126 2.11 125 2.11 106 2.11 141 2.11 123 2.11
  24  0.300  0.100  0.407- 125 2.11 126 2.11 130 2.11 145 2.11 124 2.11
  25  0.200  0.100  0.503- 124 2.11 123 2.11 104 2.11 127 2.11 125 2.11
  26  0.300  0.000  0.503- 123 2.11 124 2.11 140 2.11 143 2.11 126 2.11
  27  0.200  0.200  0.407- 129 2.11 130 2.11 110 2.11 125 2.11 127 2.11
  28  0.300  0.300  0.407- 129 2.11 130 2.11 134 2.11 149 2.11 128 2.11
  29  0.200  0.300  0.503- 127 2.11 128 2.11 108 2.11 131 2.11 129 2.11
  30  0.300  0.200  0.503- 127 2.11 128 2.11 124 2.11 147 2.11 130 2.11
  31  0.200  0.400  0.407- 134 2.11 129 2.11 133 2.11 114 2.11 131 2.11
  32  0.300  0.500  0.407- 133 2.11 134 2.11 138 2.11 153 2.11 132 2.11
  33  0.200  0.500  0.503- 132 2.11 131 2.11 112 2.11 135 2.11 133 2.11
  34  0.300  0.400  0.503- 131 2.11 128 2.11 132 2.11 151 2.11 134 2.11
  35  0.200  0.600  0.407- 138 2.11 133 2.11 137 2.11 118 2.11 135 2.11
  36  0.300  0.700  0.407- 137 2.11 142 2.11 138 2.11 157 2.11 136 2.11
  37  0.200  0.700  0.503- 136 2.11 139 2.11 116 2.11 135 2.11 137 2.11
  38  0.300  0.600  0.503- 135 2.11 132 2.11 136 2.11 155 2.11 138 2.11
  39  0.200  0.800  0.407- 137 2.11 142 2.11 141 2.11 122 2.11 139 2.11
  40  0.300  0.900  0.407- 141 2.11 126 2.11 142 2.11 161 2.11 140 2.11
  41  0.200  0.900  0.503- 140 2.11 123 2.11 139 2.11 120 2.11 141 2.11
  42  0.300  0.800  0.503- 136 2.11 139 2.11 140 2.11 159 2.11 142 2.11
  43  0.400  0.000  0.407- 126 2.11 145 2.11 146 2.11 161 2.11 143 2.11
  44  0.500  0.100  0.407- 145 2.11 146 2.11 150 2.11 165 2.11 144 2.11
  45  0.400  0.100  0.503- 124 2.11 143 2.11 144 2.11 147 2.11 145 2.11
  46  0.500  0.000  0.503- 143 2.11 144 2.11 160 2.11 163 2.11 146 2.11
  47  0.400  0.200  0.407- 149 2.11 145 2.11 130 2.11 150 2.11 147 2.11
  48  0.500  0.300  0.407- 150 2.11 149 2.11 154 2.11 169 2.11 148 2.11
  49  0.400  0.300  0.503- 147 2.11 128 2.11 148 2.11 151 2.11 149 2.11
  50  0.500  0.200  0.503- 148 2.11 147 2.11 144 2.11 167 2.11 150 2.11
  51  0.400  0.400  0.407- 134 2.11 149 2.11 153 2.11 154 2.11 151 2.11
  52  0.500  0.500  0.407- 153 2.11 154 2.11 158 2.11 173 2.11 152 2.11
  53  0.400  0.500  0.503- 132 2.11 151 2.11 152 2.11 155 2.11 153 2.11   2 2.92
  54  0.500  0.400  0.503- 148 2.11 151 2.11 152 2.11 171 2.11 154 2.11
  55  0.400  0.600  0.407- 138 2.11 153 2.11 157 2.11 158 2.11 155 2.11
  56  0.500  0.700  0.407- 162 2.11 158 2.11 157 2.11 177 2.11 156 2.11
  57  0.400  0.700  0.503- 159 2.11 155 2.11 156 2.11 136 2.11 157 2.11
  58  0.500  0.600  0.503- 152 2.11 155 2.11 156 2.11 175 2.11 158 2.11
  59  0.400  0.800  0.407- 157 2.11 142 2.11 161 2.11 162 2.11 159 2.11
  60  0.500  0.900  0.407- 146 2.11 161 2.11 162 2.11 181 2.11 160 2.11
[...]
 188  0.900  0.300  0.503-  90 2.11  89 2.11   9 2.11  94 2.11  88 2.11
 189  0.800  0.300  0.407-  68 2.11  87 2.11  88 2.11  91 2.11  89 2.11
 190  0.900  0.200  0.407-  88 2.11  84 2.11  87 2.11   7 2.11  90 2.11
 191  0.800  0.400  0.503-  74 2.11  89 2.11  93 2.11  94 2.11  91 2.11
 192  0.900  0.500  0.503-  13 2.11  93 2.11  94 2.11  98 2.11  92 2.11
 193  0.800  0.500  0.407-  72 2.11  91 2.11  92 2.11  95 2.11  93 2.11
 194  0.900  0.400  0.407-  11 2.11  88 2.11  91 2.11  92 2.11  94 2.11
 195  0.800  0.600  0.503-  78 2.11  93 2.11  97 2.11  98 2.11  95 2.11
 196  0.900  0.700  0.503- 102 2.11  97 2.11  98 2.11  17 2.11  96 2.11
 197  0.800  0.700  0.407-  76 2.11  99 2.11  96 2.11  95 2.11  97 2.11
 198  0.900  0.600  0.407-  15 2.11  92 2.11  95 2.11  96 2.11  98 2.11
 199  0.800  0.800  0.503-  82 2.11  97 2.11 101 2.11 102 2.11  99 2.11
 200  0.900  0.900  0.503-  21 2.11  86 2.11 101 2.11 102 2.11 100 2.11
 201  0.800  0.900  0.407-  80 2.11  83 2.11  99 2.11 100 2.11 101 2.11
 202  0.900  0.800  0.407-  96 2.11  19 2.11  99 2.11 100 2.11 102 2.11

  LATTYP: Found a simple tetragonal cell.
 ALAT       =    21.1388521970
 C/A-ratio  =     1.0461251639

  Lattice vectors:

 A1 = (  21.1388521970,   0.0000000000,   0.0000000000)
 A2 = (   0.0000000000,  21.1388521970,   0.0000000000)
 A3 = (   0.0000000000,   0.0000000000,  22.1138852197)

Analysis of symmetry for initial positions (statically):
 Subroutine PRICEL returns:
 Original cell was already a primitive cell.

 Routine SETGRP: Setting up the symmetry group for a
 simple tetragonal supercell.

 Subroutine GETGRP returns: Found  4 space group operations
 (whereof  4 operations were pure point group operations)
 out of a pool of 16 trial point group operations.

The static configuration has the point symmetry C_2v.

Analysis of symmetry for dynamics (positions and initial velocities):
 Subroutine PRICEL returns:
 Original cell was already a primitive cell.

 Routine SETGRP: Setting up the symmetry group for a
 simple tetragonal supercell.

 Subroutine GETGRP returns: Found  4 space group operations
 (whereof  4 operations were pure point group operations)
 out of a pool of 16 trial point group operations.

The dynamic configuration has the point symmetry C_2v.

 Subroutine INISYM returns: Found  4 space group operations
 (whereof  4 operations are pure point group operations),
 and found     1 'primitive' translations

                                     Primitive cell

  volume of cell :    9881.6133

  direct lattice vectors                    reciprocal lattice vectors
[...]
[...]
    946       6.6499      0.00000
    947       6.6738      0.00000
    948       6.6755      0.00000
    949       6.7180      0.00000
    950       6.7391      0.00000
    951       6.7706      0.00000
    952       6.8227      0.00000
    953       6.9212      0.00000
    954       7.0409      0.00000
    955       7.0752      0.00000
    956       7.1235      0.00000
    957       7.3059      0.00000
    958       7.3883      0.00000
    959       7.4455      0.00000
    960       7.6850      0.00000

 soft charge-density along one line, spin component           1
         0         1         2         3         4         5         6         7         8         9
 total charge-density along one line

------------------------ aborting loop because EDIFF is reached ----------------------------------------

|           W    W    AA    RRRRR   N    N  II  N    N   GGGG   !!!           |
|           W    W   A  A   R    R  NN   N  II  NN   N  G    G  !!!           |
|           W    W  A    A  R    R  N N  N  II  N N  N  G       !!!           |
|           W WW W  AAAAAA  RRRRR   N  N N  II  N  N N  G  GGG   !            |
|           WW  WW  A    A  R   R   N   NN  II  N   NN  G    G                |
|           W    W  A    A  R    R  N    N  II  N    N   GGGG   !!!           |
|     Specifying the vdW parameters                                           |
|     VDW_A1 = 0.414                                                          |
|     VDW_A2 = 4.859                                                          |
|     VDW_S8 = 1.218                                                          |
|     in the INCAR file will overwrite the defaults for pbe0. Please make     |
|     sure that is what you intended.                                         |

         DFTD3 V3.0 Rev 1
 IVDW         = 12
 DF pbe0
 parameters
 VDW_S6       =    1.0000
 VDW_S8       =    1.2177
 VDW_A1       =    0.4145
 VDW_A2       =    4.8593
 k1-k3        =   16.0000    1.3333   -4.0000
 VDW_RADIUS   =   50.2022 A
 VDW_CNRADIUS =   21.1671 A
 Edisp (eV)  -32.57496

 E6    (eV) :   -16.0900
 E8    (eV) :   -16.4850
 % E8        : 50.61

 VOLUME and BASIS-vectors are now :
  energy-cutoff  :      520.00
  volume of cell :     9881.61
      direct lattice vectors                 reciprocal lattice vectors
    21.138852197  0.000000000  0.000000000     0.047306258  0.000000000  0.000000000
     0.000000000 21.138852197  0.000000000     0.000000000  0.047306258  0.000000000
     0.000000000  0.000000000 22.113885220     0.000000000  0.000000000  0.045220457

  length of vectors
    21.138852197 21.138852197 22.113885220     0.047306258  0.047306258  0.045220457

 FORCES acting on ions:
    Electron-Ion                     Ewald-Force                    Non-Local-Force
   -.274E+03 -.245E-05 -.203E+04   0.267E+03 0.118E-07 0.203E+04   0.689E+01 0.000E+00 0.182E+00
   0.274E+03 -.245E-05 -.203E+04   -.267E+03 0.118E-07 0.203E+04   -.689E+01 0.000E+00 0.182E+00
   0.107E-12 -.267E-08 0.932E+03   0.764E-13 0.711E-08 -.923E+03   0.000E+00 0.000E+00 -.709E+01
   0.375E+01 0.413E+01 0.933E+03   -.375E+01 -.414E+01 -.924E+03   -.199E-02 0.651E-02 -.709E+01
   0.114E-12 0.441E+01 -.923E+03   0.103E-12 -.442E+01 0.915E+03   0.000E+00 0.632E-02 0.707E+01
   0.392E+01 -.381E-08 -.923E+03   -.392E+01 0.101E-07 0.915E+03   -.313E-02 0.000E+00 0.707E+01
   0.127E-12 0.610E+01 0.933E+03   0.153E-10 -.611E+01 -.925E+03   0.000E+00 0.107E-01 -.709E+01
   0.787E+01 0.783E+01 0.937E+03   -.787E+01 -.786E+01 -.928E+03   0.338E-02 0.152E-01 -.709E+01
   0.120E-12 0.822E+01 -.921E+03   0.181E-11 -.824E+01 0.912E+03   -.132E-22 0.129E-01 0.707E+01
   0.714E+01 0.921E+01 -.921E+03   -.714E+01 -.923E+01 0.913E+03   -.183E-02 0.137E-01 0.707E+01
   0.114E-12 0.423E+01 0.937E+03   -.174E-10 -.424E+01 -.928E+03   0.000E+00 0.810E-02 -.709E+01
   0.116E+02 0.412E-08 0.940E+03   -.116E+02 -.109E-07 -.932E+03   0.215E-01 0.000E+00 -.709E+01
   0.126E-12 0.424E-08 -.919E+03   0.120E-12 -.113E-07 0.910E+03   0.000E+00 0.000E+00 0.707E+01
   0.158E+02 0.726E+01 -.917E+03   -.158E+02 -.727E+01 0.909E+03   0.181E-01 0.125E-01 0.707E+01
   0.123E-12 -.423E+01 0.937E+03   0.116E-11 0.424E+01 -.928E+03   -.331E-23 -.810E-02 -.709E+01
   0.787E+01 -.783E+01 0.937E+03   -.787E+01 0.786E+01 -.928E+03   0.338E-02 -.152E-01 -.709E+01
   0.117E-12 -.822E+01 -.921E+03   -.785E-12 0.824E+01 0.912E+03   0.000E+00 -.129E-01 0.707E+01
   0.158E+02 -.726E+01 -.917E+03   -.158E+02 0.727E+01 0.909E+03   0.181E-01 -.125E-01 0.707E+01
   0.112E-12 -.610E+01 0.933E+03   0.853E-12 0.611E+01 -.925E+03   0.000E+00 -.107E-01 -.709E+01
   0.375E+01 -.413E+01 0.933E+03   -.375E+01 0.414E+01 -.924E+03   -.199E-02 -.651E-02 -.709E+01
   0.115E-12 -.441E+01 -.923E+03   -.867E-12 0.442E+01 0.915E+03   0.165E-23 -.632E-02 0.707E+01
   0.714E+01 -.921E+01 -.921E+03   -.714E+01 0.923E+01 0.913E+03   -.183E-02 -.137E-01 0.707E+01
   0.538E+01 -.414E-08 0.933E+03   -.537E+01 0.110E-07 -.925E+03   -.425E-02 0.000E+00 -.709E+01
   0.678E+01 0.798E+01 0.936E+03   -.677E+01 -.799E+01 -.927E+03   -.536E-02 0.897E-02 -.709E+01
   0.812E+01 0.755E+01 -.922E+03   -.811E+01 -.756E+01 0.913E+03   -.638E-02 0.794E-02 0.707E+01
   0.697E+01 -.774E-08 -.921E+03   -.696E+01 0.206E-07 0.913E+03   -.665E-02 0.000E+00 0.707E+01
   0.948E+01 0.104E+02 0.937E+03   -.948E+01 -.104E+02 -.928E+03   -.218E-02 0.165E-01 -.709E+01
   0.179E+02 0.199E+02 0.951E+03   -.180E+02 -.200E+02 -.942E+03   0.235E-02 0.359E-01 -.709E+01
   0.226E+02 0.184E+02 -.914E+03   -.226E+02 -.184E+02 0.905E+03   0.393E-03 0.329E-01 0.707E+01
   0.155E+02 0.232E+02 -.915E+03   -.155E+02 -.232E+02 0.906E+03   -.142E-01 0.217E-01 0.706E+01
   0.207E+02 0.882E+01 0.947E+03   -.208E+02 -.885E+01 -.939E+03   0.178E-01 0.234E-01 -.708E+01
   0.328E+02 0.137E-07 0.971E+03   -.328E+02 -.363E-07 -.963E+03   -.579E-02 0.000E+00 -.698E+01
   0.422E+02 0.124E-07 -.904E+03   -.423E+02 -.330E-07 0.895E+03   0.845E-01 0.000E+00 0.708E+01
   0.589E+02 0.353E+02 -.880E+03   -.589E+02 -.355E+02 0.871E+03   0.257E-01 0.972E-01 0.709E+01
   0.207E+02 -.882E+01 0.947E+03   -.208E+02 0.885E+01 -.939E+03   0.178E-01 -.234E-01 -.708E+01
   0.179E+02 -.199E+02 0.951E+03   -.180E+02 0.200E+02 -.942E+03   0.235E-02 -.359E-01 -.709E+01
   0.226E+02 -.184E+02 -.914E+03   -.226E+02 0.184E+02 0.905E+03   0.393E-03 -.329E-01 0.707E+01
   0.589E+02 -.353E+02 -.880E+03   -.589E+02 0.355E+02 0.871E+03   0.257E-01 -.972E-01 0.709E+01
   0.948E+01 -.104E+02 0.937E+03   -.948E+01 0.104E+02 -.928E+03   -.218E-02 -.165E-01 -.709E+01
   0.678E+01 -.798E+01 0.936E+03   -.677E+01 0.799E+01 -.927E+03   -.536E-02 -.897E-02 -.709E+01
   0.812E+01 -.755E+01 -.922E+03   -.811E+01 0.756E+01 0.913E+03   -.638E-02 -.794E-02 0.707E+01
   0.155E+02 -.232E+02 -.915E+03   -.155E+02 0.232E+02 0.906E+03   -.142E-01 -.217E-01 0.706E+01
   0.358E+01 -.712E-08 0.936E+03   -.358E+01 0.189E-07 -.927E+03   -.343E-02 0.132E-22 -.709E+01
   -.237E-12 0.111E+02 0.939E+03   0.387E-11 -.111E+02 -.930E+03   0.000E+00 0.558E-02 -.710E+01
   0.584E+01 0.147E+02 -.918E+03   -.583E+01 -.147E+02 0.910E+03   -.616E-02 0.742E-03 0.706E+01
   -.258E-12 -.109E-07 -.920E+03   0.622E-14 0.291E-07 0.911E+03   0.000E+00 0.000E+00 0.707E+01
   0.727E+01 0.205E+02 0.945E+03   -.726E+01 -.205E+02 -.937E+03   -.576E-02 0.270E-01 -.710E+01
   -.235E-12 0.329E+02 0.966E+03   -.579E-11 -.329E+02 -.957E+03   0.165E-22 0.302E-01 -.713E+01
   0.249E+02 0.582E+02 -.887E+03   -.248E+02 -.583E+02 0.879E+03   -.396E-01 0.725E-01 0.704E+01
   -.257E-12 0.375E+02 -.908E+03   -.193E-10 -.375E+02 0.900E+03   -.265E-22 -.153E-01 0.705E+01
   0.217E+02 0.256E+02 0.986E+03   -.217E+02 -.256E+02 -.977E+03   -.382E-02 0.173E-01 -.701E+01
   -.234E-12 0.276E-07 0.102E+04   -.104E-12 -.735E-07 -.101E+04   0.000E+00 0.000E+00 -.716E+01
   0.913E+02 0.965E-07 -.745E+03   -.911E+02 -.257E-06 0.737E+03   -.198E+00 0.265E-22 0.588E+01
   -.257E-12 0.101E+03 -.792E+03   0.215E-10 -.101E+03 0.784E+03   0.000E+00 0.392E-01 0.675E+01
   0.217E+02 -.256E+02 0.986E+03   -.217E+02 0.256E+02 -.977E+03   -.382E-02 -.173E-01 -.701E+01
   -.245E-12 -.329E+02 0.966E+03   -.183E-10 0.329E+02 -.957E+03   0.000E+00 -.302E-01 -.713E+01
   0.249E+02 -.582E+02 -.887E+03   -.248E+02 0.583E+02 0.879E+03   -.396E-01 -.725E-01 0.704E+01
   -.269E-12 -.101E+03 -.792E+03   0.183E-10 0.101E+03 0.784E+03   0.000E+00 -.392E-01 0.675E+01
   0.727E+01 -.205E+02 0.945E+03   -.726E+01 0.205E+02 -.937E+03   -.576E-02 -.270E-01 -.710E+01
   -.235E-12 -.111E+02 0.939E+03   0.203E-10 0.111E+02 -.930E+03   0.000E+00 -.558E-02 -.710E+01
[...]
   -.111E+02 0.916E+01 0.707E+03   0.111E+02 -.918E+01 -.711E+03   -.495E-02 0.255E-01 0.310E+01
   -.402E+01 0.537E+01 0.702E+03   0.402E+01 -.538E+01 -.706E+03   -.135E-04 0.128E-01 0.309E+01
   -.265E+02 0.109E+02 -.682E+03   0.265E+02 -.110E+02 0.686E+03   -.328E-01 0.422E-01 -.310E+01
   -.134E+02 0.433E-08 -.688E+03   0.134E+02 -.115E-07 0.692E+03   -.196E-01 0.132E-22 -.311E+01
   -.177E+02 0.537E-08 0.714E+03   0.178E+02 -.143E-07 -.718E+03   -.410E-01 0.000E+00 0.313E+01
   -.784E+01 0.394E+01 0.705E+03   0.786E+01 -.395E+01 -.709E+03   -.124E-01 0.145E-01 0.310E+01
   -.265E+02 -.109E+02 -.682E+03   0.265E+02 0.110E+02 0.686E+03   -.328E-01 -.422E-01 -.310E+01
   -.841E+01 -.784E+01 -.691E+03   0.842E+01 0.785E+01 0.695E+03   -.624E-02 -.201E-01 -.312E+01
   -.111E+02 -.916E+01 0.707E+03   0.111E+02 0.918E+01 -.711E+03   -.495E-02 -.255E-01 0.310E+01
   -.784E+01 -.394E+01 0.705E+03   0.786E+01 0.395E+01 -.709E+03   -.124E-01 -.145E-01 0.310E+01
   -.983E+01 -.108E+02 -.690E+03   0.983E+01 0.108E+02 0.694E+03   0.330E-02 -.166E-01 -.312E+01
   -.353E+01 -.390E+01 -.693E+03   0.352E+01 0.390E+01 0.697E+03   0.237E-02 -.665E-02 -.312E+01
   -.478E+01 -.427E+01 0.702E+03   0.477E+01 0.428E+01 -.706E+03   0.383E-02 -.737E-02 0.309E+01
   -.402E+01 -.537E+01 0.702E+03   0.402E+01 0.538E+01 -.706E+03   -.135E-04 -.128E-01 0.309E+01
   0.744E-11 -.494E-05 0.759E+01   0.810E-12 0.973E-12 0.148E-10   0.173E-15 -.139E-16 -.713E+01

 POSITION                                       TOTAL-FORCE (eV/Angst)
     11.83780     10.56943     13.91372        -0.098063      0.000000      0.054247
      9.30105     10.56943     13.91372         0.098063      0.000000      0.054247
      0.00000      0.00000      9.00000        -0.000000      0.000000      0.601808
      2.11389      2.11389      9.00000         0.000645     -0.002049      0.601787
      0.00000      2.11389     11.11389        -0.000000     -0.001995     -0.597397
      2.11389      0.00000     11.11389         0.001025      0.000000     -0.597340
      0.00000      4.22777      9.00000        -0.000000     -0.003431      0.601404
      2.11389      6.34166      9.00000        -0.001088     -0.004960      0.600749
      0.00000      6.34166     11.11389        -0.000000     -0.004221     -0.597426
      2.11389      4.22777     11.11389         0.000653     -0.004294     -0.597116
      0.00000      8.45554      9.00000        -0.000000     -0.002718      0.600689
      2.11389     10.56943      9.00000        -0.006199      0.000000      0.600294
      0.00000     10.56943     11.11389        -0.000000      0.000000     -0.597894
      2.11389      8.45554     11.11389        -0.005241     -0.004131     -0.597922
      0.00000     12.68331      9.00000        -0.000000      0.002718      0.600689
      2.11389     14.79720      9.00000        -0.001088      0.004960      0.600749
      0.00000     14.79720     11.11389        -0.000000      0.004221     -0.597426
      2.11389     12.68331     11.11389        -0.005241      0.004131     -0.597922
      0.00000     16.91108      9.00000        -0.000000      0.003431      0.601404
      2.11389     19.02497      9.00000         0.000645      0.002049      0.601787
      0.00000     19.02497     11.11389        -0.000000      0.001995     -0.597397
      2.11389     16.91108     11.11389         0.000653      0.004294     -0.597116
      4.22777      0.00000      9.00000         0.001419      0.000000      0.602172
      6.34166      2.11389      9.00000         0.001853     -0.002614      0.602762
      4.22777      2.11389     11.11389         0.002140     -0.002354     -0.596675
      6.34166      0.00000     11.11389         0.002258      0.000000     -0.596270
      4.22777      4.22777      9.00000         0.000771     -0.005052      0.601899
      6.34166      6.34166      9.00000        -0.000435     -0.010681      0.602662
      4.22777      6.34166     11.11389         0.000881     -0.009822     -0.596542
      6.34166      4.22777     11.11389         0.005313     -0.005493     -0.593730
      4.22777      8.45554      9.00000        -0.005450     -0.007971      0.598000
      6.34166     10.56943      9.00000         0.006014      0.000000      0.573453
      4.22777     10.56943     11.11389        -0.027581      0.000000     -0.599538
      6.34166      8.45554     11.11389         0.003096     -0.024946     -0.592402
      4.22777     12.68331      9.00000        -0.005450      0.007971      0.598000
      6.34166     14.79720      9.00000        -0.000435      0.010681      0.602662
      4.22777     14.79720     11.11389         0.000881      0.009822     -0.596542
      6.34166     12.68331     11.11389         0.003096      0.024946     -0.592402
      4.22777     16.91108      9.00000         0.000771      0.005052      0.601899
      6.34166     19.02497      9.00000         0.001853      0.002614      0.602762
      4.22777     19.02497     11.11389         0.002140      0.002354     -0.596675
      6.34166     16.91108     11.11389         0.005313      0.005493     -0.593730
      8.45554      0.00000      9.00000         0.001177      0.000000      0.602894
     10.56943      2.11389      9.00000        -0.000000     -0.001648      0.603655
      8.45554      2.11389     11.11389         0.002262      0.000422     -0.594445
     10.56943      0.00000     11.11389        -0.000000      0.000000     -0.595444
      8.45554      4.22777      9.00000         0.002364     -0.007407      0.606230
     10.56943      6.34166      9.00000        -0.000000     -0.008691      0.615410
      8.45554      6.34166     11.11389         0.021299     -0.015169     -0.564915
     10.56943      4.22777     11.11389        -0.000000      0.008643     -0.586406
      8.45554      8.45554      9.00000         0.005328      0.000856      0.583067
     10.56943     10.56943      9.00000        -0.000000      0.000000      0.589497
      8.45554     10.56943     11.11389         0.007098      0.000000     -0.640467
     10.56943      8.45554     11.11389        -0.000000      0.016244     -0.393972
      8.45554     12.68331      9.00000         0.005328     -0.000856      0.583067
     10.56943     14.79720      9.00000        -0.000000      0.008691      0.615410
      8.45554     14.79720     11.11389         0.021299      0.015169     -0.564915
     10.56943     12.68331     11.11389        -0.000000     -0.016244     -0.393972
      8.45554     16.91108      9.00000         0.002364      0.007407      0.606230
     10.56943     19.02497      9.00000        -0.000000      0.001648      0.603655
[...]
     19.02497      6.34166     11.11389        -0.002145      0.006701      0.409883
     16.91108      6.34166      9.00000        -0.001765      0.008574     -0.412922
     19.02497      4.22777      9.00000        -0.000030      0.004286     -0.413796
     16.91108      8.45554     11.11389        -0.011958      0.014401      0.414381
     19.02497     10.56943     11.11389        -0.006723      0.000000      0.411105
     16.91108     10.56943      9.00000        -0.014713      0.000000     -0.402800
     19.02497      8.45554      9.00000        -0.004192      0.004838     -0.412224
     16.91108     12.68331     11.11389        -0.011958     -0.014401      0.414381
     19.02497     14.79720     11.11389        -0.002145     -0.006701      0.409883
     16.91108     14.79720      9.00000        -0.001765     -0.008574     -0.412922
     19.02497     12.68331      9.00000        -0.004192     -0.004838     -0.412224
     16.91108     16.91108     11.11389         0.000987     -0.005603      0.408644
     19.02497     19.02497     11.11389         0.000772     -0.002209      0.409468
     16.91108     19.02497      9.00000         0.001249     -0.002466     -0.414344
     19.02497     16.91108      9.00000        -0.000030     -0.004286     -0.413796
    total drift:                                0.000000     -0.000005     -0.531858

  FREE ENERGIE OF THE ION-ELECTRON SYSTEM (eV)
  free  energy   TOTEN  =     -1455.66616589 eV

  energy  without entropy=    -1455.66616589  energy(sigma->0) =    -1455.66616589