 vasp.6.3.0 20Jan22 (build Apr  1 2022 16:44:48) complex
 executed on        HPECrayEX_GCC date 2023.01.10  00:51:13

 INCAR:
   SYSTEM = MgO-rocksalt
   ISMEAR = 0
   SIGMA = 0.05
   EDIFF = 1E-6
   ALGO = ALL
   ISTART = 0
   IBRION = -1
   NSW = 0
   ISYM = 2
   DIPOL = 0.5 0.5 0.5
   IDIPOL = 3
   LDIPOL = .TRUE.
   METAGGA = SCAN
   LUSE_VDW = .TRUE.
   BPARAM = 15.7
   CPARAM = 0.0093
   ENCUT = 520
   PREC = Accurate
   LASPH = .TRUE.
   LREAL = Auto
   ISPIN = 1
   NELM = 200
   NELMIN = 8
   NCORE = 4
   KPAR = 2
   LWAVE = .FALSE.
   LCHARG = .FALSE.

 POTCAR:    PAW_PBE Cu 22Jun2005
 POTCAR:    PAW_PBE Mg_pv 13Apr2007
 POTCAR:    PAW_PBE O 08Apr2002
|               ----> ADVICE to this user running VASP <----                  |
|     You have switched on vdW-DFT.                                           |
|     This routine was written and supplied by Jiri Klimes. We recommend      |
|     that you carefully read and cite the following publications:            |
|       J. Klimes, D.R. Bowler, A. Michelides                                 |
|          J. Phys.: Cond Matt. 22 022201 (2010)                              |
|       J. Klimes, D.R. Bowler, A. Michelides                                 |
|          Phys. Rev. B. 83, 195131 (2011)                                    |
|     and references therein.                                                 |

   TITEL  = PAW_PBE Cu 22Jun2005
   POMASS =   63.546; ZVAL   =   11.000    mass and valenz
   ENMAX  =  295.446; ENMIN  =  221.585 eV

   TITEL  = PAW_PBE Mg_pv 13Apr2007
   POMASS =   24.305; ZVAL   =    8.000    mass and valenz
   ENMAX  =  403.929; ENMIN  =  302.947 eV

   TITEL  = PAW_PBE O 08Apr2002
   POMASS =   16.000; ZVAL   =    6.000    mass and valenz
   ENMAX  =  400.000; ENMIN  =  300.000 eV

 Optimization of the real space projectors (new method)

 maximal supplied QI-value         = 16.25
 optimisation between [QCUT,QGAM] = [ 11.54, 23.24] = [ 37.28,151.24] Ry
 Optimized for a Real-space Cutoff    1.53 Angstroem

   l    n(q)    QCUT    max X(q) W(low)/X(q) W(high)/X(q)  e(spline)
   2     10    11.539     4.610    0.96E-04    0.13E-03    0.19E-06
   2     10    11.539     8.522    0.16E-03    0.21E-03    0.28E-06
   0     11    11.539    51.609    0.45E-04    0.31E-04    0.11E-06
   0     11    11.539    27.747    0.39E-04    0.29E-04    0.10E-06
   1     10    11.539    20.408    0.70E-05    0.38E-04    0.18E-06
   1     10    11.539    13.425    0.66E-05    0.34E-04    0.17E-06
 Optimization of the real space projectors (new method)

[...]

   l    n(q)    QCUT    max X(q) W(low)/X(q) W(high)/X(q)  e(spline)
   1      8    11.527     2.974    0.44E-04    0.56E-04    0.12E-06
   1      8    11.527     4.279    0.12E-03    0.12E-03    0.26E-06
   0      9    11.527    16.381    0.46E-04    0.64E-04    0.78E-07
   0      9    11.527     5.611    0.26E-04    0.43E-04    0.55E-07
   2      8    11.527     4.652    0.22E-03    0.72E-04    0.47E-07
 Optimization of the real space projectors (new method)

 maximal supplied QI-value         = 24.76
 optimisation between [QCUT,QGAM] = [ 11.64, 23.27] = [ 37.91,151.63] Ry
 Optimized for a Real-space Cutoff    1.14 Angstroem

   l    n(q)    QCUT    max X(q) W(low)/X(q) W(high)/X(q)  e(spline)
   0      8    11.635    20.381    0.10E-03    0.33E-03    0.24E-06
   0      8    11.635    15.268    0.11E-03    0.35E-03    0.26E-06
   1      7    11.635     5.964    0.24E-03    0.31E-03    0.30E-06
   1      7    11.635     5.382    0.22E-03    0.25E-03    0.26E-06
  PAW_PBE Cu 22Jun2005                  :
  PAW_PBE Mg_pv 13Apr2007               :
  PAW_PBE O 08Apr2002                   :

 POSCAR: Cu Mg  O
  positions in direct lattice
  velocities in cartesian coordinates

 METAGGA = SCAN     LMAXTAU =  6    LMIXTAU =  F

 ion  position               nearest neighbor table
   1  0.398  0.602  0.598- 157 2.11   2 2.32
   2  0.321  0.679  0.599- 138 2.22   1 2.32
   3  0.579  0.421  0.599- 173 2.22   4 2.32
   4  0.502  0.498  0.598- 154 2.11   3 2.32
   5  0.000  0.000  0.407- 107 2.11 108 2.11 123 2.11 188 2.11 105 2.11
   6  0.100  0.100  0.407- 107 2.11 108 2.11 112 2.11 127 2.11 106 2.11
   7  0.000  0.100  0.503- 105 2.11 106 2.11 109 2.11 186 2.11 107 2.11
   8  0.100  0.000  0.503- 105 2.11 106 2.11 122 2.11 125 2.11 108 2.11
   9  0.000  0.200  0.407- 111 2.11 107 2.11 112 2.11 192 2.11 109 2.11
  10  0.100  0.300  0.407- 112 2.11 111 2.11 116 2.11 131 2.11 110 2.11
  11  0.000  0.300  0.503- 109 2.11 110 2.11 113 2.11 190 2.11 111 2.11
  12  0.100  0.200  0.503- 110 2.11 109 2.11 106 2.11 129 2.11 112 2.11
  13  0.000  0.400  0.407- 111 2.11 115 2.11 116 2.11 196 2.11 113 2.11
  14  0.100  0.500  0.407- 115 2.11 116 2.11 120 2.11 135 2.11 114 2.11
  15  0.000  0.500  0.503- 113 2.11 114 2.11 117 2.11 194 2.11 115 2.11
  16  0.100  0.400  0.503- 110 2.11 113 2.11 114 2.11 133 2.11 116 2.11
  17  0.000  0.600  0.407- 115 2.11 119 2.11 120 2.11 200 2.11 117 2.11
  18  0.100  0.700  0.407- 124 2.11 120 2.11 119 2.11 139 2.11 118 2.11
  19  0.000  0.700  0.503- 121 2.11 118 2.11 117 2.11 198 2.11 119 2.11
  20  0.100  0.600  0.503- 114 2.11 117 2.11 118 2.11 137 2.11 120 2.11
  21  0.000  0.800  0.407- 119 2.11 123 2.11 124 2.11 204 2.11 121 2.11
  22  0.100  0.900  0.407- 108 2.11 123 2.11 124 2.11 143 2.11 122 2.11
  23  0.000  0.900  0.503- 105 2.11 121 2.11 122 2.11 202 2.11 123 2.11
  24  0.100  0.800  0.503- 118 2.11 121 2.11 122 2.11 141 2.11 124 2.11
  25  0.200  0.000  0.407- 128 2.11 127 2.11 108 2.11 143 2.11 125 2.11
  26  0.300  0.100  0.407- 127 2.11 128 2.11 132 2.11 147 2.11 126 2.11
  27  0.200  0.100  0.503- 126 2.11 125 2.11 106 2.11 129 2.11 127 2.11
  28  0.300  0.000  0.503- 125 2.11 126 2.11 142 2.11 145 2.11 128 2.11
  29  0.200  0.200  0.407- 131 2.11 132 2.11 112 2.11 127 2.11 129 2.11
  30  0.300  0.300  0.407- 131 2.11 132 2.11 136 2.11 151 2.11 130 2.11
  31  0.200  0.300  0.503- 129 2.11 130 2.11 110 2.11 133 2.11 131 2.11
  32  0.300  0.200  0.503- 129 2.11 130 2.11 126 2.11 149 2.11 132 2.11
  33  0.200  0.400  0.407- 136 2.11 131 2.11 135 2.11 116 2.11 133 2.11
  34  0.300  0.500  0.407- 135 2.11 136 2.11 140 2.11 155 2.11 134 2.11
  35  0.200  0.500  0.503- 134 2.11 133 2.11 114 2.11 137 2.11 135 2.11
  36  0.300  0.400  0.503- 133 2.11 130 2.11 134 2.11 153 2.11 136 2.11
  37  0.200  0.600  0.407- 140 2.11 135 2.11 139 2.11 120 2.11 137 2.11
  38  0.300  0.700  0.407- 139 2.11 144 2.11 140 2.11 159 2.11 138 2.11
  39  0.200  0.700  0.503- 138 2.11 141 2.11 118 2.11 137 2.11 139 2.11
  40  0.300  0.600  0.503- 137 2.11 134 2.11 138 2.11 157 2.11 140 2.11
  41  0.200  0.800  0.407- 139 2.11 144 2.11 143 2.11 124 2.11 141 2.11
  42  0.300  0.900  0.407- 143 2.11 128 2.11 144 2.11 163 2.11 142 2.11
  43  0.200  0.900  0.503- 142 2.11 125 2.11 141 2.11 122 2.11 143 2.11
  44  0.300  0.800  0.503- 138 2.11 141 2.11 142 2.11 161 2.11 144 2.11
  45  0.400  0.000  0.407- 128 2.11 147 2.11 148 2.11 163 2.11 145 2.11
  46  0.500  0.100  0.407- 147 2.11 148 2.11 152 2.11 167 2.11 146 2.11
  47  0.400  0.100  0.503- 126 2.11 145 2.11 146 2.11 149 2.11 147 2.11
  48  0.500  0.000  0.503- 145 2.11 146 2.11 162 2.11 165 2.11 148 2.11
  49  0.400  0.200  0.407- 151 2.11 147 2.11 132 2.11 152 2.11 149 2.11
  50  0.500  0.300  0.407- 152 2.11 151 2.11 156 2.11 171 2.11 150 2.11
  51  0.400  0.300  0.503- 149 2.11 130 2.11 150 2.11 153 2.11 151 2.11
  52  0.500  0.200  0.503- 150 2.11 149 2.11 146 2.11 169 2.11 152 2.11
  53  0.400  0.400  0.407- 136 2.11 151 2.11 155 2.11 156 2.11 153 2.11
  54  0.500  0.500  0.407- 155 2.11 156 2.11 160 2.11 175 2.11 154 2.11
  55  0.400  0.500  0.503- 134 2.11 153 2.11 154 2.11 157 2.11 155 2.11
  56  0.500  0.400  0.503- 150 2.11 153 2.11 154 2.11 173 2.11 156 2.11
  57  0.400  0.600  0.407- 140 2.11 155 2.11 159 2.11 160 2.11 157 2.11
  58  0.500  0.700  0.407- 164 2.11 160 2.11 159 2.11 179 2.11 158 2.11
  59  0.400  0.700  0.503- 161 2.11 157 2.11 158 2.11 138 2.11 159 2.11
  60  0.500  0.600  0.503- 154 2.11 157 2.11 158 2.11 177 2.11 160 2.11
[...]
 190  0.900  0.300  0.503-  92 2.11  91 2.11  11 2.11  96 2.11  90 2.11
 191  0.800  0.300  0.407-  70 2.11  89 2.11  90 2.11  93 2.11  91 2.11
 192  0.900  0.200  0.407-  90 2.11  86 2.11  89 2.11   9 2.11  92 2.11
 193  0.800  0.400  0.503-  76 2.11  91 2.11  95 2.11  96 2.11  93 2.11
 194  0.900  0.500  0.503-  15 2.11  95 2.11  96 2.11 100 2.11  94 2.11
 195  0.800  0.500  0.407-  74 2.11  93 2.11  94 2.11  97 2.11  95 2.11
 196  0.900  0.400  0.407-  13 2.11  90 2.11  93 2.11  94 2.11  96 2.11
 197  0.800  0.600  0.503-  80 2.11  95 2.11  99 2.11 100 2.11  97 2.11
 198  0.900  0.700  0.503- 104 2.11  99 2.11 100 2.11  19 2.11  98 2.11
 199  0.800  0.700  0.407-  78 2.11 101 2.11  98 2.11  97 2.11  99 2.11
 200  0.900  0.600  0.407-  17 2.11  94 2.11  97 2.11  98 2.11 100 2.11
 201  0.800  0.800  0.503-  84 2.11  99 2.11 103 2.11 104 2.11 101 2.11
 202  0.900  0.900  0.503-  23 2.11  88 2.11 103 2.11 104 2.11 102 2.11
 203  0.800  0.900  0.407-  82 2.11  85 2.11 101 2.11 102 2.11 103 2.11
 204  0.900  0.800  0.407-  98 2.11  21 2.11 101 2.11 102 2.11 104 2.11

  LATTYP: Found a simple tetragonal cell.
 ALAT       =    21.1388521970
 C/A-ratio  =     1.0461251639

  Lattice vectors:

 A1 = (  21.1388521970,   0.0000000000,   0.0000000000)
 A2 = (   0.0000000000,  21.1388521970,   0.0000000000)
 A3 = (   0.0000000000,   0.0000000000,  22.1138852197)

Analysis of symmetry for initial positions (statically):
 Subroutine PRICEL returns:
 Original cell was already a primitive cell.

 Routine SETGRP: Setting up the symmetry group for a
 simple tetragonal supercell.

 Subroutine GETGRP returns: Found  2 space group operations
 (whereof  1 operations were pure point group operations)
 out of a pool of 16 trial point group operations.

The static configuration has the point symmetry C_1 .
 The point group associated with its full space group is C_1h.

Analysis of symmetry for dynamics (positions and initial velocities):
 Subroutine PRICEL returns:
 Original cell was already a primitive cell.

[...]

The dynamic configuration has the point symmetry C_1 .
 The point group associated with its full space group is C_1h.

Analysis of constrained symmetry for selective dynamics:
 Subroutine PRICEL returns:
 Original cell was already a primitive cell.

 Routine SETGRP: Setting up the symmetry group for a
 simple tetragonal supercell.

 Subroutine GETGRP returns: Found  2 space group operations
 (whereof  1 operations were pure point group operations)
 out of a pool of 16 trial point group operations.

The constrained configuration has the point symmetry C_1 .
 The point group associated with its full space group is C_1h.

 Subroutine INISYM returns: Found  2 space group operations
 (whereof  1 operations are pure point group operations),
 and found     1 'primitive' translations

                                     Primitive cell

  volume of cell :    9881.6133

  direct lattice vectors                    reciprocal lattice vectors
    21.138852197  0.000000000  0.000000000     0.047306258  0.000000000  0.000000000
[...]
     52     -44.6169      2.00000
     53     -44.6167      2.00000
     54     -44.6166      2.00000
     55     -44.6162      2.00000
     56     -44.6161      2.00000
     57     -44.5907      2.00000
     58     -44.5905      2.00000
     59     -44.5866      2.00000
     60     -44.5866      2.00000
[...]
    946       6.7350      0.00000
    947       6.8388      0.00000
    948       6.8871      0.00000
    949       6.9471      0.00000
    950       6.9696      0.00000
    951       7.0325      0.00000
    952       7.1238      0.00000
    953       7.1596      0.00000
    954       7.2500      0.00000
    955       7.3068      0.00000
    956       7.3673      0.00000
    957       7.4077      0.00000
    958       7.4436      0.00000
    959       7.5020      0.00000
    960       7.5784      0.00000

 soft charge-density along one line, spin component           1
         0         1         2         3         4         5         6         7         8         9
 total charge-density along one line

------------------------ aborting loop because EDIFF is reached ----------------------------------------

  FORCE on cell =-STRESS in cart. coord.  units (eV):
  Direction    XX          YY          ZZ          XY          YZ          ZX
  Alpha Z  1394.80054  1394.80054  1394.80054
  Ewald  488949.61640488949.61538************ -1381.09674     0.00920     0.00911
  Hartree518668.31221518668.31178************ -1167.15068     0.00750     0.00818
  E(xc)   -8557.33310 -8557.33309 -8549.13387    -0.23603     0.00001     0.00007
  Local  ************************************  2543.47425    -0.01609    -0.01693
  n-local -8798.81530 -8798.81541 -8924.33001     0.17075    -0.00059    -0.00067
  augment  4081.83214  4081.83216  4024.02235     2.44047    -0.00571    -0.00449
  Kinetic 23098.17630 23098.17663 23325.99546     3.51989    -0.00246    -0.00222
  Fock        0.00000     0.00000     0.00000     0.00000     0.00000     0.00000
  Total    -241.12571  -241.12571   -29.60991     1.12191    -0.00756    -0.00755
  in kB     -39.09545   -39.09545    -4.80087     0.18190    -0.00123    -0.00122

 VOLUME and BASIS-vectors are now :
  energy-cutoff  :      520.00
  volume of cell :     9881.61
      direct lattice vectors                 reciprocal lattice vectors
    21.138852197  0.000000000  0.000000000     0.047306258  0.000000000  0.000000000
     0.000000000 21.138852197  0.000000000     0.000000000  0.047306258  0.000000000
     0.000000000  0.000000000 22.113885220     0.000000000  0.000000000  0.045220457

  length of vectors
    21.138852197 21.138852197 22.113885220     0.047306258  0.047306258  0.045220457

 FORCES acting on ions:
    Electron-Ion                     Ewald-Force                    Non-Local-Force
   -.660E+02 0.660E+02 -.222E+04   0.602E+02 -.602E+02 0.222E+04   0.563E+01 -.563E+01 -.213E+01
   0.289E+03 -.289E+03 -.222E+04   -.281E+03 0.281E+03 0.222E+04   -.771E+01 0.772E+01 -.199E+01
   -.289E+03 0.289E+03 -.222E+04   0.281E+03 -.281E+03 0.222E+04   0.772E+01 -.771E+01 -.199E+01
   0.660E+02 -.660E+02 -.222E+04   -.602E+02 0.602E+02 0.222E+04   -.563E+01 0.563E+01 -.213E+01
   0.518E+01 -.519E+01 0.938E+03   -.521E+01 0.522E+01 -.930E+03   0.202E-01 -.202E-01 -.748E+01
   0.962E+01 0.175E+01 0.939E+03   -.963E+01 -.171E+01 -.931E+03   0.609E-02 -.253E-01 -.748E+01
   0.326E+01 0.326E+01 -.920E+03   -.325E+01 -.325E+01 0.912E+03   -.953E-02 -.953E-02 0.738E+01
   0.151E+02 -.121E+02 -.917E+03   -.151E+02 0.122E+02 0.910E+03   0.184E-01 -.630E-01 0.738E+01
   0.175E+01 0.962E+01 0.939E+03   -.171E+01 -.963E+01 -.931E+03   -.253E-01 0.609E-02 -.748E+01
   0.156E+02 0.171E+02 0.944E+03   -.156E+02 -.171E+02 -.936E+03   0.695E-02 0.226E-01 -.750E+01
   0.235E+01 0.163E+02 -.917E+03   -.230E+01 -.163E+02 0.909E+03   -.414E-01 0.304E-02 0.738E+01
   0.136E+02 0.136E+02 -.918E+03   -.136E+02 -.136E+02 0.910E+03   -.110E-01 -.110E-01 0.738E+01
   0.497E+01 0.121E+02 0.945E+03   -.495E+01 -.121E+02 -.937E+03   -.224E-01 0.163E-01 -.750E+01
   0.327E+02 0.134E+02 0.958E+03   -.329E+02 -.135E+02 -.950E+03   0.987E-01 0.679E-01 -.753E+01
   0.137E+02 0.882E+01 -.912E+03   -.137E+02 -.883E+01 0.904E+03   -.545E-02 0.139E-01 0.736E+01
   0.328E+02 0.257E+02 -.910E+03   -.328E+02 -.257E+02 0.902E+03   -.731E-02 0.227E-01 0.735E+01
   0.143E+02 -.228E+01 0.950E+03   -.144E+02 0.226E+01 -.942E+03   0.649E-01 0.157E-01 -.750E+01
   0.382E+02 -.141E+02 0.963E+03   -.386E+02 0.141E+02 -.955E+03   0.288E+00 0.141E-01 -.753E+01
   0.238E+02 -.133E+02 -.911E+03   -.239E+02 0.133E+02 0.903E+03   0.954E-01 0.109E-01 0.737E+01
   0.668E+02 0.551E+01 -.895E+03   -.669E+02 -.560E+01 0.888E+03   0.108E+00 0.717E-01 0.733E+01
   0.131E+02 -.142E+02 0.944E+03   -.132E+02 0.143E+02 -.936E+03   0.974E-01 -.179E-01 -.749E+01
   0.182E+02 -.182E+02 0.946E+03   -.183E+02 0.183E+02 -.938E+03   0.797E-01 -.797E-01 -.748E+01
   0.121E+02 -.151E+02 -.917E+03   -.122E+02 0.151E+02 0.910E+03   0.631E-01 -.184E-01 0.738E+01
   0.455E+02 -.324E+02 -.904E+03   -.458E+02 0.324E+02 0.896E+03   0.261E+00 -.203E-01 0.737E+01
   0.143E+02 -.131E+02 0.944E+03   -.143E+02 0.132E+02 -.936E+03   0.179E-01 -.973E-01 -.749E+01
   0.121E+02 0.498E+01 0.945E+03   -.121E+02 -.494E+01 -.937E+03   0.163E-01 -.224E-01 -.750E+01
   0.163E+02 0.235E+01 -.917E+03   -.163E+02 -.230E+01 0.909E+03   0.304E-02 -.414E-01 0.738E+01
   0.133E+02 -.238E+02 -.911E+03   -.133E+02 0.239E+02 0.903E+03   -.110E-01 -.952E-01 0.737E+01
   0.171E+02 0.156E+02 0.944E+03   -.171E+02 -.156E+02 -.936E+03   0.226E-01 0.695E-02 -.750E+01
   0.300E+02 0.381E+02 0.965E+03   -.302E+02 -.383E+02 -.957E+03   0.107E+00 0.993E-01 -.755E+01
   0.357E+02 0.357E+02 -.909E+03   -.357E+02 -.357E+02 0.901E+03   0.722E-02 0.722E-02 0.735E+01
   0.257E+02 0.328E+02 -.910E+03   -.257E+02 -.328E+02 0.902E+03   0.227E-01 -.731E-02 0.735E+01
   0.381E+02 0.300E+02 0.965E+03   -.383E+02 -.302E+02 -.957E+03   0.993E-01 0.107E+00 -.755E+01
   0.576E+02 0.371E+02 0.102E+04   -.581E+02 -.377E+02 -.102E+04   0.392E+00 0.400E+00 -.772E+01
   0.928E+02 0.506E+02 -.875E+03   -.929E+02 -.507E+02 0.867E+03   0.832E-01 0.129E+00 0.722E+01
   0.820E+02 0.820E+02 -.869E+03   -.821E+02 -.821E+02 0.861E+03   0.853E-01 0.853E-01 0.724E+01
   0.618E+02 0.498E+01 0.100E+04   -.624E+02 -.523E+01 -.992E+03   0.433E+00 0.188E+00 -.762E+01
   0.431E+02 -.430E+02 0.105E+04   -.433E+02 0.433E+02 -.104E+04   0.194E+00 -.194E+00 -.599E+01
   0.136E+03 -.474E+02 -.829E+03   -.138E+03 0.472E+02 0.822E+03   0.146E+01 0.171E+00 0.732E+01
   0.176E+03 0.722E+02 -.668E+03   -.178E+03 -.740E+02 0.663E+03   0.141E+01 0.124E+01 0.498E+01
   0.373E+02 -.373E+02 0.975E+03   -.375E+02 0.375E+02 -.967E+03   0.203E+00 -.203E+00 -.739E+01
   0.141E+02 -.382E+02 0.963E+03   -.141E+02 0.386E+02 -.955E+03   -.142E-01 -.288E+00 -.753E+01
   0.324E+02 -.455E+02 -.904E+03   -.324E+02 0.458E+02 0.896E+03   0.202E-01 -.261E+00 0.737E+01
   0.475E+02 -.136E+03 -.829E+03   -.473E+02 0.138E+03 0.821E+03   -.172E+00 -.146E+01 0.732E+01
   0.229E+01 -.143E+02 0.950E+03   -.227E+01 0.144E+02 -.942E+03   -.157E-01 -.647E-01 -.750E+01
   -.229E+01 0.143E+02 0.950E+03   0.226E+01 -.144E+02 -.942E+03   0.157E-01 0.649E-01 -.750E+01
   0.881E+01 0.137E+02 -.912E+03   -.883E+01 -.137E+02 0.904E+03   0.139E-01 -.545E-02 0.736E+01
   -.882E+01 -.138E+02 -.912E+03   0.883E+01 0.137E+02 0.904E+03   -.140E-01 0.563E-02 0.736E+01
   0.134E+02 0.327E+02 0.958E+03   -.135E+02 -.329E+02 -.950E+03   0.679E-01 0.987E-01 -.753E+01
   0.497E+01 0.618E+02 0.100E+04   -.523E+01 -.624E+02 -.992E+03   0.188E+00 0.433E+00 -.762E+01
   0.506E+02 0.928E+02 -.875E+03   -.507E+02 -.929E+02 0.867E+03   0.129E+00 0.832E-01 0.722E+01
   0.551E+01 0.668E+02 -.895E+03   -.560E+01 -.669E+02 0.888E+03   0.717E-01 0.108E+00 0.733E+01
   0.371E+02 0.576E+02 0.102E+04   -.377E+02 -.581E+02 -.102E+04   0.400E+00 0.392E+00 -.772E+01
   -.134E+02 0.135E+02 0.109E+04   0.134E+02 -.134E+02 -.108E+04   0.465E-01 -.470E-01 -.598E+01
   0.120E+03 0.120E+03 -.680E+03   -.122E+03 -.122E+03 0.673E+03   0.159E+01 0.159E+01 0.650E+01
   0.722E+02 0.176E+03 -.668E+03   -.740E+02 -.178E+03 0.663E+03   0.124E+01 0.141E+01 0.498E+01
   0.135E+02 -.134E+02 0.109E+04   -.134E+02 0.134E+02 -.108E+04   -.470E-01 0.465E-01 -.598E+01
   -.371E+02 -.576E+02 0.102E+04   0.377E+02 0.581E+02 -.102E+04   -.400E+00 -.392E+00 -.772E+01
   -.722E+02 -.176E+03 -.668E+03   0.740E+02 0.178E+03 0.663E+03   -.124E+01 -.141E+01 0.498E+01
   -.120E+03 -.120E+03 -.680E+03   0.122E+03 0.122E+03 0.673E+03   -.159E+01 -.159E+01 0.650E+01
[...]
   -.214E+02 0.163E+02 0.718E+03   0.216E+02 -.163E+02 -.722E+03   -.191E+00 0.869E-01 0.352E+01
   -.665E+01 0.888E+01 0.707E+03   0.669E+01 -.890E+01 -.711E+03   -.589E-01 0.374E-01 0.350E+01
   -.498E+02 0.150E+02 -.673E+03   0.499E+02 -.149E+02 0.677E+03   -.197E+00 -.672E-01 -.377E+01
   -.161E+02 0.159E+01 -.684E+03   0.162E+02 -.157E+01 0.688E+03   -.425E-01 -.275E-01 -.371E+01
   -.299E+02 -.823E+00 0.725E+03   0.300E+02 0.895E+00 -.729E+03   -.150E+00 -.920E-01 0.344E+01
   -.118E+02 0.793E+01 0.713E+03   0.118E+02 -.793E+01 -.717E+03   -.868E-01 -.227E-02 0.349E+01
   -.376E+02 -.162E+02 -.678E+03   0.377E+02 0.163E+02 0.683E+03   -.475E-01 -.659E-01 -.377E+01
   -.470E+01 -.116E+02 -.687E+03   0.468E+01 0.116E+02 0.691E+03   0.245E-01 -.742E-02 -.369E+01
   -.175E+02 -.138E+02 0.715E+03   0.175E+02 0.139E+02 -.719E+03   -.365E-01 -.512E-01 0.347E+01
   -.728E+01 -.481E+01 0.713E+03   0.728E+01 0.483E+01 -.717E+03   -.138E-01 -.227E-01 0.348E+01
   -.153E+02 -.166E+02 -.688E+03   0.153E+02 0.166E+02 0.692E+03   0.715E-02 -.754E-02 -.368E+01
   -.129E+01 -.877E+01 -.691E+03   0.127E+01 0.878E+01 0.695E+03   0.253E-01 -.393E-02 -.366E+01
   -.824E+01 -.823E+01 0.707E+03   0.823E+01 0.823E+01 -.711E+03   -.233E-02 -.233E-02 0.349E+01
   -.171E+01 -.987E+01 0.708E+03   0.168E+01 0.989E+01 -.712E+03   0.287E-01 -.165E-01 0.349E+01
   -.730E+00 0.722E+00 0.221E+02   0.165E-11 -.114E-12 0.819E-11   0.172E-01 0.172E-01 -.213E+02

 POSITION                                       TOTAL-FORCE (eV/Angst)
      8.42022     12.71964     13.21830        -0.174771      0.178225     -0.214688
      6.77748     14.36235     13.25117         0.213604     -0.205319     -0.211934
     12.24845      8.89138     13.25117        -0.205319      0.213604     -0.211934
     10.60574     10.53411     13.21830         0.178225     -0.174771     -0.214688
      0.00000      0.00000      9.00000        -0.006797      0.006650      0.601173
      2.11389      2.11389      9.00000        -0.002108      0.008142      0.602705
      0.00000      2.11389     11.11389         0.002328      0.002328     -0.561681
      2.11389      0.00000     11.11389        -0.004960      0.015587     -0.559119
      0.00000      4.22777      9.00000         0.008142     -0.002108      0.602705
      2.11389      6.34166      9.00000        -0.002279     -0.007321      0.606723
      0.00000      6.34166     11.11389         0.010330     -0.000438     -0.557213
      2.11389      4.22777     11.11389         0.003092      0.003092     -0.558384
      0.00000      8.45554      9.00000         0.007067     -0.005340      0.606469
      2.11389     10.56943      9.00000        -0.032452     -0.022832      0.615599
      0.00000     10.56943     11.11389         0.002231     -0.003454     -0.549489
      2.11389      8.45554     11.11389         0.003631     -0.004674     -0.544901
      0.00000     12.68331      9.00000        -0.021330     -0.005561      0.608358
      2.11389     14.79720      9.00000        -0.090982     -0.005359      0.614675
      0.00000     14.79720     11.11389        -0.021977     -0.003581     -0.550554
      2.11389     12.68331     11.11389        -0.021836     -0.019561     -0.523353
      0.00000     16.91108      9.00000        -0.031411      0.005961      0.605103
      2.11389     19.02497      9.00000        -0.027134      0.027020      0.600001
      0.00000     19.02497     11.11389        -0.015731      0.004839     -0.559106
      2.11389     16.91108     11.11389        -0.064203      0.005429     -0.544129
      4.22777      0.00000      9.00000        -0.006058      0.031262      0.605101
      6.34166      2.11389      9.00000        -0.005340      0.007067      0.606469
      4.22777      2.11389     11.11389        -0.000438      0.010330     -0.557213
      6.34166      0.00000     11.11389         0.003477      0.021829     -0.550559
      4.22777      4.22777      9.00000        -0.007321     -0.002279      0.606723
      6.34166      6.34166      9.00000        -0.035203     -0.032655      0.621839
      4.22777      6.34166     11.11389         0.000024      0.000024     -0.543558
      6.34166      4.22777     11.11389        -0.004674      0.003631     -0.544901
      4.22777      8.45554      9.00000        -0.032655     -0.035203      0.621839
      6.34166     10.56943      9.00000        -0.132321     -0.134826      0.650055
      4.22777     10.56943     11.11389         0.002543     -0.014522     -0.459805
      6.34166      8.45554     11.11389        -0.010193     -0.010193     -0.472473
      4.22777     12.68331      9.00000        -0.143677     -0.069594      0.624167
      6.34166     14.79720      9.00000        -0.068738      0.068753      0.158890
      4.22777     14.79720     11.11389        -0.448140     -0.061782     -0.507017
      6.34166     12.68331     11.11389        -0.528942     -0.584418     -0.164727
      4.22777     16.91108      9.00000        -0.074288      0.074182      0.565262
      6.34166     19.02497      9.00000         0.005267      0.090876      0.614791
      4.22777     19.02497     11.11389        -0.005538      0.064061     -0.544110
      6.34166     16.91108     11.11389         0.061723      0.448169     -0.506981
      8.45554      0.00000      9.00000         0.005480      0.021163      0.608350
     10.56943      2.11389      9.00000        -0.005561     -0.021330      0.608358
      8.45554      2.11389     11.11389        -0.003454      0.002231     -0.549489
     10.56943      0.00000     11.11389         0.003268     -0.002461     -0.549534
      8.45554      4.22777      9.00000        -0.022832     -0.032452      0.615599
     10.56943      6.34166      9.00000        -0.069594     -0.143677      0.624167
      8.45554      6.34166     11.11389        -0.014522      0.002543     -0.459805
     10.56943      4.22777     11.11389        -0.019561     -0.021836     -0.523353
      8.45554      8.45554      9.00000        -0.134826     -0.132321      0.650055
     10.56943     10.56943      9.00000        -0.019319      0.019305      0.146115
      8.45554     10.56943     11.11389        -0.588659     -0.588659     -0.481886
     10.56943      8.45554     11.11389        -0.584418     -0.528942     -0.164727
      8.45554     12.68331      9.00000         0.019305     -0.019319      0.146115
     10.56943     14.79720      9.00000         0.134704      0.132244      0.650320
      8.45554     14.79720     11.11389         0.584864      0.529237     -0.164987
     10.56943     12.68331     11.11389         0.588667      0.588667     -0.482207
[...]
     19.02497      6.34166     11.11389        -0.022905      0.004126      0.268981
     16.91108      6.34166      9.00000        -0.054624      0.024451     -0.314975
     19.02497      4.22777      9.00000        -0.016447      0.010330     -0.319540
     16.91108      8.45554     11.11389        -0.060471     -0.018256      0.246871
     19.02497     10.56943     11.11389        -0.012267     -0.007840      0.261171
     16.91108     10.56943      9.00000        -0.044804     -0.026137     -0.334561
     19.02497      8.45554      9.00000        -0.024564     -0.000607     -0.323041
     16.91108     12.68331     11.11389        -0.014580     -0.019339      0.245189
     19.02497     14.79720     11.11389         0.006817     -0.002163      0.266569
     16.91108     14.79720      9.00000        -0.010423     -0.014486     -0.328412
     19.02497     12.68331      9.00000        -0.004038     -0.006408     -0.325735
     16.91108     16.91108     11.11389         0.001884     -0.002253      0.266910
     19.02497     19.02497     11.11389         0.007021     -0.001187      0.274276
     16.91108     19.02497      9.00000        -0.000740     -0.000740     -0.321681
     19.02497     16.91108      9.00000         0.007915     -0.004702     -0.321788
    total drift:                               -0.713189      0.739356      0.852854

  FREE ENERGIE OF THE ION-ELECTRON SYSTEM (eV)
  free  energy   TOTEN  =     -1677.21371479 eV

  energy  without entropy=    -1677.21371479  energy(sigma->0) =    -1677.21371479