 vasp.6.3.0 20Jan22 (build Apr  1 2022 16:44:48) complex
 executed on        HPECrayEX_GCC date 2023.01.09  23:48:14

 INCAR:
   SYSTEM = MgO-rocksalt
   ISMEAR = 0
   SIGMA = 0.05
   EDIFF = 1E-6
   ALGO = ALL
   ISTART = 0
   IBRION = -1
   NSW = 0
   ISYM = 2
   DIPOL = 0.5 0.5 0.5
   IDIPOL = 3
   LDIPOL = .TRUE.
   METAGGA = R2SCAN
   IVDW = 12
   VDW_S8 = 0.7898
   VDW_A1 = 0.4948
   VDW_A2 = 5.7308
   ENCUT = 520
   PREC = Accurate
   LASPH = .TRUE.
   LREAL = Auto
   ISPIN = 1
   NELM = 200
   NELMIN = 8
   NCORE = 4
   KPAR = 2
   LWAVE = .FALSE.
   LCHARG = .FALSE.

 POTCAR:    PAW_PBE Cu 22Jun2005
 POTCAR:    PAW_PBE Mg_pv 13Apr2007
 POTCAR:    PAW_PBE O 08Apr2002
 POTCAR:    PAW_PBE Cu 22Jun2005
   VRHFIN =Cu: d10 p1

   TITEL  = PAW_PBE Cu 22Jun2005
   POMASS =   63.546; ZVAL   =   11.000    mass and valenz
   ENMAX  =  295.446; ENMIN  =  221.585 eV

   TITEL  = PAW_PBE Mg_pv 13Apr2007
   POMASS =   24.305; ZVAL   =    8.000    mass and valenz
   ENMAX  =  403.929; ENMIN  =  302.947 eV

   TITEL  = PAW_PBE O 08Apr2002
   POMASS =   16.000; ZVAL   =    6.000    mass and valenz
   ENMAX  =  400.000; ENMIN  =  300.000 eV

 Optimization of the real space projectors (new method)

 maximal supplied QI-value         = 16.25
 optimisation between [QCUT,QGAM] = [ 11.54, 23.24] = [ 37.28,151.24] Ry
 Optimized for a Real-space Cutoff    1.53 Angstroem

   l    n(q)    QCUT    max X(q) W(low)/X(q) W(high)/X(q)  e(spline)
   2     10    11.539     4.610    0.96E-04    0.13E-03    0.19E-06
   2     10    11.539     8.522    0.16E-03    0.21E-03    0.28E-06
   0     11    11.539    51.609    0.45E-04    0.31E-04    0.11E-06
   0     11    11.539    27.747    0.39E-04    0.29E-04    0.10E-06
   1     10    11.539    20.408    0.70E-05    0.38E-04    0.18E-06
   1     10    11.539    13.425    0.66E-05    0.34E-04    0.17E-06
 Optimization of the real space projectors (new method)

[...]

   l    n(q)    QCUT    max X(q) W(low)/X(q) W(high)/X(q)  e(spline)
   1      8    11.527     2.974    0.44E-04    0.56E-04    0.12E-06
   1      8    11.527     4.279    0.12E-03    0.12E-03    0.26E-06
   0      9    11.527    16.381    0.46E-04    0.64E-04    0.78E-07
   0      9    11.527     5.611    0.26E-04    0.43E-04    0.55E-07
   2      8    11.527     4.652    0.22E-03    0.72E-04    0.47E-07
 Optimization of the real space projectors (new method)

 maximal supplied QI-value         = 24.76
 optimisation between [QCUT,QGAM] = [ 11.64, 23.27] = [ 37.91,151.63] Ry
 Optimized for a Real-space Cutoff    1.14 Angstroem

   l    n(q)    QCUT    max X(q) W(low)/X(q) W(high)/X(q)  e(spline)
   0      8    11.635    20.381    0.10E-03    0.33E-03    0.24E-06
   0      8    11.635    15.268    0.11E-03    0.35E-03    0.26E-06
   1      7    11.635     5.964    0.24E-03    0.31E-03    0.30E-06
   1      7    11.635     5.382    0.22E-03    0.25E-03    0.26E-06
  PAW_PBE Cu 22Jun2005                  :
  PAW_PBE Mg_pv 13Apr2007               :
  PAW_PBE O 08Apr2002                   :

 POSCAR: Cu Mg  O
  positions in direct lattice
  velocities in cartesian coordinates

 METAGGA = R2SCA    LMAXTAU =  6    LMIXTAU =  F

 ion  position               nearest neighbor table
   1  0.398  0.602  0.598- 157 2.11   2 2.32
   2  0.321  0.679  0.599- 138 2.22   1 2.32
   3  0.579  0.421  0.599- 173 2.22   4 2.32
   4  0.502  0.498  0.598- 154 2.11   3 2.32
   5  0.000  0.000  0.407- 107 2.11 108 2.11 123 2.11 188 2.11 105 2.11
   6  0.100  0.100  0.407- 107 2.11 108 2.11 112 2.11 127 2.11 106 2.11
   7  0.000  0.100  0.503- 105 2.11 106 2.11 109 2.11 186 2.11 107 2.11
   8  0.100  0.000  0.503- 105 2.11 106 2.11 122 2.11 125 2.11 108 2.11
   9  0.000  0.200  0.407- 111 2.11 107 2.11 112 2.11 192 2.11 109 2.11
  10  0.100  0.300  0.407- 112 2.11 111 2.11 116 2.11 131 2.11 110 2.11
  11  0.000  0.300  0.503- 109 2.11 110 2.11 113 2.11 190 2.11 111 2.11
  12  0.100  0.200  0.503- 110 2.11 109 2.11 106 2.11 129 2.11 112 2.11
  13  0.000  0.400  0.407- 111 2.11 115 2.11 116 2.11 196 2.11 113 2.11
  14  0.100  0.500  0.407- 115 2.11 116 2.11 120 2.11 135 2.11 114 2.11
  15  0.000  0.500  0.503- 113 2.11 114 2.11 117 2.11 194 2.11 115 2.11
  16  0.100  0.400  0.503- 110 2.11 113 2.11 114 2.11 133 2.11 116 2.11
  17  0.000  0.600  0.407- 115 2.11 119 2.11 120 2.11 200 2.11 117 2.11
  18  0.100  0.700  0.407- 124 2.11 120 2.11 119 2.11 139 2.11 118 2.11
  19  0.000  0.700  0.503- 121 2.11 118 2.11 117 2.11 198 2.11 119 2.11
  20  0.100  0.600  0.503- 114 2.11 117 2.11 118 2.11 137 2.11 120 2.11
  21  0.000  0.800  0.407- 119 2.11 123 2.11 124 2.11 204 2.11 121 2.11
  22  0.100  0.900  0.407- 108 2.11 123 2.11 124 2.11 143 2.11 122 2.11
  23  0.000  0.900  0.503- 105 2.11 121 2.11 122 2.11 202 2.11 123 2.11
  24  0.100  0.800  0.503- 118 2.11 121 2.11 122 2.11 141 2.11 124 2.11
  25  0.200  0.000  0.407- 128 2.11 127 2.11 108 2.11 143 2.11 125 2.11
  26  0.300  0.100  0.407- 127 2.11 128 2.11 132 2.11 147 2.11 126 2.11
  27  0.200  0.100  0.503- 126 2.11 125 2.11 106 2.11 129 2.11 127 2.11
  28  0.300  0.000  0.503- 125 2.11 126 2.11 142 2.11 145 2.11 128 2.11
  29  0.200  0.200  0.407- 131 2.11 132 2.11 112 2.11 127 2.11 129 2.11
  30  0.300  0.300  0.407- 131 2.11 132 2.11 136 2.11 151 2.11 130 2.11
  31  0.200  0.300  0.503- 129 2.11 130 2.11 110 2.11 133 2.11 131 2.11
  32  0.300  0.200  0.503- 129 2.11 130 2.11 126 2.11 149 2.11 132 2.11
  33  0.200  0.400  0.407- 136 2.11 131 2.11 135 2.11 116 2.11 133 2.11
  34  0.300  0.500  0.407- 135 2.11 136 2.11 140 2.11 155 2.11 134 2.11
  35  0.200  0.500  0.503- 134 2.11 133 2.11 114 2.11 137 2.11 135 2.11
  36  0.300  0.400  0.503- 133 2.11 130 2.11 134 2.11 153 2.11 136 2.11
  37  0.200  0.600  0.407- 140 2.11 135 2.11 139 2.11 120 2.11 137 2.11
  38  0.300  0.700  0.407- 139 2.11 144 2.11 140 2.11 159 2.11 138 2.11
  39  0.200  0.700  0.503- 138 2.11 141 2.11 118 2.11 137 2.11 139 2.11
  40  0.300  0.600  0.503- 137 2.11 134 2.11 138 2.11 157 2.11 140 2.11
  41  0.200  0.800  0.407- 139 2.11 144 2.11 143 2.11 124 2.11 141 2.11
  42  0.300  0.900  0.407- 143 2.11 128 2.11 144 2.11 163 2.11 142 2.11
  43  0.200  0.900  0.503- 142 2.11 125 2.11 141 2.11 122 2.11 143 2.11
  44  0.300  0.800  0.503- 138 2.11 141 2.11 142 2.11 161 2.11 144 2.11
  45  0.400  0.000  0.407- 128 2.11 147 2.11 148 2.11 163 2.11 145 2.11
  46  0.500  0.100  0.407- 147 2.11 148 2.11 152 2.11 167 2.11 146 2.11
  47  0.400  0.100  0.503- 126 2.11 145 2.11 146 2.11 149 2.11 147 2.11
  48  0.500  0.000  0.503- 145 2.11 146 2.11 162 2.11 165 2.11 148 2.11
  49  0.400  0.200  0.407- 151 2.11 147 2.11 132 2.11 152 2.11 149 2.11
  50  0.500  0.300  0.407- 152 2.11 151 2.11 156 2.11 171 2.11 150 2.11
  51  0.400  0.300  0.503- 149 2.11 130 2.11 150 2.11 153 2.11 151 2.11
  52  0.500  0.200  0.503- 150 2.11 149 2.11 146 2.11 169 2.11 152 2.11
  53  0.400  0.400  0.407- 136 2.11 151 2.11 155 2.11 156 2.11 153 2.11
  54  0.500  0.500  0.407- 155 2.11 156 2.11 160 2.11 175 2.11 154 2.11
  55  0.400  0.500  0.503- 134 2.11 153 2.11 154 2.11 157 2.11 155 2.11
  56  0.500  0.400  0.503- 150 2.11 153 2.11 154 2.11 173 2.11 156 2.11
  57  0.400  0.600  0.407- 140 2.11 155 2.11 159 2.11 160 2.11 157 2.11
  58  0.500  0.700  0.407- 164 2.11 160 2.11 159 2.11 179 2.11 158 2.11
  59  0.400  0.700  0.503- 161 2.11 157 2.11 158 2.11 138 2.11 159 2.11
  60  0.500  0.600  0.503- 154 2.11 157 2.11 158 2.11 177 2.11 160 2.11
[...]
 190  0.900  0.300  0.503-  92 2.11  91 2.11  11 2.11  96 2.11  90 2.11
 191  0.800  0.300  0.407-  70 2.11  89 2.11  90 2.11  93 2.11  91 2.11
 192  0.900  0.200  0.407-  90 2.11  86 2.11  89 2.11   9 2.11  92 2.11
 193  0.800  0.400  0.503-  76 2.11  91 2.11  95 2.11  96 2.11  93 2.11
 194  0.900  0.500  0.503-  15 2.11  95 2.11  96 2.11 100 2.11  94 2.11
 195  0.800  0.500  0.407-  74 2.11  93 2.11  94 2.11  97 2.11  95 2.11
 196  0.900  0.400  0.407-  13 2.11  90 2.11  93 2.11  94 2.11  96 2.11
 197  0.800  0.600  0.503-  80 2.11  95 2.11  99 2.11 100 2.11  97 2.11
 198  0.900  0.700  0.503- 104 2.11  99 2.11 100 2.11  19 2.11  98 2.11
 199  0.800  0.700  0.407-  78 2.11 101 2.11  98 2.11  97 2.11  99 2.11
 200  0.900  0.600  0.407-  17 2.11  94 2.11  97 2.11  98 2.11 100 2.11
 201  0.800  0.800  0.503-  84 2.11  99 2.11 103 2.11 104 2.11 101 2.11
 202  0.900  0.900  0.503-  23 2.11  88 2.11 103 2.11 104 2.11 102 2.11
 203  0.800  0.900  0.407-  82 2.11  85 2.11 101 2.11 102 2.11 103 2.11
 204  0.900  0.800  0.407-  98 2.11  21 2.11 101 2.11 102 2.11 104 2.11

  LATTYP: Found a simple tetragonal cell.
 ALAT       =    21.1388521970
 C/A-ratio  =     1.0461251639

  Lattice vectors:

 A1 = (  21.1388521970,   0.0000000000,   0.0000000000)
 A2 = (   0.0000000000,  21.1388521970,   0.0000000000)
 A3 = (   0.0000000000,   0.0000000000,  22.1138852197)

Analysis of symmetry for initial positions (statically):
 Subroutine PRICEL returns:
 Original cell was already a primitive cell.

 Routine SETGRP: Setting up the symmetry group for a
 simple tetragonal supercell.

 Subroutine GETGRP returns: Found  2 space group operations
 (whereof  1 operations were pure point group operations)
 out of a pool of 16 trial point group operations.

The static configuration has the point symmetry C_1 .
 The point group associated with its full space group is C_1h.

Analysis of symmetry for dynamics (positions and initial velocities):
 Subroutine PRICEL returns:
 Original cell was already a primitive cell.

[...]

The dynamic configuration has the point symmetry C_1 .
 The point group associated with its full space group is C_1h.

Analysis of constrained symmetry for selective dynamics:
 Subroutine PRICEL returns:
 Original cell was already a primitive cell.

 Routine SETGRP: Setting up the symmetry group for a
 simple tetragonal supercell.

 Subroutine GETGRP returns: Found  2 space group operations
 (whereof  1 operations were pure point group operations)
 out of a pool of 16 trial point group operations.

The constrained configuration has the point symmetry C_1 .
 The point group associated with its full space group is C_1h.

 Subroutine INISYM returns: Found  2 space group operations
 (whereof  1 operations are pure point group operations),
 and found     1 'primitive' translations

                                     Primitive cell

  volume of cell :    9881.6133

  direct lattice vectors                    reciprocal lattice vectors
    21.138852197  0.000000000  0.000000000     0.047306258  0.000000000  0.000000000
     0.000000000 21.138852197  0.000000000     0.000000000  0.047306258  0.000000000
     0.000000000  0.000000000 22.113885220     0.000000000  0.000000000  0.045220457

  length of vectors
    21.138852197 21.138852197 22.113885220     0.047306258  0.047306258  0.045220457

  position of ions in fractional coordinates (direct lattice)
     0.398329241  0.601718395  0.597737471
     0.320617240  0.679428851  0.599224153
     0.579428377  0.420617713  0.599224153
     0.501717922  0.498329241  0.597737471
     0.000000000  0.000000000  0.406984115
     0.100000000  0.100000000  0.406984115
     0.000000000  0.100000000  0.502574971
     0.100000000  0.000000000  0.502574971
[...]
    957       7.5103      0.00000
    958       7.5664      0.00000
    959       7.6070      0.00000
    960       7.6586      0.00000

 soft charge-density along one line, spin component           1
         0         1         2         3         4         5         6         7         8         9
 total charge-density along one line

------------------------ aborting loop because EDIFF is reached ----------------------------------------

 WARNING: Using user supplied parameters
     VDW_A1 = 0.495
     VDW_A2 = 5.731
     VDW_S8 = 0.79
     because the xc functional is not supported. Required parameters not
     defined in the INCAR file will be replaced with PBE defaults ones.

         DFTD3 V3.0 Rev 1
 IVDW         = 12
 DF unknown
 parameters
 VDW_S6       =    1.0000
 VDW_S8       =    0.7898
 VDW_A1       =    0.4948
 VDW_A2       =    5.7308
 k1-k3        =   16.0000    1.3333   -4.0000
 VDW_RADIUS   =   50.2022 A
 VDW_CNRADIUS =   21.1671 A
 Edisp (eV)  -12.99233

 E6    (eV) :    -8.7884
 E8    (eV) :    -4.2040
 % E8        : 32.36

  FORCE on cell =-STRESS in cart. coord.  units (eV):
  Direction    XX          YY          ZZ          XY          YZ          ZX
  Alpha Z  1394.80054  1394.80054  1394.80054
  Ewald  488949.61640488949.61538************ -1381.09674     0.00920     0.00911
  Hartree518684.34958518684.34915************ -1167.09092     0.00852     0.00920
  E(xc)   -8555.40177 -8555.40176 -8555.62534    -0.21943     0.00011     0.00010
  Local  ************************************  2543.40292    -0.01722    -0.01806
  n-local -8776.56646 -8776.56651 -8903.45909     0.11206    -0.00184    -0.00192
  augment  4083.19474  4083.19476  4026.78334     2.54714     0.00070     0.00077
  Kinetic 23101.73518 23101.73539 23325.32323     3.37202    -0.00246    -0.00245
  Fock        0.00000     0.00000     0.00000     0.00000     0.00000     0.00000
  vdW       -13.56372   -13.56372    -2.68092     0.01266    -0.00000    -0.00000
  Total    -232.97059  -232.97059   -20.31113     1.03971    -0.00313    -0.00313
  in kB     -37.77320   -37.77320    -3.29319     0.16858    -0.00051    -0.00051

 VOLUME and BASIS-vectors are now :
  energy-cutoff  :      520.00
  volume of cell :     9881.61
      direct lattice vectors                 reciprocal lattice vectors
    21.138852197  0.000000000  0.000000000     0.047306258  0.000000000  0.000000000
     0.000000000 21.138852197  0.000000000     0.000000000  0.047306258  0.000000000
     0.000000000  0.000000000 22.113885220     0.000000000  0.000000000  0.045220457

  length of vectors
    21.138852197 21.138852197 22.113885220     0.047306258  0.047306258  0.045220457

 FORCES acting on ions:
    Electron-Ion                     Ewald-Force                    Non-Local-Force
   -.656E+02 0.656E+02 -.222E+04   0.602E+02 -.602E+02 0.222E+04   0.531E+01 -.531E+01 -.225E+01
   0.288E+03 -.288E+03 -.222E+04   -.281E+03 0.281E+03 0.222E+04   -.720E+01 0.720E+01 -.221E+01
   -.288E+03 0.288E+03 -.222E+04   0.281E+03 -.281E+03 0.222E+04   0.720E+01 -.720E+01 -.221E+01
   0.656E+02 -.656E+02 -.222E+04   -.602E+02 0.602E+02 0.222E+04   -.531E+01 0.531E+01 -.225E+01
   0.518E+01 -.519E+01 0.938E+03   -.521E+01 0.522E+01 -.930E+03   0.212E-01 -.212E-01 -.757E+01
   0.962E+01 0.175E+01 0.939E+03   -.963E+01 -.171E+01 -.931E+03   0.683E-02 -.262E-01 -.757E+01
   0.326E+01 0.326E+01 -.920E+03   -.325E+01 -.325E+01 0.912E+03   -.920E-02 -.920E-02 0.752E+01
   0.151E+02 -.121E+02 -.917E+03   -.151E+02 0.122E+02 0.910E+03   0.186E-01 -.621E-01 0.752E+01
   0.175E+01 0.962E+01 0.939E+03   -.171E+01 -.963E+01 -.931E+03   -.262E-01 0.683E-02 -.757E+01
   0.156E+02 0.171E+02 0.944E+03   -.156E+02 -.171E+02 -.936E+03   0.832E-02 0.247E-01 -.759E+01
   0.235E+01 0.163E+02 -.917E+03   -.230E+01 -.163E+02 0.909E+03   -.403E-01 0.358E-02 0.751E+01
   0.136E+02 0.136E+02 -.918E+03   -.136E+02 -.136E+02 0.910E+03   -.103E-01 -.103E-01 0.752E+01
   0.497E+01 0.121E+02 0.945E+03   -.495E+01 -.121E+02 -.937E+03   -.229E-01 0.178E-01 -.759E+01
   0.327E+02 0.134E+02 0.959E+03   -.329E+02 -.135E+02 -.950E+03   0.105E+00 0.719E-01 -.762E+01
   0.137E+02 0.882E+01 -.912E+03   -.137E+02 -.883E+01 0.904E+03   -.441E-02 0.140E-01 0.750E+01
   0.328E+02 0.257E+02 -.910E+03   -.328E+02 -.257E+02 0.902E+03   -.593E-02 0.237E-01 0.749E+01
   0.143E+02 -.228E+01 0.950E+03   -.144E+02 0.226E+01 -.942E+03   0.690E-01 0.159E-01 -.759E+01
   0.382E+02 -.141E+02 0.963E+03   -.386E+02 0.141E+02 -.955E+03   0.303E+00 0.130E-01 -.763E+01
   0.238E+02 -.133E+02 -.911E+03   -.239E+02 0.133E+02 0.903E+03   0.938E-01 0.101E-01 0.751E+01
   0.667E+02 0.551E+01 -.895E+03   -.669E+02 -.560E+01 0.888E+03   0.112E+00 0.700E-01 0.746E+01
   0.131E+02 -.142E+02 0.944E+03   -.132E+02 0.143E+02 -.936E+03   0.102E+00 -.193E-01 -.758E+01
   0.182E+02 -.182E+02 0.946E+03   -.183E+02 0.183E+02 -.938E+03   0.835E-01 -.835E-01 -.757E+01
   0.121E+02 -.151E+02 -.917E+03   -.122E+02 0.151E+02 0.910E+03   0.621E-01 -.186E-01 0.752E+01
   0.455E+02 -.324E+02 -.904E+03   -.458E+02 0.324E+02 0.896E+03   0.257E+00 -.213E-01 0.750E+01
   0.142E+02 -.131E+02 0.944E+03   -.143E+02 0.132E+02 -.936E+03   0.193E-01 -.102E+00 -.758E+01
   0.121E+02 0.498E+01 0.945E+03   -.121E+02 -.494E+01 -.937E+03   0.178E-01 -.229E-01 -.759E+01
   0.163E+02 0.235E+01 -.917E+03   -.163E+02 -.230E+01 0.909E+03   0.358E-02 -.403E-01 0.751E+01
   0.133E+02 -.238E+02 -.911E+03   -.133E+02 0.239E+02 0.903E+03   -.102E-01 -.936E-01 0.750E+01
   0.171E+02 0.156E+02 0.944E+03   -.171E+02 -.156E+02 -.936E+03   0.247E-01 0.832E-02 -.759E+01
   0.300E+02 0.381E+02 0.965E+03   -.302E+02 -.383E+02 -.957E+03   0.114E+00 0.106E+00 -.764E+01
   0.357E+02 0.357E+02 -.909E+03   -.357E+02 -.357E+02 0.901E+03   0.847E-02 0.847E-02 0.749E+01
   0.256E+02 0.328E+02 -.910E+03   -.257E+02 -.328E+02 0.902E+03   0.237E-01 -.593E-02 0.749E+01
   0.381E+02 0.300E+02 0.965E+03   -.383E+02 -.302E+02 -.957E+03   0.106E+00 0.114E+00 -.764E+01
   0.576E+02 0.371E+02 0.102E+04   -.581E+02 -.377E+02 -.102E+04   0.410E+00 0.415E+00 -.781E+01
   0.928E+02 0.506E+02 -.875E+03   -.929E+02 -.507E+02 0.867E+03   0.840E-01 0.130E+00 0.736E+01
   0.820E+02 0.820E+02 -.869E+03   -.821E+02 -.821E+02 0.861E+03   0.883E-01 0.883E-01 0.738E+01
   0.618E+02 0.497E+01 0.100E+04   -.624E+02 -.523E+01 -.992E+03   0.451E+00 0.194E+00 -.771E+01
   0.431E+02 -.430E+02 0.105E+04   -.433E+02 0.433E+02 -.104E+04   0.200E+00 -.201E+00 -.602E+01
   0.136E+03 -.474E+02 -.829E+03   -.138E+03 0.472E+02 0.822E+03   0.146E+01 0.165E+00 0.744E+01
   0.176E+03 0.721E+02 -.669E+03   -.178E+03 -.740E+02 0.663E+03   0.144E+01 0.130E+01 0.518E+01
   0.373E+02 -.372E+02 0.975E+03   -.375E+02 0.375E+02 -.967E+03   0.212E+00 -.212E+00 -.748E+01
   0.141E+02 -.382E+02 0.963E+03   -.141E+02 0.386E+02 -.955E+03   -.130E-01 -.303E+00 -.763E+01
   0.324E+02 -.455E+02 -.904E+03   -.324E+02 0.458E+02 0.896E+03   0.212E-01 -.257E+00 0.750E+01
   0.475E+02 -.136E+03 -.829E+03   -.473E+02 0.138E+03 0.821E+03   -.165E+00 -.146E+01 0.743E+01
   0.229E+01 -.143E+02 0.950E+03   -.227E+01 0.144E+02 -.942E+03   -.159E-01 -.689E-01 -.759E+01
   -.228E+01 0.143E+02 0.950E+03   0.226E+01 -.144E+02 -.942E+03   0.159E-01 0.690E-01 -.759E+01
   0.881E+01 0.137E+02 -.912E+03   -.883E+01 -.137E+02 0.904E+03   0.140E-01 -.441E-02 0.750E+01
   -.881E+01 -.138E+02 -.912E+03   0.883E+01 0.137E+02 0.904E+03   -.140E-01 0.465E-02 0.750E+01
   0.134E+02 0.327E+02 0.959E+03   -.135E+02 -.329E+02 -.950E+03   0.719E-01 0.105E+00 -.762E+01
   0.497E+01 0.618E+02 0.100E+04   -.523E+01 -.624E+02 -.992E+03   0.194E+00 0.451E+00 -.771E+01
   0.506E+02 0.928E+02 -.875E+03   -.507E+02 -.929E+02 0.867E+03   0.130E+00 0.840E-01 0.736E+01
   0.551E+01 0.667E+02 -.895E+03   -.560E+01 -.669E+02 0.888E+03   0.700E-01 0.112E+00 0.746E+01
   0.371E+02 0.576E+02 0.102E+04   -.377E+02 -.581E+02 -.102E+04   0.415E+00 0.410E+00 -.781E+01
   -.134E+02 0.135E+02 0.109E+04   0.134E+02 -.134E+02 -.108E+04   0.473E-01 -.477E-01 -.603E+01
   0.120E+03 0.120E+03 -.680E+03   -.122E+03 -.122E+03 0.673E+03   0.161E+01 0.161E+01 0.665E+01
   0.721E+02 0.176E+03 -.669E+03   -.740E+02 -.178E+03 0.663E+03   0.130E+01 0.144E+01 0.518E+01
   0.135E+02 -.134E+02 0.109E+04   -.134E+02 0.134E+02 -.108E+04   -.477E-01 0.473E-01 -.603E+01
   -.371E+02 -.576E+02 0.103E+04   0.377E+02 0.581E+02 -.102E+04   -.415E+00 -.410E+00 -.781E+01
   -.721E+02 -.176E+03 -.668E+03   0.740E+02 0.178E+03 0.663E+03   -.130E+01 -.144E+01 0.518E+01
   -.120E+03 -.120E+03 -.680E+03   0.122E+03 0.122E+03 0.673E+03   -.161E+01 -.161E+01 0.664E+01
[...]
   -.214E+02 0.162E+02 0.718E+03   0.216E+02 -.163E+02 -.722E+03   -.193E+00 0.886E-01 0.341E+01
   -.665E+01 0.888E+01 0.707E+03   0.669E+01 -.890E+01 -.711E+03   -.593E-01 0.380E-01 0.340E+01
   -.498E+02 0.150E+02 -.673E+03   0.499E+02 -.149E+02 0.677E+03   -.200E+00 -.643E-01 -.368E+01
   -.161E+02 0.159E+01 -.684E+03   0.162E+02 -.157E+01 0.688E+03   -.434E-01 -.270E-01 -.361E+01
   -.299E+02 -.823E+00 0.725E+03   0.300E+02 0.895E+00 -.729E+03   -.155E+00 -.918E-01 0.334E+01
   -.118E+02 0.793E+01 0.713E+03   0.118E+02 -.793E+01 -.717E+03   -.877E-01 -.118E-02 0.338E+01
   -.376E+02 -.162E+02 -.679E+03   0.377E+02 0.163E+02 0.683E+03   -.508E-01 -.681E-01 -.367E+01
   -.470E+01 -.116E+02 -.687E+03   0.468E+01 0.116E+02 0.691E+03   0.238E-01 -.833E-02 -.359E+01
   -.175E+02 -.138E+02 0.715E+03   0.175E+02 0.139E+02 -.719E+03   -.383E-01 -.527E-01 0.336E+01
   -.728E+01 -.481E+01 0.713E+03   0.728E+01 0.483E+01 -.717E+03   -.148E-01 -.233E-01 0.337E+01
   -.153E+02 -.166E+02 -.688E+03   0.153E+02 0.166E+02 0.692E+03   0.613E-02 -.858E-02 -.359E+01
   -.129E+01 -.877E+01 -.691E+03   0.127E+01 0.878E+01 0.695E+03   0.250E-01 -.442E-02 -.356E+01
   -.824E+01 -.823E+01 0.707E+03   0.823E+01 0.823E+01 -.711E+03   -.309E-02 -.309E-02 0.339E+01
   -.171E+01 -.987E+01 0.708E+03   0.168E+01 0.989E+01 -.712E+03   0.284E-01 -.174E-01 0.339E+01
   -.728E+00 0.723E+00 0.223E+02   0.165E-11 -.114E-12 0.819E-11   0.391E-02 0.391E-02 -.196E+02

 POSITION                                       TOTAL-FORCE (eV/Angst)
      8.42022     12.71964     13.21830        -0.128851      0.128972     -0.188479
      6.77748     14.36235     13.25117         0.114979     -0.115007     -0.180982
     12.24845      8.89138     13.25117        -0.115007      0.114979     -0.180982
     10.60574     10.53411     13.21830         0.128972     -0.128851     -0.188479
      0.00000      0.00000      9.00000        -0.006067      0.006035      0.544519
      2.11389      2.11389      9.00000        -0.001956      0.007185      0.545900
      0.00000      2.11389     11.11389         0.002500      0.002500     -0.481008
      2.11389      0.00000     11.11389        -0.005252      0.016697     -0.478500
      0.00000      4.22777      9.00000         0.007185     -0.001956      0.545900
      2.11389      6.34166      9.00000        -0.002169     -0.006617      0.549595
      0.00000      6.34166     11.11389         0.011003     -0.000639     -0.476435
      2.11389      4.22777     11.11389         0.003167      0.003167     -0.477643
      0.00000      8.45554      9.00000         0.006112     -0.004807      0.549337
      2.11389     10.56943      9.00000        -0.028830     -0.020317      0.557884
      0.00000     10.56943     11.11389         0.002144     -0.003548     -0.468441
      2.11389      8.45554     11.11389         0.003553     -0.005105     -0.463488
      0.00000     12.68331      9.00000        -0.019029     -0.004925      0.551190
      2.11389     14.79720      9.00000        -0.079099     -0.004673      0.555817
      0.00000     14.79720     11.11389        -0.023465     -0.003594     -0.469722
      2.11389     12.68331     11.11389        -0.025681     -0.020058     -0.440643
      0.00000     16.91108      9.00000        -0.027577      0.005581      0.547891
      2.11389     19.02497      9.00000        -0.024492      0.024491      0.543192
      0.00000     19.02497     11.11389        -0.016732      0.005238     -0.478489
      2.11389     16.91108     11.11389        -0.068042      0.005445     -0.463570
      4.22777      0.00000      9.00000        -0.005563      0.027550      0.547879
      6.34166      2.11389      9.00000        -0.004807      0.006112      0.549337
      4.22777      2.11389     11.11389        -0.000639      0.011003     -0.476435
      6.34166      0.00000     11.11389         0.003582      0.023417     -0.469730
      4.22777      4.22777      9.00000        -0.006617     -0.002169      0.549595
      6.34166      6.34166      9.00000        -0.031132     -0.029039      0.564042
      4.22777      6.34166     11.11389        -0.000261     -0.000261     -0.462057
      6.34166      4.22777     11.11389        -0.005105      0.003553     -0.463488
      4.22777      8.45554      9.00000        -0.029039     -0.031132      0.564042
      6.34166     10.56943      9.00000        -0.117243     -0.119763      0.585927
      4.22777     10.56943     11.11389        -0.001939     -0.020002     -0.376221
      6.34166      8.45554     11.11389        -0.013576     -0.013576     -0.386515
      4.22777     12.68331      9.00000        -0.127310     -0.064008      0.561708
      6.34166     14.79720      9.00000        -0.063372      0.063498      0.160108
      4.22777     14.79720     11.11389        -0.472762     -0.060120     -0.453295
      6.34166     12.68331     11.11389        -0.530906     -0.582891     -0.144473
      4.22777     16.91108      9.00000        -0.068701      0.068709      0.510621
      6.34166     19.02497      9.00000         0.004695      0.079100      0.555883
      4.22777     19.02497     11.11389        -0.005426      0.068014     -0.463557
      6.34166     16.91108     11.11389         0.060195      0.472870     -0.453268
      8.45554      0.00000      9.00000         0.004961      0.018955      0.551150
     10.56943      2.11389      9.00000        -0.004925     -0.019029      0.551190
      8.45554      2.11389     11.11389        -0.003548      0.002144     -0.468441
     10.56943      0.00000     11.11389         0.003557     -0.002221     -0.468431
      8.45554      4.22777      9.00000        -0.020317     -0.028830      0.557884
     10.56943      6.34166      9.00000        -0.064008     -0.127310      0.561708
      8.45554      6.34166     11.11389        -0.020002     -0.001939     -0.376221
     10.56943      4.22777     11.11389        -0.020058     -0.025681     -0.440643
      8.45554      8.45554      9.00000        -0.119763     -0.117243      0.585927
     10.56943     10.56943      9.00000        -0.016039      0.016082      0.147627
      8.45554     10.56943     11.11389        -0.580439     -0.580439     -0.405924
     10.56943      8.45554     11.11389        -0.582891     -0.530906     -0.144473
      8.45554     12.68331      9.00000         0.016082     -0.016039      0.147627
     10.56943     14.79720      9.00000         0.119773      0.117284      0.586228
      8.45554     14.79720     11.11389         0.583469      0.531338     -0.144834
     10.56943     12.68331     11.11389         0.580643      0.580643     -0.406173
[...]
     19.02497      6.34166     11.11389        -0.022743      0.004400      0.314978
     16.91108      6.34166      9.00000        -0.055166      0.025040     -0.381109
     19.02497      4.22777      9.00000        -0.016533      0.010591     -0.385665
     16.91108      8.45554     11.11389        -0.060622     -0.017151      0.292172
     19.02497     10.56943     11.11389        -0.012485     -0.007584      0.306995
     16.91108     10.56943      9.00000        -0.046191     -0.026037     -0.399887
     19.02497      8.45554      9.00000        -0.024802     -0.000251     -0.389151
     16.91108     12.68331     11.11389        -0.015734     -0.019936      0.290909
     19.02497     14.79720     11.11389         0.006590     -0.002365      0.312537
     16.91108     14.79720      9.00000        -0.010879     -0.014885     -0.394398
     19.02497     12.68331      9.00000        -0.004250     -0.006559     -0.391743
     16.91108     16.91108     11.11389         0.001584     -0.002509      0.312897
     19.02497     19.02497     11.11389         0.006939     -0.001275      0.320388
     16.91108     19.02497      9.00000        -0.000898     -0.000898     -0.387760
     19.02497     16.91108      9.00000         0.007901     -0.004892     -0.387896
    total drift:                               -0.724582      0.726917      2.738493

  FREE ENERGIE OF THE ION-ELECTRON SYSTEM (eV)
  free  energy   TOTEN  =     -1598.05802736 eV

  energy  without entropy=    -1598.05802736  energy(sigma->0) =    -1598.05802736