 vasp.6.3.0 20Jan22 (build Apr  1 2022 16:44:48) complex
 executed on        HPECrayEX_GCC date 2023.01.09  21:40:22

 INCAR:
   SYSTEM = MgO-rocksalt
   ISMEAR = 0
   SIGMA = 0.05
   EDIFF = 1E-6
   ALGO = ALL
   ISTART = 0
   IBRION = -1
   NSW = 0
   ISYM = 2
   DIPOL = 0.5 0.5 0.5
   IDIPOL = 3
   LDIPOL = .TRUE.
   METAGGA = M06L
   ENCUT = 520
   PREC = Accurate
   LASPH = .TRUE.
   LREAL = Auto
   ISPIN = 1
   NELM = 200
   NELMIN = 8
   NCORE = 4
   KPAR = 2
   LWAVE = .FALSE.
   LCHARG = .FALSE.

 POTCAR:    PAW_PBE Ag 02Apr2005
 POTCAR:    PAW_PBE Mg_pv 13Apr2007
 POTCAR:    PAW_PBE O 08Apr2002
 POTCAR:    PAW_PBE Ag 02Apr2005
   VRHFIN =Ag : s1 d10

   TITEL  = PAW_PBE Ag 02Apr2005
   POMASS =  107.868; ZVAL   =   11.000    mass and valenz
   ENMAX  =  249.844; ENMIN  =  187.383 eV

   TITEL  = PAW_PBE Mg_pv 13Apr2007
   POMASS =   24.305; ZVAL   =    8.000    mass and valenz
   ENMAX  =  403.929; ENMIN  =  302.947 eV

   TITEL  = PAW_PBE O 08Apr2002
   POMASS =   16.000; ZVAL   =    6.000    mass and valenz
   ENMAX  =  400.000; ENMIN  =  300.000 eV

 Optimization of the real space projectors (new method)

 maximal supplied QI-value         = 15.12
 optimisation between [QCUT,QGAM] = [ 11.64, 23.28] = [ 37.95,151.78] Ry
 Optimized for a Real-space Cutoff    1.45 Angstroem

   l    n(q)    QCUT    max X(q) W(low)/X(q) W(high)/X(q)  e(spline)
   2      9    11.641    53.897    0.22E-03    0.42E-04    0.28E-06
   2      9    11.641    52.416    0.23E-03    0.44E-04    0.29E-06
   0     10    11.641   122.045    0.51E-04    0.25E-04    0.16E-06
   0     10    11.641    73.629    0.49E-04    0.24E-04    0.16E-06
   1     10    11.641    15.255    0.99E-04    0.55E-04    0.11E-06
   1     10    11.641     9.562    0.81E-04    0.47E-04    0.95E-07
 Optimization of the real space projectors (new method)

[...]

   l    n(q)    QCUT    max X(q) W(low)/X(q) W(high)/X(q)  e(spline)
   1      8    11.527     2.974    0.44E-04    0.56E-04    0.12E-06
   1      8    11.527     4.279    0.12E-03    0.12E-03    0.26E-06
   0      9    11.527    16.381    0.46E-04    0.64E-04    0.78E-07
   0      9    11.527     5.611    0.26E-04    0.43E-04    0.55E-07
   2      8    11.527     4.652    0.22E-03    0.72E-04    0.47E-07
 Optimization of the real space projectors (new method)

 maximal supplied QI-value         = 24.76
 optimisation between [QCUT,QGAM] = [ 11.64, 23.27] = [ 37.91,151.63] Ry
 Optimized for a Real-space Cutoff    1.14 Angstroem

   l    n(q)    QCUT    max X(q) W(low)/X(q) W(high)/X(q)  e(spline)
   0      8    11.635    20.381    0.10E-03    0.33E-03    0.24E-06
   0      8    11.635    15.268    0.11E-03    0.35E-03    0.26E-06
   1      7    11.635     5.964    0.24E-03    0.31E-03    0.30E-06
   1      7    11.635     5.382    0.22E-03    0.25E-03    0.26E-06
  PAW_PBE Ag 02Apr2005                  :
  PAW_PBE Mg_pv 13Apr2007               :
  PAW_PBE O 08Apr2002                   :

 POSCAR: Ag Mg  O
  positions in direct lattice
  velocities in cartesian coordinates

 METAGGA = M06L     LMAXTAU =  6    LMIXTAU =  F

 ion  position               nearest neighbor table
   1  0.400  0.563  0.612- 157 2.54   4 2.67   3 2.71  55 2.75
   2  0.400  0.500  0.835-   3 2.58
   3  0.400  0.499  0.718-   2 2.58   1 2.71   4 2.71
   4  0.400  0.436  0.612- 153 2.53   1 2.67   3 2.71  55 2.76
   5  0.000  0.000  0.407- 107 2.11 108 2.11 123 2.11 188 2.11 105 2.11
   6  0.100  0.100  0.407- 107 2.11 108 2.11 112 2.11 127 2.11 106 2.11
   7  0.000  0.100  0.503- 105 2.11 106 2.11 109 2.11 186 2.11 107 2.11
   8  0.100  0.000  0.503- 105 2.11 106 2.11 122 2.11 125 2.11 108 2.11
   9  0.000  0.200  0.407- 111 2.11 107 2.11 112 2.11 192 2.11 109 2.11
  10  0.100  0.300  0.407- 112 2.11 111 2.11 116 2.11 131 2.11 110 2.11
  11  0.000  0.300  0.503- 109 2.11 110 2.11 113 2.11 190 2.11 111 2.11
  12  0.100  0.200  0.503- 110 2.11 109 2.11 106 2.11 129 2.11 112 2.11
  13  0.000  0.400  0.407- 111 2.11 115 2.11 116 2.11 196 2.11 113 2.11
  14  0.100  0.500  0.407- 115 2.11 116 2.11 120 2.11 135 2.11 114 2.11
  15  0.000  0.500  0.503- 113 2.11 114 2.11 117 2.11 194 2.11 115 2.11
  16  0.100  0.400  0.503- 110 2.11 113 2.11 114 2.11 133 2.11 116 2.11
  17  0.000  0.600  0.407- 115 2.11 119 2.11 120 2.11 200 2.11 117 2.11
  18  0.100  0.700  0.407- 124 2.11 120 2.11 119 2.11 139 2.11 118 2.11
  19  0.000  0.700  0.503- 121 2.11 118 2.11 117 2.11 198 2.11 119 2.11
  20  0.100  0.600  0.503- 114 2.11 117 2.11 118 2.11 137 2.11 120 2.11
  21  0.000  0.800  0.407- 119 2.11 123 2.11 124 2.11 204 2.11 121 2.11
  22  0.100  0.900  0.407- 108 2.11 123 2.11 124 2.11 143 2.11 122 2.11
  23  0.000  0.900  0.503- 105 2.11 121 2.11 122 2.11 202 2.11 123 2.11
  24  0.100  0.800  0.503- 118 2.11 121 2.11 122 2.11 141 2.11 124 2.11
  25  0.200  0.000  0.407- 128 2.11 127 2.11 108 2.11 143 2.11 125 2.11
  26  0.300  0.100  0.407- 127 2.11 128 2.11 132 2.11 147 2.11 126 2.11
  27  0.200  0.100  0.503- 126 2.11 125 2.11 106 2.11 129 2.11 127 2.11
  28  0.300  0.000  0.503- 125 2.11 126 2.11 142 2.11 145 2.11 128 2.11
  29  0.200  0.200  0.407- 131 2.11 132 2.11 112 2.11 127 2.11 129 2.11
  30  0.300  0.300  0.407- 131 2.11 132 2.11 136 2.11 151 2.11 130 2.11
  31  0.200  0.300  0.503- 129 2.11 130 2.11 110 2.11 133 2.11 131 2.11
  32  0.300  0.200  0.503- 129 2.11 130 2.11 126 2.11 149 2.11 132 2.11
  33  0.200  0.400  0.407- 136 2.11 131 2.11 135 2.11 116 2.11 133 2.11
  34  0.300  0.500  0.407- 135 2.11 136 2.11 140 2.11 155 2.11 134 2.11
  35  0.200  0.500  0.503- 134 2.11 133 2.11 114 2.11 137 2.11 135 2.11
  36  0.300  0.400  0.503- 133 2.11 130 2.11 134 2.11 153 2.11 136 2.11
  37  0.200  0.600  0.407- 140 2.11 135 2.11 139 2.11 120 2.11 137 2.11
  38  0.300  0.700  0.407- 139 2.11 144 2.11 140 2.11 159 2.11 138 2.11
  39  0.200  0.700  0.503- 138 2.11 141 2.11 118 2.11 137 2.11 139 2.11
  40  0.300  0.600  0.503- 137 2.11 134 2.11 138 2.11 157 2.11 140 2.11
  41  0.200  0.800  0.407- 139 2.11 144 2.11 143 2.11 124 2.11 141 2.11
  42  0.300  0.900  0.407- 143 2.11 128 2.11 144 2.11 163 2.11 142 2.11
  43  0.200  0.900  0.503- 142 2.11 125 2.11 141 2.11 122 2.11 143 2.11
  44  0.300  0.800  0.503- 138 2.11 141 2.11 142 2.11 161 2.11 144 2.11
  45  0.400  0.000  0.407- 128 2.11 147 2.11 148 2.11 163 2.11 145 2.11
  46  0.500  0.100  0.407- 147 2.11 148 2.11 152 2.11 167 2.11 146 2.11
  47  0.400  0.100  0.503- 126 2.11 145 2.11 146 2.11 149 2.11 147 2.11
  48  0.500  0.000  0.503- 145 2.11 146 2.11 162 2.11 165 2.11 148 2.11
  49  0.400  0.200  0.407- 151 2.11 147 2.11 132 2.11 152 2.11 149 2.11
  50  0.500  0.300  0.407- 152 2.11 151 2.11 156 2.11 171 2.11 150 2.11
  51  0.400  0.300  0.503- 149 2.11 130 2.11 150 2.11 153 2.11 151 2.11
  52  0.500  0.200  0.503- 150 2.11 149 2.11 146 2.11 169 2.11 152 2.11
  53  0.400  0.400  0.407- 136 2.11 151 2.11 155 2.11 156 2.11 153 2.11
  54  0.500  0.500  0.407- 155 2.11 156 2.11 160 2.11 175 2.11 154 2.11
  55  0.400  0.500  0.503- 134 2.11 153 2.11 154 2.11 157 2.11 155 2.11   1 2.75   4 2.76
  56  0.500  0.400  0.503- 150 2.11 153 2.11 154 2.11 173 2.11 156 2.11
  57  0.400  0.600  0.407- 140 2.11 155 2.11 159 2.11 160 2.11 157 2.11
  58  0.500  0.700  0.407- 164 2.11 160 2.11 159 2.11 179 2.11 158 2.11
  59  0.400  0.700  0.503- 161 2.11 157 2.11 158 2.11 138 2.11 159 2.11
  60  0.500  0.600  0.503- 154 2.11 157 2.11 158 2.11 177 2.11 160 2.11
[...]
 190  0.900  0.300  0.503-  92 2.11  91 2.11  11 2.11  96 2.11  90 2.11
 191  0.800  0.300  0.407-  70 2.11  89 2.11  90 2.11  93 2.11  91 2.11
 192  0.900  0.200  0.407-  90 2.11  86 2.11  89 2.11   9 2.11  92 2.11
 193  0.800  0.400  0.503-  76 2.11  91 2.11  95 2.11  96 2.11  93 2.11
 194  0.900  0.500  0.503-  15 2.11  95 2.11  96 2.11 100 2.11  94 2.11
 195  0.800  0.500  0.407-  74 2.11  93 2.11  94 2.11  97 2.11  95 2.11
 196  0.900  0.400  0.407-  13 2.11  90 2.11  93 2.11  94 2.11  96 2.11
 197  0.800  0.600  0.503-  80 2.11  95 2.11  99 2.11 100 2.11  97 2.11
 198  0.900  0.700  0.503- 104 2.11  99 2.11 100 2.11  19 2.11  98 2.11
 199  0.800  0.700  0.407-  78 2.11 101 2.11  98 2.11  97 2.11  99 2.11
 200  0.900  0.600  0.407-  17 2.11  94 2.11  97 2.11  98 2.11 100 2.11
 201  0.800  0.800  0.503-  84 2.11  99 2.11 103 2.11 104 2.11 101 2.11
 202  0.900  0.900  0.503-  23 2.11  88 2.11 103 2.11 104 2.11 102 2.11
 203  0.800  0.900  0.407-  82 2.11  85 2.11 101 2.11 102 2.11 103 2.11
 204  0.900  0.800  0.407-  98 2.11  21 2.11 101 2.11 102 2.11 104 2.11

  LATTYP: Found a simple tetragonal cell.
 ALAT       =    21.1388521970
 C/A-ratio  =     1.0461251639

  Lattice vectors:

 A1 = (  21.1388521970,   0.0000000000,   0.0000000000)
 A2 = (   0.0000000000,  21.1388521970,   0.0000000000)
 A3 = (   0.0000000000,   0.0000000000,  22.1138852197)

Analysis of symmetry for initial positions (statically):
 Subroutine PRICEL returns:
 Original cell was already a primitive cell.

 Routine SETGRP: Setting up the symmetry group for a
 simple tetragonal supercell.

 Subroutine GETGRP returns: Found  1 space group operations
 (whereof  1 operations were pure point group operations)
 out of a pool of 16 trial point group operations.

The static configuration has the point symmetry C_1 .

Analysis of symmetry for dynamics (positions and initial velocities):
 Subroutine PRICEL returns:
 Original cell was already a primitive cell.

[...]

The dynamic configuration has the point symmetry C_1 .

Analysis of constrained symmetry for selective dynamics:
 Subroutine PRICEL returns:
 Original cell was already a primitive cell.

 Routine SETGRP: Setting up the symmetry group for a
 simple tetragonal supercell.

 Subroutine GETGRP returns: Found  1 space group operations
 (whereof  1 operations were pure point group operations)
 out of a pool of 16 trial point group operations.

The constrained configuration has the point symmetry C_1 .

 Subroutine INISYM returns: Found  1 space group operations
 (whereof  1 operations are pure point group operations),
 and found     1 'primitive' translations

                                     Primitive cell

  volume of cell :    9881.6133

  direct lattice vectors                    reciprocal lattice vectors
    21.138852197  0.000000000  0.000000000     0.047306258  0.000000000  0.000000000
     0.000000000 21.138852197  0.000000000     0.000000000  0.047306258  0.000000000
     0.000000000  0.000000000 22.113885220     0.000000000  0.000000000  0.045220457

  length of vectors
    21.138852197 21.138852197 22.113885220     0.047306258  0.047306258  0.045220457

  position of ions in fractional coordinates (direct lattice)
     0.400262498  0.562644202  0.611757253
     0.400180406  0.499857897  0.835303009
     0.400101799  0.499467099  0.718499130
     0.400198249  0.436299472  0.611663944
     0.000000000  0.000000000  0.406984115
     0.100000000  0.100000000  0.406984115
     0.000000000  0.100000000  0.502574971
     0.100000000  0.000000000  0.502574971
     0.000000000  0.200000000  0.406984115
     0.100000000  0.300000000  0.406984115
     0.000000000  0.300000000  0.502574971
     0.100000000  0.200000000  0.502574971
     0.000000000  0.400000000  0.406984115
[...]
     52     -44.7260      2.00000
     53     -44.7236      2.00000
     54     -44.7082      2.00000
     55     -44.7065      2.00000
     56     -44.7028      2.00000
     57     -44.7009      2.00000
     58     -44.6999      2.00000
     59     -44.6985      2.00000
     60     -44.6963      2.00000
[...]
    946       9.5158      0.00000
    947       9.5310      0.00000
    948       9.6712      0.00000
    949       9.6963      0.00000
    950       9.7279      0.00000
    951       9.7973      0.00000
    952      10.0057      0.00000
    953      10.1404      0.00000
    954      10.1953      0.00000
    955      10.4144      0.00000
    956      10.6152      0.00000
    957      10.7175      0.00000
    958      11.0760      0.00000
    959      11.5787      0.00000
    960      11.9106      0.00000

 soft charge-density along one line, spin component           1
         0         1         2         3         4         5         6         7         8         9
 total charge-density along one line

------------------------ aborting loop EDIFF was not reached (unconverged)  ----------------------------

  FORCE on cell =-STRESS in cart. coord.  units (eV):
  Direction    XX          YY          ZZ          XY          YZ          ZX
  Alpha Z  1401.13727  1401.13727  1401.13727
  Ewald  473476.01013474520.77188************     0.52185     3.38727    -0.69588
  Hartree503395.15508504181.64944************     0.40394     2.82329    -0.69527
  E(xc)   -8983.74387 -8983.26271 -8976.27334     0.06878     0.10146    -0.23228
  Local  ************************************    -0.92097    -6.29198     1.47469
  n-local -8732.26638 -8734.02931 -8875.57700     0.01986     0.04808    -0.04101
  augment  4509.84056  4507.19944  4476.98147     0.00430     0.08588     0.09244
  Kinetic 23413.27719 23406.64803 23612.78869     0.02700     0.04736    -0.01990
  Fock        0.00000     0.00000     0.00000     0.00000     0.00000     0.00000
  Total    -231.02103  -230.04320     3.44912     0.12475     0.20135    -0.11721
  in kB     -37.45711   -37.29857     0.55923     0.02023     0.03265    -0.01900

 VOLUME and BASIS-vectors are now :
  energy-cutoff  :      520.00
  volume of cell :     9881.61
      direct lattice vectors                 reciprocal lattice vectors
    21.138852197  0.000000000  0.000000000     0.047306258  0.000000000  0.000000000
     0.000000000 21.138852197  0.000000000     0.000000000  0.047306258  0.000000000
     0.000000000  0.000000000 22.113885220     0.000000000  0.000000000  0.045220457

  length of vectors
    21.138852197 21.138852197 22.113885220     0.047306258  0.047306258  0.045220457

 FORCES acting on ions:
    Electron-Ion                     Ewald-Force                    Non-Local-Force
   -.465E+00 -.382E+03 -.187E+04   0.464E+00 0.376E+03 0.187E+04   -.173E-01 0.633E+01 -.200E+01
   -.322E+00 -.803E+00 -.113E+04   0.141E+00 0.967E+00 0.113E+04   0.695E-01 -.827E-01 0.526E+01
   0.663E+00 0.122E+01 -.162E+04   -.637E+00 -.107E+01 0.162E+04   -.417E-01 -.705E-01 -.633E+00
   0.972E-01 0.381E+03 -.187E+04   0.760E-01 -.376E+03 0.187E+04   -.143E+00 -.619E+01 -.201E+01
   0.613E+01 0.444E-01 0.936E+03   -.618E+01 -.325E-01 -.927E+03   0.269E-01 0.729E-02 -.671E+01
   0.120E+02 0.909E+01 0.939E+03   -.121E+02 -.914E+01 -.930E+03   0.761E-01 0.279E-01 -.659E+01
   0.878E+01 0.827E+01 -.919E+03   -.884E+01 -.829E+01 0.910E+03   0.299E-01 0.370E-02 0.927E+01
   0.128E+02 0.736E-01 -.918E+03   -.129E+02 -.592E-01 0.909E+03   0.424E-01 -.206E-01 0.974E+01
   0.943E+01 0.111E+02 0.939E+03   -.950E+01 -.111E+02 -.930E+03   0.671E-01 0.288E-01 -.661E+01
   0.245E+02 0.176E+02 0.950E+03   -.247E+02 -.177E+02 -.941E+03   0.188E+00 0.584E-01 -.674E+01
   0.182E+02 0.153E+02 -.913E+03   -.182E+02 -.153E+02 0.904E+03   0.773E-01 0.235E-01 0.918E+01
   0.234E+02 0.219E+02 -.912E+03   -.235E+02 -.220E+02 0.903E+03   0.130E+00 0.587E-01 0.101E+02
   0.163E+02 0.756E+01 0.945E+03   -.164E+02 -.757E+01 -.936E+03   0.957E-01 0.198E-01 -.681E+01
   0.354E+02 -.682E-01 0.959E+03   -.357E+02 0.660E-01 -.950E+03   0.255E+00 0.460E-02 -.722E+01
   0.260E+02 -.558E-01 -.909E+03   -.262E+02 0.530E-01 0.900E+03   0.949E-01 0.278E-02 0.921E+01
   0.514E+02 0.179E+02 -.896E+03   -.517E+02 -.180E+02 0.887E+03   0.230E+00 0.290E-01 0.936E+01
   0.162E+02 -.762E+01 0.945E+03   -.164E+02 0.763E+01 -.936E+03   0.103E+00 -.156E-01 -.684E+01
   0.244E+02 -.176E+02 0.950E+03   -.246E+02 0.177E+02 -.940E+03   0.194E+00 -.472E-01 -.717E+01
   0.181E+02 -.153E+02 -.913E+03   -.182E+02 0.153E+02 0.904E+03   0.800E-01 -.176E-01 0.924E+01
   0.513E+02 -.181E+02 -.896E+03   -.516E+02 0.181E+02 0.887E+03   0.237E+00 -.255E-01 0.923E+01
   0.941E+01 -.111E+02 0.939E+03   -.947E+01 0.111E+02 -.930E+03   0.533E-01 -.145E-01 -.685E+01
   0.120E+02 -.901E+01 0.939E+03   -.121E+02 0.905E+01 -.930E+03   0.696E-01 -.337E-01 -.739E+01
   0.875E+01 -.820E+01 -.919E+03   -.882E+01 0.822E+01 0.910E+03   0.356E-01 -.359E-03 0.941E+01
   0.233E+02 -.218E+02 -.912E+03   -.234E+02 0.219E+02 0.903E+03   0.139E+00 -.607E-01 0.955E+01
   0.109E+02 0.649E-01 0.940E+03   -.110E+02 -.642E-01 -.931E+03   0.610E-01 0.395E-03 -.674E+01
   0.863E+01 0.168E+02 0.946E+03   -.870E+01 -.170E+02 -.937E+03   0.690E-01 0.128E+00 -.701E+01
   0.172E+02 0.184E+02 -.913E+03   -.173E+02 -.185E+02 0.903E+03   0.906E-01 0.685E-01 0.927E+01
   0.907E+01 0.121E+00 -.913E+03   -.912E+01 -.119E+00 0.904E+03   0.511E-01 0.328E-02 0.905E+01
   0.196E+02 0.238E+02 0.951E+03   -.197E+02 -.240E+02 -.941E+03   0.159E+00 0.143E+00 -.683E+01
   0.245E+02 0.426E+02 0.983E+03   -.248E+02 -.430E+02 -.974E+03   0.277E+00 0.332E+00 -.622E+01
   0.533E+02 0.482E+02 -.885E+03   -.538E+02 -.483E+02 0.876E+03   0.418E+00 0.114E+00 0.945E+01
   0.226E+02 0.546E+02 -.893E+03   -.227E+02 -.551E+02 0.884E+03   0.131E+00 0.380E+00 0.931E+01
   0.439E+02 0.204E+02 0.979E+03   -.444E+02 -.205E+02 -.970E+03   0.429E+00 0.809E-01 -.709E+01
   0.455E+02 -.191E+00 0.103E+04   -.460E+02 0.208E+00 -.102E+04   0.437E+00 -.127E-01 -.728E+01
   0.103E+03 -.254E+00 -.850E+03   -.104E+03 0.236E+00 0.841E+03   0.454E+00 0.118E-01 0.955E+01
   0.115E+03 0.852E+02 -.769E+03   -.117E+03 -.852E+02 0.760E+03   0.149E+01 0.107E+00 0.857E+01
   0.437E+02 -.206E+02 0.979E+03   -.442E+02 0.207E+02 -.970E+03   0.422E+00 -.892E-01 -.661E+01
   0.244E+02 -.426E+02 0.983E+03   -.247E+02 0.429E+02 -.974E+03   0.262E+00 -.339E+00 -.681E+01
   0.530E+02 -.481E+02 -.886E+03   -.535E+02 0.482E+02 0.877E+03   0.389E+00 -.126E+00 0.942E+01
   0.114E+03 -.856E+02 -.770E+03   -.116E+03 0.858E+02 0.761E+03   0.144E+01 -.113E+00 0.854E+01
   0.195E+02 -.237E+02 0.950E+03   -.197E+02 0.239E+02 -.941E+03   0.163E+00 -.137E+00 -.696E+01
   0.860E+01 -.167E+02 0.946E+03   -.867E+01 0.168E+02 -.937E+03   0.582E-01 -.116E+00 -.739E+01
   0.172E+02 -.182E+02 -.913E+03   -.172E+02 0.183E+02 0.904E+03   0.814E-01 -.638E-01 0.913E+01
   0.224E+02 -.542E+02 -.893E+03   -.225E+02 0.547E+02 0.884E+03   0.132E+00 -.358E+00 0.950E+01
   0.145E-01 0.961E-01 0.944E+03   -.152E-01 -.907E-01 -.935E+03   0.410E-03 -.222E-02 -.736E+01
   -.860E+01 0.168E+02 0.946E+03   0.868E+01 -.170E+02 -.937E+03   -.615E-01 0.136E+00 -.706E+01
   0.258E-01 0.283E+02 -.907E+03   -.251E-01 -.285E+02 0.898E+03   -.841E-02 0.180E+00 0.928E+01
   -.903E+01 0.121E+00 -.913E+03   0.909E+01 -.118E+00 0.904E+03   -.437E-01 -.234E-02 0.896E+01
   0.423E-01 0.369E+02 0.963E+03   -.309E-01 -.373E+02 -.953E+03   -.933E-02 0.377E+00 -.723E+01
   -.244E+02 0.427E+02 0.983E+03   0.248E+02 -.430E+02 -.974E+03   -.283E+00 0.333E+00 -.672E+01
   0.149E+00 0.119E+03 -.826E+03   -.144E+00 -.121E+03 0.816E+03   0.227E-01 0.150E+01 0.947E+01
   -.225E+02 0.547E+02 -.893E+03   0.227E+02 -.551E+02 0.884E+03   -.142E+00 0.373E+00 0.929E+01
   0.115E+00 0.406E+02 0.104E+04   -.101E+00 -.408E+02 -.103E+04   0.624E-02 0.232E+00 -.615E+01
   -.454E+02 -.201E+00 0.103E+04   0.459E+02 0.201E+00 -.102E+04   -.414E+00 0.250E-02 -.746E+01
   0.595E+00 -.699E+00 -.564E+03   -.618E+00 0.681E+00 0.558E+03   -.642E-01 0.113E+00 0.485E+01
   -.115E+03 0.854E+02 -.769E+03   0.117E+03 -.855E+02 0.760E+03   -.146E+01 0.970E-01 0.851E+01
   0.997E-01 -.409E+02 0.104E+04   -.109E+00 0.411E+02 -.103E+04   0.102E-01 -.255E+00 -.655E+01
   -.243E+02 -.426E+02 0.983E+03   0.246E+02 0.430E+02 -.974E+03   -.264E+00 -.303E+00 -.689E+01
   0.169E+00 -.118E+03 -.827E+03   -.167E+00 0.120E+03 0.818E+03   -.383E-01 -.145E+01 0.959E+01
   -.114E+03 -.860E+02 -.770E+03   0.116E+03 0.861E+02 0.761E+03   -.145E+01 -.130E+00 0.864E+01
[...]
   -.979E+01 0.880E+01 0.708E+03   0.983E+01 -.882E+01 -.711E+03   -.671E-01 0.227E-01 0.352E+01
   -.328E-01 0.716E+01 0.704E+03   0.140E-01 -.718E+01 -.708E+03   0.142E-02 0.229E-01 0.351E+01
   -.179E+02 0.752E+01 -.684E+03   0.179E+02 -.755E+01 0.687E+03   -.687E-01 0.185E-01 -.304E+01
   -.209E-01 -.311E-01 -.686E+03   0.369E-01 0.302E-01 0.689E+03   0.207E-02 0.272E-03 -.302E+01
   -.133E+02 -.338E-01 0.711E+03   0.134E+02 0.291E-01 -.714E+03   -.821E-01 -.392E-03 0.342E+01
   -.271E-01 0.473E+01 0.708E+03   0.240E-01 -.472E+01 -.711E+03   0.496E-02 0.142E-01 0.344E+01
   -.178E+02 -.758E+01 -.684E+03   0.179E+02 0.761E+01 0.687E+03   -.749E-01 -.123E-01 -.304E+01
   -.309E-01 -.929E+01 -.688E+03   0.269E-01 0.930E+01 0.692E+03   0.413E-02 -.234E-01 -.302E+01
   -.976E+01 -.879E+01 0.708E+03   0.980E+01 0.883E+01 -.711E+03   -.714E-01 -.342E-01 0.359E+01
   -.287E-01 -.476E+01 0.708E+03   0.245E-01 0.476E+01 -.711E+03   0.572E-02 -.907E-02 0.349E+01
   -.942E+01 -.106E+02 -.689E+03   0.944E+01 0.106E+02 0.692E+03   -.516E-01 -.241E-01 -.310E+01
   -.277E-01 -.524E+01 -.691E+03   0.135E-01 0.524E+01 0.695E+03   0.814E-02 -.649E-02 -.300E+01
   -.528E+01 -.493E+01 0.704E+03   0.529E+01 0.492E+01 -.707E+03   -.319E-01 -.117E-01 0.342E+01
   -.284E-01 -.715E+01 0.704E+03   0.147E-01 0.716E+01 -.708E+03   0.578E-02 -.179E-01 0.348E+01
   -.562E+00 0.571E+00 -.517E+02   0.232E-11 0.119E-11 0.182E-11   -.144E+00 0.234E+00 0.146E+03

 POSITION                                       TOTAL-FORCE (eV/Angst)
      8.46109     11.89365     13.52833        -0.014980      0.323682     -0.635886
      8.45935     10.56642     18.47179        -0.088700     -0.000187      0.480937
      8.45769     10.55816     15.88881        -0.074936     -0.091037     -0.803444
      8.45973      9.22287     13.52627         0.040789     -0.387848     -0.667652
      0.00000      0.00000      9.00000        -0.024860     -0.012362      1.712564
      2.11389      2.11389      9.00000        -0.017347     -0.012150      1.814481
      0.00000      2.11389     11.11389        -0.025966     -0.019542     -0.608847
      2.11389      0.00000     11.11389         0.003502      0.039475     -0.914844
      0.00000      4.22777      9.00000        -0.008327     -0.009816      1.839145
      2.11389      6.34166      9.00000        -0.031925     -0.005816      1.692393
      0.00000      6.34166     11.11389        -0.014617     -0.005200     -0.791456
      2.11389      4.22777     11.11389        -0.047561     -0.043803     -2.360411
      0.00000      8.45554      9.00000        -0.030945      0.002818      1.594247
      2.11389     10.56943      9.00000        -0.042631     -0.006186      1.335709
      0.00000     10.56943     11.11389        -0.011128      0.001591     -0.800125
      2.11389      8.45554     11.11389        -0.059939     -0.001121     -0.720804
      0.00000     12.68331      9.00000        -0.020607     -0.013281      1.679463
      2.11389     14.79720      9.00000        -0.034686     -0.000058      1.049476
      0.00000     14.79720     11.11389        -0.011321     -0.010658     -0.572764
      2.11389     12.68331     11.11389        -0.055350     -0.003091     -1.145059
      0.00000     16.91108      9.00000        -0.008069      0.010286      1.601176
      2.11389     19.02497      9.00000         0.001664      0.016441      0.973884
      0.00000     19.02497     11.11389        -0.024157      0.021535     -2.022582
      2.11389     16.91108     11.11389        -0.051880      0.019559     -1.097259
      4.22777      0.00000      9.00000        -0.008902     -0.015802      1.783466
      6.34166      2.11389      9.00000         0.010314     -0.031771      1.153873
      4.22777      2.11389     11.11389         0.032165     -0.027585     -0.891087
      6.34166      0.00000     11.11389         0.004552     -0.001091     -0.758632
      4.22777      4.22777      9.00000        -0.025155     -0.026858      1.383282
      6.34166      6.34166      9.00000        -0.048905     -0.034322      1.976823
      4.22777      6.34166     11.11389        -0.066930     -0.020136     -0.239705
      6.34166      4.22777     11.11389        -0.033223     -0.076703     -0.985047
      4.22777      8.45554      9.00000        -0.052467      0.005139      1.351038
      6.34166     10.56943      9.00000        -0.078491     -0.000268      1.151139
      4.22777     10.56943     11.11389        -0.153626     -0.011768     -0.404317
      6.34166      8.45554     11.11389        -0.393163      0.116064     -0.788324
      4.22777     12.68331      9.00000        -0.100810     -0.007684      1.765706
      6.34166     14.79720      9.00000        -0.051375      0.025693      1.107575
      4.22777     14.79720     11.11389        -0.112615     -0.007050     -1.164012
      6.34166     12.68331     11.11389        -0.476090      0.040542     -0.878838
      4.22777     16.91108      9.00000        -0.037545      0.023703      1.426434
      6.34166     19.02497      9.00000        -0.011064      0.026520      0.845338
      4.22777     19.02497     11.11389        -0.004481      0.024994     -0.832875
      6.34166     16.91108     11.11389        -0.015816      0.117258     -1.835698
      8.45554      0.00000      9.00000        -0.009876      0.011327      1.214194
     10.56943      2.11389      9.00000         0.041028     -0.019977      1.311705
      8.45554      2.11389     11.11389         0.002129     -0.023277     -0.895850
     10.56943      0.00000     11.11389         0.023478     -0.003694     -0.510114
      8.45554      4.22777      9.00000         0.008044     -0.066627      1.250850
     10.56943      6.34166      9.00000         0.047100     -0.027801      1.183125
      8.45554      6.34166     11.11389         0.028919     -0.401909     -0.469580
     10.56943      4.22777     11.11389        -0.002697     -0.103277     -0.614537
      8.45554      8.45554      9.00000         0.017996     -0.023643      0.567982
     10.56943     10.56943      9.00000         0.115382     -0.002527      0.875813
      8.45554     10.56943     11.11389        -0.081003      0.093229     -1.553235
     10.56943      8.45554     11.11389         0.442731     -0.021134     -0.807403
      8.45554     12.68331      9.00000         0.006599     -0.007907      0.184299
     10.56943     14.79720      9.00000         0.062670      0.056151      1.048261
      8.45554     14.79720     11.11389        -0.030215      0.418308     -0.837453
     10.56943     12.68331     11.11389         0.411557     -0.055625     -0.684273
[...]
     19.02497      6.34166     11.11389         0.001196      0.001333      0.060849
     16.91108      6.34166      9.00000        -0.024077      0.002431     -0.245759
     19.02497      4.22777      9.00000        -0.014975      0.001863     -0.288762
     16.91108      8.45554     11.11389         0.001388     -0.012408     -0.038325
     19.02497     10.56943     11.11389         0.021422     -0.004724      0.004635
     16.91108     10.56943      9.00000        -0.021251     -0.010967     -0.419034
     19.02497      8.45554      9.00000         0.000583      0.005743     -0.412781
     16.91108     12.68331     11.11389        -0.023175      0.012911     -0.048918
     19.02497     14.79720     11.11389         0.002750     -0.014760      0.033268
     16.91108     14.79720      9.00000        -0.028707      0.005234     -0.206650
     19.02497     12.68331      9.00000         0.004421     -0.011845     -0.360795
     16.91108     16.91108     11.11389        -0.024341     -0.022116     -0.099468
     19.02497     19.02497     11.11389        -0.005540     -0.013675      0.012455
     16.91108     19.02497      9.00000        -0.012135     -0.031328     -0.391736
     19.02497     16.91108      9.00000        -0.000411     -0.011925     -0.289127
    total drift:                               -0.706041      0.805326     94.022494

  FREE ENERGIE OF THE ION-ELECTRON SYSTEM (eV)
  free  energy   TOTEN  =     -1718.43778640 eV

  energy  without entropy=    -1718.43638556  energy(sigma->0) =    -1718.43708598