 vasp.6.4.0 14Feb23 (build Dec 05 2023 14:15:48) complex

 executed on             LinuxIFC date 2023.12.11  10:52:25

 INCAR:
   SYSTEM = MgO-rocksalt
   ISMEAR = 0
   SIGMA = 0.05
   EDIFF = 1E-4
   ALGO = ALL
   ISTART = 0
   IBRION = -1
   NSW = 0
   ISYM = 0
   DIPOL = 0.5 0.5 0.5
   IDIPOL = 3
   LDIPOL = .TRUE.
   METAGGA = M06L
   ENCUT = 520
   PREC = Accurate
   LASPH = .TRUE.
   LREAL = Auto
   ISPIN = 1
   NELM = 2000
   NELMIN = 8
   NCORE = 16
   LWAVE = .FALSE.
   LCHARG = .FALSE.

 POTCAR:    PAW_PBE Ag 02Apr2005
 POTCAR:    PAW_PBE Mg_pv 13Apr2007
 POTCAR:    PAW_PBE O 08Apr2002
 POTCAR:    PAW_PBE Ag 02Apr2005
   VRHFIN =Ag : s1 d10

   TITEL  = PAW_PBE Ag 02Apr2005
   POMASS =  107.868; ZVAL   =   11.000    mass and valenz
   ENMAX  =  249.844; ENMIN  =  187.383 eV

   TITEL  = PAW_PBE Mg_pv 13Apr2007
   POMASS =   24.305; ZVAL   =    8.000    mass and valenz
   ENMAX  =  403.929; ENMIN  =  302.947 eV

   TITEL  = PAW_PBE O 08Apr2002
   POMASS =   16.000; ZVAL   =    6.000    mass and valenz
   ENMAX  =  400.000; ENMIN  =  300.000 eV

 Optimization of the real space projectors (new method)

 maximal supplied QI-value         = 15.12
 optimisation between [QCUT,QGAM] = [ 11.64, 23.28] = [ 37.95,151.78] Ry
 Optimized for a Real-space Cutoff    1.45 Angstroem

   l    n(q)    QCUT    max X(q) W(low)/X(q) W(high)/X(q)  e(spline)
   2      9    11.641    53.897    0.22E-03    0.42E-04    0.28E-06
   2      9    11.641    52.416    0.23E-03    0.44E-04    0.29E-06
   0     10    11.641   122.045    0.51E-04    0.25E-04    0.16E-06
   0     10    11.641    73.629    0.49E-04    0.24E-04    0.16E-06
   1     10    11.641    15.255    0.99E-04    0.55E-04    0.11E-06
   1     10    11.641     9.562    0.81E-04    0.47E-04    0.95E-07
 Optimization of the real space projectors (new method)

[...]

   l    n(q)    QCUT    max X(q) W(low)/X(q) W(high)/X(q)  e(spline)
   1      8    11.527     2.974    0.44E-04    0.56E-04    0.12E-06
   1      8    11.527     4.279    0.12E-03    0.12E-03    0.26E-06
   0      9    11.527    16.381    0.46E-04    0.64E-04    0.78E-07
   0      9    11.527     5.611    0.26E-04    0.43E-04    0.55E-07
   2      8    11.527     4.652    0.22E-03    0.72E-04    0.47E-07
 Optimization of the real space projectors (new method)

 maximal supplied QI-value         = 24.76
 optimisation between [QCUT,QGAM] = [ 11.64, 23.27] = [ 37.91,151.63] Ry
 Optimized for a Real-space Cutoff    1.14 Angstroem

   l    n(q)    QCUT    max X(q) W(low)/X(q) W(high)/X(q)  e(spline)
   0      8    11.635    20.381    0.10E-03    0.33E-03    0.24E-06
   0      8    11.635    15.268    0.11E-03    0.35E-03    0.26E-06
   1      7    11.635     5.964    0.24E-03    0.31E-03    0.30E-06
   1      7    11.635     5.382    0.22E-03    0.25E-03    0.26E-06
  PAW_PBE Ag 02Apr2005                  :
  PAW_PBE Mg_pv 13Apr2007               :
  PAW_PBE O 08Apr2002                   :

 POSCAR: Ag Mg  O
  positions in direct lattice
  velocities in cartesian coordinates

 METAGGA = M06L                                        LMAXTAU =  6    LMIXTAU =  F

 ion  position               nearest neighbor table
   1  0.400  0.563  0.612- 157 2.54   4 2.67   3 2.71  55 2.75
   2  0.400  0.500  0.835-   3 2.58
   3  0.400  0.499  0.718-   2 2.58   1 2.71   4 2.71
   4  0.400  0.436  0.612- 153 2.53   1 2.67   3 2.71  55 2.76
   5  0.000  0.000  0.407- 107 2.11 108 2.11 123 2.11 188 2.11 105 2.11
   6  0.100  0.100  0.407- 107 2.11 108 2.11 112 2.11 127 2.11 106 2.11
   7  0.000  0.100  0.503- 105 2.11 106 2.11 109 2.11 186 2.11 107 2.11
   8  0.100  0.000  0.503- 105 2.11 106 2.11 122 2.11 125 2.11 108 2.11
   9  0.000  0.200  0.407- 111 2.11 107 2.11 112 2.11 192 2.11 109 2.11
  10  0.100  0.300  0.407- 112 2.11 111 2.11 116 2.11 131 2.11 110 2.11
  11  0.000  0.300  0.503- 109 2.11 110 2.11 113 2.11 190 2.11 111 2.11
  12  0.100  0.200  0.503- 110 2.11 109 2.11 106 2.11 129 2.11 112 2.11
  13  0.000  0.400  0.407- 111 2.11 115 2.11 116 2.11 196 2.11 113 2.11
  14  0.100  0.500  0.407- 115 2.11 116 2.11 120 2.11 135 2.11 114 2.11
  15  0.000  0.500  0.503- 113 2.11 114 2.11 117 2.11 194 2.11 115 2.11
  16  0.100  0.400  0.503- 110 2.11 113 2.11 114 2.11 133 2.11 116 2.11
  17  0.000  0.600  0.407- 115 2.11 119 2.11 120 2.11 200 2.11 117 2.11
  18  0.100  0.700  0.407- 124 2.11 120 2.11 119 2.11 139 2.11 118 2.11
  19  0.000  0.700  0.503- 121 2.11 118 2.11 117 2.11 198 2.11 119 2.11
  20  0.100  0.600  0.503- 114 2.11 117 2.11 118 2.11 137 2.11 120 2.11
  21  0.000  0.800  0.407- 119 2.11 123 2.11 124 2.11 204 2.11 121 2.11
  22  0.100  0.900  0.407- 108 2.11 123 2.11 124 2.11 143 2.11 122 2.11
  23  0.000  0.900  0.503- 105 2.11 121 2.11 122 2.11 202 2.11 123 2.11
  24  0.100  0.800  0.503- 118 2.11 121 2.11 122 2.11 141 2.11 124 2.11
  25  0.200  0.000  0.407- 128 2.11 127 2.11 108 2.11 143 2.11 125 2.11
  26  0.300  0.100  0.407- 127 2.11 128 2.11 132 2.11 147 2.11 126 2.11
  27  0.200  0.100  0.503- 126 2.11 125 2.11 106 2.11 129 2.11 127 2.11
  28  0.300  0.000  0.503- 125 2.11 126 2.11 142 2.11 145 2.11 128 2.11
  29  0.200  0.200  0.407- 131 2.11 132 2.11 112 2.11 127 2.11 129 2.11
  30  0.300  0.300  0.407- 131 2.11 132 2.11 136 2.11 151 2.11 130 2.11
  31  0.200  0.300  0.503- 129 2.11 130 2.11 110 2.11 133 2.11 131 2.11
  32  0.300  0.200  0.503- 129 2.11 130 2.11 126 2.11 149 2.11 132 2.11
  33  0.200  0.400  0.407- 136 2.11 131 2.11 135 2.11 116 2.11 133 2.11
  34  0.300  0.500  0.407- 135 2.11 136 2.11 140 2.11 155 2.11 134 2.11
  35  0.200  0.500  0.503- 134 2.11 133 2.11 114 2.11 137 2.11 135 2.11
  36  0.300  0.400  0.503- 133 2.11 130 2.11 134 2.11 153 2.11 136 2.11
  37  0.200  0.600  0.407- 140 2.11 135 2.11 139 2.11 120 2.11 137 2.11
  38  0.300  0.700  0.407- 139 2.11 144 2.11 140 2.11 159 2.11 138 2.11
  39  0.200  0.700  0.503- 138 2.11 141 2.11 118 2.11 137 2.11 139 2.11
  40  0.300  0.600  0.503- 137 2.11 134 2.11 138 2.11 157 2.11 140 2.11
  41  0.200  0.800  0.407- 139 2.11 144 2.11 143 2.11 124 2.11 141 2.11
  42  0.300  0.900  0.407- 143 2.11 128 2.11 144 2.11 163 2.11 142 2.11
  43  0.200  0.900  0.503- 142 2.11 125 2.11 141 2.11 122 2.11 143 2.11
  44  0.300  0.800  0.503- 138 2.11 141 2.11 142 2.11 161 2.11 144 2.11
  45  0.400  0.000  0.407- 128 2.11 147 2.11 148 2.11 163 2.11 145 2.11
  46  0.500  0.100  0.407- 147 2.11 148 2.11 152 2.11 167 2.11 146 2.11
  47  0.400  0.100  0.503- 126 2.11 145 2.11 146 2.11 149 2.11 147 2.11
  48  0.500  0.000  0.503- 145 2.11 146 2.11 162 2.11 165 2.11 148 2.11
  49  0.400  0.200  0.407- 151 2.11 147 2.11 132 2.11 152 2.11 149 2.11
  50  0.500  0.300  0.407- 152 2.11 151 2.11 156 2.11 171 2.11 150 2.11
  51  0.400  0.300  0.503- 149 2.11 130 2.11 150 2.11 153 2.11 151 2.11
  52  0.500  0.200  0.503- 150 2.11 149 2.11 146 2.11 169 2.11 152 2.11
  53  0.400  0.400  0.407- 136 2.11 151 2.11 155 2.11 156 2.11 153 2.11
  54  0.500  0.500  0.407- 155 2.11 156 2.11 160 2.11 175 2.11 154 2.11
  55  0.400  0.500  0.503- 134 2.11 153 2.11 154 2.11 157 2.11 155 2.11   1 2.75   4 2.76
  56  0.500  0.400  0.503- 150 2.11 153 2.11 154 2.11 173 2.11 156 2.11
  57  0.400  0.600  0.407- 140 2.11 155 2.11 159 2.11 160 2.11 157 2.11
  58  0.500  0.700  0.407- 164 2.11 160 2.11 159 2.11 179 2.11 158 2.11
  59  0.400  0.700  0.503- 161 2.11 157 2.11 158 2.11 138 2.11 159 2.11
  60  0.500  0.600  0.503- 154 2.11 157 2.11 158 2.11 177 2.11 160 2.11
[...]
 190  0.900  0.300  0.503-  92 2.11  91 2.11  11 2.11  96 2.11  90 2.11
 191  0.800  0.300  0.407-  70 2.11  89 2.11  90 2.11  93 2.11  91 2.11
 192  0.900  0.200  0.407-  90 2.11  86 2.11  89 2.11   9 2.11  92 2.11
 193  0.800  0.400  0.503-  76 2.11  91 2.11  95 2.11  96 2.11  93 2.11
 194  0.900  0.500  0.503-  15 2.11  95 2.11  96 2.11 100 2.11  94 2.11
 195  0.800  0.500  0.407-  74 2.11  93 2.11  94 2.11  97 2.11  95 2.11
 196  0.900  0.400  0.407-  13 2.11  90 2.11  93 2.11  94 2.11  96 2.11
 197  0.800  0.600  0.503-  80 2.11  95 2.11  99 2.11 100 2.11  97 2.11
 198  0.900  0.700  0.503- 104 2.11  99 2.11 100 2.11  19 2.11  98 2.11
 199  0.800  0.700  0.407-  78 2.11 101 2.11  98 2.11  97 2.11  99 2.11
 200  0.900  0.600  0.407-  17 2.11  94 2.11  97 2.11  98 2.11 100 2.11
 201  0.800  0.800  0.503-  84 2.11  99 2.11 103 2.11 104 2.11 101 2.11
 202  0.900  0.900  0.503-  23 2.11  88 2.11 103 2.11 104 2.11 102 2.11
 203  0.800  0.900  0.407-  82 2.11  85 2.11 101 2.11 102 2.11 103 2.11
 204  0.900  0.800  0.407-  98 2.11  21 2.11 101 2.11 102 2.11 104 2.11

IMPORTANT INFORMATION: All symmetrisations will be switched off!
NOSYMM: (Re-)initialisation of all symmetry stuff for point group C_1.

                                     Primitive cell

  volume of cell :    9881.6133

  direct lattice vectors                    reciprocal lattice vectors
    21.138852197  0.000000000  0.000000000     0.047306258  0.000000000  0.000000000
     0.000000000 21.138852197  0.000000000     0.000000000  0.047306258  0.000000000
     0.000000000  0.000000000 22.113885220     0.000000000  0.000000000  0.045220457

  length of vectors
    21.138852197 21.138852197 22.113885220     0.047306258  0.047306258  0.045220457

  position of ions in fractional coordinates (direct lattice)
     0.400262498  0.562644202  0.611757253
     0.400180406  0.499857897  0.835303009
     0.400101799  0.499467099  0.718499130
     0.400198249  0.436299472  0.611663944
     0.000000000  0.000000000  0.406984115
     0.100000000  0.100000000  0.406984115
     0.000000000  0.100000000  0.502574971
     0.100000000  0.000000000  0.502574971
     0.000000000  0.200000000  0.406984115
     0.100000000  0.300000000  0.406984115
     0.000000000  0.300000000  0.502574971
     0.100000000  0.200000000  0.502574971
     0.000000000  0.400000000  0.406984115
     0.100000000  0.500000000  0.406984115
     0.000000000  0.500000000  0.502574971
     0.100000000  0.400000000  0.502574971
     0.000000000  0.600000000  0.406984115
     0.100000000  0.700000000  0.406984115
     0.000000000  0.700000000  0.502574971
     0.100000000  0.600000000  0.502574971
     0.000000000  0.800000000  0.406984115
     0.100000000  0.900000000  0.406984115
     0.000000000  0.900000000  0.502574971
     0.100000000  0.800000000  0.502574971
     0.200000000  0.000000000  0.406984115
     0.300000000  0.100000000  0.406984115
     0.200000000  0.100000000  0.502574971
     0.300000000  0.000000000  0.502574971
     0.200000000  0.200000000  0.406984115
     0.300000000  0.300000000  0.406984115
     0.200000000  0.300000000  0.502574971
     0.300000000  0.200000000  0.502574971
     0.200000000  0.400000000  0.406984115
     0.300000000  0.500000000  0.406984115
     0.200000000  0.500000000  0.502574971
     0.300000000  0.400000000  0.502574971
     0.200000000  0.600000000  0.406984115
     0.300000000  0.700000000  0.406984115
     0.200000000  0.700000000  0.502574971
     0.300000000  0.600000000  0.502574971
     0.200000000  0.800000000  0.406984115
     0.300000000  0.900000000  0.406984115
     0.200000000  0.900000000  0.502574971
     0.300000000  0.800000000  0.502574971
     0.400000000  0.000000000  0.406984115
[...]
     52     -44.7208      2.00000
     53     -44.7087      2.00000
     54     -44.7071      2.00000
     55     -44.7068      2.00000
     56     -44.7057      2.00000
     57     -44.7045      2.00000
     58     -44.7039      2.00000
     59     -44.7038      2.00000
     60     -44.7025      2.00000
[...]
    882     420.3338      0.00000
    883     424.9988      0.00000
    884     425.9764      0.00000
    885     443.8166      0.00000
    886     447.1629      0.00000
    887     450.2784      0.00000
    888     497.8094      0.00000
    889     499.4727      0.00000
    890     500.5435      0.00000
    891     504.4089      0.00000
    892     510.7063      0.00000
    893     531.3622      0.00000
    894     552.0123      0.00000
    895     573.6973      0.00000
    896     583.7627      0.00000

 soft charge-density along one line, spin component           1
         0         1         2         3         4         5         6         7         8         9
 total charge-density along one line

------------------------ aborting loop because EDIFF is reached ----------------------------------------

  FORCE on cell =-STRESS in cart. coord.  units (eV):
  Direction    XX          YY          ZZ          XY          YZ          ZX
  Alpha Z  1401.13727  1401.13727  1401.13727
  Ewald  473476.01013474520.77188************     0.52185     3.38727    -0.69588
  Hartree503385.53273504171.74492************     0.33660     2.76260    -0.49694
  E(xc)   -8984.63423 -8984.17702 -8976.82704    -0.02192    -0.07662    -0.10409
  Local  ************************************    -0.81252    -6.06809     1.17148
  n-local -8715.57674 -8717.57470 -8858.28022    -0.00483     0.03665     0.00847
  augment  4511.75844  4509.09063  4488.44442     0.01152     0.00334    -0.08584
  Kinetic 23408.14311 23401.43934 23609.14965    -0.04872    -0.10000     0.00489
  Fock        0.00000     0.00000     0.00000     0.00000     0.00000     0.00000
  Total    -226.66513  -225.98709    22.71235    -0.01801    -0.05485    -0.19792
  in kB     -36.75086   -36.64092     3.68252    -0.00292    -0.00889    -0.03209

 VOLUME and BASIS-vectors are now :
  energy-cutoff  :      520.00
  volume of cell :     9881.61
      direct lattice vectors                 reciprocal lattice vectors
    21.138852197  0.000000000  0.000000000     0.047306258  0.000000000  0.000000000
     0.000000000 21.138852197  0.000000000     0.000000000  0.047306258  0.000000000
     0.000000000  0.000000000 22.113885220     0.000000000  0.000000000  0.045220457

  length of vectors
    21.138852197 21.138852197 22.113885220     0.047306258  0.047306258  0.045220457

 FORCES acting on ions:
    Electron-Ion                     Ewald-Force                    Non-Local-Force
   -.595E+00 -.382E+03 -.187E+04   0.464E+00 0.376E+03 0.187E+04   0.895E-01 0.637E+01 -.215E+01
   -.111E+00 -.774E+00 -.113E+04   0.141E+00 0.967E+00 0.113E+04   -.926E-01 -.742E-01 0.688E+01
   0.716E+00 0.127E+01 -.162E+04   -.637E+00 -.107E+01 0.162E+04   -.901E-01 -.926E-01 -.116E+01
   -.199E+00 0.382E+03 -.187E+04   0.760E-01 -.376E+03 0.187E+04   0.844E-01 -.637E+01 -.209E+01
   0.614E+01 0.293E-01 0.936E+03   -.618E+01 -.325E-01 -.927E+03   0.348E-01 -.135E-01 -.658E+01
   0.120E+02 0.910E+01 0.939E+03   -.121E+02 -.914E+01 -.930E+03   0.683E-01 0.256E-01 -.635E+01
   0.879E+01 0.830E+01 -.919E+03   -.884E+01 -.829E+01 0.910E+03   0.464E-01 0.331E-02 0.990E+01
   0.129E+02 0.580E-01 -.918E+03   -.129E+02 -.592E-01 0.909E+03   0.578E-01 0.122E-01 0.986E+01
   0.942E+01 0.111E+02 0.939E+03   -.950E+01 -.111E+02 -.930E+03   0.634E-01 0.185E-01 -.668E+01
   0.245E+02 0.176E+02 0.950E+03   -.247E+02 -.177E+02 -.941E+03   0.180E+00 0.534E-01 -.654E+01
   0.182E+02 0.153E+02 -.913E+03   -.182E+02 -.153E+02 0.904E+03   0.795E-01 0.209E-01 0.930E+01
   0.234E+02 0.220E+02 -.912E+03   -.235E+02 -.220E+02 0.903E+03   0.121E+00 0.516E-01 0.986E+01
   0.163E+02 0.757E+01 0.945E+03   -.164E+02 -.757E+01 -.936E+03   0.984E-01 0.154E-01 -.656E+01
   0.354E+02 -.744E-01 0.959E+03   -.357E+02 0.660E-01 -.950E+03   0.241E+00 0.343E-02 -.649E+01
   0.261E+02 -.660E-01 -.909E+03   -.262E+02 0.530E-01 0.900E+03   0.988E-01 0.208E-02 0.979E+01
   0.514E+02 0.180E+02 -.896E+03   -.517E+02 -.180E+02 0.887E+03   0.234E+00 0.213E-01 0.945E+01
   0.163E+02 -.762E+01 0.945E+03   -.164E+02 0.763E+01 -.936E+03   0.962E-01 -.266E-01 -.638E+01
   0.244E+02 -.176E+02 0.950E+03   -.246E+02 0.177E+02 -.940E+03   0.190E+00 -.537E-01 -.632E+01
   0.181E+02 -.153E+02 -.913E+03   -.182E+02 0.153E+02 0.904E+03   0.871E-01 -.720E-02 0.964E+01
   0.513E+02 -.181E+02 -.896E+03   -.516E+02 0.181E+02 0.887E+03   0.229E+00 -.185E-01 0.964E+01
   0.941E+01 -.111E+02 0.939E+03   -.947E+01 0.111E+02 -.930E+03   0.616E-01 -.185E-01 -.622E+01
   0.120E+02 -.902E+01 0.939E+03   -.121E+02 0.905E+01 -.930E+03   0.805E-01 -.295E-01 -.664E+01
   0.878E+01 -.822E+01 -.919E+03   -.882E+01 0.822E+01 0.910E+03   0.277E-01 -.833E-02 0.948E+01
   0.233E+02 -.219E+02 -.912E+03   -.234E+02 0.219E+02 0.903E+03   0.130E+00 -.524E-01 0.961E+01
   0.109E+02 0.571E-01 0.941E+03   -.110E+02 -.642E-01 -.931E+03   0.693E-01 -.559E-03 -.661E+01
   0.864E+01 0.168E+02 0.947E+03   -.870E+01 -.170E+02 -.937E+03   0.568E-01 0.119E+00 -.662E+01
   0.172E+02 0.184E+02 -.913E+03   -.173E+02 -.185E+02 0.903E+03   0.824E-01 0.635E-01 0.965E+01
   0.908E+01 0.116E+00 -.913E+03   -.912E+01 -.119E+00 0.904E+03   0.390E-01 0.274E-02 0.953E+01
   0.196E+02 0.238E+02 0.951E+03   -.197E+02 -.240E+02 -.941E+03   0.148E+00 0.123E+00 -.693E+01
   0.245E+02 0.426E+02 0.983E+03   -.248E+02 -.430E+02 -.974E+03   0.257E+00 0.289E+00 -.639E+01
   0.533E+02 0.482E+02 -.885E+03   -.538E+02 -.483E+02 0.876E+03   0.400E+00 0.894E-01 0.954E+01
   0.226E+02 0.546E+02 -.893E+03   -.227E+02 -.551E+02 0.884E+03   0.127E+00 0.347E+00 0.936E+01
   0.439E+02 0.205E+02 0.979E+03   -.444E+02 -.205E+02 -.970E+03   0.404E+00 0.632E-01 -.655E+01
   0.455E+02 -.216E+00 0.103E+04   -.460E+02 0.208E+00 -.102E+04   0.419E+00 0.431E-02 -.754E+01
   0.103E+03 -.243E+00 -.849E+03   -.104E+03 0.236E+00 0.841E+03   0.493E+00 0.852E-02 0.982E+01
   0.115E+03 0.852E+02 -.769E+03   -.117E+03 -.852E+02 0.760E+03   0.146E+01 0.871E-01 0.884E+01
   0.438E+02 -.206E+02 0.979E+03   -.442E+02 0.207E+02 -.970E+03   0.401E+00 -.638E-01 -.700E+01
   0.244E+02 -.426E+02 0.983E+03   -.247E+02 0.429E+02 -.974E+03   0.258E+00 -.292E+00 -.712E+01
   0.530E+02 -.481E+02 -.886E+03   -.535E+02 0.482E+02 0.877E+03   0.410E+00 -.102E+00 0.998E+01
   0.114E+03 -.857E+02 -.770E+03   -.116E+03 0.858E+02 0.761E+03   0.145E+01 -.923E-01 0.862E+01
   0.195E+02 -.237E+02 0.951E+03   -.197E+02 0.239E+02 -.941E+03   0.145E+00 -.110E+00 -.660E+01
   0.860E+01 -.166E+02 0.946E+03   -.867E+01 0.168E+02 -.937E+03   0.535E-01 -.134E+00 -.656E+01
   0.172E+02 -.182E+02 -.913E+03   -.172E+02 0.183E+02 0.904E+03   0.868E-01 -.780E-01 0.986E+01
   0.224E+02 -.543E+02 -.893E+03   -.225E+02 0.547E+02 0.884E+03   0.112E+00 -.382E+00 0.964E+01
   0.180E-01 0.911E-01 0.944E+03   -.152E-01 -.907E-01 -.935E+03   -.141E-03 -.762E-03 -.677E+01
   -.861E+01 0.168E+02 0.947E+03   0.868E+01 -.170E+02 -.937E+03   -.573E-01 0.137E+00 -.656E+01
   0.359E-01 0.283E+02 -.907E+03   -.251E-01 -.285E+02 0.898E+03   0.352E-02 0.182E+00 0.938E+01
   -.904E+01 0.120E+00 -.913E+03   0.909E+01 -.118E+00 0.904E+03   -.441E-01 -.475E-02 0.977E+01
   0.365E-01 0.369E+02 0.963E+03   -.309E-01 -.373E+02 -.953E+03   -.335E-02 0.363E+00 -.613E+01
   -.245E+02 0.427E+02 0.983E+03   0.248E+02 -.430E+02 -.974E+03   -.257E+00 0.295E+00 -.678E+01
   0.138E+00 0.119E+03 -.826E+03   -.144E+00 -.121E+03 0.816E+03   0.378E-02 0.145E+01 0.962E+01
   -.225E+02 0.547E+02 -.893E+03   0.227E+02 -.551E+02 0.884E+03   -.124E+00 0.367E+00 0.939E+01
   0.897E-01 0.406E+02 0.104E+04   -.101E+00 -.408E+02 -.103E+04   0.588E-02 0.238E+00 -.595E+01
   -.454E+02 -.196E+00 0.103E+04   0.459E+02 0.201E+00 -.102E+04   -.399E+00 0.110E-02 -.725E+01
   0.580E+00 -.704E+00 -.564E+03   -.618E+00 0.681E+00 0.558E+03   0.206E-01 -.121E-01 0.532E+01
   -.115E+03 0.854E+02 -.769E+03   0.117E+03 -.855E+02 0.760E+03   -.145E+01 0.973E-01 0.868E+01
   0.117E+00 -.409E+02 0.104E+04   -.109E+00 0.411E+02 -.103E+04   -.667E-02 -.231E+00 -.601E+01
   -.243E+02 -.426E+02 0.983E+03   0.246E+02 0.430E+02 -.974E+03   -.258E+00 -.291E+00 -.635E+01
   0.158E+00 -.118E+03 -.827E+03   -.167E+00 0.120E+03 0.818E+03   0.444E-02 -.145E+01 0.935E+01
   -.114E+03 -.859E+02 -.770E+03   0.116E+03 0.861E+02 0.761E+03   -.143E+01 -.108E+00 0.878E+01
[...]
   -.979E+01 0.884E+01 0.708E+03   0.983E+01 -.882E+01 -.711E+03   -.829E-01 0.160E-01 0.353E+01
   -.110E-01 0.719E+01 0.704E+03   0.140E-01 -.718E+01 -.708E+03   -.952E-02 0.376E-01 0.363E+01
   -.179E+02 0.758E+01 -.684E+03   0.179E+02 -.755E+01 0.687E+03   -.108E+00 -.260E-02 -.299E+01
   -.341E-01 -.443E-01 -.686E+03   0.369E-01 0.302E-01 0.689E+03   -.268E-02 0.541E-02 -.294E+01
   -.134E+02 -.619E-01 0.711E+03   0.134E+02 0.291E-01 -.714E+03   -.883E-01 0.254E-01 0.376E+01
   -.698E-02 0.471E+01 0.708E+03   0.240E-01 -.472E+01 -.711E+03   -.238E-01 0.341E-01 0.371E+01
   -.178E+02 -.761E+01 -.684E+03   0.179E+02 0.761E+01 0.687E+03   -.102E+00 -.304E-01 -.298E+01
   -.266E-01 -.933E+01 -.688E+03   0.269E-01 0.930E+01 0.692E+03   -.568E-02 -.318E-01 -.302E+01
   -.979E+01 -.883E+01 0.708E+03   0.980E+01 0.883E+01 -.711E+03   -.763E-01 -.481E-01 0.361E+01
   -.231E-01 -.479E+01 0.708E+03   0.245E-01 0.476E+01 -.711E+03   -.376E-02 -.106E-01 0.356E+01
   -.942E+01 -.106E+02 -.689E+03   0.944E+01 0.106E+02 0.692E+03   -.767E-01 -.377E-01 -.297E+01
   -.780E-02 -.525E+01 -.691E+03   0.135E-01 0.524E+01 0.695E+03   -.487E-02 -.108E-01 -.292E+01
   -.527E+01 -.490E+01 0.704E+03   0.529E+01 0.492E+01 -.707E+03   -.597E-01 -.419E-01 0.358E+01
   -.102E-01 -.716E+01 0.704E+03   0.147E-01 0.716E+01 -.708E+03   -.596E-02 -.455E-01 0.370E+01
   0.594E+00 0.325E+00 -.660E+02   0.262E-11 -.102E-11 -.898E-11   -.414E+00 -.404E+00 0.188E+03

 POSITION                                       TOTAL-FORCE (eV/Angst)
      8.46109     11.89365     13.52833        -0.042872      0.084447     -0.691409
      8.45935     10.56642     18.47179         0.016756      0.047245     -0.690650
      8.45769     10.55816     15.88881         0.048847      0.020069     -0.360284
      8.45973      9.22287     13.52627        -0.040207     -0.081089     -0.734843
      0.00000      0.00000      9.00000        -0.012811      0.002945      1.512054
      2.11389      2.11389      9.00000        -0.003390      0.003802      1.717062
      0.00000      2.11389     11.11389        -0.005070      0.000931     -2.517973
      2.11389      0.00000     11.11389         0.000783     -0.013244     -1.945781
      0.00000      4.22777      9.00000        -0.014579     -0.001004      1.168255
      2.11389      6.34166      9.00000        -0.049189     -0.008452      1.455244
      0.00000      6.34166     11.11389        -0.007305      0.013618     -1.101310
      2.11389      4.22777     11.11389        -0.021175      0.014625     -1.868292
      0.00000      8.45554      9.00000        -0.022839     -0.000536      1.449193
      2.11389     10.56943      9.00000        -0.027307     -0.017400      1.767763
      0.00000     10.56943     11.11389        -0.045537     -0.003213     -1.029903
      2.11389      8.45554     11.11389        -0.056566      0.004373     -0.931107
      0.00000     12.68331      9.00000        -0.012771     -0.004425      1.833760
      2.11389     14.79720      9.00000        -0.042072      0.010864      1.715344
      0.00000     14.79720     11.11389         0.018774     -0.016536     -0.512396
      2.11389     12.68331     11.11389        -0.023912     -0.028499     -1.414552
      0.00000     16.91108      9.00000        -0.002710     -0.006942      1.857905
      2.11389     19.02497      9.00000         0.011768     -0.015854      1.248455
      0.00000     19.02497     11.11389         0.005149     -0.004735     -0.352200
      2.11389     16.91108     11.11389        -0.013053     -0.001631     -1.184996
      4.22777      0.00000      9.00000        -0.001190     -0.008657      1.167108
      6.34166      2.11389      9.00000        -0.012710     -0.040160      1.448035
      4.22777      2.11389     11.11389        -0.020509      0.003661     -0.783204
      6.34166      0.00000     11.11389         0.011481      0.008025     -0.662965
      4.22777      4.22777      9.00000        -0.034931     -0.017280      1.196759
      6.34166      6.34166      9.00000        -0.045408     -0.043225      1.649842
      4.22777      6.34166     11.11389        -0.092290     -0.041782     -1.275524
      6.34166      4.22777     11.11389        -0.012309     -0.088110     -0.291355
      4.22777      8.45554      9.00000        -0.082454      0.007437      1.521566
      6.34166     10.56943      9.00000        -0.109510     -0.003362      0.839604
      4.22777     10.56943     11.11389        -0.089525     -0.002095     -0.266637
      6.34166      8.45554     11.11389        -0.466831      0.023734     -0.621543
      4.22777     12.68331      9.00000        -0.085288      0.007241      1.206587
      6.34166     14.79720      9.00000        -0.068918      0.060195      1.064962
      4.22777     14.79720     11.11389        -0.082055      0.000578     -1.184262
      6.34166     12.68331     11.11389        -0.472405     -0.013915     -0.821869
      4.22777     16.91108      9.00000        -0.030948      0.026457      1.323862
      6.34166     19.02497      9.00000        -0.012609      0.036760      1.575455
      4.22777     19.02497     11.11389         0.015214      0.017658     -2.907110
      6.34166     16.91108     11.11389         0.006233      0.077241     -0.580484
      8.45554      0.00000      9.00000         0.005754      0.003555      1.363671
     10.56943      2.11389      9.00000         0.011075     -0.033968      1.485593
      8.45554      2.11389     11.11389         0.016925     -0.036113     -1.005675
     10.56943      0.00000     11.11389         0.011622     -0.027081     -1.443820
      8.45554      4.22777      9.00000         0.007493     -0.082440      2.236564
     10.56943      6.34166      9.00000         0.047889     -0.066326      1.183734
      8.45554      6.34166     11.11389         0.000271     -0.443685     -0.533672
     10.56943      4.22777     11.11389         0.001018     -0.091222     -0.689944
      8.45554      8.45554      9.00000        -0.009005     -0.042811      0.762236
     10.56943     10.56943      9.00000         0.094814      0.006586      1.061405
      8.45554     10.56943     11.11389        -0.014863     -0.033560     -1.099181
     10.56943      8.45554     11.11389         0.458826      0.009511     -0.766889
      8.45554     12.68331      9.00000        -0.000455      0.033686      0.677905
     10.56943     14.79720      9.00000         0.067406      0.059843      1.765457
      8.45554     14.79720     11.11389        -0.013640      0.445683     -0.799420
     10.56943     12.68331     11.11389         0.468831      0.009575     -0.679344
[...]
     19.02497      6.34166     11.11389        -0.011478      0.052204     -0.018429
     16.91108      6.34166      9.00000        -0.041947      0.039299     -0.372453
     19.02497      4.22777      9.00000        -0.005870      0.050649     -0.202352
     16.91108      8.45554     11.11389        -0.059683      0.021908     -0.040301
     19.02497     10.56943     11.11389        -0.001387     -0.007744      0.021279
     16.91108     10.56943      9.00000        -0.045292     -0.003732     -0.053911
     19.02497      8.45554      9.00000        -0.007608      0.024016     -0.200091
     16.91108     12.68331     11.11389        -0.058030     -0.038816     -0.012079
     19.02497     14.79720     11.11389        -0.005591     -0.067947     -0.084157
     16.91108     14.79720      9.00000        -0.064245     -0.047349     -0.211984
     19.02497     12.68331      9.00000        -0.001503     -0.027027     -0.223042
     16.91108     16.91108     11.11389        -0.054110     -0.054172     -0.032112
     19.02497     19.02497     11.11389         0.000722     -0.021230     -0.115266
     16.91108     19.02497      9.00000        -0.044879     -0.016452     -0.279569
     19.02497     16.91108      9.00000        -0.009546     -0.038488     -0.007955
    total drift:                                0.179452     -0.078718    122.488707

  FREE ENERGIE OF THE ION-ELECTRON SYSTEM (eV)
  free  energy   TOTEN  =     -1719.25142833 eV

  energy  without entropy=    -1719.25009144  energy(sigma->0) =    -1719.25075989