 vasp.6.4.0 14Feb23 (build Mar 22 2023 21:21:37) complex

 executed on           IFC15_impi date 2023.05.05  18:54:41

 INCAR:
   SYSTEM = MgO-rocksalt
   ISMEAR = 0
   SIGMA = 0.05
   EDIFF = 1E-6
   ALGO = ALL
   ISTART = 0
   IBRION = -1
   NSW = 0
   ISYM = 2
   DIPOL = 0.5 0.5 0.5
   IDIPOL = 3
   LDIPOL = .TRUE.
   GGA = PS
   IVDW = 12
   VDW_A1 = 0.4466
   VDW_S8 = 2.9491
   VDW_A2 = 6.1742
   ENCUT = 520
   PREC = Accurate
   LASPH = .TRUE.
   LREAL = Auto
   ISPIN = 1
   NELM = 200
   NELMIN = 8
   NCORE = 4
   KPAR = 2
   LWAVE = .FALSE.
   LCHARG = .FALSE.

 POTCAR:    PAW_PBE Au 04Oct2007
 POTCAR:    PAW_PBE Mg_pv 13Apr2007
 POTCAR:    PAW_PBE O 08Apr2002
 POTCAR:    PAW_PBE Au 04Oct2007
   VRHFIN =Au: s1d10

   TITEL  = PAW_PBE Au 04Oct2007
   POMASS =  196.966; ZVAL   =   11.000    mass and valenz
   ENMAX  =  229.943; ENMIN  =  172.457 eV

   TITEL  = PAW_PBE Mg_pv 13Apr2007
   POMASS =   24.305; ZVAL   =    8.000    mass and valenz
   ENMAX  =  403.929; ENMIN  =  302.947 eV

   TITEL  = PAW_PBE O 08Apr2002
   POMASS =   16.000; ZVAL   =    6.000    mass and valenz
   ENMAX  =  400.000; ENMIN  =  300.000 eV

 Optimization of the real space projectors (new method)

 maximal supplied QI-value         = 15.12
 optimisation between [QCUT,QGAM] = [ 11.64, 23.28] = [ 37.95,151.78] Ry
 Optimized for a Real-space Cutoff    1.49 Angstroem

   l    n(q)    QCUT    max X(q) W(low)/X(q) W(high)/X(q)  e(spline)
   2      9    11.641    60.898    0.24E-03    0.10E-03    0.19E-06
   2      9    11.641    58.894    0.25E-03    0.10E-03    0.19E-06
   0     10    11.641   109.617    0.73E-04    0.33E-04    0.11E-06
   0     10    11.641    75.026    0.71E-04    0.32E-04    0.11E-06
   1     10    11.641    16.344    0.27E-04    0.97E-04    0.16E-06
   1     10    11.641    10.160    0.23E-04    0.77E-04    0.13E-06
 Optimization of the real space projectors (new method)

[...]

   l    n(q)    QCUT    max X(q) W(low)/X(q) W(high)/X(q)  e(spline)
   1      8    11.527     2.974    0.44E-04    0.56E-04    0.12E-06
   1      8    11.527     4.279    0.12E-03    0.12E-03    0.26E-06
   0      9    11.527    16.381    0.46E-04    0.64E-04    0.78E-07
   0      9    11.527     5.611    0.26E-04    0.43E-04    0.55E-07
   2      8    11.527     4.652    0.22E-03    0.72E-04    0.47E-07
 Optimization of the real space projectors (new method)

 maximal supplied QI-value         = 24.76
 optimisation between [QCUT,QGAM] = [ 11.64, 23.27] = [ 37.91,151.63] Ry
 Optimized for a Real-space Cutoff    1.14 Angstroem

   l    n(q)    QCUT    max X(q) W(low)/X(q) W(high)/X(q)  e(spline)
   0      8    11.635    20.381    0.10E-03    0.33E-03    0.24E-06
   0      8    11.635    15.268    0.11E-03    0.35E-03    0.26E-06
   1      7    11.635     5.964    0.24E-03    0.31E-03    0.30E-06
   1      7    11.635     5.382    0.22E-03    0.25E-03    0.26E-06
|               ----> ADVICE to this user running VASP <----                  |
|     You enforced a specific xc type in the INCAR file but a different       |
|     type was found in the POTCAR file.                                      |
|     I HOPE YOU KNOW WHAT YOU ARE DOING!                                     |

  PAW_PBE Au 04Oct2007                  :
  PAW_PBE Mg_pv 13Apr2007               :
  PAW_PBE O 08Apr2002                   :

 POSCAR: Mg  O
  positions in direct lattice
  velocities in cartesian coordinates
 exchange correlation table for  LEXCH =       14
   RHO(1)=    0.500       N(1)  =     2000
   RHO(2)=  100.500       N(2)  =     4000

 ion  position               nearest neighbor table
   1  0.498  0.433  0.611-  11 2.70  17 2.71  13 2.72   3 2.73   4 2.76   8 2.78
   2  0.326  0.314  0.579- 246 2.42  14 2.70  13 2.70  19 2.73  11 2.77  67 2.88  52 3.07
   3  0.558  0.545  0.592-   9 2.71   8 2.73   1 2.73  17 2.75  91 3.03
   4  0.567  0.324  0.619-  17 2.70   7 2.70  15 2.71  13 2.71   6 2.75   1 2.76
   5  0.449  0.096  0.604-  10 2.66  19 2.71   7 2.81
   6  0.637  0.214  0.618-   7 2.71  15 2.71  16 2.72   4 2.75  20 2.77  10 2.77
   7  0.510  0.210  0.625-  19 2.68   4 2.70   6 2.71  10 2.74  13 2.76   5 2.81
   8  0.428  0.542  0.592-  11 2.69   3 2.73   1 2.78  71 2.93
   9  0.685  0.549  0.597-  18 2.67   3 2.71  17 2.72
  10  0.574  0.099  0.611-  16 2.63   5 2.66   7 2.74   6 2.77
  11  0.370  0.431  0.607-  14 2.65   8 2.69   1 2.70   2 2.77  13 2.80
  12  0.820  0.335  0.592-  18 2.67  15 2.70  20 2.75 107 2.87
  13  0.439  0.320  0.621-   2 2.70   4 2.71   1 2.72   7 2.76  19 2.76  11 2.80
  14  0.251  0.417  0.581- 249 2.61  11 2.65   2 2.70  52 2.70
  15  0.695  0.328  0.609-  12 2.70  17 2.71   4 2.71   6 2.71  20 2.75  18 2.80
  16  0.687  0.112  0.575- 282 2.27  10 2.63   6 2.72  20 2.76  83 2.93  88 2.98
  17  0.626  0.436  0.607-   4 2.70  15 2.71   1 2.71   9 2.72   3 2.75  18 2.78
  18  0.756  0.444  0.596-   9 2.67  12 2.67  17 2.78  15 2.80
  19  0.403  0.210  0.577- 265 2.29   7 2.68   5 2.71   2 2.73  13 2.76  67 3.04
  20  0.759  0.221  0.584- 305 2.65  12 2.75  15 2.75  16 2.76   6 2.77  88 2.86
  21  0.000  1.000  0.430- 239 2.11 224 2.11 304 2.11 321 2.12 223 2.12 221 2.13
  22  0.100  0.100  0.430- 224 2.11 223 2.11 243 2.11 322 2.12 228 2.12 222 2.13
  23  0.000  0.099  0.500- 302 2.10 222 2.11 223 2.11 221 2.11 225 2.12
  24  0.100  0.999  0.500- 224 2.11 238 2.11 221 2.11 241 2.11 222 2.12
  25  1.000  0.200  0.430- 227 2.11 228 2.11 223 2.11 308 2.12 325 2.12 225 2.14
  26  0.100  0.300  0.430- 227 2.11 232 2.11 228 2.11 247 2.12 326 2.12 226 2.14
  27  0.000  0.300  0.500- 226 2.11 227 2.11 306 2.11 229 2.11 225 2.12
  28  0.099  0.200  0.500- 225 2.10 228 2.11 245 2.11 222 2.11 226 2.13
  29  1.000  0.400  0.430- 312 2.10 231 2.11 227 2.12 329 2.12 232 2.13 229 2.14
  30  0.100  0.500  0.430- 231 2.11 236 2.11 251 2.11 232 2.12 330 2.12 230 2.13
  31  1.000  0.501  0.500- 310 2.10 233 2.10 231 2.11 230 2.12 229 2.12
  32  0.098  0.401  0.500- 229 2.08 230 2.10 232 2.11 249 2.12 226 2.13
  33  1.000  0.600  0.430- 316 2.11 235 2.11 231 2.12 236 2.12 333 2.12 233 2.13
  34  0.100  0.700  0.430- 235 2.11 240 2.11 255 2.11 236 2.11 334 2.12 234 2.13
  35  1.000  0.700  0.500- 235 2.11 314 2.11 233 2.11 237 2.11 234 2.11
  36  0.100  0.601  0.500- 234 2.11 233 2.11 236 2.11 253 2.12 230 2.12
  37  1.000  0.800  0.430- 235 2.11 320 2.11 240 2.11 239 2.12 337 2.12 237 2.13
  38  0.100  0.900  0.430- 240 2.11 239 2.11 259 2.11 224 2.12 338 2.12 238 2.13
  39  0.000  0.899  0.500- 239 2.10 237 2.11 238 2.11 318 2.11 221 2.12
  40  0.100  0.800  0.500- 240 2.11 234 2.11 237 2.11 257 2.11 238 2.11
  41  0.200  1.000  0.430- 259 2.11 224 2.11 244 2.11 341 2.12 243 2.12 241 2.13
  42  0.300  0.099  0.430- 244 2.10 263 2.11 243 2.11 342 2.12 248 2.13 242 2.13
  43  0.199  0.099  0.500- 241 2.10 222 2.10 243 2.11 242 2.12 245 2.13
  44  0.300  0.999  0.500- 258 2.10 244 2.11 241 2.11 261 2.12 242 2.12
  45  0.199  0.200  0.430- 228 2.10 243 2.11 345 2.12 248 2.12 247 2.13 245 2.14
  46  0.300  0.300  0.429- 267 2.10 252 2.10 346 2.11 248 2.11 247 2.11 246 2.16
  47  0.198  0.299  0.500- 226 2.08 247 2.11 245 2.11 246 2.12 249 2.13
  48  0.297  0.198  0.500- 245 2.08 242 2.08 248 2.09 246 2.13 265 2.13
  49  0.200  0.400  0.429- 251 2.10 232 2.10 252 2.11 349 2.11 247 2.11 249 2.21
  50  0.300  0.501  0.430- 250 2.10 271 2.10 256 2.11 350 2.12 251 2.12 252 2.14
  51  0.200  0.502  0.500- 253 2.09 251 2.11 250 2.11 230 2.11 249 2.15
  52  0.302  0.402  0.499- 269 2.08 252 2.08 250 2.09 249 2.19 246 2.20  14 2.70   2 3.07
  53  0.200  0.600  0.430- 255 2.11 256 2.11 236 2.11 353 2.12 251 2.13 253 2.13
  54  0.300  0.700  0.430- 256 2.11 275 2.11 260 2.11 255 2.12 354 2.12 254 2.13
  55  0.200  0.700  0.500- 255 2.11 253 2.11 257 2.11 254 2.11 234 2.11
  56  0.300  0.601  0.500- 250 2.10 254 2.11 273 2.11 256 2.11 253 2.12
  57  0.200  0.800  0.430- 255 2.11 260 2.11 240 2.11 259 2.12 357 2.12 257 2.13
  58  0.300  0.900  0.430- 260 2.11 279 2.11 259 2.11 244 2.12 358 2.12 258 2.13
  59  0.200  0.900  0.500- 259 2.11 257 2.11 238 2.11 258 2.11 241 2.12
  60  0.300  0.800  0.500- 260 2.11 254 2.11 258 2.11 277 2.11 257 2.12
[...]
 406  0.900  0.300  0.359- 208 2.11 207 2.11 127 2.11 212 2.11 206 2.11 106 2.12
 407  0.800  0.300  0.289- 186 2.11 205 2.11 206 2.11 209 2.11 207 2.11
 408  0.900  0.200  0.289- 206 2.11 202 2.11 205 2.11 125 2.11 208 2.11
 409  0.800  0.400  0.359- 109 2.11 192 2.11 207 2.11 211 2.11 212 2.11 209 2.11
 410  0.900  0.500  0.359- 131 2.11 211 2.11 212 2.11 216 2.11 210 2.11 110 2.12
 411  0.800  0.500  0.289- 190 2.11 209 2.11 210 2.11 213 2.11 211 2.11
 412  0.900  0.400  0.289- 129 2.11 206 2.11 209 2.11 210 2.11 212 2.11
 413  0.800  0.600  0.359- 196 2.11 211 2.11 215 2.11 216 2.11 213 2.11 113 2.12
 414  0.900  0.700  0.359- 220 2.11 215 2.11 216 2.11 135 2.11 214 2.11 114 2.12
 415  0.800  0.700  0.289- 194 2.11 217 2.11 214 2.11 213 2.11 215 2.11
 416  0.900  0.600  0.289- 133 2.11 210 2.11 213 2.11 214 2.11 216 2.11
 417  0.800  0.800  0.359- 200 2.11 215 2.11 219 2.11 220 2.11 217 2.11 117 2.12
 418  0.900  0.900  0.359- 139 2.11 204 2.11 219 2.11 220 2.11 218 2.11 118 2.12
 419  0.800  0.900  0.289- 198 2.11 201 2.11 217 2.11 218 2.11 219 2.11
 420  0.900  0.800  0.289- 214 2.11 137 2.11 217 2.11 218 2.11 220 2.11

  LATTYP: Found a simple tetragonal cell.
 ALAT       =    21.1388521970
 C/A-ratio  =     1.4191877459

  Lattice vectors:

 A1 = (  21.1388521970,   0.0000000000,   0.0000000000)
 A2 = (   0.0000000000,  21.1388521970,   0.0000000000)
 A3 = (   0.0000000000,   0.0000000000,  30.0000000000)

Analysis of symmetry for initial positions (statically):
 Subroutine PRICEL returns:
 Original cell was already a primitive cell.

 Routine SETGRP: Setting up the symmetry group for a
 simple tetragonal supercell.

 Subroutine GETGRP returns: Found  1 space group operations
 (whereof  1 operations were pure point group operations)
 out of a pool of 16 trial point group operations.

The static configuration has the point symmetry C_1 .

Analysis of symmetry for dynamics (positions and initial velocities):
 Subroutine PRICEL returns:
 Original cell was already a primitive cell.

[...]

The dynamic configuration has the point symmetry C_1 .

Analysis of constrained symmetry for selective dynamics:
 Subroutine PRICEL returns:
 Original cell was already a primitive cell.

 Routine SETGRP: Setting up the symmetry group for a
 simple tetragonal supercell.

 Subroutine GETGRP returns: Found  1 space group operations
 (whereof  1 operations were pure point group operations)
 out of a pool of 16 trial point group operations.

The constrained configuration has the point symmetry C_1 .

 Subroutine INISYM returns: Found  1 space group operations
 (whereof  1 operations are pure point group operations),
 and found     1 'primitive' translations

                                     Primitive cell

  volume of cell :   13405.5322

  direct lattice vectors                    reciprocal lattice vectors
    21.138852197  0.000000000  0.000000000     0.047306258  0.000000000  0.000000000
     0.000000000 21.138852197  0.000000000     0.000000000  0.047306258  0.000000000
[...]
  329                  fftbas_plan_mpi                      18.597484                513   8
  330                    dfftw_execute                        11.883155             1539   9
  331                    map_forward                           6.372437             1026   9
  332                      map_gather                            1.399460            513  10
  333                      m_alltoallv_z                         0.953743            513  10
  334                      map_scatter                           2.224283            513  10
  335            rpromu                                5.338170                      135   5
  336              crrexp_mul_wave                       2.845965                 215460   6
  337              rpromu_gemm                           1.822431                  56700   6
  338              m_sumb_d                              0.071220                    513   6
  339          m_sumb_d                              0.092851                         10   4
  340        m_sumb_d                              0.002522                            6   3
  341        fft3d_mpi                             0.260339                           11   3
  342          fftbrc_mpi                            0.246732                         11   4
  343            fftbas_plan_mpi                       0.246693                       11   5
  344              dfftw_execute                         0.077620                     33   6
  345              map_forward                           0.068910                     10   6
  346                map_gather                            0.015161                    5   7
  347                m_alltoallv_z                         0.045852                    5   7
  348                map_scatter                           0.007762                    5   7
  349              map_backward                          0.091429                     12   6
  350                map_gather                            0.009625                    6   7
  351                m_alltoallv_z                         0.061839                    6   7
  352                map_scatter                           0.019802                    6   7
  353        ggaall_grid                           0.359457                            1   3
  354        forhar                                3.001649                            1   3
  355          m_sumb_d                              0.000198                          1   4
  356        strehar                               0.033210                            1   3
  357          m_sumb_d                              0.000508                          1   4
  358        m_bcast_d                             0.000408                            2   3
  359      potlok                                0.767839                              1   2
  360        fft3d_mpi                             0.306595                           13   3
  361          fftbrc_mpi                            0.287401                         13   4
  362            fftbas_plan_mpi                       0.287356                       13   5
  363              dfftw_execute                         0.096055                     39   6
  364              map_forward                           0.089653                     14   6
  365                map_gather                            0.018880                    8   7
  366                m_alltoallv_z                         0.052494                    8   7
  367                map_scatter                           0.018065                    8   7
  368              map_backward                          0.091445                     12   6
  369                map_gather                            0.009342                    6   7
  370                m_alltoallv_z                         0.062376                    6   7
  371                map_scatter                           0.019561                    6   7
  372        ggaall_grid                           0.359511                            1   3
  373        m_sumb_d                              0.002849                            7   3
  374        fewald                                0.001405                            2   3
  375          rsp                                   0.001235                          2   4
  376          rcp                                   0.000155                          2   4
  377        pothar                                0.005443                            1   3
  378          m_sumb_d                              0.001810                          1   4
  379        m_bcast_d                             0.011721                            1   3
  380      potlok_metagga                        0.000001                              1   2
  381      set_dd_magatom                        0.000001                              1   2
  382      set_dd_paw                            1.024425                              1   2
  383        set_rsgf_all                          0.000002                            1   3
  384        m_sumb_d                              0.740381                            8   3

 Flat profile

 edwav                                 847.163341          48
 lincom                                333.443047         151
 dfftw_execute                         300.071374       40278
 orth1                                 182.977960        7122
 eddav                                 116.419367           5
 wfinit                                 91.741132           1
 total_time                             86.471152           1
 m_sumb_d                               77.138988       28915
 m_alltoall_d                           58.429411       54200
 ggemm                                  53.948997        1253
 map_scatter                            52.041449       13525
 force_and_stress                       43.999140           1
 fftwav_mpi                             41.805148        8905
 map_gather                             40.161385       13525
 choleski                               32.747648          49
 eccp                                   32.254327        5757
 m_alltoallv_z                          31.584901       13525
 map_forward                            31.023443       18522
 eddiag                                 25.015480          25
 crrexp_mul_work_add                    19.523901      981120
 m_bcast_z                              18.872696        2882
 ggaall_grid                            18.662644          51
 racc0                                  17.731458        2336
 crrexp_mul_wave                        15.488322     1172640
 set_dd_paw                             14.491617          51
 vhamil                                 14.117449        2393
 rpro1                                  13.854213        2051
 pw_charge                              13.286783        2352
 fftbas_plan_mpi                         8.819954       13426
 lapack                                  7.295494         968
 redis_pw                                5.602098        8338
 w1_dscal                                5.571569        1368
 potlok                                  4.618108          50
 fftext_mpi                              4.598734        3761
 setdij_                                 4.329661          77
 augmentation_charge                     4.184579          49
 rspher_all                              3.754724          14
 phaser                                  3.245742          42
 forloc                                  3.027546           1
 forhar                                  3.001451           1
 rpromu_gemm                             2.651403       81900
 stufak                                  1.830370           1
 fft3d_mpi                               1.292495       13426
 orthch                                  1.202777          49
 kinhamil                                0.967939        2393
 overl                                   0.938720        3117
 w1_copy                                 0.873983        2904
 rpromu                                  0.867368         195
 m_bcast_d                               0.797187        1990
 elmin_all                               0.542845           1
 soft_charge                             0.416582          49
 redis_proj                              0.377682        7950
 setup_precond                           0.270555         285
 apply_precond                           0.238947         683
 depsum                                  0.213163          49
 inisym                                  0.184672           1
 pothar                                  0.183970          50
 overl1                                  0.135671         968
 map_backward                            0.118908        8330
 fft_gq                                  0.087833          49
 rsp                                     0.077617         101
 strnlr                                  0.053811           1
 densta                                  0.053187          60
 set_charge                              0.051342          49
 fftbas_mpi                              0.051341       12666
 strkin                                  0.033407           1
 strehar                                 0.032702           1
 strelo                                  0.027191           1
 hamiltmu                                0.022901         968
 hamilt_local                            0.021837        1425
 fornlr                                  0.019645           1
 newband                                 0.019596         973
 fewald                                  0.011591         101
 raccmu_                                 0.011444         968
 rpro_isp                                0.010836          13
 rcp                                     0.005838         101
 w1_projall                              0.005029         683
 fftbrc_mpi                              0.003052         760
 brgrid                                  0.002867           1
 truncate_high_frequency_w1              0.001303        1253
 fordep                                  0.000836           1
 redis_pw_all                            0.000503          48
 crpa_reader                             0.000298           1
 redis_pw_over_bands                     0.000260          49
 posmap                                  0.000259           2
 set_rsgf_all                            0.000114          51
 proall                                  0.000079           1
 potlok_metagga                          0.000057          50
 vectorpot                               0.000028           1
 rotate_active_occupied_orbital          0.000018           1
 set_dd_magatom                          0.000010           2
 shift_bands_between_low_high            0.000008           1
  summed up times    2697.22850990295

 Accumulative profile

 total_time                           2697.228510           1
 elmin_all                            2395.284632           1
 edwav                                1678.490085          48
 fft3d_mpi                             465.168301       13426
 fftbas_plan_mpi                       463.821413       13426
 fftbas_mpi                            446.470119       12666
 eddav                                 403.162085           5
 fftwav_mpi                            365.512909        8905
 lincom                                333.443047         151
 dfftw_execute                         300.071374       40278
 orthch                                197.859881          49
 orth1                                 182.977960        7122
 fftext_mpi                            127.417051        3761
 set_charge                            121.246085          49
 map_forward                           116.140933       18522
 soft_charge                           114.786585          49
 wfinit                                110.066869           1
 eddiag                                 98.513492          25
 force_and_stress                       93.163892           1
 kinhamil                               81.318062        2393
 m_sumb_d                               77.138988       28915
 m_alltoall_d                           58.429411       54200
 hamilt_local                           56.655195        1425
 hamiltmu                               54.641550         968
 ggemm                                  53.948997        1253
 set_dd_paw                             53.252970          51
 map_scatter                            52.041449       13525
 redis_pw                               49.347951        8338
 map_gather                             40.161385       13525
 potlok                                 39.482718          50
 map_backward                           38.789151        8330
 rpro_isp                               38.204820          13
 racc0                                  37.824558        2336
 choleski                               32.747648          49
 eccp                                   32.602731        5757
 m_alltoallv_z                          31.584901       13525
 strnlr                                 29.748161           1
 rpro1                                  25.709731        2051
 crrexp_mul_work_add                    19.523901      981120
 m_bcast_z                              18.872696        2882
 ggaall_grid                            18.662644          51
 fftbrc_mpi                             17.405687         760
 raccmu_                                15.816495         968
 crrexp_mul_wave                        15.488322     1172640
 redis_proj                             15.061239        7950
 newband                                14.627996         973
 vhamil                                 14.117449        2393
 pw_charge                              13.286783        2352
 fornlr                                  9.962034           1
 w1_projall                              8.592727         683
 rpromu                                  7.734871         195
 redis_pw_over_bands                     7.417818          49
 redis_pw_all                            7.417558          48
 lapack                                  7.295494         968
 augmentation_charge                     6.064191          49
 w1_dscal                                5.571569        1368
 setdij_                                 4.880883          77
 rspher_all                              3.754724          14
 phaser                                  3.245742          42
 proall                                  3.102796           1
 forloc                                  3.027743           1
 forhar                                  3.001649           1
 rpromu_gemm                             2.651403       81900
 stufak                                  1.830370           1
 fft_gq                                  1.148470          49
 overl                                   0.938720        3117
 w1_copy                                 0.873983        2904
 m_bcast_d                               0.797187        1990
 fordep                                  0.377732           1
 depsum                                  0.343967          49
 setup_precond                           0.280995         285
 pothar                                  0.269655          50
 densta                                  0.263884          60
 apply_precond                           0.238947         683
 inisym                                  0.184931           1
 fewald                                  0.163001         101
 overl1                                  0.135671         968
 rsp                                     0.077617         101
 strelo                                  0.034964           1
 strkin                                  0.034238           1
 strehar                                 0.033210           1
 rcp                                     0.005838         101
 brgrid                                  0.002867           1
 truncate_high_frequency_w1              0.001303        1253
 crpa_reader                             0.000298           1
 posmap                                  0.000259           2
 set_rsgf_all                            0.000114          51
 potlok_metagga                          0.000057          50
 vectorpot                               0.000028           1
 rotate_active_occupied_orbital          0.000018           1
 set_dd_magatom                          0.000010           2
 shift_bands_between_low_high            0.000008           1

Profiling took   2.394633  0.809793  0.007524  0.007334 seconds
Profiling took   1.995101 seconds