 vasp.6.3.0 20Jan22 (build Apr  1 2022 16:44:48) complex
 executed on        HPECrayEX_GCC date 2022.08.15  21:38:45

 INCAR:
   SYSTEM = MgO-rocksalt
   ISMEAR = 0
   SIGMA = 0.05
   EDIFF = 1E-6
   ALGO = ALL
   ISTART = 0
   IBRION = -1
   NSW = 0
   ISYM = 2
   DIPOL = 0.5 0.5 0.5
   IDIPOL = 3
   LDIPOL = .TRUE.
   GGA = ML
   LUSE_VDW = .TRUE.
   ZAB_VDW = -1.8867
   AGGAC = 0.0000
   ENCUT = 520
   PREC = Accurate
   LASPH = .TRUE.
   LREAL = Auto
   ISPIN = 1
   NELM = 200
   NELMIN = 8
   NCORE = 4
   KPAR = 2
   LWAVE = .FALSE.
   LCHARG = .FALSE.

 POTCAR:    PAW_PBE Ag 02Apr2005
 POTCAR:    PAW_PBE Mg_pv 13Apr2007
 POTCAR:    PAW_PBE O 08Apr2002
|               ----> ADVICE to this user running VASP <----                  |
|     You have switched on vdW-DFT.                                           |
|     This routine was written and supplied by Jiri Klimes. We recommend      |
|     that you carefully read and cite the following publications:            |
|       J. Klimes, D.R. Bowler, A. Michelides                                 |
|          J. Phys.: Cond Matt. 22 022201 (2010)                              |
|       J. Klimes, D.R. Bowler, A. Michelides                                 |
|          Phys. Rev. B. 83, 195131 (2011)                                    |
|     and references therein.                                                 |

   TITEL  = PAW_PBE Ag 02Apr2005
   POMASS =  107.868; ZVAL   =   11.000    mass and valenz
   ENMAX  =  249.844; ENMIN  =  187.383 eV

   TITEL  = PAW_PBE Mg_pv 13Apr2007
   POMASS =   24.305; ZVAL   =    8.000    mass and valenz
   ENMAX  =  403.929; ENMIN  =  302.947 eV

   TITEL  = PAW_PBE O 08Apr2002
   POMASS =   16.000; ZVAL   =    6.000    mass and valenz
   ENMAX  =  400.000; ENMIN  =  300.000 eV

 Optimization of the real space projectors (new method)

 maximal supplied QI-value         = 15.12
 optimisation between [QCUT,QGAM] = [ 11.64, 23.28] = [ 37.95,151.78] Ry
 Optimized for a Real-space Cutoff    1.45 Angstroem

   l    n(q)    QCUT    max X(q) W(low)/X(q) W(high)/X(q)  e(spline)
   2      9    11.641    53.897    0.22E-03    0.42E-04    0.28E-06
   2      9    11.641    52.416    0.23E-03    0.44E-04    0.29E-06
   0     10    11.641   122.045    0.51E-04    0.25E-04    0.16E-06
   0     10    11.641    73.629    0.49E-04    0.24E-04    0.16E-06
   1     10    11.641    15.255    0.99E-04    0.55E-04    0.11E-06
   1     10    11.641     9.562    0.81E-04    0.47E-04    0.95E-07
 Optimization of the real space projectors (new method)

[...]

   l    n(q)    QCUT    max X(q) W(low)/X(q) W(high)/X(q)  e(spline)
   1      8    11.527     2.974    0.44E-04    0.56E-04    0.12E-06
   1      8    11.527     4.279    0.12E-03    0.12E-03    0.26E-06
   0      9    11.527    16.381    0.46E-04    0.64E-04    0.78E-07
   0      9    11.527     5.611    0.26E-04    0.43E-04    0.55E-07
   2      8    11.527     4.652    0.22E-03    0.72E-04    0.47E-07
 Optimization of the real space projectors (new method)

 maximal supplied QI-value         = 24.76
 optimisation between [QCUT,QGAM] = [ 11.64, 23.27] = [ 37.91,151.63] Ry
 Optimized for a Real-space Cutoff    1.14 Angstroem

   l    n(q)    QCUT    max X(q) W(low)/X(q) W(high)/X(q)  e(spline)
   0      8    11.635    20.381    0.10E-03    0.33E-03    0.24E-06
   0      8    11.635    15.268    0.11E-03    0.35E-03    0.26E-06
   1      7    11.635     5.964    0.24E-03    0.31E-03    0.30E-06
   1      7    11.635     5.382    0.22E-03    0.25E-03    0.26E-06
|               ----> ADVICE to this user running VASP <----                  |
|     You enforced a specific xc type in the INCAR file but a different       |
|     type was found in the POTCAR file.                                      |
|     I HOPE YOU KNOW WHAT YOU ARE DOING!                                     |

  PAW_PBE Ag 02Apr2005                  :
  PAW_PBE Mg_pv 13Apr2007               :
  PAW_PBE O 08Apr2002                   :

 POSCAR: Ag Mg  O
  positions in direct lattice
 exchange correlation table for  LEXCH =       44
   RHO(1)=    0.500       N(1)  =     2000
   RHO(2)=  100.500       N(2)  =     4000

 ion  position               nearest neighbor table
   1  0.543  0.457  0.625-   2 2.59
   2  0.457  0.543  0.625-   1 2.59
   3  0.000  0.000  0.407- 105 2.11 106 2.11 121 2.11 186 2.11 103 2.11
   4  0.100  0.100  0.407- 105 2.11 106 2.11 110 2.11 125 2.11 104 2.11
   5  0.000  0.100  0.503- 103 2.11 104 2.11 107 2.11 184 2.11 105 2.11
   6  0.100  0.000  0.503- 103 2.11 104 2.11 120 2.11 123 2.11 106 2.11
   7  0.000  0.200  0.407- 109 2.11 105 2.11 110 2.11 190 2.11 107 2.11
   8  0.100  0.300  0.407- 110 2.11 109 2.11 114 2.11 129 2.11 108 2.11
   9  0.000  0.300  0.503- 107 2.11 108 2.11 111 2.11 188 2.11 109 2.11
  10  0.100  0.200  0.503- 108 2.11 107 2.11 104 2.11 127 2.11 110 2.11
  11  0.000  0.400  0.407- 109 2.11 113 2.11 114 2.11 194 2.11 111 2.11
  12  0.100  0.500  0.407- 113 2.11 114 2.11 118 2.11 133 2.11 112 2.11
  13  0.000  0.500  0.503- 111 2.11 112 2.11 115 2.11 192 2.11 113 2.11
  14  0.100  0.400  0.503- 108 2.11 111 2.11 112 2.11 131 2.11 114 2.11
  15  0.000  0.600  0.407- 113 2.11 117 2.11 118 2.11 198 2.11 115 2.11
  16  0.100  0.700  0.407- 122 2.11 118 2.11 117 2.11 137 2.11 116 2.11
  17  0.000  0.700  0.503- 119 2.11 116 2.11 115 2.11 196 2.11 117 2.11
  18  0.100  0.600  0.503- 112 2.11 115 2.11 116 2.11 135 2.11 118 2.11
  19  0.000  0.800  0.407- 117 2.11 121 2.11 122 2.11 202 2.11 119 2.11
  20  0.100  0.900  0.407- 106 2.11 121 2.11 122 2.11 141 2.11 120 2.11
  21  0.000  0.900  0.503- 103 2.11 119 2.11 120 2.11 200 2.11 121 2.11
  22  0.100  0.800  0.503- 116 2.11 119 2.11 120 2.11 139 2.11 122 2.11
  23  0.200  0.000  0.407- 126 2.11 125 2.11 106 2.11 141 2.11 123 2.11
  24  0.300  0.100  0.407- 125 2.11 126 2.11 130 2.11 145 2.11 124 2.11
  25  0.200  0.100  0.503- 124 2.11 123 2.11 104 2.11 127 2.11 125 2.11
  26  0.300  0.000  0.503- 123 2.11 124 2.11 140 2.11 143 2.11 126 2.11
  27  0.200  0.200  0.407- 129 2.11 130 2.11 110 2.11 125 2.11 127 2.11
  28  0.300  0.300  0.407- 129 2.11 130 2.11 134 2.11 149 2.11 128 2.11
  29  0.200  0.300  0.503- 127 2.11 128 2.11 108 2.11 131 2.11 129 2.11
  30  0.300  0.200  0.503- 127 2.11 128 2.11 124 2.11 147 2.11 130 2.11
  31  0.200  0.400  0.407- 134 2.11 129 2.11 133 2.11 114 2.11 131 2.11
  32  0.300  0.500  0.407- 133 2.11 134 2.11 138 2.11 153 2.11 132 2.11
  33  0.200  0.500  0.503- 132 2.11 131 2.11 112 2.11 135 2.11 133 2.11
  34  0.300  0.400  0.503- 131 2.11 128 2.11 132 2.11 151 2.11 134 2.11
  35  0.200  0.600  0.407- 138 2.11 133 2.11 137 2.11 118 2.11 135 2.11
  36  0.300  0.700  0.407- 137 2.11 142 2.11 138 2.11 157 2.11 136 2.11
  37  0.200  0.700  0.503- 136 2.11 139 2.11 116 2.11 135 2.11 137 2.11
  38  0.300  0.600  0.503- 135 2.11 132 2.11 136 2.11 155 2.11 138 2.11
  39  0.200  0.800  0.407- 137 2.11 142 2.11 141 2.11 122 2.11 139 2.11
  40  0.300  0.900  0.407- 141 2.11 126 2.11 142 2.11 161 2.11 140 2.11
  41  0.200  0.900  0.503- 140 2.11 123 2.11 139 2.11 120 2.11 141 2.11
  42  0.300  0.800  0.503- 136 2.11 139 2.11 140 2.11 159 2.11 142 2.11
  43  0.400  0.000  0.407- 126 2.11 145 2.11 146 2.11 161 2.11 143 2.11
  44  0.500  0.100  0.407- 145 2.11 146 2.11 150 2.11 165 2.11 144 2.11
  45  0.400  0.100  0.503- 124 2.11 143 2.11 144 2.11 147 2.11 145 2.11
  46  0.500  0.000  0.503- 143 2.11 144 2.11 160 2.11 163 2.11 146 2.11
  47  0.400  0.200  0.407- 149 2.11 145 2.11 130 2.11 150 2.11 147 2.11
  48  0.500  0.300  0.407- 150 2.11 149 2.11 154 2.11 169 2.11 148 2.11
  49  0.400  0.300  0.503- 147 2.11 128 2.11 148 2.11 151 2.11 149 2.11
  50  0.500  0.200  0.503- 148 2.11 147 2.11 144 2.11 167 2.11 150 2.11
  51  0.400  0.400  0.407- 134 2.11 149 2.11 153 2.11 154 2.11 151 2.11
  52  0.500  0.500  0.407- 153 2.11 154 2.11 158 2.11 173 2.11 152 2.11
  53  0.400  0.500  0.503- 132 2.11 151 2.11 152 2.11 155 2.11 153 2.11
  54  0.500  0.400  0.503- 148 2.11 151 2.11 152 2.11 171 2.11 154 2.11
  55  0.400  0.600  0.407- 138 2.11 153 2.11 157 2.11 158 2.11 155 2.11
  56  0.500  0.700  0.407- 162 2.11 158 2.11 157 2.11 177 2.11 156 2.11
  57  0.400  0.700  0.503- 159 2.11 155 2.11 156 2.11 136 2.11 157 2.11
  58  0.500  0.600  0.503- 152 2.11 155 2.11 156 2.11 175 2.11 158 2.11
  59  0.400  0.800  0.407- 157 2.11 142 2.11 161 2.11 162 2.11 159 2.11
  60  0.500  0.900  0.407- 146 2.11 161 2.11 162 2.11 181 2.11 160 2.11
[...]
 188  0.900  0.300  0.503-  90 2.11  89 2.11   9 2.11  94 2.11  88 2.11
 189  0.800  0.300  0.407-  68 2.11  87 2.11  88 2.11  91 2.11  89 2.11
 190  0.900  0.200  0.407-  88 2.11  84 2.11  87 2.11   7 2.11  90 2.11
 191  0.800  0.400  0.503-  74 2.11  89 2.11  93 2.11  94 2.11  91 2.11
 192  0.900  0.500  0.503-  13 2.11  93 2.11  94 2.11  98 2.11  92 2.11
 193  0.800  0.500  0.407-  72 2.11  91 2.11  92 2.11  95 2.11  93 2.11
 194  0.900  0.400  0.407-  11 2.11  88 2.11  91 2.11  92 2.11  94 2.11
 195  0.800  0.600  0.503-  78 2.11  93 2.11  97 2.11  98 2.11  95 2.11
 196  0.900  0.700  0.503- 102 2.11  97 2.11  98 2.11  17 2.11  96 2.11
 197  0.800  0.700  0.407-  76 2.11  99 2.11  96 2.11  95 2.11  97 2.11
 198  0.900  0.600  0.407-  15 2.11  92 2.11  95 2.11  96 2.11  98 2.11
 199  0.800  0.800  0.503-  82 2.11  97 2.11 101 2.11 102 2.11  99 2.11
 200  0.900  0.900  0.503-  21 2.11  86 2.11 101 2.11 102 2.11 100 2.11
 201  0.800  0.900  0.407-  80 2.11  83 2.11  99 2.11 100 2.11 101 2.11
 202  0.900  0.800  0.407-  96 2.11  19 2.11  99 2.11 100 2.11 102 2.11

  LATTYP: Found a simple tetragonal cell.
 ALAT       =    21.1388521970
 C/A-ratio  =     1.0461251639

  Lattice vectors:

 A1 = (  21.1388521970,   0.0000000000,   0.0000000000)
 A2 = (   0.0000000000,  21.1388521970,   0.0000000000)
 A3 = (   0.0000000000,   0.0000000000,  22.1138852197)

Analysis of symmetry for initial positions (statically):
 Subroutine PRICEL returns:
 Original cell was already a primitive cell.

 Routine SETGRP: Setting up the symmetry group for a
 simple tetragonal supercell.

 Subroutine GETGRP returns: Found  4 space group operations
 (whereof  4 operations were pure point group operations)
 out of a pool of 16 trial point group operations.

The static configuration has the point symmetry C_2v.

Analysis of symmetry for dynamics (positions and initial velocities):
 Subroutine PRICEL returns:
 Original cell was already a primitive cell.

 Routine SETGRP: Setting up the symmetry group for a
 simple tetragonal supercell.

 Subroutine GETGRP returns: Found  4 space group operations
 (whereof  4 operations were pure point group operations)
 out of a pool of 16 trial point group operations.

The dynamic configuration has the point symmetry C_2v.

 Subroutine INISYM returns: Found  4 space group operations
 (whereof  4 operations are pure point group operations),
 and found     1 'primitive' translations

                                     Primitive cell

  volume of cell :    9881.6133

  direct lattice vectors                    reciprocal lattice vectors
    21.138852197  0.000000000  0.000000000     0.047306258  0.000000000  0.000000000
[...]
     52     -43.9612      2.00000
     53     -43.9606      2.00000
     54     -43.9605      2.00000
     55     -43.9603      2.00000
     56     -43.9602      2.00000
     57     -43.9600      2.00000
     58     -43.9586      2.00000
     59     -43.9583      2.00000
     60     -43.9582      2.00000
[...]
    882       3.9492      0.00000
    883       4.0479      0.00000
    884       4.1777      0.00000
    885       4.1886      0.00000
    886       4.2069      0.00000
    887       4.2204      0.00000
    888       4.2454      0.00000
    889       4.3030      0.00000
    890       4.4454      0.00000
    891       4.5458      0.00000
    892       4.8203      0.00000
    893       4.8904      0.00000
    894       4.9143      0.00000
    895       4.9848      0.00000
    896       5.0307      0.00000

 soft charge-density along one line, spin component           1
         0         1         2         3         4         5         6         7         8         9
 total charge-density along one line

------------------------ aborting loop because EDIFF is reached ----------------------------------------

  FORCE on cell =-STRESS in cart. coord.  units (eV):
  Direction    XX          YY          ZZ          XY          YZ          ZX
  Alpha Z  1357.53553  1357.53553  1357.53553
  Ewald  479361.88727479361.88727************  -323.89554     0.00000     0.00000
  Hartree507725.69646507725.69646************  -242.14269    -0.00000    -0.00000
  E(xc)   -8064.50726 -8064.50726 -8073.44542    -0.28710    -0.00000    -0.00000
  Local  ************************************   562.06908    -0.00000    -0.00000
  n-local -8856.29109 -8856.29109 -8960.29887     1.64808     0.00000    -0.00000
  augment  3621.20455  3621.20455  3566.99289     0.45519    -0.00000    -0.00000
  Kinetic 23072.61473 23072.61470 23285.17125     1.99840    -0.00000     0.00000
  Fock        0.00000     0.00000     0.00000     0.00000     0.00000     0.00000
  Total    -123.66964  -123.66964    40.59440    -0.15459     0.00000     0.00000
  in kB     -20.05145   -20.05145     6.58186    -0.02506     0.00000     0.00000

 VOLUME and BASIS-vectors are now :
  energy-cutoff  :      520.00
  volume of cell :     9881.61
      direct lattice vectors                 reciprocal lattice vectors
    21.138852197  0.000000000  0.000000000     0.047306258  0.000000000  0.000000000
     0.000000000 21.138852197  0.000000000     0.000000000  0.047306258  0.000000000
     0.000000000  0.000000000 22.113885220     0.000000000  0.000000000  0.045220457

  length of vectors
    21.138852197 21.138852197 22.113885220     0.047306258  0.047306258  0.045220457

 FORCES acting on ions:
    Electron-Ion                     Ewald-Force                    Non-Local-Force
   -.186E+03 0.186E+03 -.205E+04   0.183E+03 -.183E+03 0.205E+04   0.387E+01 -.387E+01 -.623E+00
   0.186E+03 -.186E+03 -.205E+04   -.183E+03 0.183E+03 0.205E+04   -.387E+01 0.387E+01 -.623E+00
   -.469E-10 0.821E-09 0.929E+03   0.974E-10 -.170E-08 -.923E+03   0.000E+00 0.000E+00 -.616E+01
   0.379E+01 0.379E+01 0.930E+03   -.378E+01 -.378E+01 -.924E+03   -.307E-02 -.307E-02 -.616E+01
   -.282E+00 0.419E+01 -.921E+03   0.293E+00 -.419E+01 0.915E+03   -.872E-02 0.224E-02 0.613E+01
   0.419E+01 -.282E+00 -.921E+03   -.419E+01 0.293E+00 0.915E+03   0.224E-02 -.872E-02 0.613E+01
   -.371E+00 0.579E+01 0.931E+03   0.390E+00 -.579E+01 -.925E+03   -.148E-01 0.487E-02 -.616E+01
   0.752E+01 0.737E+01 0.934E+03   -.751E+01 -.738E+01 -.928E+03   -.843E-02 0.823E-02 -.616E+01
   -.706E+00 0.763E+01 -.919E+03   0.732E+00 -.764E+01 0.913E+03   -.204E-01 0.334E-02 0.613E+01
   0.679E+01 0.845E+01 -.920E+03   -.677E+01 -.845E+01 0.913E+03   -.121E-01 -.242E-03 0.613E+01
   -.328E+00 0.393E+01 0.934E+03   0.345E+00 -.394E+01 -.928E+03   -.134E-01 0.296E-02 -.616E+01
   0.115E+02 0.416E+00 0.937E+03   -.116E+02 -.432E+00 -.931E+03   0.214E-01 0.122E-01 -.616E+01
   0.145E-09 -.124E-08 -.917E+03   -.299E-09 0.256E-08 0.911E+03   0.000E+00 0.000E+00 0.613E+01
   0.146E+02 0.699E+01 -.916E+03   -.146E+02 -.701E+01 0.910E+03   -.695E-02 0.123E-01 0.613E+01
   0.328E+00 -.393E+01 0.934E+03   -.345E+00 0.394E+01 -.928E+03   0.134E-01 -.296E-02 -.616E+01
   0.858E+01 -.739E+01 0.934E+03   -.862E+01 0.740E+01 -.928E+03   0.368E-01 -.592E-02 -.616E+01
   0.706E+00 -.763E+01 -.919E+03   -.732E+00 0.764E+01 0.913E+03   0.204E-01 -.334E-02 0.613E+01
   0.162E+02 -.615E+01 -.915E+03   -.162E+02 0.614E+01 0.909E+03   0.388E-01 0.703E-02 0.613E+01
   0.371E+00 -.579E+01 0.931E+03   -.390E+00 0.579E+01 -.925E+03   0.148E-01 -.487E-02 -.616E+01
   0.418E+01 -.418E+01 0.930E+03   -.419E+01 0.419E+01 -.924E+03   0.114E-01 -.114E-01 -.616E+01
   0.282E+00 -.419E+01 -.921E+03   -.293E+00 0.419E+01 0.915E+03   0.872E-02 -.224E-02 0.613E+01
   0.806E+01 -.901E+01 -.919E+03   -.810E+01 0.902E+01 0.913E+03   0.266E-01 -.103E-01 0.613E+01
   0.579E+01 -.371E+00 0.931E+03   -.579E+01 0.390E+00 -.925E+03   0.487E-02 -.148E-01 -.616E+01
   0.737E+01 0.752E+01 0.934E+03   -.738E+01 -.751E+01 -.928E+03   0.823E-02 -.843E-02 -.616E+01
   0.845E+01 0.679E+01 -.920E+03   -.845E+01 -.677E+01 0.913E+03   -.242E-03 -.121E-01 0.613E+01
   0.763E+01 -.706E+00 -.919E+03   -.764E+01 0.732E+00 0.913E+03   0.334E-02 -.204E-01 0.613E+01
   0.967E+01 0.967E+01 0.934E+03   -.967E+01 -.967E+01 -.928E+03   0.182E-03 0.182E-03 -.617E+01
   0.188E+02 0.188E+02 0.947E+03   -.189E+02 -.189E+02 -.941E+03   0.182E-01 0.182E-01 -.619E+01
   0.217E+02 0.166E+02 -.913E+03   -.216E+02 -.166E+02 0.907E+03   -.208E-01 0.968E-02 0.612E+01
   0.166E+02 0.217E+02 -.913E+03   -.166E+02 -.216E+02 0.907E+03   0.968E-02 -.208E-01 0.612E+01
   0.204E+02 0.873E+01 0.943E+03   -.204E+02 -.878E+01 -.937E+03   0.685E-02 0.322E-01 -.617E+01
   0.338E+02 0.217E+01 0.967E+03   -.339E+02 -.228E+01 -.961E+03   0.673E-01 0.884E-01 -.616E+01
   0.404E+02 0.239E+01 -.904E+03   -.405E+02 -.244E+01 0.898E+03   0.418E-01 0.407E-01 0.612E+01
   0.554E+02 0.317E+02 -.886E+03   -.553E+02 -.318E+02 0.880E+03   -.689E-01 0.767E-01 0.608E+01
   0.217E+02 -.758E+01 0.945E+03   -.218E+02 0.756E+01 -.939E+03   0.954E-01 0.115E-01 -.617E+01
   0.199E+02 -.199E+02 0.950E+03   -.199E+02 0.199E+02 -.944E+03   0.618E-01 -.618E-01 -.612E+01
   0.249E+02 -.177E+02 -.911E+03   -.250E+02 0.177E+02 0.905E+03   0.880E-01 -.116E-01 0.613E+01
   0.654E+02 -.291E+02 -.875E+03   -.660E+02 0.290E+02 0.869E+03   0.421E+00 0.505E-01 0.617E+01
   0.105E+02 -.105E+02 0.935E+03   -.105E+02 0.105E+02 -.929E+03   0.290E-01 -.290E-01 -.616E+01
   0.739E+01 -.858E+01 0.934E+03   -.740E+01 0.862E+01 -.928E+03   0.592E-02 -.368E-01 -.616E+01
   0.901E+01 -.806E+01 -.919E+03   -.902E+01 0.810E+01 0.913E+03   0.103E-01 -.266E-01 0.613E+01
   0.177E+02 -.249E+02 -.911E+03   -.177E+02 0.250E+02 0.905E+03   0.116E-01 -.880E-01 0.613E+01
   0.393E+01 -.328E+00 0.934E+03   -.394E+01 0.345E+00 -.928E+03   0.296E-02 -.134E-01 -.616E+01
   0.416E+00 0.115E+02 0.937E+03   -.432E+00 -.116E+02 -.931E+03   0.122E-01 0.214E-01 -.616E+01
   0.699E+01 0.146E+02 -.916E+03   -.701E+01 -.146E+02 0.910E+03   0.123E-01 -.695E-02 0.613E+01
   0.144E-09 0.371E-08 -.917E+03   -.299E-09 -.769E-08 0.911E+03   0.000E+00 0.000E+00 0.613E+01
   0.873E+01 0.204E+02 0.943E+03   -.878E+01 -.204E+02 -.937E+03   0.322E-01 0.685E-02 -.617E+01
   0.217E+01 0.338E+02 0.967E+03   -.228E+01 -.339E+02 -.961E+03   0.884E-01 0.673E-01 -.616E+01
   0.317E+02 0.554E+02 -.886E+03   -.318E+02 -.553E+02 0.880E+03   0.767E-01 -.689E-01 0.608E+01
   0.239E+01 0.404E+02 -.904E+03   -.244E+01 -.405E+02 0.898E+03   0.407E-01 0.418E-01 0.612E+01
   0.250E+02 0.250E+02 0.982E+03   -.252E+02 -.252E+02 -.976E+03   0.947E-01 0.947E-01 -.630E+01
   -.972E-09 -.830E-08 0.102E+04   0.201E-08 0.172E-07 -.101E+04   0.000E+00 0.000E+00 -.615E+01
   0.101E+03 0.219E+02 -.765E+03   -.101E+03 -.227E+02 0.759E+03   0.255E+00 0.566E+00 0.578E+01
   0.219E+02 0.101E+03 -.765E+03   -.227E+02 -.101E+03 0.759E+03   0.566E+00 0.255E+00 0.578E+01
   0.237E+02 -.237E+02 0.988E+03   -.237E+02 0.237E+02 -.982E+03   -.165E-01 0.165E-01 -.563E+01
   -.217E+01 -.338E+02 0.967E+03   0.228E+01 0.339E+02 -.961E+03   -.884E-01 -.673E-01 -.616E+01
   0.291E+02 -.654E+02 -.875E+03   -.290E+02 0.660E+02 0.869E+03   -.505E-01 -.421E+00 0.617E+01
   -.219E+02 -.101E+03 -.765E+03   0.227E+02 0.101E+03 0.759E+03   -.566E+00 -.255E+00 0.578E+01
   0.758E+01 -.217E+02 0.945E+03   -.756E+01 0.218E+02 -.939E+03   -.115E-01 -.954E-01 -.617E+01
   -.416E+00 -.115E+02 0.937E+03   0.432E+00 0.116E+02 -.931E+03   -.122E-01 -.214E-01 -.616E+01
[...]
   -.120E+02 0.881E+01 0.708E+03   0.121E+02 -.883E+01 -.712E+03   -.617E-01 0.273E-01 0.363E+01
   -.450E+01 0.525E+01 0.702E+03   0.452E+01 -.526E+01 -.706E+03   -.236E-01 0.148E-01 0.362E+01
   -.275E+02 0.887E+01 -.682E+03   0.276E+02 -.886E+01 0.686E+03   -.737E-01 -.256E-01 -.367E+01
   -.129E+02 -.548E+00 -.689E+03   0.129E+02 0.562E+00 0.693E+03   -.147E-01 -.185E-01 -.366E+01
   -.178E+02 -.808E+00 0.712E+03   0.178E+02 0.843E+00 -.717E+03   -.394E-01 -.487E-01 0.361E+01
   -.818E+01 0.346E+01 0.705E+03   0.820E+01 -.346E+01 -.709E+03   -.312E-01 -.530E-02 0.362E+01
   -.246E+02 -.104E+02 -.684E+03   0.246E+02 0.105E+02 0.688E+03   -.221E-02 -.383E-01 -.368E+01
   -.779E+01 -.722E+01 -.691E+03   0.778E+01 0.723E+01 0.695E+03   0.986E-02 -.635E-02 -.366E+01
   -.110E+02 -.861E+01 0.707E+03   0.110E+02 0.862E+01 -.711E+03   0.294E-02 -.102E-01 0.361E+01
   -.754E+01 -.385E+01 0.705E+03   0.755E+01 0.386E+01 -.709E+03   -.212E-02 -.155E-01 0.361E+01
   -.984E+01 -.984E+01 -.691E+03   0.984E+01 0.984E+01 0.695E+03   0.844E-02 0.844E-02 -.366E+01
   -.352E+01 -.352E+01 -.693E+03   0.351E+01 0.351E+01 0.697E+03   0.451E-02 0.451E-02 -.365E+01
   -.500E+01 -.390E+01 0.701E+03   0.501E+01 0.390E+01 -.706E+03   -.162E-02 0.716E-02 0.361E+01
   -.390E+01 -.500E+01 0.701E+03   0.390E+01 0.501E+01 -.706E+03   0.716E-02 -.162E-02 0.361E+01
   -.936E-08 0.792E-06 0.729E+01   0.149E-11 0.146E-11 0.152E-10   -.167E-15 -.167E-15 -.780E+01

 POSITION                                       TOTAL-FORCE (eV/Angst)
     11.48437      9.65448     13.82858         0.320079     -0.320079      0.222101
      9.65448     11.48437     13.82858        -0.320079      0.320079      0.222101
      0.00000      0.00000      9.00000         0.000000      0.000000      0.086856
      2.11389      2.11389      9.00000         0.000857      0.000857      0.087220
      0.00000      2.11389     11.11389         0.002384     -0.000626     -0.079158
      2.11389      0.00000     11.11389        -0.000626      0.002384     -0.079158
      0.00000      4.22777      9.00000         0.004011     -0.001386      0.087068
      2.11389      6.34166      9.00000         0.002193     -0.002252      0.087868
      0.00000      6.34166     11.11389         0.005508     -0.000932     -0.078144
      2.11389      4.22777     11.11389         0.003361      0.000182     -0.078090
      0.00000      8.45554      9.00000         0.003518     -0.000851      0.087453
      2.11389     10.56943      9.00000        -0.005932     -0.003613      0.087809
      0.00000     10.56943     11.11389         0.000000      0.000000     -0.077322
      2.11389      8.45554     11.11389         0.002055     -0.003443     -0.075974
      0.00000     12.68331      9.00000        -0.003518      0.000851      0.087453
      2.11389     14.79720      9.00000        -0.009929      0.001829      0.086893
      0.00000     14.79720     11.11389        -0.005508      0.000932     -0.078144
      2.11389     12.68331     11.11389        -0.010092     -0.002097     -0.076919
      0.00000     16.91108      9.00000        -0.004011      0.001386      0.087068
      2.11389     19.02497      9.00000        -0.003225      0.003225      0.086637
      0.00000     19.02497     11.11389        -0.002384      0.000626     -0.079158
      2.11389     16.91108     11.11389        -0.007213      0.002984     -0.078709
      4.22777      0.00000      9.00000        -0.001386      0.004011      0.087068
      6.34166      2.11389      9.00000        -0.002252      0.002193      0.087868
      4.22777      2.11389     11.11389         0.000182      0.003361     -0.078090
      6.34166      0.00000     11.11389        -0.000932      0.005508     -0.078144
      4.22777      4.22777      9.00000         0.000087      0.000087      0.088714
      6.34166      6.34166      9.00000        -0.004245     -0.004245      0.094511
      4.22777      6.34166     11.11389         0.006131     -0.002027     -0.073037
      6.34166      4.22777     11.11389        -0.002027      0.006131     -0.073037
      4.22777      8.45554      9.00000        -0.002775     -0.009238      0.089059
      6.34166     10.56943      9.00000        -0.022033     -0.028780      0.081890
      4.22777     10.56943     11.11389        -0.011596     -0.012539     -0.070220
      6.34166      8.45554     11.11389         0.023795     -0.018680     -0.046723
      4.22777     12.68331      9.00000        -0.024935     -0.003355      0.087608
      6.34166     14.79720      9.00000        -0.021014      0.021014      0.073277
      4.22777     14.79720     11.11389        -0.023962      0.003928     -0.077274
      6.34166     12.68331     11.11389        -0.133718     -0.016166     -0.082562
      4.22777     16.91108      9.00000        -0.008475      0.008475      0.085138
      6.34166     19.02497      9.00000        -0.001829      0.009929      0.086893
      4.22777     19.02497     11.11389        -0.002984      0.007213     -0.078709
      6.34166     16.91108     11.11389        -0.003928      0.023962     -0.077274
      8.45554      0.00000      9.00000        -0.000851      0.003518      0.087453
     10.56943      2.11389      9.00000        -0.003613     -0.005932      0.087809
      8.45554      2.11389     11.11389        -0.003443      0.002055     -0.075974
     10.56943      0.00000     11.11389         0.000000      0.000000     -0.077322
      8.45554      4.22777      9.00000        -0.009238     -0.002775      0.089059
     10.56943      6.34166      9.00000        -0.028780     -0.022033      0.081890
      8.45554      6.34166     11.11389        -0.018680      0.023795     -0.046723
     10.56943      4.22777     11.11389        -0.012539     -0.011596     -0.070220
      8.45554      8.45554      9.00000        -0.026222     -0.026222      0.114249
     10.56943     10.56943      9.00000         0.000000      0.000000      0.023547
      8.45554     10.56943     11.11389        -0.127113     -0.227236     -0.087256
     10.56943      8.45554     11.11389        -0.227236     -0.127113     -0.087256
      8.45554     12.68331      9.00000         0.005784     -0.005784     -0.049459
     10.56943     14.79720      9.00000         0.028780      0.022033      0.081890
      8.45554     14.79720     11.11389         0.016166      0.133718     -0.082562
     10.56943     12.68331     11.11389         0.227236      0.127113     -0.087256
      8.45554     16.91108      9.00000         0.003355      0.024935      0.087608
     10.56943     19.02497      9.00000         0.003613      0.005932      0.087809
[...]
     19.02497      6.34166     11.11389        -0.009205      0.002074      0.471370
     16.91108      6.34166      9.00000        -0.017798      0.007905     -0.477862
     19.02497      4.22777      9.00000        -0.006701      0.004234     -0.480323
     16.91108      8.45554     11.11389        -0.022242     -0.006873      0.469974
     19.02497     10.56943     11.11389        -0.004325     -0.005239      0.469406
     16.91108     10.56943      9.00000        -0.012644     -0.013490     -0.481852
     19.02497      8.45554      9.00000        -0.009001     -0.001394     -0.480535
     16.91108     12.68331     11.11389        -0.001373     -0.011219      0.464398
     19.02497     14.79720     11.11389         0.002739     -0.001841      0.470350
     16.91108     14.79720      9.00000         0.000532     -0.003136     -0.483534
     19.02497     12.68331      9.00000        -0.000723     -0.004468     -0.481947
     16.91108     16.91108     11.11389         0.002275      0.002275      0.469552
     19.02497     19.02497     11.11389         0.001249      0.001249      0.472223
     16.91108     19.02497      9.00000        -0.000520      0.001981     -0.481399
     19.02497     16.91108      9.00000         0.001981     -0.000520     -0.481399
    total drift:                               -0.000000      0.000001     -0.517302

  FREE ENERGIE OF THE ION-ELECTRON SYSTEM (eV)
  free  energy   TOTEN  =      -748.69787119 eV

  energy  without entropy=     -748.69787119  energy(sigma->0) =     -748.69787119