 vasp.6.3.0 20Jan22 (build Apr  1 2022 16:44:48) complex
 executed on        HPECrayEX_GCC date 2023.01.09  19:40:58

 INCAR:
   SYSTEM = MgO-rocksalt
   ISMEAR = 0
   SIGMA = 0.05
   EDIFF = 1E-6
   ALGO = ALL
   ISTART = 0
   IBRION = -1
   NSW = 0
   ISYM = 2
   DIPOL = 0.5 0.5 0.5
   IDIPOL = 3
   LDIPOL = .TRUE.
   GGA = RE
   LUSE_VDW = .TRUE.
   AGGAC = 0.0
   ENCUT = 520
   PREC = Accurate
   LASPH = .TRUE.
   LREAL = Auto
   ISPIN = 1
   NELM = 200
   NELMIN = 8
   NCORE = 4
   KPAR = 2
   LWAVE = .FALSE.
   LCHARG = .FALSE.

 POTCAR:    PAW_PBE Cu 22Jun2005
 POTCAR:    PAW_PBE Mg_pv 13Apr2007
 POTCAR:    PAW_PBE O 08Apr2002
|               ----> ADVICE to this user running VASP <----                  |
|     You have switched on vdW-DFT.                                           |
|     This routine was written and supplied by Jiri Klimes. We recommend      |
|     that you carefully read and cite the following publications:            |
|       J. Klimes, D.R. Bowler, A. Michelides                                 |
|          J. Phys.: Cond Matt. 22 022201 (2010)                              |
|       J. Klimes, D.R. Bowler, A. Michelides                                 |
|          Phys. Rev. B. 83, 195131 (2011)                                    |
|     and references therein.                                                 |

   TITEL  = PAW_PBE Cu 22Jun2005
   POMASS =   63.546; ZVAL   =   11.000    mass and valenz
   ENMAX  =  295.446; ENMIN  =  221.585 eV

   TITEL  = PAW_PBE Mg_pv 13Apr2007
   POMASS =   24.305; ZVAL   =    8.000    mass and valenz
   ENMAX  =  403.929; ENMIN  =  302.947 eV

   TITEL  = PAW_PBE O 08Apr2002
   POMASS =   16.000; ZVAL   =    6.000    mass and valenz
   ENMAX  =  400.000; ENMIN  =  300.000 eV

 Optimization of the real space projectors (new method)

 maximal supplied QI-value         = 16.25
 optimisation between [QCUT,QGAM] = [ 11.54, 23.24] = [ 37.28,151.24] Ry
 Optimized for a Real-space Cutoff    1.53 Angstroem

   l    n(q)    QCUT    max X(q) W(low)/X(q) W(high)/X(q)  e(spline)
   2     10    11.539     4.610    0.96E-04    0.13E-03    0.19E-06
   2     10    11.539     8.522    0.16E-03    0.21E-03    0.28E-06
   0     11    11.539    51.609    0.45E-04    0.31E-04    0.11E-06
   0     11    11.539    27.747    0.39E-04    0.29E-04    0.10E-06
   1     10    11.539    20.408    0.70E-05    0.38E-04    0.18E-06
   1     10    11.539    13.425    0.66E-05    0.34E-04    0.17E-06
 Optimization of the real space projectors (new method)

[...]

   l    n(q)    QCUT    max X(q) W(low)/X(q) W(high)/X(q)  e(spline)
   1      8    11.527     2.974    0.44E-04    0.56E-04    0.12E-06
   1      8    11.527     4.279    0.12E-03    0.12E-03    0.26E-06
   0      9    11.527    16.381    0.46E-04    0.64E-04    0.78E-07
   0      9    11.527     5.611    0.26E-04    0.43E-04    0.55E-07
   2      8    11.527     4.652    0.22E-03    0.72E-04    0.47E-07
 Optimization of the real space projectors (new method)

 maximal supplied QI-value         = 24.76
 optimisation between [QCUT,QGAM] = [ 11.64, 23.27] = [ 37.91,151.63] Ry
 Optimized for a Real-space Cutoff    1.14 Angstroem

   l    n(q)    QCUT    max X(q) W(low)/X(q) W(high)/X(q)  e(spline)
   0      8    11.635    20.381    0.10E-03    0.33E-03    0.24E-06
   0      8    11.635    15.268    0.11E-03    0.35E-03    0.26E-06
   1      7    11.635     5.964    0.24E-03    0.31E-03    0.30E-06
   1      7    11.635     5.382    0.22E-03    0.25E-03    0.26E-06
|               ----> ADVICE to this user running VASP <----                  |
|     You enforced a specific xc type in the INCAR file but a different       |
|     type was found in the POTCAR file.                                      |
|     I HOPE YOU KNOW WHAT YOU ARE DOING!                                     |

  PAW_PBE Cu 22Jun2005                  :
  PAW_PBE Mg_pv 13Apr2007               :
  PAW_PBE O 08Apr2002                   :

 POSCAR: Cu Mg  O
  positions in direct lattice
  velocities in cartesian coordinates
 exchange correlation table for  LEXCH =       40
   RHO(1)=    0.500       N(1)  =     2000
   RHO(2)=  100.500       N(2)  =     4000

 ion  position               nearest neighbor table
   1  0.398  0.602  0.598- 157 2.11   2 2.32
   2  0.321  0.679  0.599- 138 2.22   1 2.32
   3  0.579  0.421  0.599- 173 2.22   4 2.32
   4  0.502  0.498  0.598- 154 2.11   3 2.32
   5  0.000  0.000  0.407- 107 2.11 108 2.11 123 2.11 188 2.11 105 2.11
   6  0.100  0.100  0.407- 107 2.11 108 2.11 112 2.11 127 2.11 106 2.11
   7  0.000  0.100  0.503- 105 2.11 106 2.11 109 2.11 186 2.11 107 2.11
   8  0.100  0.000  0.503- 105 2.11 106 2.11 122 2.11 125 2.11 108 2.11
   9  0.000  0.200  0.407- 111 2.11 107 2.11 112 2.11 192 2.11 109 2.11
  10  0.100  0.300  0.407- 112 2.11 111 2.11 116 2.11 131 2.11 110 2.11
  11  0.000  0.300  0.503- 109 2.11 110 2.11 113 2.11 190 2.11 111 2.11
  12  0.100  0.200  0.503- 110 2.11 109 2.11 106 2.11 129 2.11 112 2.11
  13  0.000  0.400  0.407- 111 2.11 115 2.11 116 2.11 196 2.11 113 2.11
  14  0.100  0.500  0.407- 115 2.11 116 2.11 120 2.11 135 2.11 114 2.11
  15  0.000  0.500  0.503- 113 2.11 114 2.11 117 2.11 194 2.11 115 2.11
  16  0.100  0.400  0.503- 110 2.11 113 2.11 114 2.11 133 2.11 116 2.11
  17  0.000  0.600  0.407- 115 2.11 119 2.11 120 2.11 200 2.11 117 2.11
  18  0.100  0.700  0.407- 124 2.11 120 2.11 119 2.11 139 2.11 118 2.11
  19  0.000  0.700  0.503- 121 2.11 118 2.11 117 2.11 198 2.11 119 2.11
  20  0.100  0.600  0.503- 114 2.11 117 2.11 118 2.11 137 2.11 120 2.11
  21  0.000  0.800  0.407- 119 2.11 123 2.11 124 2.11 204 2.11 121 2.11
  22  0.100  0.900  0.407- 108 2.11 123 2.11 124 2.11 143 2.11 122 2.11
  23  0.000  0.900  0.503- 105 2.11 121 2.11 122 2.11 202 2.11 123 2.11
  24  0.100  0.800  0.503- 118 2.11 121 2.11 122 2.11 141 2.11 124 2.11
  25  0.200  0.000  0.407- 128 2.11 127 2.11 108 2.11 143 2.11 125 2.11
  26  0.300  0.100  0.407- 127 2.11 128 2.11 132 2.11 147 2.11 126 2.11
  27  0.200  0.100  0.503- 126 2.11 125 2.11 106 2.11 129 2.11 127 2.11
  28  0.300  0.000  0.503- 125 2.11 126 2.11 142 2.11 145 2.11 128 2.11
  29  0.200  0.200  0.407- 131 2.11 132 2.11 112 2.11 127 2.11 129 2.11
  30  0.300  0.300  0.407- 131 2.11 132 2.11 136 2.11 151 2.11 130 2.11
  31  0.200  0.300  0.503- 129 2.11 130 2.11 110 2.11 133 2.11 131 2.11
  32  0.300  0.200  0.503- 129 2.11 130 2.11 126 2.11 149 2.11 132 2.11
  33  0.200  0.400  0.407- 136 2.11 131 2.11 135 2.11 116 2.11 133 2.11
  34  0.300  0.500  0.407- 135 2.11 136 2.11 140 2.11 155 2.11 134 2.11
  35  0.200  0.500  0.503- 134 2.11 133 2.11 114 2.11 137 2.11 135 2.11
  36  0.300  0.400  0.503- 133 2.11 130 2.11 134 2.11 153 2.11 136 2.11
  37  0.200  0.600  0.407- 140 2.11 135 2.11 139 2.11 120 2.11 137 2.11
  38  0.300  0.700  0.407- 139 2.11 144 2.11 140 2.11 159 2.11 138 2.11
  39  0.200  0.700  0.503- 138 2.11 141 2.11 118 2.11 137 2.11 139 2.11
  40  0.300  0.600  0.503- 137 2.11 134 2.11 138 2.11 157 2.11 140 2.11
  41  0.200  0.800  0.407- 139 2.11 144 2.11 143 2.11 124 2.11 141 2.11
  42  0.300  0.900  0.407- 143 2.11 128 2.11 144 2.11 163 2.11 142 2.11
  43  0.200  0.900  0.503- 142 2.11 125 2.11 141 2.11 122 2.11 143 2.11
  44  0.300  0.800  0.503- 138 2.11 141 2.11 142 2.11 161 2.11 144 2.11
  45  0.400  0.000  0.407- 128 2.11 147 2.11 148 2.11 163 2.11 145 2.11
  46  0.500  0.100  0.407- 147 2.11 148 2.11 152 2.11 167 2.11 146 2.11
  47  0.400  0.100  0.503- 126 2.11 145 2.11 146 2.11 149 2.11 147 2.11
  48  0.500  0.000  0.503- 145 2.11 146 2.11 162 2.11 165 2.11 148 2.11
  49  0.400  0.200  0.407- 151 2.11 147 2.11 132 2.11 152 2.11 149 2.11
  50  0.500  0.300  0.407- 152 2.11 151 2.11 156 2.11 171 2.11 150 2.11
  51  0.400  0.300  0.503- 149 2.11 130 2.11 150 2.11 153 2.11 151 2.11
  52  0.500  0.200  0.503- 150 2.11 149 2.11 146 2.11 169 2.11 152 2.11
  53  0.400  0.400  0.407- 136 2.11 151 2.11 155 2.11 156 2.11 153 2.11
  54  0.500  0.500  0.407- 155 2.11 156 2.11 160 2.11 175 2.11 154 2.11
  55  0.400  0.500  0.503- 134 2.11 153 2.11 154 2.11 157 2.11 155 2.11
  56  0.500  0.400  0.503- 150 2.11 153 2.11 154 2.11 173 2.11 156 2.11
  57  0.400  0.600  0.407- 140 2.11 155 2.11 159 2.11 160 2.11 157 2.11
  58  0.500  0.700  0.407- 164 2.11 160 2.11 159 2.11 179 2.11 158 2.11
  59  0.400  0.700  0.503- 161 2.11 157 2.11 158 2.11 138 2.11 159 2.11
  60  0.500  0.600  0.503- 154 2.11 157 2.11 158 2.11 177 2.11 160 2.11
[...]
 190  0.900  0.300  0.503-  92 2.11  91 2.11  11 2.11  96 2.11  90 2.11
 191  0.800  0.300  0.407-  70 2.11  89 2.11  90 2.11  93 2.11  91 2.11
 192  0.900  0.200  0.407-  90 2.11  86 2.11  89 2.11   9 2.11  92 2.11
 193  0.800  0.400  0.503-  76 2.11  91 2.11  95 2.11  96 2.11  93 2.11
 194  0.900  0.500  0.503-  15 2.11  95 2.11  96 2.11 100 2.11  94 2.11
 195  0.800  0.500  0.407-  74 2.11  93 2.11  94 2.11  97 2.11  95 2.11
 196  0.900  0.400  0.407-  13 2.11  90 2.11  93 2.11  94 2.11  96 2.11
 197  0.800  0.600  0.503-  80 2.11  95 2.11  99 2.11 100 2.11  97 2.11
 198  0.900  0.700  0.503- 104 2.11  99 2.11 100 2.11  19 2.11  98 2.11
 199  0.800  0.700  0.407-  78 2.11 101 2.11  98 2.11  97 2.11  99 2.11
 200  0.900  0.600  0.407-  17 2.11  94 2.11  97 2.11  98 2.11 100 2.11
 201  0.800  0.800  0.503-  84 2.11  99 2.11 103 2.11 104 2.11 101 2.11
 202  0.900  0.900  0.503-  23 2.11  88 2.11 103 2.11 104 2.11 102 2.11
 203  0.800  0.900  0.407-  82 2.11  85 2.11 101 2.11 102 2.11 103 2.11
 204  0.900  0.800  0.407-  98 2.11  21 2.11 101 2.11 102 2.11 104 2.11

  LATTYP: Found a simple tetragonal cell.
 ALAT       =    21.1388521970
 C/A-ratio  =     1.0461251639

  Lattice vectors:

 A1 = (  21.1388521970,   0.0000000000,   0.0000000000)
 A2 = (   0.0000000000,  21.1388521970,   0.0000000000)
 A3 = (   0.0000000000,   0.0000000000,  22.1138852197)

Analysis of symmetry for initial positions (statically):
 Subroutine PRICEL returns:
 Original cell was already a primitive cell.

 Routine SETGRP: Setting up the symmetry group for a
 simple tetragonal supercell.

 Subroutine GETGRP returns: Found  2 space group operations
 (whereof  1 operations were pure point group operations)
 out of a pool of 16 trial point group operations.

The static configuration has the point symmetry C_1 .
 The point group associated with its full space group is C_1h.

Analysis of symmetry for dynamics (positions and initial velocities):
 Subroutine PRICEL returns:
 Original cell was already a primitive cell.

[...]

The dynamic configuration has the point symmetry C_1 .
 The point group associated with its full space group is C_1h.

Analysis of constrained symmetry for selective dynamics:
 Subroutine PRICEL returns:
 Original cell was already a primitive cell.

 Routine SETGRP: Setting up the symmetry group for a
 simple tetragonal supercell.

 Subroutine GETGRP returns: Found  2 space group operations
 (whereof  1 operations were pure point group operations)
 out of a pool of 16 trial point group operations.

The constrained configuration has the point symmetry C_1 .
 The point group associated with its full space group is C_1h.

 Subroutine INISYM returns: Found  2 space group operations
[...]
     52     -43.7132      2.00000
     53     -43.6740      2.00000
     54     -43.6740      2.00000
     55     -43.6739      2.00000
     56     -43.6739      2.00000
     57     -43.6622      2.00000
     58     -43.6620      2.00000
     59     -43.6537      2.00000
     60     -43.6531      2.00000
[...]
    946       5.5428      0.00000
    947       5.5709      0.00000
    948       5.6001      0.00000
    949       5.6177      0.00000
    950       5.6581      0.00000
    951       5.6911      0.00000
    952       5.7710      0.00000
    953       5.8160      0.00000
    954       5.8829      0.00000
    955       5.9757      0.00000
    956       6.1025      0.00000
    957       6.1574      0.00000
    958       6.1872      0.00000
    959       6.3488      0.00000
    960       6.3787      0.00000

 soft charge-density along one line, spin component           1
         0         1         2         3         4         5         6         7         8         9
 total charge-density along one line

------------------------ aborting loop because EDIFF is reached ----------------------------------------

  FORCE on cell =-STRESS in cart. coord.  units (eV):
  Direction    XX          YY          ZZ          XY          YZ          ZX
  Alpha Z  1394.80054  1394.80054  1394.80054
  Ewald  488949.61640488949.61538************ -1381.09674     0.00920     0.00911
  Hartree518352.87820518352.87777************ -1164.93291     0.00808     0.00875
  E(xc)   -8120.34691 -8120.34691 -8136.17814    -0.78344     0.00026     0.00026
  Local  ************************************  2540.45880    -0.01650    -0.01733
  n-local -8861.75606 -8861.75605 -8977.20538     0.30524    -0.00160    -0.00171
  augment  3754.36664  3754.36666  3700.35498     2.50350     0.00046     0.00052
  Kinetic 23122.73501 23122.73509 23331.78027     3.37055    -0.00227    -0.00235
  Fock        0.00000     0.00000     0.00000     0.00000     0.00000     0.00000
  Total    -115.67538  -115.67538    40.87577    -0.17500    -0.00257    -0.00256
  in kB     -18.75528   -18.75528     6.62748    -0.02837    -0.00042    -0.00042

 VOLUME and BASIS-vectors are now :
  energy-cutoff  :      520.00
  volume of cell :     9881.61
      direct lattice vectors                 reciprocal lattice vectors
    21.138852197  0.000000000  0.000000000     0.047306258  0.000000000  0.000000000
     0.000000000 21.138852197  0.000000000     0.000000000  0.047306258  0.000000000
     0.000000000  0.000000000 22.113885220     0.000000000  0.000000000  0.045220457

  length of vectors
    21.138852197 21.138852197 22.113885220     0.047306258  0.047306258  0.045220457

 FORCES acting on ions:
    Electron-Ion                     Ewald-Force                    Non-Local-Force
   -.643E+02 0.643E+02 -.222E+04   0.602E+02 -.602E+02 0.222E+04   0.435E+01 -.435E+01 -.222E+01
   0.286E+03 -.286E+03 -.222E+04   -.281E+03 0.281E+03 0.222E+04   -.585E+01 0.585E+01 -.217E+01
   -.286E+03 0.286E+03 -.222E+04   0.281E+03 -.281E+03 0.222E+04   0.585E+01 -.585E+01 -.217E+01
   0.643E+02 -.643E+02 -.222E+04   -.602E+02 0.602E+02 0.222E+04   -.435E+01 0.435E+01 -.222E+01
   0.519E+01 -.519E+01 0.937E+03   -.521E+01 0.522E+01 -.930E+03   0.189E-01 -.189E-01 -.684E+01
   0.962E+01 0.174E+01 0.938E+03   -.963E+01 -.171E+01 -.931E+03   0.696E-02 -.222E-01 -.684E+01
   0.326E+01 0.326E+01 -.919E+03   -.325E+01 -.325E+01 0.912E+03   -.766E-02 -.766E-02 0.673E+01
   0.151E+02 -.121E+02 -.916E+03   -.151E+02 0.122E+02 0.910E+03   0.165E-01 -.548E-01 0.673E+01
   0.174E+01 0.962E+01 0.938E+03   -.171E+01 -.963E+01 -.931E+03   -.222E-01 0.696E-02 -.684E+01
   0.156E+02 0.171E+02 0.943E+03   -.156E+02 -.171E+02 -.936E+03   0.106E-01 0.240E-01 -.685E+01
   0.234E+01 0.163E+02 -.916E+03   -.230E+01 -.163E+02 0.909E+03   -.332E-01 0.432E-02 0.673E+01
   0.136E+02 0.136E+02 -.917E+03   -.136E+02 -.136E+02 0.910E+03   -.688E-02 -.688E-02 0.673E+01
   0.497E+01 0.121E+02 0.944E+03   -.495E+01 -.121E+02 -.937E+03   -.177E-01 0.167E-01 -.685E+01
   0.327E+02 0.134E+02 0.957E+03   -.329E+02 -.135E+02 -.950E+03   0.979E-01 0.632E-01 -.688E+01
   0.137E+02 0.882E+01 -.911E+03   -.137E+02 -.883E+01 0.904E+03   -.611E-03 0.124E-01 0.671E+01
   0.328E+02 0.257E+02 -.909E+03   -.328E+02 -.257E+02 0.902E+03   0.230E-02 0.230E-01 0.671E+01
   0.143E+02 -.228E+01 0.949E+03   -.144E+02 0.226E+01 -.942E+03   0.615E-01 0.130E-01 -.686E+01
   0.382E+02 -.141E+02 0.962E+03   -.386E+02 0.141E+02 -.955E+03   0.285E+00 0.975E-02 -.689E+01
   0.238E+02 -.133E+02 -.910E+03   -.239E+02 0.133E+02 0.903E+03   0.827E-01 0.747E-02 0.672E+01
   0.668E+02 0.553E+01 -.894E+03   -.669E+02 -.560E+01 0.888E+03   0.101E+00 0.574E-01 0.668E+01
   0.131E+02 -.142E+02 0.943E+03   -.132E+02 0.143E+02 -.936E+03   0.906E-01 -.177E-01 -.685E+01
   0.182E+02 -.182E+02 0.945E+03   -.183E+02 0.183E+02 -.938E+03   0.748E-01 -.748E-01 -.684E+01
   0.121E+02 -.151E+02 -.916E+03   -.122E+02 0.151E+02 0.910E+03   0.548E-01 -.165E-01 0.673E+01
   0.455E+02 -.324E+02 -.903E+03   -.458E+02 0.324E+02 0.896E+03   0.230E+00 -.185E-01 0.671E+01
   0.143E+02 -.131E+02 0.943E+03   -.143E+02 0.132E+02 -.936E+03   0.177E-01 -.905E-01 -.685E+01
   0.121E+02 0.497E+01 0.944E+03   -.121E+02 -.494E+01 -.937E+03   0.167E-01 -.177E-01 -.685E+01
   0.163E+02 0.234E+01 -.916E+03   -.163E+02 -.230E+01 0.909E+03   0.432E-02 -.332E-01 0.673E+01
   0.133E+02 -.238E+02 -.910E+03   -.133E+02 0.239E+02 0.903E+03   -.751E-02 -.825E-01 0.672E+01
   0.171E+02 0.156E+02 0.943E+03   -.171E+02 -.156E+02 -.936E+03   0.240E-01 0.106E-01 -.685E+01
   0.300E+02 0.381E+02 0.964E+03   -.302E+02 -.383E+02 -.957E+03   0.103E+00 0.996E-01 -.689E+01
   0.356E+02 0.356E+02 -.908E+03   -.357E+02 -.357E+02 0.901E+03   0.140E-01 0.140E-01 0.670E+01
   0.256E+02 0.328E+02 -.909E+03   -.257E+02 -.328E+02 0.902E+03   0.230E-01 0.230E-02 0.671E+01
   0.381E+02 0.300E+02 0.964E+03   -.383E+02 -.302E+02 -.957E+03   0.996E-01 0.103E+00 -.689E+01
   0.576E+02 0.372E+02 0.102E+04   -.581E+02 -.377E+02 -.102E+04   0.395E+00 0.392E+00 -.707E+01
   0.928E+02 0.506E+02 -.874E+03   -.929E+02 -.507E+02 0.867E+03   0.877E-01 0.112E+00 0.659E+01
   0.820E+02 0.820E+02 -.868E+03   -.821E+02 -.821E+02 0.861E+03   0.847E-01 0.847E-01 0.661E+01
   0.619E+02 0.500E+01 0.999E+03   -.624E+02 -.523E+01 -.992E+03   0.431E+00 0.178E+00 -.698E+01
   0.431E+02 -.430E+02 0.104E+04   -.433E+02 0.433E+02 -.104E+04   0.191E+00 -.192E+00 -.534E+01
   0.136E+03 -.474E+02 -.828E+03   -.138E+03 0.472E+02 0.822E+03   0.144E+01 0.136E+00 0.675E+01
   0.176E+03 0.722E+02 -.668E+03   -.178E+03 -.740E+02 0.663E+03   0.149E+01 0.128E+01 0.490E+01
   0.373E+02 -.373E+02 0.974E+03   -.375E+02 0.375E+02 -.967E+03   0.199E+00 -.200E+00 -.677E+01
   0.141E+02 -.382E+02 0.962E+03   -.141E+02 0.386E+02 -.955E+03   -.984E-02 -.285E+00 -.689E+01
   0.324E+02 -.455E+02 -.903E+03   -.324E+02 0.458E+02 0.896E+03   0.184E-01 -.230E+00 0.671E+01
   0.474E+02 -.136E+03 -.828E+03   -.473E+02 0.138E+03 0.821E+03   -.136E+00 -.144E+01 0.675E+01
   0.228E+01 -.143E+02 0.949E+03   -.227E+01 0.144E+02 -.942E+03   -.130E-01 -.613E-01 -.686E+01
   -.228E+01 0.143E+02 0.949E+03   0.226E+01 -.144E+02 -.942E+03   0.130E-01 0.615E-01 -.686E+01
   0.881E+01 0.137E+02 -.911E+03   -.883E+01 -.137E+02 0.904E+03   0.124E-01 -.611E-03 0.671E+01
   -.882E+01 -.137E+02 -.911E+03   0.883E+01 0.137E+02 0.904E+03   -.124E-01 0.837E-03 0.671E+01
   0.134E+02 0.327E+02 0.957E+03   -.135E+02 -.329E+02 -.950E+03   0.632E-01 0.979E-01 -.688E+01
   0.499E+01 0.619E+02 0.999E+03   -.523E+01 -.624E+02 -.992E+03   0.178E+00 0.431E+00 -.698E+01
   0.506E+02 0.928E+02 -.874E+03   -.507E+02 -.929E+02 0.867E+03   0.112E+00 0.877E-01 0.659E+01
   0.553E+01 0.668E+02 -.894E+03   -.560E+01 -.669E+02 0.888E+03   0.574E-01 0.101E+00 0.668E+01
   0.372E+02 0.576E+02 0.102E+04   -.377E+02 -.581E+02 -.102E+04   0.392E+00 0.395E+00 -.707E+01
   -.134E+02 0.135E+02 0.109E+04   0.134E+02 -.134E+02 -.108E+04   0.372E-01 -.376E-01 -.532E+01
   0.120E+03 0.120E+03 -.679E+03   -.122E+03 -.122E+03 0.673E+03   0.162E+01 0.162E+01 0.619E+01
   0.721E+02 0.176E+03 -.668E+03   -.740E+02 -.178E+03 0.663E+03   0.128E+01 0.149E+01 0.490E+01
   0.134E+02 -.134E+02 0.109E+04   -.134E+02 0.134E+02 -.108E+04   -.376E-01 0.372E-01 -.532E+01
   -.372E+02 -.576E+02 0.102E+04   0.377E+02 0.581E+02 -.102E+04   -.392E+00 -.395E+00 -.707E+01
   -.721E+02 -.176E+03 -.668E+03   0.740E+02 0.178E+03 0.663E+03   -.128E+01 -.149E+01 0.490E+01
   -.120E+03 -.120E+03 -.679E+03   0.122E+03 0.122E+03 0.673E+03   -.162E+01 -.162E+01 0.618E+01
[...]
   -.215E+02 0.163E+02 0.717E+03   0.216E+02 -.163E+02 -.722E+03   -.169E+00 0.806E-01 0.355E+01
   -.666E+01 0.888E+01 0.707E+03   0.669E+01 -.890E+01 -.711E+03   -.515E-01 0.339E-01 0.354E+01
   -.498E+02 0.150E+02 -.673E+03   0.499E+02 -.149E+02 0.677E+03   -.185E+00 -.533E-01 -.379E+01
   -.162E+02 0.159E+01 -.684E+03   0.162E+02 -.157E+01 0.688E+03   -.386E-01 -.218E-01 -.373E+01
   -.299E+02 -.832E+00 0.725E+03   0.300E+02 0.895E+00 -.729E+03   -.133E+00 -.803E-01 0.349E+01
   -.118E+02 0.793E+01 0.713E+03   0.118E+02 -.793E+01 -.717E+03   -.748E-01 -.122E-03 0.353E+01
   -.376E+02 -.163E+02 -.678E+03   0.377E+02 0.163E+02 0.683E+03   -.515E-01 -.584E-01 -.378E+01
   -.470E+01 -.116E+02 -.687E+03   0.468E+01 0.116E+02 0.691E+03   0.178E-01 -.879E-02 -.371E+01
   -.175E+02 -.139E+02 0.714E+03   0.175E+02 0.139E+02 -.719E+03   -.375E-01 -.471E-01 0.351E+01
   -.728E+01 -.481E+01 0.713E+03   0.728E+01 0.483E+01 -.717E+03   -.147E-01 -.202E-01 0.352E+01
   -.153E+02 -.166E+02 -.687E+03   0.153E+02 0.166E+02 0.692E+03   0.100E-02 -.107E-01 -.371E+01
   -.129E+01 -.877E+01 -.690E+03   0.127E+01 0.878E+01 0.695E+03   0.202E-01 -.507E-02 -.369E+01
   -.824E+01 -.822E+01 0.706E+03   0.823E+01 0.823E+01 -.711E+03   -.468E-02 -.468E-02 0.353E+01
   -.171E+01 -.987E+01 0.708E+03   0.168E+01 0.989E+01 -.712E+03   0.227E-01 -.164E-01 0.353E+01
   -.734E+00 0.731E+00 0.167E+02   0.165E-11 -.114E-12 0.819E-11   0.218E-02 0.218E-02 -.177E+02

 POSITION                                       TOTAL-FORCE (eV/Angst)
      8.42022     12.71964     13.21830         0.137136     -0.137201      0.425930
      6.77748     14.36235     13.25117        -0.174643      0.174078      0.399351
     12.24845      8.89138     13.25117         0.174078     -0.174643      0.399351
     10.60574     10.53411     13.21830        -0.137201      0.137136      0.425930
      0.00000      0.00000      9.00000        -0.005331      0.005320      0.172665
      2.11389      2.11389      9.00000        -0.002050      0.005891      0.173887
      0.00000      2.11389     11.11389         0.001983      0.001983     -0.141278
      2.11389      0.00000     11.11389        -0.004798      0.014453     -0.138684
      0.00000      4.22777      9.00000         0.005891     -0.002050      0.173887
      2.11389      6.34166      9.00000        -0.002946     -0.006493      0.176893
      0.00000      6.34166     11.11389         0.008751     -0.001052     -0.137276
      2.11389      4.22777     11.11389         0.001959      0.001959     -0.138498
      0.00000      8.45554      9.00000         0.004535     -0.004512      0.176659
      2.11389     10.56943      9.00000        -0.026828     -0.017612      0.182197
      0.00000     10.56943     11.11389         0.000686     -0.003219     -0.129927
      2.11389      8.45554     11.11389         0.000407     -0.005443     -0.125764
      0.00000     12.68331      9.00000        -0.016865     -0.003985      0.177578
      2.11389     14.79720      9.00000        -0.073587     -0.003444      0.182021
      0.00000     14.79720     11.11389        -0.020296     -0.002500     -0.130911
      2.11389     12.68331     11.11389        -0.024274     -0.017138     -0.107375
      0.00000     16.91108      9.00000        -0.024049      0.005197      0.175094
      2.11389     19.02497      9.00000        -0.021799      0.021794      0.170349
      0.00000     19.02497     11.11389        -0.014469      0.004791     -0.138686
      2.11389     16.91108     11.11389        -0.060170      0.006278     -0.125498
      4.22777      0.00000      9.00000        -0.005190      0.024030      0.175095
      6.34166      2.11389      9.00000        -0.004512      0.004535      0.176659
      4.22777      2.11389     11.11389        -0.001052      0.008751     -0.137276
      6.34166      0.00000     11.11389         0.002511      0.020241     -0.130904
      4.22777      4.22777      9.00000        -0.006493     -0.002946      0.176893
      6.34166      6.34166      9.00000        -0.028192     -0.027340      0.186395
      4.22777      6.34166     11.11389        -0.002595     -0.002595     -0.124568
      6.34166      4.22777     11.11389        -0.005443      0.000407     -0.125764
      4.22777      8.45554      9.00000        -0.027340     -0.028192      0.186395
      6.34166     10.56943      9.00000        -0.113863     -0.113399      0.206035
      4.22777     10.56943     11.11389        -0.009059     -0.018764     -0.056820
      6.34166      8.45554     11.11389        -0.017274     -0.017274     -0.065323
      4.22777     12.68331      9.00000        -0.122017     -0.059537      0.188264
      6.34166     14.79720      9.00000        -0.060780      0.060867     -0.188524
      4.22777     14.79720     11.11389        -0.461755     -0.047517     -0.132842
      6.34166     12.68331     11.11389        -0.565863     -0.597065      0.036563
      4.22777     16.91108      9.00000        -0.065659      0.065681      0.141584
      6.34166     19.02497      9.00000         0.003468      0.073567      0.182042
      4.22777     19.02497     11.11389        -0.006246      0.060169     -0.125488
      6.34166     16.91108     11.11389         0.047616      0.461838     -0.132872
      8.45554      0.00000      9.00000         0.003983      0.016818      0.177583
     10.56943      2.11389      9.00000        -0.003985     -0.016865      0.177578
      8.45554      2.11389     11.11389        -0.003219      0.000686     -0.129927
     10.56943      0.00000     11.11389         0.003214     -0.000754     -0.129930
      8.45554      4.22777      9.00000        -0.017612     -0.026828      0.182197
     10.56943      6.34166      9.00000        -0.059537     -0.122017      0.188264
      8.45554      6.34166     11.11389        -0.018764     -0.009059     -0.056820
     10.56943      4.22777     11.11389        -0.017138     -0.024274     -0.107375
      8.45554      8.45554      9.00000        -0.113399     -0.113863      0.206035
     10.56943     10.56943      9.00000        -0.012256      0.012371     -0.209566
      8.45554     10.56943     11.11389        -0.583483     -0.583483     -0.152867
     10.56943      8.45554     11.11389        -0.597065     -0.565863      0.036563
      8.45554     12.68331      9.00000         0.012371     -0.012256     -0.209566
     10.56943     14.79720      9.00000         0.113414      0.113861      0.206113
      8.45554     14.79720     11.11389         0.597739      0.566266      0.036029
     10.56943     12.68331     11.11389         0.583855      0.583855     -0.153119
[...]
     19.02497      6.34166     11.11389        -0.019606      0.004156      0.523450
     16.91108      6.34166      9.00000        -0.049104      0.023420     -0.560173
     19.02497      4.22777      9.00000        -0.014503      0.009570     -0.562963
     16.91108      8.45554     11.11389        -0.056605     -0.014177      0.503443
     19.02497     10.56943     11.11389        -0.011223     -0.006192      0.516689
     16.91108     10.56943      9.00000        -0.041177     -0.023275     -0.577108
     19.02497      8.45554      9.00000        -0.021521      0.000101     -0.566146
     16.91108     12.68331     11.11389        -0.016101     -0.017451      0.504007
     19.02497     14.79720     11.11389         0.004927     -0.002513      0.521477
     16.91108     14.79720      9.00000        -0.010905     -0.013548     -0.569940
     19.02497     12.68331      9.00000        -0.004323     -0.005772     -0.567930
     16.91108     16.91108     11.11389         0.000140     -0.003122      0.521999
     19.02497     19.02497     11.11389         0.005632     -0.001488      0.528381
     16.91108     19.02497      9.00000        -0.001401     -0.001401     -0.564642
     19.02497     16.91108      9.00000         0.006342     -0.004683     -0.564803
    total drift:                               -0.731885      0.732834     -0.992058

  FREE ENERGIE OF THE ION-ELECTRON SYSTEM (eV)
  free  energy   TOTEN  =      -678.58891329 eV

  energy  without entropy=     -678.58891329  energy(sigma->0) =     -678.58891329