 vasp.6.3.0 20Jan22 (build Apr  1 2022 16:44:48) complex
 executed on        HPECrayEX_GCC date 2022.12.11  08:05:48

 INCAR:
   SYSTEM = MgO-rocksalt
   ISMEAR = 0
   SIGMA = 0.05
   EDIFF = 1E-6
   ALGO = ALL
   ISTART = 0
   IBRION = -1
   NSW = 0
   ISYM = 2
   DIPOL = 0.5 0.5 0.5
   IDIPOL = 3
   LDIPOL = .TRUE.
   METAGGA = R2SCAN
   IVDW = 12
   VDW_S8 = 0.7898
   VDW_A1 = 0.4948
   VDW_A2 = 5.7308
   ENCUT = 520
   PREC = Accurate
   LASPH = .TRUE.
   LREAL = Auto
   ISPIN = 1
   NELM = 200
   NELMIN = 8
   NCORE = 4
   KPAR = 2
   LWAVE = .FALSE.
   LCHARG = .FALSE.

 POTCAR:    PAW_PBE Ag 02Apr2005
 POTCAR:    PAW_PBE Mg_pv 13Apr2007
 POTCAR:    PAW_PBE O 08Apr2002
 POTCAR:    PAW_PBE Ag 02Apr2005
   VRHFIN =Ag : s1 d10

   TITEL  = PAW_PBE Ag 02Apr2005
   POMASS =  107.868; ZVAL   =   11.000    mass and valenz
   ENMAX  =  249.844; ENMIN  =  187.383 eV

   TITEL  = PAW_PBE Mg_pv 13Apr2007
   POMASS =   24.305; ZVAL   =    8.000    mass and valenz
   ENMAX  =  403.929; ENMIN  =  302.947 eV

   TITEL  = PAW_PBE O 08Apr2002
   POMASS =   16.000; ZVAL   =    6.000    mass and valenz
   ENMAX  =  400.000; ENMIN  =  300.000 eV

 Optimization of the real space projectors (new method)

 maximal supplied QI-value         = 15.12
 optimisation between [QCUT,QGAM] = [ 11.64, 23.28] = [ 37.95,151.78] Ry
 Optimized for a Real-space Cutoff    1.45 Angstroem

   l    n(q)    QCUT    max X(q) W(low)/X(q) W(high)/X(q)  e(spline)
   2      9    11.641    53.897    0.22E-03    0.42E-04    0.28E-06
   2      9    11.641    52.416    0.23E-03    0.44E-04    0.29E-06
   0     10    11.641   122.045    0.51E-04    0.25E-04    0.16E-06
   0     10    11.641    73.629    0.49E-04    0.24E-04    0.16E-06
   1     10    11.641    15.255    0.99E-04    0.55E-04    0.11E-06
   1     10    11.641     9.562    0.81E-04    0.47E-04    0.95E-07
 Optimization of the real space projectors (new method)

[...]

   l    n(q)    QCUT    max X(q) W(low)/X(q) W(high)/X(q)  e(spline)
   1      8    11.527     2.974    0.44E-04    0.56E-04    0.12E-06
   1      8    11.527     4.279    0.12E-03    0.12E-03    0.26E-06
   0      9    11.527    16.381    0.46E-04    0.64E-04    0.78E-07
   0      9    11.527     5.611    0.26E-04    0.43E-04    0.55E-07
   2      8    11.527     4.652    0.22E-03    0.72E-04    0.47E-07
 Optimization of the real space projectors (new method)

 maximal supplied QI-value         = 24.76
 optimisation between [QCUT,QGAM] = [ 11.64, 23.27] = [ 37.91,151.63] Ry
 Optimized for a Real-space Cutoff    1.14 Angstroem

   l    n(q)    QCUT    max X(q) W(low)/X(q) W(high)/X(q)  e(spline)
   0      8    11.635    20.381    0.10E-03    0.33E-03    0.24E-06
   0      8    11.635    15.268    0.11E-03    0.35E-03    0.26E-06
   1      7    11.635     5.964    0.24E-03    0.31E-03    0.30E-06
   1      7    11.635     5.382    0.22E-03    0.25E-03    0.26E-06
  PAW_PBE Ag 02Apr2005                  :
  PAW_PBE Mg_pv 13Apr2007               :
  PAW_PBE O 08Apr2002                   :

 POSCAR: Ag Mg  O
  positions in direct lattice

 METAGGA = R2SCA    LMAXTAU =  6    LMIXTAU =  F

 ion  position               nearest neighbor table
   1  0.543  0.557  0.623-   2 2.59  58 2.97
   2  0.457  0.643  0.623-   1 2.59  58 2.97
   3  0.000  0.000  0.407- 105 2.11 106 2.11 121 2.11 186 2.11 103 2.11
   4  0.100  0.100  0.407- 105 2.11 106 2.11 110 2.11 125 2.11 104 2.11
   5  0.000  0.100  0.503- 103 2.11 104 2.11 107 2.11 184 2.11 105 2.11
   6  0.100  0.000  0.503- 103 2.11 104 2.11 120 2.11 123 2.11 106 2.11
   7  0.000  0.200  0.407- 109 2.11 105 2.11 110 2.11 190 2.11 107 2.11
   8  0.100  0.300  0.407- 110 2.11 109 2.11 114 2.11 129 2.11 108 2.11
   9  0.000  0.300  0.503- 107 2.11 108 2.11 111 2.11 188 2.11 109 2.11
  10  0.100  0.200  0.503- 108 2.11 107 2.11 104 2.11 127 2.11 110 2.11
  11  0.000  0.400  0.407- 109 2.11 113 2.11 114 2.11 194 2.11 111 2.11
  12  0.100  0.500  0.407- 113 2.11 114 2.11 118 2.11 133 2.11 112 2.11
  13  0.000  0.500  0.503- 111 2.11 112 2.11 115 2.11 192 2.11 113 2.11
  14  0.100  0.400  0.503- 108 2.11 111 2.11 112 2.11 131 2.11 114 2.11
  15  0.000  0.600  0.407- 113 2.11 117 2.11 118 2.11 198 2.11 115 2.11
  16  0.100  0.700  0.407- 122 2.11 118 2.11 117 2.11 137 2.11 116 2.11
  17  0.000  0.700  0.503- 119 2.11 116 2.11 115 2.11 196 2.11 117 2.11
  18  0.100  0.600  0.503- 112 2.11 115 2.11 116 2.11 135 2.11 118 2.11
  19  0.000  0.800  0.407- 117 2.11 121 2.11 122 2.11 202 2.11 119 2.11
  20  0.100  0.900  0.407- 106 2.11 121 2.11 122 2.11 141 2.11 120 2.11
  21  0.000  0.900  0.503- 103 2.11 119 2.11 120 2.11 200 2.11 121 2.11
  22  0.100  0.800  0.503- 116 2.11 119 2.11 120 2.11 139 2.11 122 2.11
  23  0.200  0.000  0.407- 126 2.11 125 2.11 106 2.11 141 2.11 123 2.11
  24  0.300  0.100  0.407- 125 2.11 126 2.11 130 2.11 145 2.11 124 2.11
  25  0.200  0.100  0.503- 124 2.11 123 2.11 104 2.11 127 2.11 125 2.11
  26  0.300  0.000  0.503- 123 2.11 124 2.11 140 2.11 143 2.11 126 2.11
  27  0.200  0.200  0.407- 129 2.11 130 2.11 110 2.11 125 2.11 127 2.11
  28  0.300  0.300  0.407- 129 2.11 130 2.11 134 2.11 149 2.11 128 2.11
  29  0.200  0.300  0.503- 127 2.11 128 2.11 108 2.11 131 2.11 129 2.11
  30  0.300  0.200  0.503- 127 2.11 128 2.11 124 2.11 147 2.11 130 2.11
  31  0.200  0.400  0.407- 134 2.11 129 2.11 133 2.11 114 2.11 131 2.11
  32  0.300  0.500  0.407- 133 2.11 134 2.11 138 2.11 153 2.11 132 2.11
  33  0.200  0.500  0.503- 132 2.11 131 2.11 112 2.11 135 2.11 133 2.11
  34  0.300  0.400  0.503- 131 2.11 128 2.11 132 2.11 151 2.11 134 2.11
  35  0.200  0.600  0.407- 138 2.11 133 2.11 137 2.11 118 2.11 135 2.11
  36  0.300  0.700  0.407- 137 2.11 142 2.11 138 2.11 157 2.11 136 2.11
  37  0.200  0.700  0.503- 136 2.11 139 2.11 116 2.11 135 2.11 137 2.11
  38  0.300  0.600  0.503- 135 2.11 132 2.11 136 2.11 155 2.11 138 2.11
  39  0.200  0.800  0.407- 137 2.11 142 2.11 141 2.11 122 2.11 139 2.11
  40  0.300  0.900  0.407- 141 2.11 126 2.11 142 2.11 161 2.11 140 2.11
  41  0.200  0.900  0.503- 140 2.11 123 2.11 139 2.11 120 2.11 141 2.11
  42  0.300  0.800  0.503- 136 2.11 139 2.11 140 2.11 159 2.11 142 2.11
  43  0.400  0.000  0.407- 126 2.11 145 2.11 146 2.11 161 2.11 143 2.11
  44  0.500  0.100  0.407- 145 2.11 146 2.11 150 2.11 165 2.11 144 2.11
  45  0.400  0.100  0.503- 124 2.11 143 2.11 144 2.11 147 2.11 145 2.11
  46  0.500  0.000  0.503- 143 2.11 144 2.11 160 2.11 163 2.11 146 2.11
  47  0.400  0.200  0.407- 149 2.11 145 2.11 130 2.11 150 2.11 147 2.11
  48  0.500  0.300  0.407- 150 2.11 149 2.11 154 2.11 169 2.11 148 2.11
  49  0.400  0.300  0.503- 147 2.11 128 2.11 148 2.11 151 2.11 149 2.11
  50  0.500  0.200  0.503- 148 2.11 147 2.11 144 2.11 167 2.11 150 2.11
  51  0.400  0.400  0.407- 134 2.11 149 2.11 153 2.11 154 2.11 151 2.11
  52  0.500  0.500  0.407- 153 2.11 154 2.11 158 2.11 173 2.11 152 2.11
  53  0.400  0.500  0.503- 132 2.11 151 2.11 152 2.11 155 2.11 153 2.11
  54  0.500  0.400  0.503- 148 2.11 151 2.11 152 2.11 171 2.11 154 2.11
  55  0.400  0.600  0.407- 138 2.11 153 2.11 157 2.11 158 2.11 155 2.11
  56  0.500  0.700  0.407- 162 2.11 158 2.11 157 2.11 177 2.11 156 2.11
  57  0.400  0.700  0.503- 159 2.11 155 2.11 156 2.11 136 2.11 157 2.11
  58  0.500  0.600  0.503- 152 2.11 155 2.11 156 2.11 175 2.11 158 2.11   2 2.97   1 2.97
  59  0.400  0.800  0.407- 157 2.11 142 2.11 161 2.11 162 2.11 159 2.11
  60  0.500  0.900  0.407- 146 2.11 161 2.11 162 2.11 181 2.11 160 2.11
[...]
 188  0.900  0.300  0.503-  90 2.11  89 2.11   9 2.11  94 2.11  88 2.11
 189  0.800  0.300  0.407-  68 2.11  87 2.11  88 2.11  91 2.11  89 2.11
 190  0.900  0.200  0.407-  88 2.11  84 2.11  87 2.11   7 2.11  90 2.11
 191  0.800  0.400  0.503-  74 2.11  89 2.11  93 2.11  94 2.11  91 2.11
 192  0.900  0.500  0.503-  13 2.11  93 2.11  94 2.11  98 2.11  92 2.11
 193  0.800  0.500  0.407-  72 2.11  91 2.11  92 2.11  95 2.11  93 2.11
 194  0.900  0.400  0.407-  11 2.11  88 2.11  91 2.11  92 2.11  94 2.11
 195  0.800  0.600  0.503-  78 2.11  93 2.11  97 2.11  98 2.11  95 2.11
 196  0.900  0.700  0.503- 102 2.11  97 2.11  98 2.11  17 2.11  96 2.11
 197  0.800  0.700  0.407-  76 2.11  99 2.11  96 2.11  95 2.11  97 2.11
 198  0.900  0.600  0.407-  15 2.11  92 2.11  95 2.11  96 2.11  98 2.11
 199  0.800  0.800  0.503-  82 2.11  97 2.11 101 2.11 102 2.11  99 2.11
 200  0.900  0.900  0.503-  21 2.11  86 2.11 101 2.11 102 2.11 100 2.11
 201  0.800  0.900  0.407-  80 2.11  83 2.11  99 2.11 100 2.11 101 2.11
 202  0.900  0.800  0.407-  96 2.11  19 2.11  99 2.11 100 2.11 102 2.11

  LATTYP: Found a simple tetragonal cell.
 ALAT       =    21.1388521970
 C/A-ratio  =     1.0461251639

  Lattice vectors:

 A1 = (  21.1388521970,   0.0000000000,   0.0000000000)
 A2 = (   0.0000000000,  21.1388521970,   0.0000000000)
 A3 = (   0.0000000000,   0.0000000000,  22.1138852197)

Analysis of symmetry for initial positions (statically):
 Subroutine PRICEL returns:
 Original cell was already a primitive cell.

 Routine SETGRP: Setting up the symmetry group for a
 simple tetragonal supercell.

 Subroutine GETGRP returns: Found  4 space group operations
 (whereof  1 operations were pure point group operations)
 out of a pool of 16 trial point group operations.

The static configuration has the point symmetry C_1 .
 The point group associated with its full space group is C_2v.

Analysis of symmetry for dynamics (positions and initial velocities):
 Subroutine PRICEL returns:
 Original cell was already a primitive cell.

 Routine SETGRP: Setting up the symmetry group for a
 simple tetragonal supercell.

 Subroutine GETGRP returns: Found  4 space group operations
 (whereof  1 operations were pure point group operations)
 out of a pool of 16 trial point group operations.

The dynamic configuration has the point symmetry C_1 .
 The point group associated with its full space group is C_2v.

 Subroutine INISYM returns: Found  4 space group operations
 (whereof  1 operations are pure point group operations),
 and found     1 'primitive' translations

                                     Primitive cell

  volume of cell :    9881.6133

  direct lattice vectors                    reciprocal lattice vectors
    21.138852197  0.000000000  0.000000000     0.047306258  0.000000000  0.000000000
     0.000000000 21.138852197  0.000000000     0.000000000  0.047306258  0.000000000
     0.000000000  0.000000000 22.113885220     0.000000000  0.000000000  0.045220457

  length of vectors
    21.138852197 21.138852197 22.113885220     0.047306258  0.047306258  0.045220457

  position of ions in fractional coordinates (direct lattice)
     0.543264150  0.556735814  0.623371474
     0.456735850  0.643264114  0.623371474
     0.000000000  0.000000000  0.406984115
     0.100000000  0.100000000  0.406984115
     0.000000000  0.100000000  0.502574971
     0.100000000  0.000000000  0.502574971
     0.000000000  0.200000000  0.406984115
     0.100000000  0.300000000  0.406984115
     0.000000000  0.300000000  0.502574971
     0.100000000  0.200000000  0.502574971
     0.000000000  0.400000000  0.406984115
     0.100000000  0.500000000  0.406984115
     0.000000000  0.500000000  0.502574971
[...]
    893       6.1941      0.00000
    894       6.2154      0.00000
    895       6.2197      0.00000
    896       6.2364      0.00000

 soft charge-density along one line, spin component           1
         0         1         2         3         4         5         6         7         8         9
 total charge-density along one line

------------------------ aborting loop because EDIFF is reached ----------------------------------------

 WARNING: Using user supplied parameters
     VDW_A1 = 0.495
     VDW_A2 = 5.731
     VDW_S8 = 0.79
     because the xc functional is not supported. Required parameters not
     defined in the INCAR file will be replaced with PBE defaults ones.

         DFTD3 V3.0 Rev 1
 IVDW         = 12
 DF unknown
 parameters
 VDW_S6       =    1.0000
 VDW_S8       =    0.7898
 VDW_A1       =    0.4948
 VDW_A2       =    5.7308
 k1-k3        =   16.0000    1.3333   -4.0000
 VDW_RADIUS   =   50.2022 A
 VDW_CNRADIUS =   21.1671 A
 Edisp (eV)  -12.70188

 E6    (eV) :    -8.5965
 E8    (eV) :    -4.1053
 % E8        : 32.32

  FORCE on cell =-STRESS in cart. coord.  units (eV):
  Direction    XX          YY          ZZ          XY          YZ          ZX
  Alpha Z  1357.53553  1357.53553  1357.53553
  Ewald  479540.84319479540.84319************  -342.47633     0.00001    -0.00001
  Hartree508390.62099508390.62099************  -246.92303     0.00000    -0.00002
  E(xc)   -8397.93777 -8397.93777 -8398.73251    -0.13706    -0.00000    -0.00000
  Local  ************************************   583.81085    -0.00001     0.00003
  n-local -8705.44624 -8705.44622 -8828.92591     0.89828     0.00000    -0.00000
  augment  3884.34209  3884.34205  3826.21152     1.22011    -0.00000    -0.00000
  Kinetic 23012.31999 23012.31994 23240.35438     3.28802    -0.00001    -0.00001
  Fock        0.00000     0.00000     0.00000     0.00000     0.00000     0.00000
  vdW       -13.27119   -13.27119    -2.52199     0.00492     0.00000    -0.00000
  Total    -235.49195  -235.49195   -19.75960    -0.31424     0.00000     0.00000
  in kB     -38.18201   -38.18201    -3.20377    -0.05095     0.00000     0.00000

 VOLUME and BASIS-vectors are now :
  energy-cutoff  :      520.00
  volume of cell :     9881.61
      direct lattice vectors                 reciprocal lattice vectors
    21.138852197  0.000000000  0.000000000     0.047306258  0.000000000  0.000000000
     0.000000000 21.138852197  0.000000000     0.000000000  0.047306258  0.000000000
     0.000000000  0.000000000 22.113885220     0.000000000  0.000000000  0.045220457

  length of vectors
    21.138852197 21.138852197 22.113885220     0.047306258  0.047306258  0.045220457

 FORCES acting on ions:
    Electron-Ion                     Ewald-Force                    Non-Local-Force
   -.189E+03 0.189E+03 -.206E+04   0.184E+03 -.184E+03 0.206E+04   0.553E+01 -.553E+01 -.127E+00
   0.189E+03 -.189E+03 -.206E+04   -.184E+03 0.184E+03 0.206E+04   -.553E+01 0.553E+01 -.127E+00
   0.203E+00 -.345E+01 0.932E+03   -.207E+00 0.346E+01 -.923E+03   0.361E-02 -.317E-02 -.754E+01
   0.345E+01 -.203E+00 0.932E+03   -.346E+01 0.207E+00 -.923E+03   0.317E-02 -.361E-02 -.754E+01
   -.110E-07 -.184E-03 -.923E+03   0.103E-06 -.158E-05 0.915E+03   0.000E+00 0.000E+00 0.756E+01
   0.531E+01 -.531E+01 -.922E+03   -.532E+01 0.532E+01 0.914E+03   0.781E-02 -.781E-02 0.756E+01
   -.203E+00 0.345E+01 0.932E+03   0.207E+00 -.346E+01 -.923E+03   -.361E-02 0.317E-02 -.754E+01
   0.523E+01 0.671E+01 0.933E+03   -.523E+01 -.671E+01 -.925E+03   0.613E-03 0.485E-02 -.754E+01
   -.567E+00 0.716E+01 -.922E+03   0.579E+00 -.717E+01 0.914E+03   -.903E-02 0.408E-02 0.756E+01
   0.470E+01 0.470E+01 -.923E+03   -.470E+01 -.470E+01 0.915E+03   -.108E-02 -.108E-02 0.756E+01
   -.468E+00 0.613E+01 0.934E+03   0.479E+00 -.613E+01 -.926E+03   -.898E-02 0.550E-02 -.754E+01
   0.101E+02 0.518E+01 0.938E+03   -.102E+02 -.519E+01 -.930E+03   0.113E-01 0.951E-02 -.754E+01
   -.544E+00 0.501E+01 -.920E+03   0.555E+00 -.501E+01 0.912E+03   -.864E-02 0.262E-02 0.756E+01
   0.104E+02 0.967E+01 -.920E+03   -.104E+02 -.968E+01 0.912E+03   -.349E-02 0.630E-02 0.756E+01
   0.242E-06 -.187E-03 0.936E+03   -.147E-06 0.154E-05 -.928E+03   0.000E+00 0.000E+00 -.754E+01
   0.110E+02 -.464E+01 0.938E+03   -.110E+02 0.464E+01 -.930E+03   0.306E-01 -.865E-03 -.754E+01
   0.544E+00 -.501E+01 -.920E+03   -.555E+00 0.501E+01 0.912E+03   0.864E-02 -.262E-02 0.756E+01
   0.173E+02 0.744E+00 -.917E+03   -.174E+02 -.755E+00 0.909E+03   0.184E-01 0.790E-02 0.756E+01
   0.468E+00 -.613E+01 0.934E+03   -.479E+00 0.613E+01 -.926E+03   0.898E-02 -.550E-02 -.754E+01
   0.605E+01 -.704E+01 0.934E+03   -.607E+01 0.705E+01 -.926E+03   0.144E-01 -.986E-02 -.754E+01
   0.567E+00 -.716E+01 -.922E+03   -.579E+00 0.717E+01 0.914E+03   0.903E-02 -.408E-02 0.756E+01
   0.123E+02 -.980E+01 -.919E+03   -.124E+02 0.981E+01 0.911E+03   0.261E-01 -.529E-02 0.756E+01
   0.704E+01 -.605E+01 0.934E+03   -.705E+01 0.607E+01 -.926E+03   0.986E-02 -.144E-01 -.754E+01
   0.613E+01 -.468E+00 0.934E+03   -.613E+01 0.479E+00 -.926E+03   0.550E-02 -.898E-02 -.754E+01
   0.716E+01 -.567E+00 -.922E+03   -.717E+01 0.579E+00 0.914E+03   0.408E-02 -.903E-02 0.756E+01
   0.980E+01 -.123E+02 -.919E+03   -.981E+01 0.124E+02 0.911E+03   0.529E-02 -.261E-01 0.756E+01
   0.671E+01 0.523E+01 0.933E+03   -.671E+01 -.523E+01 -.925E+03   0.485E-02 0.613E-03 -.754E+01
   0.116E+02 0.148E+02 0.940E+03   -.116E+02 -.148E+02 -.932E+03   0.163E-01 0.189E-01 -.755E+01
   0.132E+02 0.132E+02 -.919E+03   -.132E+02 -.132E+02 0.911E+03   0.186E-02 0.186E-02 0.756E+01
   0.967E+01 0.104E+02 -.920E+03   -.968E+01 -.104E+02 0.912E+03   0.630E-02 -.349E-02 0.756E+01
   0.148E+02 0.116E+02 0.940E+03   -.148E+02 -.116E+02 -.932E+03   0.189E-01 0.163E-01 -.755E+01
   0.285E+02 0.160E+02 0.961E+03   -.286E+02 -.160E+02 -.953E+03   0.900E-01 0.487E-01 -.757E+01
   0.330E+02 0.140E+02 -.910E+03   -.330E+02 -.140E+02 0.902E+03   0.149E-01 0.229E-01 0.755E+01
   0.317E+02 0.317E+02 -.905E+03   -.317E+02 -.317E+02 0.897E+03   0.188E-01 0.188E-01 0.754E+01
   0.239E+02 0.112E+01 0.948E+03   -.240E+02 -.114E+01 -.940E+03   0.589E-01 0.169E-01 -.755E+01
   0.303E+02 -.142E+02 0.965E+03   -.304E+02 0.142E+02 -.957E+03   0.591E-01 -.199E-01 -.748E+01
   0.370E+02 -.119E+02 -.908E+03   -.371E+02 0.119E+02 0.900E+03   0.876E-01 0.596E-02 0.756E+01
   0.778E+02 0.813E+01 -.871E+03   -.781E+02 -.823E+01 0.863E+03   0.190E+00 0.764E-01 0.754E+01
   0.162E+02 -.119E+02 0.942E+03   -.163E+02 0.119E+02 -.934E+03   0.372E-01 -.195E-01 -.753E+01
   0.119E+02 -.162E+02 0.942E+03   -.119E+02 0.163E+02 -.934E+03   0.195E-01 -.372E-01 -.753E+01
   0.148E+02 -.148E+02 -.918E+03   -.148E+02 0.148E+02 0.910E+03   0.217E-01 -.217E-01 0.756E+01
   0.365E+02 -.365E+02 -.899E+03   -.366E+02 0.366E+02 0.891E+03   0.672E-01 -.672E-01 0.757E+01
   0.464E+01 -.110E+02 0.938E+03   -.464E+01 0.110E+02 -.930E+03   0.865E-03 -.306E-01 -.754E+01
   0.238E-06 -.181E-03 0.936E+03   -.140E-06 -.411E-05 -.928E+03   0.000E+00 0.000E+00 -.754E+01
   0.501E+01 -.544E+00 -.920E+03   -.501E+01 0.555E+00 0.912E+03   0.262E-02 -.864E-02 0.756E+01
   -.745E+00 -.173E+02 -.917E+03   0.755E+00 0.174E+02 0.909E+03   -.790E-02 -.184E-01 0.756E+01
   0.518E+01 0.101E+02 0.938E+03   -.519E+01 -.102E+02 -.930E+03   0.951E-02 0.113E-01 -.754E+01
   0.112E+01 0.239E+02 0.948E+03   -.114E+01 -.240E+02 -.940E+03   0.169E-01 0.589E-01 -.755E+01
   0.140E+02 0.330E+02 -.910E+03   -.140E+02 -.330E+02 0.902E+03   0.229E-01 0.149E-01 0.755E+01
   0.745E+00 0.173E+02 -.917E+03   -.755E+00 -.174E+02 0.909E+03   0.790E-02 0.184E-01 0.756E+01
   0.160E+02 0.285E+02 0.961E+03   -.160E+02 -.286E+02 -.953E+03   0.487E-01 0.900E-01 -.757E+01
   0.304E+01 0.302E+02 0.100E+04   -.301E+01 -.303E+02 -.994E+03   -.244E-01 0.782E-01 -.732E+01
   0.691E+02 0.691E+02 -.838E+03   -.694E+02 -.694E+02 0.830E+03   0.206E+00 0.206E+00 0.733E+01
   0.813E+01 0.778E+02 -.871E+03   -.823E+01 -.781E+02 0.863E+03   0.764E-01 0.190E+00 0.754E+01
   0.302E+02 0.304E+01 0.100E+04   -.303E+02 -.301E+01 -.994E+03   0.782E-01 -.244E-01 -.732E+01
   -.304E+01 -.302E+02 0.100E+04   0.301E+01 0.303E+02 -.994E+03   0.244E-01 -.782E-01 -.732E+01
   0.754E+02 -.754E+02 -.796E+03   -.756E+02 0.756E+02 0.788E+03   0.113E+00 -.113E+00 0.726E+01
   -.206E-04 -.239E-03 -.667E+03   0.210E-04 0.517E-04 0.662E+03   0.000E+00 0.000E+00 0.505E+01
   0.142E+02 -.303E+02 0.965E+03   -.142E+02 0.304E+02 -.957E+03   0.199E-01 -.591E-01 -.748E+01
   -.112E+01 -.239E+02 0.948E+03   0.114E+01 0.240E+02 -.940E+03   -.169E-01 -.589E-01 -.755E+01
[...]
   -.792E+01 0.792E+01 0.704E+03   0.794E+01 -.794E+01 -.708E+03   -.223E-01 0.223E-01 0.345E+01
   -.316E+01 0.316E+01 0.701E+03   0.316E+01 -.316E+01 -.705E+03   -.840E-02 0.840E-02 0.345E+01
   -.189E+02 0.133E+02 -.687E+03   0.189E+02 -.134E+02 0.690E+03   -.460E-01 0.286E-01 -.348E+01
   -.122E+02 0.463E+01 -.690E+03   0.123E+02 -.463E+01 0.693E+03   -.240E-01 -.111E-02 -.349E+01
   -.165E+02 0.572E+01 0.712E+03   0.166E+02 -.573E+01 -.716E+03   -.586E-01 0.498E-02 0.346E+01
   -.651E+01 0.558E+01 0.704E+03   0.652E+01 -.559E+01 -.708E+03   -.224E-01 0.107E-01 0.345E+01
   -.306E+02 -.183E+01 -.681E+03   0.306E+02 0.186E+01 0.685E+03   -.447E-01 -.345E-01 -.351E+01
   -.110E+02 -.527E+01 -.690E+03   0.110E+02 0.528E+01 0.694E+03   -.648E-02 -.119E-01 -.349E+01
   -.154E+02 -.663E+01 0.711E+03   0.155E+02 0.665E+01 -.714E+03   -.284E-01 -.254E-01 0.343E+01
   -.873E+01 -.323E+00 0.706E+03   0.875E+01 0.328E+00 -.710E+03   -.194E-01 -.849E-02 0.344E+01
   -.163E+02 -.125E+02 -.688E+03   0.163E+02 0.126E+02 0.692E+03   -.786E-02 -.125E-01 -.350E+01
   -.510E+01 -.636E+01 -.693E+03   0.510E+01 0.636E+01 0.697E+03   0.199E-02 -.317E-02 -.348E+01
   -.730E+01 -.730E+01 0.704E+03   0.730E+01 0.730E+01 -.707E+03   -.887E-02 -.887E-02 0.344E+01
   -.568E+01 -.557E+01 0.703E+03   0.568E+01 0.557E+01 -.707E+03   -.328E-02 -.948E-02 0.344E+01
   -.148E-04 -.110E+00 0.859E+01   0.753E-12 0.270E-12 0.830E-11   -.534E-15 0.118E-14 -.591E+01

 POSITION                                       TOTAL-FORCE (eV/Angst)
     11.48398     11.76876     13.78517        -0.100012      0.100012     -0.085995
      9.65487     13.59787     13.78517         0.100012     -0.100012     -0.085995
      0.00000      0.00000      9.00000        -0.001013      0.000889      0.527410
      2.11389      2.11389      9.00000        -0.000889      0.001013      0.527410
      0.00000      2.11389     11.11389         0.000000     -0.000000     -0.495661
      2.11389      0.00000     11.11389        -0.002183      0.002183     -0.495481
      0.00000      4.22777      9.00000         0.001013     -0.000889      0.527410
      2.11389      6.34166      9.00000        -0.000127     -0.001321      0.528019
      0.00000      6.34166     11.11389         0.002529     -0.001128     -0.495103
      2.11389      4.22777     11.11389         0.000357      0.000357     -0.495128
      0.00000      8.45554      9.00000         0.002432     -0.001560      0.527714
      2.11389     10.56943      9.00000        -0.003036     -0.002757      0.528452
      0.00000     10.56943     11.11389         0.002365     -0.000677     -0.493963
      2.11389      8.45554     11.11389         0.001310     -0.001620     -0.493149
      0.00000     12.68331      9.00000         0.000000     -0.000000      0.528053
      2.11389     14.79720      9.00000        -0.007987      0.000249      0.527994
      0.00000     14.79720     11.11389        -0.002365      0.000677     -0.493963
      2.11389     12.68331     11.11389        -0.004287     -0.002382     -0.492680
      0.00000     16.91108      9.00000        -0.002432      0.001560      0.527714
      2.11389     19.02497      9.00000        -0.003988      0.002816      0.527139
      0.00000     19.02497     11.11389        -0.002529      0.001128     -0.495103
      2.11389     16.91108     11.11389        -0.006974      0.001489     -0.494522
      4.22777      0.00000      9.00000        -0.002816      0.003988      0.527139
      6.34166      2.11389      9.00000        -0.001560      0.002432      0.527714
      4.22777      2.11389     11.11389        -0.001128      0.002529     -0.495103
      6.34166      0.00000     11.11389        -0.001489      0.006974     -0.494522
      4.22777      4.22777      9.00000        -0.001321     -0.000127      0.528019
      6.34166      6.34166      9.00000        -0.004418     -0.004978      0.530036
      4.22777      6.34166     11.11389        -0.000129     -0.000129     -0.492305
      6.34166      4.22777     11.11389        -0.001620      0.001310     -0.493149
      4.22777      8.45554      9.00000        -0.004978     -0.004418      0.530036
      6.34166     10.56943      9.00000        -0.024583     -0.014568      0.534280
      4.22777     10.56943     11.11389        -0.001477     -0.005786     -0.486006
      6.34166      8.45554     11.11389        -0.001793     -0.001793     -0.477519
      4.22777     12.68331      9.00000        -0.015729     -0.005190      0.529329
      6.34166     14.79720      9.00000        -0.015568      0.005981      0.511422
      4.22777     14.79720     11.11389        -0.023989     -0.002406     -0.490501
      6.34166     12.68331     11.11389        -0.061164     -0.023861     -0.470260
      4.22777     16.91108      9.00000        -0.010320      0.005795      0.526052
      6.34166     19.02497      9.00000        -0.005795      0.010320      0.526052
      4.22777     19.02497     11.11389        -0.005886      0.005886     -0.494868
      6.34166     16.91108     11.11389        -0.017408      0.017408     -0.492178
      8.45554      0.00000      9.00000        -0.000249      0.007987      0.527994
     10.56943      2.11389      9.00000         0.000000     -0.000000      0.528053
      8.45554      2.11389     11.11389        -0.000677      0.002365     -0.493963
     10.56943      0.00000     11.11389         0.002382      0.004287     -0.492680
      8.45554      4.22777      9.00000        -0.002757     -0.003036      0.528452
     10.56943      6.34166      9.00000        -0.005190     -0.015729      0.529329
      8.45554      6.34166     11.11389        -0.005786     -0.001477     -0.486006
     10.56943      4.22777     11.11389        -0.002382     -0.004287     -0.492680
      8.45554      8.45554      9.00000        -0.014568     -0.024583      0.534280
     10.56943     10.56943      9.00000         0.010554     -0.020337      0.458835
      8.45554     10.56943     11.11389        -0.040104     -0.040104     -0.344868
     10.56943      8.45554     11.11389        -0.023861     -0.061164     -0.470260
      8.45554     12.68331      9.00000        -0.020337      0.010554      0.458835
     10.56943     14.79720      9.00000        -0.010554      0.020337      0.458835
      8.45554     14.79720     11.11389        -0.074607      0.074607     -0.608726
     10.56943     12.68331     11.11389         0.000000     -0.000000     -0.210649
      8.45554     16.91108      9.00000        -0.005981      0.015568      0.511422
     10.56943     19.02497      9.00000         0.005190      0.015729      0.529329
[...]
     19.02497      6.34166     11.11389        -0.004497      0.003325      0.340615
     16.91108      6.34166      9.00000        -0.006256      0.006256     -0.371065
     19.02497      4.22777      9.00000        -0.002342      0.002342     -0.371748
     16.91108      8.45554     11.11389        -0.013340      0.008339      0.340438
     19.02497     10.56943     11.11389        -0.006838     -0.000273      0.338908
     16.91108     10.56943      9.00000        -0.017171      0.001563     -0.367443
     19.02497      8.45554      9.00000        -0.006282      0.003006     -0.371581
     16.91108     12.68331     11.11389        -0.013833     -0.009741      0.333926
     19.02497     14.79720     11.11389        -0.001923     -0.003350      0.337617
     16.91108     14.79720      9.00000        -0.008487     -0.007308     -0.374706
     19.02497     12.68331      9.00000        -0.005515     -0.002343     -0.372476
     16.91108     16.91108     11.11389        -0.002514     -0.003686      0.334375
     19.02497     19.02497     11.11389         0.000522     -0.000911      0.339552
     16.91108     19.02497      9.00000        -0.002523     -0.002523     -0.373280
     19.02497     16.91108      9.00000        -0.000950     -0.002684     -0.372840
    total drift:                               -0.000015     -0.109694      2.684668

  FREE ENERGIE OF THE ION-ELECTRON SYSTEM (eV)
  free  energy   TOTEN  =     -1601.98885404 eV

  energy  without entropy=    -1601.98885404  energy(sigma->0) =    -1601.98885404