 vasp.6.3.0 20Jan22 (build Apr  1 2022 16:44:48) complex
 executed on        HPECrayEX_GCC date 2022.11.18  08:07:10

 INCAR:
   SYSTEM = MgO-rocksalt
   ISMEAR = 0
   SIGMA = 0.05
   EDIFF = 1E-6
   ALGO = ALL
   ISTART = 0
   IBRION = -1
   NSW = 0
   ISYM = 2
   DIPOL = 0.5 0.5 0.5
   IDIPOL = 3
   LDIPOL = .TRUE.
   GGA = PE
   IVDW = 1
   VDW_C6 = 10.8 0.63 0.70
   VDW_R0 = 1.562 1.243 1.342
   ENCUT = 520
   PREC = Accurate
   LASPH = .TRUE.
   LREAL = Auto
   ISPIN = 1
   NELM = 200
   NELMIN = 8
   NCORE = 4
   KPAR = 2
   LWAVE = .FALSE.
   LCHARG = .FALSE.

 POTCAR:    PAW_PBE Cu 22Jun2005
 POTCAR:    PAW_PBE Mg_pv 13Apr2007
 POTCAR:    PAW_PBE O 08Apr2002
 POTCAR:    PAW_PBE Cu 22Jun2005
   VRHFIN =Cu: d10 p1

   TITEL  = PAW_PBE Cu 22Jun2005
   POMASS =   63.546; ZVAL   =   11.000    mass and valenz
   ENMAX  =  295.446; ENMIN  =  221.585 eV

   TITEL  = PAW_PBE Mg_pv 13Apr2007
   POMASS =   24.305; ZVAL   =    8.000    mass and valenz
   ENMAX  =  403.929; ENMIN  =  302.947 eV

   TITEL  = PAW_PBE O 08Apr2002
   POMASS =   16.000; ZVAL   =    6.000    mass and valenz
   ENMAX  =  400.000; ENMIN  =  300.000 eV

 Optimization of the real space projectors (new method)

 maximal supplied QI-value         = 16.25
 optimisation between [QCUT,QGAM] = [ 11.54, 23.24] = [ 37.28,151.24] Ry
 Optimized for a Real-space Cutoff    1.53 Angstroem

   l    n(q)    QCUT    max X(q) W(low)/X(q) W(high)/X(q)  e(spline)
   2     10    11.539     4.610    0.96E-04    0.13E-03    0.19E-06
   2     10    11.539     8.522    0.16E-03    0.21E-03    0.28E-06
   0     11    11.539    51.609    0.45E-04    0.31E-04    0.11E-06
   0     11    11.539    27.747    0.39E-04    0.29E-04    0.10E-06
   1     10    11.539    20.408    0.70E-05    0.38E-04    0.18E-06
   1     10    11.539    13.425    0.66E-05    0.34E-04    0.17E-06
 Optimization of the real space projectors (new method)

[...]

   l    n(q)    QCUT    max X(q) W(low)/X(q) W(high)/X(q)  e(spline)
   1      8    11.527     2.974    0.44E-04    0.56E-04    0.12E-06
   1      8    11.527     4.279    0.12E-03    0.12E-03    0.26E-06
   0      9    11.527    16.381    0.46E-04    0.64E-04    0.78E-07
   0      9    11.527     5.611    0.26E-04    0.43E-04    0.55E-07
   2      8    11.527     4.652    0.22E-03    0.72E-04    0.47E-07
 Optimization of the real space projectors (new method)

 maximal supplied QI-value         = 24.76
 optimisation between [QCUT,QGAM] = [ 11.64, 23.27] = [ 37.91,151.63] Ry
 Optimized for a Real-space Cutoff    1.14 Angstroem

   l    n(q)    QCUT    max X(q) W(low)/X(q) W(high)/X(q)  e(spline)
   0      8    11.635    20.381    0.10E-03    0.33E-03    0.24E-06
   0      8    11.635    15.268    0.11E-03    0.35E-03    0.26E-06
   1      7    11.635     5.964    0.24E-03    0.31E-03    0.30E-06
   1      7    11.635     5.382    0.22E-03    0.25E-03    0.26E-06
  PAW_PBE Cu 22Jun2005                  :
  PAW_PBE Mg_pv 13Apr2007               :
  PAW_PBE O 08Apr2002                   :

 POSCAR: Cu Mg  O
  positions in direct lattice
 exchange correlation table for  LEXCH =        8
   RHO(1)=    0.500       N(1)  =     2000
   RHO(2)=  100.500       N(2)  =     4000

 ion  position               nearest neighbor table
   1  0.450  0.450  0.699-   2 2.23
   2  0.450  0.450  0.598-   1 2.23  53 2.59  54 2.59
   3  0.000  0.000  0.407- 105 2.11 106 2.11 121 2.11 186 2.11 103 2.11
   4  0.100  0.100  0.407- 105 2.11 106 2.11 110 2.11 125 2.11 104 2.11
   5  0.000  0.100  0.503- 103 2.11 104 2.11 107 2.11 184 2.11 105 2.11
   6  0.100  0.000  0.503- 103 2.11 104 2.11 120 2.11 123 2.11 106 2.11
   7  0.000  0.200  0.407- 109 2.11 105 2.11 110 2.11 190 2.11 107 2.11
   8  0.100  0.300  0.407- 110 2.11 109 2.11 114 2.11 129 2.11 108 2.11
   9  0.000  0.300  0.503- 107 2.11 108 2.11 111 2.11 188 2.11 109 2.11
  10  0.100  0.200  0.503- 108 2.11 107 2.11 104 2.11 127 2.11 110 2.11
  11  0.000  0.400  0.407- 109 2.11 113 2.11 114 2.11 194 2.11 111 2.11
  12  0.100  0.500  0.407- 113 2.11 114 2.11 118 2.11 133 2.11 112 2.11
  13  0.000  0.500  0.503- 111 2.11 112 2.11 115 2.11 192 2.11 113 2.11
  14  0.100  0.400  0.503- 108 2.11 111 2.11 112 2.11 131 2.11 114 2.11
  15  0.000  0.600  0.407- 113 2.11 117 2.11 118 2.11 198 2.11 115 2.11
  16  0.100  0.700  0.407- 122 2.11 118 2.11 117 2.11 137 2.11 116 2.11
  17  0.000  0.700  0.503- 119 2.11 116 2.11 115 2.11 196 2.11 117 2.11
  18  0.100  0.600  0.503- 112 2.11 115 2.11 116 2.11 135 2.11 118 2.11
  19  0.000  0.800  0.407- 117 2.11 121 2.11 122 2.11 202 2.11 119 2.11
  20  0.100  0.900  0.407- 106 2.11 121 2.11 122 2.11 141 2.11 120 2.11
  21  0.000  0.900  0.503- 103 2.11 119 2.11 120 2.11 200 2.11 121 2.11
  22  0.100  0.800  0.503- 116 2.11 119 2.11 120 2.11 139 2.11 122 2.11
  23  0.200  0.000  0.407- 126 2.11 125 2.11 106 2.11 141 2.11 123 2.11
  24  0.300  0.100  0.407- 125 2.11 126 2.11 130 2.11 145 2.11 124 2.11
  25  0.200  0.100  0.503- 124 2.11 123 2.11 104 2.11 127 2.11 125 2.11
  26  0.300  0.000  0.503- 123 2.11 124 2.11 140 2.11 143 2.11 126 2.11
  27  0.200  0.200  0.407- 129 2.11 130 2.11 110 2.11 125 2.11 127 2.11
  28  0.300  0.300  0.407- 129 2.11 130 2.11 134 2.11 149 2.11 128 2.11
  29  0.200  0.300  0.503- 127 2.11 128 2.11 108 2.11 131 2.11 129 2.11
  30  0.300  0.200  0.503- 127 2.11 128 2.11 124 2.11 147 2.11 130 2.11
  31  0.200  0.400  0.407- 134 2.11 129 2.11 133 2.11 114 2.11 131 2.11
  32  0.300  0.500  0.407- 133 2.11 134 2.11 138 2.11 153 2.11 132 2.11
  33  0.200  0.500  0.503- 132 2.11 131 2.11 112 2.11 135 2.11 133 2.11
  34  0.300  0.400  0.503- 131 2.11 128 2.11 132 2.11 151 2.11 134 2.11
  35  0.200  0.600  0.407- 138 2.11 133 2.11 137 2.11 118 2.11 135 2.11
  36  0.300  0.700  0.407- 137 2.11 142 2.11 138 2.11 157 2.11 136 2.11
  37  0.200  0.700  0.503- 136 2.11 139 2.11 116 2.11 135 2.11 137 2.11
  38  0.300  0.600  0.503- 135 2.11 132 2.11 136 2.11 155 2.11 138 2.11
  39  0.200  0.800  0.407- 137 2.11 142 2.11 141 2.11 122 2.11 139 2.11
  40  0.300  0.900  0.407- 141 2.11 126 2.11 142 2.11 161 2.11 140 2.11
  41  0.200  0.900  0.503- 140 2.11 123 2.11 139 2.11 120 2.11 141 2.11
  42  0.300  0.800  0.503- 136 2.11 139 2.11 140 2.11 159 2.11 142 2.11
  43  0.400  0.000  0.407- 126 2.11 145 2.11 146 2.11 161 2.11 143 2.11
  44  0.500  0.100  0.407- 145 2.11 146 2.11 150 2.11 165 2.11 144 2.11
  45  0.400  0.100  0.503- 124 2.11 143 2.11 144 2.11 147 2.11 145 2.11
  46  0.500  0.000  0.503- 143 2.11 144 2.11 160 2.11 163 2.11 146 2.11
  47  0.400  0.200  0.407- 149 2.11 145 2.11 130 2.11 150 2.11 147 2.11
  48  0.500  0.300  0.407- 150 2.11 149 2.11 154 2.11 169 2.11 148 2.11
  49  0.400  0.300  0.503- 147 2.11 128 2.11 148 2.11 151 2.11 149 2.11
  50  0.500  0.200  0.503- 148 2.11 147 2.11 144 2.11 167 2.11 150 2.11
  51  0.400  0.400  0.407- 134 2.11 149 2.11 153 2.11 154 2.11 151 2.11
  52  0.500  0.500  0.407- 153 2.11 154 2.11 158 2.11 173 2.11 152 2.11
  53  0.400  0.500  0.503- 132 2.11 151 2.11 152 2.11 155 2.11 153 2.11   2 2.59
  54  0.500  0.400  0.503- 148 2.11 151 2.11 152 2.11 171 2.11 154 2.11   2 2.59
  55  0.400  0.600  0.407- 138 2.11 153 2.11 157 2.11 158 2.11 155 2.11
  56  0.500  0.700  0.407- 162 2.11 158 2.11 157 2.11 177 2.11 156 2.11
  57  0.400  0.700  0.503- 159 2.11 155 2.11 156 2.11 136 2.11 157 2.11
  58  0.500  0.600  0.503- 152 2.11 155 2.11 156 2.11 175 2.11 158 2.11
  59  0.400  0.800  0.407- 157 2.11 142 2.11 161 2.11 162 2.11 159 2.11
  60  0.500  0.900  0.407- 146 2.11 161 2.11 162 2.11 181 2.11 160 2.11
[...]
 188  0.900  0.300  0.503-  90 2.11  89 2.11   9 2.11  94 2.11  88 2.11
 189  0.800  0.300  0.407-  68 2.11  87 2.11  88 2.11  91 2.11  89 2.11
 190  0.900  0.200  0.407-  88 2.11  84 2.11  87 2.11   7 2.11  90 2.11
 191  0.800  0.400  0.503-  74 2.11  89 2.11  93 2.11  94 2.11  91 2.11
 192  0.900  0.500  0.503-  13 2.11  93 2.11  94 2.11  98 2.11  92 2.11
 193  0.800  0.500  0.407-  72 2.11  91 2.11  92 2.11  95 2.11  93 2.11
 194  0.900  0.400  0.407-  11 2.11  88 2.11  91 2.11  92 2.11  94 2.11
 195  0.800  0.600  0.503-  78 2.11  93 2.11  97 2.11  98 2.11  95 2.11
 196  0.900  0.700  0.503- 102 2.11  97 2.11  98 2.11  17 2.11  96 2.11
 197  0.800  0.700  0.407-  76 2.11  99 2.11  96 2.11  95 2.11  97 2.11
 198  0.900  0.600  0.407-  15 2.11  92 2.11  95 2.11  96 2.11  98 2.11
 199  0.800  0.800  0.503-  82 2.11  97 2.11 101 2.11 102 2.11  99 2.11
 200  0.900  0.900  0.503-  21 2.11  86 2.11 101 2.11 102 2.11 100 2.11
 201  0.800  0.900  0.407-  80 2.11  83 2.11  99 2.11 100 2.11 101 2.11
 202  0.900  0.800  0.407-  96 2.11  19 2.11  99 2.11 100 2.11 102 2.11

  LATTYP: Found a simple tetragonal cell.
 ALAT       =    21.1388521970
 C/A-ratio  =     1.0461251639

  Lattice vectors:

 A1 = (  21.1388521970,   0.0000000000,   0.0000000000)
 A2 = (   0.0000000000,  21.1388521970,   0.0000000000)
 A3 = (   0.0000000000,   0.0000000000,  22.1138852197)

Analysis of symmetry for initial positions (statically):
 Subroutine PRICEL returns:
 Original cell was already a primitive cell.

 Routine SETGRP: Setting up the symmetry group for a
 simple tetragonal supercell.

 Subroutine GETGRP returns: Found  4 space group operations
 (whereof  2 operations were pure point group operations)
 out of a pool of 16 trial point group operations.

The static configuration has the point symmetry C_1h.
 The point group associated with its full space group is C_2v.

Analysis of symmetry for dynamics (positions and initial velocities):
 Subroutine PRICEL returns:
 Original cell was already a primitive cell.

 Routine SETGRP: Setting up the symmetry group for a
 simple tetragonal supercell.

 Subroutine GETGRP returns: Found  4 space group operations
 (whereof  2 operations were pure point group operations)
 out of a pool of 16 trial point group operations.

The dynamic configuration has the point symmetry C_1h.
 The point group associated with its full space group is C_2v.

 Subroutine INISYM returns: Found  4 space group operations
 (whereof  2 operations are pure point group operations),
 and found     1 'primitive' translations

                                     Primitive cell

  volume of cell :    9881.6133

  direct lattice vectors                    reciprocal lattice vectors
    21.138852197  0.000000000  0.000000000     0.047306258  0.000000000  0.000000000
     0.000000000 21.138852197  0.000000000     0.000000000  0.047306258  0.000000000
     0.000000000  0.000000000 22.113885220     0.000000000  0.000000000  0.045220457

  length of vectors
    21.138852197 21.138852197 22.113885220     0.047306258  0.047306258  0.045220457

  position of ions in fractional coordinates (direct lattice)
     0.449999988  0.450000018  0.698691433
     0.449999988  0.450000018  0.597977010
     0.000000000  0.000000000  0.406984115
     0.100000000  0.100000000  0.406984115
     0.000000000  0.100000000  0.502574971
     0.100000000  0.000000000  0.502574971
     0.000000000  0.200000000  0.406984115
     0.100000000  0.300000000  0.406984115
     0.000000000  0.300000000  0.502574971
     0.100000000  0.200000000  0.502574971
     0.000000000  0.400000000  0.406984115
     0.100000000  0.500000000  0.406984115
[...]
   1017       7.7934      0.00000
   1018       7.8237      0.00000
   1019       7.8737      0.00000
   1020       7.9076      0.00000
   1021       7.9188      0.00000
   1022       7.9594      0.00000
   1023       7.9816      0.00000
   1024       8.0242      0.00000

 soft charge-density along one line, spin component           1
         0         1         2         3         4         5         6         7         8         9
 total charge-density along one line

------------------------ aborting loop because EDIFF is reached ----------------------------------------

  DFT-D2 method for vdW energy calculation

  Parameters of vdW forcefield:
         C6(Jnm^6/mol)     R0(A)
   Cu      10.800          1.562
   Mg       0.630          1.243
   O        0.700          1.342

  vdW correction parametrized for the method pbe

  IVDW =   1
  VDW_RADIUS =    50.000 A
  VDW_S6 =     0.750
  VDW_SR =     1.000
  VDW_D =    20.000
  LVDW_EWALD = F

  Number of pair interactions contributing to vdW energy: 1097009
  Edisp (eV):   -8.67030

  FORCE on cell =-STRESS in cart. coord.  units (eV):
  Direction    XX          YY          ZZ          XY          YZ          ZX
  Alpha Z  1354.41543  1354.41543  1354.41543
  Ewald  477360.44773477360.44773************   -13.54576    -0.00002     0.00002
  Hartree506205.56471506205.56467************    -3.71079    -0.00001     0.00001
  E(xc)   -7777.75110 -7777.75110 -7808.83088     0.02091     0.00000    -0.00000
  Local  ************************************    15.78136     0.00002    -0.00002
  n-local -8808.50807 -8808.50807 -8931.66458    -0.72518     0.00000    -0.00000
  augment  3471.15449  3471.15448  3408.81887     0.98796     0.00000     0.00000
  Kinetic 22860.50047 22860.50048 23111.35361    -0.21158     0.00000    -0.00001
  Fock        0.00000     0.00000     0.00000     0.00000     0.00000     0.00000
  vdW       -12.77049   -12.77049    -7.27243    -0.01119     0.00000    -0.00000
  Total    -162.62098  -162.62098    10.92207    -1.41427     0.00000     0.00000
  in kB     -26.36691   -26.36691     1.77087    -0.22931     0.00000     0.00000

 VOLUME and BASIS-vectors are now :
  energy-cutoff  :      520.00
  volume of cell :     9881.61
      direct lattice vectors                 reciprocal lattice vectors
    21.138852197  0.000000000  0.000000000     0.047306258  0.000000000  0.000000000
     0.000000000 21.138852197  0.000000000     0.000000000  0.047306258  0.000000000
     0.000000000  0.000000000 22.113885220     0.000000000  0.000000000  0.045220457

  length of vectors
    21.138852197 21.138852197 22.113885220     0.047306258  0.047306258  0.045220457

 FORCES acting on ions:
    Electron-Ion                     Ewald-Force                    Non-Local-Force
   0.227E-04 -.996E-04 -.196E+04   0.441E-07 -.340E-07 0.195E+04   0.000E+00 -.529E-22 0.129E+02
   0.158E-04 -.911E-04 -.185E+04   0.798E-05 -.860E-05 0.186E+04   0.000E+00 0.529E-22 -.106E+02
   0.175E+01 0.175E+01 0.931E+03   -.176E+01 -.176E+01 -.923E+03   0.428E-02 0.428E-02 -.742E+01
   0.621E+01 0.621E+01 0.933E+03   -.623E+01 -.623E+01 -.925E+03   0.172E-01 0.172E-01 -.742E+01
   0.286E+01 0.585E+01 -.922E+03   -.287E+01 -.585E+01 0.914E+03   0.949E-02 0.510E-02 0.738E+01
   0.585E+01 0.286E+01 -.922E+03   -.585E+01 -.287E+01 0.914E+03   0.510E-02 0.949E-02 0.738E+01
   0.317E+01 0.617E+01 0.933E+03   -.320E+01 -.618E+01 -.925E+03   0.174E-01 0.807E-02 -.742E+01
   0.129E+02 0.759E+01 0.938E+03   -.129E+02 -.760E+01 -.930E+03   0.623E-01 0.925E-02 -.743E+01
   0.604E+01 0.673E+01 -.919E+03   -.606E+01 -.673E+01 0.912E+03   0.169E-01 0.193E-02 0.737E+01
   0.126E+02 0.113E+02 -.919E+03   -.127E+02 -.113E+02 0.911E+03   0.329E-01 0.931E-02 0.737E+01
   0.513E+01 0.209E+01 0.936E+03   -.516E+01 -.209E+01 -.928E+03   0.204E-01 -.241E-03 -.742E+01
   0.158E+02 -.310E+01 0.940E+03   -.158E+02 0.312E+01 -.932E+03   0.544E-01 -.150E-01 -.743E+01
   0.738E+01 -.269E+01 -.918E+03   -.739E+01 0.270E+01 0.911E+03   0.317E-02 -.392E-02 0.737E+01
   0.242E+02 0.449E+01 -.913E+03   -.242E+02 -.448E+01 0.906E+03   0.411E-01 -.841E-02 0.736E+01
   0.433E+01 -.527E+01 0.934E+03   -.434E+01 0.528E+01 -.927E+03   0.308E-02 -.747E-02 -.742E+01
   0.915E+01 -.845E+01 0.935E+03   -.916E+01 0.847E+01 -.927E+03   0.126E-01 -.133E-01 -.742E+01
   0.429E+01 -.774E+01 -.921E+03   -.428E+01 0.774E+01 0.913E+03   -.526E-02 -.379E-02 0.738E+01
   0.190E+02 -.106E+02 -.916E+03   -.190E+02 0.106E+02 0.908E+03   0.544E-02 -.964E-02 0.737E+01
   0.226E+01 -.474E+01 0.931E+03   -.226E+01 0.475E+01 -.924E+03   -.182E-02 -.463E-02 -.742E+01
   0.474E+01 -.226E+01 0.931E+03   -.475E+01 0.226E+01 -.924E+03   0.463E-02 0.182E-02 -.742E+01
   0.215E+01 -.215E+01 -.923E+03   -.215E+01 0.215E+01 0.915E+03   -.666E-03 0.666E-03 0.738E+01
   0.808E+01 -.808E+01 -.921E+03   -.808E+01 0.808E+01 0.913E+03   0.826E-03 -.826E-03 0.738E+01
   0.617E+01 0.317E+01 0.933E+03   -.618E+01 -.320E+01 -.925E+03   0.807E-02 0.174E-01 -.742E+01
   0.759E+01 0.129E+02 0.938E+03   -.760E+01 -.129E+02 -.930E+03   0.925E-02 0.623E-01 -.743E+01
   0.113E+02 0.126E+02 -.919E+03   -.113E+02 -.127E+02 0.911E+03   0.931E-02 0.329E-01 0.737E+01
   0.673E+01 0.604E+01 -.919E+03   -.673E+01 -.606E+01 0.912E+03   0.193E-02 0.169E-01 0.737E+01
   0.133E+02 0.133E+02 0.940E+03   -.134E+02 -.134E+02 -.932E+03   0.506E-01 0.506E-01 -.742E+01
   0.226E+02 0.226E+02 0.961E+03   -.228E+02 -.228E+02 -.953E+03   0.149E+00 0.149E+00 -.742E+01
   0.338E+02 0.214E+02 -.906E+03   -.340E+02 -.214E+02 0.898E+03   0.137E+00 -.101E-02 0.736E+01
   0.214E+02 0.338E+02 -.906E+03   -.214E+02 -.340E+02 0.898E+03   -.101E-02 0.137E+00 0.736E+01
   0.265E+02 0.578E+01 0.952E+03   -.268E+02 -.577E+01 -.944E+03   0.221E+00 -.758E-02 -.749E+01
   0.330E+02 -.111E+02 0.976E+03   -.333E+02 0.113E+02 -.969E+03   0.230E+00 -.145E+00 -.753E+01
   0.483E+02 -.101E+02 -.898E+03   -.484E+02 0.102E+02 0.890E+03   0.576E-01 -.300E-01 0.733E+01
   0.848E+02 0.290E+02 -.852E+03   -.861E+02 -.289E+02 0.845E+03   0.981E+00 -.109E+00 0.728E+01
   0.204E+02 -.131E+02 0.946E+03   -.205E+02 0.131E+02 -.939E+03   0.623E-01 -.477E-01 -.745E+01
   0.131E+02 -.204E+02 0.946E+03   -.131E+02 0.205E+02 -.939E+03   0.477E-01 -.623E-01 -.745E+01
   0.198E+02 -.198E+02 -.914E+03   -.198E+02 0.198E+02 0.906E+03   0.831E-02 -.831E-02 0.736E+01
   0.463E+02 -.463E+02 -.884E+03   -.464E+02 0.464E+02 0.877E+03   0.570E-01 -.570E-01 0.730E+01
   0.845E+01 -.915E+01 0.935E+03   -.847E+01 0.916E+01 -.927E+03   0.133E-01 -.126E-01 -.742E+01
   0.527E+01 -.433E+01 0.934E+03   -.528E+01 0.434E+01 -.927E+03   0.747E-02 -.308E-02 -.742E+01
   0.774E+01 -.429E+01 -.921E+03   -.774E+01 0.428E+01 0.913E+03   0.379E-02 0.526E-02 0.738E+01
   0.106E+02 -.190E+02 -.916E+03   -.106E+02 0.190E+02 0.908E+03   0.964E-02 -.544E-02 0.737E+01
   0.209E+01 0.513E+01 0.936E+03   -.209E+01 -.516E+01 -.928E+03   -.241E-03 0.204E-01 -.742E+01
   -.310E+01 0.158E+02 0.940E+03   0.312E+01 -.158E+02 -.932E+03   -.150E-01 0.544E-01 -.743E+01
   0.449E+01 0.242E+02 -.913E+03   -.448E+01 -.242E+02 0.906E+03   -.841E-02 0.411E-01 0.736E+01
   -.269E+01 0.738E+01 -.918E+03   0.270E+01 -.739E+01 0.911E+03   -.392E-02 0.317E-02 0.737E+01
   0.578E+01 0.265E+02 0.952E+03   -.577E+01 -.268E+02 -.944E+03   -.758E-02 0.221E+00 -.749E+01
   -.111E+02 0.330E+02 0.976E+03   0.113E+02 -.333E+02 -.969E+03   -.145E+00 0.230E+00 -.753E+01
   0.290E+02 0.848E+02 -.852E+03   -.289E+02 -.861E+02 0.845E+03   -.109E+00 0.981E+00 0.728E+01
   -.101E+02 0.483E+02 -.898E+03   0.102E+02 -.484E+02 0.890E+03   -.300E-01 0.576E-01 0.733E+01
   0.186E+02 0.186E+02 0.101E+04   -.186E+02 -.186E+02 -.100E+04   0.280E-02 0.280E-02 -.642E+01
   -.186E+02 -.186E+02 0.101E+04   0.186E+02 0.186E+02 -.100E+04   -.280E-02 -.280E-02 -.642E+01
   0.888E+02 -.888E+02 -.717E+03   -.903E+02 0.903E+02 0.710E+03   0.822E+00 -.822E+00 0.594E+01
   -.888E+02 0.888E+02 -.717E+03   0.903E+02 -.903E+02 0.710E+03   -.822E+00 0.822E+00 0.594E+01
   0.111E+02 -.330E+02 0.976E+03   -.113E+02 0.333E+02 -.969E+03   0.145E+00 -.230E+00 -.753E+01
   -.578E+01 -.265E+02 0.952E+03   0.577E+01 0.268E+02 -.944E+03   0.758E-02 -.221E+00 -.749E+01
   0.101E+02 -.483E+02 -.898E+03   -.102E+02 0.484E+02 0.890E+03   0.300E-01 -.576E-01 0.733E+01
   -.290E+02 -.848E+02 -.852E+03   0.289E+02 0.861E+02 0.845E+03   0.109E+00 -.981E+00 0.728E+01
   0.310E+01 -.158E+02 0.940E+03   -.312E+01 0.158E+02 -.932E+03   0.150E-01 -.544E-01 -.743E+01
   -.209E+01 -.513E+01 0.936E+03   0.209E+01 0.516E+01 -.928E+03   0.241E-03 -.204E-01 -.742E+01
[...]
   -.968E+01 0.569E+01 0.705E+03   0.970E+01 -.570E+01 -.709E+03   -.249E-01 0.227E-01 0.351E+01
   -.240E+01 0.463E+01 0.701E+03   0.240E+01 -.464E+01 -.705E+03   0.745E-03 0.907E-02 0.352E+01
   -.182E+02 0.335E+01 -.687E+03   0.182E+02 -.336E+01 0.691E+03   -.251E-01 0.182E-01 -.362E+01
   -.553E+01 -.202E+01 -.690E+03   0.554E+01 0.202E+01 0.694E+03   -.118E-01 0.189E-02 -.360E+01
   -.118E+02 -.234E+01 0.707E+03   0.119E+02 0.234E+01 -.711E+03   -.534E-01 0.524E-02 0.351E+01
   -.386E+01 0.156E+01 0.703E+03   0.387E+01 -.157E+01 -.707E+03   -.907E-02 0.673E-02 0.352E+01
   -.143E+02 -.795E+01 -.688E+03   0.143E+02 0.796E+01 0.692E+03   -.400E-01 -.523E-02 -.361E+01
   -.320E+01 -.580E+01 -.692E+03   0.321E+01 0.581E+01 0.696E+03   -.136E-01 -.714E-02 -.359E+01
   -.685E+01 -.633E+01 0.703E+03   0.687E+01 0.635E+01 -.707E+03   -.365E-01 -.243E-01 0.352E+01
   -.324E+01 -.396E+01 0.703E+03   0.325E+01 0.396E+01 -.707E+03   -.180E-01 -.707E-02 0.352E+01
   -.604E+01 -.604E+01 -.692E+03   0.606E+01 0.606E+01 0.696E+03   -.182E-01 -.182E-01 -.359E+01
   -.161E+01 -.161E+01 -.694E+03   0.161E+01 0.161E+01 0.698E+03   -.431E-02 -.431E-02 -.358E+01
   -.355E+01 -.168E+01 0.700E+03   0.356E+01 0.169E+01 -.704E+03   -.956E-02 -.103E-01 0.353E+01
   -.168E+01 -.355E+01 0.700E+03   0.169E+01 0.356E+01 -.704E+03   -.103E-01 -.956E-02 0.353E+01
   -.301E-01 0.151E-01 0.391E+01   0.298E-12 0.127E-11 0.114E-10   -.857E-15 -.968E-15 -.449E+01

 POSITION                                       TOTAL-FORCE (eV/Angst)
      9.51248      9.51248     15.45078         0.000000      0.000000      0.067982
      9.51248      9.51248     13.22359         0.000000      0.000000      0.061883
      0.00000      0.00000      9.00000        -0.001179     -0.001179      0.366506
      2.11389      2.11389      9.00000        -0.004776     -0.004776      0.366783
      0.00000      2.11389     11.11389        -0.002504     -0.001406     -0.355695
      2.11389      0.00000     11.11389        -0.001406     -0.002504     -0.355695
      0.00000      4.22777      9.00000        -0.004586     -0.002269      0.367269
      2.11389      6.34166      9.00000        -0.016309     -0.002705      0.369461
      0.00000      6.34166     11.11389        -0.004234     -0.000510     -0.353464
      2.11389      4.22777     11.11389        -0.008346     -0.002642     -0.352557
      0.00000      8.45554      9.00000        -0.005298      0.000093      0.368348
      2.11389     10.56943      9.00000        -0.014398      0.004384      0.370978
      0.00000     10.56943     11.11389        -0.000561      0.001105     -0.352598
      2.11389      8.45554     11.11389        -0.008895      0.002578     -0.347171
      0.00000     12.68331      9.00000        -0.000837      0.002072      0.367976
      2.11389     14.79720      9.00000        -0.003334      0.003543      0.368502
      0.00000     14.79720     11.11389         0.001462      0.000987     -0.354631
      2.11389     12.68331     11.11389        -0.000609      0.002490     -0.349325
      0.00000     16.91108      9.00000         0.000486      0.001274      0.366901
      2.11389     19.02497      9.00000        -0.001274     -0.000486      0.366901
      0.00000     19.02497     11.11389         0.000175     -0.000175     -0.356297
      2.11389     16.91108     11.11389        -0.000116      0.000116     -0.354662
      4.22777      0.00000      9.00000        -0.002269     -0.004586      0.367269
      6.34166      2.11389      9.00000        -0.002705     -0.016309      0.369461
      4.22777      2.11389     11.11389        -0.002642     -0.008346     -0.352557
      6.34166      0.00000     11.11389        -0.000510     -0.004234     -0.353464
      4.22777      4.22777      9.00000        -0.014374     -0.014374      0.367083
      6.34166      6.34166      9.00000        -0.049803     -0.049803      0.357029
      4.22777      6.34166     11.11389        -0.032757      0.000187     -0.339040
      6.34166      4.22777     11.11389         0.000187     -0.032757     -0.339040
      4.22777      8.45554      9.00000        -0.054611      0.002524      0.381422
      6.34166     10.56943      9.00000        -0.064536      0.047393      0.382189
      4.22777     10.56943     11.11389        -0.011434      0.008574     -0.325047
      6.34166      8.45554     11.11389        -0.264249      0.047171     -0.245377
      4.22777     12.68331      9.00000        -0.016696      0.012988      0.374593
      6.34166     14.79720      9.00000        -0.012988      0.016696      0.374593
      4.22777     14.79720     11.11389        -0.001314      0.001314     -0.346975
      6.34166     12.68331     11.11389        -0.002163      0.002163     -0.295120
      4.22777     16.91108      9.00000        -0.003543      0.003334      0.368502
      6.34166     19.02497      9.00000        -0.002072      0.000837      0.367976
      4.22777     19.02497     11.11389        -0.000987     -0.001462     -0.354631
      6.34166     16.91108     11.11389        -0.002490      0.000609     -0.349325
      8.45554      0.00000      9.00000         0.000093     -0.005298      0.368348
     10.56943      2.11389      9.00000         0.004384     -0.014398      0.370978
      8.45554      2.11389     11.11389         0.002578     -0.008895     -0.347171
     10.56943      0.00000     11.11389         0.001105     -0.000561     -0.352598
      8.45554      4.22777      9.00000         0.002524     -0.054611      0.381422
     10.56943      6.34166      9.00000         0.047393     -0.064536      0.382189
      8.45554      6.34166     11.11389         0.047171     -0.264249     -0.245377
     10.56943      4.22777     11.11389         0.008574     -0.011434     -0.325047
      8.45554      8.45554      9.00000         0.001646      0.001646      0.115803
     10.56943     10.56943      9.00000        -0.001646     -0.001646      0.115803
      8.45554     10.56943     11.11389        -0.622565      0.622565     -0.723819
     10.56943      8.45554     11.11389         0.622565     -0.622565     -0.723819
      8.45554     12.68331      9.00000        -0.047393      0.064536      0.382189
     10.56943     14.79720      9.00000        -0.002524      0.054611      0.381422
      8.45554     14.79720     11.11389        -0.008574      0.011434     -0.325047
     10.56943     12.68331     11.11389        -0.047171      0.264249     -0.245377
      8.45554     16.91108      9.00000        -0.004384      0.014398      0.370978
     10.56943     19.02497      9.00000        -0.000093      0.005298      0.368348
[...]
     19.02497      6.34166     11.11389         0.000162      0.001718      0.494114
     16.91108      6.34166      9.00000        -0.006876      0.006316     -0.511779
     19.02497      4.22777      9.00000         0.000215      0.002507     -0.508944
     16.91108      8.45554     11.11389        -0.007102      0.005051      0.486854
     19.02497     10.56943     11.11389        -0.003264      0.000517      0.493067
     16.91108     10.56943      9.00000        -0.014840      0.001389     -0.512402
     19.02497      8.45554      9.00000        -0.002509      0.001867     -0.510057
     16.91108     12.68331     11.11389        -0.011119     -0.001511      0.490031
     19.02497     14.79720     11.11389        -0.003757     -0.001972      0.495545
     16.91108     14.79720      9.00000        -0.010051     -0.006706     -0.509166
     19.02497     12.68331      9.00000        -0.004956     -0.001970     -0.509407
     16.91108     16.91108     11.11389        -0.004993     -0.004993      0.495773
     19.02497     19.02497     11.11389        -0.001184     -0.001184      0.497351
     16.91108     19.02497      9.00000        -0.002630     -0.002820     -0.508266
     19.02497     16.91108      9.00000        -0.002820     -0.002630     -0.508266
    total drift:                               -0.030143      0.015068     -0.579666

  FREE ENERGIE OF THE ION-ELECTRON SYSTEM (eV)
  free  energy   TOTEN  =     -1149.96815547 eV

  energy  without entropy=    -1149.96815547  energy(sigma->0) =    -1149.96815547