 vasp.6.4.0 14Feb23 (build Dec 05 2023 14:15:48) complex

 executed on             LinuxIFC date 2023.12.07  23:29:35

 INCAR:
   SYSTEM = MgO-rocksalt
   ISMEAR = 0
   SIGMA = 0.05
   EDIFF = 1E-4
   ALGO = ALL
   ISTART = 0
   IBRION = -1
   NSW = 0
   ISYM = 3
   DIPOL = 0.5 0.5 0.5
   IDIPOL = 3
   LDIPOL = .TRUE.
   LHFCALC = .TRUE.
   GGA = B5
   AEXX = 0.2
   AGGAX = 0.72
   AGGAC = 0.81
   ALDAC = 0.19
   IVDW = 13
   VDW_S8 = 2.0293
   VDW_A1 = 0.4087
   VDW_A2 = 4.5381
   ENCUT = 520
   PREC = Normal
   LASPH = .TRUE.
   LREAL = Auto
   ISPIN = 1
   NELM = 2000
   NELMIN = 8
   NCORE = 32
   LWAVE = .FALSE.
   LCHARG = .FALSE.

 POTCAR:    PAW_PBE Ag 02Apr2005
 POTCAR:    PAW_PBE Mg_pv 13Apr2007
 POTCAR:    PAW_PBE O 08Apr2002
 POTCAR:    PAW_PBE Ag 02Apr2005
   VRHFIN =Ag : s1 d10

   TITEL  = PAW_PBE Ag 02Apr2005
   POMASS =  107.868; ZVAL   =   11.000    mass and valenz
   ENMAX  =  249.844; ENMIN  =  187.383 eV

   TITEL  = PAW_PBE Mg_pv 13Apr2007
   POMASS =   24.305; ZVAL   =    8.000    mass and valenz
   ENMAX  =  403.929; ENMIN  =  302.947 eV

   TITEL  = PAW_PBE O 08Apr2002
   POMASS =   16.000; ZVAL   =    6.000    mass and valenz
   ENMAX  =  400.000; ENMIN  =  300.000 eV

 Optimization of the real space projectors (new method)

 maximal supplied QI-value         = 15.12
 optimisation between [QCUT,QGAM] = [ 11.64, 23.28] = [ 37.95,151.78] Ry
 Optimized for a Real-space Cutoff    1.40 Angstroem

   l    n(q)    QCUT    max X(q) W(low)/X(q) W(high)/X(q)  e(spline)
   2      9    11.641    53.897    0.27E-03    0.11E-03    0.28E-06
   2      9    11.641    52.416    0.27E-03    0.11E-03    0.29E-06
   0     10    11.641   122.045    0.70E-04    0.59E-04    0.17E-06
   0     10    11.641    73.629    0.67E-04    0.56E-04    0.16E-06
   1      9    11.641    15.255    0.49E-03    0.24E-03    0.17E-06
   1      9    11.641     9.562    0.40E-03    0.20E-03    0.14E-06
 Optimization of the real space projectors (new method)

[...]

   l    n(q)    QCUT    max X(q) W(low)/X(q) W(high)/X(q)  e(spline)
   1      8    11.527     2.974    0.16E-03    0.13E-03    0.98E-07
   1      8    11.527     4.279    0.42E-03    0.30E-03    0.22E-06
   0      8    11.527    16.381    0.13E-03    0.20E-03    0.72E-07
   0      8    11.527     5.611    0.88E-04    0.13E-03    0.50E-07
   2      7    11.527     4.652    0.25E-03    0.73E-04    0.51E-07
 Optimization of the real space projectors (new method)

 maximal supplied QI-value         = 24.76
 optimisation between [QCUT,QGAM] = [ 11.64, 23.27] = [ 37.91,151.63] Ry
 Optimized for a Real-space Cutoff    1.04 Angstroem

   l    n(q)    QCUT    max X(q) W(low)/X(q) W(high)/X(q)  e(spline)
   0      7    11.635    20.381    0.14E-03    0.49E-03    0.18E-06
   0      7    11.635    15.268    0.16E-03    0.52E-03    0.19E-06
   1      7    11.635     5.964    0.30E-03    0.44E-03    0.22E-06
   1      7    11.635     5.382    0.27E-03    0.34E-03    0.19E-06
|               ----> ADVICE to this user running VASP <----                  |
|     You enforced a specific xc type in the INCAR file but a different       |
|     type was found in the POTCAR file.                                      |
|     I HOPE YOU KNOW WHAT YOU ARE DOING!                                     |

  PAW_PBE Ag 02Apr2005                  :
  PAW_PBE Mg_pv 13Apr2007               :
  PAW_PBE O 08Apr2002                   :

 POSCAR: Ag Mg  O
  positions in direct lattice
  velocities in cartesian coordinates
 WARNING: Using user supplied parameters
     VDW_S8 = 2.029
     VDW_A1 = 0.409
     VDW_A2 = 4.538
     because the xc functional is not supported. Required parameters not
     defined in the INCAR file will be replaced with PBE defaults ones.

 ion  position               nearest neighbor table
   1  0.404  0.596  0.628-   2 2.63   4 2.74 157 2.77
   2  0.317  0.683  0.613- 138 2.50   1 2.63  59 3.04  40 3.04
   3  0.583  0.417  0.613- 173 2.50   4 2.63  75 3.04  56 3.04
   4  0.496  0.504  0.628-   3 2.63   1 2.74 154 2.77
   5  0.000  0.000  0.407- 107 2.11 108 2.11 123 2.11 188 2.11 105 2.11
   6  0.100  0.100  0.407- 107 2.11 108 2.11 112 2.11 127 2.11 106 2.11
   7  0.000  0.100  0.503- 105 2.11 106 2.11 109 2.11 186 2.11 107 2.11
   8  0.100  0.000  0.503- 105 2.11 106 2.11 122 2.11 125 2.11 108 2.11
   9  0.000  0.200  0.407- 111 2.11 107 2.11 112 2.11 192 2.11 109 2.11
  10  0.100  0.300  0.407- 112 2.11 111 2.11 116 2.11 131 2.11 110 2.11
  11  0.000  0.300  0.503- 109 2.11 110 2.11 113 2.11 190 2.11 111 2.11
  12  0.100  0.200  0.503- 110 2.11 109 2.11 106 2.11 129 2.11 112 2.11
  13  0.000  0.400  0.407- 111 2.11 115 2.11 116 2.11 196 2.11 113 2.11
  14  0.100  0.500  0.407- 115 2.11 116 2.11 120 2.11 135 2.11 114 2.11
  15  0.000  0.500  0.503- 113 2.11 114 2.11 117 2.11 194 2.11 115 2.11
  16  0.100  0.400  0.503- 110 2.11 113 2.11 114 2.11 133 2.11 116 2.11
  17  0.000  0.600  0.407- 115 2.11 119 2.11 120 2.11 200 2.11 117 2.11
  18  0.100  0.700  0.407- 124 2.11 120 2.11 119 2.11 139 2.11 118 2.11
  19  0.000  0.700  0.503- 121 2.11 118 2.11 117 2.11 198 2.11 119 2.11
  20  0.100  0.600  0.503- 114 2.11 117 2.11 118 2.11 137 2.11 120 2.11
  21  0.000  0.800  0.407- 119 2.11 123 2.11 124 2.11 204 2.11 121 2.11
  22  0.100  0.900  0.407- 108 2.11 123 2.11 124 2.11 143 2.11 122 2.11
  23  0.000  0.900  0.503- 105 2.11 121 2.11 122 2.11 202 2.11 123 2.11
  24  0.100  0.800  0.503- 118 2.11 121 2.11 122 2.11 141 2.11 124 2.11
  25  0.200  0.000  0.407- 128 2.11 127 2.11 108 2.11 143 2.11 125 2.11
  26  0.300  0.100  0.407- 127 2.11 128 2.11 132 2.11 147 2.11 126 2.11
  27  0.200  0.100  0.503- 126 2.11 125 2.11 106 2.11 129 2.11 127 2.11
  28  0.300  0.000  0.503- 125 2.11 126 2.11 142 2.11 145 2.11 128 2.11
  29  0.200  0.200  0.407- 131 2.11 132 2.11 112 2.11 127 2.11 129 2.11
  30  0.300  0.300  0.407- 131 2.11 132 2.11 136 2.11 151 2.11 130 2.11
  31  0.200  0.300  0.503- 129 2.11 130 2.11 110 2.11 133 2.11 131 2.11
  32  0.300  0.200  0.503- 129 2.11 130 2.11 126 2.11 149 2.11 132 2.11
  33  0.200  0.400  0.407- 136 2.11 131 2.11 135 2.11 116 2.11 133 2.11
  34  0.300  0.500  0.407- 135 2.11 136 2.11 140 2.11 155 2.11 134 2.11
  35  0.200  0.500  0.503- 134 2.11 133 2.11 114 2.11 137 2.11 135 2.11
  36  0.300  0.400  0.503- 133 2.11 130 2.11 134 2.11 153 2.11 136 2.11
  37  0.200  0.600  0.407- 140 2.11 135 2.11 139 2.11 120 2.11 137 2.11
  38  0.300  0.700  0.407- 139 2.11 144 2.11 140 2.11 159 2.11 138 2.11
  39  0.200  0.700  0.503- 138 2.11 141 2.11 118 2.11 137 2.11 139 2.11
  40  0.300  0.600  0.503- 137 2.11 134 2.11 138 2.11 157 2.11 140 2.11   2 3.04
  41  0.200  0.800  0.407- 139 2.11 144 2.11 143 2.11 124 2.11 141 2.11
  42  0.300  0.900  0.407- 143 2.11 128 2.11 144 2.11 163 2.11 142 2.11
  43  0.200  0.900  0.503- 142 2.11 125 2.11 141 2.11 122 2.11 143 2.11
  44  0.300  0.800  0.503- 138 2.11 141 2.11 142 2.11 161 2.11 144 2.11
  45  0.400  0.000  0.407- 128 2.11 147 2.11 148 2.11 163 2.11 145 2.11
  46  0.500  0.100  0.407- 147 2.11 148 2.11 152 2.11 167 2.11 146 2.11
  47  0.400  0.100  0.503- 126 2.11 145 2.11 146 2.11 149 2.11 147 2.11
  48  0.500  0.000  0.503- 145 2.11 146 2.11 162 2.11 165 2.11 148 2.11
  49  0.400  0.200  0.407- 151 2.11 147 2.11 132 2.11 152 2.11 149 2.11
  50  0.500  0.300  0.407- 152 2.11 151 2.11 156 2.11 171 2.11 150 2.11
  51  0.400  0.300  0.503- 149 2.11 130 2.11 150 2.11 153 2.11 151 2.11
  52  0.500  0.200  0.503- 150 2.11 149 2.11 146 2.11 169 2.11 152 2.11
  53  0.400  0.400  0.407- 136 2.11 151 2.11 155 2.11 156 2.11 153 2.11
  54  0.500  0.500  0.407- 155 2.11 156 2.11 160 2.11 175 2.11 154 2.11
  55  0.400  0.500  0.503- 134 2.11 153 2.11 154 2.11 157 2.11 155 2.11
  56  0.500  0.400  0.503- 150 2.11 153 2.11 154 2.11 173 2.11 156 2.11   3 3.04
  57  0.400  0.600  0.407- 140 2.11 155 2.11 159 2.11 160 2.11 157 2.11
  58  0.500  0.700  0.407- 164 2.11 160 2.11 159 2.11 179 2.11 158 2.11
  59  0.400  0.700  0.503- 161 2.11 157 2.11 158 2.11 138 2.11 159 2.11   2 3.04
  60  0.500  0.600  0.503- 154 2.11 157 2.11 158 2.11 177 2.11 160 2.11
[...]
 190  0.900  0.300  0.503-  92 2.11  91 2.11  11 2.11  96 2.11  90 2.11
 191  0.800  0.300  0.407-  70 2.11  89 2.11  90 2.11  93 2.11  91 2.11
 192  0.900  0.200  0.407-  90 2.11  86 2.11  89 2.11   9 2.11  92 2.11
 193  0.800  0.400  0.503-  76 2.11  91 2.11  95 2.11  96 2.11  93 2.11
 194  0.900  0.500  0.503-  15 2.11  95 2.11  96 2.11 100 2.11  94 2.11
 195  0.800  0.500  0.407-  74 2.11  93 2.11  94 2.11  97 2.11  95 2.11
 196  0.900  0.400  0.407-  13 2.11  90 2.11  93 2.11  94 2.11  96 2.11
 197  0.800  0.600  0.503-  80 2.11  95 2.11  99 2.11 100 2.11  97 2.11
 198  0.900  0.700  0.503- 104 2.11  99 2.11 100 2.11  19 2.11  98 2.11
 199  0.800  0.700  0.407-  78 2.11 101 2.11  98 2.11  97 2.11  99 2.11
 200  0.900  0.600  0.407-  17 2.11  94 2.11  97 2.11  98 2.11 100 2.11
 201  0.800  0.800  0.503-  84 2.11  99 2.11 103 2.11 104 2.11 101 2.11
 202  0.900  0.900  0.503-  23 2.11  88 2.11 103 2.11 104 2.11 102 2.11
 203  0.800  0.900  0.407-  82 2.11  85 2.11 101 2.11 102 2.11 103 2.11
 204  0.900  0.800  0.407-  98 2.11  21 2.11 101 2.11 102 2.11 104 2.11

  LATTYP: Found a simple tetragonal cell.
 ALAT       =    21.1388521970
 C/A-ratio  =     1.0461251639

  Lattice vectors:

 A1 = (  21.1388521970,   0.0000000000,   0.0000000000)
 A2 = (   0.0000000000,  21.1388521970,   0.0000000000)
 A3 = (   0.0000000000,   0.0000000000,  22.1138852197)

Analysis of symmetry for initial positions (statically):
 Subroutine PRICEL returns:
 Original cell was already a primitive cell.

 Routine SETGRP: Setting up the symmetry group for a
 simple tetragonal supercell.

 Subroutine GETGRP returns: Found  2 space group operations
 (whereof  1 operations were pure point group operations)
 out of a pool of 16 trial point group operations.

The static configuration has the point symmetry C_1 .
 The point group associated with its full space group is C_1h.

Analysis of symmetry for dynamics (positions and initial velocities):
 Subroutine PRICEL returns:
 Original cell was already a primitive cell.

[...]

The dynamic configuration has the point symmetry C_1 .
 The point group associated with its full space group is C_1h.

Analysis of constrained symmetry for selective dynamics:
 Subroutine PRICEL returns:
 Original cell was already a primitive cell.

 Routine SETGRP: Setting up the symmetry group for a
 simple tetragonal supercell.

 Subroutine GETGRP returns: Found  2 space group operations
 (whereof  1 operations were pure point group operations)
 out of a pool of 16 trial point group operations.

The constrained configuration has the point symmetry C_1 .
 The point group associated with its full space group is C_1h.

 Subroutine INISYM returns: Found  2 space group operations
 (whereof  1 operations are pure point group operations),
 and found     1 'primitive' translations

                                     Primitive cell

  volume of cell :    9881.6133

  direct lattice vectors                    reciprocal lattice vectors
    21.138852197  0.000000000  0.000000000     0.047306258  0.000000000  0.000000000
[...]
     22     -46.4855      2.00000
     23     -46.4735      2.00000
     24     -46.4725      2.00000
     25     -46.4724      2.00000
     26     -46.4714      2.00000
     27     -46.4431      2.00000
     28     -46.4430      2.00000
     29     -46.4428      2.00000
     30     -46.4427      2.00000
     31     -46.4314      2.00000
     32     -46.4313      2.00000
     33     -46.4310      2.00000
     34     -46.4309      2.00000
     35     -46.4232      2.00000
     36     -46.4232      2.00000
     37     -46.4212      2.00000
     38     -46.4212      2.00000
     39     -46.4185      2.00000
     40     -46.4184      2.00000
     41     -46.4082      2.00000
     42     -46.4074      2.00000
     43     -46.4041      2.00000
     44     -46.4033      2.00000
     45     -46.4010      2.00000
     46     -46.4009      2.00000
     47     -46.3989      2.00000
     48     -46.3970      2.00000
     49     -46.3949      2.00000
     50     -46.3948      2.00000
     51     -46.3936      2.00000
     52     -46.3932      2.00000
     53     -46.3927      2.00000
     54     -46.3925      2.00000
     55     -46.3905      2.00000
     56     -46.3903      2.00000
     57     -46.3903      2.00000
     58     -46.3902      2.00000
     59     -46.3898      2.00000
     60     -46.3894      2.00000
[...]
    882       5.0989      0.00000
    883       5.1459      0.00000
    884       5.1473      0.00000
    885       5.2589      0.00000
    886       5.3410      0.00000
    887       5.4335      0.00000
    888       5.4391      0.00000
    889       5.4798      0.00000
    890       5.5275      0.00000
    891       5.6111      0.00000
    892       5.6506      0.00000
    893       5.6746      0.00000
    894       5.7589      0.00000
    895       5.8868      0.00000
    896       5.9888      0.00000

 soft charge-density along one line, spin component           1
         0         1         2         3         4         5         6         7         8         9
 total charge-density along one line

------------------------ aborting loop because EDIFF is reached ----------------------------------------

 VOLUME and BASIS-vectors are now :
  energy-cutoff  :      520.00
  volume of cell :     9881.61
      direct lattice vectors                 reciprocal lattice vectors
    21.138852197  0.000000000  0.000000000     0.047306258  0.000000000  0.000000000
     0.000000000 21.138852197  0.000000000     0.000000000  0.047306258  0.000000000
     0.000000000  0.000000000 22.113885220     0.000000000  0.000000000  0.045220457

  length of vectors
    21.138852197 21.138852197 22.113885220     0.047306258  0.047306258  0.045220457

 FORCES acting on ions:
    Electron-Ion                     Ewald-Force                    Non-Local-Force
   0.248E+02 -.248E+02 -.207E+04   -.273E+02 0.273E+02 0.207E+04   0.226E+01 -.226E+01 -.254E+00
   0.235E+03 -.235E+03 -.209E+04   -.231E+03 0.231E+03 0.209E+04   -.410E+01 0.410E+01 -.698E+00
   -.235E+03 0.235E+03 -.209E+04   0.231E+03 -.231E+03 0.209E+04   0.410E+01 -.410E+01 -.698E+00
   -.248E+02 0.248E+02 -.207E+04   0.273E+02 -.273E+02 0.207E+04   -.226E+01 0.226E+01 -.254E+00
   0.489E+01 -.489E+01 0.938E+03   -.492E+01 0.492E+01 -.930E+03   0.189E-01 -.189E-01 -.670E+01
   0.905E+01 0.161E+01 0.939E+03   -.905E+01 -.156E+01 -.931E+03   -.164E-02 -.335E-01 -.671E+01
   0.313E+01 0.313E+01 -.918E+03   -.312E+01 -.312E+01 0.911E+03   -.125E-01 -.125E-01 0.666E+01
   0.146E+02 -.117E+02 -.916E+03   -.146E+02 0.118E+02 0.908E+03   0.191E-01 -.656E-01 0.666E+01
   0.161E+01 0.905E+01 0.939E+03   -.156E+01 -.905E+01 -.931E+03   -.335E-01 -.164E-02 -.671E+01
   0.143E+02 0.157E+02 0.944E+03   -.142E+02 -.157E+02 -.937E+03   -.254E-01 0.322E-02 -.672E+01
   0.211E+01 0.156E+02 -.915E+03   -.203E+01 -.156E+02 0.907E+03   -.579E-01 -.379E-03 0.665E+01
   0.130E+02 0.130E+02 -.916E+03   -.129E+02 -.129E+02 0.908E+03   -.241E-01 -.241E-01 0.666E+01
   0.444E+01 0.112E+02 0.945E+03   -.438E+01 -.112E+02 -.938E+03   -.433E-01 0.111E-01 -.671E+01
   0.288E+02 0.120E+02 0.958E+03   -.289E+02 -.121E+02 -.950E+03   0.140E-01 0.669E-01 -.672E+01
   0.127E+02 0.835E+01 -.909E+03   -.127E+02 -.838E+01 0.901E+03   -.178E-01 0.179E-01 0.665E+01
   0.305E+02 0.240E+02 -.907E+03   -.304E+02 -.241E+02 0.899E+03   -.535E-01 0.263E-01 0.664E+01
   0.128E+02 -.212E+01 0.950E+03   -.129E+02 0.210E+01 -.942E+03   0.470E-01 0.200E-01 -.672E+01
   0.337E+02 -.125E+02 0.962E+03   -.340E+02 0.125E+02 -.955E+03   0.196E+00 0.290E-01 -.671E+01
   0.225E+02 -.126E+02 -.909E+03   -.226E+02 0.125E+02 0.901E+03   0.104E+00 0.140E-01 0.666E+01
   0.606E+02 0.528E+01 -.891E+03   -.608E+02 -.541E+01 0.884E+03   0.111E+00 0.925E-01 0.665E+01
   0.120E+02 -.133E+02 0.944E+03   -.121E+02 0.133E+02 -.937E+03   0.892E-01 -.106E-01 -.671E+01
   0.168E+02 -.168E+02 0.946E+03   -.169E+02 0.169E+02 -.938E+03   0.656E-01 -.655E-01 -.669E+01
   0.117E+02 -.146E+02 -.916E+03   -.118E+02 0.146E+02 0.908E+03   0.654E-01 -.190E-01 0.666E+01
   0.428E+02 -.304E+02 -.901E+03   -.431E+02 0.304E+02 0.893E+03   0.238E+00 -.289E-01 0.667E+01
   0.133E+02 -.120E+02 0.944E+03   -.133E+02 0.122E+02 -.937E+03   0.107E-01 -.892E-01 -.671E+01
   0.112E+02 0.444E+01 0.945E+03   -.112E+02 -.438E+01 -.938E+03   0.111E-01 -.433E-01 -.671E+01
   0.156E+02 0.211E+01 -.915E+03   -.156E+02 -.203E+01 0.907E+03   -.379E-03 -.579E-01 0.665E+01
   0.126E+02 -.225E+02 -.909E+03   -.125E+02 0.226E+02 0.901E+03   -.141E-01 -.104E+00 0.666E+01
   0.157E+02 0.143E+02 0.944E+03   -.157E+02 -.142E+02 -.937E+03   0.322E-02 -.254E-01 -.672E+01
   0.264E+02 0.335E+02 0.964E+03   -.264E+02 -.335E+02 -.956E+03   0.543E-01 -.385E-02 -.675E+01
   0.333E+02 0.333E+02 -.906E+03   -.333E+02 -.333E+02 0.898E+03   -.278E-01 -.278E-01 0.664E+01
   0.240E+02 0.305E+02 -.907E+03   -.241E+02 -.304E+02 0.899E+03   0.263E-01 -.535E-01 0.664E+01
   0.335E+02 0.264E+02 0.964E+03   -.335E+02 -.264E+02 -.956E+03   -.385E-02 0.543E-01 -.675E+01
   0.466E+02 0.293E+02 0.101E+04   -.467E+02 -.296E+02 -.101E+04   0.635E-01 0.228E+00 -.688E+01
   0.816E+02 0.439E+02 -.870E+03   -.814E+02 -.441E+02 0.863E+03   -.923E-01 0.185E+00 0.658E+01
   0.719E+02 0.719E+02 -.863E+03   -.718E+02 -.718E+02 0.856E+03   -.332E-01 -.332E-01 0.657E+01
   0.514E+02 0.400E+01 0.994E+03   -.516E+02 -.427E+01 -.986E+03   0.141E+00 0.185E+00 -.670E+01
   0.340E+02 -.340E+02 0.103E+04   -.340E+02 0.339E+02 -.102E+04   -.119E-01 0.119E-01 -.553E+01
   0.116E+03 -.393E+02 -.827E+03   -.117E+03 0.391E+02 0.819E+03   0.106E+01 0.136E+00 0.684E+01
   0.123E+03 0.487E+02 -.710E+03   -.123E+03 -.506E+02 0.703E+03   0.185E+00 0.123E+01 0.600E+01
   0.324E+02 -.324E+02 0.973E+03   -.326E+02 0.326E+02 -.966E+03   0.124E+00 -.124E+00 -.658E+01
   0.125E+02 -.337E+02 0.962E+03   -.125E+02 0.340E+02 -.955E+03   -.291E-01 -.196E+00 -.671E+01
   0.304E+02 -.428E+02 -.901E+03   -.304E+02 0.431E+02 0.893E+03   0.289E-01 -.238E+00 0.667E+01
   0.393E+02 -.116E+03 -.827E+03   -.391E+02 0.117E+03 0.819E+03   -.136E+00 -.106E+01 0.684E+01
   0.213E+01 -.128E+02 0.950E+03   -.210E+01 0.129E+02 -.942E+03   -.200E-01 -.469E-01 -.671E+01
   -.212E+01 0.128E+02 0.950E+03   0.210E+01 -.129E+02 -.942E+03   0.200E-01 0.470E-01 -.672E+01
   0.835E+01 0.127E+02 -.909E+03   -.838E+01 -.127E+02 0.901E+03   0.179E-01 -.178E-01 0.665E+01
   -.835E+01 -.128E+02 -.909E+03   0.838E+01 0.127E+02 0.901E+03   -.181E-01 0.178E-01 0.665E+01
   0.120E+02 0.288E+02 0.958E+03   -.121E+02 -.289E+02 -.950E+03   0.669E-01 0.140E-01 -.672E+01
   0.400E+01 0.514E+02 0.994E+03   -.427E+01 -.516E+02 -.986E+03   0.185E+00 0.141E+00 -.670E+01
   0.439E+02 0.816E+02 -.870E+03   -.441E+02 -.814E+02 0.863E+03   0.185E+00 -.923E-01 0.658E+01
   0.528E+01 0.606E+02 -.891E+03   -.541E+01 -.608E+02 0.884E+03   0.925E-01 0.111E+00 0.665E+01
   0.293E+02 0.466E+02 0.101E+04   -.296E+02 -.467E+02 -.101E+04   0.228E+00 0.635E-01 -.688E+01
   -.111E+02 0.111E+02 0.106E+04   0.109E+02 -.109E+02 -.105E+04   0.127E+00 -.128E+00 -.654E+01
   0.857E+02 0.857E+02 -.704E+03   -.863E+02 -.863E+02 0.697E+03   0.435E+00 0.435E+00 0.636E+01
   0.487E+02 0.123E+03 -.710E+03   -.506E+02 -.123E+03 0.703E+03   0.123E+01 0.185E+00 0.600E+01
   0.111E+02 -.111E+02 0.106E+04   -.109E+02 0.109E+02 -.105E+04   -.128E+00 0.127E+00 -.654E+01
   -.293E+02 -.466E+02 0.101E+04   0.296E+02 0.467E+02 -.101E+04   -.228E+00 -.635E-01 -.688E+01
   -.487E+02 -.123E+03 -.710E+03   0.506E+02 0.123E+03 0.703E+03   -.123E+01 -.186E+00 0.600E+01
   -.856E+02 -.856E+02 -.704E+03   0.863E+02 0.863E+02 0.697E+03   -.436E+00 -.436E+00 0.636E+01
[...]
   -.193E+02 0.147E+02 0.718E+03   0.194E+02 -.148E+02 -.722E+03   -.142E+00 0.533E-01 0.319E+01
   -.621E+01 0.832E+01 0.707E+03   0.625E+01 -.834E+01 -.711E+03   -.527E-01 0.271E-01 0.316E+01
   -.458E+02 0.136E+02 -.670E+03   0.460E+02 -.135E+02 0.674E+03   -.185E+00 -.633E-01 -.327E+01
   -.151E+02 0.147E+01 -.682E+03   0.151E+02 -.144E+01 0.686E+03   -.392E-01 -.326E-01 -.328E+01
   -.261E+02 -.717E+00 0.724E+03   0.261E+02 0.794E+00 -.728E+03   -.870E-01 -.938E-01 0.315E+01
   -.107E+02 0.733E+01 0.713E+03   0.107E+02 -.732E+01 -.717E+03   -.741E-01 -.101E-01 0.316E+01
   -.344E+02 -.150E+02 -.676E+03   0.345E+02 0.151E+02 0.680E+03   -.114E-01 -.841E-01 -.331E+01
   -.431E+01 -.110E+02 -.686E+03   0.428E+01 0.110E+02 0.690E+03   0.395E-01 -.590E-02 -.327E+01
   -.157E+02 -.126E+02 0.715E+03   0.157E+02 0.126E+02 -.719E+03   0.179E-01 -.277E-01 0.313E+01
   -.649E+01 -.443E+01 0.713E+03   0.649E+01 0.444E+01 -.717E+03   0.433E-02 -.207E-01 0.314E+01
   -.144E+02 -.157E+02 -.686E+03   0.144E+02 0.157E+02 0.690E+03   0.357E-01 0.109E-01 -.327E+01
   -.118E+01 -.845E+01 -.690E+03   0.115E+01 0.845E+01 0.694E+03   0.338E-01 0.249E-02 -.326E+01
   -.764E+01 -.764E+01 0.707E+03   0.763E+01 0.763E+01 -.711E+03   0.154E-01 0.154E-01 0.315E+01
   -.152E+01 -.924E+01 0.708E+03   0.148E+01 0.924E+01 -.712E+03   0.415E-01 -.456E-02 0.315E+01
   0.136E-04 0.161E-02 0.113E+02   0.385E-11 -.112E-11 -.944E-11   0.168E-03 0.168E-03 -.979E+01

 POSITION                                       TOTAL-FORCE (eV/Angst)
      8.54453     12.59533     13.88470        -0.037807      0.038983      0.109108
      6.69899     14.44084     13.56395        -0.086971      0.087231      0.094554
     12.32695      8.81289     13.56395         0.087231     -0.086971      0.094554
     10.48144     10.65841     13.88470         0.038983     -0.037807      0.109108
      0.00000      0.00000      9.00000        -0.005831      0.005847      0.487081
      2.11389      2.11389      9.00000         0.000500      0.010387      0.488487
      0.00000      2.11389     11.11389         0.003760      0.003760     -0.451494
      2.11389      0.00000     11.11389        -0.006162      0.019683     -0.449788
      0.00000      4.22777      9.00000         0.010387      0.000500      0.488487
      2.11389      6.34166      9.00000         0.008072     -0.000235      0.492746
      0.00000      6.34166     11.11389         0.017842      0.000660     -0.446964
      2.11389      4.22777     11.11389         0.007850      0.007850     -0.449374
      0.00000      8.45554      9.00000         0.013045     -0.003163      0.490289
      2.11389     10.56943      9.00000        -0.004367     -0.021079      0.492200
      0.00000     10.56943     11.11389         0.006042     -0.005490     -0.444148
      2.11389      8.45554     11.11389         0.017857     -0.006364     -0.440899
      0.00000     12.68331      9.00000        -0.013873     -0.006746      0.488498
      2.11389     14.79720      9.00000        -0.055297     -0.010377      0.483038
      0.00000     14.79720     11.11389        -0.029568     -0.005154     -0.446351
      2.11389     12.68331     11.11389        -0.026033     -0.029864     -0.432165
      0.00000     16.91108      9.00000        -0.026430      0.003316      0.487111
      2.11389     19.02497      9.00000        -0.021096      0.021109      0.479685
      0.00000     19.02497     11.11389        -0.019649      0.006235     -0.450298
      2.11389     16.91108     11.11389        -0.068919      0.008795     -0.448703
      4.22777      0.00000      9.00000        -0.003316      0.026422      0.487040
      6.34166      2.11389      9.00000        -0.003163      0.013045      0.490289
      4.22777      2.11389     11.11389         0.000660      0.017842     -0.446964
      6.34166      0.00000     11.11389         0.005112      0.029521     -0.445422
      4.22777      4.22777      9.00000        -0.000235      0.008072      0.492746
      6.34166      6.34166      9.00000        -0.014417      0.002785      0.503749
      4.22777      6.34166     11.11389         0.010675      0.010675     -0.439863
      6.34166      4.22777     11.11389        -0.006364      0.017857     -0.440899
      4.22777      8.45554      9.00000         0.002785     -0.014417      0.503749
      6.34166     10.56943      9.00000        -0.014625     -0.064387      0.538164
      4.22777     10.56943     11.11389         0.046897     -0.041999     -0.385071
      6.34166      8.45554     11.11389         0.025908      0.025908     -0.387219
      4.22777     12.68331      9.00000        -0.045156     -0.064547      0.475611
      6.34166     14.79720      9.00000         0.007567     -0.007472      0.176708
      4.22777     14.79720     11.11389        -0.383714     -0.052483     -0.543766
      6.34166     12.68331     11.11389        -0.060633     -0.527670     -0.341778
      4.22777     16.91108      9.00000        -0.043489      0.043511      0.437960
      6.34166     19.02497      9.00000         0.010334      0.055203      0.482604
      4.22777     19.02497     11.11389        -0.008820      0.068911     -0.447906
      6.34166     16.91108     11.11389         0.052458      0.383902     -0.543944
      8.45554      0.00000      9.00000         0.006676      0.013863      0.488405
     10.56943      2.11389      9.00000        -0.006746     -0.013873      0.488498
      8.45554      2.11389     11.11389        -0.005490      0.006042     -0.444148
     10.56943      0.00000     11.11389         0.005512     -0.005991     -0.441735
      8.45554      4.22777      9.00000        -0.021079     -0.004367      0.492200
     10.56943      6.34166      9.00000        -0.064547     -0.045156      0.475611
      8.45554      6.34166     11.11389        -0.041999      0.046897     -0.385071
     10.56943      4.22777     11.11389        -0.029864     -0.026033     -0.432165
      8.45554      8.45554      9.00000        -0.064387     -0.014625      0.538164
     10.56943     10.56943      9.00000        -0.047193      0.047296      0.426277
      8.45554     10.56943     11.11389        -0.162807     -0.162807     -0.361303
     10.56943      8.45554     11.11389        -0.527670     -0.060633     -0.341778
      8.45554     12.68331      9.00000         0.047296     -0.047193      0.426277
     10.56943     14.79720      9.00000         0.064460      0.014593      0.538491
      8.45554     14.79720     11.11389         0.528013      0.060626     -0.341809
     10.56943     12.68331     11.11389         0.163022      0.163022     -0.361339
[...]
     19.02497      6.34166     11.11389        -0.026876      0.004278      0.361451
     16.91108      6.34166      9.00000        -0.046748      0.016991     -0.387218
     19.02497      4.22777      9.00000        -0.017236      0.008367     -0.398927
     16.91108      8.45554     11.11389        -0.066006     -0.019623      0.361904
     19.02497     10.56943     11.11389        -0.013173     -0.010606      0.356035
     16.91108     10.56943      9.00000        -0.029670     -0.030792     -0.400049
     19.02497      8.45554      9.00000        -0.024380     -0.003428     -0.399089
     16.91108     12.68331     11.11389        -0.005011     -0.028002      0.346983
     19.02497     14.79720     11.11389         0.012816     -0.002045      0.357428
     16.91108     14.79720      9.00000         0.006149     -0.008926     -0.406198
     19.02497     12.68331      9.00000         0.001499     -0.006345     -0.402345
     16.91108     16.91108     11.11389         0.011438      0.003501      0.356209
     19.02497     19.02497     11.11389         0.010725      0.000834      0.361956
     16.91108     19.02497      9.00000         0.005129      0.005129     -0.402133
     19.02497     16.91108      9.00000         0.013659     -0.001540     -0.401711
    total drift:                                0.001212      0.002809      0.001254

  FREE ENERGIE OF THE ION-ELECTRON SYSTEM (eV)
  free  energy   TOTEN  =     -1366.37681536 eV

  energy  without entropy=    -1366.37681536  energy(sigma->0) =    -1366.37681536