 vasp.6.3.0 20Jan22 (build Apr  1 2022 16:44:48) complex
 executed on        HPECrayEX_GCC date 2022.12.11  06:25:26

 INCAR:
   SYSTEM = MgO-rocksalt
   ISMEAR = 0
   SIGMA = 0.05
   EDIFF = 1E-6
   ALGO = ALL
   ISTART = 0
   IBRION = -1
   NSW = 0
   ISYM = 2
   DIPOL = 0.5 0.5 0.5
   IDIPOL = 3
   LDIPOL = .TRUE.
   METAGGA = R2SCAN
   ENCUT = 520
   PREC = Accurate
   LASPH = .TRUE.
   LREAL = Auto
   ISPIN = 1
   NELM = 200
   NELMIN = 8
   NCORE = 4
   KPAR = 2
   LWAVE = .FALSE.
   LCHARG = .FALSE.

 POTCAR:    PAW_PBE Ag 02Apr2005
 POTCAR:    PAW_PBE Mg_pv 13Apr2007
 POTCAR:    PAW_PBE O 08Apr2002
 POTCAR:    PAW_PBE Ag 02Apr2005
   VRHFIN =Ag : s1 d10

   TITEL  = PAW_PBE Ag 02Apr2005
   POMASS =  107.868; ZVAL   =   11.000    mass and valenz
   ENMAX  =  249.844; ENMIN  =  187.383 eV

   TITEL  = PAW_PBE Mg_pv 13Apr2007
   POMASS =   24.305; ZVAL   =    8.000    mass and valenz
   ENMAX  =  403.929; ENMIN  =  302.947 eV

   TITEL  = PAW_PBE O 08Apr2002
   POMASS =   16.000; ZVAL   =    6.000    mass and valenz
   ENMAX  =  400.000; ENMIN  =  300.000 eV

 Optimization of the real space projectors (new method)

 maximal supplied QI-value         = 15.12
 optimisation between [QCUT,QGAM] = [ 11.64, 23.28] = [ 37.95,151.78] Ry
 Optimized for a Real-space Cutoff    1.45 Angstroem

   l    n(q)    QCUT    max X(q) W(low)/X(q) W(high)/X(q)  e(spline)
   2      9    11.641    53.897    0.22E-03    0.42E-04    0.28E-06
   2      9    11.641    52.416    0.23E-03    0.44E-04    0.29E-06
   0     10    11.641   122.045    0.51E-04    0.25E-04    0.16E-06
   0     10    11.641    73.629    0.49E-04    0.24E-04    0.16E-06
   1     10    11.641    15.255    0.99E-04    0.55E-04    0.11E-06
   1     10    11.641     9.562    0.81E-04    0.47E-04    0.95E-07
 Optimization of the real space projectors (new method)

[...]

   l    n(q)    QCUT    max X(q) W(low)/X(q) W(high)/X(q)  e(spline)
   1      8    11.527     2.974    0.44E-04    0.56E-04    0.12E-06
   1      8    11.527     4.279    0.12E-03    0.12E-03    0.26E-06
   0      9    11.527    16.381    0.46E-04    0.64E-04    0.78E-07
   0      9    11.527     5.611    0.26E-04    0.43E-04    0.55E-07
   2      8    11.527     4.652    0.22E-03    0.72E-04    0.47E-07
 Optimization of the real space projectors (new method)

 maximal supplied QI-value         = 24.76
 optimisation between [QCUT,QGAM] = [ 11.64, 23.27] = [ 37.91,151.63] Ry
 Optimized for a Real-space Cutoff    1.14 Angstroem

   l    n(q)    QCUT    max X(q) W(low)/X(q) W(high)/X(q)  e(spline)
   0      8    11.635    20.381    0.10E-03    0.33E-03    0.24E-06
   0      8    11.635    15.268    0.11E-03    0.35E-03    0.26E-06
   1      7    11.635     5.964    0.24E-03    0.31E-03    0.30E-06
   1      7    11.635     5.382    0.22E-03    0.25E-03    0.26E-06
  PAW_PBE Ag 02Apr2005                  :
  PAW_PBE Mg_pv 13Apr2007               :
  PAW_PBE O 08Apr2002                   :

 POSCAR: Ag Mg  O
  positions in direct lattice

 METAGGA = R2SCA    LMAXTAU =  6    LMIXTAU =  F

 ion  position               nearest neighbor table
   1  0.500  0.500  0.720-   2 2.55
   2  0.500  0.500  0.605- 152 2.27   1 2.55
   3  0.000  0.000  0.407- 105 2.11 106 2.11 121 2.11 186 2.11 103 2.11
   4  0.100  0.100  0.407- 105 2.11 106 2.11 110 2.11 125 2.11 104 2.11
   5  0.000  0.100  0.503- 103 2.11 104 2.11 107 2.11 184 2.11 105 2.11
   6  0.100  0.000  0.503- 103 2.11 104 2.11 120 2.11 123 2.11 106 2.11
   7  0.000  0.200  0.407- 109 2.11 105 2.11 110 2.11 190 2.11 107 2.11
   8  0.100  0.300  0.407- 110 2.11 109 2.11 114 2.11 129 2.11 108 2.11
   9  0.000  0.300  0.503- 107 2.11 108 2.11 111 2.11 188 2.11 109 2.11
  10  0.100  0.200  0.503- 108 2.11 107 2.11 104 2.11 127 2.11 110 2.11
  11  0.000  0.400  0.407- 109 2.11 113 2.11 114 2.11 194 2.11 111 2.11
  12  0.100  0.500  0.407- 113 2.11 114 2.11 118 2.11 133 2.11 112 2.11
  13  0.000  0.500  0.503- 111 2.11 112 2.11 115 2.11 192 2.11 113 2.11
  14  0.100  0.400  0.503- 108 2.11 111 2.11 112 2.11 131 2.11 114 2.11
  15  0.000  0.600  0.407- 113 2.11 117 2.11 118 2.11 198 2.11 115 2.11
  16  0.100  0.700  0.407- 122 2.11 118 2.11 117 2.11 137 2.11 116 2.11
  17  0.000  0.700  0.503- 119 2.11 116 2.11 115 2.11 196 2.11 117 2.11
  18  0.100  0.600  0.503- 112 2.11 115 2.11 116 2.11 135 2.11 118 2.11
  19  0.000  0.800  0.407- 117 2.11 121 2.11 122 2.11 202 2.11 119 2.11
  20  0.100  0.900  0.407- 106 2.11 121 2.11 122 2.11 141 2.11 120 2.11
  21  0.000  0.900  0.503- 103 2.11 119 2.11 120 2.11 200 2.11 121 2.11
  22  0.100  0.800  0.503- 116 2.11 119 2.11 120 2.11 139 2.11 122 2.11
  23  0.200  0.000  0.407- 126 2.11 125 2.11 106 2.11 141 2.11 123 2.11
  24  0.300  0.100  0.407- 125 2.11 126 2.11 130 2.11 145 2.11 124 2.11
  25  0.200  0.100  0.503- 124 2.11 123 2.11 104 2.11 127 2.11 125 2.11
  26  0.300  0.000  0.503- 123 2.11 124 2.11 140 2.11 143 2.11 126 2.11
  27  0.200  0.200  0.407- 129 2.11 130 2.11 110 2.11 125 2.11 127 2.11
  28  0.300  0.300  0.407- 129 2.11 130 2.11 134 2.11 149 2.11 128 2.11
  29  0.200  0.300  0.503- 127 2.11 128 2.11 108 2.11 131 2.11 129 2.11
  30  0.300  0.200  0.503- 127 2.11 128 2.11 124 2.11 147 2.11 130 2.11
  31  0.200  0.400  0.407- 134 2.11 129 2.11 133 2.11 114 2.11 131 2.11
  32  0.300  0.500  0.407- 133 2.11 134 2.11 138 2.11 153 2.11 132 2.11
  33  0.200  0.500  0.503- 132 2.11 131 2.11 112 2.11 135 2.11 133 2.11
  34  0.300  0.400  0.503- 131 2.11 128 2.11 132 2.11 151 2.11 134 2.11
  35  0.200  0.600  0.407- 138 2.11 133 2.11 137 2.11 118 2.11 135 2.11
  36  0.300  0.700  0.407- 137 2.11 142 2.11 138 2.11 157 2.11 136 2.11
  37  0.200  0.700  0.503- 136 2.11 139 2.11 116 2.11 135 2.11 137 2.11
  38  0.300  0.600  0.503- 135 2.11 132 2.11 136 2.11 155 2.11 138 2.11
  39  0.200  0.800  0.407- 137 2.11 142 2.11 141 2.11 122 2.11 139 2.11
  40  0.300  0.900  0.407- 141 2.11 126 2.11 142 2.11 161 2.11 140 2.11
  41  0.200  0.900  0.503- 140 2.11 123 2.11 139 2.11 120 2.11 141 2.11
  42  0.300  0.800  0.503- 136 2.11 139 2.11 140 2.11 159 2.11 142 2.11
  43  0.400  0.000  0.407- 126 2.11 145 2.11 146 2.11 161 2.11 143 2.11
  44  0.500  0.100  0.407- 145 2.11 146 2.11 150 2.11 165 2.11 144 2.11
  45  0.400  0.100  0.503- 124 2.11 143 2.11 144 2.11 147 2.11 145 2.11
  46  0.500  0.000  0.503- 143 2.11 144 2.11 160 2.11 163 2.11 146 2.11
  47  0.400  0.200  0.407- 149 2.11 145 2.11 130 2.11 150 2.11 147 2.11
  48  0.500  0.300  0.407- 150 2.11 149 2.11 154 2.11 169 2.11 148 2.11
  49  0.400  0.300  0.503- 147 2.11 128 2.11 148 2.11 151 2.11 149 2.11
  50  0.500  0.200  0.503- 148 2.11 147 2.11 144 2.11 167 2.11 150 2.11
  51  0.400  0.400  0.407- 134 2.11 149 2.11 153 2.11 154 2.11 151 2.11
  52  0.500  0.500  0.407- 153 2.11 154 2.11 158 2.11 173 2.11 152 2.11
  53  0.400  0.500  0.503- 132 2.11 151 2.11 152 2.11 155 2.11 153 2.11
  54  0.500  0.400  0.503- 148 2.11 151 2.11 152 2.11 171 2.11 154 2.11
  55  0.400  0.600  0.407- 138 2.11 153 2.11 157 2.11 158 2.11 155 2.11
  56  0.500  0.700  0.407- 162 2.11 158 2.11 157 2.11 177 2.11 156 2.11
  57  0.400  0.700  0.503- 159 2.11 155 2.11 156 2.11 136 2.11 157 2.11
  58  0.500  0.600  0.503- 152 2.11 155 2.11 156 2.11 175 2.11 158 2.11
  59  0.400  0.800  0.407- 157 2.11 142 2.11 161 2.11 162 2.11 159 2.11
  60  0.500  0.900  0.407- 146 2.11 161 2.11 162 2.11 181 2.11 160 2.11
[...]
 188  0.900  0.300  0.503-  90 2.11  89 2.11   9 2.11  94 2.11  88 2.11
 189  0.800  0.300  0.407-  68 2.11  87 2.11  88 2.11  91 2.11  89 2.11
 190  0.900  0.200  0.407-  88 2.11  84 2.11  87 2.11   7 2.11  90 2.11
 191  0.800  0.400  0.503-  74 2.11  89 2.11  93 2.11  94 2.11  91 2.11
 192  0.900  0.500  0.503-  13 2.11  93 2.11  94 2.11  98 2.11  92 2.11
 193  0.800  0.500  0.407-  72 2.11  91 2.11  92 2.11  95 2.11  93 2.11
 194  0.900  0.400  0.407-  11 2.11  88 2.11  91 2.11  92 2.11  94 2.11
 195  0.800  0.600  0.503-  78 2.11  93 2.11  97 2.11  98 2.11  95 2.11
 196  0.900  0.700  0.503- 102 2.11  97 2.11  98 2.11  17 2.11  96 2.11
 197  0.800  0.700  0.407-  76 2.11  99 2.11  96 2.11  95 2.11  97 2.11
 198  0.900  0.600  0.407-  15 2.11  92 2.11  95 2.11  96 2.11  98 2.11
 199  0.800  0.800  0.503-  82 2.11  97 2.11 101 2.11 102 2.11  99 2.11
 200  0.900  0.900  0.503-  21 2.11  86 2.11 101 2.11 102 2.11 100 2.11
 201  0.800  0.900  0.407-  80 2.11  83 2.11  99 2.11 100 2.11 101 2.11
 202  0.900  0.800  0.407-  96 2.11  19 2.11  99 2.11 100 2.11 102 2.11

  LATTYP: Found a simple tetragonal cell.
 ALAT       =    21.1388521970
 C/A-ratio  =     1.0461251639

  Lattice vectors:

 A1 = (  21.1388521970,   0.0000000000,   0.0000000000)
 A2 = (   0.0000000000,  21.1388521970,   0.0000000000)
 A3 = (   0.0000000000,   0.0000000000,  22.1138852197)

Analysis of symmetry for initial positions (statically):
 Subroutine PRICEL returns:
 Original cell was already a primitive cell.

 Routine SETGRP: Setting up the symmetry group for a
 simple tetragonal supercell.

 Subroutine GETGRP returns: Found  8 space group operations
 (whereof  8 operations were pure point group operations)
 out of a pool of 16 trial point group operations.

The static configuration has the point symmetry C_4v.

Analysis of symmetry for dynamics (positions and initial velocities):
 Subroutine PRICEL returns:
 Original cell was already a primitive cell.

 Routine SETGRP: Setting up the symmetry group for a
 simple tetragonal supercell.

 Subroutine GETGRP returns: Found  8 space group operations
 (whereof  8 operations were pure point group operations)
 out of a pool of 16 trial point group operations.

The dynamic configuration has the point symmetry C_4v.

 Subroutine INISYM returns: Found  8 space group operations
 (whereof  8 operations are pure point group operations),
 and found     1 'primitive' translations

                                     Primitive cell

  volume of cell :    9881.6133

  direct lattice vectors                    reciprocal lattice vectors
    21.138852197  0.000000000  0.000000000     0.047306258  0.000000000  0.000000000
     0.000000000 21.138852197  0.000000000     0.000000000  0.047306258  0.000000000
     0.000000000  0.000000000 22.113885220     0.000000000  0.000000000  0.045220457

  length of vectors
    21.138852197 21.138852197 22.113885220     0.047306258  0.047306258  0.045220457

  position of ions in fractional coordinates (direct lattice)
     0.500000000  0.500000000  0.720254265
     0.500000000  0.500000000  0.605068473
     0.000000000  0.000000000  0.406984115
     0.100000000  0.100000000  0.406984115
     0.000000000  0.100000000  0.502574971
     0.100000000  0.000000000  0.502574971
     0.000000000  0.200000000  0.406984115
     0.100000000  0.300000000  0.406984115
     0.000000000  0.300000000  0.502574971
     0.100000000  0.200000000  0.502574971
     0.000000000  0.400000000  0.406984115
     0.100000000  0.500000000  0.406984115
     0.000000000  0.500000000  0.502574971
     0.100000000  0.400000000  0.502574971
     0.000000000  0.600000000  0.406984115
     0.100000000  0.700000000  0.406984115
     0.000000000  0.700000000  0.502574971
     0.100000000  0.600000000  0.502574971
     0.000000000  0.800000000  0.406984115
[...]
     52     -44.4232      2.00000
     53     -44.4232      2.00000
     54     -44.4228      2.00000
     55     -44.4226      2.00000
     56     -44.4226      2.00000
     57     -44.4217      2.00000
     58     -44.4215      2.00000
     59     -44.4215      2.00000
     60     -44.4198      2.00000
[...]
    882       5.4228      0.00000
    883       5.4790      0.00000
    884       5.5088      0.00000
    885       5.5384      0.00000
    886       5.5889      0.00000
    887       5.6869      0.00000
    888       5.9554      0.00000
    889       6.0019      0.00000
    890       6.0879      0.00000
    891       6.1060      0.00000
    892       6.1500      0.00000
    893       6.1601      0.00000
    894       6.1684      0.00000
    895       6.1789      0.00000
    896       6.1995      0.00000

 soft charge-density along one line, spin component           1
         0         1         2         3         4         5         6         7         8         9
 total charge-density along one line

------------------------ aborting loop because EDIFF is reached ----------------------------------------

  FORCE on cell =-STRESS in cart. coord.  units (eV):
  Direction    XX          YY          ZZ          XY          YZ          ZX
  Alpha Z  1357.53553  1357.53553  1357.53553
  Ewald  476274.59663476274.59663************    -0.00000     0.00000    -0.00000
  Hartree505175.82525505175.82525************    -0.00000    -0.00000    -0.00000
  E(xc)   -8398.23619 -8398.23619 -8398.18218    -0.00000    -0.00000    -0.00000
  Local  ************************************    -0.00000    -0.00000     0.00000
  n-local -8700.76391 -8700.76391 -8829.59614    -0.00001     0.00000    -0.00000
  augment  3885.08222  3885.08222  3825.02894     0.00000    -0.00000    -0.00000
  Kinetic 23014.12477 23014.12476 23234.20333    -0.00000    -0.00002     0.00000
  Fock        0.00000     0.00000     0.00000     0.00000     0.00000     0.00000
  Total    -221.93913  -221.93913   -17.66971     0.00000     0.00000     0.00000
  in kB     -35.98459   -35.98459    -2.86492     0.00000     0.00000     0.00000

 VOLUME and BASIS-vectors are now :
  energy-cutoff  :      520.00
  volume of cell :     9881.61
      direct lattice vectors                 reciprocal lattice vectors
    21.138852197  0.000000000  0.000000000     0.047306258  0.000000000  0.000000000
     0.000000000 21.138852197  0.000000000     0.000000000  0.047306258  0.000000000
     0.000000000  0.000000000 22.113885220     0.000000000  0.000000000  0.045220457

  length of vectors
    21.138852197 21.138852197 22.113885220     0.047306258  0.047306258  0.045220457

 FORCES acting on ions:
    Electron-Ion                     Ewald-Force                    Non-Local-Force
   -.276E-12 -.710E-12 -.174E+04   0.115E-12 0.211E-13 0.173E+04   0.106E-21 0.000E+00 0.926E+01
   -.427E-13 0.731E-12 -.191E+04   -.289E-13 -.799E-14 0.191E+04   0.000E+00 -.106E-21 -.518E+01
   0.149E-12 0.753E-13 0.931E+03   0.764E-13 0.213E-12 -.923E+03   0.132E-22 0.000E+00 -.754E+01
   0.361E+01 0.361E+01 0.932E+03   -.362E+01 -.362E+01 -.924E+03   0.694E-02 0.694E-02 -.754E+01
   0.145E-12 0.386E+01 -.923E+03   0.103E-12 -.386E+01 0.915E+03   0.000E+00 0.282E-02 0.756E+01
   0.386E+01 -.651E-12 -.923E+03   -.386E+01 0.107E-12 0.915E+03   0.282E-02 0.000E+00 0.756E+01
   0.135E-12 0.528E+01 0.932E+03   0.153E-10 -.529E+01 -.924E+03   -.199E-22 0.786E-02 -.755E+01
   0.706E+01 0.663E+01 0.935E+03   -.709E+01 -.665E+01 -.927E+03   0.258E-01 0.120E-01 -.755E+01
   0.155E-12 0.698E+01 -.920E+03   0.181E-11 -.698E+01 0.912E+03   -.662E-23 0.416E-02 0.755E+01
   0.664E+01 0.791E+01 -.921E+03   -.665E+01 -.792E+01 0.913E+03   0.917E-02 0.617E-02 0.755E+01
   0.159E-12 0.357E+01 0.935E+03   -.174E-10 -.357E+01 -.927E+03   0.000E+00 0.491E-02 -.755E+01
   0.999E+01 -.105E-11 0.937E+03   -.100E+02 0.228E-12 -.929E+03   0.432E-01 0.000E+00 -.756E+01
   0.161E-12 0.731E-12 -.919E+03   0.120E-12 0.126E-12 0.911E+03   0.414E-24 0.000E+00 0.755E+01
   0.134E+02 0.588E+01 -.917E+03   -.134E+02 -.588E+01 0.909E+03   0.193E-01 0.328E-02 0.754E+01
   0.167E-12 -.357E+01 0.935E+03   0.116E-11 0.357E+01 -.927E+03   0.132E-22 -.491E-02 -.755E+01
   0.706E+01 -.663E+01 0.935E+03   -.709E+01 0.665E+01 -.927E+03   0.258E-01 -.120E-01 -.755E+01
   0.177E-12 -.698E+01 -.920E+03   -.785E-12 0.698E+01 0.912E+03   -.662E-23 -.416E-02 0.755E+01
   0.134E+02 -.588E+01 -.917E+03   -.134E+02 0.588E+01 0.909E+03   0.193E-01 -.328E-02 0.754E+01
   0.169E-12 -.528E+01 0.932E+03   0.853E-12 0.529E+01 -.924E+03   0.000E+00 -.786E-02 -.755E+01
   0.361E+01 -.361E+01 0.932E+03   -.362E+01 0.362E+01 -.924E+03   0.694E-02 -.694E-02 -.754E+01
   0.160E-12 -.386E+01 -.923E+03   -.867E-12 0.386E+01 0.915E+03   0.331E-23 -.282E-02 0.756E+01
   0.664E+01 -.791E+01 -.921E+03   -.665E+01 0.792E+01 0.913E+03   0.917E-02 -.617E-02 0.755E+01
   0.528E+01 0.102E-12 0.932E+03   -.529E+01 0.101E-12 -.924E+03   0.786E-02 -.265E-22 -.755E+01
   0.663E+01 0.706E+01 0.935E+03   -.665E+01 -.709E+01 -.927E+03   0.120E-01 0.258E-01 -.755E+01
   0.791E+01 0.664E+01 -.921E+03   -.792E+01 -.665E+01 0.913E+03   0.617E-02 0.917E-02 0.755E+01
   0.698E+01 0.500E-12 -.920E+03   -.698E+01 0.941E-13 0.912E+03   0.416E-02 -.744E-23 0.755E+01
   0.890E+01 0.890E+01 0.935E+03   -.893E+01 -.893E+01 -.927E+03   0.261E-01 0.261E-01 -.755E+01
   0.167E+02 0.167E+02 0.947E+03   -.168E+02 -.168E+02 -.939E+03   0.868E-01 0.868E-01 -.757E+01
   0.200E+02 0.149E+02 -.914E+03   -.201E+02 -.149E+02 0.906E+03   0.418E-01 0.117E-01 0.754E+01
   0.149E+02 0.200E+02 -.914E+03   -.149E+02 -.201E+02 0.906E+03   0.117E-01 0.418E-01 0.754E+01
   0.181E+02 0.714E+01 0.943E+03   -.182E+02 -.716E+01 -.935E+03   0.106E+00 0.202E-01 -.758E+01
   0.294E+02 -.196E-11 0.962E+03   -.299E+02 0.218E-12 -.954E+03   0.340E+00 0.132E-22 -.765E+01
   0.340E+02 -.108E-11 -.907E+03   -.341E+02 0.107E-13 0.899E+03   0.694E-01 0.000E+00 0.752E+01
   0.498E+02 0.255E+02 -.890E+03   -.501E+02 -.255E+02 0.882E+03   0.245E+00 0.121E-01 0.748E+01
   0.181E+02 -.714E+01 0.943E+03   -.182E+02 0.716E+01 -.935E+03   0.106E+00 -.202E-01 -.758E+01
   0.167E+02 -.167E+02 0.947E+03   -.168E+02 0.168E+02 -.939E+03   0.868E-01 -.868E-01 -.757E+01
   0.200E+02 -.149E+02 -.914E+03   -.201E+02 0.149E+02 0.906E+03   0.418E-01 -.117E-01 0.754E+01
   0.498E+02 -.255E+02 -.890E+03   -.501E+02 0.255E+02 0.882E+03   0.245E+00 -.121E-01 0.748E+01
   0.890E+01 -.890E+01 0.935E+03   -.893E+01 0.893E+01 -.927E+03   0.261E-01 -.261E-01 -.755E+01
   0.663E+01 -.706E+01 0.935E+03   -.665E+01 0.709E+01 -.927E+03   0.120E-01 -.258E-01 -.755E+01
   0.791E+01 -.664E+01 -.921E+03   -.792E+01 0.665E+01 0.913E+03   0.617E-02 -.917E-02 0.755E+01
   0.149E+02 -.200E+02 -.914E+03   -.149E+02 0.201E+02 0.906E+03   0.117E-01 -.418E-01 0.754E+01
   0.357E+01 0.748E-12 0.935E+03   -.357E+01 0.449E-13 -.927E+03   0.491E-02 0.662E-23 -.755E+01
   -.232E-12 0.999E+01 0.937E+03   0.387E-11 -.100E+02 -.929E+03   0.662E-23 0.432E-01 -.756E+01
   0.588E+01 0.134E+02 -.917E+03   -.588E+01 -.134E+02 0.909E+03   0.328E-02 0.193E-01 0.754E+01
   -.242E-12 0.215E-12 -.919E+03   0.622E-14 0.933E-13 0.911E+03   0.000E+00 0.000E+00 0.755E+01
   0.714E+01 0.181E+02 0.943E+03   -.716E+01 -.182E+02 -.935E+03   0.202E-01 0.106E+00 -.758E+01
   -.229E-12 0.294E+02 0.962E+03   -.579E-11 -.299E+02 -.954E+03   0.000E+00 0.340E+00 -.765E+01
   0.255E+02 0.498E+02 -.890E+03   -.255E+02 -.501E+02 0.882E+03   0.121E-01 0.245E+00 0.748E+01
   -.235E-12 0.340E+02 -.907E+03   -.193E-10 -.341E+02 0.899E+03   0.000E+00 0.694E-01 0.752E+01
   0.222E+02 0.222E+02 0.978E+03   -.225E+02 -.225E+02 -.970E+03   0.238E+00 0.238E+00 -.752E+01
   -.235E-12 0.209E-11 0.101E+04   -.104E-12 0.214E-12 -.100E+04   0.662E-23 0.000E+00 -.551E+01
   0.104E+03 0.149E-10 -.791E+03   -.106E+03 0.933E-14 0.784E+03   0.187E+01 -.265E-22 0.721E+01
   -.230E-12 0.104E+03 -.791E+03   0.215E-10 -.106E+03 0.784E+03   0.331E-22 0.187E+01 0.721E+01
   0.222E+02 -.222E+02 0.978E+03   -.225E+02 0.225E+02 -.970E+03   0.238E+00 -.238E+00 -.752E+01
   -.210E-12 -.294E+02 0.962E+03   -.183E-10 0.299E+02 -.954E+03   0.000E+00 -.340E+00 -.765E+01
   0.255E+02 -.498E+02 -.890E+03   -.255E+02 0.501E+02 0.882E+03   0.121E-01 -.245E+00 0.748E+01
   -.208E-12 -.104E+03 -.791E+03   0.183E-10 0.106E+03 0.784E+03   0.331E-23 -.187E+01 0.721E+01
   0.714E+01 -.181E+02 0.943E+03   -.716E+01 0.182E+02 -.935E+03   0.202E-01 -.106E+00 -.758E+01
   -.219E-12 -.999E+01 0.937E+03   0.203E-10 0.100E+02 -.929E+03   0.000E+00 -.432E-01 -.756E+01
[...]
   -.100E+02 0.764E+01 0.706E+03   0.100E+02 -.767E+01 -.710E+03   -.569E-01 0.395E-01 0.342E+01
   -.375E+01 0.463E+01 0.701E+03   0.376E+01 -.464E+01 -.705E+03   -.144E-01 0.144E-01 0.343E+01
   -.220E+02 0.831E+01 -.684E+03   0.221E+02 -.832E+01 0.688E+03   -.589E-01 0.142E-01 -.356E+01
   -.112E+02 -.452E-11 -.689E+03   0.112E+02 0.103E-10 0.693E+03   -.224E-01 0.265E-22 -.352E+01
   -.153E+02 0.387E-11 0.710E+03   0.154E+02 -.169E-11 -.714E+03   -.953E-01 0.000E+00 0.340E+01
   -.684E+01 0.327E+01 0.704E+03   0.686E+01 -.328E+01 -.708E+03   -.304E-01 0.105E-01 0.342E+01
   -.220E+02 -.831E+01 -.684E+03   0.221E+02 0.832E+01 0.688E+03   -.589E-01 -.142E-01 -.356E+01
   -.746E+01 -.654E+01 -.691E+03   0.747E+01 0.655E+01 0.695E+03   -.158E-01 -.909E-02 -.351E+01
   -.100E+02 -.764E+01 0.706E+03   0.100E+02 0.767E+01 -.710E+03   -.569E-01 -.395E-01 0.342E+01
   -.684E+01 -.327E+01 0.704E+03   0.686E+01 0.328E+01 -.708E+03   -.304E-01 -.105E-01 0.342E+01
   -.922E+01 -.922E+01 -.691E+03   0.923E+01 0.923E+01 0.694E+03   -.235E-01 -.235E-01 -.351E+01
   -.341E+01 -.341E+01 -.693E+03   0.342E+01 0.342E+01 0.697E+03   -.599E-02 -.599E-02 -.349E+01
   -.463E+01 -.375E+01 0.701E+03   0.464E+01 0.376E+01 -.705E+03   -.144E-01 -.144E-01 0.343E+01
   -.375E+01 -.463E+01 0.701E+03   0.376E+01 0.464E+01 -.705E+03   -.144E-01 -.144E-01 0.343E+01
   0.135E-10 -.711E-11 -.124E+01   0.956E-12 0.302E-12 -.341E-11   0.694E-17 -.486E-16 0.392E+01

 POSITION                                       TOTAL-FORCE (eV/Angst)
     10.56943     10.56943     15.92762        -0.000000      0.000000     -0.138929
     10.56943     10.56943     13.38041        -0.000000      0.000000      0.064425
      0.00000      0.00000      9.00000        -0.000000      0.000000      0.516345
      2.11389      2.11389      9.00000        -0.001961     -0.001961      0.516685
      0.00000      2.11389     11.11389        -0.000000     -0.000802     -0.478045
      2.11389      0.00000     11.11389        -0.000802      0.000000     -0.478045
      0.00000      4.22777      9.00000        -0.000000     -0.002259      0.516984
      2.11389      6.34166      9.00000        -0.007004     -0.003440      0.518415
      0.00000      6.34166     11.11389        -0.000000     -0.001170     -0.475841
      2.11389      4.22777     11.11389        -0.002425     -0.001736     -0.476233
      0.00000      8.45554      9.00000        -0.000000     -0.001416      0.518276
      2.11389     10.56943      9.00000        -0.011641      0.000000      0.519917
      0.00000     10.56943     11.11389        -0.000000      0.000000     -0.474204
      2.11389      8.45554     11.11389        -0.004654     -0.000873     -0.472095
      0.00000     12.68331      9.00000        -0.000000      0.001416      0.518276
      2.11389     14.79720      9.00000        -0.007004      0.003440      0.518415
      0.00000     14.79720     11.11389        -0.000000      0.001170     -0.475841
      2.11389     12.68331     11.11389        -0.004654      0.000873     -0.472095
      0.00000     16.91108      9.00000        -0.000000      0.002259      0.516984
      2.11389     19.02497      9.00000        -0.001961      0.001961      0.516685
      0.00000     19.02497     11.11389        -0.000000      0.000802     -0.478045
      2.11389     16.91108     11.11389        -0.002425      0.001736     -0.476233
      4.22777      0.00000      9.00000        -0.002259      0.000000      0.516984
      6.34166      2.11389      9.00000        -0.003440     -0.007004      0.518415
      4.22777      2.11389     11.11389        -0.001736     -0.002425     -0.476233
      6.34166      0.00000     11.11389        -0.001170      0.000000     -0.475841
      4.22777      4.22777      9.00000        -0.007405     -0.007405      0.518161
      6.34166      6.34166      9.00000        -0.025596     -0.025596      0.521257
      4.22777      6.34166     11.11389        -0.010458     -0.003174     -0.467951
      6.34166      4.22777     11.11389        -0.003174     -0.010458     -0.467951
      4.22777      8.45554      9.00000        -0.028363     -0.005983      0.524137
      6.34166     10.56943      9.00000        -0.088057      0.000000      0.536963
      4.22777     10.56943     11.11389        -0.015607      0.000000     -0.457569
      6.34166      8.45554     11.11389        -0.060177     -0.000650     -0.424961
      4.22777     12.68331      9.00000        -0.028363      0.005983      0.524137
      6.34166     14.79720      9.00000        -0.025596      0.025596      0.521257
      4.22777     14.79720     11.11389        -0.010458      0.003174     -0.467951
      6.34166     12.68331     11.11389        -0.060177      0.000650     -0.424961
      4.22777     16.91108      9.00000        -0.007405      0.007405      0.518161
      6.34166     19.02497      9.00000        -0.003440      0.007004      0.518415
      4.22777     19.02497     11.11389        -0.001736      0.002425     -0.476233
      6.34166     16.91108     11.11389        -0.003174      0.010458     -0.467951
      8.45554      0.00000      9.00000        -0.001416      0.000000      0.518276
     10.56943      2.11389      9.00000        -0.000000     -0.011641      0.519917
      8.45554      2.11389     11.11389        -0.000873     -0.004654     -0.472095
     10.56943      0.00000     11.11389        -0.000000      0.000000     -0.474204
      8.45554      4.22777      9.00000        -0.005983     -0.028363      0.524137
     10.56943      6.34166      9.00000        -0.000000     -0.088057      0.536963
      8.45554      6.34166     11.11389        -0.000650     -0.060177     -0.424961
     10.56943      4.22777     11.11389        -0.000000     -0.015607     -0.457569
      8.45554      8.45554      9.00000        -0.079107     -0.079107      0.488486
     10.56943     10.56943      9.00000        -0.000000      0.000000      0.035401
      8.45554     10.56943     11.11389        -0.668206      0.000000     -0.454351
     10.56943      8.45554     11.11389        -0.000000     -0.668206     -0.454351
      8.45554     12.68331      9.00000        -0.079107      0.079107      0.488486
     10.56943     14.79720      9.00000        -0.000000      0.088057      0.536963
      8.45554     14.79720     11.11389        -0.000650      0.060177     -0.424961
     10.56943     12.68331     11.11389        -0.000000      0.668206     -0.454351
      8.45554     16.91108      9.00000        -0.005983      0.028363      0.524137
     10.56943     19.02497      9.00000        -0.000000      0.011641      0.519917
[...]
     19.02497      6.34166     11.11389        -0.004383      0.002523      0.338594
     16.91108      6.34166      9.00000        -0.015786      0.010948     -0.384679
     19.02497      4.22777      9.00000        -0.003970      0.003972     -0.381498
     16.91108      8.45554     11.11389        -0.016601      0.004065      0.324583
     19.02497     10.56943     11.11389        -0.006243      0.000000      0.334950
     16.91108     10.56943      9.00000        -0.026637      0.000000     -0.389016
     19.02497      8.45554      9.00000        -0.008424      0.002932     -0.383701
     16.91108     12.68331     11.11389        -0.016601     -0.004065      0.324583
     19.02497     14.79720     11.11389        -0.004383     -0.002523      0.338594
     16.91108     14.79720      9.00000        -0.015786     -0.010948     -0.384679
     19.02497     12.68331      9.00000        -0.008424     -0.002932     -0.383701
     16.91108     16.91108     11.11389        -0.006489     -0.006489      0.338044
     19.02497     19.02497     11.11389        -0.001657     -0.001657      0.342450
     16.91108     19.02497      9.00000        -0.003972     -0.003970     -0.381498
     19.02497     16.91108      9.00000        -0.003970     -0.003972     -0.381498
    total drift:                                0.000000     -0.000000      2.683833

  FREE ENERGIE OF THE ION-ELECTRON SYSTEM (eV)
  free  energy   TOTEN  =     -1589.62350922 eV

  energy  without entropy=    -1589.62350922  energy(sigma->0) =    -1589.62350922