 vasp.6.3.0 20Jan22 (build Apr  1 2022 16:44:48) complex
 executed on        HPECrayEX_GCC date 2022.12.11  15:37:57

 INCAR:
   SYSTEM = MgO-rocksalt
   ISMEAR = 0
   SIGMA = 0.05
   EDIFF = 1E-6
   ALGO = ALL
   ISTART = 0
   IBRION = -1
   NSW = 0
   ISYM = 2
   DIPOL = 0.5 0.5 0.5
   IDIPOL = 3
   LDIPOL = .TRUE.
   METAGGA = R2SCAN
   ENCUT = 520
   PREC = Accurate
   LASPH = .TRUE.
   LREAL = Auto
   ISPIN = 1
   NELM = 200
   NELMIN = 8
   NCORE = 4
   KPAR = 2
   LWAVE = .FALSE.
   LCHARG = .FALSE.

 POTCAR:    PAW_PBE Cu 22Jun2005
 POTCAR:    PAW_PBE Mg_pv 13Apr2007
 POTCAR:    PAW_PBE O 08Apr2002
 POTCAR:    PAW_PBE Cu 22Jun2005
   VRHFIN =Cu: d10 p1

   TITEL  = PAW_PBE Cu 22Jun2005
   POMASS =   63.546; ZVAL   =   11.000    mass and valenz
   ENMAX  =  295.446; ENMIN  =  221.585 eV

   TITEL  = PAW_PBE Mg_pv 13Apr2007
   POMASS =   24.305; ZVAL   =    8.000    mass and valenz
   ENMAX  =  403.929; ENMIN  =  302.947 eV

   TITEL  = PAW_PBE O 08Apr2002
   POMASS =   16.000; ZVAL   =    6.000    mass and valenz
   ENMAX  =  400.000; ENMIN  =  300.000 eV

 Optimization of the real space projectors (new method)

 maximal supplied QI-value         = 16.25
 optimisation between [QCUT,QGAM] = [ 11.54, 23.24] = [ 37.28,151.24] Ry
 Optimized for a Real-space Cutoff    1.53 Angstroem

   l    n(q)    QCUT    max X(q) W(low)/X(q) W(high)/X(q)  e(spline)
   2     10    11.539     4.610    0.96E-04    0.13E-03    0.19E-06
   2     10    11.539     8.522    0.16E-03    0.21E-03    0.28E-06
   0     11    11.539    51.609    0.45E-04    0.31E-04    0.11E-06
   0     11    11.539    27.747    0.39E-04    0.29E-04    0.10E-06
   1     10    11.539    20.408    0.70E-05    0.38E-04    0.18E-06
   1     10    11.539    13.425    0.66E-05    0.34E-04    0.17E-06
 Optimization of the real space projectors (new method)

[...]

   l    n(q)    QCUT    max X(q) W(low)/X(q) W(high)/X(q)  e(spline)
   1      8    11.527     2.974    0.44E-04    0.56E-04    0.12E-06
   1      8    11.527     4.279    0.12E-03    0.12E-03    0.26E-06
   0      9    11.527    16.381    0.46E-04    0.64E-04    0.78E-07
   0      9    11.527     5.611    0.26E-04    0.43E-04    0.55E-07
   2      8    11.527     4.652    0.22E-03    0.72E-04    0.47E-07
 Optimization of the real space projectors (new method)

 maximal supplied QI-value         = 24.76
 optimisation between [QCUT,QGAM] = [ 11.64, 23.27] = [ 37.91,151.63] Ry
 Optimized for a Real-space Cutoff    1.14 Angstroem

   l    n(q)    QCUT    max X(q) W(low)/X(q) W(high)/X(q)  e(spline)
   0      8    11.635    20.381    0.10E-03    0.33E-03    0.24E-06
   0      8    11.635    15.268    0.11E-03    0.35E-03    0.26E-06
   1      7    11.635     5.964    0.24E-03    0.31E-03    0.30E-06
   1      7    11.635     5.382    0.22E-03    0.25E-03    0.26E-06
  PAW_PBE Cu 22Jun2005                  :
  PAW_PBE Mg_pv 13Apr2007               :
  PAW_PBE O 08Apr2002                   :

 POSCAR: Cu Mg  O
  positions in direct lattice

 METAGGA = R2SCA    LMAXTAU =  6    LMIXTAU =  F

 ion  position               nearest neighbor table
   1  0.500  0.500  0.691-   2 2.22
   2  0.500  0.500  0.590- 152 1.94   1 2.22
   3  0.000  0.000  0.407- 105 2.11 106 2.11 121 2.11 186 2.11 103 2.11
   4  0.100  0.100  0.407- 105 2.11 106 2.11 110 2.11 125 2.11 104 2.11
   5  0.000  0.100  0.503- 103 2.11 104 2.11 107 2.11 184 2.11 105 2.11
   6  0.100  0.000  0.503- 103 2.11 104 2.11 120 2.11 123 2.11 106 2.11
   7  0.000  0.200  0.407- 109 2.11 105 2.11 110 2.11 190 2.11 107 2.11
   8  0.100  0.300  0.407- 110 2.11 109 2.11 114 2.11 129 2.11 108 2.11
   9  0.000  0.300  0.503- 107 2.11 108 2.11 111 2.11 188 2.11 109 2.11
  10  0.100  0.200  0.503- 108 2.11 107 2.11 104 2.11 127 2.11 110 2.11
  11  0.000  0.400  0.407- 109 2.11 113 2.11 114 2.11 194 2.11 111 2.11
  12  0.100  0.500  0.407- 113 2.11 114 2.11 118 2.11 133 2.11 112 2.11
  13  0.000  0.500  0.503- 111 2.11 112 2.11 115 2.11 192 2.11 113 2.11
  14  0.100  0.400  0.503- 108 2.11 111 2.11 112 2.11 131 2.11 114 2.11
  15  0.000  0.600  0.407- 113 2.11 117 2.11 118 2.11 198 2.11 115 2.11
  16  0.100  0.700  0.407- 122 2.11 118 2.11 117 2.11 137 2.11 116 2.11
  17  0.000  0.700  0.503- 119 2.11 116 2.11 115 2.11 196 2.11 117 2.11
  18  0.100  0.600  0.503- 112 2.11 115 2.11 116 2.11 135 2.11 118 2.11
  19  0.000  0.800  0.407- 117 2.11 121 2.11 122 2.11 202 2.11 119 2.11
  20  0.100  0.900  0.407- 106 2.11 121 2.11 122 2.11 141 2.11 120 2.11
  21  0.000  0.900  0.503- 103 2.11 119 2.11 120 2.11 200 2.11 121 2.11
  22  0.100  0.800  0.503- 116 2.11 119 2.11 120 2.11 139 2.11 122 2.11
  23  0.200  0.000  0.407- 126 2.11 125 2.11 106 2.11 141 2.11 123 2.11
  24  0.300  0.100  0.407- 125 2.11 126 2.11 130 2.11 145 2.11 124 2.11
  25  0.200  0.100  0.503- 124 2.11 123 2.11 104 2.11 127 2.11 125 2.11
  26  0.300  0.000  0.503- 123 2.11 124 2.11 140 2.11 143 2.11 126 2.11
  27  0.200  0.200  0.407- 129 2.11 130 2.11 110 2.11 125 2.11 127 2.11
  28  0.300  0.300  0.407- 129 2.11 130 2.11 134 2.11 149 2.11 128 2.11
  29  0.200  0.300  0.503- 127 2.11 128 2.11 108 2.11 131 2.11 129 2.11
  30  0.300  0.200  0.503- 127 2.11 128 2.11 124 2.11 147 2.11 130 2.11
  31  0.200  0.400  0.407- 134 2.11 129 2.11 133 2.11 114 2.11 131 2.11
  32  0.300  0.500  0.407- 133 2.11 134 2.11 138 2.11 153 2.11 132 2.11
  33  0.200  0.500  0.503- 132 2.11 131 2.11 112 2.11 135 2.11 133 2.11
  34  0.300  0.400  0.503- 131 2.11 128 2.11 132 2.11 151 2.11 134 2.11
  35  0.200  0.600  0.407- 138 2.11 133 2.11 137 2.11 118 2.11 135 2.11
  36  0.300  0.700  0.407- 137 2.11 142 2.11 138 2.11 157 2.11 136 2.11
  37  0.200  0.700  0.503- 136 2.11 139 2.11 116 2.11 135 2.11 137 2.11
  38  0.300  0.600  0.503- 135 2.11 132 2.11 136 2.11 155 2.11 138 2.11
  39  0.200  0.800  0.407- 137 2.11 142 2.11 141 2.11 122 2.11 139 2.11
  40  0.300  0.900  0.407- 141 2.11 126 2.11 142 2.11 161 2.11 140 2.11
  41  0.200  0.900  0.503- 140 2.11 123 2.11 139 2.11 120 2.11 141 2.11
  42  0.300  0.800  0.503- 136 2.11 139 2.11 140 2.11 159 2.11 142 2.11
  43  0.400  0.000  0.407- 126 2.11 145 2.11 146 2.11 161 2.11 143 2.11
  44  0.500  0.100  0.407- 145 2.11 146 2.11 150 2.11 165 2.11 144 2.11
  45  0.400  0.100  0.503- 124 2.11 143 2.11 144 2.11 147 2.11 145 2.11
  46  0.500  0.000  0.503- 143 2.11 144 2.11 160 2.11 163 2.11 146 2.11
  47  0.400  0.200  0.407- 149 2.11 145 2.11 130 2.11 150 2.11 147 2.11
  48  0.500  0.300  0.407- 150 2.11 149 2.11 154 2.11 169 2.11 148 2.11
  49  0.400  0.300  0.503- 147 2.11 128 2.11 148 2.11 151 2.11 149 2.11
  50  0.500  0.200  0.503- 148 2.11 147 2.11 144 2.11 167 2.11 150 2.11
  51  0.400  0.400  0.407- 134 2.11 149 2.11 153 2.11 154 2.11 151 2.11
  52  0.500  0.500  0.407- 153 2.11 154 2.11 158 2.11 173 2.11 152 2.11
  53  0.400  0.500  0.503- 132 2.11 151 2.11 152 2.11 155 2.11 153 2.11
  54  0.500  0.400  0.503- 148 2.11 151 2.11 152 2.11 171 2.11 154 2.11
  55  0.400  0.600  0.407- 138 2.11 153 2.11 157 2.11 158 2.11 155 2.11
  56  0.500  0.700  0.407- 162 2.11 158 2.11 157 2.11 177 2.11 156 2.11
  57  0.400  0.700  0.503- 159 2.11 155 2.11 156 2.11 136 2.11 157 2.11
  58  0.500  0.600  0.503- 152 2.11 155 2.11 156 2.11 175 2.11 158 2.11
  59  0.400  0.800  0.407- 157 2.11 142 2.11 161 2.11 162 2.11 159 2.11
  60  0.500  0.900  0.407- 146 2.11 161 2.11 162 2.11 181 2.11 160 2.11
[...]
 188  0.900  0.300  0.503-  90 2.11  89 2.11   9 2.11  94 2.11  88 2.11
 189  0.800  0.300  0.407-  68 2.11  87 2.11  88 2.11  91 2.11  89 2.11
 190  0.900  0.200  0.407-  88 2.11  84 2.11  87 2.11   7 2.11  90 2.11
 191  0.800  0.400  0.503-  74 2.11  89 2.11  93 2.11  94 2.11  91 2.11
 192  0.900  0.500  0.503-  13 2.11  93 2.11  94 2.11  98 2.11  92 2.11
 193  0.800  0.500  0.407-  72 2.11  91 2.11  92 2.11  95 2.11  93 2.11
 194  0.900  0.400  0.407-  11 2.11  88 2.11  91 2.11  92 2.11  94 2.11
 195  0.800  0.600  0.503-  78 2.11  93 2.11  97 2.11  98 2.11  95 2.11
 196  0.900  0.700  0.503- 102 2.11  97 2.11  98 2.11  17 2.11  96 2.11
 197  0.800  0.700  0.407-  76 2.11  99 2.11  96 2.11  95 2.11  97 2.11
 198  0.900  0.600  0.407-  15 2.11  92 2.11  95 2.11  96 2.11  98 2.11
 199  0.800  0.800  0.503-  82 2.11  97 2.11 101 2.11 102 2.11  99 2.11
 200  0.900  0.900  0.503-  21 2.11  86 2.11 101 2.11 102 2.11 100 2.11
 201  0.800  0.900  0.407-  80 2.11  83 2.11  99 2.11 100 2.11 101 2.11
 202  0.900  0.800  0.407-  96 2.11  19 2.11  99 2.11 100 2.11 102 2.11

  LATTYP: Found a simple tetragonal cell.
 ALAT       =    21.1388521970
 C/A-ratio  =     1.0461251639

  Lattice vectors:

 A1 = (  21.1388521970,   0.0000000000,   0.0000000000)
 A2 = (   0.0000000000,  21.1388521970,   0.0000000000)
 A3 = (   0.0000000000,   0.0000000000,  22.1138852197)

Analysis of symmetry for initial positions (statically):
 Subroutine PRICEL returns:
 Original cell was already a primitive cell.

 Routine SETGRP: Setting up the symmetry group for a
 simple tetragonal supercell.

 Subroutine GETGRP returns: Found  8 space group operations
 (whereof  8 operations were pure point group operations)
 out of a pool of 16 trial point group operations.

The static configuration has the point symmetry C_4v.

Analysis of symmetry for dynamics (positions and initial velocities):
 Subroutine PRICEL returns:
 Original cell was already a primitive cell.

 Routine SETGRP: Setting up the symmetry group for a
 simple tetragonal supercell.

 Subroutine GETGRP returns: Found  8 space group operations
 (whereof  8 operations were pure point group operations)
 out of a pool of 16 trial point group operations.

The dynamic configuration has the point symmetry C_4v.

 Subroutine INISYM returns: Found  8 space group operations
 (whereof  8 operations are pure point group operations),
 and found     1 'primitive' translations

                                     Primitive cell

  volume of cell :    9881.6133

  direct lattice vectors                    reciprocal lattice vectors
    21.138852197  0.000000000  0.000000000     0.047306258  0.000000000  0.000000000
     0.000000000 21.138852197  0.000000000     0.000000000  0.047306258  0.000000000
     0.000000000  0.000000000 22.113885220     0.000000000  0.000000000  0.045220457

  length of vectors
    21.138852197 21.138852197 22.113885220     0.047306258  0.047306258  0.045220457

  position of ions in fractional coordinates (direct lattice)
     0.500000000  0.500000000  0.690978901
     0.500000000  0.500000000  0.590413244
     0.000000000  0.000000000  0.406984115
     0.100000000  0.100000000  0.406984115
     0.000000000  0.100000000  0.502574971
     0.100000000  0.000000000  0.502574971
     0.000000000  0.200000000  0.406984115
     0.100000000  0.300000000  0.406984115
     0.000000000  0.300000000  0.502574971
     0.100000000  0.200000000  0.502574971
     0.000000000  0.400000000  0.406984115
     0.100000000  0.500000000  0.406984115
     0.000000000  0.500000000  0.502574971
     0.100000000  0.400000000  0.502574971
     0.000000000  0.600000000  0.406984115
     0.100000000  0.700000000  0.406984115
     0.000000000  0.700000000  0.502574971
     0.100000000  0.600000000  0.502574971
     0.000000000  0.800000000  0.406984115
[...]
     52     -44.4393      2.00000
     53     -44.4392      2.00000
     54     -44.4378      2.00000
     55     -44.4376      2.00000
     56     -44.4376      2.00000
     57     -44.4367      2.00000
     58     -44.4364      2.00000
     59     -44.4364      2.00000
     60     -44.4347      2.00000
[...]
    882       6.1880      0.00000
    883       6.2280      0.00000
    884       6.2294      0.00000
    885       6.2306      0.00000
    886       6.2320      0.00000
    887       6.2422      0.00000
    888       6.2426      0.00000
    889       6.2488      0.00000
    890       6.2607      0.00000
    891       6.2852      0.00000
    892       6.3269      0.00000
    893       6.3905      0.00000
    894       6.5656      0.00000
    895       6.6434      0.00000
    896       6.9349      0.00000

 soft charge-density along one line, spin component           1
         0         1         2         3         4         5         6         7         8         9
 total charge-density along one line

------------------------ aborting loop because EDIFF is reached ----------------------------------------

  FORCE on cell =-STRESS in cart. coord.  units (eV):
  Direction    XX          YY          ZZ          XY          YZ          ZX
  Alpha Z  1354.41543  1354.41543  1354.41543
  Ewald  477997.21262477997.21262************    -0.00000     0.00000    -0.00000
  Hartree507061.00335507061.00335************    -0.00000    -0.00000    -0.00000
  E(xc)   -8413.03058 -8413.03057 -8413.24099     0.00000     0.00001     0.00000
  Local  ************************************    -0.00000     0.00000     0.00000
  n-local -8726.73373 -8726.73389 -8853.47670    -0.00004     0.00004     0.00011
  augment  3891.04366  3891.04366  3825.68473    -0.00000    -0.00000    -0.00000
  Kinetic 22920.41633 22920.41648 23140.32834     0.00011     0.00019     0.00003
  Fock        0.00000     0.00000     0.00000     0.00000     0.00000     0.00000
  Total    -221.34889  -221.34889   -17.95182     0.00000     0.00000     0.00000
  in kB     -35.88889   -35.88889    -2.91066     0.00000     0.00000     0.00000

 VOLUME and BASIS-vectors are now :
  energy-cutoff  :      520.00
  volume of cell :     9881.61
      direct lattice vectors                 reciprocal lattice vectors
    21.138852197  0.000000000  0.000000000     0.047306258  0.000000000  0.000000000
     0.000000000 21.138852197  0.000000000     0.000000000  0.047306258  0.000000000
     0.000000000  0.000000000 22.113885220     0.000000000  0.000000000  0.045220457

  length of vectors
    21.138852197 21.138852197 22.113885220     0.047306258  0.047306258  0.045220457

 FORCES acting on ions:
    Electron-Ion                     Ewald-Force                    Non-Local-Force
   -.673E-12 -.555E-11 -.201E+04   0.322E-13 0.284E-13 0.200E+04   -.339E-20 0.000E+00 0.153E+02
   -.426E-12 -.430E-11 -.192E+04   -.568E-13 -.426E-13 0.193E+04   0.000E+00 0.000E+00 -.763E+01
   0.124E-12 -.323E-13 0.931E+03   0.764E-13 0.213E-12 -.923E+03   0.000E+00 0.000E+00 -.754E+01
   0.383E+01 0.383E+01 0.932E+03   -.383E+01 -.383E+01 -.924E+03   0.707E-02 0.707E-02 -.754E+01
   0.130E-12 0.402E+01 -.923E+03   0.103E-12 -.402E+01 0.915E+03   0.529E-22 0.276E-02 0.755E+01
   0.402E+01 -.274E-12 -.923E+03   -.402E+01 0.107E-12 0.915E+03   0.276E-02 0.000E+00 0.755E+01
   0.131E-12 0.557E+01 0.932E+03   0.153E-10 -.558E+01 -.924E+03   0.000E+00 0.788E-02 -.755E+01
   0.767E+01 0.709E+01 0.935E+03   -.770E+01 -.711E+01 -.927E+03   0.268E-01 0.119E-01 -.755E+01
   0.127E-12 0.729E+01 -.921E+03   0.181E-11 -.730E+01 0.913E+03   -.265E-21 0.395E-02 0.755E+01
   0.701E+01 0.831E+01 -.921E+03   -.703E+01 -.831E+01 0.913E+03   0.899E-02 0.589E-02 0.755E+01
   0.129E-12 0.379E+01 0.935E+03   -.174E-10 -.379E+01 -.927E+03   0.000E+00 0.483E-02 -.755E+01
   0.110E+02 -.117E-11 0.938E+03   -.110E+02 0.228E-12 -.930E+03   0.445E-01 -.119E-21 -.756E+01
   0.117E-12 0.117E-11 -.919E+03   0.120E-12 0.126E-12 0.911E+03   0.529E-22 0.000E+00 0.755E+01
   0.144E+02 0.623E+01 -.918E+03   -.144E+02 -.623E+01 0.910E+03   0.177E-01 0.297E-02 0.754E+01
   0.131E-12 -.379E+01 0.935E+03   0.116E-11 0.379E+01 -.927E+03   0.000E+00 -.483E-02 -.755E+01
   0.767E+01 -.709E+01 0.935E+03   -.770E+01 0.711E+01 -.927E+03   0.268E-01 -.119E-01 -.755E+01
   0.116E-12 -.729E+01 -.921E+03   -.785E-12 0.730E+01 0.913E+03   -.318E-21 -.395E-02 0.755E+01
   0.144E+02 -.623E+01 -.918E+03   -.144E+02 0.623E+01 0.910E+03   0.177E-01 -.297E-02 0.754E+01
   0.127E-12 -.557E+01 0.932E+03   0.853E-12 0.558E+01 -.924E+03   0.212E-21 -.788E-02 -.755E+01
   0.383E+01 -.383E+01 0.932E+03   -.383E+01 0.383E+01 -.924E+03   0.707E-02 -.707E-02 -.754E+01
   0.133E-12 -.402E+01 -.923E+03   -.867E-12 0.402E+01 0.915E+03   0.212E-21 -.276E-02 0.755E+01
   0.701E+01 -.831E+01 -.921E+03   -.703E+01 0.831E+01 0.913E+03   0.899E-02 -.589E-02 0.755E+01
   0.557E+01 0.688E-12 0.932E+03   -.558E+01 0.101E-12 -.924E+03   0.788E-02 0.000E+00 -.755E+01
   0.709E+01 0.767E+01 0.935E+03   -.711E+01 -.770E+01 -.927E+03   0.119E-01 0.268E-01 -.755E+01
   0.831E+01 0.701E+01 -.921E+03   -.831E+01 -.703E+01 0.913E+03   0.589E-02 0.899E-02 0.755E+01
   0.729E+01 0.645E-12 -.921E+03   -.730E+01 0.941E-13 0.913E+03   0.395E-02 0.212E-21 0.755E+01
   0.962E+01 0.962E+01 0.936E+03   -.966E+01 -.966E+01 -.928E+03   0.270E-01 0.270E-01 -.755E+01
   0.188E+02 0.188E+02 0.948E+03   -.189E+02 -.189E+02 -.940E+03   0.934E-01 0.934E-01 -.757E+01
   0.216E+02 0.160E+02 -.915E+03   -.217E+02 -.161E+02 0.907E+03   0.405E-01 0.996E-02 0.753E+01
   0.160E+02 0.216E+02 -.915E+03   -.161E+02 -.217E+02 0.907E+03   0.996E-02 0.405E-01 0.753E+01
   0.202E+02 0.789E+01 0.944E+03   -.204E+02 -.792E+01 -.936E+03   0.113E+00 0.202E-01 -.758E+01
   0.343E+02 -.194E-11 0.966E+03   -.348E+02 0.218E-12 -.958E+03   0.409E+00 0.000E+00 -.769E+01
   0.375E+02 -.193E-11 -.908E+03   -.376E+02 0.107E-13 0.900E+03   0.586E-01 -.318E-21 0.752E+01
   0.565E+02 0.289E+02 -.889E+03   -.568E+02 -.289E+02 0.881E+03   0.242E+00 -.555E-04 0.746E+01
   0.202E+02 -.789E+01 0.944E+03   -.204E+02 0.792E+01 -.936E+03   0.113E+00 -.202E-01 -.758E+01
   0.188E+02 -.188E+02 0.948E+03   -.189E+02 0.189E+02 -.940E+03   0.934E-01 -.934E-01 -.757E+01
   0.216E+02 -.160E+02 -.915E+03   -.217E+02 0.161E+02 0.907E+03   0.405E-01 -.996E-02 0.753E+01
   0.565E+02 -.289E+02 -.889E+03   -.568E+02 0.289E+02 0.881E+03   0.242E+00 0.555E-04 0.746E+01
   0.962E+01 -.962E+01 0.936E+03   -.966E+01 0.966E+01 -.928E+03   0.270E-01 -.270E-01 -.755E+01
   0.709E+01 -.767E+01 0.935E+03   -.711E+01 0.770E+01 -.927E+03   0.119E-01 -.268E-01 -.755E+01
   0.831E+01 -.701E+01 -.921E+03   -.831E+01 0.703E+01 0.913E+03   0.589E-02 -.899E-02 0.755E+01
   0.160E+02 -.216E+02 -.915E+03   -.161E+02 0.217E+02 0.907E+03   0.996E-02 -.405E-01 0.753E+01
   0.379E+01 0.425E-12 0.935E+03   -.379E+01 0.449E-13 -.927E+03   0.483E-02 0.000E+00 -.755E+01
   -.246E-12 0.110E+02 0.938E+03   0.387E-11 -.110E+02 -.930E+03   0.000E+00 0.445E-01 -.756E+01
   0.623E+01 0.144E+02 -.918E+03   -.623E+01 -.144E+02 0.910E+03   0.297E-02 0.177E-01 0.754E+01
   -.254E-12 0.336E-11 -.919E+03   0.622E-14 0.933E-13 0.911E+03   0.000E+00 0.000E+00 0.755E+01
   0.789E+01 0.202E+02 0.944E+03   -.792E+01 -.204E+02 -.936E+03   0.202E-01 0.113E+00 -.758E+01
   -.245E-12 0.343E+02 0.966E+03   -.579E-11 -.348E+02 -.958E+03   0.318E-21 0.409E+00 -.769E+01
   0.289E+02 0.565E+02 -.889E+03   -.289E+02 -.568E+02 0.881E+03   -.555E-04 0.242E+00 0.746E+01
   -.259E-12 0.375E+02 -.908E+03   -.193E-10 -.376E+02 0.900E+03   0.212E-21 0.586E-01 0.752E+01
   0.267E+02 0.267E+02 0.985E+03   -.271E+02 -.271E+02 -.977E+03   0.294E+00 0.294E+00 -.756E+01
   -.246E-12 0.250E-11 0.103E+04   -.104E-12 0.214E-12 -.102E+04   -.463E-22 0.000E+00 -.492E+01
   0.134E+03 0.149E-10 -.773E+03   -.137E+03 0.933E-14 0.766E+03   0.238E+01 0.000E+00 0.691E+01
   -.255E-12 0.134E+03 -.773E+03   0.215E-10 -.137E+03 0.766E+03   -.106E-21 0.238E+01 0.691E+01
   0.267E+02 -.267E+02 0.985E+03   -.271E+02 0.271E+02 -.977E+03   0.294E+00 -.294E+00 -.756E+01
   -.247E-12 -.343E+02 0.966E+03   -.183E-10 0.348E+02 -.958E+03   0.212E-21 -.409E+00 -.769E+01
   0.289E+02 -.565E+02 -.889E+03   -.289E+02 0.568E+02 0.881E+03   -.555E-04 -.242E+00 0.746E+01
   -.254E-12 -.134E+03 -.773E+03   0.183E-10 0.137E+03 0.766E+03   0.000E+00 -.238E+01 0.691E+01
   0.789E+01 -.202E+02 0.944E+03   -.792E+01 0.204E+02 -.936E+03   0.202E-01 -.113E+00 -.758E+01
   -.238E-12 -.110E+02 0.938E+03   0.203E-10 0.110E+02 -.930E+03   0.106E-21 -.445E-01 -.756E+01
[...]
   -.110E+02 0.836E+01 0.706E+03   0.111E+02 -.839E+01 -.710E+03   -.594E-01 0.412E-01 0.342E+01
   -.402E+01 0.492E+01 0.701E+03   0.403E+01 -.493E+01 -.705E+03   -.147E-01 0.146E-01 0.343E+01
   -.241E+02 0.904E+01 -.684E+03   0.242E+02 -.905E+01 0.688E+03   -.558E-01 0.107E-01 -.357E+01
   -.121E+02 -.432E-11 -.689E+03   0.121E+02 0.103E-10 0.693E+03   -.212E-01 -.794E-22 -.353E+01
   -.172E+02 0.379E-11 0.711E+03   0.173E+02 -.169E-11 -.715E+03   -.979E-01 -.424E-21 0.339E+01
   -.750E+01 0.352E+01 0.704E+03   0.752E+01 -.352E+01 -.708E+03   -.308E-01 0.104E-01 0.342E+01
   -.241E+02 -.904E+01 -.684E+03   0.242E+02 0.905E+01 0.688E+03   -.558E-01 -.107E-01 -.357E+01
   -.796E+01 -.690E+01 -.691E+03   0.797E+01 0.691E+01 0.695E+03   -.152E-01 -.827E-02 -.351E+01
   -.110E+02 -.836E+01 0.706E+03   0.111E+02 0.839E+01 -.710E+03   -.594E-01 -.412E-01 0.342E+01
   -.750E+01 -.352E+01 0.704E+03   0.752E+01 0.352E+01 -.708E+03   -.308E-01 -.104E-01 0.342E+01
   -.981E+01 -.981E+01 -.691E+03   0.982E+01 0.982E+01 0.695E+03   -.228E-01 -.228E-01 -.352E+01
   -.357E+01 -.357E+01 -.694E+03   0.357E+01 0.357E+01 0.697E+03   -.585E-02 -.585E-02 -.350E+01
   -.492E+01 -.402E+01 0.701E+03   0.493E+01 0.403E+01 -.705E+03   -.146E-01 -.147E-01 0.343E+01
   -.402E+01 -.492E+01 0.701E+03   0.403E+01 0.493E+01 -.705E+03   -.147E-01 -.146E-01 0.343E+01
   0.130E-10 -.380E-10 -.575E+01   0.181E-11 0.597E-12 0.171E-10   0.139E-16 0.203E-15 0.852E+01

 POSITION                                       TOTAL-FORCE (eV/Angst)
     10.56943     10.56943     15.28023         0.000000     -0.000000     -0.222259
     10.56943     10.56943     13.05633         0.000000     -0.000000      0.022185
      0.00000      0.00000      9.00000         0.000000     -0.000000      0.523118
      2.11389      2.11389      9.00000        -0.001957     -0.001957      0.523532
      0.00000      2.11389     11.11389         0.000000     -0.000720     -0.483986
      2.11389      0.00000     11.11389        -0.000720     -0.000000     -0.483986
      0.00000      4.22777      9.00000         0.000000     -0.002196      0.523934
      2.11389      6.34166      9.00000        -0.007300     -0.003431      0.525612
      0.00000      6.34166     11.11389         0.000000     -0.001072     -0.481642
      2.11389      4.22777     11.11389        -0.002367     -0.001590     -0.482037
      0.00000      8.45554      9.00000         0.000000     -0.001407      0.525382
      2.11389     10.56943      9.00000        -0.012045     -0.000000      0.527352
      0.00000     10.56943     11.11389         0.000000     -0.000000     -0.480104
      2.11389      8.45554     11.11389        -0.004171     -0.000780     -0.477626
      0.00000     12.68331      9.00000         0.000000      0.001407      0.525382
      2.11389     14.79720      9.00000        -0.007300      0.003431      0.525612
      0.00000     14.79720     11.11389         0.000000      0.001072     -0.481642
      2.11389     12.68331     11.11389        -0.004171      0.000780     -0.477626
      0.00000     16.91108      9.00000         0.000000      0.002196      0.523934
      2.11389     19.02497      9.00000        -0.001957      0.001957      0.523532
      0.00000     19.02497     11.11389         0.000000      0.000720     -0.483986
      2.11389     16.91108     11.11389        -0.002367      0.001590     -0.482037
      4.22777      0.00000      9.00000        -0.002196     -0.000000      0.523934
      6.34166      2.11389      9.00000        -0.003431     -0.007300      0.525612
      4.22777      2.11389     11.11389        -0.001590     -0.002367     -0.482037
      6.34166      0.00000     11.11389        -0.001072     -0.000000     -0.481642
      4.22777      4.22777      9.00000        -0.007629     -0.007629      0.525471
      6.34166      6.34166      9.00000        -0.027431     -0.027431      0.530200
      4.22777      6.34166     11.11389        -0.010048     -0.002690     -0.473043
      6.34166      4.22777     11.11389        -0.002690     -0.010048     -0.473043
      4.22777      8.45554      9.00000        -0.030470     -0.006016      0.532582
      6.34166     10.56943      9.00000        -0.105363     -0.000000      0.553151
      4.22777     10.56943     11.11389        -0.012201     -0.000000     -0.461679
      6.34166      8.45554     11.11389        -0.057029      0.003405     -0.422469
      4.22777     12.68331      9.00000        -0.030470      0.006016      0.532582
      6.34166     14.79720      9.00000        -0.027431      0.027431      0.530200
      4.22777     14.79720     11.11389        -0.010048      0.002690     -0.473043
      6.34166     12.68331     11.11389        -0.057029     -0.003405     -0.422469
      4.22777     16.91108      9.00000        -0.007629      0.007629      0.525471
      6.34166     19.02497      9.00000        -0.003431      0.007300      0.525612
      4.22777     19.02497     11.11389        -0.001590      0.002367     -0.482037
      6.34166     16.91108     11.11389        -0.002690      0.010048     -0.473043
      8.45554      0.00000      9.00000        -0.001407     -0.000000      0.525382
     10.56943      2.11389      9.00000         0.000000     -0.012045      0.527352
      8.45554      2.11389     11.11389        -0.000780     -0.004171     -0.477626
     10.56943      0.00000     11.11389         0.000000     -0.000000     -0.480104
      8.45554      4.22777      9.00000        -0.006016     -0.030470      0.532582
     10.56943      6.34166      9.00000         0.000000     -0.105363      0.553151
      8.45554      6.34166     11.11389         0.003405     -0.057029     -0.422469
     10.56943      4.22777     11.11389         0.000000     -0.012201     -0.461679
      8.45554      8.45554      9.00000        -0.099585     -0.099585      0.501533
     10.56943     10.56943      9.00000         0.000000     -0.000000     -0.077054
      8.45554     10.56943     11.11389        -0.885105     -0.000000     -0.404830
     10.56943      8.45554     11.11389         0.000000     -0.885105     -0.404830
      8.45554     12.68331      9.00000        -0.099585      0.099585      0.501533
     10.56943     14.79720      9.00000         0.000000      0.105363      0.553151
      8.45554     14.79720     11.11389         0.003405      0.057029     -0.422469
     10.56943     12.68331     11.11389         0.000000      0.885105     -0.404830
      8.45554     16.91108      9.00000        -0.006016      0.030470      0.532582
     10.56943     19.02497      9.00000         0.000000      0.012045      0.527352
[...]
     19.02497      6.34166     11.11389        -0.004154      0.002286      0.337574
     16.91108      6.34166      9.00000        -0.016363      0.011349     -0.386157
     19.02497      4.22777      9.00000        -0.004019      0.003981     -0.382326
     16.91108      8.45554     11.11389        -0.015571      0.003051      0.322099
     19.02497     10.56943     11.11389        -0.005859     -0.000000      0.333743
     16.91108     10.56943      9.00000        -0.027216     -0.000000     -0.392300
     19.02497      8.45554      9.00000        -0.008458      0.002866     -0.384830
     16.91108     12.68331     11.11389        -0.015571     -0.003051      0.322099
     19.02497     14.79720     11.11389        -0.004154     -0.002286      0.337574
     16.91108     14.79720      9.00000        -0.016363     -0.011349     -0.386157
     19.02497     12.68331      9.00000        -0.008458     -0.002866     -0.384830
     16.91108     16.91108     11.11389        -0.006256     -0.006256      0.336954
     19.02497     19.02497     11.11389        -0.001609     -0.001609      0.341565
     16.91108     19.02497      9.00000        -0.003981     -0.004019     -0.382326
     19.02497     16.91108      9.00000        -0.004019     -0.003981     -0.382326
    total drift:                                0.000000     -0.000000      2.773314

  FREE ENERGIE OF THE ION-ELECTRON SYSTEM (eV)
  free  energy   TOTEN  =     -1567.70140439 eV

  energy  without entropy=    -1567.70140439  energy(sigma->0) =    -1567.70140439