 vasp.6.4.0 14Feb23 (build Jul 14 2023 13:46:40) complex

 executed on             LinuxIFC date 2023.07.30  06:38:34

 INCAR:
   SYSTEM = MgO-rocksalt
   ISMEAR = 0
   SIGMA = 0.05
   EDIFF = 1E-6
   ALGO = ALL
   ISTART = 0
   IBRION = -1
   NSW = 0
   ISYM = 2
   DIPOL = 0.5 0.5 0.5
   IDIPOL = 3
   LDIPOL = .TRUE.
   METAGGA = R2SCAN
   LUSE_VDW = .TRUE.
   BPARAM = 11.95
   CPARAM = 0.0093
   ENCUT = 520
   PREC = Accurate
   LASPH = .TRUE.
   LREAL = Auto
   ISPIN = 1
   NELM = 200
   NELMIN = 8
   NCORE = 16
   KPAR = 1
   LWAVE = .FALSE.
   LCHARG = .FALSE.

 POTCAR:    PAW_PBE Ag 02Apr2005
 POTCAR:    PAW_PBE Mg_pv 13Apr2007
 POTCAR:    PAW_PBE O 08Apr2002
|               ----> ADVICE to this user running VASP <----                  |
|     You have switched on vdW-DFT.                                           |
|     This routine was written and supplied by Jiri Klimes. We recommend      |
|     that you carefully read and cite the following publications:            |
|       J. Klimes, D.R. Bowler, A. Michelides                                 |
|          J. Phys.: Cond Matt. 22 022201 (2010)                              |
|       J. Klimes, D.R. Bowler, A. Michelides                                 |
|          Phys. Rev. B. 83, 195131 (2011)                                    |
|     and references therein.                                                 |

   TITEL  = PAW_PBE Ag 02Apr2005
   POMASS =  107.868; ZVAL   =   11.000    mass and valenz
   ENMAX  =  249.844; ENMIN  =  187.383 eV

   TITEL  = PAW_PBE Mg_pv 13Apr2007
   POMASS =   24.305; ZVAL   =    8.000    mass and valenz
   ENMAX  =  403.929; ENMIN  =  302.947 eV

   TITEL  = PAW_PBE O 08Apr2002
   POMASS =   16.000; ZVAL   =    6.000    mass and valenz
   ENMAX  =  400.000; ENMIN  =  300.000 eV

 Optimization of the real space projectors (new method)

 maximal supplied QI-value         = 15.12
 optimisation between [QCUT,QGAM] = [ 11.64, 23.28] = [ 37.95,151.78] Ry
 Optimized for a Real-space Cutoff    1.45 Angstroem

   l    n(q)    QCUT    max X(q) W(low)/X(q) W(high)/X(q)  e(spline)
   2      9    11.641    53.897    0.22E-03    0.42E-04    0.28E-06
   2      9    11.641    52.416    0.23E-03    0.44E-04    0.29E-06
   0     10    11.641   122.045    0.51E-04    0.25E-04    0.16E-06
   0     10    11.641    73.629    0.49E-04    0.24E-04    0.16E-06
   1     10    11.641    15.255    0.99E-04    0.55E-04    0.11E-06
   1     10    11.641     9.562    0.81E-04    0.47E-04    0.95E-07
 Optimization of the real space projectors (new method)

[...]

   l    n(q)    QCUT    max X(q) W(low)/X(q) W(high)/X(q)  e(spline)
   1      8    11.527     2.974    0.44E-04    0.56E-04    0.12E-06
   1      8    11.527     4.279    0.12E-03    0.12E-03    0.26E-06
   0      9    11.527    16.381    0.46E-04    0.64E-04    0.78E-07
   0      9    11.527     5.611    0.26E-04    0.43E-04    0.55E-07
   2      8    11.527     4.652    0.22E-03    0.72E-04    0.47E-07
 Optimization of the real space projectors (new method)

 maximal supplied QI-value         = 24.76
 optimisation between [QCUT,QGAM] = [ 11.64, 23.27] = [ 37.91,151.63] Ry
 Optimized for a Real-space Cutoff    1.14 Angstroem

   l    n(q)    QCUT    max X(q) W(low)/X(q) W(high)/X(q)  e(spline)
   0      8    11.635    20.381    0.10E-03    0.33E-03    0.24E-06
   0      8    11.635    15.268    0.11E-03    0.35E-03    0.26E-06
   1      7    11.635     5.964    0.24E-03    0.31E-03    0.30E-06
   1      7    11.635     5.382    0.22E-03    0.25E-03    0.26E-06
  PAW_PBE Ag 02Apr2005                  :
  PAW_PBE Mg_pv 13Apr2007               :
  PAW_PBE O 08Apr2002                   :

 POSCAR: Ag Mg  O
  positions in direct lattice

 METAGGA = R2SCAN                                      LMAXTAU =  6    LMIXTAU =  F

 ion  position               nearest neighbor table
   1  0.543  0.557  0.623-   2 2.59  58 2.97
   2  0.457  0.643  0.623-   1 2.59  58 2.97
   3  0.000  0.000  0.407- 105 2.11 106 2.11 121 2.11 186 2.11 103 2.11
   4  0.100  0.100  0.407- 105 2.11 106 2.11 110 2.11 125 2.11 104 2.11
   5  0.000  0.100  0.503- 103 2.11 104 2.11 107 2.11 184 2.11 105 2.11
   6  0.100  0.000  0.503- 103 2.11 104 2.11 120 2.11 123 2.11 106 2.11
   7  0.000  0.200  0.407- 109 2.11 105 2.11 110 2.11 190 2.11 107 2.11
   8  0.100  0.300  0.407- 110 2.11 109 2.11 114 2.11 129 2.11 108 2.11
   9  0.000  0.300  0.503- 107 2.11 108 2.11 111 2.11 188 2.11 109 2.11
  10  0.100  0.200  0.503- 108 2.11 107 2.11 104 2.11 127 2.11 110 2.11
  11  0.000  0.400  0.407- 109 2.11 113 2.11 114 2.11 194 2.11 111 2.11
  12  0.100  0.500  0.407- 113 2.11 114 2.11 118 2.11 133 2.11 112 2.11
  13  0.000  0.500  0.503- 111 2.11 112 2.11 115 2.11 192 2.11 113 2.11
  14  0.100  0.400  0.503- 108 2.11 111 2.11 112 2.11 131 2.11 114 2.11
  15  0.000  0.600  0.407- 113 2.11 117 2.11 118 2.11 198 2.11 115 2.11
  16  0.100  0.700  0.407- 122 2.11 118 2.11 117 2.11 137 2.11 116 2.11
  17  0.000  0.700  0.503- 119 2.11 116 2.11 115 2.11 196 2.11 117 2.11
  18  0.100  0.600  0.503- 112 2.11 115 2.11 116 2.11 135 2.11 118 2.11
  19  0.000  0.800  0.407- 117 2.11 121 2.11 122 2.11 202 2.11 119 2.11
  20  0.100  0.900  0.407- 106 2.11 121 2.11 122 2.11 141 2.11 120 2.11
  21  0.000  0.900  0.503- 103 2.11 119 2.11 120 2.11 200 2.11 121 2.11
  22  0.100  0.800  0.503- 116 2.11 119 2.11 120 2.11 139 2.11 122 2.11
  23  0.200  0.000  0.407- 126 2.11 125 2.11 106 2.11 141 2.11 123 2.11
  24  0.300  0.100  0.407- 125 2.11 126 2.11 130 2.11 145 2.11 124 2.11
  25  0.200  0.100  0.503- 124 2.11 123 2.11 104 2.11 127 2.11 125 2.11
  26  0.300  0.000  0.503- 123 2.11 124 2.11 140 2.11 143 2.11 126 2.11
  27  0.200  0.200  0.407- 129 2.11 130 2.11 110 2.11 125 2.11 127 2.11
  28  0.300  0.300  0.407- 129 2.11 130 2.11 134 2.11 149 2.11 128 2.11
  29  0.200  0.300  0.503- 127 2.11 128 2.11 108 2.11 131 2.11 129 2.11
  30  0.300  0.200  0.503- 127 2.11 128 2.11 124 2.11 147 2.11 130 2.11
  31  0.200  0.400  0.407- 134 2.11 129 2.11 133 2.11 114 2.11 131 2.11
  32  0.300  0.500  0.407- 133 2.11 134 2.11 138 2.11 153 2.11 132 2.11
  33  0.200  0.500  0.503- 132 2.11 131 2.11 112 2.11 135 2.11 133 2.11
  34  0.300  0.400  0.503- 131 2.11 128 2.11 132 2.11 151 2.11 134 2.11
  35  0.200  0.600  0.407- 138 2.11 133 2.11 137 2.11 118 2.11 135 2.11
  36  0.300  0.700  0.407- 137 2.11 142 2.11 138 2.11 157 2.11 136 2.11
  37  0.200  0.700  0.503- 136 2.11 139 2.11 116 2.11 135 2.11 137 2.11
  38  0.300  0.600  0.503- 135 2.11 132 2.11 136 2.11 155 2.11 138 2.11
  39  0.200  0.800  0.407- 137 2.11 142 2.11 141 2.11 122 2.11 139 2.11
  40  0.300  0.900  0.407- 141 2.11 126 2.11 142 2.11 161 2.11 140 2.11
  41  0.200  0.900  0.503- 140 2.11 123 2.11 139 2.11 120 2.11 141 2.11
  42  0.300  0.800  0.503- 136 2.11 139 2.11 140 2.11 159 2.11 142 2.11
  43  0.400  0.000  0.407- 126 2.11 145 2.11 146 2.11 161 2.11 143 2.11
  44  0.500  0.100  0.407- 145 2.11 146 2.11 150 2.11 165 2.11 144 2.11
  45  0.400  0.100  0.503- 124 2.11 143 2.11 144 2.11 147 2.11 145 2.11
  46  0.500  0.000  0.503- 143 2.11 144 2.11 160 2.11 163 2.11 146 2.11
  47  0.400  0.200  0.407- 149 2.11 145 2.11 130 2.11 150 2.11 147 2.11
  48  0.500  0.300  0.407- 150 2.11 149 2.11 154 2.11 169 2.11 148 2.11
  49  0.400  0.300  0.503- 147 2.11 128 2.11 148 2.11 151 2.11 149 2.11
  50  0.500  0.200  0.503- 148 2.11 147 2.11 144 2.11 167 2.11 150 2.11
  51  0.400  0.400  0.407- 134 2.11 149 2.11 153 2.11 154 2.11 151 2.11
  52  0.500  0.500  0.407- 153 2.11 154 2.11 158 2.11 173 2.11 152 2.11
  53  0.400  0.500  0.503- 132 2.11 151 2.11 152 2.11 155 2.11 153 2.11
  54  0.500  0.400  0.503- 148 2.11 151 2.11 152 2.11 171 2.11 154 2.11
  55  0.400  0.600  0.407- 138 2.11 153 2.11 157 2.11 158 2.11 155 2.11
  56  0.500  0.700  0.407- 162 2.11 158 2.11 157 2.11 177 2.11 156 2.11
  57  0.400  0.700  0.503- 159 2.11 155 2.11 156 2.11 136 2.11 157 2.11
  58  0.500  0.600  0.503- 152 2.11 155 2.11 156 2.11 175 2.11 158 2.11   2 2.97   1 2.97
  59  0.400  0.800  0.407- 157 2.11 142 2.11 161 2.11 162 2.11 159 2.11
  60  0.500  0.900  0.407- 146 2.11 161 2.11 162 2.11 181 2.11 160 2.11
[...]
 188  0.900  0.300  0.503-  90 2.11  89 2.11   9 2.11  94 2.11  88 2.11
 189  0.800  0.300  0.407-  68 2.11  87 2.11  88 2.11  91 2.11  89 2.11
 190  0.900  0.200  0.407-  88 2.11  84 2.11  87 2.11   7 2.11  90 2.11
 191  0.800  0.400  0.503-  74 2.11  89 2.11  93 2.11  94 2.11  91 2.11
 192  0.900  0.500  0.503-  13 2.11  93 2.11  94 2.11  98 2.11  92 2.11
 193  0.800  0.500  0.407-  72 2.11  91 2.11  92 2.11  95 2.11  93 2.11
 194  0.900  0.400  0.407-  11 2.11  88 2.11  91 2.11  92 2.11  94 2.11
 195  0.800  0.600  0.503-  78 2.11  93 2.11  97 2.11  98 2.11  95 2.11
 196  0.900  0.700  0.503- 102 2.11  97 2.11  98 2.11  17 2.11  96 2.11
 197  0.800  0.700  0.407-  76 2.11  99 2.11  96 2.11  95 2.11  97 2.11
 198  0.900  0.600  0.407-  15 2.11  92 2.11  95 2.11  96 2.11  98 2.11
 199  0.800  0.800  0.503-  82 2.11  97 2.11 101 2.11 102 2.11  99 2.11
 200  0.900  0.900  0.503-  21 2.11  86 2.11 101 2.11 102 2.11 100 2.11
 201  0.800  0.900  0.407-  80 2.11  83 2.11  99 2.11 100 2.11 101 2.11
 202  0.900  0.800  0.407-  96 2.11  19 2.11  99 2.11 100 2.11 102 2.11

  LATTYP: Found a simple tetragonal cell.
 ALAT       =    21.1388521970
 C/A-ratio  =     1.0461251639

  Lattice vectors:

 A1 = (  21.1388521970,   0.0000000000,   0.0000000000)
 A2 = (   0.0000000000,  21.1388521970,   0.0000000000)
 A3 = (   0.0000000000,   0.0000000000,  22.1138852197)

Analysis of symmetry for initial positions (statically):
 Subroutine PRICEL returns:
 Original cell was already a primitive cell.

 Routine SETGRP: Setting up the symmetry group for a
 simple tetragonal supercell.

 Subroutine GETGRP returns: Found  4 space group operations
 (whereof  1 operations were pure point group operations)
 out of a pool of 16 trial point group operations.

The static configuration has the point symmetry C_1 .
 The point group associated with its full space group is C_2v.

Analysis of symmetry for dynamics (positions and initial velocities):
 Subroutine PRICEL returns:
 Original cell was already a primitive cell.

 Routine SETGRP: Setting up the symmetry group for a
 simple tetragonal supercell.

 Subroutine GETGRP returns: Found  4 space group operations
 (whereof  1 operations were pure point group operations)
 out of a pool of 16 trial point group operations.

The dynamic configuration has the point symmetry C_1 .
 The point group associated with its full space group is C_2v.

 Subroutine INISYM returns: Found  4 space group operations
 (whereof  1 operations are pure point group operations),
 and found     1 'primitive' translations

                                     Primitive cell

  volume of cell :    9881.6133

  direct lattice vectors                    reciprocal lattice vectors
    21.138852197  0.000000000  0.000000000     0.047306258  0.000000000  0.000000000
     0.000000000 21.138852197  0.000000000     0.000000000  0.047306258  0.000000000
     0.000000000  0.000000000 22.113885220     0.000000000  0.000000000  0.045220457

  length of vectors
[...]
     52     -44.3872      2.00000
     53     -44.3868      2.00000
     54     -44.3866      2.00000
     55     -44.3861      2.00000
     56     -44.3857      2.00000
     57     -44.3850      2.00000
     58     -44.3848      2.00000
     59     -44.3848      2.00000
     60     -44.3839      2.00000
[...]
    850       4.7780      0.00000
    851       4.7986      0.00000
    852       4.8437      0.00000
    853       4.8483      0.00000
    854       4.8533      0.00000
    855       4.8542      0.00000
    856       4.8622      0.00000
    857       4.9622      0.00000
    858       5.0666      0.00000
    859       5.0898      0.00000
    860       5.1067      0.00000
    861       5.1109      0.00000
    862       5.2500      0.00000
    863       5.3647      0.00000
    864       5.6001      0.00000

 soft charge-density along one line, spin component           1
         0         1         2         3         4         5         6         7         8         9
 total charge-density along one line

------------------------ aborting loop because EDIFF is reached ----------------------------------------

  FORCE on cell =-STRESS in cart. coord.  units (eV):
  Direction    XX          YY          ZZ          XY          YZ          ZX
  Alpha Z  1357.53553  1357.53553  1357.53553
  Ewald  479540.84319479540.84319************  -342.47633     0.00001    -0.00001
  Hartree508345.32397508345.32397************  -246.76757     0.00000    -0.00002
  E(xc)   -8397.01722 -8397.01722 -8388.16007    -0.09694     0.00000    -0.00000
  Local  ************************************   583.64853    -0.00001     0.00003
  n-local -8704.72818 -8704.72816 -8827.10981     0.87458     0.00000    -0.00000
  augment  3882.54858  3882.54854  3824.55222     1.22842     0.00000    -0.00000
  Kinetic 23005.38158 23005.38157 23230.90891     3.27959     0.00002    -0.00000
  Fock        0.00000     0.00000     0.00000     0.00000     0.00000     0.00000
  Total    -231.63864  -231.63864   -20.35787    -0.30972     0.00000     0.00000
  in kB     -37.55725   -37.55725    -3.30077    -0.05022     0.00000     0.00000

 VOLUME and BASIS-vectors are now :
  energy-cutoff  :      520.00
  volume of cell :     9881.61
      direct lattice vectors                 reciprocal lattice vectors
    21.138852197  0.000000000  0.000000000     0.047306258  0.000000000  0.000000000
     0.000000000 21.138852197  0.000000000     0.000000000  0.047306258  0.000000000
     0.000000000  0.000000000 22.113885220     0.000000000  0.000000000  0.045220457

  length of vectors
    21.138852197 21.138852197 22.113885220     0.047306258  0.047306258  0.045220457

 FORCES acting on ions:
    Electron-Ion                     Ewald-Force                    Non-Local-Force
   -.189E+03 0.189E+03 -.206E+04   0.184E+03 -.184E+03 0.206E+04   0.550E+01 -.550E+01 -.768E-01
   0.189E+03 -.189E+03 -.206E+04   -.184E+03 0.184E+03 0.206E+04   -.550E+01 0.550E+01 -.768E-01
   0.203E+00 -.345E+01 0.931E+03   -.207E+00 0.346E+01 -.923E+03   0.365E-02 -.314E-02 -.750E+01
   0.345E+01 -.203E+00 0.931E+03   -.346E+01 0.207E+00 -.923E+03   0.314E-02 -.365E-02 -.750E+01
   -.111E-07 -.184E-03 -.923E+03   0.103E-06 -.158E-05 0.915E+03   0.751E-21 -.747E-21 0.753E+01
   0.531E+01 -.531E+01 -.922E+03   -.532E+01 0.532E+01 0.914E+03   0.778E-02 -.778E-02 0.753E+01
   -.203E+00 0.345E+01 0.931E+03   0.207E+00 -.346E+01 -.923E+03   -.365E-02 0.314E-02 -.750E+01
   0.523E+01 0.671E+01 0.933E+03   -.523E+01 -.671E+01 -.925E+03   0.496E-03 0.477E-02 -.750E+01
   -.567E+00 0.716E+01 -.922E+03   0.579E+00 -.717E+01 0.914E+03   -.909E-02 0.399E-02 0.752E+01
   0.470E+01 0.470E+01 -.923E+03   -.470E+01 -.470E+01 0.915E+03   -.116E-02 -.116E-02 0.752E+01
   -.468E+00 0.613E+01 0.934E+03   0.479E+00 -.613E+01 -.926E+03   -.907E-02 0.545E-02 -.750E+01
   0.101E+02 0.518E+01 0.938E+03   -.102E+02 -.519E+01 -.930E+03   0.111E-01 0.952E-02 -.750E+01
   -.544E+00 0.501E+01 -.920E+03   0.555E+00 -.501E+01 0.912E+03   -.868E-02 0.250E-02 0.752E+01
   0.104E+02 0.967E+01 -.920E+03   -.104E+02 -.968E+01 0.912E+03   -.374E-02 0.617E-02 0.752E+01
   0.242E-06 -.187E-03 0.936E+03   -.147E-06 0.154E-05 -.928E+03   -.957E-21 0.727E-21 -.750E+01
   0.110E+02 -.464E+01 0.938E+03   -.110E+02 0.464E+01 -.930E+03   0.305E-01 -.794E-03 -.750E+01
   0.544E+00 -.501E+01 -.920E+03   -.555E+00 0.501E+01 0.912E+03   0.868E-02 -.250E-02 0.752E+01
   0.173E+02 0.744E+00 -.917E+03   -.174E+02 -.755E+00 0.909E+03   0.182E-01 0.790E-02 0.752E+01
   0.468E+00 -.613E+01 0.934E+03   -.479E+00 0.613E+01 -.926E+03   0.907E-02 -.545E-02 -.750E+01
   0.605E+01 -.704E+01 0.934E+03   -.607E+01 0.705E+01 -.926E+03   0.144E-01 -.983E-02 -.750E+01
   0.567E+00 -.716E+01 -.922E+03   -.579E+00 0.717E+01 0.914E+03   0.909E-02 -.399E-02 0.752E+01
   0.123E+02 -.980E+01 -.919E+03   -.124E+02 0.981E+01 0.911E+03   0.260E-01 -.514E-02 0.752E+01
   0.704E+01 -.605E+01 0.934E+03   -.705E+01 0.607E+01 -.926E+03   0.983E-02 -.144E-01 -.750E+01
   0.613E+01 -.468E+00 0.934E+03   -.613E+01 0.479E+00 -.926E+03   0.545E-02 -.907E-02 -.750E+01
   0.716E+01 -.567E+00 -.922E+03   -.717E+01 0.579E+00 0.914E+03   0.399E-02 -.909E-02 0.752E+01
   0.980E+01 -.123E+02 -.919E+03   -.981E+01 0.124E+02 0.911E+03   0.514E-02 -.260E-01 0.752E+01
   0.671E+01 0.523E+01 0.933E+03   -.671E+01 -.523E+01 -.925E+03   0.477E-02 0.496E-03 -.750E+01
   0.116E+02 0.148E+02 0.940E+03   -.116E+02 -.148E+02 -.932E+03   0.162E-01 0.186E-01 -.751E+01
   0.132E+02 0.132E+02 -.919E+03   -.132E+02 -.132E+02 0.911E+03   0.161E-02 0.161E-02 0.752E+01
   0.967E+01 0.104E+02 -.920E+03   -.968E+01 -.104E+02 0.912E+03   0.617E-02 -.374E-02 0.752E+01
   0.148E+02 0.116E+02 0.940E+03   -.148E+02 -.116E+02 -.932E+03   0.186E-01 0.162E-01 -.751E+01
   0.285E+02 0.160E+02 0.961E+03   -.286E+02 -.160E+02 -.953E+03   0.884E-01 0.480E-01 -.753E+01
   0.330E+02 0.140E+02 -.910E+03   -.330E+02 -.140E+02 0.902E+03   0.142E-01 0.227E-01 0.751E+01
   0.317E+02 0.317E+02 -.905E+03   -.317E+02 -.317E+02 0.897E+03   0.181E-01 0.181E-01 0.750E+01
   0.239E+02 0.112E+01 0.948E+03   -.240E+02 -.114E+01 -.940E+03   0.578E-01 0.170E-01 -.750E+01
   0.303E+02 -.142E+02 0.965E+03   -.304E+02 0.142E+02 -.957E+03   0.576E-01 -.189E-01 -.744E+01
   0.370E+02 -.119E+02 -.907E+03   -.371E+02 0.119E+02 0.900E+03   0.874E-01 0.632E-02 0.752E+01
   0.778E+02 0.813E+01 -.871E+03   -.781E+02 -.823E+01 0.863E+03   0.185E+00 0.769E-01 0.749E+01
   0.162E+02 -.119E+02 0.942E+03   -.163E+02 0.119E+02 -.934E+03   0.372E-01 -.193E-01 -.749E+01
   0.119E+02 -.162E+02 0.942E+03   -.119E+02 0.163E+02 -.934E+03   0.193E-01 -.372E-01 -.749E+01
   0.148E+02 -.148E+02 -.918E+03   -.148E+02 0.148E+02 0.910E+03   0.216E-01 -.216E-01 0.752E+01
   0.365E+02 -.365E+02 -.899E+03   -.366E+02 0.366E+02 0.891E+03   0.668E-01 -.668E-01 0.753E+01
   0.464E+01 -.110E+02 0.938E+03   -.464E+01 0.110E+02 -.930E+03   0.794E-03 -.305E-01 -.750E+01
   0.237E-06 -.181E-03 0.936E+03   -.140E-06 -.411E-05 -.928E+03   -.719E-21 0.961E-21 -.750E+01
   0.501E+01 -.544E+00 -.920E+03   -.501E+01 0.555E+00 0.912E+03   0.250E-02 -.868E-02 0.752E+01
   -.745E+00 -.173E+02 -.917E+03   0.755E+00 0.174E+02 0.909E+03   -.790E-02 -.182E-01 0.752E+01
   0.518E+01 0.101E+02 0.938E+03   -.519E+01 -.102E+02 -.930E+03   0.952E-02 0.111E-01 -.750E+01
   0.112E+01 0.239E+02 0.948E+03   -.114E+01 -.240E+02 -.940E+03   0.170E-01 0.578E-01 -.750E+01
   0.140E+02 0.330E+02 -.910E+03   -.140E+02 -.330E+02 0.902E+03   0.227E-01 0.142E-01 0.751E+01
   0.745E+00 0.173E+02 -.917E+03   -.755E+00 -.174E+02 0.909E+03   0.790E-02 0.182E-01 0.752E+01
   0.160E+02 0.285E+02 0.961E+03   -.160E+02 -.286E+02 -.953E+03   0.480E-01 0.884E-01 -.753E+01
   0.304E+01 0.302E+02 0.100E+04   -.301E+01 -.303E+02 -.994E+03   -.241E-01 0.770E-01 -.728E+01
   0.691E+02 0.691E+02 -.838E+03   -.694E+02 -.694E+02 0.830E+03   0.201E+00 0.201E+00 0.728E+01
   0.813E+01 0.778E+02 -.871E+03   -.823E+01 -.781E+02 0.863E+03   0.769E-01 0.185E+00 0.749E+01
   0.302E+02 0.304E+01 0.100E+04   -.303E+02 -.301E+01 -.994E+03   0.770E-01 -.241E-01 -.728E+01
   -.304E+01 -.302E+02 0.100E+04   0.301E+01 0.303E+02 -.994E+03   0.241E-01 -.770E-01 -.728E+01
   0.754E+02 -.754E+02 -.795E+03   -.756E+02 0.756E+02 0.788E+03   0.110E+00 -.110E+00 0.722E+01
   -.206E-04 -.239E-03 -.667E+03   0.210E-04 0.517E-04 0.662E+03   0.262E-21 -.261E-21 0.502E+01
   0.142E+02 -.303E+02 0.965E+03   -.142E+02 0.304E+02 -.957E+03   0.189E-01 -.576E-01 -.744E+01
   -.112E+01 -.239E+02 0.948E+03   0.114E+01 0.240E+02 -.940E+03   -.170E-01 -.578E-01 -.750E+01
[...]
   -.792E+01 0.792E+01 0.704E+03   0.794E+01 -.794E+01 -.708E+03   -.224E-01 0.224E-01 0.347E+01
   -.316E+01 0.316E+01 0.701E+03   0.316E+01 -.316E+01 -.705E+03   -.843E-02 0.843E-02 0.347E+01
   -.189E+02 0.133E+02 -.687E+03   0.189E+02 -.134E+02 0.690E+03   -.459E-01 0.285E-01 -.350E+01
   -.122E+02 0.463E+01 -.690E+03   0.123E+02 -.463E+01 0.693E+03   -.238E-01 -.120E-02 -.351E+01
   -.165E+02 0.573E+01 0.712E+03   0.166E+02 -.573E+01 -.716E+03   -.587E-01 0.459E-02 0.348E+01
   -.651E+01 0.558E+01 0.704E+03   0.652E+01 -.559E+01 -.708E+03   -.225E-01 0.106E-01 0.347E+01
   -.306E+02 -.183E+01 -.681E+03   0.306E+02 0.186E+01 0.685E+03   -.438E-01 -.347E-01 -.353E+01
   -.110E+02 -.527E+01 -.690E+03   0.110E+02 0.528E+01 0.694E+03   -.626E-02 -.119E-01 -.351E+01
   -.154E+02 -.663E+01 0.711E+03   0.155E+02 0.665E+01 -.714E+03   -.281E-01 -.253E-01 0.346E+01
   -.873E+01 -.323E+00 0.706E+03   0.875E+01 0.328E+00 -.710E+03   -.194E-01 -.858E-02 0.346E+01
   -.163E+02 -.125E+02 -.688E+03   0.163E+02 0.126E+02 0.692E+03   -.750E-02 -.123E-01 -.352E+01
   -.510E+01 -.636E+01 -.693E+03   0.510E+01 0.636E+01 0.697E+03   0.211E-02 -.307E-02 -.350E+01
   -.730E+01 -.730E+01 0.704E+03   0.730E+01 0.730E+01 -.707E+03   -.874E-02 -.874E-02 0.346E+01
   -.568E+01 -.557E+01 0.703E+03   0.568E+01 0.557E+01 -.707E+03   -.315E-02 -.943E-02 0.346E+01
   -.145E-04 -.110E+00 0.854E+01   0.388E-11 -.146E-11 -.580E-11   -.754E-15 -.139E-15 -.578E+01

 POSITION                                       TOTAL-FORCE (eV/Angst)
     11.48398     11.76876     13.78517        -0.105667      0.105667     -0.097730
      9.65487     13.59787     13.78517         0.105667     -0.105667     -0.097730
      0.00000      0.00000      9.00000        -0.001024      0.000892      0.513965
      2.11389      2.11389      9.00000        -0.000892      0.001024      0.513965
      0.00000      2.11389     11.11389        -0.000000      0.000000     -0.481666
      2.11389      0.00000     11.11389        -0.002205      0.002205     -0.481504
      0.00000      4.22777      9.00000         0.001024     -0.000892      0.513965
      2.11389      6.34166      9.00000        -0.000129     -0.001328      0.514553
      0.00000      6.34166     11.11389         0.002553     -0.001129     -0.481109
      2.11389      4.22777     11.11389         0.000357      0.000357     -0.481140
      0.00000      8.45554      9.00000         0.002455     -0.001571      0.514230
      2.11389     10.56943      9.00000        -0.003114     -0.002804      0.514933
      0.00000     10.56943     11.11389         0.002394     -0.000729     -0.479945
      2.11389      8.45554     11.11389         0.001243     -0.001663     -0.479148
      0.00000     12.68331      9.00000        -0.000000      0.000000      0.514521
      2.11389     14.79720      9.00000        -0.008126      0.000265      0.514443
      0.00000     14.79720     11.11389        -0.002394      0.000729     -0.479945
      2.11389     12.68331     11.11389        -0.004685     -0.002443     -0.478613
      0.00000     16.91108      9.00000        -0.002455      0.001571      0.514230
      2.11389     19.02497      9.00000        -0.004035      0.002838      0.513649
      0.00000     19.02497     11.11389        -0.002553      0.001129     -0.481109
      2.11389     16.91108     11.11389        -0.007171      0.001539     -0.480514
      4.22777      0.00000      9.00000        -0.002838      0.004035      0.513649
      6.34166      2.11389      9.00000        -0.001571      0.002455      0.514230
      4.22777      2.11389     11.11389        -0.001129      0.002553     -0.481109
      6.34166      0.00000     11.11389        -0.001539      0.007171     -0.480514
      4.22777      4.22777      9.00000        -0.001328     -0.000129      0.514553
      6.34166      6.34166      9.00000        -0.004526     -0.005115      0.516402
      4.22777      6.34166     11.11389        -0.000204     -0.000204     -0.478287
      6.34166      4.22777     11.11389        -0.001663      0.001243     -0.479148
      4.22777      8.45554      9.00000        -0.005115     -0.004526      0.516402
      6.34166     10.56943      9.00000        -0.025344     -0.015015      0.519104
      4.22777     10.56943     11.11389        -0.002589     -0.006296     -0.471949
      6.34166      8.45554     11.11389        -0.003023     -0.003023     -0.463527
      4.22777     12.68331      9.00000        -0.016122     -0.005279      0.515150
      6.34166     14.79720      9.00000        -0.016501      0.006188      0.495613
      4.22777     14.79720     11.11389        -0.025551     -0.002098     -0.476634
      6.34166     12.68331     11.11389        -0.061694     -0.023763     -0.455554
      4.22777     16.91108      9.00000        -0.010609      0.005959      0.512240
      6.34166     19.02497      9.00000        -0.005959      0.010609      0.512240
      4.22777     19.02497     11.11389        -0.006097      0.006097     -0.480905
      6.34166     16.91108     11.11389        -0.018652      0.018652     -0.478300
      8.45554      0.00000      9.00000        -0.000265      0.008126      0.514443
     10.56943      2.11389      9.00000        -0.000000      0.000000      0.514521
      8.45554      2.11389     11.11389        -0.000729      0.002394     -0.479945
     10.56943      0.00000     11.11389         0.002443      0.004685     -0.478613
      8.45554      4.22777      9.00000        -0.002804     -0.003114      0.514933
     10.56943      6.34166      9.00000        -0.005279     -0.016122      0.515150
      8.45554      6.34166     11.11389        -0.006296     -0.002589     -0.471949
     10.56943      4.22777     11.11389        -0.002443     -0.004685     -0.478613
      8.45554      8.45554      9.00000        -0.015015     -0.025344      0.519104
     10.56943     10.56943      9.00000         0.010415     -0.021444      0.442764
      8.45554     10.56943     11.11389        -0.038974     -0.038974     -0.328373
     10.56943      8.45554     11.11389        -0.023763     -0.061694     -0.455554
      8.45554     12.68331      9.00000        -0.021444      0.010415      0.442764
     10.56943     14.79720      9.00000        -0.010415      0.021444      0.442764
      8.45554     14.79720     11.11389        -0.073429      0.073429     -0.591517
     10.56943     12.68331     11.11389        -0.000000      0.000000     -0.191916
      8.45554     16.91108      9.00000        -0.006188      0.016501      0.495613
     10.56943     19.02497      9.00000         0.005279      0.016122      0.515150
[...]
     19.02497      6.34166     11.11389        -0.004485      0.003322      0.320142
     16.91108      6.34166      9.00000        -0.006255      0.006255     -0.351086
     19.02497      4.22777      9.00000        -0.002344      0.002344     -0.351730
     16.91108      8.45554     11.11389        -0.013239      0.008283      0.319935
     19.02497     10.56943     11.11389        -0.006769     -0.000301      0.318427
     16.91108     10.56943      9.00000        -0.017144      0.001454     -0.347393
     19.02497      8.45554      9.00000        -0.006287      0.002992     -0.351581
     16.91108     12.68331     11.11389        -0.013467     -0.009775      0.313424
     19.02497     14.79720     11.11389        -0.001851     -0.003340      0.317145
     16.91108     14.79720      9.00000        -0.008393     -0.007253     -0.354628
     19.02497     12.68331      9.00000        -0.005491     -0.002363     -0.352440
     16.91108     16.91108     11.11389        -0.002392     -0.003613      0.313885
     19.02497     19.02497     11.11389         0.000562     -0.000881      0.319107
     16.91108     19.02497      9.00000        -0.002482     -0.002482     -0.353279
     19.02497     16.91108      9.00000        -0.000910     -0.002665     -0.352844
    total drift:                               -0.000014     -0.109659      2.764516

  FREE ENERGIE OF THE ION-ELECTRON SYSTEM (eV)
  free  energy   TOTEN  =     -1537.38506055 eV

  energy  without entropy=    -1537.38506055  energy(sigma->0) =    -1537.38506055