 vasp.6.3.0 20Jan22 (build Apr  1 2022 16:44:48) complex
 executed on        HPECrayEX_GCC date 2023.01.09  21:04:57

 INCAR:
   SYSTEM = MgO-rocksalt
   ISMEAR = 0
   SIGMA = 0.05
   EDIFF = 1E-6
   ALGO = ALL
   ISTART = 0
   IBRION = -1
   NSW = 0
   ISYM = 2
   DIPOL = 0.5 0.5 0.5
   IDIPOL = 3
   LDIPOL = .TRUE.
   GGA = RE
   LUSE_VDW = .TRUE.
   AGGAC = 0.0
   ENCUT = 520
   PREC = Accurate
   LASPH = .TRUE.
   LREAL = Auto
   ISPIN = 1
   NELM = 200
   NELMIN = 8
   NCORE = 4
   KPAR = 2
   LWAVE = .FALSE.
   LCHARG = .FALSE.

 POTCAR:    PAW_PBE Cu 22Jun2005
 POTCAR:    PAW_PBE Mg_pv 13Apr2007
 POTCAR:    PAW_PBE O 08Apr2002
|               ----> ADVICE to this user running VASP <----                  |
|     You have switched on vdW-DFT.                                           |
|     This routine was written and supplied by Jiri Klimes. We recommend      |
|     that you carefully read and cite the following publications:            |
|       J. Klimes, D.R. Bowler, A. Michelides                                 |
|          J. Phys.: Cond Matt. 22 022201 (2010)                              |
|       J. Klimes, D.R. Bowler, A. Michelides                                 |
|          Phys. Rev. B. 83, 195131 (2011)                                    |
|     and references therein.                                                 |

   TITEL  = PAW_PBE Cu 22Jun2005
   POMASS =   63.546; ZVAL   =   11.000    mass and valenz
   ENMAX  =  295.446; ENMIN  =  221.585 eV

   TITEL  = PAW_PBE Mg_pv 13Apr2007
   POMASS =   24.305; ZVAL   =    8.000    mass and valenz
   ENMAX  =  403.929; ENMIN  =  302.947 eV

   TITEL  = PAW_PBE O 08Apr2002
   POMASS =   16.000; ZVAL   =    6.000    mass and valenz
   ENMAX  =  400.000; ENMIN  =  300.000 eV

 Optimization of the real space projectors (new method)

 maximal supplied QI-value         = 16.25
 optimisation between [QCUT,QGAM] = [ 11.54, 23.24] = [ 37.28,151.24] Ry
 Optimized for a Real-space Cutoff    1.53 Angstroem

   l    n(q)    QCUT    max X(q) W(low)/X(q) W(high)/X(q)  e(spline)
   2     10    11.539     4.610    0.96E-04    0.13E-03    0.19E-06
   2     10    11.539     8.522    0.16E-03    0.21E-03    0.28E-06
   0     11    11.539    51.609    0.45E-04    0.31E-04    0.11E-06
   0     11    11.539    27.747    0.39E-04    0.29E-04    0.10E-06
   1     10    11.539    20.408    0.70E-05    0.38E-04    0.18E-06
   1     10    11.539    13.425    0.66E-05    0.34E-04    0.17E-06
 Optimization of the real space projectors (new method)

[...]

   l    n(q)    QCUT    max X(q) W(low)/X(q) W(high)/X(q)  e(spline)
   1      8    11.527     2.974    0.44E-04    0.56E-04    0.12E-06
   1      8    11.527     4.279    0.12E-03    0.12E-03    0.26E-06
   0      9    11.527    16.381    0.46E-04    0.64E-04    0.78E-07
   0      9    11.527     5.611    0.26E-04    0.43E-04    0.55E-07
   2      8    11.527     4.652    0.22E-03    0.72E-04    0.47E-07
 Optimization of the real space projectors (new method)

 maximal supplied QI-value         = 24.76
 optimisation between [QCUT,QGAM] = [ 11.64, 23.27] = [ 37.91,151.63] Ry
 Optimized for a Real-space Cutoff    1.14 Angstroem

   l    n(q)    QCUT    max X(q) W(low)/X(q) W(high)/X(q)  e(spline)
   0      8    11.635    20.381    0.10E-03    0.33E-03    0.24E-06
   0      8    11.635    15.268    0.11E-03    0.35E-03    0.26E-06
   1      7    11.635     5.964    0.24E-03    0.31E-03    0.30E-06
   1      7    11.635     5.382    0.22E-03    0.25E-03    0.26E-06
|               ----> ADVICE to this user running VASP <----                  |
|     You enforced a specific xc type in the INCAR file but a different       |
|     type was found in the POTCAR file.                                      |
|     I HOPE YOU KNOW WHAT YOU ARE DOING!                                     |

  PAW_PBE Cu 22Jun2005                  :
  PAW_PBE Mg_pv 13Apr2007               :
  PAW_PBE O 08Apr2002                   :

 POSCAR: Cu Mg  O
  positions in direct lattice
  velocities in cartesian coordinates
 exchange correlation table for  LEXCH =       40
   RHO(1)=    0.500       N(1)  =     2000
   RHO(2)=  100.500       N(2)  =     4000

 ion  position               nearest neighbor table
   1  0.400  0.558  0.598- 157 2.29   3 2.35  55 2.43   4 2.47
   2  0.400  0.499  0.790-   3 2.25
   3  0.400  0.499  0.688-   2 2.25   1 2.35   4 2.35
   4  0.400  0.441  0.597- 153 2.26   3 2.35  55 2.43   1 2.47
   5  0.000  0.000  0.407- 107 2.11 108 2.11 123 2.11 188 2.11 105 2.11
   6  0.100  0.100  0.407- 107 2.11 108 2.11 112 2.11 127 2.11 106 2.11
   7  0.000  0.100  0.503- 105 2.11 106 2.11 109 2.11 186 2.11 107 2.11
   8  0.100  0.000  0.503- 105 2.11 106 2.11 122 2.11 125 2.11 108 2.11
   9  0.000  0.200  0.407- 111 2.11 107 2.11 112 2.11 192 2.11 109 2.11
  10  0.100  0.300  0.407- 112 2.11 111 2.11 116 2.11 131 2.11 110 2.11
  11  0.000  0.300  0.503- 109 2.11 110 2.11 113 2.11 190 2.11 111 2.11
  12  0.100  0.200  0.503- 110 2.11 109 2.11 106 2.11 129 2.11 112 2.11
  13  0.000  0.400  0.407- 111 2.11 115 2.11 116 2.11 196 2.11 113 2.11
  14  0.100  0.500  0.407- 115 2.11 116 2.11 120 2.11 135 2.11 114 2.11
  15  0.000  0.500  0.503- 113 2.11 114 2.11 117 2.11 194 2.11 115 2.11
  16  0.100  0.400  0.503- 110 2.11 113 2.11 114 2.11 133 2.11 116 2.11
  17  0.000  0.600  0.407- 115 2.11 119 2.11 120 2.11 200 2.11 117 2.11
  18  0.100  0.700  0.407- 124 2.11 120 2.11 119 2.11 139 2.11 118 2.11
  19  0.000  0.700  0.503- 121 2.11 118 2.11 117 2.11 198 2.11 119 2.11
  20  0.100  0.600  0.503- 114 2.11 117 2.11 118 2.11 137 2.11 120 2.11
  21  0.000  0.800  0.407- 119 2.11 123 2.11 124 2.11 204 2.11 121 2.11
  22  0.100  0.900  0.407- 108 2.11 123 2.11 124 2.11 143 2.11 122 2.11
  23  0.000  0.900  0.503- 105 2.11 121 2.11 122 2.11 202 2.11 123 2.11
  24  0.100  0.800  0.503- 118 2.11 121 2.11 122 2.11 141 2.11 124 2.11
  25  0.200  0.000  0.407- 128 2.11 127 2.11 108 2.11 143 2.11 125 2.11
  26  0.300  0.100  0.407- 127 2.11 128 2.11 132 2.11 147 2.11 126 2.11
  27  0.200  0.100  0.503- 126 2.11 125 2.11 106 2.11 129 2.11 127 2.11
  28  0.300  0.000  0.503- 125 2.11 126 2.11 142 2.11 145 2.11 128 2.11
  29  0.200  0.200  0.407- 131 2.11 132 2.11 112 2.11 127 2.11 129 2.11
  30  0.300  0.300  0.407- 131 2.11 132 2.11 136 2.11 151 2.11 130 2.11
  31  0.200  0.300  0.503- 129 2.11 130 2.11 110 2.11 133 2.11 131 2.11
  32  0.300  0.200  0.503- 129 2.11 130 2.11 126 2.11 149 2.11 132 2.11
  33  0.200  0.400  0.407- 136 2.11 131 2.11 135 2.11 116 2.11 133 2.11
  34  0.300  0.500  0.407- 135 2.11 136 2.11 140 2.11 155 2.11 134 2.11
  35  0.200  0.500  0.503- 134 2.11 133 2.11 114 2.11 137 2.11 135 2.11
  36  0.300  0.400  0.503- 133 2.11 130 2.11 134 2.11 153 2.11 136 2.11
  37  0.200  0.600  0.407- 140 2.11 135 2.11 139 2.11 120 2.11 137 2.11
  38  0.300  0.700  0.407- 139 2.11 144 2.11 140 2.11 159 2.11 138 2.11
  39  0.200  0.700  0.503- 138 2.11 141 2.11 118 2.11 137 2.11 139 2.11
  40  0.300  0.600  0.503- 137 2.11 134 2.11 138 2.11 157 2.11 140 2.11
  41  0.200  0.800  0.407- 139 2.11 144 2.11 143 2.11 124 2.11 141 2.11
  42  0.300  0.900  0.407- 143 2.11 128 2.11 144 2.11 163 2.11 142 2.11
  43  0.200  0.900  0.503- 142 2.11 125 2.11 141 2.11 122 2.11 143 2.11
  44  0.300  0.800  0.503- 138 2.11 141 2.11 142 2.11 161 2.11 144 2.11
  45  0.400  0.000  0.407- 128 2.11 147 2.11 148 2.11 163 2.11 145 2.11
  46  0.500  0.100  0.407- 147 2.11 148 2.11 152 2.11 167 2.11 146 2.11
  47  0.400  0.100  0.503- 126 2.11 145 2.11 146 2.11 149 2.11 147 2.11
  48  0.500  0.000  0.503- 145 2.11 146 2.11 162 2.11 165 2.11 148 2.11
  49  0.400  0.200  0.407- 151 2.11 147 2.11 132 2.11 152 2.11 149 2.11
  50  0.500  0.300  0.407- 152 2.11 151 2.11 156 2.11 171 2.11 150 2.11
  51  0.400  0.300  0.503- 149 2.11 130 2.11 150 2.11 153 2.11 151 2.11
  52  0.500  0.200  0.503- 150 2.11 149 2.11 146 2.11 169 2.11 152 2.11
  53  0.400  0.400  0.407- 136 2.11 151 2.11 155 2.11 156 2.11 153 2.11
  54  0.500  0.500  0.407- 155 2.11 156 2.11 160 2.11 175 2.11 154 2.11
  55  0.400  0.500  0.503- 134 2.11 153 2.11 154 2.11 157 2.11 155 2.11   4 2.43   1 2.43
  56  0.500  0.400  0.503- 150 2.11 153 2.11 154 2.11 173 2.11 156 2.11
  57  0.400  0.600  0.407- 140 2.11 155 2.11 159 2.11 160 2.11 157 2.11
  58  0.500  0.700  0.407- 164 2.11 160 2.11 159 2.11 179 2.11 158 2.11
  59  0.400  0.700  0.503- 161 2.11 157 2.11 158 2.11 138 2.11 159 2.11
  60  0.500  0.600  0.503- 154 2.11 157 2.11 158 2.11 177 2.11 160 2.11
[...]
 190  0.900  0.300  0.503-  92 2.11  91 2.11  11 2.11  96 2.11  90 2.11
 191  0.800  0.300  0.407-  70 2.11  89 2.11  90 2.11  93 2.11  91 2.11
 192  0.900  0.200  0.407-  90 2.11  86 2.11  89 2.11   9 2.11  92 2.11
 193  0.800  0.400  0.503-  76 2.11  91 2.11  95 2.11  96 2.11  93 2.11
 194  0.900  0.500  0.503-  15 2.11  95 2.11  96 2.11 100 2.11  94 2.11
 195  0.800  0.500  0.407-  74 2.11  93 2.11  94 2.11  97 2.11  95 2.11
 196  0.900  0.400  0.407-  13 2.11  90 2.11  93 2.11  94 2.11  96 2.11
 197  0.800  0.600  0.503-  80 2.11  95 2.11  99 2.11 100 2.11  97 2.11
 198  0.900  0.700  0.503- 104 2.11  99 2.11 100 2.11  19 2.11  98 2.11
 199  0.800  0.700  0.407-  78 2.11 101 2.11  98 2.11  97 2.11  99 2.11
 200  0.900  0.600  0.407-  17 2.11  94 2.11  97 2.11  98 2.11 100 2.11
 201  0.800  0.800  0.503-  84 2.11  99 2.11 103 2.11 104 2.11 101 2.11
 202  0.900  0.900  0.503-  23 2.11  88 2.11 103 2.11 104 2.11 102 2.11
 203  0.800  0.900  0.407-  82 2.11  85 2.11 101 2.11 102 2.11 103 2.11
 204  0.900  0.800  0.407-  98 2.11  21 2.11 101 2.11 102 2.11 104 2.11

  LATTYP: Found a simple tetragonal cell.
 ALAT       =    21.1388521970
 C/A-ratio  =     1.0461251639

  Lattice vectors:

 A1 = (  21.1388521970,   0.0000000000,   0.0000000000)
 A2 = (   0.0000000000,  21.1388521970,   0.0000000000)
 A3 = (   0.0000000000,   0.0000000000,  22.1138852197)

Analysis of symmetry for initial positions (statically):
 Subroutine PRICEL returns:
 Original cell was already a primitive cell.

 Routine SETGRP: Setting up the symmetry group for a
 simple tetragonal supercell.

 Subroutine GETGRP returns: Found  1 space group operations
 (whereof  1 operations were pure point group operations)
 out of a pool of 16 trial point group operations.

The static configuration has the point symmetry C_1 .

Analysis of symmetry for dynamics (positions and initial velocities):
 Subroutine PRICEL returns:
 Original cell was already a primitive cell.

[...]

The dynamic configuration has the point symmetry C_1 .

Analysis of constrained symmetry for selective dynamics:
 Subroutine PRICEL returns:
 Original cell was already a primitive cell.

 Routine SETGRP: Setting up the symmetry group for a
 simple tetragonal supercell.

 Subroutine GETGRP returns: Found  1 space group operations
 (whereof  1 operations were pure point group operations)
 out of a pool of 16 trial point group operations.

The constrained configuration has the point symmetry C_1 .

 Subroutine INISYM returns: Found  1 space group operations
 (whereof  1 operations are pure point group operations),
 and found     1 'primitive' translations

                                     Primitive cell

[...]
     52     -43.6785      2.00000
     53     -43.6757      2.00000
     54     -43.6747      2.00000
     55     -43.6745      2.00000
     56     -43.6739      2.00000
     57     -43.6735      2.00000
     58     -43.6728      2.00000
     59     -43.6726      2.00000
     60     -43.6721      2.00000
[...]
    946       5.5595      0.00000
    947       5.5924      0.00000
    948       5.6110      0.00000
    949       5.6427      0.00000
    950       5.6564      0.00000
    951       5.6657      0.00000
    952       5.7177      0.00000
    953       5.7471      0.00000
    954       5.8680      0.00000
    955       5.9076      0.00000
    956       6.0123      0.00000
    957       6.1394      0.00000
    958       6.2567      0.00000
    959       6.3443      0.00000
    960       6.4721      0.00000

 soft charge-density along one line, spin component           1
         0         1         2         3         4         5         6         7         8         9
 total charge-density along one line

------------------------ aborting loop because EDIFF is reached ----------------------------------------

  FORCE on cell =-STRESS in cart. coord.  units (eV):
  Direction    XX          YY          ZZ          XY          YZ          ZX
  Alpha Z  1394.80054  1394.80054  1394.80054
  Ewald  476789.57733478031.49515************     0.08233     1.75104    -2.53842
  Hartree506515.45192507484.07153************     0.06345     1.09284    -2.00064
  E(xc)   -8120.62644 -8119.71131 -8135.39982     0.00004     0.00559    -0.00220
  Local  ************************************    -0.14446    -2.83665     4.50606
  n-local -8858.05398 -8859.27479 -8970.78522     0.00013     0.00210    -0.00011
  augment  3761.97120  3754.86200  3694.63471    -0.00048    -0.00935     0.01428
  Kinetic 23125.79281 23118.23290 23323.30143    -0.00050    -0.01544     0.02876
  Fock        0.00000     0.00000     0.00000     0.00000     0.00000     0.00000
  Total    -118.13621  -118.69629    40.43933     0.00052    -0.00988     0.00774
  in kB     -19.15428   -19.24509     6.55672     0.00008    -0.00160     0.00125

 VOLUME and BASIS-vectors are now :
  energy-cutoff  :      520.00
  volume of cell :     9881.61
      direct lattice vectors                 reciprocal lattice vectors
    21.138852197  0.000000000  0.000000000     0.047306258  0.000000000  0.000000000
     0.000000000 21.138852197  0.000000000     0.000000000  0.047306258  0.000000000
     0.000000000  0.000000000 22.113885220     0.000000000  0.000000000  0.045220457

  length of vectors
    21.138852197 21.138852197 22.113885220     0.047306258  0.047306258  0.045220457

 FORCES acting on ions:
    Electron-Ion                     Ewald-Force                    Non-Local-Force
   -.592E+00 -.487E+03 -.187E+04   0.583E+00 0.479E+03 0.188E+04   0.122E-01 0.899E+01 -.521E+01
   -.797E-01 -.286E+00 -.154E+04   0.676E-01 0.246E+00 0.153E+04   0.888E-02 0.327E-01 0.104E+02
   0.131E+01 0.387E+01 -.186E+04   -.129E+01 -.384E+01 0.186E+04   -.221E-01 -.498E-01 0.567E+00
   -.532E+00 0.483E+03 -.187E+04   0.524E+00 -.475E+03 0.188E+04   0.113E-01 -.878E+01 -.522E+01
   0.647E+01 0.578E-01 0.934E+03   -.650E+01 -.582E-01 -.927E+03   0.238E-01 0.339E-03 -.684E+01
   0.127E+02 0.987E+01 0.938E+03   -.128E+02 -.990E+01 -.931E+03   0.526E-01 0.207E-01 -.684E+01
   0.929E+01 0.883E+01 -.917E+03   -.932E+01 -.884E+01 0.910E+03   0.272E-01 0.270E-02 0.673E+01
   0.135E+02 0.103E+00 -.916E+03   -.135E+02 -.103E+00 0.909E+03   0.375E-01 0.551E-03 0.673E+01
   0.102E+02 0.119E+02 0.938E+03   -.102E+02 -.120E+02 -.931E+03   0.421E-01 0.952E-02 -.685E+01
   0.270E+02 0.195E+02 0.950E+03   -.272E+02 -.195E+02 -.943E+03   0.136E+00 0.250E-01 -.686E+01
   0.197E+02 0.165E+02 -.911E+03   -.198E+02 -.165E+02 0.904E+03   0.457E-01 -.479E-03 0.672E+01
   0.251E+02 0.238E+02 -.910E+03   -.252E+02 -.238E+02 0.903E+03   0.881E-01 0.150E-01 0.672E+01
   0.180E+02 0.821E+01 0.944E+03   -.181E+02 -.821E+01 -.937E+03   0.655E-01 0.362E-02 -.686E+01
   0.401E+02 -.121E+00 0.960E+03   -.403E+02 0.122E+00 -.953E+03   0.164E+00 -.796E-03 -.688E+01
   0.287E+02 -.946E-01 -.906E+03   -.288E+02 0.949E-01 0.900E+03   0.459E-01 -.322E-03 0.671E+01
   0.573E+02 0.201E+02 -.894E+03   -.575E+02 -.201E+02 0.887E+03   0.129E+00 -.171E-02 0.669E+01
   0.180E+02 -.831E+01 0.944E+03   -.181E+02 0.832E+01 -.937E+03   0.650E-01 -.420E-02 -.686E+01
   0.269E+02 -.195E+02 0.950E+03   -.271E+02 0.196E+02 -.942E+03   0.134E+00 -.253E-01 -.686E+01
   0.196E+02 -.165E+02 -.911E+03   -.197E+02 0.165E+02 0.904E+03   0.451E-01 0.298E-03 0.672E+01
   0.571E+02 -.203E+02 -.894E+03   -.573E+02 0.203E+02 0.887E+03   0.128E+00 0.772E-03 0.669E+01
   0.101E+02 -.119E+02 0.938E+03   -.102E+02 0.119E+02 -.931E+03   0.415E-01 -.928E-02 -.685E+01
   0.127E+02 -.973E+01 0.938E+03   -.128E+02 0.975E+01 -.931E+03   0.519E-01 -.196E-01 -.684E+01
   0.925E+01 -.871E+01 -.917E+03   -.928E+01 0.871E+01 0.910E+03   0.269E-01 -.222E-02 0.673E+01
   0.249E+02 -.237E+02 -.910E+03   -.250E+02 0.237E+02 0.903E+03   0.865E-01 -.146E-01 0.672E+01
   0.115E+02 0.112E+00 0.939E+03   -.116E+02 -.114E+00 -.932E+03   0.442E-01 0.101E-02 -.685E+01
   0.920E+01 0.186E+02 0.946E+03   -.925E+01 -.187E+02 -.939E+03   0.412E-01 0.984E-01 -.685E+01
   0.182E+02 0.199E+02 -.911E+03   -.183E+02 -.200E+02 0.904E+03   0.550E-01 0.523E-01 0.672E+01
   0.947E+01 0.202E+00 -.911E+03   -.950E+01 -.204E+00 0.904E+03   0.266E-01 0.133E-02 0.672E+01
   0.213E+02 0.265E+02 0.950E+03   -.215E+02 -.266E+02 -.943E+03   0.119E+00 0.882E-01 -.684E+01
   0.281E+02 0.498E+02 0.988E+03   -.284E+02 -.501E+02 -.981E+03   0.250E+00 0.245E+00 -.676E+01
   0.592E+02 0.544E+02 -.882E+03   -.596E+02 -.545E+02 0.876E+03   0.318E+00 0.267E-01 0.669E+01
   0.244E+02 0.605E+02 -.891E+03   -.245E+02 -.609E+02 0.884E+03   0.865E-01 0.277E+00 0.671E+01
   0.508E+02 0.239E+02 0.984E+03   -.512E+02 -.239E+02 -.977E+03   0.371E+00 0.377E-01 -.692E+01
   0.559E+02 -.445E+00 0.105E+04   -.565E+02 0.454E+00 -.104E+04   0.391E+00 -.669E-02 -.694E+01
   0.121E+03 -.447E+00 -.842E+03   -.122E+03 0.449E+00 0.836E+03   0.259E+00 -.133E-02 0.663E+01
   0.142E+03 0.108E+03 -.750E+03   -.144E+03 -.108E+03 0.743E+03   0.167E+01 -.623E-02 0.662E+01
   0.505E+02 -.241E+02 0.984E+03   -.510E+02 0.242E+02 -.976E+03   0.364E+00 -.406E-01 -.692E+01
   0.278E+02 -.497E+02 0.987E+03   -.281E+02 0.500E+02 -.980E+03   0.245E+00 -.241E+00 -.676E+01
   0.586E+02 -.543E+02 -.883E+03   -.590E+02 0.543E+02 0.876E+03   0.311E+00 -.275E-01 0.669E+01
   0.140E+03 -.109E+03 -.752E+03   -.142E+03 0.109E+03 0.745E+03   0.162E+01 -.249E-02 0.662E+01
   0.212E+02 -.263E+02 0.950E+03   -.213E+02 0.264E+02 -.943E+03   0.117E+00 -.864E-01 -.684E+01
   0.914E+01 -.183E+02 0.946E+03   -.919E+01 0.184E+02 -.939E+03   0.406E-01 -.950E-01 -.685E+01
   0.181E+02 -.196E+02 -.911E+03   -.181E+02 0.197E+02 0.904E+03   0.543E-01 -.502E-01 0.672E+01
   0.241E+02 -.599E+02 -.891E+03   -.242E+02 0.603E+02 0.884E+03   0.850E-01 -.270E+00 0.671E+01
   -.221E-01 0.159E+00 0.943E+03   0.220E-01 -.161E+00 -.936E+03   0.932E-04 0.165E-02 -.685E+01
   -.924E+01 0.186E+02 0.946E+03   0.929E+01 -.187E+02 -.939E+03   -.410E-01 0.985E-01 -.685E+01
   -.377E-01 0.308E+02 -.905E+03   0.375E-01 -.310E+02 0.898E+03   0.124E-03 0.128E+00 0.672E+01
   -.951E+01 0.202E+00 -.911E+03   0.955E+01 -.204E+00 0.904E+03   -.264E-01 0.133E-02 0.672E+01
   -.458E-01 0.417E+02 0.964E+03   0.456E-01 -.421E+02 -.957E+03   0.140E-03 0.333E+00 -.687E+01
   -.282E+02 0.497E+02 0.988E+03   0.285E+02 -.500E+02 -.981E+03   -.250E+00 0.245E+00 -.676E+01
   -.207E+00 0.140E+03 -.820E+03   0.206E+00 -.142E+03 0.813E+03   0.381E-03 0.160E+01 0.689E+01
   -.245E+02 0.604E+02 -.891E+03   0.246E+02 -.608E+02 0.884E+03   -.862E-01 0.277E+00 0.671E+01
   -.150E+00 0.509E+02 0.106E+04   0.149E+00 -.511E+02 -.105E+04   0.829E-03 0.152E+00 -.502E+01
   -.561E+02 -.443E+00 0.105E+04   0.566E+02 0.452E+00 -.104E+04   -.390E+00 -.671E-02 -.694E+01
   -.936E+00 -.271E+01 -.455E+03   0.939E+00 0.279E+01 0.451E+03   0.126E-02 -.533E-01 0.244E+01
   -.142E+03 0.108E+03 -.751E+03   0.144E+03 -.108E+03 0.744E+03   -.167E+01 -.690E-02 0.662E+01
   -.147E+00 -.514E+02 0.105E+04   0.146E+00 0.516E+02 -.105E+04   0.773E-03 -.160E+00 -.508E+01
   -.279E+02 -.496E+02 0.987E+03   0.282E+02 0.499E+02 -.980E+03   -.245E+00 -.242E+00 -.676E+01
   -.200E+00 -.138E+03 -.822E+03   0.200E+00 0.140E+03 0.815E+03   0.388E-03 -.155E+01 0.689E+01
   -.140E+03 -.109E+03 -.753E+03   0.142E+03 0.109E+03 0.746E+03   -.162E+01 -.180E-02 0.663E+01
[...]
   -.106E+02 0.948E+01 0.708E+03   0.106E+02 -.949E+01 -.712E+03   -.507E-01 0.104E-01 0.353E+01
   0.214E-01 0.764E+01 0.704E+03   -.213E-01 -.764E+01 -.708E+03   -.140E-03 0.704E-02 0.353E+01
   -.194E+02 0.813E+01 -.683E+03   0.194E+02 -.813E+01 0.687E+03   -.470E-01 -.106E-02 -.373E+01
   0.564E-01 -.544E-01 -.685E+03   -.562E-01 0.546E-01 0.689E+03   -.276E-03 -.289E-03 -.372E+01
   -.147E+02 -.536E-01 0.711E+03   0.147E+02 0.539E-01 -.716E+03   -.580E-01 -.468E-03 0.352E+01
   0.363E-01 0.505E+01 0.708E+03   -.361E-01 -.505E+01 -.712E+03   -.218E-03 0.203E-02 0.353E+01
   -.194E+02 -.824E+01 -.683E+03   0.194E+02 0.824E+01 0.687E+03   -.466E-01 0.420E-03 -.373E+01
   0.398E-01 -.991E+01 -.687E+03   -.397E-01 0.991E+01 0.692E+03   -.210E-03 -.278E-03 -.371E+01
   -.106E+02 -.950E+01 0.708E+03   0.106E+02 0.951E+01 -.712E+03   -.501E-01 -.107E-01 0.353E+01
   0.361E-01 -.512E+01 0.708E+03   -.360E-01 0.512E+01 -.712E+03   -.217E-03 -.256E-02 0.353E+01
   -.995E+01 -.113E+02 -.688E+03   0.998E+01 0.113E+02 0.692E+03   -.359E-01 -.731E-02 -.370E+01
   0.199E-01 -.551E+01 -.691E+03   -.198E-01 0.552E+01 0.695E+03   -.119E-03 -.227E-02 -.369E+01
   -.552E+01 -.522E+01 0.703E+03   0.555E+01 0.522E+01 -.708E+03   -.306E-01 -.900E-02 0.353E+01
   0.212E-01 -.761E+01 0.704E+03   -.211E-01 0.761E+01 -.708E+03   -.137E-03 -.682E-02 0.353E+01
   0.822E-02 -.246E+00 0.595E+01   0.223E-11 0.853E-12 0.182E-11   -.125E-01 0.234E+00 -.691E+01

 POSITION                                       TOTAL-FORCE (eV/Angst)
      8.45129     11.78922     13.22011         0.003150      0.320800      0.151273
      8.44827     10.55171     17.46787        -0.003366     -0.007477      0.366045
      8.44707     10.54754     15.21331        -0.003546     -0.010927      0.110244
      8.45116      9.32335     13.20450         0.003451     -0.309311      0.167224
      0.00000      0.00000      9.00000        -0.006581     -0.000036      0.175656
      2.11389      2.11389      9.00000        -0.014692     -0.005833      0.175604
      0.00000      2.11389     11.11389        -0.007302     -0.000677     -0.139459
      2.11389      0.00000     11.11389        -0.010410     -0.000091     -0.138693
      0.00000      4.22777      9.00000        -0.011333     -0.002663      0.176761
      2.11389      6.34166      9.00000        -0.036341     -0.007015      0.179504
      0.00000      6.34166     11.11389        -0.011675      0.000445     -0.134125
      2.11389      4.22777     11.11389        -0.023269     -0.004045     -0.133340
      0.00000      8.45554      9.00000        -0.017452     -0.000853      0.178964
      2.11389     10.56943      9.00000        -0.045261      0.000273      0.182496
      0.00000     10.56943     11.11389        -0.011236      0.000121     -0.129564
      2.11389      8.45554     11.11389        -0.031524      0.001492     -0.117535
      0.00000     12.68331      9.00000        -0.017301      0.001133      0.178946
      2.11389     14.79720      9.00000        -0.035727      0.007202      0.179461
      0.00000     14.79720     11.11389        -0.011517     -0.000282     -0.134206
      2.11389     12.68331     11.11389        -0.031218     -0.001106     -0.117700
      0.00000     16.91108      9.00000        -0.011158      0.002700      0.176745
      2.11389     19.02497      9.00000        -0.014507      0.005647      0.175607
      0.00000     19.02497     11.11389        -0.007217      0.000655     -0.139489
      2.11389     16.91108     11.11389        -0.022848      0.004043     -0.133484
      4.22777      0.00000      9.00000        -0.012566     -0.000217      0.175834
      6.34166      2.11389      9.00000        -0.012070     -0.026351      0.175873
      4.22777      2.11389     11.11389        -0.015447     -0.013614     -0.134633
      6.34166      0.00000     11.11389        -0.007600     -0.000293     -0.135205
      4.22777      4.22777      9.00000        -0.034062     -0.025568      0.172723
      6.34166      6.34166      9.00000        -0.082195     -0.079366      0.135047
      4.22777      6.34166     11.11389        -0.083087     -0.006552     -0.112188
      6.34166      4.22777     11.11389        -0.026011     -0.073001     -0.123774
      4.22777      8.45554      9.00000        -0.096092     -0.009159      0.187423
      6.34166     10.56943      9.00000        -0.129019      0.002281      0.150621
      4.22777     10.56943     11.11389        -0.073973      0.000363     -0.070059
      6.34166      8.45554     11.11389        -0.575550      0.004524     -0.144907
      4.22777     12.68331      9.00000        -0.094477      0.010071      0.187167
      6.34166     14.79720      9.00000        -0.080442      0.078271      0.136306
      4.22777     14.79720     11.11389        -0.081217      0.006893     -0.112714
      6.34166     12.68331     11.11389        -0.555287     -0.003256     -0.141952
      4.22777     16.91108      9.00000        -0.033413      0.025149      0.172826
      6.34166     19.02497      9.00000        -0.011900      0.025547      0.175870
      4.22777     19.02497     11.11389        -0.015250      0.013178     -0.134745
      6.34166     16.91108     11.11389        -0.025552      0.071298     -0.124172
      8.45554      0.00000      9.00000        -0.000002     -0.000389      0.176229
     10.56943      2.11389      9.00000         0.012064     -0.026366      0.175863
      8.45554      2.11389     11.11389        -0.000021     -0.032427     -0.131366
     10.56943      0.00000     11.11389         0.007595     -0.000291     -0.135212
      8.45554      4.22777      9.00000        -0.000019     -0.085712      0.174489
     10.56943      6.34166      9.00000         0.082148     -0.079456      0.135013
      8.45554      6.34166     11.11389        -0.000100     -0.502900     -0.175065
     10.56943      4.22777     11.11389         0.025958     -0.073067     -0.123826
      8.45554      8.45554      9.00000        -0.000241     -0.026649     -0.236814
     10.56943     10.56943      9.00000         0.128950      0.002286      0.150946
      8.45554     10.56943     11.11389         0.003937      0.026319     -1.425147
     10.56943      8.45554     11.11389         0.573590      0.005518     -0.143631
      8.45554     12.68331      9.00000        -0.000224      0.028688     -0.225235
     10.56943     14.79720      9.00000         0.080390      0.078359      0.136279
      8.45554     14.79720     11.11389        -0.000087      0.487768     -0.172674
     10.56943     12.68331     11.11389         0.553511     -0.004189     -0.140839
[...]
     19.02497      6.34166     11.11389        -0.000039      0.000112      0.523408
     16.91108      6.34166      9.00000        -0.014158      0.003039     -0.565938
     19.02497      4.22777      9.00000        -0.000017      0.002059     -0.564812
     16.91108      8.45554     11.11389        -0.013174     -0.000219      0.517763
     19.02497     10.56943     11.11389        -0.000057     -0.000023      0.520483
     16.91108     10.56943      9.00000        -0.016262     -0.000073     -0.567584
     19.02497      8.45554      9.00000        -0.000037      0.000657     -0.566261
     16.91108     12.68331     11.11389        -0.013071      0.000157      0.517830
     19.02497     14.79720     11.11389        -0.000038     -0.000042      0.523469
     16.91108     14.79720      9.00000        -0.013986     -0.002982     -0.565924
     19.02497     12.68331      9.00000        -0.000040     -0.000687     -0.566253
     16.91108     16.91108     11.11389        -0.010004     -0.002027      0.524527
     19.02497     19.02497     11.11389        -0.000012     -0.000596      0.527530
     16.91108     19.02497      9.00000        -0.008502     -0.002464     -0.564323
     19.02497     16.91108      9.00000        -0.000017     -0.001887     -0.564803
    total drift:                               -0.004240     -0.011675     -0.966442

  FREE ENERGIE OF THE ION-ELECTRON SYSTEM (eV)
  free  energy   TOTEN  =      -679.20057784 eV

  energy  without entropy=     -679.20057784  energy(sigma->0) =     -679.20057784