 vasp.6.3.0 20Jan22 (build Apr  1 2022 16:44:48) complex
 executed on        HPECrayEX_GCC date 2023.01.09  20:52:02

 INCAR:
   SYSTEM = MgO-rocksalt
   ISMEAR = 0
   SIGMA = 0.05
   EDIFF = 1E-6
   ALGO = ALL
   ISTART = 0
   IBRION = -1
   NSW = 0
   ISYM = 2
   DIPOL = 0.5 0.5 0.5
   IDIPOL = 3
   LDIPOL = .TRUE.
   METAGGA = M06L
   ENCUT = 520
   PREC = Accurate
   LASPH = .TRUE.
   LREAL = Auto
   ISPIN = 1
   NELM = 200
   NELMIN = 8
   NCORE = 4
   KPAR = 2
   LWAVE = .FALSE.
   LCHARG = .FALSE.

 POTCAR:    PAW_PBE Au 04Oct2007
 POTCAR:    PAW_PBE Mg_pv 13Apr2007
 POTCAR:    PAW_PBE O 08Apr2002
 POTCAR:    PAW_PBE Au 04Oct2007
   VRHFIN =Au: s1d10

   TITEL  = PAW_PBE Au 04Oct2007
   POMASS =  196.966; ZVAL   =   11.000    mass and valenz
   ENMAX  =  229.943; ENMIN  =  172.457 eV

   TITEL  = PAW_PBE Mg_pv 13Apr2007
   POMASS =   24.305; ZVAL   =    8.000    mass and valenz
   ENMAX  =  403.929; ENMIN  =  302.947 eV

   TITEL  = PAW_PBE O 08Apr2002
   POMASS =   16.000; ZVAL   =    6.000    mass and valenz
   ENMAX  =  400.000; ENMIN  =  300.000 eV

 Optimization of the real space projectors (new method)

 maximal supplied QI-value         = 15.12
 optimisation between [QCUT,QGAM] = [ 11.64, 23.28] = [ 37.95,151.78] Ry
 Optimized for a Real-space Cutoff    1.49 Angstroem

   l    n(q)    QCUT    max X(q) W(low)/X(q) W(high)/X(q)  e(spline)
   2      9    11.641    60.898    0.24E-03    0.10E-03    0.19E-06
   2      9    11.641    58.894    0.25E-03    0.10E-03    0.19E-06
   0     10    11.641   109.617    0.73E-04    0.33E-04    0.11E-06
   0     10    11.641    75.026    0.71E-04    0.32E-04    0.11E-06
   1     10    11.641    16.344    0.27E-04    0.97E-04    0.16E-06
   1     10    11.641    10.160    0.23E-04    0.77E-04    0.13E-06
 Optimization of the real space projectors (new method)

[...]

   l    n(q)    QCUT    max X(q) W(low)/X(q) W(high)/X(q)  e(spline)
   1      8    11.527     2.974    0.44E-04    0.56E-04    0.12E-06
   1      8    11.527     4.279    0.12E-03    0.12E-03    0.26E-06
   0      9    11.527    16.381    0.46E-04    0.64E-04    0.78E-07
   0      9    11.527     5.611    0.26E-04    0.43E-04    0.55E-07
   2      8    11.527     4.652    0.22E-03    0.72E-04    0.47E-07
 Optimization of the real space projectors (new method)

 maximal supplied QI-value         = 24.76
 optimisation between [QCUT,QGAM] = [ 11.64, 23.27] = [ 37.91,151.63] Ry
 Optimized for a Real-space Cutoff    1.14 Angstroem

   l    n(q)    QCUT    max X(q) W(low)/X(q) W(high)/X(q)  e(spline)
   0      8    11.635    20.381    0.10E-03    0.33E-03    0.24E-06
   0      8    11.635    15.268    0.11E-03    0.35E-03    0.26E-06
   1      7    11.635     5.964    0.24E-03    0.31E-03    0.30E-06
   1      7    11.635     5.382    0.22E-03    0.25E-03    0.26E-06
  PAW_PBE Au 04Oct2007                  :
  PAW_PBE Mg_pv 13Apr2007               :
  PAW_PBE O 08Apr2002                   :

 POSCAR: Au Mg  O
  positions in direct lattice
  velocities in cartesian coordinates

 METAGGA = M06L     LMAXTAU =  6    LMIXTAU =  F

 ion  position               nearest neighbor table
   1  0.400  0.425  0.603- 153 2.29   2 2.53  55 2.73
   2  0.400  0.510  0.684-   1 2.53   3 2.68   4 2.74
   3  0.400  0.633  0.713-   4 2.57   2 2.68
   4  0.400  0.605  0.600- 157 2.16   3 2.57   2 2.74  59 2.95  40 3.02  60 3.02
   5  0.000  0.000  0.407- 107 2.11 108 2.11 123 2.11 188 2.11 105 2.11
   6  0.100  0.100  0.407- 107 2.11 108 2.11 112 2.11 127 2.11 106 2.11
   7  0.000  0.100  0.503- 105 2.11 106 2.11 109 2.11 186 2.11 107 2.11
   8  0.100  0.000  0.503- 105 2.11 106 2.11 122 2.11 125 2.11 108 2.11
   9  0.000  0.200  0.407- 111 2.11 107 2.11 112 2.11 192 2.11 109 2.11
  10  0.100  0.300  0.407- 112 2.11 111 2.11 116 2.11 131 2.11 110 2.11
  11  0.000  0.300  0.503- 109 2.11 110 2.11 113 2.11 190 2.11 111 2.11
  12  0.100  0.200  0.503- 110 2.11 109 2.11 106 2.11 129 2.11 112 2.11
  13  0.000  0.400  0.407- 111 2.11 115 2.11 116 2.11 196 2.11 113 2.11
  14  0.100  0.500  0.407- 115 2.11 116 2.11 120 2.11 135 2.11 114 2.11
  15  0.000  0.500  0.503- 113 2.11 114 2.11 117 2.11 194 2.11 115 2.11
  16  0.100  0.400  0.503- 110 2.11 113 2.11 114 2.11 133 2.11 116 2.11
  17  0.000  0.600  0.407- 115 2.11 119 2.11 120 2.11 200 2.11 117 2.11
  18  0.100  0.700  0.407- 124 2.11 120 2.11 119 2.11 139 2.11 118 2.11
  19  0.000  0.700  0.503- 121 2.11 118 2.11 117 2.11 198 2.11 119 2.11
  20  0.100  0.600  0.503- 114 2.11 117 2.11 118 2.11 137 2.11 120 2.11
  21  0.000  0.800  0.407- 119 2.11 123 2.11 124 2.11 204 2.11 121 2.11
  22  0.100  0.900  0.407- 108 2.11 123 2.11 124 2.11 143 2.11 122 2.11
  23  0.000  0.900  0.503- 105 2.11 121 2.11 122 2.11 202 2.11 123 2.11
  24  0.100  0.800  0.503- 118 2.11 121 2.11 122 2.11 141 2.11 124 2.11
  25  0.200  0.000  0.407- 128 2.11 127 2.11 108 2.11 143 2.11 125 2.11
  26  0.300  0.100  0.407- 127 2.11 128 2.11 132 2.11 147 2.11 126 2.11
  27  0.200  0.100  0.503- 126 2.11 125 2.11 106 2.11 129 2.11 127 2.11
  28  0.300  0.000  0.503- 125 2.11 126 2.11 142 2.11 145 2.11 128 2.11
  29  0.200  0.200  0.407- 131 2.11 132 2.11 112 2.11 127 2.11 129 2.11
  30  0.300  0.300  0.407- 131 2.11 132 2.11 136 2.11 151 2.11 130 2.11
  31  0.200  0.300  0.503- 129 2.11 130 2.11 110 2.11 133 2.11 131 2.11
  32  0.300  0.200  0.503- 129 2.11 130 2.11 126 2.11 149 2.11 132 2.11
  33  0.200  0.400  0.407- 136 2.11 131 2.11 135 2.11 116 2.11 133 2.11
  34  0.300  0.500  0.407- 135 2.11 136 2.11 140 2.11 155 2.11 134 2.11
  35  0.200  0.500  0.503- 134 2.11 133 2.11 114 2.11 137 2.11 135 2.11
  36  0.300  0.400  0.503- 133 2.11 130 2.11 134 2.11 153 2.11 136 2.11
  37  0.200  0.600  0.407- 140 2.11 135 2.11 139 2.11 120 2.11 137 2.11
  38  0.300  0.700  0.407- 139 2.11 144 2.11 140 2.11 159 2.11 138 2.11
  39  0.200  0.700  0.503- 138 2.11 141 2.11 118 2.11 137 2.11 139 2.11
  40  0.300  0.600  0.503- 137 2.11 134 2.11 138 2.11 157 2.11 140 2.11   4 3.02
  41  0.200  0.800  0.407- 139 2.11 144 2.11 143 2.11 124 2.11 141 2.11
  42  0.300  0.900  0.407- 143 2.11 128 2.11 144 2.11 163 2.11 142 2.11
  43  0.200  0.900  0.503- 142 2.11 125 2.11 141 2.11 122 2.11 143 2.11
  44  0.300  0.800  0.503- 138 2.11 141 2.11 142 2.11 161 2.11 144 2.11
  45  0.400  0.000  0.407- 128 2.11 147 2.11 148 2.11 163 2.11 145 2.11
  46  0.500  0.100  0.407- 147 2.11 148 2.11 152 2.11 167 2.11 146 2.11
  47  0.400  0.100  0.503- 126 2.11 145 2.11 146 2.11 149 2.11 147 2.11
  48  0.500  0.000  0.503- 145 2.11 146 2.11 162 2.11 165 2.11 148 2.11
  49  0.400  0.200  0.407- 151 2.11 147 2.11 132 2.11 152 2.11 149 2.11
  50  0.500  0.300  0.407- 152 2.11 151 2.11 156 2.11 171 2.11 150 2.11
  51  0.400  0.300  0.503- 149 2.11 130 2.11 150 2.11 153 2.11 151 2.11
  52  0.500  0.200  0.503- 150 2.11 149 2.11 146 2.11 169 2.11 152 2.11
  53  0.400  0.400  0.407- 136 2.11 151 2.11 155 2.11 156 2.11 153 2.11
  54  0.500  0.500  0.407- 155 2.11 156 2.11 160 2.11 175 2.11 154 2.11
  55  0.400  0.500  0.503- 134 2.11 153 2.11 154 2.11 157 2.11 155 2.11   1 2.73
  56  0.500  0.400  0.503- 150 2.11 153 2.11 154 2.11 173 2.11 156 2.11
  57  0.400  0.600  0.407- 140 2.11 155 2.11 159 2.11 160 2.11 157 2.11
  58  0.500  0.700  0.407- 164 2.11 160 2.11 159 2.11 179 2.11 158 2.11
  59  0.400  0.700  0.503- 161 2.11 157 2.11 158 2.11 138 2.11 159 2.11   4 2.95
  60  0.500  0.600  0.503- 154 2.11 157 2.11 158 2.11 177 2.11 160 2.11   4 3.02
[...]
 190  0.900  0.300  0.503-  92 2.11  91 2.11  11 2.11  96 2.11  90 2.11
 191  0.800  0.300  0.407-  70 2.11  89 2.11  90 2.11  93 2.11  91 2.11
 192  0.900  0.200  0.407-  90 2.11  86 2.11  89 2.11   9 2.11  92 2.11
 193  0.800  0.400  0.503-  76 2.11  91 2.11  95 2.11  96 2.11  93 2.11
 194  0.900  0.500  0.503-  15 2.11  95 2.11  96 2.11 100 2.11  94 2.11
 195  0.800  0.500  0.407-  74 2.11  93 2.11  94 2.11  97 2.11  95 2.11
 196  0.900  0.400  0.407-  13 2.11  90 2.11  93 2.11  94 2.11  96 2.11
 197  0.800  0.600  0.503-  80 2.11  95 2.11  99 2.11 100 2.11  97 2.11
 198  0.900  0.700  0.503- 104 2.11  99 2.11 100 2.11  19 2.11  98 2.11
 199  0.800  0.700  0.407-  78 2.11 101 2.11  98 2.11  97 2.11  99 2.11
 200  0.900  0.600  0.407-  17 2.11  94 2.11  97 2.11  98 2.11 100 2.11
 201  0.800  0.800  0.503-  84 2.11  99 2.11 103 2.11 104 2.11 101 2.11
 202  0.900  0.900  0.503-  23 2.11  88 2.11 103 2.11 104 2.11 102 2.11
 203  0.800  0.900  0.407-  82 2.11  85 2.11 101 2.11 102 2.11 103 2.11
 204  0.900  0.800  0.407-  98 2.11  21 2.11 101 2.11 102 2.11 104 2.11

  LATTYP: Found a simple tetragonal cell.
 ALAT       =    21.1388521970
 C/A-ratio  =     1.0461251639

  Lattice vectors:

 A1 = (  21.1388521970,   0.0000000000,   0.0000000000)
 A2 = (   0.0000000000,  21.1388521970,   0.0000000000)
 A3 = (   0.0000000000,   0.0000000000,  22.1138852197)

Analysis of symmetry for initial positions (statically):
 Subroutine PRICEL returns:
 Original cell was already a primitive cell.

 Routine SETGRP: Setting up the symmetry group for a
 simple tetragonal supercell.

 Subroutine GETGRP returns: Found  1 space group operations
 (whereof  1 operations were pure point group operations)
 out of a pool of 16 trial point group operations.

The static configuration has the point symmetry C_1 .

Analysis of symmetry for dynamics (positions and initial velocities):
 Subroutine PRICEL returns:
 Original cell was already a primitive cell.

[...]

The dynamic configuration has the point symmetry C_1 .

Analysis of constrained symmetry for selective dynamics:
 Subroutine PRICEL returns:
 Original cell was already a primitive cell.

 Routine SETGRP: Setting up the symmetry group for a
 simple tetragonal supercell.

 Subroutine GETGRP returns: Found  1 space group operations
 (whereof  1 operations were pure point group operations)
 out of a pool of 16 trial point group operations.

The constrained configuration has the point symmetry C_1 .

 Subroutine INISYM returns: Found  1 space group operations
 (whereof  1 operations are pure point group operations),
 and found     1 'primitive' translations

                                     Primitive cell

  volume of cell :    9881.6133

  direct lattice vectors                    reciprocal lattice vectors
    21.138852197  0.000000000  0.000000000     0.047306258  0.000000000  0.000000000
     0.000000000 21.138852197  0.000000000     0.000000000  0.047306258  0.000000000
     0.000000000  0.000000000 22.113885220     0.000000000  0.000000000  0.045220457

  length of vectors
    21.138852197 21.138852197 22.113885220     0.047306258  0.047306258  0.045220457

  position of ions in fractional coordinates (direct lattice)
     0.399951201  0.425242954  0.603301976
     0.399957296  0.509675129  0.684179581
     0.400053355  0.632584174  0.713145052
     0.399972466  0.604759939  0.599963044
     0.000000000  0.000000000  0.406984115
     0.100000000  0.100000000  0.406984115
     0.000000000  0.100000000  0.502574971
     0.100000000  0.000000000  0.502574971
     0.000000000  0.200000000  0.406984115
     0.100000000  0.300000000  0.406984115
     0.000000000  0.300000000  0.502574971
     0.100000000  0.200000000  0.502574971
[...]
     52     -44.6813      2.00000
     53     -44.6772      2.00000
     54     -44.6667      2.00000
     55     -44.6589      2.00000
     56     -44.6586      2.00000
     57     -44.6560      2.00000
     58     -44.6554      2.00000
     59     -44.6533      2.00000
     60     -44.6527      2.00000
[...]
    946      12.2839      0.00000
    947      12.4368      0.00000
    948      12.5859      0.00000
    949      12.9713      0.00000
    950      13.0112      0.00000
    951      13.3674      0.00000
    952      13.4576      0.00000
    953      14.0281      0.00000
    954      14.6465      0.00000
    955      15.2807      0.00000
    956      15.8846      0.00000
    957      16.3159      0.00000
    958      17.1673      0.00000
    959      18.6346      0.00000
    960      20.3246      0.00000

 soft charge-density along one line, spin component           1
         0         1         2         3         4         5         6         7         8         9
 total charge-density along one line

------------------------ aborting loop EDIFF was not reached (unconverged)  ----------------------------

  FORCE on cell =-STRESS in cart. coord.  units (eV):
  Direction    XX          YY          ZZ          XY          YZ          ZX
  Alpha Z  1417.83424  1417.83424  1417.83424
  Ewald  478689.67923480803.91176************     0.83759   457.00324     0.56808
  Hartree508571.62620510216.80757************     0.64884   334.77904     0.35176
  E(xc)   -8935.05578 -8934.08050 -8926.22368     0.02094     0.50499     0.00780
  Local  ************************************    -1.43250  -779.88620    -0.92956
  n-local -8668.86544 -8678.46877 -8830.82501     0.02039    -5.56384    -0.01551
  augment  4393.16225  4389.25078  4363.59180    -0.01185    -1.07643    -0.07858
  Kinetic 23486.93881 23475.09199 23674.22676    -0.08773    -5.12486     0.05081
  Fock        0.00000     0.00000     0.00000     0.00000     0.00000     0.00000
  Total    -226.28322  -224.43014    13.86326    -0.00432     0.63593    -0.04520
  in kB     -36.68893   -36.38848     2.24775    -0.00070     0.10311    -0.00733

 VOLUME and BASIS-vectors are now :
  energy-cutoff  :      520.00
  volume of cell :     9881.61
      direct lattice vectors                 reciprocal lattice vectors
    21.138852197  0.000000000  0.000000000     0.047306258  0.000000000  0.000000000
     0.000000000 21.138852197  0.000000000     0.000000000  0.047306258  0.000000000
     0.000000000  0.000000000 22.113885220     0.000000000  0.000000000  0.045220457

  length of vectors
    21.138852197 21.138852197 22.113885220     0.047306258  0.047306258  0.045220457

 FORCES acting on ions:
    Electron-Ion                     Ewald-Force                    Non-Local-Force
   0.315E-01 0.369E+03 -.196E+04   -.629E-01 -.366E+03 0.197E+04   0.248E-01 -.355E+01 -.447E+01
   0.651E-01 0.209E+03 -.198E+04   -.196E+00 -.211E+03 0.198E+04   0.673E-01 0.238E+01 0.386E+01
   -.403E+00 -.354E+03 -.186E+04   0.386E+00 0.351E+03 0.185E+04   0.265E-03 0.390E+01 0.582E+01
   0.149E+00 -.226E+03 -.180E+04   -.137E+00 0.227E+03 0.180E+04   0.820E-02 -.862E+00 -.244E+01
   0.729E+01 -.276E+01 0.938E+03   -.731E+01 0.276E+01 -.929E+03   0.164E-01 -.132E-01 -.695E+01
   0.130E+02 0.618E+01 0.941E+03   -.131E+02 -.620E+01 -.932E+03   0.469E-01 0.262E-01 -.657E+01
   0.950E+01 0.530E+01 -.919E+03   -.951E+01 -.529E+01 0.910E+03   0.116E-01 0.406E-03 0.969E+01
   0.158E+02 -.518E+01 -.917E+03   -.158E+02 0.521E+01 0.908E+03   0.226E-01 -.230E-01 0.946E+01
   0.977E+01 0.993E+01 0.940E+03   -.981E+01 -.994E+01 -.931E+03   0.349E-01 0.163E-01 -.658E+01
   0.254E+02 0.185E+02 0.951E+03   -.256E+02 -.186E+02 -.942E+03   0.151E+00 0.599E-01 -.674E+01
   0.184E+02 0.158E+02 -.915E+03   -.185E+02 -.158E+02 0.906E+03   0.312E-01 0.841E-02 0.968E+01
   0.239E+02 0.201E+02 -.914E+03   -.240E+02 -.201E+02 0.904E+03   0.708E-01 0.230E-01 0.101E+02
   0.172E+02 0.971E+01 0.947E+03   -.173E+02 -.974E+01 -.937E+03   0.888E-01 0.279E-01 -.697E+01
   0.393E+02 0.476E+01 0.963E+03   -.396E+02 -.479E+01 -.954E+03   0.250E+00 0.278E-01 -.691E+01
   0.286E+02 0.430E+01 -.909E+03   -.286E+02 -.430E+01 0.900E+03   0.719E-01 0.168E-01 0.936E+01
   0.537E+02 0.225E+02 -.898E+03   -.538E+02 -.225E+02 0.889E+03   0.111E+00 0.403E-01 0.921E+01
   0.190E+02 -.486E+01 0.949E+03   -.192E+02 0.486E+01 -.939E+03   0.976E-01 0.701E-02 -.660E+01
   0.312E+02 -.168E+02 0.957E+03   -.315E+02 0.168E+02 -.948E+03   0.205E+00 -.606E-01 -.670E+01
   0.231E+02 -.140E+02 -.911E+03   -.232E+02 0.140E+02 0.902E+03   0.634E-01 -.259E-01 0.941E+01
   0.621E+02 -.117E+02 -.893E+03   -.623E+02 0.117E+02 0.884E+03   0.168E+00 0.423E-02 0.994E+01
   0.122E+02 -.120E+02 0.942E+03   -.122E+02 0.121E+02 -.933E+03   0.549E-01 -.337E-01 -.692E+01
   0.156E+02 -.127E+02 0.943E+03   -.157E+02 0.128E+02 -.934E+03   0.721E-01 -.576E-01 -.723E+01
   0.116E+02 -.114E+02 -.918E+03   -.117E+02 0.114E+02 0.909E+03   0.216E-01 -.217E-01 0.959E+01
   0.328E+02 -.257E+02 -.908E+03   -.330E+02 0.258E+02 0.898E+03   0.965E-01 -.377E-01 0.963E+01
   0.133E+02 -.527E+01 0.944E+03   -.134E+02 0.530E+01 -.935E+03   0.492E-01 -.304E-01 -.656E+01
   0.951E+01 0.126E+02 0.949E+03   -.955E+01 -.127E+02 -.940E+03   0.320E-01 0.856E-01 -.713E+01
   0.188E+02 0.132E+02 -.913E+03   -.188E+02 -.132E+02 0.904E+03   0.286E-01 0.345E-01 0.940E+01
   0.117E+02 -.106E+02 -.910E+03   -.117E+02 0.106E+02 0.901E+03   0.246E-01 -.312E-01 0.956E+01
   0.206E+02 0.226E+02 0.952E+03   -.207E+02 -.227E+02 -.943E+03   0.983E-01 0.121E+00 -.675E+01
   0.264E+02 0.457E+02 0.987E+03   -.268E+02 -.462E+02 -.978E+03   0.274E+00 0.380E+00 -.709E+01
   0.558E+02 0.505E+02 -.889E+03   -.561E+02 -.506E+02 0.880E+03   0.260E+00 0.393E-01 0.963E+01
   0.240E+02 0.539E+02 -.895E+03   -.241E+02 -.542E+02 0.886E+03   0.540E-01 0.233E+00 0.987E+01
   0.469E+02 0.254E+02 0.983E+03   -.475E+02 -.255E+02 -.974E+03   0.463E+00 0.123E+00 -.695E+01
   0.504E+02 0.115E+02 0.104E+04   -.512E+02 -.117E+02 -.103E+04   0.604E+00 0.150E+00 -.761E+01
   0.113E+03 0.144E+02 -.848E+03   -.113E+03 -.145E+02 0.839E+03   0.449E+00 0.581E-01 0.894E+01
   0.128E+03 0.926E+02 -.765E+03   -.130E+03 -.928E+02 0.757E+03   0.172E+01 0.143E+00 0.833E+01
   0.534E+02 -.141E+02 0.992E+03   -.541E+02 0.141E+02 -.983E+03   0.609E+00 -.475E-01 -.682E+01
   0.350E+02 -.448E+02 0.101E+04   -.355E+02 0.454E+02 -.100E+04   0.398E+00 -.450E+00 -.747E+01
   0.778E+02 -.503E+02 -.869E+03   -.783E+02 0.504E+02 0.860E+03   0.401E+00 -.612E-01 0.919E+01
   0.155E+03 -.488E+02 -.723E+03   -.159E+03 0.489E+02 0.714E+03   0.282E+01 -.905E-01 0.824E+01
   0.273E+02 -.286E+02 0.961E+03   -.275E+02 0.288E+02 -.952E+03   0.171E+00 -.166E+00 -.650E+01
   0.121E+02 -.255E+02 0.956E+03   -.121E+02 0.257E+02 -.947E+03   0.329E-01 -.183E+00 -.659E+01
   0.250E+02 -.284E+02 -.907E+03   -.250E+02 0.285E+02 0.898E+03   0.457E-01 -.920E-01 0.941E+01
   0.386E+02 -.775E+02 -.871E+03   -.386E+02 0.779E+02 0.862E+03   0.223E-01 -.397E+00 0.929E+01
   -.993E-02 -.743E+01 0.949E+03   0.172E-02 0.747E+01 -.940E+03   0.887E-02 -.345E-01 -.682E+01
   -.953E+01 0.126E+02 0.949E+03   0.955E+01 -.127E+02 -.940E+03   -.260E-01 0.982E-01 -.677E+01
   -.103E-01 0.219E+02 -.907E+03   0.401E-02 -.220E+02 0.898E+03   0.333E-02 0.763E-01 0.101E+02
   -.117E+02 -.106E+02 -.910E+03   0.117E+02 0.106E+02 0.901E+03   -.222E-01 -.340E-01 0.987E+01
   -.146E-01 0.363E+02 0.965E+03   0.574E-02 -.368E+02 -.956E+03   0.212E-03 0.396E+00 -.663E+01
   -.264E+02 0.457E+02 0.987E+03   0.268E+02 -.461E+02 -.978E+03   -.262E+00 0.372E+00 -.679E+01
   -.445E-01 0.133E+03 -.821E+03   0.361E-01 -.135E+03 0.813E+03   0.158E-01 0.182E+01 0.919E+01
   -.240E+02 0.539E+02 -.895E+03   0.241E+02 -.542E+02 0.886E+03   -.552E-01 0.244E+00 0.980E+01
   -.276E-01 0.474E+02 0.105E+04   0.198E-01 -.480E+02 -.104E+04   0.404E-02 0.526E+00 -.554E+01
   -.504E+02 0.115E+02 0.104E+04   0.512E+02 -.117E+02 -.103E+04   -.623E+00 0.145E+00 -.741E+01
   -.103E+00 0.195E+02 -.584E+03   0.971E-01 -.212E+02 0.579E+03   0.513E-02 0.148E+01 0.565E+01
   -.128E+03 0.926E+02 -.765E+03   0.130E+03 -.928E+02 0.757E+03   -.172E+01 0.144E+00 0.838E+01
   -.109E-01 -.272E+02 0.107E+04   0.157E-01 0.276E+02 -.106E+04   -.149E-01 -.326E+00 -.441E+01
   -.350E+02 -.448E+02 0.101E+04   0.355E+02 0.454E+02 -.100E+04   -.396E+00 -.453E+00 -.725E+01
   -.105E-01 -.162E+03 -.735E+03   0.275E-01 0.166E+03 0.727E+03   -.901E-02 -.272E+01 0.754E+01
   -.155E+03 -.487E+02 -.723E+03   0.159E+03 0.488E+02 0.715E+03   -.282E+01 -.956E-01 0.811E+01
[...]
   -.100E+02 0.912E+01 0.709E+03   0.101E+02 -.915E+01 -.712E+03   -.492E-01 0.418E-01 0.334E+01
   0.373E-01 0.632E+01 0.705E+03   -.206E-02 -.632E+01 -.708E+03   -.910E-02 0.151E-02 0.344E+01
   -.185E+02 0.965E+01 -.685E+03   0.185E+02 -.967E+01 0.688E+03   -.556E-01 0.259E-01 -.301E+01
   -.625E-02 0.256E+01 -.686E+03   -.466E-02 -.257E+01 0.690E+03   0.870E-02 0.149E-01 -.298E+01
   -.146E+02 0.235E+01 0.713E+03   0.147E+02 -.236E+01 -.716E+03   -.852E-01 0.141E-01 0.359E+01
   -.500E-02 0.606E+01 0.709E+03   -.342E-02 -.608E+01 -.712E+03   0.532E-02 0.239E-01 0.366E+01
   -.210E+02 -.475E+01 -.683E+03   0.210E+02 0.474E+01 0.687E+03   -.571E-01 0.627E-02 -.308E+01
   0.262E-01 -.828E+01 -.687E+03   -.247E-02 0.831E+01 0.691E+03   0.202E-02 -.958E-02 -.297E+01
   -.121E+02 -.802E+01 0.711E+03   0.121E+02 0.803E+01 -.714E+03   -.737E-01 -.224E-01 0.350E+01
   -.172E-01 -.299E+01 0.710E+03   -.287E-02 0.296E+01 -.713E+03   0.588E-02 0.425E-02 0.363E+01
   -.126E+02 -.117E+02 -.687E+03   0.126E+02 0.117E+02 0.691E+03   -.423E-01 -.286E-01 -.302E+01
   0.203E-01 -.708E+01 -.691E+03   -.107E-02 0.710E+01 0.694E+03   0.829E-02 -.191E-01 -.296E+01
   -.671E+01 -.667E+01 0.706E+03   0.671E+01 0.667E+01 -.709E+03   -.316E-01 -.208E-01 0.362E+01
   0.470E-02 -.761E+01 0.707E+03   -.135E-02 0.763E+01 -.710E+03   0.241E-03 -.232E-01 0.358E+01
   -.350E+00 -.338E+01 -.913E+02   0.958E-12 0.122E-11 0.209E-10   0.134E+00 0.338E+01 0.170E+03

 POSITION                                       TOTAL-FORCE (eV/Angst)
      8.45451      8.98915     13.34135        -0.005699     -0.384712     -0.438957
      8.45464     10.77395     15.12987        -0.095426      0.048789      0.217116
      8.45667     13.37210     15.77041        -0.016142      0.483127      0.192127
      8.45496     12.78393     13.26751         0.021548      0.026126     -0.505408
      0.00000      0.00000      9.00000         0.010153     -0.016131      1.265220
      2.11389      2.11389      9.00000        -0.030824     -0.004493      1.608164
      0.00000      2.11389     11.11389        -0.048672      0.027995     -1.438780
      2.11389      0.00000     11.11389        -0.003532     -0.000681     -1.055262
      0.00000      4.22777      9.00000         0.007852     -0.011290      1.588747
      2.11389      6.34166      9.00000        -0.027302     -0.018116      1.762892
      0.00000      6.34166     11.11389         0.012471     -0.002761     -2.267378
      2.11389      4.22777     11.11389         0.022694     -0.042173     -1.516484
      0.00000      8.45554      9.00000        -0.026617      0.005818      1.239778
      2.11389     10.56943      9.00000        -0.070183     -0.000371      1.457114
      0.00000     10.56943     11.11389         0.000706      0.006676     -0.541324
      2.11389      8.45554     11.11389        -0.011520     -0.005697     -0.640050
      0.00000     12.68331      9.00000        -0.028181      0.008098      1.624006
      2.11389     14.79720      9.00000        -0.056269      0.011029      1.552466
      0.00000     14.79720     11.11389        -0.012647     -0.015857     -1.359247
      2.11389     12.68331     11.11389         0.015065      0.007273     -0.645666
      0.00000     16.91108      9.00000        -0.006655      0.010253      1.295645
      2.11389     19.02497      9.00000        -0.030165      0.014868      1.038440
      0.00000     19.02497     11.11389        -0.007884     -0.011769     -1.729663
      2.11389     16.91108     11.11389        -0.024015     -0.003834     -1.968363
      4.22777      0.00000      9.00000        -0.010542      0.001566      1.585193
      6.34166      2.11389      9.00000         0.000489     -0.014352      1.029917
      4.22777      2.11389     11.11389        -0.009481     -0.012074     -1.010183
      6.34166      0.00000     11.11389        -0.036109     -0.008537     -0.969540
      4.22777      4.22777      9.00000        -0.018687     -0.041655      1.494788
      6.34166      6.34166      9.00000        -0.085754     -0.120616      1.287171
      4.22777      6.34166     11.11389        -0.023061      0.007832     -1.801810
      6.34166      4.22777     11.11389        -0.112562     -0.018757     -1.234045
      4.22777      8.45554      9.00000        -0.109921     -0.037627      1.514488
      6.34166     10.56943      9.00000        -0.190847     -0.048721      0.982087
      4.22777     10.56943     11.11389        -0.061125     -0.040405     -0.756831
      6.34166      8.45554     11.11389        -0.586314     -0.019142     -0.376220
      4.22777     12.68331      9.00000        -0.142976      0.019563      1.821724
      6.34166     14.79720      9.00000        -0.132751      0.152261      1.067470
      4.22777     14.79720     11.11389        -0.088971     -0.000856     -0.533653
      6.34166     12.68331     11.11389        -0.977735     -0.014104     -0.374778
      4.22777     16.91108      9.00000        -0.039776      0.049103      1.731009
      6.34166     19.02497      9.00000        -0.003568      0.032782      1.723429
      4.22777     19.02497     11.11389        -0.016528      0.015747     -0.199882
      6.34166     16.91108     11.11389         0.015413      0.031418     -0.854491
      8.45554      0.00000      9.00000        -0.019945      0.012913      1.566256
     10.56943      2.11389      9.00000        -0.005634     -0.024964      1.403861
      8.45554      2.11389     11.11389        -0.001551     -0.017189     -1.891799
     10.56943      0.00000     11.11389         0.001113      0.000943     -1.041095
      8.45554      4.22777      9.00000        -0.015743     -0.087119      1.438924
     10.56943      6.34166      9.00000         0.075414     -0.092414      1.397003
      8.45554      6.34166     11.11389         0.004326     -0.518702     -0.568514
     10.56943      4.22777     11.11389         0.009788     -0.021497     -1.387372
      8.45554      8.45554      9.00000         0.005957     -0.114876      0.774922
     10.56943     10.56943      9.00000         0.206257     -0.049822      1.181911
      8.45554     10.56943     11.11389        -0.000269     -0.181601     -0.461126
     10.56943      8.45554     11.11389         0.581826     -0.004395     -0.256601
      8.45554     12.68331      9.00000        -0.003700      0.067944      0.366725
     10.56943     14.79720      9.00000         0.132122      0.138944      1.361889
      8.45554     14.79720     11.11389         0.009308      1.014951     -0.485567
     10.56943     12.68331     11.11389         0.981879     -0.001301     -0.575736
[...]
     19.02497      6.34166     11.11389        -0.001030     -0.007560     -0.013187
     16.91108      6.34166      9.00000        -0.003979      0.010350     -0.427793
     19.02497      4.22777      9.00000         0.026425      0.003855     -0.200355
     16.91108      8.45554     11.11389        -0.035087      0.006044      0.006293
     19.02497     10.56943     11.11389        -0.002986      0.007864      0.007109
     16.91108     10.56943      9.00000        -0.002599     -0.000229     -0.026722
     19.02497      8.45554      9.00000        -0.003045     -0.006892     -0.058625
     16.91108     12.68331     11.11389        -0.031575     -0.008245     -0.054453
     19.02497     14.79720     11.11389         0.026961      0.023665     -0.005099
     16.91108     14.79720      9.00000        -0.014577     -0.020642     -0.041661
     19.02497     12.68331      9.00000        -0.018411     -0.004859     -0.040085
     16.91108     16.91108     11.11389        -0.003676     -0.022824     -0.055462
     19.02497     19.02497     11.11389         0.026221     -0.004582      0.019925
     16.91108     19.02497      9.00000        -0.047722     -0.018162     -0.019713
     19.02497     16.91108      9.00000         0.011190     -0.013156      0.029396
    total drift:                               -0.216792     -0.001029     78.882535

  FREE ENERGIE OF THE ION-ELECTRON SYSTEM (eV)
  free  energy   TOTEN  =     -1819.54276607 eV

  energy  without entropy=    -1819.53702279  energy(sigma->0) =    -1819.53989443