 vasp.6.3.0 20Jan22 (build Apr  1 2022 16:44:48) complex
 executed on        HPECrayEX_GCC date 2023.01.17  00:16:35

 INCAR:
   SYSTEM = MgO-rocksalt
   ISMEAR = 0
   SIGMA = 0.05
   EDIFF = 1E-6
   ALGO = ALL
   ISTART = 0
   IBRION = -1
   NSW = 0
   ISYM = 2
   DIPOL = 0.5 0.5 0.5
   IDIPOL = 3
   LDIPOL = .TRUE.
   LHFCALC = .TRUE.
   GGA = B5
   AEXX = 0.2
   AGGAX = 0.72
   AGGAC = 0.81
   ALDAC = 0.19
   ENCUT = 520
   PREC = Accurate
   LASPH = .TRUE.
   LREAL = Auto
   ISPIN = 1
   NELM = 200
   NELMIN = 8
   NCORE = 4
   KPAR = 2
   LWAVE = .FALSE.
   LCHARG = .FALSE.

 POTCAR:    PAW_PBE Ag 02Apr2005
 POTCAR:    PAW_PBE Mg_pv 13Apr2007
 POTCAR:    PAW_PBE O 08Apr2002
|           W    W    AA    RRRRR   N    N  II  N    N   GGGG   !!!           |
|           W    W   A  A   R    R  NN   N  II  NN   N  G    G  !!!           |
|           W    W  A    A  R    R  N N  N  II  N N  N  G       !!!           |
|           W WW W  AAAAAA  RRRRR   N  N N  II  N  N N  G  GGG   !            |
|           WW  WW  A    A  R   R   N   NN  II  N   NN  G    G                |
|           W    W  A    A  R    R  N    N  II  N    N   GGGG   !!!           |
|     You have selected ISYM=2 for a HF type calculation. This will           |
|     symmetrize the charge density but not the exchange potential. I         |
|     suggest to use ISYM=3 instead. This uses symmetry to obtain the         |
|     orbitals at all k-points in the Brillouin zone, but does not apply      |
|     symmetry to the Hartree potential directly. The resultant charge        |
|     might have lower symmetry than the crystal but, at least, Hartree       |
|     and exchange are fully compatible.                                      |

   TITEL  = PAW_PBE Ag 02Apr2005
   POMASS =  107.868; ZVAL   =   11.000    mass and valenz
   ENMAX  =  249.844; ENMIN  =  187.383 eV

   TITEL  = PAW_PBE Mg_pv 13Apr2007
   POMASS =   24.305; ZVAL   =    8.000    mass and valenz
   ENMAX  =  403.929; ENMIN  =  302.947 eV

   TITEL  = PAW_PBE O 08Apr2002
   POMASS =   16.000; ZVAL   =    6.000    mass and valenz
   ENMAX  =  400.000; ENMIN  =  300.000 eV

 Optimization of the real space projectors (new method)

 maximal supplied QI-value         = 15.12
 optimisation between [QCUT,QGAM] = [ 11.64, 23.28] = [ 37.95,151.78] Ry
 Optimized for a Real-space Cutoff    1.45 Angstroem

   l    n(q)    QCUT    max X(q) W(low)/X(q) W(high)/X(q)  e(spline)
   2      9    11.641    53.897    0.22E-03    0.42E-04    0.28E-06
   2      9    11.641    52.416    0.23E-03    0.44E-04    0.29E-06
   0     10    11.641   122.045    0.51E-04    0.25E-04    0.16E-06
   0     10    11.641    73.629    0.49E-04    0.24E-04    0.16E-06
   1     10    11.641    15.255    0.99E-04    0.55E-04    0.11E-06
   1     10    11.641     9.562    0.81E-04    0.47E-04    0.95E-07
 Optimization of the real space projectors (new method)

[...]

   l    n(q)    QCUT    max X(q) W(low)/X(q) W(high)/X(q)  e(spline)
   1      8    11.527     2.974    0.44E-04    0.56E-04    0.12E-06
   1      8    11.527     4.279    0.12E-03    0.12E-03    0.26E-06
   0      9    11.527    16.381    0.46E-04    0.64E-04    0.78E-07
   0      9    11.527     5.611    0.26E-04    0.43E-04    0.55E-07
   2      8    11.527     4.652    0.22E-03    0.72E-04    0.47E-07
 Optimization of the real space projectors (new method)

 maximal supplied QI-value         = 24.76
 optimisation between [QCUT,QGAM] = [ 11.64, 23.27] = [ 37.91,151.63] Ry
 Optimized for a Real-space Cutoff    1.14 Angstroem

   l    n(q)    QCUT    max X(q) W(low)/X(q) W(high)/X(q)  e(spline)
   0      8    11.635    20.381    0.10E-03    0.33E-03    0.24E-06
   0      8    11.635    15.268    0.11E-03    0.35E-03    0.26E-06
   1      7    11.635     5.964    0.24E-03    0.31E-03    0.30E-06
   1      7    11.635     5.382    0.22E-03    0.25E-03    0.26E-06
|               ----> ADVICE to this user running VASP <----                  |
|     You enforced a specific xc type in the INCAR file but a different       |
|     type was found in the POTCAR file.                                      |
|     I HOPE YOU KNOW WHAT YOU ARE DOING!                                     |

  PAW_PBE Ag 02Apr2005                  :
  PAW_PBE Mg_pv 13Apr2007               :
  PAW_PBE O 08Apr2002                   :

 POSCAR: Ag Mg  O
  positions in direct lattice
  velocities in cartesian coordinates
 exchange correlation table for  LEXCH =       12
   RHO(1)=    0.500       N(1)  =     2000
   RHO(2)=  100.500       N(2)  =     4000

 ion  position               nearest neighbor table
   1  0.404  0.596  0.628-   2 2.63   4 2.74 157 2.77
   2  0.317  0.683  0.613- 138 2.50   1 2.63  59 3.04  40 3.04
   3  0.583  0.417  0.613- 173 2.50   4 2.63  75 3.04  56 3.04
   4  0.496  0.504  0.628-   3 2.63   1 2.74 154 2.77
   5  0.000  0.000  0.407- 107 2.11 108 2.11 123 2.11 188 2.11 105 2.11
   6  0.100  0.100  0.407- 107 2.11 108 2.11 112 2.11 127 2.11 106 2.11
   7  0.000  0.100  0.503- 105 2.11 106 2.11 109 2.11 186 2.11 107 2.11
   8  0.100  0.000  0.503- 105 2.11 106 2.11 122 2.11 125 2.11 108 2.11
   9  0.000  0.200  0.407- 111 2.11 107 2.11 112 2.11 192 2.11 109 2.11
  10  0.100  0.300  0.407- 112 2.11 111 2.11 116 2.11 131 2.11 110 2.11
  11  0.000  0.300  0.503- 109 2.11 110 2.11 113 2.11 190 2.11 111 2.11
  12  0.100  0.200  0.503- 110 2.11 109 2.11 106 2.11 129 2.11 112 2.11
  13  0.000  0.400  0.407- 111 2.11 115 2.11 116 2.11 196 2.11 113 2.11
  14  0.100  0.500  0.407- 115 2.11 116 2.11 120 2.11 135 2.11 114 2.11
  15  0.000  0.500  0.503- 113 2.11 114 2.11 117 2.11 194 2.11 115 2.11
  16  0.100  0.400  0.503- 110 2.11 113 2.11 114 2.11 133 2.11 116 2.11
  17  0.000  0.600  0.407- 115 2.11 119 2.11 120 2.11 200 2.11 117 2.11
  18  0.100  0.700  0.407- 124 2.11 120 2.11 119 2.11 139 2.11 118 2.11
  19  0.000  0.700  0.503- 121 2.11 118 2.11 117 2.11 198 2.11 119 2.11
  20  0.100  0.600  0.503- 114 2.11 117 2.11 118 2.11 137 2.11 120 2.11
  21  0.000  0.800  0.407- 119 2.11 123 2.11 124 2.11 204 2.11 121 2.11
  22  0.100  0.900  0.407- 108 2.11 123 2.11 124 2.11 143 2.11 122 2.11
  23  0.000  0.900  0.503- 105 2.11 121 2.11 122 2.11 202 2.11 123 2.11
  24  0.100  0.800  0.503- 118 2.11 121 2.11 122 2.11 141 2.11 124 2.11
  25  0.200  0.000  0.407- 128 2.11 127 2.11 108 2.11 143 2.11 125 2.11
  26  0.300  0.100  0.407- 127 2.11 128 2.11 132 2.11 147 2.11 126 2.11
  27  0.200  0.100  0.503- 126 2.11 125 2.11 106 2.11 129 2.11 127 2.11
  28  0.300  0.000  0.503- 125 2.11 126 2.11 142 2.11 145 2.11 128 2.11
  29  0.200  0.200  0.407- 131 2.11 132 2.11 112 2.11 127 2.11 129 2.11
  30  0.300  0.300  0.407- 131 2.11 132 2.11 136 2.11 151 2.11 130 2.11
  31  0.200  0.300  0.503- 129 2.11 130 2.11 110 2.11 133 2.11 131 2.11
  32  0.300  0.200  0.503- 129 2.11 130 2.11 126 2.11 149 2.11 132 2.11
  33  0.200  0.400  0.407- 136 2.11 131 2.11 135 2.11 116 2.11 133 2.11
  34  0.300  0.500  0.407- 135 2.11 136 2.11 140 2.11 155 2.11 134 2.11
  35  0.200  0.500  0.503- 134 2.11 133 2.11 114 2.11 137 2.11 135 2.11
  36  0.300  0.400  0.503- 133 2.11 130 2.11 134 2.11 153 2.11 136 2.11
  37  0.200  0.600  0.407- 140 2.11 135 2.11 139 2.11 120 2.11 137 2.11
  38  0.300  0.700  0.407- 139 2.11 144 2.11 140 2.11 159 2.11 138 2.11
  39  0.200  0.700  0.503- 138 2.11 141 2.11 118 2.11 137 2.11 139 2.11
  40  0.300  0.600  0.503- 137 2.11 134 2.11 138 2.11 157 2.11 140 2.11   2 3.04
  41  0.200  0.800  0.407- 139 2.11 144 2.11 143 2.11 124 2.11 141 2.11
  42  0.300  0.900  0.407- 143 2.11 128 2.11 144 2.11 163 2.11 142 2.11
  43  0.200  0.900  0.503- 142 2.11 125 2.11 141 2.11 122 2.11 143 2.11
  44  0.300  0.800  0.503- 138 2.11 141 2.11 142 2.11 161 2.11 144 2.11
  45  0.400  0.000  0.407- 128 2.11 147 2.11 148 2.11 163 2.11 145 2.11
  46  0.500  0.100  0.407- 147 2.11 148 2.11 152 2.11 167 2.11 146 2.11
  47  0.400  0.100  0.503- 126 2.11 145 2.11 146 2.11 149 2.11 147 2.11
  48  0.500  0.000  0.503- 145 2.11 146 2.11 162 2.11 165 2.11 148 2.11
  49  0.400  0.200  0.407- 151 2.11 147 2.11 132 2.11 152 2.11 149 2.11
  50  0.500  0.300  0.407- 152 2.11 151 2.11 156 2.11 171 2.11 150 2.11
  51  0.400  0.300  0.503- 149 2.11 130 2.11 150 2.11 153 2.11 151 2.11
  52  0.500  0.200  0.503- 150 2.11 149 2.11 146 2.11 169 2.11 152 2.11
  53  0.400  0.400  0.407- 136 2.11 151 2.11 155 2.11 156 2.11 153 2.11
  54  0.500  0.500  0.407- 155 2.11 156 2.11 160 2.11 175 2.11 154 2.11
  55  0.400  0.500  0.503- 134 2.11 153 2.11 154 2.11 157 2.11 155 2.11
  56  0.500  0.400  0.503- 150 2.11 153 2.11 154 2.11 173 2.11 156 2.11   3 3.04
  57  0.400  0.600  0.407- 140 2.11 155 2.11 159 2.11 160 2.11 157 2.11
  58  0.500  0.700  0.407- 164 2.11 160 2.11 159 2.11 179 2.11 158 2.11
  59  0.400  0.700  0.503- 161 2.11 157 2.11 158 2.11 138 2.11 159 2.11   2 3.04
  60  0.500  0.600  0.503- 154 2.11 157 2.11 158 2.11 177 2.11 160 2.11
[...]
 190  0.900  0.300  0.503-  92 2.11  91 2.11  11 2.11  96 2.11  90 2.11
 191  0.800  0.300  0.407-  70 2.11  89 2.11  90 2.11  93 2.11  91 2.11
 192  0.900  0.200  0.407-  90 2.11  86 2.11  89 2.11   9 2.11  92 2.11
 193  0.800  0.400  0.503-  76 2.11  91 2.11  95 2.11  96 2.11  93 2.11
 194  0.900  0.500  0.503-  15 2.11  95 2.11  96 2.11 100 2.11  94 2.11
 195  0.800  0.500  0.407-  74 2.11  93 2.11  94 2.11  97 2.11  95 2.11
 196  0.900  0.400  0.407-  13 2.11  90 2.11  93 2.11  94 2.11  96 2.11
 197  0.800  0.600  0.503-  80 2.11  95 2.11  99 2.11 100 2.11  97 2.11
 198  0.900  0.700  0.503- 104 2.11  99 2.11 100 2.11  19 2.11  98 2.11
 199  0.800  0.700  0.407-  78 2.11 101 2.11  98 2.11  97 2.11  99 2.11
 200  0.900  0.600  0.407-  17 2.11  94 2.11  97 2.11  98 2.11 100 2.11
 201  0.800  0.800  0.503-  84 2.11  99 2.11 103 2.11 104 2.11 101 2.11
 202  0.900  0.900  0.503-  23 2.11  88 2.11 103 2.11 104 2.11 102 2.11
 203  0.800  0.900  0.407-  82 2.11  85 2.11 101 2.11 102 2.11 103 2.11
 204  0.900  0.800  0.407-  98 2.11  21 2.11 101 2.11 102 2.11 104 2.11

  LATTYP: Found a simple tetragonal cell.
 ALAT       =    21.1388521970
 C/A-ratio  =     1.0461251639

  Lattice vectors:

 A1 = (  21.1388521970,   0.0000000000,   0.0000000000)
 A2 = (   0.0000000000,  21.1388521970,   0.0000000000)
 A3 = (   0.0000000000,   0.0000000000,  22.1138852197)

Analysis of symmetry for initial positions (statically):
 Subroutine PRICEL returns:
 Original cell was already a primitive cell.

 Routine SETGRP: Setting up the symmetry group for a
 simple tetragonal supercell.

 Subroutine GETGRP returns: Found  2 space group operations
 (whereof  1 operations were pure point group operations)
 out of a pool of 16 trial point group operations.

The static configuration has the point symmetry C_1 .
 The point group associated with its full space group is C_1h.

Analysis of symmetry for dynamics (positions and initial velocities):
 Subroutine PRICEL returns:
 Original cell was already a primitive cell.

[...]

The dynamic configuration has the point symmetry C_1 .
 The point group associated with its full space group is C_1h.

Analysis of constrained symmetry for selective dynamics:
 Subroutine PRICEL returns:
 Original cell was already a primitive cell.

[...]
     22     -46.4871      2.00000
     23     -46.4749      2.00000
     24     -46.4735      2.00000
     25     -46.4734      2.00000
     26     -46.4727      2.00000
     27     -46.4441      2.00000
     28     -46.4441      2.00000
     29     -46.4438      2.00000
     30     -46.4438      2.00000
     31     -46.4324      2.00000
     32     -46.4324      2.00000
     33     -46.4320      2.00000
     34     -46.4320      2.00000
     35     -46.4242      2.00000
     36     -46.4242      2.00000
     37     -46.4223      2.00000
     38     -46.4223      2.00000
     39     -46.4200      2.00000
     40     -46.4198      2.00000
     41     -46.4097      2.00000
     42     -46.4088      2.00000
     43     -46.4055      2.00000
     44     -46.4047      2.00000
     45     -46.4018      2.00000
     46     -46.4018      2.00000
     47     -46.4003      2.00000
     48     -46.3984      2.00000
     49     -46.3962      2.00000
     50     -46.3962      2.00000
     51     -46.3947      2.00000
     52     -46.3943      2.00000
     53     -46.3937      2.00000
     54     -46.3936      2.00000
     55     -46.3913      2.00000
     56     -46.3913      2.00000
     57     -46.3913      2.00000
     58     -46.3912      2.00000
     59     -46.3909      2.00000
     60     -46.3906      2.00000
[...]
   1010       7.2041      0.00000
   1011       7.2224      0.00000
   1012       7.4136      0.00000
   1013       7.5085      0.00000
   1014       7.5461      0.00000
   1015       7.5690      0.00000
   1016       7.6836      0.00000
   1017       7.7529      0.00000
   1018       7.7875      0.00000
   1019       7.8464      0.00000
   1020       7.9250      0.00000
   1021       7.9898      0.00000
   1022       8.1914      0.00000
   1023       8.3243      0.00000
   1024       8.4171      0.00000

 soft charge-density along one line, spin component           1
         0         1         2         3         4         5         6         7         8         9
 total charge-density along one line

------------------------ aborting loop because EDIFF is reached ----------------------------------------

 VOLUME and BASIS-vectors are now :
  energy-cutoff  :      520.00
  volume of cell :     9881.61
      direct lattice vectors                 reciprocal lattice vectors
    21.138852197  0.000000000  0.000000000     0.047306258  0.000000000  0.000000000
     0.000000000 21.138852197  0.000000000     0.000000000  0.047306258  0.000000000
     0.000000000  0.000000000 22.113885220     0.000000000  0.000000000  0.045220457

  length of vectors
    21.138852197 21.138852197 22.113885220     0.047306258  0.047306258  0.045220457

 FORCES acting on ions:
    Electron-Ion                     Ewald-Force                    Non-Local-Force
   0.248E+02 -.248E+02 -.207E+04   -.273E+02 0.273E+02 0.207E+04   0.226E+01 -.226E+01 -.256E+00
   0.235E+03 -.235E+03 -.209E+04   -.231E+03 0.231E+03 0.209E+04   -.410E+01 0.410E+01 -.699E+00
   -.235E+03 0.235E+03 -.209E+04   0.231E+03 -.231E+03 0.209E+04   0.410E+01 -.410E+01 -.699E+00
   -.248E+02 0.248E+02 -.207E+04   0.273E+02 -.273E+02 0.207E+04   -.226E+01 0.226E+01 -.256E+00
   0.489E+01 -.489E+01 0.938E+03   -.492E+01 0.492E+01 -.930E+03   0.190E-01 -.189E-01 -.672E+01
   0.905E+01 0.161E+01 0.939E+03   -.905E+01 -.156E+01 -.931E+03   -.143E-02 -.336E-01 -.672E+01
   0.313E+01 0.313E+01 -.918E+03   -.312E+01 -.312E+01 0.911E+03   -.125E-01 -.125E-01 0.665E+01
   0.146E+02 -.117E+02 -.916E+03   -.146E+02 0.118E+02 0.908E+03   0.192E-01 -.655E-01 0.665E+01
   0.161E+01 0.905E+01 0.939E+03   -.156E+01 -.905E+01 -.931E+03   -.336E-01 -.143E-02 -.672E+01
   0.143E+02 0.157E+02 0.944E+03   -.142E+02 -.157E+02 -.937E+03   -.254E-01 0.313E-02 -.673E+01
   0.211E+01 0.156E+02 -.915E+03   -.203E+01 -.156E+02 0.907E+03   -.580E-01 -.539E-03 0.665E+01
   0.130E+02 0.130E+02 -.916E+03   -.129E+02 -.129E+02 0.908E+03   -.242E-01 -.242E-01 0.665E+01
   0.444E+01 0.112E+02 0.945E+03   -.438E+01 -.112E+02 -.938E+03   -.434E-01 0.111E-01 -.672E+01
   0.288E+02 0.120E+02 0.958E+03   -.289E+02 -.121E+02 -.950E+03   0.143E-01 0.670E-01 -.673E+01
   0.127E+02 0.835E+01 -.909E+03   -.127E+02 -.838E+01 0.901E+03   -.177E-01 0.180E-01 0.664E+01
   0.305E+02 0.240E+02 -.907E+03   -.304E+02 -.241E+02 0.899E+03   -.537E-01 0.261E-01 0.663E+01
   0.128E+02 -.212E+01 0.950E+03   -.129E+02 0.210E+01 -.942E+03   0.470E-01 0.199E-01 -.673E+01
   0.337E+02 -.125E+02 0.962E+03   -.340E+02 0.125E+02 -.955E+03   0.196E+00 0.289E-01 -.672E+01
   0.225E+02 -.126E+02 -.909E+03   -.226E+02 0.125E+02 0.901E+03   0.104E+00 0.142E-01 0.665E+01
   0.606E+02 0.528E+01 -.891E+03   -.608E+02 -.541E+01 0.884E+03   0.111E+00 0.928E-01 0.664E+01
   0.120E+02 -.133E+02 0.944E+03   -.121E+02 0.133E+02 -.937E+03   0.891E-01 -.106E-01 -.672E+01
   0.168E+02 -.168E+02 0.946E+03   -.169E+02 0.169E+02 -.938E+03   0.655E-01 -.655E-01 -.670E+01
   0.117E+02 -.146E+02 -.916E+03   -.118E+02 0.146E+02 0.908E+03   0.655E-01 -.191E-01 0.665E+01
   0.428E+02 -.303E+02 -.901E+03   -.431E+02 0.304E+02 0.893E+03   0.238E+00 -.291E-01 0.666E+01
   0.133E+02 -.120E+02 0.944E+03   -.133E+02 0.122E+02 -.937E+03   0.106E-01 -.890E-01 -.672E+01
   0.112E+02 0.444E+01 0.945E+03   -.112E+02 -.438E+01 -.938E+03   0.111E-01 -.434E-01 -.672E+01
   0.156E+02 0.211E+01 -.915E+03   -.156E+02 -.203E+01 0.907E+03   -.539E-03 -.580E-01 0.665E+01
   0.126E+02 -.225E+02 -.909E+03   -.125E+02 0.226E+02 0.901E+03   -.142E-01 -.104E+00 0.665E+01
   0.157E+02 0.143E+02 0.944E+03   -.157E+02 -.142E+02 -.937E+03   0.313E-02 -.254E-01 -.673E+01
   0.264E+02 0.335E+02 0.964E+03   -.264E+02 -.335E+02 -.956E+03   0.544E-01 -.338E-02 -.676E+01
   0.333E+02 0.333E+02 -.906E+03   -.333E+02 -.333E+02 0.898E+03   -.278E-01 -.278E-01 0.663E+01
   0.240E+02 0.305E+02 -.907E+03   -.241E+02 -.304E+02 0.899E+03   0.261E-01 -.537E-01 0.663E+01
   0.335E+02 0.264E+02 0.964E+03   -.335E+02 -.264E+02 -.956E+03   -.338E-02 0.544E-01 -.676E+01
   0.466E+02 0.293E+02 0.101E+04   -.467E+02 -.296E+02 -.101E+04   0.638E-01 0.228E+00 -.689E+01
   0.816E+02 0.439E+02 -.870E+03   -.814E+02 -.441E+02 0.863E+03   -.920E-01 0.186E+00 0.657E+01
   0.719E+02 0.719E+02 -.863E+03   -.718E+02 -.718E+02 0.856E+03   -.329E-01 -.329E-01 0.656E+01
   0.514E+02 0.400E+01 0.994E+03   -.516E+02 -.427E+01 -.986E+03   0.141E+00 0.185E+00 -.671E+01
   0.340E+02 -.340E+02 0.103E+04   -.340E+02 0.339E+02 -.102E+04   -.119E-01 0.118E-01 -.554E+01
   0.116E+03 -.393E+02 -.827E+03   -.117E+03 0.391E+02 0.819E+03   0.106E+01 0.136E+00 0.683E+01
   0.123E+03 0.487E+02 -.710E+03   -.123E+03 -.506E+02 0.703E+03   0.185E+00 0.123E+01 0.599E+01
   0.324E+02 -.324E+02 0.973E+03   -.326E+02 0.326E+02 -.966E+03   0.124E+00 -.124E+00 -.659E+01
   0.125E+02 -.337E+02 0.962E+03   -.125E+02 0.340E+02 -.955E+03   -.290E-01 -.196E+00 -.672E+01
   0.304E+02 -.428E+02 -.901E+03   -.304E+02 0.431E+02 0.893E+03   0.290E-01 -.238E+00 0.666E+01
   0.393E+02 -.116E+03 -.827E+03   -.391E+02 0.117E+03 0.819E+03   -.136E+00 -.106E+01 0.683E+01
   0.213E+01 -.128E+02 0.950E+03   -.210E+01 0.129E+02 -.942E+03   -.199E-01 -.470E-01 -.673E+01
   -.213E+01 0.128E+02 0.950E+03   0.210E+01 -.129E+02 -.942E+03   0.199E-01 0.470E-01 -.673E+01
   0.835E+01 0.127E+02 -.909E+03   -.838E+01 -.127E+02 0.901E+03   0.180E-01 -.177E-01 0.664E+01
   -.835E+01 -.128E+02 -.909E+03   0.838E+01 0.127E+02 0.901E+03   -.180E-01 0.178E-01 0.664E+01
   0.120E+02 0.288E+02 0.958E+03   -.121E+02 -.289E+02 -.950E+03   0.670E-01 0.143E-01 -.673E+01
   0.400E+01 0.514E+02 0.994E+03   -.427E+01 -.516E+02 -.986E+03   0.185E+00 0.141E+00 -.671E+01
   0.439E+02 0.816E+02 -.870E+03   -.441E+02 -.814E+02 0.863E+03   0.186E+00 -.920E-01 0.657E+01
   0.527E+01 0.606E+02 -.891E+03   -.541E+01 -.608E+02 0.884E+03   0.928E-01 0.111E+00 0.664E+01
   0.293E+02 0.466E+02 0.101E+04   -.296E+02 -.467E+02 -.101E+04   0.228E+00 0.638E-01 -.689E+01
   -.111E+02 0.111E+02 0.106E+04   0.109E+02 -.109E+02 -.105E+04   0.128E+00 -.128E+00 -.655E+01
   0.857E+02 0.857E+02 -.704E+03   -.863E+02 -.863E+02 0.697E+03   0.435E+00 0.435E+00 0.635E+01
   0.487E+02 0.123E+03 -.710E+03   -.506E+02 -.123E+03 0.703E+03   0.123E+01 0.185E+00 0.599E+01
   0.111E+02 -.111E+02 0.106E+04   -.109E+02 0.109E+02 -.105E+04   -.128E+00 0.128E+00 -.655E+01
   -.293E+02 -.466E+02 0.101E+04   0.296E+02 0.467E+02 -.101E+04   -.228E+00 -.638E-01 -.689E+01
   -.487E+02 -.123E+03 -.710E+03   0.506E+02 0.123E+03 0.703E+03   -.123E+01 -.185E+00 0.599E+01
   -.856E+02 -.856E+02 -.704E+03   0.863E+02 0.863E+02 0.697E+03   -.436E+00 -.436E+00 0.635E+01
[...]
   -.193E+02 0.147E+02 0.718E+03   0.194E+02 -.148E+02 -.722E+03   -.142E+00 0.535E-01 0.320E+01
   -.621E+01 0.833E+01 0.707E+03   0.625E+01 -.834E+01 -.711E+03   -.527E-01 0.271E-01 0.316E+01
   -.458E+02 0.136E+02 -.670E+03   0.460E+02 -.135E+02 0.674E+03   -.185E+00 -.631E-01 -.327E+01
   -.151E+02 0.147E+01 -.682E+03   0.151E+02 -.144E+01 0.686E+03   -.393E-01 -.325E-01 -.328E+01
   -.261E+02 -.711E+00 0.724E+03   0.261E+02 0.794E+00 -.728E+03   -.872E-01 -.937E-01 0.316E+01
   -.107E+02 0.733E+01 0.713E+03   0.107E+02 -.732E+01 -.717E+03   -.743E-01 -.100E-01 0.316E+01
   -.345E+02 -.150E+02 -.676E+03   0.345E+02 0.151E+02 0.680E+03   -.114E-01 -.840E-01 -.331E+01
   -.432E+01 -.110E+02 -.686E+03   0.428E+01 0.110E+02 0.690E+03   0.394E-01 -.601E-02 -.327E+01
   -.157E+02 -.126E+02 0.715E+03   0.157E+02 0.126E+02 -.719E+03   0.178E-01 -.278E-01 0.314E+01
   -.650E+01 -.442E+01 0.713E+03   0.649E+01 0.444E+01 -.717E+03   0.438E-02 -.204E-01 0.315E+01
   -.145E+02 -.157E+02 -.686E+03   0.144E+02 0.157E+02 0.690E+03   0.356E-01 0.108E-01 -.327E+01
   -.118E+01 -.845E+01 -.690E+03   0.115E+01 0.845E+01 0.694E+03   0.336E-01 0.247E-02 -.325E+01
   -.765E+01 -.764E+01 0.707E+03   0.763E+01 0.763E+01 -.711E+03   0.154E-01 0.154E-01 0.315E+01
   -.152E+01 -.923E+01 0.708E+03   0.148E+01 0.924E+01 -.712E+03   0.415E-01 -.479E-02 0.315E+01
   -.728E+00 0.728E+00 0.115E+02   0.193E-11 0.134E-11 0.728E-11   -.136E-02 -.136E-02 -.104E+02

 POSITION                                       TOTAL-FORCE (eV/Angst)
      8.54453     12.59533     13.88470        -0.053692      0.053310      0.287625
      6.69899     14.44084     13.56395        -0.112157      0.111573      0.279635
     12.32695      8.81289     13.56395         0.111573     -0.112157      0.279635
     10.48144     10.65841     13.88470         0.053310     -0.053692      0.287625
      0.00000      0.00000      9.00000        -0.006016      0.006020      0.426041
      2.11389      2.11389      9.00000         0.000387      0.010279      0.427682
      0.00000      2.11389     11.11389         0.003791      0.003791     -0.399813
      2.11389      0.00000     11.11389        -0.006279      0.019941     -0.399207
      0.00000      4.22777      9.00000         0.010279      0.000387      0.427682
      2.11389      6.34166      9.00000         0.007932     -0.000593      0.431107
      0.00000      6.34166     11.11389         0.017592      0.000401     -0.397007
      2.11389      4.22777     11.11389         0.007630      0.007630     -0.397203
      0.00000      8.45554      9.00000         0.012879     -0.003269      0.429242
      2.11389     10.56943      9.00000        -0.005577     -0.021489      0.431494
      0.00000     10.56943     11.11389         0.005617     -0.005505     -0.392306
      2.11389      8.45554     11.11389         0.016958     -0.006907     -0.388270
      0.00000     12.68331      9.00000        -0.014389     -0.006750      0.428665
      2.11389     14.79720      9.00000        -0.058128     -0.009816      0.423488
      0.00000     14.79720     11.11389        -0.030584     -0.004935     -0.395202
      2.11389     12.68331     11.11389        -0.033537     -0.031341     -0.384125
      0.00000     16.91108      9.00000        -0.026863      0.003611      0.426320
      2.11389     19.02497      9.00000        -0.021695      0.021702      0.421356
      0.00000     19.02497     11.11389        -0.019937      0.006277     -0.399205
      2.11389     16.91108     11.11389        -0.073431      0.010848     -0.400853
      4.22777      0.00000      9.00000        -0.003610      0.026873      0.426324
      6.34166      2.11389      9.00000        -0.003269      0.012879      0.429242
      4.22777      2.11389     11.11389         0.000401      0.017592     -0.397007
      6.34166      0.00000     11.11389         0.004947      0.030564     -0.395197
      4.22777      4.22777      9.00000        -0.000593      0.007932      0.431107
      6.34166      6.34166      9.00000        -0.015398      0.001600      0.441440
      4.22777      6.34166     11.11389         0.009805      0.009805     -0.386714
      6.34166      4.22777     11.11389        -0.006907      0.016958     -0.388270
      4.22777      8.45554      9.00000         0.001600     -0.015398      0.441440
      6.34166     10.56943      9.00000        -0.019784     -0.069354      0.469037
      4.22777     10.56943     11.11389         0.036252     -0.050042     -0.343435
      6.34166      8.45554     11.11389         0.015733      0.015733     -0.343305
      4.22777     12.68331      9.00000        -0.051118     -0.066655      0.411381
      6.34166     14.79720      9.00000         0.003623     -0.003573      0.097828
      4.22777     14.79720     11.11389        -0.398234     -0.048643     -0.502903
      6.34166     12.68331     11.11389        -0.076016     -0.528263     -0.301629
      4.22777     16.91108      9.00000        -0.046838      0.046848      0.379323
      6.34166     19.02497      9.00000         0.009828      0.058123      0.423480
      4.22777     19.02497     11.11389        -0.010840      0.073429     -0.400852
      6.34166     16.91108     11.11389         0.048670      0.398340     -0.503015
      8.45554      0.00000      9.00000         0.006766      0.014383      0.428653
     10.56943      2.11389      9.00000        -0.006750     -0.014389      0.428665
      8.45554      2.11389     11.11389        -0.005505      0.005617     -0.392306
     10.56943      0.00000     11.11389         0.005510     -0.005617     -0.392330
      8.45554      4.22777      9.00000        -0.021489     -0.005577      0.431494
     10.56943      6.34166      9.00000        -0.066655     -0.051118      0.411381
      8.45554      6.34166     11.11389        -0.050042      0.036252     -0.343435
     10.56943      4.22777     11.11389        -0.031341     -0.033537     -0.384125
      8.45554      8.45554      9.00000        -0.069354     -0.019784      0.469037
     10.56943     10.56943      9.00000        -0.047135      0.047168      0.336584
      8.45554     10.56943     11.11389        -0.176169     -0.176169     -0.328621
     10.56943      8.45554     11.11389        -0.528263     -0.076016     -0.301629
      8.45554     12.68331      9.00000         0.047168     -0.047135      0.336584
     10.56943     14.79720      9.00000         0.069380      0.019799      0.469168
      8.45554     14.79720     11.11389         0.528612      0.076062     -0.301730
     10.56943     12.68331     11.11389         0.176306      0.176306     -0.328622
[...]
     19.02497      6.34166     11.11389        -0.026793      0.004198      0.437490
     16.91108      6.34166      9.00000        -0.046929      0.017359     -0.454811
     19.02497      4.22777      9.00000        -0.017098      0.008772     -0.466203
     16.91108      8.45554     11.11389        -0.062127     -0.020001      0.435785
     19.02497     10.56943     11.11389        -0.012900     -0.010497      0.431993
     16.91108     10.56943      9.00000        -0.029944     -0.030341     -0.467560
     19.02497      8.45554      9.00000        -0.024286     -0.003243     -0.466433
     16.91108     12.68331     11.11389        -0.004501     -0.027755      0.422249
     19.02497     14.79720     11.11389         0.012824     -0.001943      0.433742
     16.91108     14.79720      9.00000         0.005640     -0.009096     -0.473581
     19.02497     12.68331      9.00000         0.001322     -0.006619     -0.470216
     16.91108     16.91108     11.11389         0.011287      0.003510      0.432882
     19.02497     19.02497     11.11389         0.010842      0.000776      0.438415
     16.91108     19.02497      9.00000         0.004894      0.004894     -0.469586
     19.02497     16.91108      9.00000         0.013400     -0.001542     -0.468799
    total drift:                               -0.728723      0.727480     -0.269266

  FREE ENERGIE OF THE ION-ELECTRON SYSTEM (eV)
  free  energy   TOTEN  =     -1334.83011782 eV

  energy  without entropy=    -1334.83011782  energy(sigma->0) =    -1334.83011782