 vasp.6.3.0 20Jan22 (build Apr  1 2022 16:44:48) complex
 executed on        HPECrayEX_GCC date 2023.01.16  02:04:07

 INCAR:
   SYSTEM = MgO-rocksalt
   ISMEAR = 0
   SIGMA = 0.05
   EDIFF = 1E-6
   ALGO = ALL
   ISTART = 0
   IBRION = -1
   NSW = 0
   ISYM = 2
   DIPOL = 0.5 0.5 0.5
   IDIPOL = 3
   LDIPOL = .TRUE.
   LHFCALC = .TRUE.
   GGA = B5
   AEXX = 0.2
   AGGAX = 0.72
   AGGAC = 0.81
   ALDAC = 0.19
   IVDW = 12
   VDW_S8 = 1.9889
   VDW_A1 = 0.3981
   VDW_A2 = 4.4211
   ENCUT = 520
   PREC = Accurate
   LASPH = .TRUE.
   LREAL = Auto
   ISPIN = 1
   NELM = 200
   NELMIN = 8
   NCORE = 4
   KPAR = 2
   LWAVE = .FALSE.
   LCHARG = .FALSE.

 POTCAR:    PAW_PBE Ag 02Apr2005
 POTCAR:    PAW_PBE Mg_pv 13Apr2007
 POTCAR:    PAW_PBE O 08Apr2002
|           W    W    AA    RRRRR   N    N  II  N    N   GGGG   !!!           |
|           W    W   A  A   R    R  NN   N  II  NN   N  G    G  !!!           |
|           W    W  A    A  R    R  N N  N  II  N N  N  G       !!!           |
|           W WW W  AAAAAA  RRRRR   N  N N  II  N  N N  G  GGG   !            |
|           WW  WW  A    A  R   R   N   NN  II  N   NN  G    G                |
|           W    W  A    A  R    R  N    N  II  N    N   GGGG   !!!           |
|     You have selected ISYM=2 for a HF type calculation. This will           |
|     symmetrize the charge density but not the exchange potential. I         |
|     suggest to use ISYM=3 instead. This uses symmetry to obtain the         |
|     orbitals at all k-points in the Brillouin zone, but does not apply      |
|     symmetry to the Hartree potential directly. The resultant charge        |
|     might have lower symmetry than the crystal but, at least, Hartree       |
|     and exchange are fully compatible.                                      |

   TITEL  = PAW_PBE Ag 02Apr2005
   POMASS =  107.868; ZVAL   =   11.000    mass and valenz
   ENMAX  =  249.844; ENMIN  =  187.383 eV

   TITEL  = PAW_PBE Mg_pv 13Apr2007
   POMASS =   24.305; ZVAL   =    8.000    mass and valenz
   ENMAX  =  403.929; ENMIN  =  302.947 eV

   TITEL  = PAW_PBE O 08Apr2002
   POMASS =   16.000; ZVAL   =    6.000    mass and valenz
   ENMAX  =  400.000; ENMIN  =  300.000 eV

 Optimization of the real space projectors (new method)

 maximal supplied QI-value         = 15.12
 optimisation between [QCUT,QGAM] = [ 11.64, 23.28] = [ 37.95,151.78] Ry
 Optimized for a Real-space Cutoff    1.45 Angstroem

   l    n(q)    QCUT    max X(q) W(low)/X(q) W(high)/X(q)  e(spline)
   2      9    11.641    53.897    0.22E-03    0.42E-04    0.28E-06
   2      9    11.641    52.416    0.23E-03    0.44E-04    0.29E-06
   0     10    11.641   122.045    0.51E-04    0.25E-04    0.16E-06
   0     10    11.641    73.629    0.49E-04    0.24E-04    0.16E-06
   1     10    11.641    15.255    0.99E-04    0.55E-04    0.11E-06
   1     10    11.641     9.562    0.81E-04    0.47E-04    0.95E-07
 Optimization of the real space projectors (new method)

[...]

   l    n(q)    QCUT    max X(q) W(low)/X(q) W(high)/X(q)  e(spline)
   1      8    11.527     2.974    0.44E-04    0.56E-04    0.12E-06
   1      8    11.527     4.279    0.12E-03    0.12E-03    0.26E-06
   0      9    11.527    16.381    0.46E-04    0.64E-04    0.78E-07
   0      9    11.527     5.611    0.26E-04    0.43E-04    0.55E-07
   2      8    11.527     4.652    0.22E-03    0.72E-04    0.47E-07
 Optimization of the real space projectors (new method)

 maximal supplied QI-value         = 24.76
 optimisation between [QCUT,QGAM] = [ 11.64, 23.27] = [ 37.91,151.63] Ry
 Optimized for a Real-space Cutoff    1.14 Angstroem

   l    n(q)    QCUT    max X(q) W(low)/X(q) W(high)/X(q)  e(spline)
   0      8    11.635    20.381    0.10E-03    0.33E-03    0.24E-06
   0      8    11.635    15.268    0.11E-03    0.35E-03    0.26E-06
   1      7    11.635     5.964    0.24E-03    0.31E-03    0.30E-06
   1      7    11.635     5.382    0.22E-03    0.25E-03    0.26E-06
|               ----> ADVICE to this user running VASP <----                  |
|     You enforced a specific xc type in the INCAR file but a different       |
|     type was found in the POTCAR file.                                      |
|     I HOPE YOU KNOW WHAT YOU ARE DOING!                                     |

  PAW_PBE Ag 02Apr2005                  :
  PAW_PBE Mg_pv 13Apr2007               :
  PAW_PBE O 08Apr2002                   :

 POSCAR: Ag Mg  O
  positions in direct lattice
  velocities in cartesian coordinates
 exchange correlation table for  LEXCH =       12
   RHO(1)=    0.500       N(1)  =     2000
   RHO(2)=  100.500       N(2)  =     4000

 ion  position               nearest neighbor table
   1  0.400  0.429  0.610- 153 2.46   2 2.60  55 2.82   4 3.42
   2  0.400  0.512  0.697-   1 2.60   4 2.64   3 2.77
   3  0.401  0.641  0.713-   4 2.63   2 2.77
   4  0.400  0.590  0.604- 157 2.26   3 2.63   2 2.64  55 2.95   1 3.42
   5  0.000  0.000  0.407- 107 2.11 108 2.11 123 2.11 188 2.11 105 2.11
   6  0.100  0.100  0.407- 107 2.11 108 2.11 112 2.11 127 2.11 106 2.11
   7  0.000  0.100  0.503- 105 2.11 106 2.11 109 2.11 186 2.11 107 2.11
   8  0.100  0.000  0.503- 105 2.11 106 2.11 122 2.11 125 2.11 108 2.11
   9  0.000  0.200  0.407- 111 2.11 107 2.11 112 2.11 192 2.11 109 2.11
  10  0.100  0.300  0.407- 112 2.11 111 2.11 116 2.11 131 2.11 110 2.11
  11  0.000  0.300  0.503- 109 2.11 110 2.11 113 2.11 190 2.11 111 2.11
  12  0.100  0.200  0.503- 110 2.11 109 2.11 106 2.11 129 2.11 112 2.11
  13  0.000  0.400  0.407- 111 2.11 115 2.11 116 2.11 196 2.11 113 2.11
  14  0.100  0.500  0.407- 115 2.11 116 2.11 120 2.11 135 2.11 114 2.11
  15  0.000  0.500  0.503- 113 2.11 114 2.11 117 2.11 194 2.11 115 2.11
  16  0.100  0.400  0.503- 110 2.11 113 2.11 114 2.11 133 2.11 116 2.11
  17  0.000  0.600  0.407- 115 2.11 119 2.11 120 2.11 200 2.11 117 2.11
  18  0.100  0.700  0.407- 124 2.11 120 2.11 119 2.11 139 2.11 118 2.11
  19  0.000  0.700  0.503- 121 2.11 118 2.11 117 2.11 198 2.11 119 2.11
  20  0.100  0.600  0.503- 114 2.11 117 2.11 118 2.11 137 2.11 120 2.11
  21  0.000  0.800  0.407- 119 2.11 123 2.11 124 2.11 204 2.11 121 2.11
  22  0.100  0.900  0.407- 108 2.11 123 2.11 124 2.11 143 2.11 122 2.11
  23  0.000  0.900  0.503- 105 2.11 121 2.11 122 2.11 202 2.11 123 2.11
  24  0.100  0.800  0.503- 118 2.11 121 2.11 122 2.11 141 2.11 124 2.11
  25  0.200  0.000  0.407- 128 2.11 127 2.11 108 2.11 143 2.11 125 2.11
  26  0.300  0.100  0.407- 127 2.11 128 2.11 132 2.11 147 2.11 126 2.11
  27  0.200  0.100  0.503- 126 2.11 125 2.11 106 2.11 129 2.11 127 2.11
  28  0.300  0.000  0.503- 125 2.11 126 2.11 142 2.11 145 2.11 128 2.11
  29  0.200  0.200  0.407- 131 2.11 132 2.11 112 2.11 127 2.11 129 2.11
  30  0.300  0.300  0.407- 131 2.11 132 2.11 136 2.11 151 2.11 130 2.11
  31  0.200  0.300  0.503- 129 2.11 130 2.11 110 2.11 133 2.11 131 2.11
  32  0.300  0.200  0.503- 129 2.11 130 2.11 126 2.11 149 2.11 132 2.11
  33  0.200  0.400  0.407- 136 2.11 131 2.11 135 2.11 116 2.11 133 2.11
  34  0.300  0.500  0.407- 135 2.11 136 2.11 140 2.11 155 2.11 134 2.11
  35  0.200  0.500  0.503- 134 2.11 133 2.11 114 2.11 137 2.11 135 2.11
  36  0.300  0.400  0.503- 133 2.11 130 2.11 134 2.11 153 2.11 136 2.11
  37  0.200  0.600  0.407- 140 2.11 135 2.11 139 2.11 120 2.11 137 2.11
  38  0.300  0.700  0.407- 139 2.11 144 2.11 140 2.11 159 2.11 138 2.11
  39  0.200  0.700  0.503- 138 2.11 141 2.11 118 2.11 137 2.11 139 2.11
  40  0.300  0.600  0.503- 137 2.11 134 2.11 138 2.11 157 2.11 140 2.11
  41  0.200  0.800  0.407- 139 2.11 144 2.11 143 2.11 124 2.11 141 2.11
  42  0.300  0.900  0.407- 143 2.11 128 2.11 144 2.11 163 2.11 142 2.11
  43  0.200  0.900  0.503- 142 2.11 125 2.11 141 2.11 122 2.11 143 2.11
  44  0.300  0.800  0.503- 138 2.11 141 2.11 142 2.11 161 2.11 144 2.11
  45  0.400  0.000  0.407- 128 2.11 147 2.11 148 2.11 163 2.11 145 2.11
  46  0.500  0.100  0.407- 147 2.11 148 2.11 152 2.11 167 2.11 146 2.11
  47  0.400  0.100  0.503- 126 2.11 145 2.11 146 2.11 149 2.11 147 2.11
  48  0.500  0.000  0.503- 145 2.11 146 2.11 162 2.11 165 2.11 148 2.11
  49  0.400  0.200  0.407- 151 2.11 147 2.11 132 2.11 152 2.11 149 2.11
  50  0.500  0.300  0.407- 152 2.11 151 2.11 156 2.11 171 2.11 150 2.11
  51  0.400  0.300  0.503- 149 2.11 130 2.11 150 2.11 153 2.11 151 2.11
  52  0.500  0.200  0.503- 150 2.11 149 2.11 146 2.11 169 2.11 152 2.11
  53  0.400  0.400  0.407- 136 2.11 151 2.11 155 2.11 156 2.11 153 2.11
  54  0.500  0.500  0.407- 155 2.11 156 2.11 160 2.11 175 2.11 154 2.11
  55  0.400  0.500  0.503- 134 2.11 153 2.11 154 2.11 157 2.11 155 2.11   1 2.82   4 2.95
  56  0.500  0.400  0.503- 150 2.11 153 2.11 154 2.11 173 2.11 156 2.11
  57  0.400  0.600  0.407- 140 2.11 155 2.11 159 2.11 160 2.11 157 2.11
  58  0.500  0.700  0.407- 164 2.11 160 2.11 159 2.11 179 2.11 158 2.11
  59  0.400  0.700  0.503- 161 2.11 157 2.11 158 2.11 138 2.11 159 2.11
  60  0.500  0.600  0.503- 154 2.11 157 2.11 158 2.11 177 2.11 160 2.11
[...]
 190  0.900  0.300  0.503-  92 2.11  91 2.11  11 2.11  96 2.11  90 2.11
 191  0.800  0.300  0.407-  70 2.11  89 2.11  90 2.11  93 2.11  91 2.11
 192  0.900  0.200  0.407-  90 2.11  86 2.11  89 2.11   9 2.11  92 2.11
 193  0.800  0.400  0.503-  76 2.11  91 2.11  95 2.11  96 2.11  93 2.11
 194  0.900  0.500  0.503-  15 2.11  95 2.11  96 2.11 100 2.11  94 2.11
 195  0.800  0.500  0.407-  74 2.11  93 2.11  94 2.11  97 2.11  95 2.11
 196  0.900  0.400  0.407-  13 2.11  90 2.11  93 2.11  94 2.11  96 2.11
 197  0.800  0.600  0.503-  80 2.11  95 2.11  99 2.11 100 2.11  97 2.11
 198  0.900  0.700  0.503- 104 2.11  99 2.11 100 2.11  19 2.11  98 2.11
 199  0.800  0.700  0.407-  78 2.11 101 2.11  98 2.11  97 2.11  99 2.11
 200  0.900  0.600  0.407-  17 2.11  94 2.11  97 2.11  98 2.11 100 2.11
 201  0.800  0.800  0.503-  84 2.11  99 2.11 103 2.11 104 2.11 101 2.11
 202  0.900  0.900  0.503-  23 2.11  88 2.11 103 2.11 104 2.11 102 2.11
 203  0.800  0.900  0.407-  82 2.11  85 2.11 101 2.11 102 2.11 103 2.11
 204  0.900  0.800  0.407-  98 2.11  21 2.11 101 2.11 102 2.11 104 2.11

  LATTYP: Found a simple tetragonal cell.
 ALAT       =    21.1388521970
 C/A-ratio  =     1.0461251639

  Lattice vectors:

 A1 = (  21.1388521970,   0.0000000000,   0.0000000000)
 A2 = (   0.0000000000,  21.1388521970,   0.0000000000)
 A3 = (   0.0000000000,   0.0000000000,  22.1138852197)

Analysis of symmetry for initial positions (statically):
 Subroutine PRICEL returns:
 Original cell was already a primitive cell.

 Routine SETGRP: Setting up the symmetry group for a
 simple tetragonal supercell.

 Subroutine GETGRP returns: Found  1 space group operations
 (whereof  1 operations were pure point group operations)
 out of a pool of 16 trial point group operations.

The static configuration has the point symmetry C_1 .

Analysis of symmetry for dynamics (positions and initial velocities):
 Subroutine PRICEL returns:
 Original cell was already a primitive cell.

[...]

The dynamic configuration has the point symmetry C_1 .

Analysis of constrained symmetry for selective dynamics:
 Subroutine PRICEL returns:
 Original cell was already a primitive cell.

 Routine SETGRP: Setting up the symmetry group for a
[...]
     40     -46.4233      2.00000
     41     -46.4185      2.00000
     42     -46.4183      2.00000
     43     -46.4122      2.00000
     44     -46.4118      2.00000
     45     -46.4104      2.00000
     46     -46.4096      2.00000
     47     -46.4031      2.00000
     48     -46.4004      2.00000
     49     -46.4000      2.00000
     50     -46.3987      2.00000
     51     -46.3983      2.00000
     52     -46.3937      2.00000
     53     -46.3933      2.00000
     54     -46.3864      2.00000
     55     -46.3859      2.00000
     56     -46.3823      2.00000
     57     -46.3820      2.00000
     58     -46.3786      2.00000
     59     -46.3783      2.00000
     60     -46.3782      2.00000
[...]
   1010       7.4060      0.00000
   1011       7.5395      0.00000
   1012       7.5694      0.00000
   1013       7.6175      0.00000
   1014       7.6528      0.00000
   1015       7.7122      0.00000
   1016       7.7203      0.00000
   1017       7.8027      0.00000
   1018       7.8168      0.00000
   1019       7.8322      0.00000
   1020       7.9718      0.00000
   1021       8.1619      0.00000
   1022       8.3724      0.00000
   1023       8.4378      0.00000
   1024       8.4385      0.00000

 soft charge-density along one line, spin component           1
         0         1         2         3         4         5         6         7         8         9
 total charge-density along one line

------------------------ aborting loop because EDIFF is reached ----------------------------------------

 WARNING: Using user supplied parameters
     VDW_A1 = 0.398
     VDW_A2 = 4.421
     VDW_S8 = 1.989
     because the xc functional is not supported. Required parameters not
     defined in the INCAR file will be replaced with PBE defaults ones.

         DFTD3 V3.0 Rev 1
 IVDW         = 12
 DF unknown
 parameters
 VDW_S6       =    1.0000
 VDW_S8       =    1.9889
 VDW_A1       =    0.3981
 VDW_A2       =    4.4211
 k1-k3        =   16.0000    1.3333   -4.0000
 VDW_RADIUS   =   50.2022 A
 VDW_CNRADIUS =   21.1671 A
 Edisp (eV)  -62.18860

 E6    (eV) :   -21.2575
 E8    (eV) :   -40.9311
 % E8        : 65.82

 VOLUME and BASIS-vectors are now :
  energy-cutoff  :      520.00
  volume of cell :     9881.61
      direct lattice vectors                 reciprocal lattice vectors
    21.138852197  0.000000000  0.000000000     0.047306258  0.000000000  0.000000000
     0.000000000 21.138852197  0.000000000     0.000000000  0.047306258  0.000000000
     0.000000000  0.000000000 22.113885220     0.000000000  0.000000000  0.045220457

  length of vectors
    21.138852197 21.138852197 22.113885220     0.047306258  0.047306258  0.045220457

 FORCES acting on ions:
    Electron-Ion                     Ewald-Force                    Non-Local-Force
   0.592E+00 0.381E+03 -.193E+04   -.587E+00 -.376E+03 0.193E+04   -.562E-02 -.459E+01 -.428E+01
   0.160E+00 0.207E+03 -.197E+04   -.167E+00 -.207E+03 0.196E+04   0.691E-02 0.410E+00 0.669E+01
   -.148E+01 -.388E+03 -.180E+04   0.146E+01 0.384E+03 0.179E+04   0.261E-01 0.458E+01 0.497E+01
   0.686E+00 -.198E+03 -.175E+04   -.677E+00 0.199E+03 0.176E+04   -.104E-01 -.523E+00 -.390E+01
   0.710E+01 -.266E+01 0.936E+03   -.712E+01 0.267E+01 -.929E+03   0.113E-01 -.567E-02 -.672E+01
   0.128E+02 0.613E+01 0.939E+03   -.128E+02 -.614E+01 -.932E+03   0.226E-01 0.874E-02 -.672E+01
   0.932E+01 0.530E+01 -.918E+03   -.933E+01 -.530E+01 0.910E+03   0.900E-02 -.193E-03 0.665E+01
   0.155E+02 -.503E+01 -.915E+03   -.155E+02 0.504E+01 0.908E+03   0.122E-01 -.707E-02 0.665E+01
   0.954E+01 0.983E+01 0.938E+03   -.957E+01 -.985E+01 -.931E+03   0.193E-01 0.915E-02 -.672E+01
   0.248E+02 0.182E+02 0.949E+03   -.249E+02 -.183E+02 -.942E+03   0.721E-01 0.285E-01 -.674E+01
   0.181E+02 0.157E+02 -.913E+03   -.181E+02 -.157E+02 0.905E+03   0.159E-01 0.636E-02 0.664E+01
   0.235E+02 0.199E+02 -.912E+03   -.235E+02 -.199E+02 0.904E+03   0.309E-01 0.820E-02 0.664E+01
   0.168E+02 0.959E+01 0.945E+03   -.169E+02 -.960E+01 -.937E+03   0.397E-01 0.127E-01 -.673E+01
   0.383E+02 0.456E+01 0.961E+03   -.385E+02 -.459E+01 -.954E+03   0.133E+00 0.171E-01 -.675E+01
   0.281E+02 0.416E+01 -.907E+03   -.281E+02 -.417E+01 0.900E+03   0.270E-01 0.661E-02 0.664E+01
   0.527E+02 0.223E+02 -.896E+03   -.527E+02 -.223E+02 0.889E+03   0.522E-01 0.156E-01 0.662E+01
   0.186E+02 -.489E+01 0.947E+03   -.186E+02 0.489E+01 -.939E+03   0.530E-01 -.138E-02 -.673E+01
   0.302E+02 -.166E+02 0.955E+03   -.304E+02 0.166E+02 -.947E+03   0.112E+00 -.280E-01 -.674E+01
   0.226E+02 -.139E+02 -.910E+03   -.226E+02 0.140E+02 0.902E+03   0.288E-01 -.453E-02 0.664E+01
   0.606E+02 -.119E+02 -.891E+03   -.608E+02 0.119E+02 0.884E+03   0.104E+00 0.350E-02 0.662E+01
   0.118E+02 -.119E+02 0.941E+03   -.118E+02 0.119E+02 -.933E+03   0.292E-01 -.148E-01 -.672E+01
   0.152E+02 -.124E+02 0.942E+03   -.152E+02 0.124E+02 -.934E+03   0.304E-01 -.263E-01 -.672E+01
   0.114E+02 -.112E+02 -.916E+03   -.114E+02 0.112E+02 0.908E+03   0.121E-01 -.824E-02 0.665E+01
   0.319E+02 -.252E+02 -.906E+03   -.319E+02 0.253E+02 0.898E+03   0.477E-01 -.201E-01 0.663E+01
   0.130E+02 -.503E+01 0.943E+03   -.130E+02 0.505E+01 -.935E+03   0.196E-01 -.139E-01 -.672E+01
   0.924E+01 0.123E+02 0.947E+03   -.927E+01 -.124E+02 -.940E+03   0.175E-01 0.469E-01 -.673E+01
   0.184E+02 0.130E+02 -.911E+03   -.184E+02 -.130E+02 0.904E+03   0.173E-01 0.181E-01 0.664E+01
   0.114E+02 -.101E+02 -.908E+03   -.114E+02 0.101E+02 0.900E+03   0.718E-02 -.671E-02 0.664E+01
   0.199E+02 0.221E+02 0.950E+03   -.200E+02 -.222E+02 -.943E+03   0.564E-01 0.570E-01 -.673E+01
   0.251E+02 0.442E+02 0.984E+03   -.254E+02 -.445E+02 -.976E+03   0.141E+00 0.199E+00 -.672E+01
   0.539E+02 0.495E+02 -.887E+03   -.541E+02 -.495E+02 0.879E+03   0.138E+00 0.217E-01 0.660E+01
   0.231E+02 0.522E+02 -.894E+03   -.231E+02 -.523E+02 0.886E+03   0.303E-01 0.129E+00 0.662E+01
   0.454E+02 0.249E+02 0.981E+03   -.457E+02 -.250E+02 -.973E+03   0.240E+00 0.734E-01 -.680E+01
   0.487E+02 0.112E+02 0.104E+04   -.492E+02 -.113E+02 -.103E+04   0.343E+00 0.112E+00 -.677E+01
   0.110E+03 0.140E+02 -.846E+03   -.111E+03 -.141E+02 0.838E+03   0.263E+00 0.483E-01 0.656E+01
   0.118E+03 0.915E+02 -.770E+03   -.120E+03 -.917E+02 0.763E+03   0.100E+01 0.158E+00 0.640E+01
   0.514E+02 -.143E+02 0.989E+03   -.519E+02 0.144E+02 -.981E+03   0.354E+00 -.230E-01 -.680E+01
   0.327E+02 -.435E+02 0.100E+04   -.330E+02 0.439E+02 -.996E+03   0.241E+00 -.265E+00 -.670E+01
   0.738E+02 -.493E+02 -.868E+03   -.742E+02 0.493E+02 0.861E+03   0.244E+00 -.446E-01 0.659E+01
   0.146E+03 -.566E+02 -.728E+03   -.149E+03 0.566E+02 0.720E+03   0.188E+01 -.556E-01 0.670E+01
   0.261E+02 -.276E+02 0.959E+03   -.262E+02 0.278E+02 -.951E+03   0.884E-01 -.930E-01 -.674E+01
   0.116E+02 -.244E+02 0.954E+03   -.116E+02 0.245E+02 -.946E+03   0.216E-01 -.987E-01 -.675E+01
   0.242E+02 -.275E+02 -.905E+03   -.242E+02 0.276E+02 0.898E+03   0.158E-01 -.439E-01 0.663E+01
   0.359E+02 -.731E+02 -.870E+03   -.359E+02 0.734E+02 0.863E+03   0.115E-01 -.250E+00 0.658E+01
   0.248E-01 -.703E+01 0.948E+03   -.247E-01 0.705E+01 -.940E+03   -.869E-04 -.186E-01 -.673E+01
   -.921E+01 0.123E+02 0.947E+03   0.924E+01 -.124E+02 -.940E+03   -.177E-01 0.468E-01 -.673E+01
   0.304E-01 0.213E+02 -.905E+03   -.303E-01 -.214E+02 0.898E+03   -.109E-03 0.488E-01 0.663E+01
   -.114E+02 -.102E+02 -.908E+03   0.114E+02 0.102E+02 0.900E+03   -.738E-02 -.660E-02 0.664E+01
   0.301E-01 0.351E+02 0.963E+03   -.299E-01 -.354E+02 -.955E+03   -.137E-03 0.197E+00 -.676E+01
   -.251E+02 0.443E+02 0.984E+03   0.253E+02 -.446E+02 -.976E+03   -.141E+00 0.199E+00 -.672E+01
   0.107E+00 0.125E+03 -.825E+03   -.107E+00 -.126E+03 0.817E+03   -.313E-03 0.983E+00 0.668E+01
   -.230E+02 0.522E+02 -.894E+03   0.230E+02 -.524E+02 0.886E+03   -.305E-01 0.129E+00 0.662E+01
   0.862E-01 0.466E+02 0.104E+04   -.858E-01 -.471E+02 -.103E+04   -.260E-03 0.296E+00 -.576E+01
   -.485E+02 0.112E+02 0.104E+04   0.490E+02 -.114E+02 -.103E+04   -.343E+00 0.112E+00 -.677E+01
   0.463E+00 0.319E+02 -.583E+03   -.463E+00 -.334E+02 0.577E+03   -.129E-03 0.101E+01 0.521E+01
   -.118E+03 0.917E+02 -.770E+03   0.120E+03 -.919E+02 0.762E+03   -.100E+01 0.158E+00 0.640E+01
   0.138E+00 -.290E+02 0.106E+04   -.137E+00 0.291E+02 -.106E+04   -.797E-03 -.120E+00 -.479E+01
   -.325E+02 -.436E+02 0.100E+04   0.329E+02 0.440E+02 -.996E+03   -.241E+00 -.264E+00 -.670E+01
   0.330E+00 -.146E+03 -.756E+03   -.328E+00 0.148E+03 0.748E+03   -.137E-02 -.185E+01 0.652E+01
   -.146E+03 -.566E+02 -.727E+03   0.149E+03 0.567E+02 0.719E+03   -.189E+01 -.570E-01 0.669E+01
[...]
   -.986E+01 0.905E+01 0.708E+03   0.988E+01 -.906E+01 -.712E+03   -.248E-01 0.150E-01 0.315E+01
   -.162E-01 0.628E+01 0.704E+03   0.161E-01 -.628E+01 -.708E+03   0.143E-03 0.724E-02 0.315E+01
   -.183E+02 0.959E+01 -.684E+03   0.183E+02 -.960E+01 0.688E+03   -.216E-01 0.103E-01 -.328E+01
   -.495E-01 0.250E+01 -.685E+03   0.493E-01 -.250E+01 0.689E+03   0.241E-03 0.607E-02 -.327E+01
   -.144E+02 0.228E+01 0.712E+03   0.144E+02 -.228E+01 -.716E+03   -.391E-01 0.988E-02 0.314E+01
   -.283E-01 0.600E+01 0.708E+03   0.281E-01 -.601E+01 -.712E+03   0.216E-03 0.106E-01 0.315E+01
   -.207E+02 -.480E+01 -.682E+03   0.207E+02 0.480E+01 0.686E+03   -.296E-01 0.162E-02 -.328E+01
   -.473E-01 -.830E+01 -.686E+03   0.470E-01 0.830E+01 0.690E+03   0.295E-03 -.453E-02 -.326E+01
   -.118E+02 -.796E+01 0.710E+03   0.118E+02 0.797E+01 -.714E+03   -.360E-01 -.138E-01 0.315E+01
   -.355E-01 -.298E+01 0.709E+03   0.354E-01 0.299E+01 -.713E+03   0.194E-03 -.719E-03 0.315E+01
   -.123E+02 -.116E+02 -.686E+03   0.123E+02 0.116E+02 0.691E+03   -.198E-01 -.124E-01 -.326E+01
   -.261E-01 -.701E+01 -.690E+03   0.259E-01 0.702E+01 0.694E+03   0.164E-03 -.776E-02 -.325E+01
   -.654E+01 -.655E+01 0.705E+03   0.655E+01 0.656E+01 -.709E+03   -.171E-01 -.146E-01 0.315E+01
   -.259E-01 -.754E+01 0.706E+03   0.257E-01 0.755E+01 -.710E+03   0.202E-03 -.122E-01 0.315E+01
   -.273E-01 0.118E-01 0.278E+00   0.702E-12 0.682E-12 0.200E-10   0.300E-01 -.112E+00 -.336E-01

 POSITION                                       TOTAL-FORCE (eV/Angst)
      8.45714      9.05883     13.49759        -0.000725     -0.161219     -0.119461
      8.46060     10.81262     15.42040         0.000967     -0.177882      0.207508
      8.46768     13.55697     15.76553         0.002066      0.287458      0.150279
      8.45984     12.47141     13.36585        -0.001183      0.067695     -0.257129
      0.00000      0.00000      9.00000        -0.003511      0.001749      0.537682
      2.11389      2.11389      9.00000        -0.007044     -0.002759      0.538649
      0.00000      2.11389     11.11389        -0.002664      0.000090     -0.509111
      2.11389      0.00000     11.11389        -0.003674      0.002021     -0.507292
      0.00000      4.22777      9.00000        -0.005824     -0.002826      0.538538
      2.11389      6.34166      9.00000        -0.021184     -0.008578      0.543951
      0.00000      6.34166     11.11389        -0.004106     -0.001689     -0.504829
      2.11389      4.22777     11.11389        -0.008430     -0.001967     -0.503032
      0.00000      8.45554      9.00000        -0.011783     -0.003942      0.540872
      2.11389     10.56943      9.00000        -0.038854     -0.005630      0.548505
      0.00000     10.56943     11.11389        -0.006564     -0.002100     -0.500891
      2.11389      8.45554     11.11389        -0.009294     -0.003536     -0.487451
      0.00000     12.68331      9.00000        -0.015508      0.000363      0.541631
      2.11389     14.79720      9.00000        -0.032891      0.008853      0.544859
      0.00000     14.79720     11.11389        -0.007605      0.001246     -0.503482
      2.11389     12.68331     11.11389        -0.022871     -0.001967     -0.485779
      0.00000     16.91108      9.00000        -0.008786      0.004676      0.539273
      2.11389     19.02497      9.00000        -0.009491      0.008166      0.539269
      0.00000     19.02497     11.11389        -0.003513      0.002473     -0.508239
      2.11389     16.91108     11.11389        -0.012611      0.005518     -0.499187
      4.22777      0.00000      9.00000        -0.006180      0.004115      0.540116
      6.34166      2.11389      9.00000        -0.005669     -0.013850      0.541883
      4.22777      2.11389     11.11389        -0.005125     -0.004764     -0.503310
      6.34166      0.00000     11.11389        -0.002082      0.001306     -0.501508
      4.22777      4.22777      9.00000        -0.017723     -0.017620      0.541426
      6.34166      6.34166      9.00000        -0.048124     -0.062769      0.538461
      4.22777      6.34166     11.11389        -0.028500      0.002821     -0.469779
      6.34166      4.22777     11.11389        -0.006857     -0.028979     -0.483665
      4.22777      8.45554      9.00000        -0.067132     -0.021500      0.562231
      6.34166     10.56943      9.00000        -0.113725     -0.039659      0.541370
      4.22777     10.56943     11.11389        -0.038066     -0.016244     -0.416398
      6.34166      8.45554     11.11389        -0.369554     -0.012654     -0.401446
      4.22777     12.68331      9.00000        -0.097413      0.005738      0.562986
      6.34166     14.79720      9.00000        -0.082723      0.088949      0.525073
      4.22777     14.79720     11.11389        -0.052595      0.005291     -0.454196
      6.34166     12.68331     11.11389        -0.712627      0.003750     -0.566226
      4.22777     16.91108      9.00000        -0.027874      0.029060      0.542795
      6.34166     19.02497      9.00000        -0.006783      0.028690      0.546076
      4.22777     19.02497     11.11389        -0.004172      0.011360     -0.498427
      6.34166     16.91108     11.11389         0.006186      0.052349     -0.444942
      8.45554      0.00000      9.00000         0.000017      0.005439      0.542015
     10.56943      2.11389      9.00000         0.005685     -0.013833      0.541949
      8.45554      2.11389     11.11389         0.000012     -0.011908     -0.498478
     10.56943      0.00000     11.11389         0.002104      0.001264     -0.501499
      8.45554      4.22777      9.00000         0.000027     -0.054992      0.547847
     10.56943      6.34166      9.00000         0.048155     -0.062710      0.538470
      8.45554      6.34166     11.11389         0.000098     -0.328432     -0.485824
     10.56943      4.22777     11.11389         0.006897     -0.028896     -0.483621
      8.45554      8.45554      9.00000         0.000087     -0.069389      0.315826
     10.56943     10.56943      9.00000         0.113828     -0.039533      0.541387
      8.45554     10.56943     11.11389        -0.000518     -0.299925     -0.602547
     10.56943      8.45554     11.11389         0.370175     -0.012671     -0.401270
      8.45554     12.68331      9.00000         0.000317      0.022212      0.091491
     10.56943     14.79720      9.00000         0.082852      0.088805      0.525564
      8.45554     14.79720     11.11389         0.000535      0.658776     -0.424049
     10.56943     12.68331     11.11389         0.715540      0.004636     -0.567436
[...]
     19.02497      6.34166     11.11389         0.000035      0.002034      0.384542
     16.91108      6.34166      9.00000        -0.008069      0.004866     -0.418411
     19.02497      4.22777      9.00000         0.000058      0.002318     -0.416703
     16.91108      8.45554     11.11389        -0.007155      0.003383      0.379278
     19.02497     10.56943     11.11389         0.000058      0.001970      0.381830
     16.91108     10.56943      9.00000        -0.012681      0.003177     -0.420124
     19.02497      8.45554      9.00000         0.000041      0.003449     -0.418216
     16.91108     12.68331     11.11389        -0.009779      0.000518      0.378194
     19.02497     14.79720     11.11389         0.000084     -0.001471      0.383376
     16.91108     14.79720      9.00000        -0.011641     -0.004454     -0.418690
     19.02497     12.68331      9.00000         0.000060     -0.000218     -0.418306
     16.91108     16.91108     11.11389        -0.006480     -0.004019      0.383364
     19.02497     19.02497     11.11389         0.000042     -0.002507      0.386881
     16.91108     19.02497      9.00000        -0.005489     -0.004688     -0.416641
     19.02497     16.91108      9.00000         0.000051     -0.003913     -0.416939
    total drift:                                0.003426     -0.001123     -0.242895

  FREE ENERGIE OF THE ION-ELECTRON SYSTEM (eV)
  free  energy   TOTEN  =     -1397.90153319 eV

  energy  without entropy=    -1397.90153319  energy(sigma->0) =    -1397.90153319