 vasp.6.4.0 14Feb23 (build Jul 14 2023 13:46:40) complex

 executed on             LinuxIFC date 2023.07.30  06:17:36

 INCAR:
   SYSTEM = MgO-rocksalt
   ISMEAR = 0
   SIGMA = 0.05
   EDIFF = 1E-6
   ALGO = ALL
   ISTART = 0
   IBRION = -1
   NSW = 0
   ISYM = 2
   DIPOL = 0.5 0.5 0.5
   IDIPOL = 3
   LDIPOL = .TRUE.
   METAGGA = TPSS
   ENCUT = 520
   PREC = Accurate
   LASPH = .TRUE.
   LREAL = Auto
   ISPIN = 1
   NELM = 200
   NELMIN = 8
   NCORE = 16
   KPAR = 1
   LWAVE = .FALSE.
   LCHARG = .FALSE.

 POTCAR:    PAW_PBE Cu 22Jun2005
 POTCAR:    PAW_PBE Mg_pv 13Apr2007
 POTCAR:    PAW_PBE O 08Apr2002
 POTCAR:    PAW_PBE Cu 22Jun2005
   VRHFIN =Cu: d10 p1

   TITEL  = PAW_PBE Cu 22Jun2005
   POMASS =   63.546; ZVAL   =   11.000    mass and valenz
   ENMAX  =  295.446; ENMIN  =  221.585 eV

   TITEL  = PAW_PBE Mg_pv 13Apr2007
   POMASS =   24.305; ZVAL   =    8.000    mass and valenz
   ENMAX  =  403.929; ENMIN  =  302.947 eV

   TITEL  = PAW_PBE O 08Apr2002
   POMASS =   16.000; ZVAL   =    6.000    mass and valenz
   ENMAX  =  400.000; ENMIN  =  300.000 eV

 Optimization of the real space projectors (new method)

 maximal supplied QI-value         = 16.25
 optimisation between [QCUT,QGAM] = [ 11.54, 23.24] = [ 37.28,151.24] Ry
 Optimized for a Real-space Cutoff    1.53 Angstroem

   l    n(q)    QCUT    max X(q) W(low)/X(q) W(high)/X(q)  e(spline)
   2     10    11.539     4.610    0.96E-04    0.13E-03    0.19E-06
   2     10    11.539     8.522    0.16E-03    0.21E-03    0.28E-06
   0     11    11.539    51.609    0.45E-04    0.31E-04    0.11E-06
   0     11    11.539    27.747    0.39E-04    0.29E-04    0.10E-06
   1     10    11.539    20.408    0.70E-05    0.38E-04    0.18E-06
   1     10    11.539    13.425    0.66E-05    0.34E-04    0.17E-06
 Optimization of the real space projectors (new method)

[...]

   l    n(q)    QCUT    max X(q) W(low)/X(q) W(high)/X(q)  e(spline)
   1      8    11.527     2.974    0.44E-04    0.56E-04    0.12E-06
   1      8    11.527     4.279    0.12E-03    0.12E-03    0.26E-06
   0      9    11.527    16.381    0.46E-04    0.64E-04    0.78E-07
   0      9    11.527     5.611    0.26E-04    0.43E-04    0.55E-07
   2      8    11.527     4.652    0.22E-03    0.72E-04    0.47E-07
 Optimization of the real space projectors (new method)

 maximal supplied QI-value         = 24.76
 optimisation between [QCUT,QGAM] = [ 11.64, 23.27] = [ 37.91,151.63] Ry
 Optimized for a Real-space Cutoff    1.14 Angstroem

   l    n(q)    QCUT    max X(q) W(low)/X(q) W(high)/X(q)  e(spline)
   0      8    11.635    20.381    0.10E-03    0.33E-03    0.24E-06
   0      8    11.635    15.268    0.11E-03    0.35E-03    0.26E-06
   1      7    11.635     5.964    0.24E-03    0.31E-03    0.30E-06
   1      7    11.635     5.382    0.22E-03    0.25E-03    0.26E-06
  PAW_PBE Cu 22Jun2005                  :
  PAW_PBE Mg_pv 13Apr2007               :
  PAW_PBE O 08Apr2002                   :

 POSCAR: Cu Mg  O
  positions in direct lattice
  velocities in cartesian coordinates

 METAGGA = TPSS                                        LMAXTAU =  6    LMIXTAU =  F

 ion  position               nearest neighbor table
   1  0.400  0.558  0.598- 157 2.29   3 2.35  55 2.43   4 2.47
   2  0.400  0.499  0.790-   3 2.25
   3  0.400  0.499  0.688-   2 2.25   1 2.35   4 2.35
   4  0.400  0.441  0.597- 153 2.26   3 2.35  55 2.43   1 2.47
   5  0.000  0.000  0.407- 107 2.11 108 2.11 123 2.11 188 2.11 105 2.11
   6  0.100  0.100  0.407- 107 2.11 108 2.11 112 2.11 127 2.11 106 2.11
   7  0.000  0.100  0.503- 105 2.11 106 2.11 109 2.11 186 2.11 107 2.11
   8  0.100  0.000  0.503- 105 2.11 106 2.11 122 2.11 125 2.11 108 2.11
   9  0.000  0.200  0.407- 111 2.11 107 2.11 112 2.11 192 2.11 109 2.11
  10  0.100  0.300  0.407- 112 2.11 111 2.11 116 2.11 131 2.11 110 2.11
  11  0.000  0.300  0.503- 109 2.11 110 2.11 113 2.11 190 2.11 111 2.11
  12  0.100  0.200  0.503- 110 2.11 109 2.11 106 2.11 129 2.11 112 2.11
  13  0.000  0.400  0.407- 111 2.11 115 2.11 116 2.11 196 2.11 113 2.11
  14  0.100  0.500  0.407- 115 2.11 116 2.11 120 2.11 135 2.11 114 2.11
  15  0.000  0.500  0.503- 113 2.11 114 2.11 117 2.11 194 2.11 115 2.11
  16  0.100  0.400  0.503- 110 2.11 113 2.11 114 2.11 133 2.11 116 2.11
  17  0.000  0.600  0.407- 115 2.11 119 2.11 120 2.11 200 2.11 117 2.11
  18  0.100  0.700  0.407- 124 2.11 120 2.11 119 2.11 139 2.11 118 2.11
  19  0.000  0.700  0.503- 121 2.11 118 2.11 117 2.11 198 2.11 119 2.11
  20  0.100  0.600  0.503- 114 2.11 117 2.11 118 2.11 137 2.11 120 2.11
  21  0.000  0.800  0.407- 119 2.11 123 2.11 124 2.11 204 2.11 121 2.11
  22  0.100  0.900  0.407- 108 2.11 123 2.11 124 2.11 143 2.11 122 2.11
  23  0.000  0.900  0.503- 105 2.11 121 2.11 122 2.11 202 2.11 123 2.11
  24  0.100  0.800  0.503- 118 2.11 121 2.11 122 2.11 141 2.11 124 2.11
  25  0.200  0.000  0.407- 128 2.11 127 2.11 108 2.11 143 2.11 125 2.11
  26  0.300  0.100  0.407- 127 2.11 128 2.11 132 2.11 147 2.11 126 2.11
  27  0.200  0.100  0.503- 126 2.11 125 2.11 106 2.11 129 2.11 127 2.11
  28  0.300  0.000  0.503- 125 2.11 126 2.11 142 2.11 145 2.11 128 2.11
  29  0.200  0.200  0.407- 131 2.11 132 2.11 112 2.11 127 2.11 129 2.11
  30  0.300  0.300  0.407- 131 2.11 132 2.11 136 2.11 151 2.11 130 2.11
  31  0.200  0.300  0.503- 129 2.11 130 2.11 110 2.11 133 2.11 131 2.11
  32  0.300  0.200  0.503- 129 2.11 130 2.11 126 2.11 149 2.11 132 2.11
  33  0.200  0.400  0.407- 136 2.11 131 2.11 135 2.11 116 2.11 133 2.11
  34  0.300  0.500  0.407- 135 2.11 136 2.11 140 2.11 155 2.11 134 2.11
  35  0.200  0.500  0.503- 134 2.11 133 2.11 114 2.11 137 2.11 135 2.11
  36  0.300  0.400  0.503- 133 2.11 130 2.11 134 2.11 153 2.11 136 2.11
  37  0.200  0.600  0.407- 140 2.11 135 2.11 139 2.11 120 2.11 137 2.11
  38  0.300  0.700  0.407- 139 2.11 144 2.11 140 2.11 159 2.11 138 2.11
  39  0.200  0.700  0.503- 138 2.11 141 2.11 118 2.11 137 2.11 139 2.11
  40  0.300  0.600  0.503- 137 2.11 134 2.11 138 2.11 157 2.11 140 2.11
  41  0.200  0.800  0.407- 139 2.11 144 2.11 143 2.11 124 2.11 141 2.11
  42  0.300  0.900  0.407- 143 2.11 128 2.11 144 2.11 163 2.11 142 2.11
  43  0.200  0.900  0.503- 142 2.11 125 2.11 141 2.11 122 2.11 143 2.11
  44  0.300  0.800  0.503- 138 2.11 141 2.11 142 2.11 161 2.11 144 2.11
  45  0.400  0.000  0.407- 128 2.11 147 2.11 148 2.11 163 2.11 145 2.11
  46  0.500  0.100  0.407- 147 2.11 148 2.11 152 2.11 167 2.11 146 2.11
  47  0.400  0.100  0.503- 126 2.11 145 2.11 146 2.11 149 2.11 147 2.11
  48  0.500  0.000  0.503- 145 2.11 146 2.11 162 2.11 165 2.11 148 2.11
  49  0.400  0.200  0.407- 151 2.11 147 2.11 132 2.11 152 2.11 149 2.11
  50  0.500  0.300  0.407- 152 2.11 151 2.11 156 2.11 171 2.11 150 2.11
  51  0.400  0.300  0.503- 149 2.11 130 2.11 150 2.11 153 2.11 151 2.11
  52  0.500  0.200  0.503- 150 2.11 149 2.11 146 2.11 169 2.11 152 2.11
  53  0.400  0.400  0.407- 136 2.11 151 2.11 155 2.11 156 2.11 153 2.11
  54  0.500  0.500  0.407- 155 2.11 156 2.11 160 2.11 175 2.11 154 2.11
  55  0.400  0.500  0.503- 134 2.11 153 2.11 154 2.11 157 2.11 155 2.11   4 2.43   1 2.43
  56  0.500  0.400  0.503- 150 2.11 153 2.11 154 2.11 173 2.11 156 2.11
  57  0.400  0.600  0.407- 140 2.11 155 2.11 159 2.11 160 2.11 157 2.11
  58  0.500  0.700  0.407- 164 2.11 160 2.11 159 2.11 179 2.11 158 2.11
  59  0.400  0.700  0.503- 161 2.11 157 2.11 158 2.11 138 2.11 159 2.11
  60  0.500  0.600  0.503- 154 2.11 157 2.11 158 2.11 177 2.11 160 2.11
[...]
 190  0.900  0.300  0.503-  92 2.11  91 2.11  11 2.11  96 2.11  90 2.11
 191  0.800  0.300  0.407-  70 2.11  89 2.11  90 2.11  93 2.11  91 2.11
 192  0.900  0.200  0.407-  90 2.11  86 2.11  89 2.11   9 2.11  92 2.11
 193  0.800  0.400  0.503-  76 2.11  91 2.11  95 2.11  96 2.11  93 2.11
 194  0.900  0.500  0.503-  15 2.11  95 2.11  96 2.11 100 2.11  94 2.11
 195  0.800  0.500  0.407-  74 2.11  93 2.11  94 2.11  97 2.11  95 2.11
 196  0.900  0.400  0.407-  13 2.11  90 2.11  93 2.11  94 2.11  96 2.11
 197  0.800  0.600  0.503-  80 2.11  95 2.11  99 2.11 100 2.11  97 2.11
 198  0.900  0.700  0.503- 104 2.11  99 2.11 100 2.11  19 2.11  98 2.11
 199  0.800  0.700  0.407-  78 2.11 101 2.11  98 2.11  97 2.11  99 2.11
 200  0.900  0.600  0.407-  17 2.11  94 2.11  97 2.11  98 2.11 100 2.11
 201  0.800  0.800  0.503-  84 2.11  99 2.11 103 2.11 104 2.11 101 2.11
 202  0.900  0.900  0.503-  23 2.11  88 2.11 103 2.11 104 2.11 102 2.11
 203  0.800  0.900  0.407-  82 2.11  85 2.11 101 2.11 102 2.11 103 2.11
 204  0.900  0.800  0.407-  98 2.11  21 2.11 101 2.11 102 2.11 104 2.11

  LATTYP: Found a simple tetragonal cell.
 ALAT       =    21.1388521970
 C/A-ratio  =     1.0461251639

  Lattice vectors:

 A1 = (  21.1388521970,   0.0000000000,   0.0000000000)
 A2 = (   0.0000000000,  21.1388521970,   0.0000000000)
 A3 = (   0.0000000000,   0.0000000000,  22.1138852197)

Analysis of symmetry for initial positions (statically):
 Subroutine PRICEL returns:
 Original cell was already a primitive cell.

 Routine SETGRP: Setting up the symmetry group for a
 simple tetragonal supercell.

 Subroutine GETGRP returns: Found  1 space group operations
 (whereof  1 operations were pure point group operations)
 out of a pool of 16 trial point group operations.

The static configuration has the point symmetry C_1 .

Analysis of symmetry for dynamics (positions and initial velocities):
 Subroutine PRICEL returns:
 Original cell was already a primitive cell.

[...]

The dynamic configuration has the point symmetry C_1 .

Analysis of constrained symmetry for selective dynamics:
 Subroutine PRICEL returns:
 Original cell was already a primitive cell.

 Routine SETGRP: Setting up the symmetry group for a
 simple tetragonal supercell.

 Subroutine GETGRP returns: Found  1 space group operations
 (whereof  1 operations were pure point group operations)
 out of a pool of 16 trial point group operations.

The constrained configuration has the point symmetry C_1 .

 Subroutine INISYM returns: Found  1 space group operations
 (whereof  1 operations are pure point group operations),
 and found     1 'primitive' translations

                                     Primitive cell

  volume of cell :    9881.6133

  direct lattice vectors                    reciprocal lattice vectors
    21.138852197  0.000000000  0.000000000     0.047306258  0.000000000  0.000000000
     0.000000000 21.138852197  0.000000000     0.000000000  0.047306258  0.000000000
     0.000000000  0.000000000 22.113885220     0.000000000  0.000000000  0.045220457

  length of vectors
    21.138852197 21.138852197 22.113885220     0.047306258  0.047306258  0.045220457

  position of ions in fractional coordinates (direct lattice)
     0.399799103  0.557704010  0.597819508
     0.399656041  0.499161715  0.789905234
     0.399599063  0.498964654  0.687952686
     0.399792629  0.441052696  0.597113492
     0.000000000  0.000000000  0.406984115
     0.100000000  0.100000000  0.406984115
     0.000000000  0.100000000  0.502574971
     0.100000000  0.000000000  0.502574971
     0.000000000  0.200000000  0.406984115
     0.100000000  0.300000000  0.406984115
     0.000000000  0.300000000  0.502574971
     0.100000000  0.200000000  0.502574971
[...]
     52     -43.4303      2.00000
     53     -43.4296      2.00000
     54     -43.4292      2.00000
     55     -43.4286      2.00000
     56     -43.4286      2.00000
     57     -43.4275      2.00000
     58     -43.4267      2.00000
     59     -43.4264      2.00000
     60     -43.4241      2.00000
[...]
    882       4.5801      0.00000
    883       4.5973      0.00000
    884       4.6379      0.00000
    885       4.6561      0.00000
    886       4.6890      0.00000
    887       4.7019      0.00000
    888       4.7135      0.00000
    889       4.7265      0.00000
    890       4.7447      0.00000
    891       4.7677      0.00000
    892       4.7734      0.00000
    893       4.7791      0.00000
    894       4.7832      0.00000
    895       4.9376      0.00000
    896       5.0612      0.00000

 soft charge-density along one line, spin component           1
         0         1         2         3         4         5         6         7         8         9
 total charge-density along one line

------------------------ aborting loop because EDIFF is reached ----------------------------------------

  FORCE on cell =-STRESS in cart. coord.  units (eV):
  Direction    XX          YY          ZZ          XY          YZ          ZX
  Alpha Z  1394.80054  1394.80054  1394.80054
  Ewald  476789.57733478031.49515************     0.08233     1.75104    -2.53842
  Hartree506827.32007507795.41840************     0.06341     1.09564    -2.00238
  E(xc)   -8384.64547 -8384.71137 -8409.95405    -0.00001     0.00003     0.00011
  Local  ************************************    -0.14439    -2.84363     4.50762
  n-local -9046.23153 -9047.77273 -9171.24386    -0.00023     0.00452     0.00100
  augment  4224.86748  4217.86520  4157.48408    -0.00042    -0.00794     0.01446
  Kinetic 23083.17215 23075.66512 23316.53711    -0.00052    -0.00786     0.02849
  Fock        0.00000     0.00000     0.00000     0.00000     0.00000     0.00000
  Total    -165.20404  -166.97411     7.78461     0.00018    -0.00821     0.01088
  in kB     -26.78572   -27.07272     1.26218     0.00003    -0.00133     0.00176

 VOLUME and BASIS-vectors are now :
  energy-cutoff  :      520.00
  volume of cell :     9881.61
      direct lattice vectors                 reciprocal lattice vectors
    21.138852197  0.000000000  0.000000000     0.047306258  0.000000000  0.000000000
     0.000000000 21.138852197  0.000000000     0.000000000  0.047306258  0.000000000
     0.000000000  0.000000000 22.113885220     0.000000000  0.000000000  0.045220457

  length of vectors
    21.138852197 21.138852197 22.113885220     0.047306258  0.047306258  0.045220457

 FORCES acting on ions:
    Electron-Ion                     Ewald-Force                    Non-Local-Force
   -.595E+00 -.489E+03 -.187E+04   0.583E+00 0.479E+03 0.188E+04   0.139E-01 0.969E+01 -.505E+01
   -.816E-01 -.290E+00 -.155E+04   0.676E-01 0.246E+00 0.153E+04   0.121E-01 0.399E-01 0.116E+02
   0.132E+01 0.389E+01 -.186E+04   -.129E+01 -.384E+01 0.186E+04   -.215E-01 -.574E-01 0.419E+00
   -.534E+00 0.485E+03 -.187E+04   0.524E+00 -.475E+03 0.188E+04   0.125E-01 -.947E+01 -.506E+01
   0.647E+01 0.579E-01 0.936E+03   -.650E+01 -.582E-01 -.927E+03   0.244E-01 0.267E-03 -.796E+01
   0.127E+02 0.987E+01 0.939E+03   -.128E+02 -.990E+01 -.931E+03   0.539E-01 0.201E-01 -.796E+01
   0.929E+01 0.884E+01 -.918E+03   -.932E+01 -.884E+01 0.910E+03   0.278E-01 0.174E-02 0.785E+01
   0.135E+02 0.103E+00 -.917E+03   -.135E+02 -.103E+00 0.909E+03   0.384E-01 0.447E-03 0.785E+01
   0.102E+02 0.119E+02 0.939E+03   -.102E+02 -.120E+02 -.931E+03   0.430E-01 0.826E-02 -.796E+01
   0.270E+02 0.195E+02 0.951E+03   -.272E+02 -.195E+02 -.943E+03   0.140E+00 0.235E-01 -.798E+01
   0.197E+02 0.165E+02 -.913E+03   -.198E+02 -.165E+02 0.904E+03   0.449E-01 -.231E-02 0.784E+01
   0.251E+02 0.238E+02 -.911E+03   -.252E+02 -.238E+02 0.903E+03   0.896E-01 0.119E-01 0.784E+01
   0.180E+02 0.821E+01 0.946E+03   -.181E+02 -.821E+01 -.937E+03   0.665E-01 0.262E-02 -.797E+01
   0.401E+02 -.121E+00 0.961E+03   -.403E+02 0.122E+00 -.953E+03   0.173E+00 -.658E-03 -.800E+01
   0.287E+02 -.947E-01 -.908E+03   -.288E+02 0.949E-01 0.900E+03   0.425E-01 -.226E-03 0.784E+01
   0.573E+02 0.201E+02 -.895E+03   -.575E+02 -.201E+02 0.887E+03   0.122E+00 -.476E-02 0.782E+01
   0.180E+02 -.832E+01 0.946E+03   -.181E+02 0.832E+01 -.937E+03   0.660E-01 -.309E-02 -.797E+01
   0.269E+02 -.195E+02 0.951E+03   -.271E+02 0.196E+02 -.942E+03   0.138E+00 -.238E-01 -.798E+01
   0.196E+02 -.165E+02 -.913E+03   -.197E+02 0.165E+02 0.904E+03   0.444E-01 0.217E-02 0.784E+01
   0.571E+02 -.203E+02 -.895E+03   -.573E+02 0.203E+02 0.887E+03   0.121E+00 0.406E-02 0.782E+01
   0.101E+02 -.119E+02 0.939E+03   -.102E+02 0.119E+02 -.931E+03   0.424E-01 -.806E-02 -.796E+01
   0.127E+02 -.973E+01 0.939E+03   -.128E+02 0.975E+01 -.931E+03   0.533E-01 -.192E-01 -.796E+01
   0.924E+01 -.871E+01 -.918E+03   -.928E+01 0.871E+01 0.910E+03   0.275E-01 -.139E-02 0.785E+01
   0.249E+02 -.237E+02 -.911E+03   -.250E+02 0.237E+02 0.903E+03   0.881E-01 -.117E-01 0.784E+01
   0.115E+02 0.113E+00 0.940E+03   -.116E+02 -.114E+00 -.932E+03   0.451E-01 0.885E-03 -.796E+01
   0.920E+01 0.186E+02 0.947E+03   -.925E+01 -.187E+02 -.939E+03   0.420E-01 0.102E+00 -.797E+01
   0.182E+02 0.199E+02 -.912E+03   -.183E+02 -.200E+02 0.904E+03   0.558E-01 0.517E-01 0.785E+01
   0.947E+01 0.203E+00 -.912E+03   -.950E+01 -.204E+00 0.904E+03   0.271E-01 0.111E-02 0.785E+01
   0.213E+02 0.265E+02 0.952E+03   -.215E+02 -.266E+02 -.943E+03   0.123E+00 0.889E-01 -.796E+01
   0.281E+02 0.498E+02 0.989E+03   -.284E+02 -.501E+02 -.981E+03   0.262E+00 0.255E+00 -.788E+01
   0.592E+02 0.544E+02 -.884E+03   -.596E+02 -.545E+02 0.876E+03   0.324E+00 0.156E-01 0.782E+01
   0.244E+02 0.605E+02 -.892E+03   -.245E+02 -.609E+02 0.884E+03   0.857E-01 0.278E+00 0.784E+01
   0.507E+02 0.239E+02 0.985E+03   -.512E+02 -.239E+02 -.977E+03   0.391E+00 0.410E-01 -.806E+01
   0.559E+02 -.445E+00 0.105E+04   -.565E+02 0.454E+00 -.104E+04   0.401E+00 -.636E-02 -.802E+01
   0.121E+03 -.448E+00 -.844E+03   -.122E+03 0.449E+00 0.836E+03   0.279E+00 -.840E-03 0.776E+01
   0.142E+03 0.108E+03 -.751E+03   -.144E+03 -.108E+03 0.743E+03   0.160E+01 -.632E-01 0.747E+01
   0.505E+02 -.241E+02 0.985E+03   -.510E+02 0.242E+02 -.976E+03   0.385E+00 -.436E-01 -.806E+01
   0.278E+02 -.496E+02 0.988E+03   -.281E+02 0.500E+02 -.980E+03   0.257E+00 -.252E+00 -.788E+01
   0.586E+02 -.543E+02 -.884E+03   -.590E+02 0.543E+02 0.876E+03   0.316E+00 -.167E-01 0.782E+01
   0.140E+03 -.109E+03 -.753E+03   -.142E+03 0.109E+03 0.745E+03   0.156E+01 0.548E-01 0.748E+01
   0.212E+02 -.263E+02 0.952E+03   -.213E+02 0.264E+02 -.943E+03   0.121E+00 -.872E-01 -.796E+01
   0.914E+01 -.183E+02 0.947E+03   -.919E+01 0.184E+02 -.939E+03   0.415E-01 -.985E-01 -.797E+01
   0.181E+02 -.196E+02 -.912E+03   -.181E+02 0.197E+02 0.904E+03   0.552E-01 -.499E-01 0.785E+01
   0.241E+02 -.599E+02 -.893E+03   -.242E+02 0.603E+02 0.884E+03   0.845E-01 -.272E+00 0.784E+01
   -.221E-01 0.159E+00 0.944E+03   0.220E-01 -.161E+00 -.936E+03   0.621E-04 0.146E-02 -.797E+01
   -.924E+01 0.186E+02 0.947E+03   0.929E+01 -.187E+02 -.939E+03   -.419E-01 0.102E+00 -.797E+01
   -.376E-01 0.308E+02 -.907E+03   0.375E-01 -.310E+02 0.898E+03   0.814E-04 0.127E+00 0.785E+01
   -.951E+01 0.202E+00 -.912E+03   0.955E+01 -.204E+00 0.904E+03   -.270E-01 0.109E-02 0.785E+01
   -.458E-01 0.417E+02 0.965E+03   0.456E-01 -.421E+02 -.957E+03   0.104E-03 0.350E+00 -.800E+01
   -.282E+02 0.497E+02 0.989E+03   0.285E+02 -.500E+02 -.981E+03   -.262E+00 0.256E+00 -.788E+01
   -.207E+00 0.140E+03 -.821E+03   0.206E+00 -.142E+03 0.813E+03   0.436E-03 0.161E+01 0.797E+01
   -.245E+02 0.604E+02 -.892E+03   0.246E+02 -.608E+02 0.884E+03   -.854E-01 0.278E+00 0.784E+01
   -.150E+00 0.509E+02 0.106E+04   0.149E+00 -.511E+02 -.105E+04   0.859E-03 0.161E+00 -.606E+01
   -.561E+02 -.443E+00 0.105E+04   0.566E+02 0.452E+00 -.104E+04   -.400E+00 -.638E-02 -.802E+01
   -.938E+00 -.271E+01 -.455E+03   0.939E+00 0.279E+01 0.451E+03   0.265E-02 -.474E-01 0.233E+01
   -.142E+03 0.108E+03 -.752E+03   0.144E+03 -.108E+03 0.744E+03   -.160E+01 -.631E-01 0.748E+01
   -.147E+00 -.514E+02 0.106E+04   0.146E+00 0.516E+02 -.105E+04   0.809E-03 -.169E+00 -.611E+01
   -.279E+02 -.496E+02 0.988E+03   0.282E+02 0.499E+02 -.980E+03   -.257E+00 -.253E+00 -.788E+01
   -.200E+00 -.138E+03 -.823E+03   0.200E+00 0.140E+03 0.815E+03   0.437E-03 -.157E+01 0.797E+01
   -.140E+03 -.109E+03 -.754E+03   0.142E+03 0.109E+03 0.746E+03   -.156E+01 0.548E-01 0.749E+01
[...]
   -.106E+02 0.948E+01 0.708E+03   0.106E+02 -.949E+01 -.712E+03   -.513E-01 0.921E-02 0.346E+01
   0.215E-01 0.764E+01 0.704E+03   -.213E-01 -.764E+01 -.708E+03   -.147E-03 0.594E-02 0.347E+01
   -.194E+02 0.814E+01 -.683E+03   0.194E+02 -.813E+01 0.687E+03   -.458E-01 -.287E-02 -.367E+01
   0.564E-01 -.545E-01 -.685E+03   -.562E-01 0.546E-01 0.689E+03   -.301E-03 -.217E-03 -.366E+01
   -.147E+02 -.536E-01 0.712E+03   0.147E+02 0.539E-01 -.716E+03   -.579E-01 -.385E-03 0.346E+01
   0.363E-01 0.505E+01 0.708E+03   -.361E-01 -.505E+01 -.712E+03   -.246E-03 0.114E-02 0.346E+01
   -.194E+02 -.824E+01 -.683E+03   0.194E+02 0.824E+01 0.687E+03   -.455E-01 0.238E-02 -.367E+01
   0.398E-01 -.991E+01 -.688E+03   -.397E-01 0.991E+01 0.692E+03   -.233E-03 0.152E-02 -.365E+01
   -.106E+02 -.951E+01 0.708E+03   0.106E+02 0.951E+01 -.712E+03   -.508E-01 -.939E-02 0.346E+01
   0.361E-01 -.512E+01 0.708E+03   -.360E-01 0.512E+01 -.712E+03   -.250E-03 -.156E-02 0.346E+01
   -.995E+01 -.113E+02 -.688E+03   0.998E+01 0.113E+02 0.692E+03   -.362E-01 -.559E-02 -.364E+01
   0.199E-01 -.552E+01 -.691E+03   -.198E-01 0.552E+01 0.695E+03   -.132E-03 -.152E-02 -.363E+01
   -.552E+01 -.522E+01 0.704E+03   0.555E+01 0.522E+01 -.708E+03   -.315E-01 -.853E-02 0.347E+01
   0.213E-01 -.761E+01 0.704E+03   -.211E-01 0.761E+01 -.708E+03   -.149E-03 -.576E-02 0.347E+01
   0.827E-02 -.251E+00 0.711E+01   0.235E-11 -.924E-12 -.352E-11   -.632E-02 0.248E+00 -.778E+01

 POSITION                                       TOTAL-FORCE (eV/Angst)
      8.45129     11.78922     13.22011         0.002902     -0.091227      0.018576
      8.44827     10.55171     17.46787        -0.001672     -0.003660     -0.009127
      8.44707     10.54754     15.21331         0.001913     -0.002911     -0.000561
      8.45116      9.32335     13.20450         0.002962      0.099365      0.029456
      0.00000      0.00000      9.00000        -0.006723     -0.000076      0.415886
      2.11389      2.11389      9.00000        -0.014951     -0.005694      0.415869
      0.00000      2.11389     11.11389        -0.007443     -0.000455     -0.378173
      2.11389      0.00000     11.11389        -0.010613     -0.000105     -0.377415
      0.00000      4.22777      9.00000        -0.011485     -0.002307      0.417125
      2.11389      6.34166      9.00000        -0.037015     -0.006537      0.420668
      0.00000      6.34166     11.11389        -0.011358      0.000940     -0.372817
      2.11389      4.22777     11.11389        -0.023480     -0.003242     -0.372053
      0.00000      8.45554      9.00000        -0.017554     -0.000564      0.419612
      2.11389     10.56943      9.00000        -0.047105      0.000204      0.424983
      0.00000     10.56943     11.11389        -0.010137      0.000061     -0.368307
      2.11389      8.45554     11.11389        -0.029339      0.002341     -0.355895
      0.00000     12.68331      9.00000        -0.017427      0.000729      0.419573
      2.11389     14.79720      9.00000        -0.036444      0.006643      0.420556
      0.00000     14.79720     11.11389        -0.011231     -0.000862     -0.372919
      2.11389     12.68331     11.11389        -0.029145     -0.002123     -0.356096
      0.00000     16.91108      9.00000        -0.011318      0.002289      0.417076
      2.11389     19.02497      9.00000        -0.014795      0.005462      0.415846
      0.00000     19.02497     11.11389        -0.007375      0.000385     -0.378225
      2.11389     16.91108     11.11389        -0.023116      0.003204     -0.372216
      4.22777      0.00000      9.00000        -0.012776     -0.000227      0.416076
      6.34166      2.11389      9.00000        -0.012270     -0.026964      0.416519
      4.22777      2.11389     11.11389        -0.015642     -0.013374     -0.373390
      6.34166      0.00000     11.11389        -0.007742     -0.000263     -0.374001
      4.22777      4.22777      9.00000        -0.035041     -0.025729      0.413506
      6.34166      6.34166      9.00000        -0.085884     -0.082026      0.377324
      4.22777      6.34166     11.11389        -0.083502     -0.002533     -0.349612
      6.34166      4.22777     11.11389        -0.025613     -0.073249     -0.362246
      4.22777      8.45554      9.00000        -0.100317     -0.010227      0.433116
      6.34166     10.56943      9.00000        -0.130558      0.002109      0.381263
      4.22777     10.56943     11.11389        -0.076744      0.000158     -0.295657
      6.34166      8.45554     11.11389        -0.559560      0.026393     -0.320116
      4.22777     12.68331      9.00000        -0.098757      0.010968      0.432747
      6.34166     14.79720      9.00000        -0.084261      0.080899      0.378467
      4.22777     14.79720     11.11389        -0.081789      0.002893     -0.350284
      6.34166     12.68331     11.11389        -0.540287     -0.025338     -0.318683
      4.22777     16.91108      9.00000        -0.034446      0.025259      0.413533
      6.34166     19.02497      9.00000        -0.012132      0.026165      0.416456
      4.22777     19.02497     11.11389        -0.015485      0.012949     -0.373516
      6.34166     16.91108     11.11389        -0.025282      0.071589     -0.362717
      8.45554      0.00000      9.00000        -0.000027     -0.000364      0.416715
     10.56943      2.11389      9.00000         0.012268     -0.026975      0.416639
      8.45554      2.11389     11.11389        -0.000006     -0.031919     -0.370406
     10.56943      0.00000     11.11389         0.007737     -0.000228     -0.374077
      8.45554      4.22777      9.00000        -0.000030     -0.089205      0.417323
     10.56943      6.34166      9.00000         0.085785     -0.082158      0.377379
      8.45554      6.34166     11.11389        -0.000157     -0.502143     -0.393152
     10.56943      4.22777     11.11389         0.025565     -0.073342     -0.362431
      8.45554      8.45554      9.00000        -0.000286     -0.027094     -0.009577
     10.56943     10.56943      9.00000         0.130416      0.002109      0.381688
      8.45554     10.56943     11.11389         0.003589      0.024238     -1.460272
     10.56943      8.45554     11.11389         0.557606      0.027299     -0.319192
      8.45554     12.68331      9.00000        -0.000271      0.028747      0.001198
     10.56943     14.79720      9.00000         0.084136      0.080999      0.378485
      8.45554     14.79720     11.11389        -0.000172      0.488079     -0.391973
     10.56943     12.68331     11.11389         0.538520     -0.026204     -0.317862
[...]
     19.02497      6.34166     11.11389        -0.000099     -0.000403      0.487131
     16.91108      6.34166      9.00000        -0.014195      0.002653     -0.531290
     19.02497      4.22777      9.00000        -0.000014      0.001721     -0.529895
     16.91108      8.45554     11.11389        -0.012794     -0.000744      0.481099
     19.02497     10.56943     11.11389        -0.000130     -0.000049      0.484034
     16.91108     10.56943      9.00000        -0.016020     -0.000065     -0.533400
     19.02497      8.45554      9.00000        -0.000072      0.000394     -0.531613
     16.91108     12.68331     11.11389        -0.012691      0.000640      0.481139
     19.02497     14.79720     11.11389        -0.000093      0.000401      0.487131
     16.91108     14.79720      9.00000        -0.014042     -0.002648     -0.531374
     19.02497     12.68331      9.00000        -0.000092     -0.000435     -0.531644
     16.91108     16.91108     11.11389        -0.010048     -0.001592      0.488273
     19.02497     19.02497     11.11389        -0.000037     -0.000444      0.491365
     16.91108     19.02497      9.00000        -0.008666     -0.002391     -0.529375
     19.02497     16.91108      9.00000        -0.000023     -0.001652     -0.529979
    total drift:                                0.001951     -0.003056     -0.669159

  FREE ENERGIE OF THE ION-ELECTRON SYSTEM (eV)
  free  energy   TOTEN  =     -1796.83236952 eV

  energy  without entropy=    -1796.83236952  energy(sigma->0) =    -1796.83236952