 vasp.6.4.1 05Apr23 (build May 06 2023 19:47:20) complex

 executed on             LinuxIFC date 2023.07.03  18:25:09

 INCAR:
   SYSTEM = MgO-rocksalt
   ISMEAR = 0
   SIGMA = 0.05
   EDIFF = 1E-6
   ALGO = ALL
   ISTART = 0
   IBRION = -1
   NSW = 0
   ISYM = 2
   DIPOL = 0.5 0.5 0.5
   IDIPOL = 3
   LDIPOL = .TRUE.
   GGA = RE
   IVDW = 11
   ENCUT = 520
   PREC = Accurate
   LASPH = .TRUE.
   LREAL = Auto
   ISPIN = 1
   NELM = 200
   NELMIN = 8
   NCORE = 16
   KPAR = 1
   LWAVE = .FALSE.
   LCHARG = .FALSE.

 POTCAR:    PAW_PBE Au 04Oct2007
 POTCAR:    PAW_PBE Mg_pv 13Apr2007
 POTCAR:    PAW_PBE O 08Apr2002
 POTCAR:    PAW_PBE Au 04Oct2007
   VRHFIN =Au: s1d10

   TITEL  = PAW_PBE Au 04Oct2007
   POMASS =  196.966; ZVAL   =   11.000    mass and valenz
   ENMAX  =  229.943; ENMIN  =  172.457 eV

   TITEL  = PAW_PBE Mg_pv 13Apr2007
   POMASS =   24.305; ZVAL   =    8.000    mass and valenz
   ENMAX  =  403.929; ENMIN  =  302.947 eV

   TITEL  = PAW_PBE O 08Apr2002
   POMASS =   16.000; ZVAL   =    6.000    mass and valenz
   ENMAX  =  400.000; ENMIN  =  300.000 eV

 Optimization of the real space projectors (new method)

 maximal supplied QI-value         = 15.12
 optimisation between [QCUT,QGAM] = [ 11.64, 23.28] = [ 37.95,151.78] Ry
 Optimized for a Real-space Cutoff    1.49 Angstroem

   l    n(q)    QCUT    max X(q) W(low)/X(q) W(high)/X(q)  e(spline)
   2      9    11.641    60.898    0.24E-03    0.10E-03    0.19E-06
   2      9    11.641    58.894    0.25E-03    0.10E-03    0.19E-06
   0     10    11.641   109.617    0.73E-04    0.33E-04    0.11E-06
   0     10    11.641    75.026    0.71E-04    0.32E-04    0.11E-06
   1     10    11.641    16.344    0.27E-04    0.97E-04    0.16E-06
   1     10    11.641    10.160    0.23E-04    0.77E-04    0.13E-06
 Optimization of the real space projectors (new method)

[...]

   l    n(q)    QCUT    max X(q) W(low)/X(q) W(high)/X(q)  e(spline)
   1      8    11.527     2.974    0.44E-04    0.56E-04    0.12E-06
   1      8    11.527     4.279    0.12E-03    0.12E-03    0.26E-06
   0      9    11.527    16.381    0.46E-04    0.64E-04    0.78E-07
   0      9    11.527     5.611    0.26E-04    0.43E-04    0.55E-07
   2      8    11.527     4.652    0.22E-03    0.72E-04    0.47E-07
 Optimization of the real space projectors (new method)

 maximal supplied QI-value         = 24.76
 optimisation between [QCUT,QGAM] = [ 11.64, 23.27] = [ 37.91,151.63] Ry
 Optimized for a Real-space Cutoff    1.14 Angstroem

   l    n(q)    QCUT    max X(q) W(low)/X(q) W(high)/X(q)  e(spline)
   0      8    11.635    20.381    0.10E-03    0.33E-03    0.24E-06
   0      8    11.635    15.268    0.11E-03    0.35E-03    0.26E-06
   1      7    11.635     5.964    0.24E-03    0.31E-03    0.30E-06
   1      7    11.635     5.382    0.22E-03    0.25E-03    0.26E-06
|               ----> ADVICE to this user running VASP <----                  |
|     You enforced a specific xc type in the INCAR file but a different       |
|     type was found in the POTCAR file.                                      |
|     I HOPE YOU KNOW WHAT YOU ARE DOING!                                     |

  PAW_PBE Au 04Oct2007                  :
  PAW_PBE Mg_pv 13Apr2007               :
  PAW_PBE O 08Apr2002                   :

 POSCAR: Au Mg  O
  positions in direct lattice
 exchange correlation table for  LEXCH =       40
   RHO(1)=    0.500       N(1)  =     2000
   RHO(2)=  100.500       N(2)  =     4000

 ion  position               nearest neighbor table
   1  0.543  0.457  0.618-   2 2.55  54 2.97  73 2.97
   2  0.457  0.543  0.618-   1 2.55  53 2.97  58 2.97
   3  0.000  0.000  0.407- 105 2.11 106 2.11 121 2.11 186 2.11 103 2.11
   4  0.100  0.100  0.407- 105 2.11 106 2.11 110 2.11 125 2.11 104 2.11
   5  0.000  0.100  0.503- 103 2.11 104 2.11 107 2.11 184 2.11 105 2.11
   6  0.100  0.000  0.503- 103 2.11 104 2.11 120 2.11 123 2.11 106 2.11
   7  0.000  0.200  0.407- 109 2.11 105 2.11 110 2.11 190 2.11 107 2.11
   8  0.100  0.300  0.407- 110 2.11 109 2.11 114 2.11 129 2.11 108 2.11
   9  0.000  0.300  0.503- 107 2.11 108 2.11 111 2.11 188 2.11 109 2.11
  10  0.100  0.200  0.503- 108 2.11 107 2.11 104 2.11 127 2.11 110 2.11
  11  0.000  0.400  0.407- 109 2.11 113 2.11 114 2.11 194 2.11 111 2.11
  12  0.100  0.500  0.407- 113 2.11 114 2.11 118 2.11 133 2.11 112 2.11
  13  0.000  0.500  0.503- 111 2.11 112 2.11 115 2.11 192 2.11 113 2.11
  14  0.100  0.400  0.503- 108 2.11 111 2.11 112 2.11 131 2.11 114 2.11
  15  0.000  0.600  0.407- 113 2.11 117 2.11 118 2.11 198 2.11 115 2.11
  16  0.100  0.700  0.407- 122 2.11 118 2.11 117 2.11 137 2.11 116 2.11
  17  0.000  0.700  0.503- 119 2.11 116 2.11 115 2.11 196 2.11 117 2.11
  18  0.100  0.600  0.503- 112 2.11 115 2.11 116 2.11 135 2.11 118 2.11
  19  0.000  0.800  0.407- 117 2.11 121 2.11 122 2.11 202 2.11 119 2.11
  20  0.100  0.900  0.407- 106 2.11 121 2.11 122 2.11 141 2.11 120 2.11
  21  0.000  0.900  0.503- 103 2.11 119 2.11 120 2.11 200 2.11 121 2.11
  22  0.100  0.800  0.503- 116 2.11 119 2.11 120 2.11 139 2.11 122 2.11
  23  0.200  0.000  0.407- 126 2.11 125 2.11 106 2.11 141 2.11 123 2.11
  24  0.300  0.100  0.407- 125 2.11 126 2.11 130 2.11 145 2.11 124 2.11
  25  0.200  0.100  0.503- 124 2.11 123 2.11 104 2.11 127 2.11 125 2.11
  26  0.300  0.000  0.503- 123 2.11 124 2.11 140 2.11 143 2.11 126 2.11
  27  0.200  0.200  0.407- 129 2.11 130 2.11 110 2.11 125 2.11 127 2.11
  28  0.300  0.300  0.407- 129 2.11 130 2.11 134 2.11 149 2.11 128 2.11
  29  0.200  0.300  0.503- 127 2.11 128 2.11 108 2.11 131 2.11 129 2.11
  30  0.300  0.200  0.503- 127 2.11 128 2.11 124 2.11 147 2.11 130 2.11
  31  0.200  0.400  0.407- 134 2.11 129 2.11 133 2.11 114 2.11 131 2.11
  32  0.300  0.500  0.407- 133 2.11 134 2.11 138 2.11 153 2.11 132 2.11
  33  0.200  0.500  0.503- 132 2.11 131 2.11 112 2.11 135 2.11 133 2.11
  34  0.300  0.400  0.503- 131 2.11 128 2.11 132 2.11 151 2.11 134 2.11
  35  0.200  0.600  0.407- 138 2.11 133 2.11 137 2.11 118 2.11 135 2.11
  36  0.300  0.700  0.407- 137 2.11 142 2.11 138 2.11 157 2.11 136 2.11
  37  0.200  0.700  0.503- 136 2.11 139 2.11 116 2.11 135 2.11 137 2.11
  38  0.300  0.600  0.503- 135 2.11 132 2.11 136 2.11 155 2.11 138 2.11
  39  0.200  0.800  0.407- 137 2.11 142 2.11 141 2.11 122 2.11 139 2.11
  40  0.300  0.900  0.407- 141 2.11 126 2.11 142 2.11 161 2.11 140 2.11
  41  0.200  0.900  0.503- 140 2.11 123 2.11 139 2.11 120 2.11 141 2.11
  42  0.300  0.800  0.503- 136 2.11 139 2.11 140 2.11 159 2.11 142 2.11
  43  0.400  0.000  0.407- 126 2.11 145 2.11 146 2.11 161 2.11 143 2.11
  44  0.500  0.100  0.407- 145 2.11 146 2.11 150 2.11 165 2.11 144 2.11
  45  0.400  0.100  0.503- 124 2.11 143 2.11 144 2.11 147 2.11 145 2.11
  46  0.500  0.000  0.503- 143 2.11 144 2.11 160 2.11 163 2.11 146 2.11
  47  0.400  0.200  0.407- 149 2.11 145 2.11 130 2.11 150 2.11 147 2.11
  48  0.500  0.300  0.407- 150 2.11 149 2.11 154 2.11 169 2.11 148 2.11
  49  0.400  0.300  0.503- 147 2.11 128 2.11 148 2.11 151 2.11 149 2.11
  50  0.500  0.200  0.503- 148 2.11 147 2.11 144 2.11 167 2.11 150 2.11
  51  0.400  0.400  0.407- 134 2.11 149 2.11 153 2.11 154 2.11 151 2.11
  52  0.500  0.500  0.407- 153 2.11 154 2.11 158 2.11 173 2.11 152 2.11
  53  0.400  0.500  0.503- 132 2.11 151 2.11 152 2.11 155 2.11 153 2.11   2 2.97
  54  0.500  0.400  0.503- 148 2.11 151 2.11 152 2.11 171 2.11 154 2.11   1 2.97
  55  0.400  0.600  0.407- 138 2.11 153 2.11 157 2.11 158 2.11 155 2.11
  56  0.500  0.700  0.407- 162 2.11 158 2.11 157 2.11 177 2.11 156 2.11
  57  0.400  0.700  0.503- 159 2.11 155 2.11 156 2.11 136 2.11 157 2.11
  58  0.500  0.600  0.503- 152 2.11 155 2.11 156 2.11 175 2.11 158 2.11   2 2.97
  59  0.400  0.800  0.407- 157 2.11 142 2.11 161 2.11 162 2.11 159 2.11
  60  0.500  0.900  0.407- 146 2.11 161 2.11 162 2.11 181 2.11 160 2.11
[...]
 188  0.900  0.300  0.503-  90 2.11  89 2.11   9 2.11  94 2.11  88 2.11
 189  0.800  0.300  0.407-  68 2.11  87 2.11  88 2.11  91 2.11  89 2.11
 190  0.900  0.200  0.407-  88 2.11  84 2.11  87 2.11   7 2.11  90 2.11
 191  0.800  0.400  0.503-  74 2.11  89 2.11  93 2.11  94 2.11  91 2.11
 192  0.900  0.500  0.503-  13 2.11  93 2.11  94 2.11  98 2.11  92 2.11
 193  0.800  0.500  0.407-  72 2.11  91 2.11  92 2.11  95 2.11  93 2.11
 194  0.900  0.400  0.407-  11 2.11  88 2.11  91 2.11  92 2.11  94 2.11
 195  0.800  0.600  0.503-  78 2.11  93 2.11  97 2.11  98 2.11  95 2.11
 196  0.900  0.700  0.503- 102 2.11  97 2.11  98 2.11  17 2.11  96 2.11
 197  0.800  0.700  0.407-  76 2.11  99 2.11  96 2.11  95 2.11  97 2.11
 198  0.900  0.600  0.407-  15 2.11  92 2.11  95 2.11  96 2.11  98 2.11
 199  0.800  0.800  0.503-  82 2.11  97 2.11 101 2.11 102 2.11  99 2.11
 200  0.900  0.900  0.503-  21 2.11  86 2.11 101 2.11 102 2.11 100 2.11
 201  0.800  0.900  0.407-  80 2.11  83 2.11  99 2.11 100 2.11 101 2.11
 202  0.900  0.800  0.407-  96 2.11  19 2.11  99 2.11 100 2.11 102 2.11

  LATTYP: Found a simple tetragonal cell.
 ALAT       =    21.1388521970
 C/A-ratio  =     1.0461251639

  Lattice vectors:

 A1 = (  21.1388521970,   0.0000000000,   0.0000000000)
 A2 = (   0.0000000000,  21.1388521970,   0.0000000000)
 A3 = (   0.0000000000,   0.0000000000,  22.1138852197)

Analysis of symmetry for initial positions (statically):
 Subroutine PRICEL returns:
 Original cell was already a primitive cell.

 Routine SETGRP: Setting up the symmetry group for a
 simple tetragonal supercell.

 Subroutine GETGRP returns: Found  4 space group operations
 (whereof  4 operations were pure point group operations)
 out of a pool of 16 trial point group operations.

The static configuration has the point symmetry C_2v.

Analysis of symmetry for dynamics (positions and initial velocities):
 Subroutine PRICEL returns:
 Original cell was already a primitive cell.

 Routine SETGRP: Setting up the symmetry group for a
 simple tetragonal supercell.

 Subroutine GETGRP returns: Found  4 space group operations
 (whereof  4 operations were pure point group operations)
 out of a pool of 16 trial point group operations.

The dynamic configuration has the point symmetry C_2v.

 Subroutine INISYM returns: Found  4 space group operations
 (whereof  4 operations are pure point group operations),
 and found     1 'primitive' translations

                                     Primitive cell

  volume of cell :    9881.6133

  direct lattice vectors                    reciprocal lattice vectors
    21.138852197  0.000000000  0.000000000     0.047306258  0.000000000  0.000000000
     0.000000000 21.138852197  0.000000000     0.000000000  0.047306258  0.000000000
     0.000000000  0.000000000 22.113885220     0.000000000  0.000000000  0.045220457

  length of vectors
    21.138852197 21.138852197 22.113885220     0.047306258  0.047306258  0.045220457

  position of ions in fractional coordinates (direct lattice)
     0.542717991  0.457282009  0.618300337
     0.457282009  0.542717991  0.618300337
     0.000000000  0.000000000  0.406984115
     0.100000000  0.100000000  0.406984115
     0.000000000  0.100000000  0.502574971
     0.100000000  0.000000000  0.502574971
     0.000000000  0.200000000  0.406984115
     0.100000000  0.300000000  0.406984115
[...]
    855       4.6474      0.00000
    856       4.6648      0.00000
    857       4.6869      0.00000
    858       4.7416      0.00000
    859       4.8452      0.00000
    860       4.8600      0.00000
    861       4.8617      0.00000
    862       4.8803      0.00000
    863       4.9322      0.00000
    864       5.0184      0.00000

 soft charge-density along one line, spin component           1
         0         1         2         3         4         5         6         7         8         9
 total charge-density along one line

------------------------ aborting loop because EDIFF is reached ----------------------------------------

         DFTD3 V3.0 Rev 1
 IVDW         = 11
 DF revpbe
 parameters
 VDW_S6       =    1.0000
 VDW_S8       =    1.0100
 VDW_SR       =    0.9230
 rs18     =    1.0000
 alpha6   =   14.0000
 alpha8   =   16.0000
 k1-k3    =   16.0000    1.3333   -4.0000
 VDW_RADIUS   =   50.2022 A
 VDW_CNRADIUS =   21.1671 A
 Edisp (eV)  -36.93951

 E6    (eV) :   -21.1017
 E8    (eV) :   -15.8378
 % E8        : 42.87

  FORCE on cell =-STRESS in cart. coord.  units (eV):
  Direction    XX          YY          ZZ          XY          YZ          ZX
  Alpha Z  1365.75682  1365.75682  1365.75682
  Ewald  480014.30065480014.30065************  -325.75939     0.00000     0.00000
  Hartree508606.22812508606.22812************  -226.95457    -0.00000    -0.00000
  E(xc)   -7774.37097 -7774.37097 -7824.12630    -0.63731    -0.00000    -0.00000
  Local  ************************************   541.26843    -0.00000    -0.00000
  n-local -8714.47009 -8714.47006 -8829.63676     8.26769    -0.00000    -0.00000
  augment  3413.48007  3413.48007  3356.92424     0.86849     0.00000    -0.00000
  Kinetic 23008.77100 23008.77099 23257.46562     3.12647    -0.00001     0.00000
  Fock        0.00000     0.00000     0.00000     0.00000     0.00000     0.00000
  vdW       -50.60545   -50.60545    -8.46948     0.55854    -0.00000     0.00000
  Total    -153.73549  -153.73549    32.65190     0.73836     0.00000     0.00000
  in kB     -24.92624   -24.92624     5.29409     0.11972     0.00000     0.00000

 VOLUME and BASIS-vectors are now :
  energy-cutoff  :      520.00
  volume of cell :     9881.61
      direct lattice vectors                 reciprocal lattice vectors
    21.138852197  0.000000000  0.000000000     0.047306258  0.000000000  0.000000000
     0.000000000 21.138852197  0.000000000     0.000000000  0.047306258  0.000000000
     0.000000000  0.000000000 22.113885220     0.000000000  0.000000000  0.045220457

  length of vectors
    21.138852197 21.138852197 22.113885220     0.047306258  0.047306258  0.045220457

 FORCES acting on ions:
    Electron-Ion                     Ewald-Force                    Non-Local-Force
   -.191E+03 0.191E+03 -.209E+04   0.187E+03 -.187E+03 0.210E+04   0.402E+01 -.402E+01 -.409E+00
   0.191E+03 -.191E+03 -.209E+04   -.187E+03 0.187E+03 0.210E+04   -.402E+01 0.402E+01 -.409E+00
   -.361E-10 0.638E-09 0.931E+03   0.978E-10 -.173E-08 -.923E+03   -.171E-23 -.364E-23 -.753E+01
   0.387E+01 0.387E+01 0.932E+03   -.386E+01 -.386E+01 -.924E+03   -.565E-02 -.565E-02 -.753E+01
   -.274E+00 0.424E+01 -.923E+03   0.291E+00 -.424E+01 0.915E+03   -.136E-01 0.282E-02 0.749E+01
   0.424E+01 -.274E+00 -.923E+03   -.424E+01 0.291E+00 0.915E+03   0.282E-02 -.136E-01 0.749E+01
   -.363E+00 0.589E+01 0.932E+03   0.393E+00 -.590E+01 -.925E+03   -.241E-01 0.653E-02 -.753E+01
   0.776E+01 0.754E+01 0.935E+03   -.774E+01 -.755E+01 -.927E+03   -.153E-01 0.117E-01 -.754E+01
   -.690E+00 0.772E+01 -.921E+03   0.730E+00 -.773E+01 0.913E+03   -.315E-01 0.383E-02 0.749E+01
   0.691E+01 0.857E+01 -.921E+03   -.689E+01 -.856E+01 0.914E+03   -.196E-01 -.158E-02 0.749E+01
   -.322E+00 0.401E+01 0.935E+03   0.350E+00 -.402E+01 -.928E+03   -.217E-01 0.357E-02 -.753E+01
   0.119E+02 0.417E+00 0.939E+03   -.120E+02 -.441E+00 -.931E+03   0.338E-01 0.189E-01 -.754E+01
   0.111E-09 -.958E-09 -.919E+03   -.299E-09 0.260E-08 0.911E+03   -.381E-23 -.104E-22 0.749E+01
   0.150E+02 0.710E+01 -.918E+03   -.149E+02 -.712E+01 0.910E+03   -.163E-01 0.170E-01 0.748E+01
   0.322E+00 -.401E+01 0.935E+03   -.350E+00 0.402E+01 -.928E+03   0.217E-01 -.357E-02 -.753E+01
   0.880E+01 -.757E+01 0.936E+03   -.887E+01 0.758E+01 -.928E+03   0.606E-01 -.721E-02 -.753E+01
   0.690E+00 -.772E+01 -.921E+03   -.730E+00 0.773E+01 0.913E+03   0.315E-01 -.383E-02 0.749E+01
   0.165E+02 -.627E+01 -.917E+03   -.166E+02 0.625E+01 0.909E+03   0.533E-01 0.120E-01 0.749E+01
   0.363E+00 -.589E+01 0.932E+03   -.393E+00 0.590E+01 -.925E+03   0.241E-01 -.653E-02 -.753E+01
   0.425E+01 -.425E+01 0.932E+03   -.427E+01 0.427E+01 -.924E+03   0.178E-01 -.178E-01 -.753E+01
   0.274E+00 -.424E+01 -.923E+03   -.291E+00 0.424E+01 0.915E+03   0.136E-01 -.282E-02 0.749E+01
   0.816E+01 -.912E+01 -.921E+03   -.821E+01 0.914E+01 0.913E+03   0.407E-01 -.138E-01 0.749E+01
   0.589E+01 -.363E+00 0.932E+03   -.590E+01 0.393E+00 -.925E+03   0.653E-02 -.241E-01 -.753E+01
   0.754E+01 0.776E+01 0.935E+03   -.755E+01 -.774E+01 -.927E+03   0.117E-01 -.153E-01 -.754E+01
   0.857E+01 0.691E+01 -.921E+03   -.856E+01 -.689E+01 0.914E+03   -.158E-02 -.196E-01 0.749E+01
   0.772E+01 -.690E+00 -.921E+03   -.773E+01 0.730E+00 0.913E+03   0.383E-02 -.315E-01 0.749E+01
   0.994E+01 0.994E+01 0.936E+03   -.993E+01 -.993E+01 -.928E+03   -.176E-02 -.176E-02 -.754E+01
   0.197E+02 0.197E+02 0.949E+03   -.197E+02 -.197E+02 -.941E+03   0.255E-01 0.255E-01 -.758E+01
   0.222E+02 0.170E+02 -.915E+03   -.222E+02 -.170E+02 0.907E+03   -.375E-01 0.101E-01 0.748E+01
   0.170E+02 0.222E+02 -.915E+03   -.170E+02 -.222E+02 0.907E+03   0.101E-01 -.375E-01 0.748E+01
   0.212E+02 0.904E+01 0.945E+03   -.212E+02 -.910E+01 -.937E+03   0.622E-02 0.512E-01 -.755E+01
   0.359E+02 0.223E+01 0.970E+03   -.361E+02 -.245E+01 -.962E+03   0.107E+00 0.159E+00 -.758E+01
   0.418E+02 0.242E+01 -.906E+03   -.418E+02 -.249E+01 0.898E+03   0.273E-01 0.588E-01 0.747E+01
   0.581E+02 0.332E+02 -.888E+03   -.579E+02 -.333E+02 0.881E+03   -.139E+00 0.923E-01 0.742E+01
   0.225E+02 -.789E+01 0.947E+03   -.227E+02 0.786E+01 -.939E+03   0.176E+00 0.214E-01 -.756E+01
   0.207E+02 -.207E+02 0.952E+03   -.209E+02 0.209E+02 -.945E+03   0.109E+00 -.109E+00 -.750E+01
   0.255E+02 -.181E+02 -.913E+03   -.256E+02 0.181E+02 0.906E+03   0.132E+00 -.830E-02 0.749E+01
   0.687E+02 -.308E+02 -.877E+03   -.696E+02 0.306E+02 0.870E+03   0.676E+00 0.112E+00 0.751E+01
   0.107E+02 -.107E+02 0.937E+03   -.108E+02 0.108E+02 -.929E+03   0.466E-01 -.466E-01 -.753E+01
   0.757E+01 -.880E+01 0.936E+03   -.758E+01 0.887E+01 -.928E+03   0.721E-02 -.606E-01 -.753E+01
   0.912E+01 -.816E+01 -.921E+03   -.914E+01 0.821E+01 0.913E+03   0.138E-01 -.407E-01 0.749E+01
   0.181E+02 -.255E+02 -.913E+03   -.181E+02 0.256E+02 0.906E+03   0.830E-02 -.132E+00 0.749E+01
   0.401E+01 -.322E+00 0.935E+03   -.402E+01 0.350E+00 -.928E+03   0.357E-02 -.217E-01 -.753E+01
   0.417E+00 0.119E+02 0.939E+03   -.441E+00 -.120E+02 -.931E+03   0.189E-01 0.338E-01 -.754E+01
   0.710E+01 0.150E+02 -.918E+03   -.712E+01 -.149E+02 0.910E+03   0.170E-01 -.163E-01 0.748E+01
   0.111E-09 0.289E-08 -.919E+03   -.299E-09 -.785E-08 0.911E+03   0.792E-23 -.117E-23 0.749E+01
   0.904E+01 0.212E+02 0.945E+03   -.910E+01 -.212E+02 -.937E+03   0.512E-01 0.622E-02 -.755E+01
   0.223E+01 0.359E+02 0.970E+03   -.245E+01 -.361E+02 -.962E+03   0.159E+00 0.107E+00 -.758E+01
   0.332E+02 0.581E+02 -.888E+03   -.333E+02 -.579E+02 0.881E+03   0.923E-01 -.139E+00 0.742E+01
   0.242E+01 0.418E+02 -.906E+03   -.249E+01 -.418E+02 0.898E+03   0.588E-01 0.273E-01 0.747E+01
   0.269E+02 0.269E+02 0.986E+03   -.271E+02 -.271E+02 -.978E+03   0.156E+00 0.156E+00 -.778E+01
   -.850E-09 -.696E-08 0.103E+04   0.229E-08 0.189E-07 -.102E+04   0.859E-23 -.115E-22 -.752E+01
   0.113E+03 0.254E+02 -.755E+03   -.113E+03 -.264E+02 0.749E+03   0.830E-01 0.705E+00 0.610E+01
   0.254E+02 0.113E+03 -.755E+03   -.264E+02 -.113E+03 0.749E+03   0.705E+00 0.830E-01 0.610E+01
   0.257E+02 -.257E+02 0.992E+03   -.256E+02 0.256E+02 -.985E+03   -.485E-01 0.485E-01 -.660E+01
   -.223E+01 -.359E+02 0.970E+03   0.245E+01 0.361E+02 -.962E+03   -.159E+00 -.107E+00 -.758E+01
   0.308E+02 -.687E+02 -.877E+03   -.306E+02 0.696E+02 0.870E+03   -.112E+00 -.676E+00 0.751E+01
   -.254E+02 -.113E+03 -.755E+03   0.264E+02 0.113E+03 0.749E+03   -.705E+00 -.830E-01 0.610E+01
   0.789E+01 -.225E+02 0.947E+03   -.786E+01 0.227E+02 -.939E+03   -.214E-01 -.176E+00 -.756E+01
   -.417E+00 -.119E+02 0.939E+03   0.441E+00 0.120E+02 -.931E+03   -.189E-01 -.338E-01 -.754E+01
[...]
   -.124E+02 0.910E+01 0.708E+03   0.125E+02 -.913E+01 -.712E+03   -.103E+00 0.475E-01 0.345E+01
   -.460E+01 0.535E+01 0.702E+03   0.463E+01 -.537E+01 -.706E+03   -.378E-01 0.231E-01 0.345E+01
   -.284E+02 0.916E+01 -.682E+03   0.284E+02 -.912E+01 0.687E+03   -.106E+00 -.507E-01 -.354E+01
   -.132E+02 -.544E+00 -.689E+03   0.132E+02 0.564E+00 0.693E+03   -.185E-01 -.281E-01 -.352E+01
   -.185E+02 -.813E+00 0.713E+03   0.186E+02 0.876E+00 -.717E+03   -.635E-01 -.855E-01 0.342E+01
   -.844E+01 0.356E+01 0.705E+03   0.848E+01 -.355E+01 -.709E+03   -.486E-01 -.998E-02 0.344E+01
   -.253E+02 -.107E+02 -.684E+03   0.253E+02 0.107E+02 0.688E+03   0.734E-02 -.497E-01 -.355E+01
   -.795E+01 -.733E+01 -.691E+03   0.794E+01 0.734E+01 0.695E+03   0.174E-01 -.724E-02 -.351E+01
   -.114E+02 -.889E+01 0.707E+03   0.114E+02 0.890E+01 -.711E+03   0.715E-02 -.140E-01 0.343E+01
   -.780E+01 -.394E+01 0.705E+03   0.780E+01 0.396E+01 -.709E+03   -.180E-02 -.243E-01 0.344E+01
   -.100E+02 -.100E+02 -.691E+03   0.100E+02 0.100E+02 0.695E+03   0.154E-01 0.154E-01 -.352E+01
   -.357E+01 -.357E+01 -.693E+03   0.356E+01 0.356E+01 0.698E+03   0.764E-02 0.764E-02 -.350E+01
   -.511E+01 -.401E+01 0.701E+03   0.511E+01 0.400E+01 -.706E+03   -.129E-02 0.122E-01 0.344E+01
   -.401E+01 -.511E+01 0.701E+03   0.400E+01 0.511E+01 -.706E+03   0.122E-01 -.129E-02 0.344E+01
   0.284E-06 0.120E-05 0.143E+02   0.313E-11 -.995E-12 -.421E-11   -.156E-16 0.373E-15 -.149E+02

 POSITION                                       TOTAL-FORCE (eV/Angst)
     11.47244      9.66642     13.67302         0.138360     -0.138360      0.247429
      9.66642     11.47244     13.67302        -0.138360      0.138360      0.247429
      0.00000      0.00000      9.00000         0.000000      0.000000      0.231450
      2.11389      2.11389      9.00000         0.001574      0.001574      0.231992
      0.00000      2.11389     11.11389         0.003654     -0.000760     -0.220965
      2.11389      0.00000     11.11389        -0.000760      0.003654     -0.220965
      0.00000      4.22777      9.00000         0.006406     -0.001805      0.231826
      2.11389      6.34166      9.00000         0.004085     -0.002997      0.233073
      0.00000      6.34166     11.11389         0.008251     -0.000991     -0.219468
      2.11389      4.22777     11.11389         0.005371      0.000656     -0.219639
      0.00000      8.45554      9.00000         0.005543     -0.000954      0.232561
      2.11389     10.56943      9.00000        -0.008807     -0.005530      0.233722
      0.00000     10.56943     11.11389         0.000000      0.000000     -0.218273
      2.11389      8.45554     11.11389         0.004937     -0.004545     -0.216412
      0.00000     12.68331      9.00000        -0.005543      0.000954      0.232561
      2.11389     14.79720      9.00000        -0.015793      0.002131      0.232169
      0.00000     14.79720     11.11389        -0.008251      0.000991     -0.219468
      2.11389     12.68331     11.11389        -0.012764     -0.003666     -0.217196
      0.00000     16.91108      9.00000        -0.006406      0.001805      0.231826
      2.11389     19.02497      9.00000        -0.004908      0.004908      0.231178
      0.00000     19.02497     11.11389        -0.003654      0.000760     -0.220965
      2.11389     16.91108     11.11389        -0.010719      0.003909     -0.219951
      4.22777      0.00000      9.00000        -0.001805      0.006406      0.231826
      6.34166      2.11389      9.00000        -0.002997      0.004085      0.233073
      4.22777      2.11389     11.11389         0.000656      0.005371     -0.219639
      6.34166      0.00000     11.11389        -0.000991      0.008251     -0.219468
      4.22777      4.22777      9.00000         0.000891      0.000891      0.234309
      6.34166      6.34166      9.00000        -0.004361     -0.004361      0.245641
      4.22777      6.34166     11.11389         0.011446     -0.001213     -0.213088
      6.34166      4.22777     11.11389        -0.001213      0.011446     -0.213088
      4.22777      8.45554      9.00000        -0.001807     -0.013782      0.237084
      6.34166     10.56943      9.00000        -0.027357     -0.050649      0.243601
      4.22777     10.56943     11.11389        -0.002796     -0.017226     -0.204383
      6.34166      8.45554     11.11389         0.064754     -0.004574     -0.162281
      4.22777     12.68331      9.00000        -0.043269     -0.006661      0.239028
      6.34166     14.79720      9.00000        -0.035186      0.035186      0.218436
      4.22777     14.79720     11.11389        -0.033161      0.002470     -0.215978
      6.34166     12.68331     11.11389        -0.150391     -0.063003     -0.156844
      4.22777     16.91108      9.00000        -0.013132      0.013132      0.229564
      6.34166     19.02497      9.00000        -0.002131      0.015793      0.232169
      4.22777     19.02497     11.11389        -0.003909      0.010719     -0.219951
      6.34166     16.91108     11.11389        -0.002470      0.033161     -0.215978
      8.45554      0.00000      9.00000        -0.000954      0.005543      0.232561
     10.56943      2.11389      9.00000        -0.005530     -0.008807      0.233722
      8.45554      2.11389     11.11389        -0.004545      0.004937     -0.216412
     10.56943      0.00000     11.11389         0.000000      0.000000     -0.218273
      8.45554      4.22777      9.00000        -0.013782     -0.001807      0.237084
     10.56943      6.34166      9.00000        -0.050649     -0.027357      0.243601
      8.45554      6.34166     11.11389        -0.004574      0.064754     -0.162281
     10.56943      4.22777     11.11389        -0.017226     -0.002796     -0.204383
      8.45554      8.45554      9.00000        -0.033547     -0.033547      0.300857
     10.56943     10.56943      9.00000         0.000000      0.000000      0.215423
      8.45554     10.56943     11.11389        -0.103698     -0.404281     -0.144783
     10.56943      8.45554     11.11389        -0.404281     -0.103698     -0.144783
      8.45554     12.68331      9.00000         0.027124     -0.027124      0.030384
     10.56943     14.79720      9.00000         0.050649      0.027357      0.243601
      8.45554     14.79720     11.11389         0.063003      0.150391     -0.156844
     10.56943     12.68331     11.11389         0.404281      0.103698     -0.144783
      8.45554     16.91108      9.00000         0.006661      0.043269      0.239028
     10.56943     19.02497      9.00000         0.005530      0.008807      0.233722
[...]
     19.02497      6.34166     11.11389        -0.013386      0.002168      0.566939
     16.91108      6.34166      9.00000        -0.028773      0.013256     -0.579013
     19.02497      4.22777      9.00000        -0.010488      0.006457     -0.580149
     16.91108      8.45554     11.11389        -0.031047     -0.013665      0.560186
     19.02497     10.56943     11.11389        -0.005366     -0.007823      0.564165
     16.91108     10.56943      9.00000        -0.018234     -0.023201     -0.586765
     19.02497      8.45554      9.00000        -0.013562     -0.002689     -0.581374
     16.91108     12.68331     11.11389         0.001084     -0.014237      0.556272
     19.02497     14.79720     11.11389         0.004764     -0.002023      0.566398
     16.91108     14.79720      9.00000         0.001790     -0.004036     -0.585308
     19.02497     12.68331      9.00000        -0.000555     -0.006803     -0.582855
     16.91108     16.91108     11.11389         0.004178      0.004178      0.565464
     19.02497     19.02497     11.11389         0.002094      0.002094      0.569050
     16.91108     19.02497      9.00000        -0.000392      0.003364     -0.581419
     19.02497     16.91108      9.00000         0.003364     -0.000392     -0.581419
    total drift:                                0.000000      0.000001     -0.671821

  FREE ENERGIE OF THE ION-ELECTRON SYSTEM (eV)
  free  energy   TOTEN  =     -1125.96757725 eV

  energy  without entropy=    -1125.96757725  energy(sigma->0) =    -1125.96757725