 vasp.6.4.0 14Feb23 (build Dec 05 2023 14:15:48) complex

 executed on             LinuxIFC date 2023.12.07  18:51:52

 INCAR:
   SYSTEM = MgO-rocksalt
   ISMEAR = 0
   SIGMA = 0.05
   EDIFF = 1E-4
   ALGO = ALL
   ISTART = 0
   IBRION = -1
   NSW = 0
   ISYM = 3
   DIPOL = 0.5 0.5 0.5
   IDIPOL = 3
   LDIPOL = .TRUE.
   LHFCALC = .TRUE.
   GGA = B5
   AEXX = 0.2
   AGGAX = 0.72
   AGGAC = 0.81
   ALDAC = 0.19
   IVDW = 13
   VDW_S8 = 2.0293
   VDW_A1 = 0.4087
   VDW_A2 = 4.5381
   ENCUT = 520
   PREC = Normal
   LASPH = .TRUE.
   LREAL = Auto
   ISPIN = 1
   NELM = 2000
   NELMIN = 8
   NCORE = 32
   LWAVE = .FALSE.
   LCHARG = .FALSE.

 POTCAR:    PAW_PBE Mg_pv 13Apr2007
 POTCAR:    PAW_PBE O 08Apr2002
 POTCAR:    PAW_PBE Mg_pv 13Apr2007
   VRHFIN =Mg: p6s2

   TITEL  = PAW_PBE Mg_pv 13Apr2007
   POMASS =   24.305; ZVAL   =    8.000    mass and valenz
   ENMAX  =  403.929; ENMIN  =  302.947 eV

   TITEL  = PAW_PBE O 08Apr2002
   POMASS =   16.000; ZVAL   =    6.000    mass and valenz
   ENMAX  =  400.000; ENMIN  =  300.000 eV

 Optimization of the real space projectors (new method)

 maximal supplied QI-value         = 18.90
 optimisation between [QCUT,QGAM] = [ 11.53, 23.24] = [ 37.21,151.29] Ry
 Optimized for a Real-space Cutoff    1.21 Angstroem

   l    n(q)    QCUT    max X(q) W(low)/X(q) W(high)/X(q)  e(spline)
   1      8    11.527     2.974    0.16E-03    0.13E-03    0.98E-07
   1      8    11.527     4.279    0.42E-03    0.30E-03    0.22E-06
   0      8    11.527    16.381    0.13E-03    0.20E-03    0.72E-07
   0      8    11.527     5.611    0.88E-04    0.13E-03    0.50E-07
   2      7    11.527     4.652    0.25E-03    0.73E-04    0.51E-07
 Optimization of the real space projectors (new method)

 maximal supplied QI-value         = 24.76
 optimisation between [QCUT,QGAM] = [ 11.64, 23.27] = [ 37.91,151.63] Ry
 Optimized for a Real-space Cutoff    1.04 Angstroem

   l    n(q)    QCUT    max X(q) W(low)/X(q) W(high)/X(q)  e(spline)
   0      7    11.635    20.381    0.14E-03    0.49E-03    0.18E-06
   0      7    11.635    15.268    0.16E-03    0.52E-03    0.19E-06
   1      7    11.635     5.964    0.30E-03    0.44E-03    0.22E-06
   1      7    11.635     5.382    0.27E-03    0.34E-03    0.19E-06
|               ----> ADVICE to this user running VASP <----                  |
|     You enforced a specific xc type in the INCAR file but a different       |
|     type was found in the POTCAR file.                                      |
|     I HOPE YOU KNOW WHAT YOU ARE DOING!                                     |

  PAW_PBE Mg_pv 13Apr2007               :
  PAW_PBE O 08Apr2002                   :

 POSCAR: Mg  O
  positions in direct lattice
 WARNING: Using user supplied parameters
     VDW_S8 = 2.029
     VDW_A1 = 0.409
     VDW_A2 = 4.538
     because the xc functional is not supported. Required parameters not
     defined in the INCAR file will be replaced with PBE defaults ones.

 ion  position               nearest neighbor table
   1  0.000  0.000  0.407- 103 2.11 104 2.11 119 2.11 184 2.11 101 2.11
   2  0.100  0.100  0.407- 103 2.11 104 2.11 108 2.11 123 2.11 102 2.11
   3  0.000  0.100  0.503- 101 2.11 102 2.11 105 2.11 182 2.11 103 2.11
   4  0.100  0.000  0.503- 101 2.11 102 2.11 118 2.11 121 2.11 104 2.11
   5  0.000  0.200  0.407- 107 2.11 103 2.11 108 2.11 188 2.11 105 2.11
   6  0.100  0.300  0.407- 108 2.11 107 2.11 112 2.11 127 2.11 106 2.11
   7  0.000  0.300  0.503- 105 2.11 106 2.11 109 2.11 186 2.11 107 2.11
   8  0.100  0.200  0.503- 106 2.11 105 2.11 102 2.11 125 2.11 108 2.11
   9  0.000  0.400  0.407- 107 2.11 111 2.11 112 2.11 192 2.11 109 2.11
  10  0.100  0.500  0.407- 111 2.11 112 2.11 116 2.11 131 2.11 110 2.11
  11  0.000  0.500  0.503- 109 2.11 110 2.11 113 2.11 190 2.11 111 2.11
  12  0.100  0.400  0.503- 106 2.11 109 2.11 110 2.11 129 2.11 112 2.11
  13  0.000  0.600  0.407- 111 2.11 115 2.11 116 2.11 196 2.11 113 2.11
  14  0.100  0.700  0.407- 120 2.11 116 2.11 115 2.11 135 2.11 114 2.11
  15  0.000  0.700  0.503- 117 2.11 114 2.11 113 2.11 194 2.11 115 2.11
  16  0.100  0.600  0.503- 110 2.11 113 2.11 114 2.11 133 2.11 116 2.11
  17  0.000  0.800  0.407- 115 2.11 119 2.11 120 2.11 200 2.11 117 2.11
  18  0.100  0.900  0.407- 104 2.11 119 2.11 120 2.11 139 2.11 118 2.11
  19  0.000  0.900  0.503- 101 2.11 117 2.11 118 2.11 198 2.11 119 2.11
  20  0.100  0.800  0.503- 114 2.11 117 2.11 118 2.11 137 2.11 120 2.11
  21  0.200  0.000  0.407- 124 2.11 123 2.11 104 2.11 139 2.11 121 2.11
  22  0.300  0.100  0.407- 123 2.11 124 2.11 128 2.11 143 2.11 122 2.11
  23  0.200  0.100  0.503- 122 2.11 121 2.11 102 2.11 125 2.11 123 2.11
  24  0.300  0.000  0.503- 121 2.11 122 2.11 138 2.11 141 2.11 124 2.11
  25  0.200  0.200  0.407- 127 2.11 128 2.11 108 2.11 123 2.11 125 2.11
  26  0.300  0.300  0.407- 127 2.11 128 2.11 132 2.11 147 2.11 126 2.11
  27  0.200  0.300  0.503- 125 2.11 126 2.11 106 2.11 129 2.11 127 2.11
  28  0.300  0.200  0.503- 125 2.11 126 2.11 122 2.11 145 2.11 128 2.11
  29  0.200  0.400  0.407- 132 2.11 127 2.11 131 2.11 112 2.11 129 2.11
  30  0.300  0.500  0.407- 131 2.11 132 2.11 136 2.11 151 2.11 130 2.11
  31  0.200  0.500  0.503- 130 2.11 129 2.11 110 2.11 133 2.11 131 2.11
  32  0.300  0.400  0.503- 129 2.11 126 2.11 130 2.11 149 2.11 132 2.11
  33  0.200  0.600  0.407- 136 2.11 131 2.11 135 2.11 116 2.11 133 2.11
  34  0.300  0.700  0.407- 135 2.11 140 2.11 136 2.11 155 2.11 134 2.11
  35  0.200  0.700  0.503- 134 2.11 137 2.11 114 2.11 133 2.11 135 2.11
  36  0.300  0.600  0.503- 133 2.11 130 2.11 134 2.11 153 2.11 136 2.11
  37  0.200  0.800  0.407- 135 2.11 140 2.11 139 2.11 120 2.11 137 2.11
  38  0.300  0.900  0.407- 139 2.11 124 2.11 140 2.11 159 2.11 138 2.11
  39  0.200  0.900  0.503- 138 2.11 121 2.11 137 2.11 118 2.11 139 2.11
  40  0.300  0.800  0.503- 134 2.11 137 2.11 138 2.11 157 2.11 140 2.11
  41  0.400  0.000  0.407- 124 2.11 143 2.11 144 2.11 159 2.11 141 2.11
  42  0.500  0.100  0.407- 143 2.11 144 2.11 148 2.11 163 2.11 142 2.11
  43  0.400  0.100  0.503- 122 2.11 141 2.11 142 2.11 145 2.11 143 2.11
  44  0.500  0.000  0.503- 141 2.11 142 2.11 158 2.11 161 2.11 144 2.11
  45  0.400  0.200  0.407- 147 2.11 143 2.11 128 2.11 148 2.11 145 2.11
  46  0.500  0.300  0.407- 148 2.11 147 2.11 152 2.11 167 2.11 146 2.11
  47  0.400  0.300  0.503- 145 2.11 126 2.11 146 2.11 149 2.11 147 2.11
  48  0.500  0.200  0.503- 146 2.11 145 2.11 142 2.11 165 2.11 148 2.11
  49  0.400  0.400  0.407- 132 2.11 147 2.11 151 2.11 152 2.11 149 2.11
  50  0.500  0.500  0.407- 151 2.11 152 2.11 156 2.11 171 2.11 150 2.11
  51  0.400  0.500  0.503- 130 2.11 149 2.11 150 2.11 153 2.11 151 2.11
  52  0.500  0.400  0.503- 146 2.11 149 2.11 150 2.11 169 2.11 152 2.11
  53  0.400  0.600  0.407- 136 2.11 151 2.11 155 2.11 156 2.11 153 2.11
  54  0.500  0.700  0.407- 160 2.11 156 2.11 155 2.11 175 2.11 154 2.11
  55  0.400  0.700  0.503- 157 2.11 153 2.11 154 2.11 134 2.11 155 2.11
  56  0.500  0.600  0.503- 150 2.11 153 2.11 154 2.11 173 2.11 156 2.11
  57  0.400  0.800  0.407- 155 2.11 140 2.11 159 2.11 160 2.11 157 2.11
  58  0.500  0.900  0.407- 144 2.11 159 2.11 160 2.11 179 2.11 158 2.11
  59  0.400  0.900  0.503- 138 2.11 141 2.11 157 2.11 158 2.11 159 2.11
  60  0.500  0.800  0.503- 154 2.11 157 2.11 158 2.11 177 2.11 160 2.11
[...]
 186  0.900  0.300  0.503-  88 2.11  87 2.11   7 2.11  92 2.11  86 2.11
 187  0.800  0.300  0.407-  66 2.11  85 2.11  86 2.11  89 2.11  87 2.11
 188  0.900  0.200  0.407-  86 2.11  82 2.11  85 2.11   5 2.11  88 2.11
 189  0.800  0.400  0.503-  72 2.11  87 2.11  91 2.11  92 2.11  89 2.11
 190  0.900  0.500  0.503-  11 2.11  91 2.11  92 2.11  96 2.11  90 2.11
 191  0.800  0.500  0.407-  70 2.11  89 2.11  90 2.11  93 2.11  91 2.11
 192  0.900  0.400  0.407-   9 2.11  86 2.11  89 2.11  90 2.11  92 2.11
 193  0.800  0.600  0.503-  76 2.11  91 2.11  95 2.11  96 2.11  93 2.11
 194  0.900  0.700  0.503- 100 2.11  95 2.11  96 2.11  15 2.11  94 2.11
 195  0.800  0.700  0.407-  74 2.11  97 2.11  94 2.11  93 2.11  95 2.11
 196  0.900  0.600  0.407-  13 2.11  90 2.11  93 2.11  94 2.11  96 2.11
 197  0.800  0.800  0.503-  80 2.11  95 2.11  99 2.11 100 2.11  97 2.11
 198  0.900  0.900  0.503-  19 2.11  84 2.11  99 2.11 100 2.11  98 2.11
 199  0.800  0.900  0.407-  78 2.11  81 2.11  97 2.11  98 2.11  99 2.11
 200  0.900  0.800  0.407-  94 2.11  17 2.11  97 2.11  98 2.11 100 2.11

  LATTYP: Found a simple tetragonal cell.
 ALAT       =    21.1388521970
 C/A-ratio  =     1.0461251639

  Lattice vectors:

 A1 = (  21.1388521970,   0.0000000000,   0.0000000000)
 A2 = (   0.0000000000,  21.1388521970,   0.0000000000)
 A3 = (   0.0000000000,   0.0000000000,  22.1138852197)

Analysis of symmetry for initial positions (statically):
 Subroutine PRICEL returns following result:

[...]

  50 primitive cells build up your supercell.

 Routine SETGRP: Setting up the symmetry group for a
 simple tetragonal supercell.

 Subroutine GETGRP returns: Found 16 space group operations
 (whereof  8 operations were pure point group operations)
 out of a pool of 16 trial point group operations.

The static configuration has the point symmetry C_4v.
 The point group associated with its full space group is D_4h.

Analysis of symmetry for dynamics (positions and initial velocities):
 Subroutine PRICEL returns following result:

  LATTYP: Found a simple tetragonal cell.
 ALAT       =     2.9894851470
 C/A-ratio  =     7.3972219738

  Lattice vectors:

 A1 = (   2.1138852197,  -2.1138852197,   0.0000000000)
 A2 = (   2.1138852197,   2.1138852197,   0.0000000000)
 A3 = (   0.0000000000,   0.0000000000,  22.1138852197)

  50 primitive cells build up your supercell.

 Routine SETGRP: Setting up the symmetry group for a
 simple tetragonal supercell.

 Subroutine GETGRP returns: Found 16 space group operations
 (whereof  8 operations were pure point group operations)
 out of a pool of 16 trial point group operations.

The dynamic configuration has the point symmetry C_4v.
 The point group associated with its full space group is D_4h.

 Subroutine INISYM returns: Found 16 space group operations
 (whereof  8 operations are pure point group operations),
 and found    50 'primitive' translations

                                     Primitive cell

  volume of cell :     197.6323

  direct lattice vectors                    reciprocal lattice vectors
     2.113885220 -2.113885220  0.000000000     0.236531291 -0.236531291  0.000000000
     2.113885220  2.113885220  0.000000000     0.236531291  0.236531291  0.000000000
     0.000000000  0.000000000 22.113885220     0.000000000  0.000000000  0.045220457

  length of vectors
     2.989485147  2.989485147 22.113885220     0.334505760  0.334505760  0.045220457

  position of ions in fractional coordinates (direct lattice)
     0.000000000  0.000000000  0.406984115
     0.500000000  0.500000000  0.502574971
     0.000000000  0.000000000  0.502574971
     0.500000000  0.500000000  0.406984115

  ion indices of the primitive-cell ions
   primitive index   ion index
                 1           1
                 2           3
                 3         101
                 4         103

[...]
     22     -46.3619      2.00000
     23     -46.3619      2.00000
     24     -46.3619      2.00000
     25     -46.3619      2.00000
     26     -46.3597      2.00000
     27     -46.3597      2.00000
     28     -46.3597      2.00000
     29     -46.3597      2.00000
     30     -46.3590      2.00000
     31     -46.3590      2.00000
     32     -46.3590      2.00000
     33     -46.3590      2.00000
     34     -46.3590      2.00000
     35     -46.3590      2.00000
     36     -46.3590      2.00000
     37     -46.3589      2.00000
     38     -46.3566      2.00000
     39     -46.3566      2.00000
     40     -46.3566      2.00000
     41     -46.3566      2.00000
     42     -46.3565      2.00000
     43     -46.3565      2.00000
     44     -46.3565      2.00000
     45     -46.3565      2.00000
     46     -46.3533      2.00000
     47     -46.3533      2.00000
     48     -46.3533      2.00000
     49     -46.3533      2.00000
     50     -46.3529      2.00000
     51     -46.3528      2.00000
     52     -46.3528      2.00000
     53     -46.3528      2.00000
     54     -46.3528      2.00000
     55     -46.3528      2.00000
     56     -46.3527      2.00000
     57     -46.3527      2.00000
     58     -46.3523      2.00000
     59     -46.3523      2.00000
     60     -46.3523      2.00000
[...]
    850       5.0877      0.00000
    851       5.1069      0.00000
    852       5.1098      0.00000
    853       5.1299      0.00000
    854       5.1668      0.00000
    855       5.2092      0.00000
    856       5.2938      0.00000
    857       5.3519      0.00000
    858       5.3906      0.00000
    859       5.4112      0.00000
    860       5.4474      0.00000
    861       5.4725      0.00000
    862       5.5710      0.00000
    863       5.6318      0.00000
    864       5.7122      0.00000

 soft charge-density along one line, spin component           1
         0         1         2         3         4         5         6         7         8         9
 total charge-density along one line

------------------------ aborting loop because EDIFF is reached ----------------------------------------

 VOLUME and BASIS-vectors are now :
  energy-cutoff  :      520.00
  volume of cell :     9881.61
      direct lattice vectors                 reciprocal lattice vectors
    21.138852197  0.000000000  0.000000000     0.047306258  0.000000000  0.000000000
     0.000000000 21.138852197  0.000000000     0.000000000  0.047306258  0.000000000
     0.000000000  0.000000000 22.113885220     0.000000000  0.000000000  0.045220457

  length of vectors
    21.138852197 21.138852197 22.113885220     0.047306258  0.047306258  0.045220457

 FORCES acting on ions:
    Electron-Ion                     Ewald-Force                    Non-Local-Force
   -.181E-05 -.141E-03 0.926E+03   0.941E-13 0.746E-13 -.919E+03   0.399E-22 -.397E-22 -.668E+01
   0.604E-04 -.621E-04 0.926E+03   0.101E-09 0.101E-09 -.919E+03   -.664E-21 -.970E-21 -.668E+01
   -.104E-03 0.263E-04 -.926E+03   0.131E-12 0.101E-09 0.919E+03   0.202E-21 -.157E-20 0.668E+01
   -.686E-04 -.170E-04 -.926E+03   0.101E-09 0.515E-13 0.919E+03   -.135E-20 -.725E-21 0.668E+01
   -.302E-03 0.225E-03 0.926E+03   0.155E-10 -.470E-10 -.919E+03   0.229E-21 -.225E-21 -.668E+01
   -.149E-03 0.177E-03 0.926E+03   0.988E-10 0.268E-10 -.919E+03   0.413E-21 -.109E-20 -.668E+01
   0.142E-03 0.242E-03 -.926E+03   0.207E-11 0.268E-10 0.919E+03   0.423E-21 -.620E-21 0.668E+01
   0.177E-03 0.197E-03 -.926E+03   0.852E-10 -.471E-10 0.919E+03   -.176E-21 -.152E-20 0.668E+01
   -.175E-04 0.899E-04 0.926E+03   -.175E-10 -.803E-10 -.919E+03   -.451E-21 -.306E-21 -.668E+01
   -.119E-03 -.139E-03 0.926E+03   0.101E-09 0.123E-12 -.919E+03   0.123E-20 0.652E-21 -.668E+01
   -.662E-04 -.443E-04 -.926E+03   0.229E-12 0.266E-13 0.919E+03   0.158E-21 0.481E-21 0.668E+01
   0.103E-04 0.122E-04 -.926E+03   0.118E-09 -.804E-10 0.919E+03   0.313E-21 0.787E-22 0.668E+01
   -.175E-03 -.113E-03 0.926E+03   0.114E-11 0.950E-10 -.919E+03   -.865E-22 0.131E-21 -.668E+01
   -.144E-04 -.432E-04 0.926E+03   0.863E-10 -.402E-10 -.919E+03   -.735E-21 -.947E-21 -.668E+01
   -.129E-03 -.199E-03 -.926E+03   -.927E-12 -.402E-10 0.919E+03   0.387E-21 0.120E-20 0.668E+01
   -.341E-05 -.289E-03 -.926E+03   0.115E-09 0.843E-10 0.919E+03   0.485E-22 -.286E-22 0.668E+01
   -.100E-03 -.178E-05 0.926E+03   0.909E-12 0.253E-10 -.919E+03   -.124E-20 0.720E-21 -.668E+01
   0.217E-03 -.602E-04 0.926E+03   0.117E-09 -.800E-10 -.919E+03   -.166E-20 0.182E-20 -.668E+01
   -.374E-04 -.108E-03 -.926E+03   -.899E-12 -.799E-10 0.919E+03   0.111E-21 0.212E-20 0.668E+01
   0.270E-04 0.114E-03 -.926E+03   0.842E-10 0.360E-10 0.919E+03   0.486E-21 0.145E-20 0.668E+01
   -.289E-04 0.140E-03 0.926E+03   -.487E-10 0.293E-13 -.919E+03   -.824E-21 0.206E-21 -.668E+01
   0.137E-03 -.130E-03 0.926E+03   0.267E-10 0.993E-10 -.919E+03   0.736E-21 -.363E-21 -.668E+01
   0.962E-04 -.380E-05 -.926E+03   -.293E-10 0.892E-10 0.919E+03   0.121E-20 -.510E-21 0.668E+01
   0.166E-03 -.120E-03 -.926E+03   0.229E-10 0.528E-13 0.919E+03   0.282E-21 0.575E-21 0.668E+01
   0.118E-03 -.124E-03 0.926E+03   -.527E-10 -.477E-10 -.919E+03   0.111E-21 0.802E-21 -.668E+01
   0.368E-03 0.104E-03 0.926E+03   0.173E-10 0.245E-10 -.919E+03   -.208E-21 0.253E-20 -.668E+01
   -.173E-03 0.307E-03 -.926E+03   -.662E-10 0.274E-10 0.919E+03   -.509E-21 0.114E-20 0.668E+01
   0.275E-03 0.130E-03 -.926E+03   0.382E-11 -.448E-10 0.919E+03   -.613E-21 -.661E-21 0.668E+01
   -.388E-04 0.140E-03 0.926E+03   -.468E-10 -.689E-10 -.919E+03   0.109E-20 0.106E-20 -.668E+01
   0.143E-03 -.475E-04 0.926E+03   0.231E-10 0.426E-13 -.919E+03   0.310E-21 0.267E-21 -.668E+01
   0.159E-04 -.114E-03 -.926E+03   -.488E-10 -.853E-13 0.919E+03   0.627E-21 -.567E-21 0.668E+01
   0.144E-03 0.943E-04 -.926E+03   0.441E-10 -.788E-10 0.919E+03   -.593E-22 0.117E-20 0.668E+01
   0.941E-05 -.342E-03 0.926E+03   -.284E-10 0.833E-10 -.919E+03   0.156E-20 -.131E-20 -.668E+01
   0.179E-03 0.151E-05 0.926E+03   0.476E-11 -.380E-10 -.919E+03   0.652E-21 -.213E-20 -.668E+01
   -.313E-04 -.179E-04 -.926E+03   -.692E-10 -.410E-10 0.919E+03   0.168E-20 -.147E-20 0.668E+01
   0.122E-03 -.115E-03 -.926E+03   0.412E-10 0.828E-10 0.919E+03   0.655E-21 0.465E-21 0.668E+01
   -.446E-04 0.576E-04 0.926E+03   -.671E-10 0.258E-10 -.919E+03   0.687E-21 -.113E-20 -.668E+01
   0.300E-03 0.568E-04 0.926E+03   0.432E-10 -.785E-10 -.919E+03   0.942E-21 -.550E-23 -.668E+01
   0.583E-04 -.665E-04 -.926E+03   -.304E-10 -.686E-10 0.919E+03   -.400E-21 -.270E-21 0.668E+01
   0.264E-03 0.335E-04 -.926E+03   0.265E-11 0.337E-10 0.919E+03   0.763E-21 -.553E-21 0.668E+01
   0.797E-04 0.251E-04 0.926E+03   -.749E-10 0.857E-13 -.919E+03   -.744E-21 0.257E-21 -.668E+01
   0.159E-03 0.675E-04 0.926E+03   0.435E-11 0.991E-10 -.919E+03   -.949E-21 0.523E-21 -.668E+01
   0.352E-03 -.104E-03 -.926E+03   -.545E-10 0.890E-10 0.919E+03   -.120E-20 -.103E-20 0.668E+01
   -.236E-04 0.885E-05 -.926E+03   0.875E-13 0.546E-13 0.919E+03   -.106E-20 -.285E-21 0.668E+01
   0.296E-03 0.176E-03 0.926E+03   -.797E-10 -.471E-10 -.919E+03   -.109E-20 0.103E-20 -.668E+01
   -.149E-04 0.120E-05 0.926E+03   -.558E-11 0.243E-10 -.919E+03   0.114E-21 0.561E-22 -.668E+01
   0.186E-03 0.470E-04 -.926E+03   -.934E-10 0.267E-10 0.919E+03   0.542E-21 0.973E-21 0.668E+01
   0.506E-04 0.414E-04 -.926E+03   -.191E-10 -.447E-10 0.919E+03   0.343E-21 -.132E-20 0.668E+01
   0.375E-04 -.396E-04 0.926E+03   -.720E-10 -.686E-10 -.919E+03   0.518E-21 0.143E-20 -.668E+01
   0.827E-04 -.134E-03 0.926E+03   -.457E-13 0.941E-13 -.919E+03   -.104E-20 -.125E-21 -.668E+01
   0.408E-04 -.118E-03 -.926E+03   -.752E-10 -.200E-13 0.919E+03   -.281E-21 0.662E-21 0.668E+01
   0.547E-04 -.105E-03 -.926E+03   0.216E-10 -.786E-10 0.919E+03   -.102E-21 0.601E-21 0.668E+01
   0.994E-04 -.130E-04 0.926E+03   -.534E-10 0.832E-10 -.919E+03   0.311E-21 -.410E-21 -.668E+01
   -.453E-04 0.532E-04 0.926E+03   -.183E-10 -.378E-10 -.919E+03   -.906E-21 -.677E-21 -.668E+01
   0.158E-03 -.598E-04 -.926E+03   -.966E-10 -.403E-10 0.919E+03   -.139E-20 -.179E-20 0.668E+01
   -.518E-04 -.313E-04 -.926E+03   0.182E-10 0.826E-10 0.919E+03   -.133E-20 -.310E-22 0.668E+01
   0.316E-03 -.262E-04 0.926E+03   -.946E-10 0.252E-10 -.919E+03   -.603E-21 -.244E-20 -.668E+01
   0.484E-04 -.164E-04 0.926E+03   0.205E-10 -.784E-10 -.919E+03   -.175E-20 -.156E-20 -.668E+01
   0.115E-03 0.108E-03 -.926E+03   -.557E-10 -.683E-10 0.919E+03   -.586E-21 -.109E-20 0.668E+01
   0.155E-03 0.126E-03 -.926E+03   -.206E-10 0.335E-10 0.919E+03   0.747E-22 0.957E-22 0.668E+01
[...]
   -.112E-03 -.965E-04 0.696E+03   0.433E-10 0.495E-10 -.700E+03   -.495E-21 -.612E-21 0.319E+01
   -.125E-03 0.172E-03 0.696E+03   0.222E-11 -.613E-10 -.700E+03   -.249E-21 0.307E-21 0.319E+01
   -.660E-04 0.236E-04 -.696E+03   0.507E-10 -.136E-10 0.700E+03   0.134E-20 -.407E-21 -.319E+01
   0.380E-04 0.182E-04 -.696E+03   -.485E-11 0.104E-10 0.700E+03   -.153E-22 -.597E-21 -.319E+01
   -.219E-03 -.507E-04 0.696E+03   0.512E-10 -.166E-11 -.700E+03   -.222E-21 0.530E-22 0.319E+01
   -.816E-04 -.331E-04 0.696E+03   0.168E-11 -.149E-11 -.700E+03   -.510E-21 0.759E-21 0.319E+01
   0.764E-04 -.250E-04 -.696E+03   0.608E-10 0.120E-11 0.700E+03   -.335E-21 0.938E-21 -.319E+01
   -.127E-03 -.317E-03 -.696E+03   -.419E-11 -.488E-10 0.700E+03   -.148E-21 0.439E-21 -.319E+01
   -.935E-04 0.640E-04 0.696E+03   0.409E-10 -.598E-10 -.700E+03   0.663E-21 -.186E-21 0.319E+01
   0.123E-03 -.560E-04 0.696E+03   -.267E-12 0.700E-11 -.700E+03   0.128E-21 -.983E-21 0.319E+01
   -.230E-03 0.568E-04 -.696E+03   0.415E-10 0.415E-10 0.700E+03   0.457E-21 0.137E-20 -.319E+01
   0.473E-04 0.412E-04 -.696E+03   -.306E-11 -.298E-11 0.700E+03   0.152E-21 0.371E-21 -.319E+01
   0.392E-04 -.667E-04 0.696E+03   0.621E-10 0.568E-11 -.700E+03   -.418E-22 0.664E-21 0.319E+01
   -.154E-04 0.302E-03 0.696E+03   0.277E-12 0.562E-10 -.700E+03   0.359E-22 0.674E-21 0.319E+01
   -.236E-03 0.673E-03 -.164E+00   0.439E-11 -.322E-12 0.239E-11   0.770E-20 -.745E-20 -.769E-12

 POSITION                                       TOTAL-FORCE (eV/Angst)
      0.00000      0.00000      9.00000         0.000000      0.000000      0.472564
      2.11389      2.11389      9.00000         0.000000      0.000000      0.472564
      0.00000      2.11389     11.11389         0.000000     -0.000000     -0.472564
      2.11389      0.00000     11.11389         0.000000      0.000000     -0.472564
      0.00000      4.22777      9.00000        -0.000000     -0.000000      0.472564
      2.11389      6.34166      9.00000        -0.000000      0.000000      0.472564
      0.00000      6.34166     11.11389         0.000000      0.000000     -0.472564
      2.11389      4.22777     11.11389         0.000000      0.000000     -0.472564
      0.00000      8.45554      9.00000        -0.000000      0.000000      0.472564
      2.11389     10.56943      9.00000        -0.000000     -0.000000      0.472564
      0.00000     10.56943     11.11389        -0.000000     -0.000000     -0.472564
      2.11389      8.45554     11.11389        -0.000000     -0.000000     -0.472564
      0.00000     12.68331      9.00000         0.000000     -0.000000      0.472564
      2.11389     14.79720      9.00000        -0.000000     -0.000000      0.472564
      0.00000     14.79720     11.11389        -0.000000     -0.000000     -0.472564
      2.11389     12.68331     11.11389        -0.000000     -0.000000     -0.472564
      0.00000     16.91108      9.00000         0.000000     -0.000000      0.472564
      2.11389     19.02497      9.00000        -0.000000      0.000000      0.472564
      0.00000     19.02497     11.11389         0.000000      0.000000     -0.472564
      2.11389     16.91108     11.11389         0.000000      0.000000     -0.472564
      4.22777      0.00000      9.00000         0.000000      0.000000      0.472564
      6.34166      2.11389      9.00000         0.000000      0.000000      0.472564
      4.22777      2.11389     11.11389         0.000000      0.000000     -0.472564
      6.34166      0.00000     11.11389         0.000000      0.000000     -0.472564
      4.22777      4.22777      9.00000        -0.000000     -0.000000      0.472564
      6.34166      6.34166      9.00000         0.000000     -0.000000      0.472564
      4.22777      6.34166     11.11389         0.000000      0.000000     -0.472564
      6.34166      4.22777     11.11389         0.000000     -0.000000     -0.472564
      4.22777      8.45554      9.00000         0.000000      0.000000      0.472564
      6.34166     10.56943      9.00000        -0.000000     -0.000000      0.472564
      4.22777     10.56943     11.11389        -0.000000      0.000000     -0.472564
      6.34166      8.45554     11.11389         0.000000      0.000000     -0.472564
      4.22777     12.68331      9.00000         0.000000     -0.000000      0.472564
      6.34166     14.79720      9.00000        -0.000000     -0.000000      0.472564
      4.22777     14.79720     11.11389         0.000000     -0.000000     -0.472564
      6.34166     12.68331     11.11389        -0.000000      0.000000     -0.472564
      4.22777     16.91108      9.00000        -0.000000      0.000000      0.472564
      6.34166     19.02497      9.00000        -0.000000      0.000000      0.472564
      4.22777     19.02497     11.11389         0.000000      0.000000     -0.472564
      6.34166     16.91108     11.11389         0.000000      0.000000     -0.472564
      8.45554      0.00000      9.00000         0.000000     -0.000000      0.472564
     10.56943      2.11389      9.00000        -0.000000      0.000000      0.472564
      8.45554      2.11389     11.11389        -0.000000      0.000000     -0.472564
     10.56943      0.00000     11.11389        -0.000000      0.000000     -0.472564
      8.45554      4.22777      9.00000         0.000000     -0.000000      0.472564
     10.56943      6.34166      9.00000         0.000000     -0.000000      0.472564
      8.45554      6.34166     11.11389         0.000000      0.000000     -0.472564
     10.56943      4.22777     11.11389        -0.000000     -0.000000     -0.472564
      8.45554      8.45554      9.00000         0.000000     -0.000000      0.472564
     10.56943     10.56943      9.00000        -0.000000      0.000000      0.472564
      8.45554     10.56943     11.11389         0.000000      0.000000     -0.472564
     10.56943      8.45554     11.11389         0.000000      0.000000     -0.472564
      8.45554     12.68331      9.00000         0.000000     -0.000000      0.472564
     10.56943     14.79720      9.00000         0.000000      0.000000      0.472564
      8.45554     14.79720     11.11389         0.000000      0.000000     -0.472564
     10.56943     12.68331     11.11389        -0.000000     -0.000000     -0.472564
      8.45554     16.91108      9.00000         0.000000     -0.000000      0.472564
     10.56943     19.02497      9.00000        -0.000000     -0.000000      0.472564
      8.45554     19.02497     11.11389         0.000000      0.000000     -0.472564
     10.56943     16.91108     11.11389        -0.000000      0.000000     -0.472564
[...]
     19.02497      6.34166     11.11389         0.000000     -0.000000      0.385926
     16.91108      6.34166      9.00000         0.000000      0.000000     -0.385926
     19.02497      4.22777      9.00000        -0.000000      0.000000     -0.385926
     16.91108      8.45554     11.11389         0.000000     -0.000000      0.385926
     19.02497     10.56943     11.11389         0.000000      0.000000      0.385926
     16.91108     10.56943      9.00000         0.000000      0.000000     -0.385926
     19.02497      8.45554      9.00000         0.000000      0.000000     -0.385926
     16.91108     12.68331     11.11389         0.000000      0.000000      0.385926
     19.02497     14.79720     11.11389         0.000000      0.000000      0.385926
     16.91108     14.79720      9.00000        -0.000000     -0.000000     -0.385926
     19.02497     12.68331      9.00000         0.000000     -0.000000     -0.385926
     16.91108     16.91108     11.11389         0.000000     -0.000000      0.385926
     19.02497     19.02497     11.11389        -0.000000     -0.000000      0.385926
     16.91108     19.02497      9.00000        -0.000000      0.000000     -0.385926
     19.02497     16.91108      9.00000        -0.000000     -0.000000     -0.385926
    total drift:                               -0.000236      0.000673     -0.163997

  FREE ENERGIE OF THE ION-ELECTRON SYSTEM (eV)
  free  energy   TOTEN  =     -1359.20777103 eV

  energy  without entropy=    -1359.20777103  energy(sigma->0) =    -1359.20777103