 vasp.6.3.0 20Jan22 (build Apr  1 2022 16:44:48) complex
 executed on        HPECrayEX_GCC date 2023.01.09  23:37:02

 INCAR:
   SYSTEM = MgO-rocksalt
   ISMEAR = 0
   SIGMA = 0.05
   EDIFF = 1E-6
   ALGO = ALL
   ISTART = 0
   IBRION = -1
   NSW = 0
   ISYM = 2
   DIPOL = 0.5 0.5 0.5
   IDIPOL = 3
   LDIPOL = .TRUE.
   METAGGA = SCAN
   LUSE_VDW = .TRUE.
   BPARAM = 15.7
   CPARAM = 0.0093
   ENCUT = 520
   PREC = Accurate
   LASPH = .TRUE.
   LREAL = Auto
   ISPIN = 1
   NELM = 200
   NELMIN = 8
   NCORE = 4
   KPAR = 2
   LWAVE = .FALSE.
   LCHARG = .FALSE.

 POTCAR:    PAW_PBE Au 04Oct2007
 POTCAR:    PAW_PBE Mg_pv 13Apr2007
 POTCAR:    PAW_PBE O 08Apr2002
|               ----> ADVICE to this user running VASP <----                  |
|     You have switched on vdW-DFT.                                           |
|     This routine was written and supplied by Jiri Klimes. We recommend      |
|     that you carefully read and cite the following publications:            |
|       J. Klimes, D.R. Bowler, A. Michelides                                 |
|          J. Phys.: Cond Matt. 22 022201 (2010)                              |
|       J. Klimes, D.R. Bowler, A. Michelides                                 |
|          Phys. Rev. B. 83, 195131 (2011)                                    |
|     and references therein.                                                 |

   TITEL  = PAW_PBE Au 04Oct2007
   POMASS =  196.966; ZVAL   =   11.000    mass and valenz
   ENMAX  =  229.943; ENMIN  =  172.457 eV

   TITEL  = PAW_PBE Mg_pv 13Apr2007
   POMASS =   24.305; ZVAL   =    8.000    mass and valenz
   ENMAX  =  403.929; ENMIN  =  302.947 eV

   TITEL  = PAW_PBE O 08Apr2002
   POMASS =   16.000; ZVAL   =    6.000    mass and valenz
   ENMAX  =  400.000; ENMIN  =  300.000 eV

 Optimization of the real space projectors (new method)

 maximal supplied QI-value         = 15.12
 optimisation between [QCUT,QGAM] = [ 11.64, 23.28] = [ 37.95,151.78] Ry
 Optimized for a Real-space Cutoff    1.49 Angstroem

   l    n(q)    QCUT    max X(q) W(low)/X(q) W(high)/X(q)  e(spline)
   2      9    11.641    60.898    0.24E-03    0.10E-03    0.19E-06
   2      9    11.641    58.894    0.25E-03    0.10E-03    0.19E-06
   0     10    11.641   109.617    0.73E-04    0.33E-04    0.11E-06
   0     10    11.641    75.026    0.71E-04    0.32E-04    0.11E-06
   1     10    11.641    16.344    0.27E-04    0.97E-04    0.16E-06
   1     10    11.641    10.160    0.23E-04    0.77E-04    0.13E-06
 Optimization of the real space projectors (new method)

[...]

   l    n(q)    QCUT    max X(q) W(low)/X(q) W(high)/X(q)  e(spline)
   1      8    11.527     2.974    0.44E-04    0.56E-04    0.12E-06
   1      8    11.527     4.279    0.12E-03    0.12E-03    0.26E-06
   0      9    11.527    16.381    0.46E-04    0.64E-04    0.78E-07
   0      9    11.527     5.611    0.26E-04    0.43E-04    0.55E-07
   2      8    11.527     4.652    0.22E-03    0.72E-04    0.47E-07
 Optimization of the real space projectors (new method)

 maximal supplied QI-value         = 24.76
 optimisation between [QCUT,QGAM] = [ 11.64, 23.27] = [ 37.91,151.63] Ry
 Optimized for a Real-space Cutoff    1.14 Angstroem

   l    n(q)    QCUT    max X(q) W(low)/X(q) W(high)/X(q)  e(spline)
   0      8    11.635    20.381    0.10E-03    0.33E-03    0.24E-06
   0      8    11.635    15.268    0.11E-03    0.35E-03    0.26E-06
   1      7    11.635     5.964    0.24E-03    0.31E-03    0.30E-06
   1      7    11.635     5.382    0.22E-03    0.25E-03    0.26E-06
  PAW_PBE Au 04Oct2007                  :
  PAW_PBE Mg_pv 13Apr2007               :
  PAW_PBE O 08Apr2002                   :

 POSCAR: Au Mg  O
  positions in direct lattice
  velocities in cartesian coordinates

 METAGGA = SCAN     LMAXTAU =  6    LMIXTAU =  F

 ion  position               nearest neighbor table
   1  0.290  0.507  0.638-   2 2.69   3 2.71
   2  0.397  0.442  0.618-   1 2.69   4 2.69 153 2.70   3 2.70  55 2.83
   3  0.397  0.569  0.609- 157 2.45   2 2.70   1 2.71   4 2.71  55 2.78
   4  0.505  0.506  0.637-   2 2.69   3 2.71
   5  0.000  0.000  0.407- 107 2.11 108 2.11 123 2.11 188 2.11 105 2.11
   6  0.100  0.100  0.407- 107 2.11 108 2.11 112 2.11 127 2.11 106 2.11
   7  0.000  0.100  0.503- 105 2.11 106 2.11 109 2.11 186 2.11 107 2.11
   8  0.100  0.000  0.503- 105 2.11 106 2.11 122 2.11 125 2.11 108 2.11
   9  0.000  0.200  0.407- 111 2.11 107 2.11 112 2.11 192 2.11 109 2.11
  10  0.100  0.300  0.407- 112 2.11 111 2.11 116 2.11 131 2.11 110 2.11
  11  0.000  0.300  0.503- 109 2.11 110 2.11 113 2.11 190 2.11 111 2.11
  12  0.100  0.200  0.503- 110 2.11 109 2.11 106 2.11 129 2.11 112 2.11
  13  0.000  0.400  0.407- 111 2.11 115 2.11 116 2.11 196 2.11 113 2.11
  14  0.100  0.500  0.407- 115 2.11 116 2.11 120 2.11 135 2.11 114 2.11
  15  0.000  0.500  0.503- 113 2.11 114 2.11 117 2.11 194 2.11 115 2.11
  16  0.100  0.400  0.503- 110 2.11 113 2.11 114 2.11 133 2.11 116 2.11
  17  0.000  0.600  0.407- 115 2.11 119 2.11 120 2.11 200 2.11 117 2.11
  18  0.100  0.700  0.407- 124 2.11 120 2.11 119 2.11 139 2.11 118 2.11
  19  0.000  0.700  0.503- 121 2.11 118 2.11 117 2.11 198 2.11 119 2.11
  20  0.100  0.600  0.503- 114 2.11 117 2.11 118 2.11 137 2.11 120 2.11
  21  0.000  0.800  0.407- 119 2.11 123 2.11 124 2.11 204 2.11 121 2.11
  22  0.100  0.900  0.407- 108 2.11 123 2.11 124 2.11 143 2.11 122 2.11
  23  0.000  0.900  0.503- 105 2.11 121 2.11 122 2.11 202 2.11 123 2.11
  24  0.100  0.800  0.503- 118 2.11 121 2.11 122 2.11 141 2.11 124 2.11
  25  0.200  0.000  0.407- 128 2.11 127 2.11 108 2.11 143 2.11 125 2.11
  26  0.300  0.100  0.407- 127 2.11 128 2.11 132 2.11 147 2.11 126 2.11
  27  0.200  0.100  0.503- 126 2.11 125 2.11 106 2.11 129 2.11 127 2.11
  28  0.300  0.000  0.503- 125 2.11 126 2.11 142 2.11 145 2.11 128 2.11
  29  0.200  0.200  0.407- 131 2.11 132 2.11 112 2.11 127 2.11 129 2.11
  30  0.300  0.300  0.407- 131 2.11 132 2.11 136 2.11 151 2.11 130 2.11
  31  0.200  0.300  0.503- 129 2.11 130 2.11 110 2.11 133 2.11 131 2.11
  32  0.300  0.200  0.503- 129 2.11 130 2.11 126 2.11 149 2.11 132 2.11
  33  0.200  0.400  0.407- 136 2.11 131 2.11 135 2.11 116 2.11 133 2.11
  34  0.300  0.500  0.407- 135 2.11 136 2.11 140 2.11 155 2.11 134 2.11
  35  0.200  0.500  0.503- 134 2.11 133 2.11 114 2.11 137 2.11 135 2.11
  36  0.300  0.400  0.503- 133 2.11 130 2.11 134 2.11 153 2.11 136 2.11
  37  0.200  0.600  0.407- 140 2.11 135 2.11 139 2.11 120 2.11 137 2.11
  38  0.300  0.700  0.407- 139 2.11 144 2.11 140 2.11 159 2.11 138 2.11
  39  0.200  0.700  0.503- 138 2.11 141 2.11 118 2.11 137 2.11 139 2.11
  40  0.300  0.600  0.503- 137 2.11 134 2.11 138 2.11 157 2.11 140 2.11
  41  0.200  0.800  0.407- 139 2.11 144 2.11 143 2.11 124 2.11 141 2.11
  42  0.300  0.900  0.407- 143 2.11 128 2.11 144 2.11 163 2.11 142 2.11
  43  0.200  0.900  0.503- 142 2.11 125 2.11 141 2.11 122 2.11 143 2.11
  44  0.300  0.800  0.503- 138 2.11 141 2.11 142 2.11 161 2.11 144 2.11
  45  0.400  0.000  0.407- 128 2.11 147 2.11 148 2.11 163 2.11 145 2.11
  46  0.500  0.100  0.407- 147 2.11 148 2.11 152 2.11 167 2.11 146 2.11
  47  0.400  0.100  0.503- 126 2.11 145 2.11 146 2.11 149 2.11 147 2.11
  48  0.500  0.000  0.503- 145 2.11 146 2.11 162 2.11 165 2.11 148 2.11
  49  0.400  0.200  0.407- 151 2.11 147 2.11 132 2.11 152 2.11 149 2.11
  50  0.500  0.300  0.407- 152 2.11 151 2.11 156 2.11 171 2.11 150 2.11
  51  0.400  0.300  0.503- 149 2.11 130 2.11 150 2.11 153 2.11 151 2.11
  52  0.500  0.200  0.503- 150 2.11 149 2.11 146 2.11 169 2.11 152 2.11
  53  0.400  0.400  0.407- 136 2.11 151 2.11 155 2.11 156 2.11 153 2.11
  54  0.500  0.500  0.407- 155 2.11 156 2.11 160 2.11 175 2.11 154 2.11
  55  0.400  0.500  0.503- 134 2.11 153 2.11 154 2.11 157 2.11 155 2.11   3 2.78   2 2.83
  56  0.500  0.400  0.503- 150 2.11 153 2.11 154 2.11 173 2.11 156 2.11
  57  0.400  0.600  0.407- 140 2.11 155 2.11 159 2.11 160 2.11 157 2.11
  58  0.500  0.700  0.407- 164 2.11 160 2.11 159 2.11 179 2.11 158 2.11
  59  0.400  0.700  0.503- 161 2.11 157 2.11 158 2.11 138 2.11 159 2.11
  60  0.500  0.600  0.503- 154 2.11 157 2.11 158 2.11 177 2.11 160 2.11
[...]
 190  0.900  0.300  0.503-  92 2.11  91 2.11  11 2.11  96 2.11  90 2.11
 191  0.800  0.300  0.407-  70 2.11  89 2.11  90 2.11  93 2.11  91 2.11
 192  0.900  0.200  0.407-  90 2.11  86 2.11  89 2.11   9 2.11  92 2.11
 193  0.800  0.400  0.503-  76 2.11  91 2.11  95 2.11  96 2.11  93 2.11
 194  0.900  0.500  0.503-  15 2.11  95 2.11  96 2.11 100 2.11  94 2.11
 195  0.800  0.500  0.407-  74 2.11  93 2.11  94 2.11  97 2.11  95 2.11
 196  0.900  0.400  0.407-  13 2.11  90 2.11  93 2.11  94 2.11  96 2.11
 197  0.800  0.600  0.503-  80 2.11  95 2.11  99 2.11 100 2.11  97 2.11
 198  0.900  0.700  0.503- 104 2.11  99 2.11 100 2.11  19 2.11  98 2.11
 199  0.800  0.700  0.407-  78 2.11 101 2.11  98 2.11  97 2.11  99 2.11
 200  0.900  0.600  0.407-  17 2.11  94 2.11  97 2.11  98 2.11 100 2.11
 201  0.800  0.800  0.503-  84 2.11  99 2.11 103 2.11 104 2.11 101 2.11
 202  0.900  0.900  0.503-  23 2.11  88 2.11 103 2.11 104 2.11 102 2.11
 203  0.800  0.900  0.407-  82 2.11  85 2.11 101 2.11 102 2.11 103 2.11
 204  0.900  0.800  0.407-  98 2.11  21 2.11 101 2.11 102 2.11 104 2.11

  LATTYP: Found a simple tetragonal cell.
 ALAT       =    21.1388521970
 C/A-ratio  =     1.0461251639

  Lattice vectors:

 A1 = (  21.1388521970,   0.0000000000,   0.0000000000)
 A2 = (   0.0000000000,  21.1388521970,   0.0000000000)
 A3 = (   0.0000000000,   0.0000000000,  22.1138852197)

Analysis of symmetry for initial positions (statically):
 Subroutine PRICEL returns:
 Original cell was already a primitive cell.

 Routine SETGRP: Setting up the symmetry group for a
 simple tetragonal supercell.

 Subroutine GETGRP returns: Found  1 space group operations
 (whereof  1 operations were pure point group operations)
 out of a pool of 16 trial point group operations.

The static configuration has the point symmetry C_1 .

Analysis of symmetry for dynamics (positions and initial velocities):
 Subroutine PRICEL returns:
 Original cell was already a primitive cell.

[...]

The dynamic configuration has the point symmetry C_1 .

Analysis of constrained symmetry for selective dynamics:
 Subroutine PRICEL returns:
 Original cell was already a primitive cell.

 Routine SETGRP: Setting up the symmetry group for a
 simple tetragonal supercell.

 Subroutine GETGRP returns: Found  1 space group operations
 (whereof  1 operations were pure point group operations)
 out of a pool of 16 trial point group operations.

The constrained configuration has the point symmetry C_1 .

 Subroutine INISYM returns: Found  1 space group operations
 (whereof  1 operations are pure point group operations),
 and found     1 'primitive' translations

                                     Primitive cell

  volume of cell :    9881.6133

  direct lattice vectors                    reciprocal lattice vectors
    21.138852197  0.000000000  0.000000000     0.047306258  0.000000000  0.000000000
     0.000000000 21.138852197  0.000000000     0.000000000  0.047306258  0.000000000
     0.000000000  0.000000000 22.113885220     0.000000000  0.000000000  0.045220457

[...]
     52     -44.5018      2.00000
     53     -44.5007      2.00000
     54     -44.5001      2.00000
     55     -44.4979      2.00000
     56     -44.4960      2.00000
     57     -44.4949      2.00000
     58     -44.4938      2.00000
     59     -44.4935      2.00000
     60     -44.4918      2.00000
[...]
    946       6.3066      0.00000
    947       6.3228      0.00000
    948       6.3487      0.00000
    949       6.3784      0.00000
    950       6.4525      0.00000
    951       6.4861      0.00000
    952       6.5486      0.00000
    953       6.6216      0.00000
    954       6.7028      0.00000
    955       6.8110      0.00000
    956       6.9282      0.00000
    957       6.9742      0.00000
    958       7.0774      0.00000
    959       7.1284      0.00000
    960       7.2342      0.00000

 soft charge-density along one line, spin component           1
         0         1         2         3         4         5         6         7         8         9
 total charge-density along one line

------------------------ aborting loop because EDIFF is reached ----------------------------------------

  FORCE on cell =-STRESS in cart. coord.  units (eV):
  Direction    XX          YY          ZZ          XY          YZ          ZX
  Alpha Z  1417.83424  1417.83424  1417.83424
  Ewald  484651.50164483712.19756************    -3.57601   -87.59049   -13.50229
  Hartree513873.84849513088.14509************    -3.41424   -60.80500    -9.39454
  E(xc)   -8487.05541 -8487.42199 -8479.69702     0.00002    -0.04259    -0.00977
  Local  ************************************     7.13239   146.34684    22.44568
  n-local -8720.55362 -8720.16604 -8834.44461    -0.09964     0.95866     0.35396
  augment  3974.81082  3974.86136  3919.48271    -0.00231     0.17130    -0.01896
  Kinetic 23348.16095 23349.48984 23590.36364    -0.05108     1.06573     0.18463
  Fock        0.00000     0.00000     0.00000     0.00000     0.00000     0.00000
  Total    -244.85815  -244.08601   -29.35519    -0.01086     0.10445     0.05871
  in kB     -39.70062   -39.57543    -4.75957    -0.00176     0.01693     0.00952

 VOLUME and BASIS-vectors are now :
  energy-cutoff  :      520.00
  volume of cell :     9881.61
      direct lattice vectors                 reciprocal lattice vectors
    21.138852197  0.000000000  0.000000000     0.047306258  0.000000000  0.000000000
     0.000000000 21.138852197  0.000000000     0.000000000  0.047306258  0.000000000
     0.000000000  0.000000000 22.113885220     0.000000000  0.000000000  0.045220457

  length of vectors
    21.138852197 21.138852197 22.113885220     0.047306258  0.047306258  0.045220457

 FORCES acting on ions:
    Electron-Ion                     Ewald-Force                    Non-Local-Force
   0.485E+03 -.692E+01 -.207E+04   -.480E+03 0.671E+01 0.207E+04   -.515E+01 0.203E+00 0.816E+00
   0.183E+01 0.485E+03 -.204E+04   -.183E+01 -.480E+03 0.204E+04   0.807E-02 -.485E+01 -.773E+00
   -.144E+01 -.472E+03 -.203E+04   0.131E+01 0.468E+03 0.203E+04   0.135E+00 0.391E+01 -.918E+00
   -.485E+03 -.431E+01 -.207E+04   0.480E+03 0.406E+01 0.207E+04   0.517E+01 0.237E+00 0.694E+00
   0.664E+01 -.546E+00 0.937E+03   -.667E+01 0.554E+00 -.929E+03   0.216E-01 -.607E-02 -.747E+01
   0.127E+02 0.109E+02 0.941E+03   -.127E+02 -.109E+02 -.933E+03   0.437E-01 -.306E-02 -.747E+01
   0.954E+01 0.100E+02 -.918E+03   -.956E+01 -.100E+02 0.910E+03   0.221E-01 -.155E-01 0.740E+01
   0.135E+02 -.967E+00 -.917E+03   -.136E+02 0.979E+00 0.909E+03   0.376E-01 -.999E-02 0.740E+01
   0.107E+02 0.143E+02 0.941E+03   -.108E+02 -.143E+02 -.933E+03   0.294E-01 -.121E-01 -.747E+01
   0.288E+02 0.247E+02 0.957E+03   -.289E+02 -.247E+02 -.948E+03   0.994E-01 -.676E-02 -.750E+01
   0.227E+02 0.217E+02 -.911E+03   -.227E+02 -.216E+02 0.903E+03   0.151E-01 -.282E-01 0.739E+01
   0.259E+02 0.288E+02 -.910E+03   -.260E+02 -.288E+02 0.902E+03   0.649E-01 -.306E-01 0.739E+01
   0.211E+02 0.113E+02 0.951E+03   -.212E+02 -.112E+02 -.943E+03   0.361E-01 -.617E-02 -.749E+01
   0.468E+02 0.135E+01 0.974E+03   -.470E+02 -.137E+01 -.966E+03   0.124E+00 0.128E-01 -.755E+01
   0.376E+02 0.108E+01 -.903E+03   -.376E+02 -.108E+01 0.895E+03   -.240E-01 0.630E-02 0.737E+01
   0.704E+02 0.318E+02 -.884E+03   -.704E+02 -.317E+02 0.877E+03   0.169E-01 -.491E-01 0.733E+01
   0.217E+02 -.102E+02 0.952E+03   -.218E+02 0.101E+02 -.944E+03   0.446E-01 0.165E-01 -.749E+01
   0.305E+02 -.247E+02 0.958E+03   -.306E+02 0.246E+02 -.950E+03   0.134E+00 0.114E-01 -.751E+01
   0.240E+02 -.215E+02 -.910E+03   -.240E+02 0.215E+02 0.902E+03   0.247E-01 0.317E-01 0.739E+01
   0.738E+02 -.293E+02 -.883E+03   -.738E+02 0.292E+02 0.875E+03   0.347E-01 0.659E-01 0.732E+01
   0.113E+02 -.148E+02 0.942E+03   -.114E+02 0.148E+02 -.934E+03   0.389E-01 0.782E-02 -.747E+01
   0.132E+02 -.123E+02 0.941E+03   -.133E+02 0.123E+02 -.933E+03   0.533E-01 -.144E-01 -.747E+01
   0.995E+01 -.113E+02 -.918E+03   -.999E+01 0.112E+02 0.910E+03   0.272E-01 0.572E-02 0.740E+01
   0.278E+02 -.304E+02 -.909E+03   -.279E+02 0.304E+02 0.901E+03   0.890E-01 0.238E-01 0.739E+01
   0.113E+02 -.104E+01 0.942E+03   -.114E+02 0.106E+01 -.934E+03   0.428E-01 -.159E-01 -.747E+01
   0.857E+01 0.192E+02 0.948E+03   -.862E+01 -.193E+02 -.940E+03   0.361E-01 0.537E-01 -.748E+01
   0.175E+02 0.214E+02 -.912E+03   -.175E+02 -.214E+02 0.904E+03   0.492E-01 0.966E-02 0.739E+01
   0.901E+01 -.181E+01 -.913E+03   -.904E+01 0.184E+01 0.905E+03   0.287E-01 -.223E-01 0.740E+01
   0.207E+02 0.301E+02 0.955E+03   -.209E+02 -.302E+02 -.947E+03   0.972E-01 0.394E-01 -.748E+01
   0.250E+02 0.556E+02 0.994E+03   -.253E+02 -.558E+02 -.986E+03   0.219E+00 0.179E+00 -.744E+01
   0.597E+02 0.698E+02 -.877E+03   -.600E+02 -.697E+02 0.870E+03   0.237E+00 -.879E-01 0.733E+01
   0.218E+02 0.653E+02 -.893E+03   -.219E+02 -.655E+02 0.885E+03   0.726E-01 0.156E+00 0.738E+01
   0.519E+02 0.322E+02 0.100E+04   -.524E+02 -.323E+02 -.992E+03   0.309E+00 0.253E-01 -.762E+01
   0.490E+02 0.439E+01 0.107E+04   -.496E+02 -.452E+01 -.106E+04   0.430E+00 0.988E-01 -.778E+01
   0.150E+03 0.677E+01 -.785E+03   -.150E+03 -.679E+01 0.778E+03   0.140E+00 0.126E-01 0.676E+01
   0.109E+03 0.136E+03 -.727E+03   -.111E+03 -.136E+03 0.720E+03   0.126E+01 -.958E-01 0.683E+01
   0.544E+02 -.295E+02 0.100E+04   -.549E+02 0.294E+02 -.995E+03   0.402E+00 0.174E-01 -.764E+01
   0.273E+02 -.571E+02 0.100E+04   -.277E+02 0.574E+02 -.993E+03   0.297E+00 -.222E+00 -.741E+01
   0.656E+02 -.726E+02 -.873E+03   -.660E+02 0.725E+02 0.865E+03   0.336E+00 0.103E+00 0.732E+01
   0.123E+03 -.131E+03 -.703E+03   -.126E+03 0.131E+03 0.697E+03   0.189E+01 0.231E+00 0.659E+01
   0.223E+02 -.319E+02 0.957E+03   -.224E+02 0.320E+02 -.949E+03   0.130E+00 -.668E-01 -.748E+01
   0.904E+01 -.220E+02 0.950E+03   -.910E+01 0.221E+02 -.942E+03   0.448E-01 -.105E+00 -.748E+01
   0.185E+02 -.244E+02 -.912E+03   -.186E+02 0.244E+02 0.904E+03   0.604E-01 -.435E-01 0.739E+01
   0.243E+02 -.713E+02 -.889E+03   -.244E+02 0.716E+02 0.882E+03   0.961E-01 -.248E+00 0.737E+01
   -.227E+00 -.142E+01 0.946E+03   0.225E+00 0.145E+01 -.938E+03   0.106E-02 -.257E-01 -.747E+01
   -.897E+01 0.191E+02 0.948E+03   0.902E+01 -.191E+02 -.940E+03   -.344E-01 0.538E-01 -.748E+01
   -.362E+00 0.311E+02 -.908E+03   0.360E+00 -.312E+02 0.900E+03   0.127E-02 0.667E-01 0.739E+01
   -.945E+01 -.177E+01 -.913E+03   0.948E+01 0.180E+01 0.905E+03   -.265E-01 -.230E-01 0.740E+01
   -.437E+00 0.439E+02 0.967E+03   0.435E+00 -.443E+02 -.959E+03   0.143E-02 0.252E+00 -.751E+01
   -.260E+02 0.548E+02 0.994E+03   0.262E+02 -.551E+02 -.986E+03   -.213E+00 0.189E+00 -.745E+01
   -.181E+01 0.139E+03 -.825E+03   0.180E+01 -.141E+03 0.817E+03   0.201E-02 0.114E+01 0.742E+01
   -.227E+02 0.644E+02 -.893E+03   0.228E+02 -.645E+02 0.885E+03   -.693E-01 0.156E+00 0.738E+01
   -.131E+01 0.563E+02 0.106E+04   0.129E+01 -.566E+02 -.105E+04   0.157E-01 0.239E+00 -.611E+01
   -.507E+02 0.422E+01 0.107E+04   0.513E+02 -.436E+01 -.106E+04   -.421E+00 0.993E-01 -.774E+01
   -.603E+01 0.230E+02 -.504E+03   0.598E+01 -.240E+02 0.499E+03   0.510E-01 0.711E+00 0.473E+01
   -.111E+03 0.133E+03 -.733E+03   0.112E+03 -.133E+03 0.726E+03   -.125E+01 -.599E-01 0.687E+01
   -.148E+01 -.517E+02 0.107E+04   0.146E+01 0.518E+02 -.106E+04   0.188E-01 -.105E+00 -.536E+01
   -.284E+02 -.562E+02 0.999E+03   0.288E+02 0.566E+02 -.991E+03   -.290E+00 -.233E+00 -.741E+01
   -.232E+01 -.153E+03 -.809E+03   0.231E+01 0.156E+03 0.801E+03   0.852E-02 -.174E+01 0.745E+01
   -.125E+03 -.128E+03 -.712E+03   0.127E+03 0.128E+03 0.705E+03   -.189E+01 0.198E+00 0.670E+01
[...]
   -.112E+02 0.118E+02 0.711E+03   0.113E+02 -.118E+02 -.715E+03   -.353E-01 -.110E-01 0.350E+01
   0.225E+00 0.909E+01 0.706E+03   -.223E+00 -.908E+01 -.710E+03   -.209E-02 -.134E-01 0.351E+01
   -.229E+02 0.115E+02 -.681E+03   0.229E+02 -.115E+02 0.685E+03   -.126E-01 -.200E-01 -.367E+01
   0.722E+00 0.566E+00 -.684E+03   -.717E+00 -.571E+00 0.688E+03   -.587E-02 0.635E-02 -.365E+01
   -.169E+02 0.543E+00 0.717E+03   0.169E+02 -.550E+00 -.720E+03   -.350E-01 0.941E-02 0.348E+01
   0.422E+00 0.675E+01 0.711E+03   -.419E+00 -.674E+01 -.715E+03   -.440E-02 -.648E-02 0.350E+01
   -.237E+02 -.105E+02 -.681E+03   0.237E+02 0.105E+02 0.685E+03   -.195E-01 0.333E-01 -.367E+01
   0.498E+00 -.125E+02 -.687E+03   -.495E+00 0.125E+02 0.691E+03   -.439E-02 0.268E-01 -.364E+01
   -.117E+02 -.117E+02 0.712E+03   0.118E+02 0.117E+02 -.715E+03   -.461E-01 0.146E-01 0.350E+01
   0.443E+00 -.609E+01 0.712E+03   -.440E+00 0.608E+01 -.715E+03   -.489E-02 0.170E-01 0.350E+01
   -.108E+02 -.142E+02 -.688E+03   0.109E+02 0.142E+02 0.692E+03   -.340E-01 0.142E-01 -.363E+01
   0.222E+00 -.709E+01 -.691E+03   -.220E+00 0.708E+01 0.695E+03   -.192E-02 0.411E-02 -.362E+01
   -.561E+01 -.656E+01 0.705E+03   0.564E+01 0.656E+01 -.709E+03   -.330E-01 -.516E-02 0.352E+01
   0.247E+00 -.939E+01 0.706E+03   -.245E+00 0.939E+01 -.710E+03   -.265E-02 0.901E-02 0.351E+01
   -.547E-02 0.881E+00 0.165E+02   0.273E-11 0.210E-11 0.218E-10   -.750E-02 -.857E+00 -.156E+02

 POSITION                                       TOTAL-FORCE (eV/Angst)
      6.12143     10.70919     14.10279         0.494902     -0.021285     -0.169055
      8.38943      9.33976     13.66282         0.002256      0.538208     -0.039088
      8.39418     12.03706     13.47256        -0.007460     -0.478600     -0.070113
     10.67333     10.69253     14.07734        -0.479642     -0.019768     -0.164894
      0.00000      0.00000      9.00000        -0.007016      0.001906      0.590876
      2.11389      2.11389      9.00000        -0.014313      0.000782      0.591408
      0.00000      2.11389     11.11389        -0.005545      0.003969     -0.563839
      2.11389      0.00000     11.11389        -0.009884      0.002478     -0.563067
      0.00000      4.22777      9.00000        -0.009348      0.003926      0.593082
      2.11389      6.34166      9.00000        -0.031393      0.002352      0.601863
      0.00000      6.34166     11.11389        -0.002775      0.007915     -0.557759
      2.11389      4.22777     11.11389        -0.015749      0.008150     -0.557576
      0.00000      8.45554      9.00000        -0.011332      0.002183      0.598990
      2.11389     10.56943      9.00000        -0.039597     -0.004513      0.614703
      0.00000     10.56943     11.11389         0.007967     -0.001780     -0.550117
      2.11389      8.45554     11.11389         0.005068      0.018110     -0.524834
      0.00000     12.68331      9.00000        -0.014003     -0.005954      0.599243
      2.11389     14.79720      9.00000        -0.042173     -0.004017      0.603070
      0.00000     14.79720     11.11389        -0.005022     -0.009116     -0.557079
      2.11389     12.68331     11.11389         0.000989     -0.023084     -0.522248
      0.00000     16.91108      9.00000        -0.012389     -0.002716      0.593373
      2.11389     19.02497      9.00000        -0.017455      0.004735      0.591390
      0.00000     19.02497     11.11389        -0.006792     -0.001588     -0.563604
      2.11389     16.91108     11.11389        -0.021621     -0.006513     -0.556274
      4.22777      0.00000      9.00000        -0.014225      0.005041      0.591400
      6.34166      2.11389      9.00000        -0.012253     -0.017208      0.592856
      4.22777      2.11389     11.11389        -0.013152     -0.002101     -0.559846
      6.34166      0.00000     11.11389        -0.007742      0.005476     -0.560370
      4.22777      4.22777      9.00000        -0.032416     -0.013727      0.593051
      6.34166      6.34166      9.00000        -0.078804     -0.064222      0.573119
      4.22777      6.34166     11.11389        -0.054065      0.029355     -0.519890
      6.34166      4.22777     11.11389        -0.020912     -0.037987     -0.546627
      4.22777      8.45554      9.00000        -0.095860     -0.006654      0.628026
      6.34166     10.56943      9.00000        -0.155849     -0.035366      0.608868
      4.22777     10.56943     11.11389         0.008552     -0.000758     -0.256573
      6.34166      8.45554     11.11389        -0.389558      0.080240     -0.257144
      4.22777     12.68331      9.00000        -0.123493     -0.007965      0.631634
      6.34166     14.79720      9.00000        -0.107536      0.081311      0.557941
      4.22777     14.79720     11.11389        -0.075726     -0.034566     -0.509339
      6.34166     12.68331     11.11389        -0.623986     -0.093332     -0.224159
      4.22777     16.91108      9.00000        -0.043344      0.022771      0.592161
      6.34166     19.02497      9.00000        -0.015286      0.033627      0.593052
      4.22777     19.02497     11.11389        -0.016147      0.010410     -0.558768
      6.34166     16.91108     11.11389        -0.027355      0.060129     -0.540928
      8.45554      0.00000      9.00000        -0.000368      0.008092      0.592242
     10.56943      2.11389      9.00000         0.011635     -0.017300      0.592675
      8.45554      2.11389     11.11389        -0.000261     -0.015355     -0.557593
     10.56943      0.00000     11.11389         0.007495      0.005612     -0.560416
      8.45554      4.22777      9.00000        -0.000427     -0.078601      0.600163
     10.56943      6.34166      9.00000         0.077197     -0.067733      0.574816
      8.45554      6.34166     11.11389        -0.000617     -0.331954     -0.528216
     10.56943      4.22777     11.11389         0.020333     -0.037713     -0.546713
      8.45554      8.45554      9.00000        -0.006097     -0.065591      0.185261
     10.56943     10.56943      9.00000         0.152747     -0.035681      0.600186
      8.45554     10.56943     11.11389         0.003239     -0.277683     -0.464154
     10.56943      8.45554     11.11389         0.373773      0.074069     -0.253538
      8.45554     12.68331      9.00000        -0.007361      0.023651     -0.039740
     10.56943     14.79720      9.00000         0.105163      0.085087      0.558335
      8.45554     14.79720     11.11389        -0.002882      0.510954     -0.526662
     10.56943     12.68331     11.11389         0.590014     -0.094093     -0.211583
[...]
     19.02497      6.34166     11.11389        -0.000940     -0.006660      0.278418
     16.91108      6.34166      9.00000        -0.009747     -0.003156     -0.317813
     19.02497      4.22777      9.00000        -0.000516     -0.003832     -0.314709
     16.91108      8.45554     11.11389        -0.003654     -0.005662      0.270238
     19.02497     10.56943     11.11389        -0.001561      0.001660      0.274349
     16.91108     10.56943      9.00000        -0.009834      0.002468     -0.322842
     19.02497      8.45554      9.00000        -0.001145     -0.001970     -0.318226
     16.91108     12.68331     11.11389        -0.005633      0.009115      0.269702
     19.02497     14.79720     11.11389        -0.001157      0.007367      0.277941
     16.91108     14.79720      9.00000        -0.012765      0.003916     -0.317810
     19.02497     12.68331      9.00000        -0.001277      0.004619     -0.318363
     16.91108     16.91108     11.11389        -0.009447      0.003855      0.279180
     19.02497     19.02497     11.11389        -0.000474      0.001043      0.282667
     16.91108     19.02497      9.00000        -0.009076     -0.001539     -0.313623
     19.02497     16.91108      9.00000        -0.000673      0.002367     -0.314689
    total drift:                               -0.012966      0.024126      0.856701

  FREE ENERGIE OF THE ION-ELECTRON SYSTEM (eV)
  free  energy   TOTEN  =     -1895.62635055 eV

  energy  without entropy=    -1895.62635055  energy(sigma->0) =    -1895.62635055