 vasp.6.4.0 14Feb23 (build Jul 14 2023 13:46:40) complex

 executed on             LinuxIFC date 2023.08.22  18:09:54

 INCAR:
   SYSTEM = MgO-rocksalt
   ISMEAR = 0
   SIGMA = 0.05
   EDIFF = 1E-6
   ALGO = ALL
   ISTART = 0
   IBRION = -1
   NSW = 0
   ISYM = 2
   DIPOL = 0.5 0.5 0.5
   IDIPOL = 3
   LDIPOL = .TRUE.
   METAGGA = R2SCAN
   IVDW = 13
   VDW_S8 = 0.6019
   VDW_A1 = 0.5156
   VDW_A2 = 5.7734
   ENCUT = 520
   PREC = Accurate
   LASPH = .TRUE.
   LREAL = Auto
   ISPIN = 1
   NELM = 200
   NELMIN = 8
   NCORE = 4
   KPAR = 2
   LWAVE = .FALSE.
   LCHARG = .FALSE.

 POTCAR:    PAW_PBE Au 04Oct2007
 POTCAR:    PAW_PBE Mg_pv 13Apr2007
 POTCAR:    PAW_PBE O 08Apr2002
 POTCAR:    PAW_PBE Au 04Oct2007
   VRHFIN =Au: s1d10

   TITEL  = PAW_PBE Au 04Oct2007
   POMASS =  196.966; ZVAL   =   11.000    mass and valenz
   ENMAX  =  229.943; ENMIN  =  172.457 eV

   TITEL  = PAW_PBE Mg_pv 13Apr2007
   POMASS =   24.305; ZVAL   =    8.000    mass and valenz
   ENMAX  =  403.929; ENMIN  =  302.947 eV

   TITEL  = PAW_PBE O 08Apr2002
   POMASS =   16.000; ZVAL   =    6.000    mass and valenz
   ENMAX  =  400.000; ENMIN  =  300.000 eV

 Optimization of the real space projectors (new method)

 maximal supplied QI-value         = 15.12
 optimisation between [QCUT,QGAM] = [ 11.64, 23.28] = [ 37.95,151.78] Ry
 Optimized for a Real-space Cutoff    1.49 Angstroem

   l    n(q)    QCUT    max X(q) W(low)/X(q) W(high)/X(q)  e(spline)
   2      9    11.641    60.898    0.24E-03    0.10E-03    0.19E-06
   2      9    11.641    58.894    0.25E-03    0.10E-03    0.19E-06
   0     10    11.641   109.617    0.73E-04    0.33E-04    0.11E-06
   0     10    11.641    75.026    0.71E-04    0.32E-04    0.11E-06
   1     10    11.641    16.344    0.27E-04    0.97E-04    0.16E-06
   1     10    11.641    10.160    0.23E-04    0.77E-04    0.13E-06
 Optimization of the real space projectors (new method)

[...]

   l    n(q)    QCUT    max X(q) W(low)/X(q) W(high)/X(q)  e(spline)
   1      8    11.527     2.974    0.44E-04    0.56E-04    0.12E-06
   1      8    11.527     4.279    0.12E-03    0.12E-03    0.26E-06
   0      9    11.527    16.381    0.46E-04    0.64E-04    0.78E-07
   0      9    11.527     5.611    0.26E-04    0.43E-04    0.55E-07
   2      8    11.527     4.652    0.22E-03    0.72E-04    0.47E-07
 Optimization of the real space projectors (new method)

 maximal supplied QI-value         = 24.76
 optimisation between [QCUT,QGAM] = [ 11.64, 23.27] = [ 37.91,151.63] Ry
 Optimized for a Real-space Cutoff    1.14 Angstroem

   l    n(q)    QCUT    max X(q) W(low)/X(q) W(high)/X(q)  e(spline)
   0      8    11.635    20.381    0.10E-03    0.33E-03    0.24E-06
   0      8    11.635    15.268    0.11E-03    0.35E-03    0.26E-06
   1      7    11.635     5.964    0.24E-03    0.31E-03    0.30E-06
   1      7    11.635     5.382    0.22E-03    0.25E-03    0.26E-06
  PAW_PBE Au 04Oct2007                  :
  PAW_PBE Mg_pv 13Apr2007               :
  PAW_PBE O 08Apr2002                   :

 POSCAR: Mg  O
  positions in direct lattice
  velocities in cartesian coordinates

 METAGGA = R2SCAN                                      LMAXTAU =  6    LMIXTAU =  F

 WARNING: Using user supplied parameters
     VDW_S8 = 0.602
     VDW_A1 = 0.516
     VDW_A2 = 5.773
     because the xc functional is not supported. Required parameters not
     defined in the INCAR file will be replaced with PBE defaults ones.

 ion  position               nearest neighbor table
   1  0.523  0.447  0.604-   9 2.65   5 2.66   6 2.72  10 2.78   2 2.82
   2  0.390  0.462  0.611-  10 2.67   6 2.69   7 2.70   3 2.73  11 2.74   1 2.82
   3  0.262  0.476  0.610-   8 2.69   4 2.72   2 2.73  12 2.73   7 2.75  11 2.75
   4  0.142  0.487  0.578- 230 2.49  12 2.67   3 2.72  51 2.73   8 2.74
   5  0.594  0.551  0.598-   1 2.66  13 2.68   6 2.71  14 2.75
   6  0.467  0.563  0.610-   2 2.69   7 2.69   5 2.71   1 2.72  14 2.74  15 2.76
   7  0.341  0.579  0.614-  16 2.68   6 2.69   2 2.70   8 2.73   3 2.75  15 2.76
   8  0.223  0.589  0.577- 253 2.41   3 2.69  16 2.71   7 2.73   4 2.74  56 2.93
   9  0.564  0.329  0.606-  17 2.64   1 2.65  10 2.66  18 2.82
  10  0.439  0.346  0.606-   9 2.66  11 2.66   2 2.67  18 2.71   1 2.78  19 2.83
  11  0.314  0.357  0.606-  10 2.66  19 2.70  12 2.70   2 2.74   3 2.75  20 2.77
  12  0.189  0.372  0.595-  20 2.64   4 2.67  11 2.70   3 2.73
  13  0.662  0.655  0.579-  14 2.65 294 2.67   5 2.68  96 2.85  95 2.91
  14  0.540  0.669  0.598-  15 2.61  13 2.65   6 2.74   5 2.75
  15  0.419  0.684  0.611-  14 2.61  16 2.64   6 2.76   7 2.76
  16  0.306  0.686  0.573- 254 2.25  15 2.64   7 2.68   8 2.71  56 2.93  75 3.02
  17  0.589  0.218  0.570- 285 2.17  18 2.61   9 2.64  87 2.83  68 2.91
  18  0.481  0.225  0.611-  17 2.61  19 2.61  10 2.71   9 2.82
  19  0.360  0.239  0.598-  18 2.61  20 2.69  11 2.70  10 2.83
  20  0.234  0.256  0.589-  12 2.64  19 2.69  11 2.77  47 2.94
  21  0.000  0.000  0.429- 321 2.09 221 2.11 223 2.11 224 2.11 304 2.11 239 2.12
  22  0.100  0.100  0.429- 322 2.09 222 2.11 243 2.11 228 2.11 223 2.11 224 2.12
  23  0.000  0.100  0.498- 223 2.07 222 2.11 225 2.11 302 2.11 221 2.12
  24  0.100  0.000  0.498- 224 2.07 222 2.11 241 2.11 221 2.11 238 2.12
  25  0.000  0.200  0.429- 325 2.09 225 2.11 308 2.11 228 2.11 223 2.11 227 2.12
  26  0.100  0.300  0.429- 326 2.09 247 2.10 226 2.11 228 2.11 227 2.12 232 2.13
  27  1.000  0.300  0.498- 227 2.07 226 2.11 306 2.11 225 2.11 229 2.12
  28  0.100  0.200  0.498- 228 2.07 245 2.11 225 2.11 222 2.12 226 2.12
  29  0.000  0.400  0.429- 329 2.09 232 2.11 227 2.11 229 2.11 312 2.11 231 2.12
  30  0.100  0.500  0.429- 330 2.08 232 2.10 251 2.10 231 2.11 236 2.11 230 2.18
  31  0.997  0.500  0.498- 310 2.07 231 2.07 229 2.10 233 2.12 230 2.13
  32  0.100  0.399  0.499- 226 2.09 232 2.09 229 2.11 249 2.12 230 2.16
  33  1.000  0.600  0.429- 333 2.09 316 2.11 231 2.11 235 2.11 233 2.11 236 2.12
  34  0.100  0.700  0.429- 334 2.09 235 2.11 240 2.11 234 2.11 255 2.11 236 2.12
  35  1.000  0.700  0.498- 235 2.07 314 2.11 234 2.11 237 2.11 233 2.12
  36  0.097  0.601  0.498- 236 2.07 233 2.07 234 2.10 230 2.11 253 2.13
  37  1.000  0.800  0.429- 337 2.09 237 2.11 239 2.11 320 2.11 240 2.12 235 2.12
  38  0.100  0.900  0.429- 338 2.09 238 2.11 224 2.11 239 2.11 259 2.11 240 2.12
  39  1.000  0.900  0.498- 239 2.07 221 2.11 238 2.11 318 2.11 237 2.12
  40  0.100  0.801  0.498- 240 2.07 238 2.10 237 2.11 257 2.11 234 2.12
  41  0.200  0.000  0.429- 341 2.09 241 2.11 243 2.11 244 2.11 224 2.11 259 2.12
  42  0.300  0.100  0.429- 342 2.09 248 2.11 242 2.11 243 2.12 263 2.12 244 2.12
  43  0.200  0.100  0.498- 243 2.07 245 2.10 242 2.11 241 2.12 222 2.12
  44  0.300  0.000  0.498- 244 2.07 242 2.10 258 2.11 261 2.12 241 2.12
  45  0.200  0.200  0.429- 345 2.09 248 2.10 247 2.11 243 2.12 228 2.12 245 2.13
  46  0.300  0.300  0.429- 246 2.07 346 2.09 267 2.11 248 2.12 252 2.12 247 2.12
  47  0.200  0.300  0.499- 246 2.12 247 2.12 249 2.12 226 2.13 245 2.13  20 2.94
  48  0.300  0.200  0.499- 265 2.10 248 2.12 246 2.12 242 2.12 245 2.13
  49  0.200  0.400  0.429- 249 2.06 349 2.09 252 2.11 247 2.11 232 2.12 251 2.14
  50  0.300  0.500  0.429- 250 2.08 350 2.09 252 2.10 271 2.10 256 2.14 251 2.14
  51  0.203  0.499  0.498- 251 2.06 250 2.06 249 2.09 253 2.17 230 2.22   4 2.73
  52  0.301  0.400  0.499- 246 2.10 269 2.10 252 2.12 250 2.12 249 2.13
  53  0.200  0.600  0.428- 353 2.08 251 2.10 256 2.10 255 2.11 236 2.11 253 2.13
  54  0.300  0.700  0.428- 354 2.08 275 2.10 256 2.10 260 2.11 254 2.11 255 2.12
  55  0.197  0.703  0.498- 255 2.07 234 2.07 257 2.07 254 2.13 253 2.14
  56  0.303  0.597  0.498- 273 2.05 250 2.06 256 2.06 253 2.22 254 2.24   8 2.93  16 2.93
  57  0.200  0.800  0.429- 357 2.09 259 2.11 260 2.11 257 2.11 240 2.11 255 2.12
  58  0.300  0.900  0.429- 358 2.09 244 2.11 258 2.11 279 2.11 259 2.11 260 2.12
  59  0.200  0.900  0.498- 259 2.07 241 2.10 257 2.11 238 2.11 258 2.12
  60  0.300  0.803  0.498- 258 2.06 260 2.07 277 2.11 254 2.12 257 2.13
[...]
 406  0.900  0.300  0.359- 106 2.09 208 2.11 207 2.11 127 2.11 212 2.11 206 2.11
 407  0.800  0.300  0.289- 186 2.11 205 2.11 206 2.11 209 2.11 207 2.11
 408  0.900  0.200  0.289- 206 2.11 202 2.11 205 2.11 125 2.11 208 2.11
 409  0.800  0.400  0.359- 109 2.09 192 2.11 207 2.11 211 2.11 212 2.11 209 2.11
 410  0.900  0.500  0.359- 110 2.09 131 2.11 211 2.11 212 2.11 216 2.11 210 2.11
 411  0.800  0.500  0.289- 190 2.11 209 2.11 210 2.11 213 2.11 211 2.11
 412  0.900  0.400  0.289- 129 2.11 206 2.11 209 2.11 210 2.11 212 2.11
 413  0.800  0.600  0.359- 113 2.09 196 2.11 211 2.11 215 2.11 216 2.11 213 2.11
 414  0.900  0.700  0.359- 114 2.09 220 2.11 215 2.11 216 2.11 135 2.11 214 2.11
 415  0.800  0.700  0.289- 194 2.11 217 2.11 214 2.11 213 2.11 215 2.11
 416  0.900  0.600  0.289- 133 2.11 210 2.11 213 2.11 214 2.11 216 2.11
 417  0.800  0.800  0.359- 117 2.09 200 2.11 215 2.11 219 2.11 220 2.11 217 2.11
 418  0.900  0.900  0.359- 118 2.09 139 2.11 204 2.11 219 2.11 220 2.11 218 2.11
 419  0.800  0.900  0.289- 198 2.11 201 2.11 217 2.11 218 2.11 219 2.11
 420  0.900  0.800  0.289- 214 2.11 137 2.11 217 2.11 218 2.11 220 2.11

  LATTYP: Found a simple tetragonal cell.
 ALAT       =    21.1388521970
 C/A-ratio  =     1.4191877459

  Lattice vectors:

 A1 = (  21.1388521970,   0.0000000000,   0.0000000000)
 A2 = (   0.0000000000,  21.1388521970,   0.0000000000)
 A3 = (   0.0000000000,   0.0000000000,  30.0000000000)

Analysis of symmetry for initial positions (statically):
 Subroutine PRICEL returns:
 Original cell was already a primitive cell.

 Routine SETGRP: Setting up the symmetry group for a
 simple tetragonal supercell.

 Subroutine GETGRP returns: Found  1 space group operations
 (whereof  1 operations were pure point group operations)
 out of a pool of 16 trial point group operations.

The static configuration has the point symmetry C_1 .

Analysis of symmetry for dynamics (positions and initial velocities):
 Subroutine PRICEL returns:
 Original cell was already a primitive cell.

[...]

The dynamic configuration has the point symmetry C_1 .

Analysis of constrained symmetry for selective dynamics:
 Subroutine PRICEL returns:
 Original cell was already a primitive cell.

 Routine SETGRP: Setting up the symmetry group for a
 simple tetragonal supercell.

 Subroutine GETGRP returns: Found  1 space group operations
 (whereof  1 operations were pure point group operations)
 out of a pool of 16 trial point group operations.

The constrained configuration has the point symmetry C_1 .

 Subroutine INISYM returns: Found  1 space group operations
 (whereof  1 operations are pure point group operations),
 and found     1 'primitive' translations

                                     Primitive cell

  volume of cell :   13405.5322

  direct lattice vectors                    reciprocal lattice vectors
    21.138852197  0.000000000  0.000000000     0.047306258  0.000000000  0.000000000
     0.000000000 21.138852197  0.000000000     0.000000000  0.047306258  0.000000000
     0.000000000  0.000000000 30.000000000     0.000000000  0.000000000  0.033333333

  length of vectors
[...]
     54     -43.9053      2.00000
     55     -43.9051      2.00000
     56     -43.8991      2.00000
     57     -43.8949      2.00000
     58     -43.8892      2.00000
     59     -43.8868      2.00000
     60     -43.8864      2.00000
[...]
   1810       7.6640      0.00000
   1811       7.6756      0.00000
   1812       7.7081      0.00000
   1813       7.7109      0.00000
   1814       7.7302      0.00000
   1815       7.7578      0.00000
   1816       7.7663      0.00000
   1817       7.7963      0.00000
   1818       7.7972      0.00000
   1819       7.8158      0.00000
   1820       7.8324      0.00000
   1821       7.8419      0.00000
   1822       7.8539      0.00000
   1823       7.8664      0.00000
   1824       7.8974      0.00000

 soft charge-density along one line, spin component           1
         0         1         2         3         4         5         6         7         8         9
 total charge-density along one line

------------------------ aborting loop because EDIFF is reached ----------------------------------------

  FORCE on cell =-STRESS in cart. coord.  units (eV):
  Direction    XX          YY          ZZ          XY          YZ          ZX
  Alpha Z  4657.84619  4657.84619  4657.84619
  Ewald  ************************************   480.19700  -361.01613   632.35704
  Hartree************************************   433.09251  -290.46613   520.09682
  E(xc)  -17656.49567-17656.69410-17660.55451     0.02579    -0.17180     0.21171
  Local  ************************************  -913.61202   648.02441 -1149.16832
  n-local-17438.15884-17430.77732-17488.76623    -2.01217     2.44823    -2.48121
  augment  8733.75832  8735.72521  8713.58302     0.41857     0.12263     0.05049
  Kinetic 48812.57107 48818.83410 49130.70053    -1.30554     1.01171    -1.33136
  Fock        0.00000     0.00000     0.00000     0.00000     0.00000     0.00000
  vdW       -24.12086   -24.13762   -16.59493    -0.01177     0.00387    -0.00953
  Total    -255.94095  -255.72578   -21.69399    -3.20763    -0.04321    -0.27437
  in kB     -30.58907   -30.56336    -2.59278    -0.38336    -0.00516    -0.03279

 VOLUME and BASIS-vectors are now :
  energy-cutoff  :      520.00
  volume of cell :    13405.53
      direct lattice vectors                 reciprocal lattice vectors
    21.138852197  0.000000000  0.000000000     0.047306258  0.000000000  0.000000000
     0.000000000 21.138852197  0.000000000     0.000000000  0.047306258  0.000000000
     0.000000000  0.000000000 30.000000000     0.000000000  0.000000000  0.033333333

  length of vectors
    21.138852197 21.138852197 30.000000000     0.047306258  0.047306258  0.033333333

 FORCES acting on ions:
    Electron-Ion                     Ewald-Force                    Non-Local-Force
   -.537E+03 0.675E+02 -.362E+04   0.538E+03 -.676E+02 0.362E+04   -.952E+00 0.870E-01 0.328E-01
   -.158E+02 0.647E+01 -.367E+04   0.140E+02 -.577E+01 0.367E+04   0.187E+01 -.720E+00 0.261E+00
   0.397E+03 -.605E+02 -.379E+04   -.397E+03 0.604E+02 0.379E+04   -.612E-01 0.945E-01 0.627E+00
   0.830E+03 -.120E+03 -.372E+04   -.826E+03 0.118E+03 0.373E+04   -.516E+01 0.150E+01 -.248E+01
   -.705E+03 0.403E+02 -.368E+04   0.703E+03 -.406E+02 0.368E+04   0.227E+01 0.179E+00 0.342E+00
   -.207E+03 -.218E+03 -.367E+04   0.207E+03 0.216E+03 0.367E+04   0.538E+00 0.167E+01 0.222E+00
   0.207E+03 -.341E+03 -.380E+04   -.207E+03 0.340E+03 0.379E+04   0.432E+00 0.119E+01 0.881E+00
   0.620E+03 -.477E+03 -.367E+04   -.618E+03 0.475E+03 0.367E+04   -.250E+01 0.132E+01 -.250E+01
   -.728E+03 0.153E+03 -.370E+04   0.726E+03 -.153E+03 0.370E+04   0.290E+01 -.372E-01 0.892E+00
   -.140E+03 0.255E+03 -.364E+04   0.139E+03 -.253E+03 0.364E+04   0.962E+00 -.215E+01 -.116E+00
   0.234E+03 0.270E+03 -.370E+04   -.233E+03 -.268E+03 0.370E+04   -.123E+01 -.189E+01 0.328E+00
   0.745E+03 0.299E+03 -.370E+04   -.743E+03 -.299E+03 0.371E+04   -.297E+01 -.273E+00 -.673E+00
   -.667E+03 -.355E+03 -.375E+04   0.662E+03 0.353E+03 0.375E+04   0.581E+01 0.302E+01 -.231E+01
   -.319E+03 -.673E+03 -.367E+04   0.318E+03 0.671E+03 0.367E+04   0.122E+01 0.180E+01 -.462E+00
   -.205E+02 -.791E+03 -.372E+04   0.217E+02 0.790E+03 0.372E+04   -.120E+01 0.191E+01 0.196E+01
   0.333E+03 -.748E+03 -.365E+04   -.332E+03 0.745E+03 0.365E+04   -.942E+00 0.299E+01 -.359E+01
   -.552E+03 0.499E+03 -.370E+04   0.550E+03 -.497E+03 0.371E+04   0.269E+01 -.274E+01 -.355E+01
   -.164E+03 0.735E+03 -.374E+04   0.163E+03 -.734E+03 0.374E+04   0.483E+00 -.135E+01 0.197E+01
   0.153E+03 0.763E+03 -.364E+04   -.152E+03 -.762E+03 0.364E+04   -.139E+01 -.185E+01 -.813E+00
   0.543E+03 0.683E+03 -.368E+04   -.541E+03 -.678E+03 0.368E+04   -.182E+01 -.489E+01 -.707E+00
   0.292E+02 0.130E+02 -.708E+03   -.292E+02 -.130E+02 0.708E+03   -.130E-01 -.891E-01 -.382E+00
   0.663E+02 0.611E+02 -.667E+03   -.662E+02 -.611E+02 0.668E+03   -.832E-01 -.437E-01 -.440E+00
   0.587E+02 0.660E+02 -.235E+04   -.586E+02 -.659E+02 0.235E+04   -.977E-01 -.201E-01 0.665E+01
   0.754E+02 0.314E+02 -.235E+04   -.754E+02 -.312E+02 0.234E+04   -.303E-01 -.186E+00 0.665E+01
   0.535E+02 0.593E+02 -.669E+03   -.535E+02 -.594E+02 0.669E+03   -.201E-01 0.898E-01 -.434E+00
   0.117E+03 0.719E+02 -.572E+03   -.117E+03 -.723E+02 0.572E+03   -.413E+00 0.375E+00 -.384E+00
   0.137E+03 0.868E+02 -.229E+04   -.137E+03 -.871E+02 0.228E+04   -.543E-02 0.294E+00 0.658E+01
   0.174E+03 0.151E+03 -.225E+04   -.174E+03 -.151E+03 0.224E+04   0.125E+00 0.146E+00 0.650E+01
   0.838E+02 0.264E+02 -.617E+03   -.838E+02 -.266E+02 0.617E+03   -.452E-01 0.245E+00 -.376E+00
   0.132E+03 -.204E+02 -.536E+03   -.132E+03 0.200E+02 0.534E+03   0.487E-01 0.396E+00 0.186E+01
   0.164E+03 -.237E+02 -.225E+04   -.165E+03 0.233E+02 0.224E+04   0.122E+01 0.427E+00 0.649E+01
   0.294E+03 0.790E+02 -.208E+04   -.294E+03 -.807E+02 0.207E+04   0.138E+00 0.172E+01 0.630E+01
   0.702E+02 -.478E+02 -.627E+03   -.707E+02 0.478E+02 0.628E+03   0.460E+00 -.182E-01 -.162E+00
   0.941E+02 -.824E+02 -.609E+03   -.945E+02 0.829E+02 0.609E+03   0.361E+00 -.431E+00 -.103E+00
   0.907E+02 -.973E+02 -.232E+04   -.910E+02 0.977E+02 0.231E+04   0.376E+00 -.443E+00 0.662E+01
   0.243E+03 -.145E+03 -.215E+04   -.244E+03 0.145E+03 0.214E+04   0.143E+01 -.667E+00 0.651E+01
   0.382E+02 -.509E+02 -.688E+03   -.384E+02 0.511E+02 0.688E+03   0.141E+00 -.229E+00 -.347E+00
   0.537E+02 -.294E+02 -.687E+03   -.537E+02 0.297E+02 0.688E+03   0.627E-01 -.272E+00 -.353E+00
   0.409E+02 -.320E+02 -.237E+04   -.410E+02 0.322E+02 0.236E+04   0.543E-01 -.213E+00 0.666E+01
   0.113E+03 -.113E+03 -.232E+04   -.113E+03 0.114E+03 0.231E+04   0.447E+00 -.737E+00 0.664E+01
   0.554E+02 0.246E+02 -.666E+03   -.554E+02 -.244E+02 0.666E+03   -.140E-01 -.150E+00 -.405E+00
   0.450E+02 0.988E+02 -.599E+03   -.451E+02 -.983E+02 0.599E+03   0.212E-01 -.422E+00 -.507E+00
   0.116E+03 0.161E+03 -.227E+04   -.115E+03 -.161E+03 0.226E+04   -.140E+00 0.265E-02 0.653E+01
   0.556E+02 0.583E+02 -.230E+04   -.556E+02 -.579E+02 0.230E+04   0.789E-02 -.334E+00 0.661E+01
   0.919E+02 0.110E+03 -.564E+03   -.916E+02 -.110E+03 0.564E+03   -.373E+00 -.270E+00 0.253E+00
   0.616E+02 0.101E+03 -.424E+03   -.613E+02 -.101E+03 0.425E+03   -.277E+00 0.140E-01 -.132E+01
   0.237E+03 0.183E+03 -.196E+04   -.237E+03 -.183E+03 0.195E+04   -.472E+00 -.189E-01 0.501E+01
   0.104E+03 0.283E+03 -.203E+04   -.104E+03 -.283E+03 0.203E+04   -.572E+00 -.143E+00 0.595E+01
   0.121E+03 0.405E+02 -.429E+03   -.121E+03 -.414E+02 0.430E+03   -.447E+00 0.827E+00 -.119E+01
   0.623E+02 -.270E+02 -.365E+03   -.612E+02 0.260E+02 0.366E+03   -.108E+01 0.100E+01 -.734E+00
   0.223E+03 -.477E+02 -.181E+04   -.221E+03 0.454E+02 0.180E+04   -.219E+01 0.229E+01 0.490E+01
   0.943E+02 0.658E+02 -.181E+04   -.934E+02 -.666E+02 0.181E+04   -.876E+00 0.808E+00 0.636E+01
   0.114E+03 -.857E+02 -.472E+03   -.114E+03 0.856E+02 0.471E+03   -.187E+00 0.125E+00 0.140E+01
   0.562E+02 -.124E+03 -.487E+03   -.557E+02 0.124E+03 0.486E+03   -.536E+00 -.102E+00 0.144E+01
   0.206E+03 -.224E+03 -.211E+04   -.207E+03 0.225E+03 0.210E+04   0.140E+01 -.144E+01 0.651E+01
   0.102E+03 -.164E+03 -.179E+04   -.990E+02 0.161E+03 0.178E+04   -.302E+01 0.302E+01 0.559E+01
   0.740E+02 -.909E+02 -.614E+03   -.740E+02 0.915E+02 0.615E+03   -.957E-03 -.523E+00 -.128E+00
   0.373E+02 -.476E+02 -.635E+03   -.372E+02 0.480E+02 0.635E+03   -.724E-01 -.402E+00 -.141E+00
   0.868E+02 -.686E+02 -.232E+04   -.871E+02 0.690E+02 0.232E+04   0.259E+00 -.407E+00 0.665E+01
   0.822E+02 -.228E+03 -.218E+04   -.817E+02 0.229E+03 0.218E+04   -.442E+00 -.147E+01 0.667E+01
[...]
   -.136E+02 0.129E+02 0.194E+04   0.136E+02 -.129E+02 -.194E+04   0.156E-01 -.899E-02 0.338E+01
   -.225E+00 0.145E+02 0.193E+04   0.230E+00 -.145E+02 -.193E+04   -.645E-02 0.106E-01 0.338E+01
   -.275E+02 0.110E+02 0.742E+03   0.274E+02 -.110E+02 -.742E+03   0.806E-01 -.956E-02 -.547E-02
   0.115E+01 -.392E+01 0.736E+03   -.125E+01 0.388E+01 -.737E+03   0.147E+00 0.441E-01 0.105E+00
   -.146E+02 -.259E+01 0.194E+04   0.146E+02 0.258E+01 -.195E+04   0.648E-01 0.165E-01 0.338E+01
   0.723E+00 0.620E+01 0.194E+04   -.754E+00 -.622E+01 -.194E+04   0.424E-01 0.336E-01 0.339E+01
   -.274E+02 -.179E+02 0.741E+03   0.273E+02 0.178E+02 -.741E+03   0.102E+00 0.544E-01 0.300E-02
   -.928E+00 -.244E+02 0.720E+03   0.909E+00 0.244E+02 -.721E+03   0.253E-01 -.329E-01 0.846E-01
   -.129E+02 -.154E+02 0.193E+04   0.129E+02 0.153E+02 -.194E+04   0.445E-01 0.327E-02 0.339E+01
   0.992E-01 -.108E+02 0.194E+04   -.152E+00 0.108E+02 -.194E+04   0.729E-01 0.684E-02 0.341E+01
   -.201E+02 -.230E+02 0.715E+03   0.201E+02 0.231E+02 -.716E+03   0.246E-02 -.501E-01 0.308E-01
   -.191E+01 -.993E+01 0.701E+03   0.190E+01 0.996E+01 -.701E+03   0.116E-01 -.472E-01 0.679E-02
   -.103E+02 -.634E+01 0.192E+04   0.103E+02 0.635E+01 -.192E+04   0.593E-02 -.142E-01 0.338E+01
   -.748E+00 -.129E+02 0.192E+04   0.725E+00 0.130E+02 -.193E+04   0.319E-01 -.345E-01 0.339E+01
   -.554E+00 -.884E+00 0.120E+03   0.497E-13 -.298E-12 -.163E-09   0.381E+00 0.820E+00 -.121E+03

 POSITION                                       TOTAL-FORCE (eV/Angst)
     11.04866      9.45211     18.11142        -0.008930     -0.005380      0.002508
      8.25224      9.76124     18.33723        -0.001650      0.002363      0.002315
      5.53999     10.07156     18.29389        -0.004518     -0.000577      0.003467
      3.00498     10.29979     17.32920        -0.003941      0.002844     -0.001956
     12.55409     11.64423     17.93823        -0.004394     -0.005290      0.002821
      9.87590     11.90349     18.29043        -0.003071      0.001019      0.000077
      7.21098     12.24799     18.41894        -0.005859      0.000542      0.002440
      4.71620     12.44477     17.32128        -0.004409     -0.000481     -0.000747
     11.91954      6.94970     18.17349        -0.002042     -0.002362     -0.000077
      9.28722      7.30618     18.17861        -0.006195     -0.003059     -0.000375
      6.64187      7.55502     18.18566        -0.004634      0.002026      0.002509
      3.98486      7.87250     17.83892        -0.007694     -0.001582      0.006544
     13.98486     13.83548     17.38071         0.003190     -0.005219      0.007060
     11.41517     14.14561     17.93935        -0.004847     -0.003485     -0.001706
      8.85440     14.46410     18.32765        -0.004914     -0.000921     -0.000235
      6.47375     14.50859     17.18086        -0.001996     -0.000344     -0.001119
     12.45693      4.60004     17.09405        -0.001400      0.004374      0.003272
     10.16301      4.75007     18.32346        -0.004270      0.000335     -0.004727
      7.60036      5.04915     17.92783        -0.005578     -0.002663      0.000734
      4.94928      5.41759     17.67484        -0.005578     -0.003121      0.001271
      0.00001      0.00034     12.86147         0.001224      0.000261      0.000711
      2.11421      2.11412     12.86236        -0.001079     -0.000142     -0.000288
      0.00021      2.11363     14.92801        -0.000348      0.000790     -0.009649
      2.11327      0.00089     14.92787        -0.001521     -0.001699     -0.008886
      0.00048      4.22751     12.86203        -0.000017     -0.001504      0.000630
      2.11712      6.34108     12.86427         0.000132     -0.001748     -0.001211
     21.13724      6.34015     14.92985        -0.002895     -0.003079     -0.007979
      2.11119      4.22681     14.93273        -0.001012     -0.001267     -0.006334
      0.00052      8.45447     12.86320        -0.001380     -0.000593     -0.001501
      2.11255     10.56699     12.85617        -0.000735     -0.001020     -0.003398
     21.08395     10.56621     14.93421        -0.003962      0.000601     -0.006526
      2.10896      8.43248     14.95904         0.000443     -0.004172     -0.004587
     21.13455     12.68366     12.85968        -0.001961      0.000283      0.000164
      2.10963     14.79944     12.85837        -0.001143      0.001613     -0.000510
     21.13202     14.80261     14.92782        -0.001988      0.000599     -0.007381
      2.05774     12.69729     14.93820        -0.004476      0.002163     -0.005128
     21.13775     16.91226     12.86079        -0.001026      0.001292      0.000459
      2.11327     19.02658     12.86083        -0.000618      0.001709      0.000767
     21.13778     19.02632     14.92753         0.000559      0.000024     -0.008665
      2.10442     16.92170     14.92726        -0.001023      0.001801     -0.007887
      4.22772      0.00115     12.86165        -0.001449     -0.000171     -0.000414
      6.34156      2.11720     12.86412        -0.000101     -0.000067      0.001190
      4.22808      2.11056     14.93082         0.000828     -0.000300     -0.006994
      6.34141      0.00200     14.92857         0.000705      0.001541     -0.006836
      4.23103      4.23040     12.86237         0.000095     -0.000012     -0.000727
      6.34326      6.34170     12.86546        -0.000419     -0.000550      0.000734
      4.23228      6.34347     14.98208        -0.000150     -0.000507     -0.003345
      6.34544      4.22948     14.97768         0.000067     -0.000983     -0.003778
      4.23099      8.44834     12.86063         0.000601     -0.001153      0.000500
      6.35211     10.56023     12.85754         0.001095     -0.000940      0.000825
      4.28791     10.55011     14.92702         0.005634     -0.004002     -0.002429
      6.35349      8.44732     14.97205         0.001567     -0.000169     -0.002665
      4.22738     12.68586     12.85387         0.001002     -0.000456     -0.003848
      6.34468     14.80031     12.85193         0.000349      0.000263     -0.004126
      4.16871     14.85363     14.92815        -0.003237      0.003924     -0.004951
      6.40661     12.62516     14.93223         0.005292     -0.005258     -0.001922
      4.22710     16.91590     12.85814        -0.000560      0.001677     -0.000338
      6.34199     19.02936     12.85745         0.000066      0.000393     -0.000403
      4.22344     19.03072     14.92738        -0.001649      0.000239     -0.008228
      6.34369     16.97352     14.92520        -0.000375      0.003737     -0.005987
[...]
     19.02497      6.34166     10.77222         0.007395      0.009574     -0.112549
     16.91108      6.34166      8.65833         0.004778     -0.002433     -0.352957
     19.02497      4.22777      8.65833        -0.001464      0.003086     -0.353813
     16.91108      8.45554     10.77222         0.024879     -0.003114     -0.120625
     19.02497     10.56943     10.77222         0.046917      0.013213     -0.100683
     16.91108     10.56943      8.65833         0.018674      0.004761     -0.354459
     19.02497      8.45554      8.65833         0.012274      0.009469     -0.351385
     16.91108     12.68331     10.77222         0.031554      0.016801     -0.116538
     19.02497     14.79720     10.77222         0.006821     -0.009731     -0.093435
     16.91108     14.79720      8.65833         0.012847      0.001132     -0.350999
     19.02497     12.68331      8.65833         0.020871      0.002058     -0.345800
     16.91108     16.91108     10.77222         0.000897     -0.014986     -0.103144
     19.02497     19.02497     10.77222         0.003823     -0.013932     -0.117367
     16.91108     19.02497      8.65833         0.002099     -0.003822     -0.354039
     19.02497     16.91108      8.65833         0.009286     -0.009436     -0.351439
    total drift:                               -0.173006     -0.063876     -0.299572

  FREE ENERGIE OF THE ION-ELECTRON SYSTEM (eV)
  free  energy   TOTEN  =     -4182.13241579 eV

  energy  without entropy=    -4182.13241579  energy(sigma->0) =    -4182.13241579