 vasp.6.4.0 14Feb23 (build Jul 14 2023 13:46:40) complex

 executed on             LinuxIFC date 2023.07.30  08:17:23

 INCAR:
   SYSTEM = MgO-rocksalt
   ISMEAR = 0
   SIGMA = 0.05
   EDIFF = 1E-6
   ALGO = ALL
   ISTART = 0
   IBRION = -1
   NSW = 0
   ISYM = 2
   DIPOL = 0.5 0.5 0.5
   IDIPOL = 3
   LDIPOL = .TRUE.
   METAGGA = R2SCAN
   LUSE_VDW = .TRUE.
   BPARAM = 11.95
   CPARAM = 0.0093
   ENCUT = 520
   PREC = Accurate
   LASPH = .TRUE.
   LREAL = Auto
   ISPIN = 1
   NELM = 200
   NELMIN = 8
   NCORE = 16
   KPAR = 1
   LWAVE = .FALSE.
   LCHARG = .FALSE.

 POTCAR:    PAW_PBE Au 04Oct2007
 POTCAR:    PAW_PBE Mg_pv 13Apr2007
 POTCAR:    PAW_PBE O 08Apr2002
|               ----> ADVICE to this user running VASP <----                  |
|     You have switched on vdW-DFT.                                           |
|     This routine was written and supplied by Jiri Klimes. We recommend      |
|     that you carefully read and cite the following publications:            |
|       J. Klimes, D.R. Bowler, A. Michelides                                 |
|          J. Phys.: Cond Matt. 22 022201 (2010)                              |
|       J. Klimes, D.R. Bowler, A. Michelides                                 |
|          Phys. Rev. B. 83, 195131 (2011)                                    |
|     and references therein.                                                 |

   TITEL  = PAW_PBE Au 04Oct2007
   POMASS =  196.966; ZVAL   =   11.000    mass and valenz
   ENMAX  =  229.943; ENMIN  =  172.457 eV

   TITEL  = PAW_PBE Mg_pv 13Apr2007
   POMASS =   24.305; ZVAL   =    8.000    mass and valenz
   ENMAX  =  403.929; ENMIN  =  302.947 eV

   TITEL  = PAW_PBE O 08Apr2002
   POMASS =   16.000; ZVAL   =    6.000    mass and valenz
   ENMAX  =  400.000; ENMIN  =  300.000 eV

 Optimization of the real space projectors (new method)

 maximal supplied QI-value         = 15.12
 optimisation between [QCUT,QGAM] = [ 11.64, 23.28] = [ 37.95,151.78] Ry
 Optimized for a Real-space Cutoff    1.49 Angstroem

   l    n(q)    QCUT    max X(q) W(low)/X(q) W(high)/X(q)  e(spline)
   2      9    11.641    60.898    0.24E-03    0.10E-03    0.19E-06
   2      9    11.641    58.894    0.25E-03    0.10E-03    0.19E-06
   0     10    11.641   109.617    0.73E-04    0.33E-04    0.11E-06
   0     10    11.641    75.026    0.71E-04    0.32E-04    0.11E-06
   1     10    11.641    16.344    0.27E-04    0.97E-04    0.16E-06
   1     10    11.641    10.160    0.23E-04    0.77E-04    0.13E-06
 Optimization of the real space projectors (new method)

[...]

   l    n(q)    QCUT    max X(q) W(low)/X(q) W(high)/X(q)  e(spline)
   1      8    11.527     2.974    0.44E-04    0.56E-04    0.12E-06
   1      8    11.527     4.279    0.12E-03    0.12E-03    0.26E-06
   0      9    11.527    16.381    0.46E-04    0.64E-04    0.78E-07
   0      9    11.527     5.611    0.26E-04    0.43E-04    0.55E-07
   2      8    11.527     4.652    0.22E-03    0.72E-04    0.47E-07
 Optimization of the real space projectors (new method)

 maximal supplied QI-value         = 24.76
 optimisation between [QCUT,QGAM] = [ 11.64, 23.27] = [ 37.91,151.63] Ry
 Optimized for a Real-space Cutoff    1.14 Angstroem

   l    n(q)    QCUT    max X(q) W(low)/X(q) W(high)/X(q)  e(spline)
   0      8    11.635    20.381    0.10E-03    0.33E-03    0.24E-06
   0      8    11.635    15.268    0.11E-03    0.35E-03    0.26E-06
   1      7    11.635     5.964    0.24E-03    0.31E-03    0.30E-06
   1      7    11.635     5.382    0.22E-03    0.25E-03    0.26E-06
  PAW_PBE Au 04Oct2007                  :
  PAW_PBE Mg_pv 13Apr2007               :
  PAW_PBE O 08Apr2002                   :

 POSCAR: Au Mg  O
  positions in direct lattice
  velocities in cartesian coordinates

 METAGGA = R2SCAN                                      LMAXTAU =  6    LMIXTAU =  F

 ion  position               nearest neighbor table
   1  0.404  0.596  0.665-   2 2.57   4 2.74
   2  0.332  0.668  0.602- 138 2.40   1 2.57  59 2.71  40 2.71
   3  0.568  0.432  0.602- 173 2.40   4 2.57  75 2.71  56 2.71
   4  0.496  0.504  0.665-   3 2.57   1 2.74
   5  0.000  0.000  0.407- 107 2.11 108 2.11 123 2.11 188 2.11 105 2.11
   6  0.100  0.100  0.407- 107 2.11 108 2.11 112 2.11 127 2.11 106 2.11
   7  0.000  0.100  0.503- 105 2.11 106 2.11 109 2.11 186 2.11 107 2.11
   8  0.100  0.000  0.503- 105 2.11 106 2.11 122 2.11 125 2.11 108 2.11
   9  0.000  0.200  0.407- 111 2.11 107 2.11 112 2.11 192 2.11 109 2.11
  10  0.100  0.300  0.407- 112 2.11 111 2.11 116 2.11 131 2.11 110 2.11
  11  0.000  0.300  0.503- 109 2.11 110 2.11 113 2.11 190 2.11 111 2.11
  12  0.100  0.200  0.503- 110 2.11 109 2.11 106 2.11 129 2.11 112 2.11
  13  0.000  0.400  0.407- 111 2.11 115 2.11 116 2.11 196 2.11 113 2.11
  14  0.100  0.500  0.407- 115 2.11 116 2.11 120 2.11 135 2.11 114 2.11
  15  0.000  0.500  0.503- 113 2.11 114 2.11 117 2.11 194 2.11 115 2.11
  16  0.100  0.400  0.503- 110 2.11 113 2.11 114 2.11 133 2.11 116 2.11
  17  0.000  0.600  0.407- 115 2.11 119 2.11 120 2.11 200 2.11 117 2.11
  18  0.100  0.700  0.407- 124 2.11 120 2.11 119 2.11 139 2.11 118 2.11
  19  0.000  0.700  0.503- 121 2.11 118 2.11 117 2.11 198 2.11 119 2.11
  20  0.100  0.600  0.503- 114 2.11 117 2.11 118 2.11 137 2.11 120 2.11
  21  0.000  0.800  0.407- 119 2.11 123 2.11 124 2.11 204 2.11 121 2.11
  22  0.100  0.900  0.407- 108 2.11 123 2.11 124 2.11 143 2.11 122 2.11
  23  0.000  0.900  0.503- 105 2.11 121 2.11 122 2.11 202 2.11 123 2.11
  24  0.100  0.800  0.503- 118 2.11 121 2.11 122 2.11 141 2.11 124 2.11
  25  0.200  0.000  0.407- 128 2.11 127 2.11 108 2.11 143 2.11 125 2.11
  26  0.300  0.100  0.407- 127 2.11 128 2.11 132 2.11 147 2.11 126 2.11
  27  0.200  0.100  0.503- 126 2.11 125 2.11 106 2.11 129 2.11 127 2.11
  28  0.300  0.000  0.503- 125 2.11 126 2.11 142 2.11 145 2.11 128 2.11
  29  0.200  0.200  0.407- 131 2.11 132 2.11 112 2.11 127 2.11 129 2.11
  30  0.300  0.300  0.407- 131 2.11 132 2.11 136 2.11 151 2.11 130 2.11
  31  0.200  0.300  0.503- 129 2.11 130 2.11 110 2.11 133 2.11 131 2.11
  32  0.300  0.200  0.503- 129 2.11 130 2.11 126 2.11 149 2.11 132 2.11
  33  0.200  0.400  0.407- 136 2.11 131 2.11 135 2.11 116 2.11 133 2.11
  34  0.300  0.500  0.407- 135 2.11 136 2.11 140 2.11 155 2.11 134 2.11
  35  0.200  0.500  0.503- 134 2.11 133 2.11 114 2.11 137 2.11 135 2.11
  36  0.300  0.400  0.503- 133 2.11 130 2.11 134 2.11 153 2.11 136 2.11
  37  0.200  0.600  0.407- 140 2.11 135 2.11 139 2.11 120 2.11 137 2.11
  38  0.300  0.700  0.407- 139 2.11 144 2.11 140 2.11 159 2.11 138 2.11
  39  0.200  0.700  0.503- 138 2.11 141 2.11 118 2.11 137 2.11 139 2.11
  40  0.300  0.600  0.503- 137 2.11 134 2.11 138 2.11 157 2.11 140 2.11   2 2.71
  41  0.200  0.800  0.407- 139 2.11 144 2.11 143 2.11 124 2.11 141 2.11
  42  0.300  0.900  0.407- 143 2.11 128 2.11 144 2.11 163 2.11 142 2.11
  43  0.200  0.900  0.503- 142 2.11 125 2.11 141 2.11 122 2.11 143 2.11
  44  0.300  0.800  0.503- 138 2.11 141 2.11 142 2.11 161 2.11 144 2.11
  45  0.400  0.000  0.407- 128 2.11 147 2.11 148 2.11 163 2.11 145 2.11
  46  0.500  0.100  0.407- 147 2.11 148 2.11 152 2.11 167 2.11 146 2.11
  47  0.400  0.100  0.503- 126 2.11 145 2.11 146 2.11 149 2.11 147 2.11
  48  0.500  0.000  0.503- 145 2.11 146 2.11 162 2.11 165 2.11 148 2.11
  49  0.400  0.200  0.407- 151 2.11 147 2.11 132 2.11 152 2.11 149 2.11
  50  0.500  0.300  0.407- 152 2.11 151 2.11 156 2.11 171 2.11 150 2.11
  51  0.400  0.300  0.503- 149 2.11 130 2.11 150 2.11 153 2.11 151 2.11
  52  0.500  0.200  0.503- 150 2.11 149 2.11 146 2.11 169 2.11 152 2.11
  53  0.400  0.400  0.407- 136 2.11 151 2.11 155 2.11 156 2.11 153 2.11
  54  0.500  0.500  0.407- 155 2.11 156 2.11 160 2.11 175 2.11 154 2.11
  55  0.400  0.500  0.503- 134 2.11 153 2.11 154 2.11 157 2.11 155 2.11
  56  0.500  0.400  0.503- 150 2.11 153 2.11 154 2.11 173 2.11 156 2.11   3 2.71
  57  0.400  0.600  0.407- 140 2.11 155 2.11 159 2.11 160 2.11 157 2.11
  58  0.500  0.700  0.407- 164 2.11 160 2.11 159 2.11 179 2.11 158 2.11
  59  0.400  0.700  0.503- 161 2.11 157 2.11 158 2.11 138 2.11 159 2.11   2 2.71
  60  0.500  0.600  0.503- 154 2.11 157 2.11 158 2.11 177 2.11 160 2.11
[...]
 190  0.900  0.300  0.503-  92 2.11  91 2.11  11 2.11  96 2.11  90 2.11
 191  0.800  0.300  0.407-  70 2.11  89 2.11  90 2.11  93 2.11  91 2.11
 192  0.900  0.200  0.407-  90 2.11  86 2.11  89 2.11   9 2.11  92 2.11
 193  0.800  0.400  0.503-  76 2.11  91 2.11  95 2.11  96 2.11  93 2.11
 194  0.900  0.500  0.503-  15 2.11  95 2.11  96 2.11 100 2.11  94 2.11
 195  0.800  0.500  0.407-  74 2.11  93 2.11  94 2.11  97 2.11  95 2.11
 196  0.900  0.400  0.407-  13 2.11  90 2.11  93 2.11  94 2.11  96 2.11
 197  0.800  0.600  0.503-  80 2.11  95 2.11  99 2.11 100 2.11  97 2.11
 198  0.900  0.700  0.503- 104 2.11  99 2.11 100 2.11  19 2.11  98 2.11
 199  0.800  0.700  0.407-  78 2.11 101 2.11  98 2.11  97 2.11  99 2.11
 200  0.900  0.600  0.407-  17 2.11  94 2.11  97 2.11  98 2.11 100 2.11
 201  0.800  0.800  0.503-  84 2.11  99 2.11 103 2.11 104 2.11 101 2.11
 202  0.900  0.900  0.503-  23 2.11  88 2.11 103 2.11 104 2.11 102 2.11
 203  0.800  0.900  0.407-  82 2.11  85 2.11 101 2.11 102 2.11 103 2.11
 204  0.900  0.800  0.407-  98 2.11  21 2.11 101 2.11 102 2.11 104 2.11

  LATTYP: Found a simple tetragonal cell.
 ALAT       =    21.1388521970
 C/A-ratio  =     1.0461251639

  Lattice vectors:

 A1 = (  21.1388521970,   0.0000000000,   0.0000000000)
 A2 = (   0.0000000000,  21.1388521970,   0.0000000000)
 A3 = (   0.0000000000,   0.0000000000,  22.1138852197)

Analysis of symmetry for initial positions (statically):
 Subroutine PRICEL returns:
 Original cell was already a primitive cell.

 Routine SETGRP: Setting up the symmetry group for a
 simple tetragonal supercell.

 Subroutine GETGRP returns: Found  2 space group operations
 (whereof  1 operations were pure point group operations)
 out of a pool of 16 trial point group operations.

The static configuration has the point symmetry C_1 .
 The point group associated with its full space group is C_1h.

Analysis of symmetry for dynamics (positions and initial velocities):
 Subroutine PRICEL returns:
 Original cell was already a primitive cell.

[...]

The dynamic configuration has the point symmetry C_1 .
 The point group associated with its full space group is C_1h.

Analysis of constrained symmetry for selective dynamics:
 Subroutine PRICEL returns:
 Original cell was already a primitive cell.

 Routine SETGRP: Setting up the symmetry group for a
 simple tetragonal supercell.

 Subroutine GETGRP returns: Found  2 space group operations
 (whereof  1 operations were pure point group operations)
 out of a pool of 16 trial point group operations.

The constrained configuration has the point symmetry C_1 .
 The point group associated with its full space group is C_1h.

 Subroutine INISYM returns: Found  2 space group operations
 (whereof  1 operations are pure point group operations),
 and found     1 'primitive' translations

                                     Primitive cell

  volume of cell :    9881.6133

  direct lattice vectors                    reciprocal lattice vectors
[...]
     52     -44.4500      2.00000
     53     -44.4445      2.00000
     54     -44.4413      2.00000
     55     -44.4412      2.00000
     56     -44.4411      2.00000
     57     -44.4410      2.00000
     58     -44.4408      2.00000
     59     -44.4401      2.00000
     60     -44.4400      2.00000
[...]
    882       5.0328      0.00000
    883       5.0348      0.00000
    884       5.0806      0.00000
    885       5.2619      0.00000
    886       5.3042      0.00000
    887       5.3162      0.00000
    888       5.3335      0.00000
    889       5.6247      0.00000
    890       5.7705      0.00000
    891       5.8723      0.00000
    892       5.8872      0.00000
    893       5.9580      0.00000
    894       5.9975      0.00000
    895       6.0375      0.00000
    896       6.0699      0.00000

 soft charge-density along one line, spin component           1
         0         1         2         3         4         5         6         7         8         9
 total charge-density along one line

------------------------ aborting loop because EDIFF is reached ----------------------------------------

  FORCE on cell =-STRESS in cart. coord.  units (eV):
  Direction    XX          YY          ZZ          XY          YZ          ZX
  Alpha Z  1417.83424  1417.83424  1417.83424
  Ewald  482423.15860482423.15974************ -1155.82133    -0.02915    -0.03097
  Hartree511744.14561511744.14602************  -910.30155    -0.01300    -0.01357
  E(xc)   -8480.43121 -8480.43121 -8471.58446    -0.44860     0.00013     0.00014
  Local  ************************************  2048.53616     0.04094     0.04311
  n-local -8691.15548 -8691.15536 -8813.88870    12.24481    -0.00306    -0.00335
  augment  3967.31344  3967.31344  3909.77187     1.38066     0.00144     0.00146
  Kinetic 23351.02488 23351.02481 23571.89727     6.63768    -0.00031    -0.00014
  Fock        0.00000     0.00000     0.00000     0.00000     0.00000     0.00000
  Total    -231.22706  -231.22706   -20.89007     2.22783    -0.00317    -0.00317
  in kB     -37.49051   -37.49051    -3.38706     0.36121    -0.00051    -0.00051

 VOLUME and BASIS-vectors are now :
  energy-cutoff  :      520.00
  volume of cell :     9881.61
      direct lattice vectors                 reciprocal lattice vectors
    21.138852197  0.000000000  0.000000000     0.047306258  0.000000000  0.000000000
     0.000000000 21.138852197  0.000000000     0.000000000  0.047306258  0.000000000
     0.000000000  0.000000000 22.113885220     0.000000000  0.000000000  0.045220457

  length of vectors
    21.138852197 21.138852197 22.113885220     0.047306258  0.047306258  0.045220457

 FORCES acting on ions:
    Electron-Ion                     Ewald-Force                    Non-Local-Force
   0.487E+02 -.487E+02 -.197E+04   -.510E+02 0.510E+02 0.197E+04   0.228E+01 -.228E+01 0.289E+01
   0.221E+03 -.221E+03 -.203E+04   -.218E+03 0.218E+03 0.203E+04   -.275E+01 0.274E+01 -.247E+01
   -.221E+03 0.221E+03 -.203E+04   0.218E+03 -.218E+03 0.203E+04   0.274E+01 -.275E+01 -.247E+01
   -.487E+02 0.487E+02 -.197E+04   0.510E+02 -.510E+02 0.197E+04   -.228E+01 0.228E+01 0.289E+01
   0.457E+01 -.457E+01 0.937E+03   -.461E+01 0.461E+01 -.929E+03   0.310E-01 -.310E-01 -.752E+01
   0.896E+01 0.203E+01 0.939E+03   -.895E+01 -.195E+01 -.930E+03   -.445E-02 -.580E-01 -.753E+01
   0.331E+01 0.331E+01 -.919E+03   -.328E+01 -.328E+01 0.911E+03   -.206E-01 -.206E-01 0.749E+01
   0.139E+02 -.104E+02 -.916E+03   -.139E+02 0.105E+02 0.908E+03   0.258E-01 -.990E-01 0.749E+01
   0.202E+01 0.896E+01 0.939E+03   -.195E+01 -.895E+01 -.930E+03   -.580E-01 -.445E-02 -.753E+01
   0.143E+02 0.155E+02 0.944E+03   -.142E+02 -.155E+02 -.936E+03   -.526E-01 0.151E-03 -.754E+01
   0.314E+01 0.155E+02 -.915E+03   -.302E+01 -.155E+02 0.907E+03   -.929E-01 -.160E-02 0.749E+01
   0.132E+02 0.132E+02 -.916E+03   -.132E+02 -.132E+02 0.908E+03   -.423E-01 -.423E-01 0.749E+01
   0.487E+01 0.110E+02 0.945E+03   -.477E+01 -.110E+02 -.937E+03   -.799E-01 0.192E-01 -.754E+01
   0.281E+02 0.111E+02 0.957E+03   -.281E+02 -.113E+02 -.949E+03   -.339E-02 0.122E+00 -.755E+01
   0.128E+02 0.788E+01 -.909E+03   -.128E+02 -.792E+01 0.901E+03   -.313E-01 0.271E-01 0.747E+01
   0.306E+02 0.233E+02 -.906E+03   -.304E+02 -.233E+02 0.898E+03   -.109E+00 0.419E-01 0.747E+01
   0.121E+02 -.242E+01 0.949E+03   -.122E+02 0.238E+01 -.941E+03   0.835E-01 0.327E-01 -.754E+01
   0.318E+02 -.129E+02 0.960E+03   -.323E+02 0.128E+02 -.952E+03   0.401E+00 0.484E-01 -.759E+01
   0.203E+02 -.128E+02 -.909E+03   -.205E+02 0.128E+02 0.901E+03   0.150E+00 0.209E-01 0.748E+01
   0.581E+02 0.284E+01 -.893E+03   -.583E+02 -.301E+01 0.885E+03   0.154E+00 0.129E+00 0.745E+01
   0.108E+02 -.130E+02 0.944E+03   -.110E+02 0.130E+02 -.936E+03   0.153E+00 -.167E-01 -.754E+01
   0.158E+02 -.158E+02 0.945E+03   -.159E+02 0.159E+02 -.937E+03   0.112E+00 -.112E+00 -.752E+01
   0.104E+02 -.139E+02 -.916E+03   -.105E+02 0.139E+02 0.908E+03   0.990E-01 -.258E-01 0.749E+01
   0.387E+02 -.287E+02 -.903E+03   -.391E+02 0.288E+02 0.896E+03   0.346E+00 -.295E-01 0.748E+01
   0.130E+02 -.109E+02 0.944E+03   -.130E+02 0.110E+02 -.936E+03   0.167E-01 -.153E+00 -.754E+01
   0.110E+02 0.487E+01 0.945E+03   -.110E+02 -.477E+01 -.937E+03   0.192E-01 -.799E-01 -.754E+01
   0.155E+02 0.314E+01 -.915E+03   -.155E+02 -.302E+01 0.907E+03   -.160E-02 -.929E-01 0.749E+01
   0.128E+02 -.203E+02 -.909E+03   -.128E+02 0.205E+02 0.901E+03   -.209E-01 -.150E+00 0.748E+01
   0.155E+02 0.143E+02 0.944E+03   -.155E+02 -.142E+02 -.936E+03   0.151E-03 -.526E-01 -.754E+01
   0.252E+02 0.322E+02 0.964E+03   -.253E+02 -.321E+02 -.955E+03   0.775E-01 -.407E-01 -.760E+01
   0.329E+02 0.329E+02 -.904E+03   -.328E+02 -.328E+02 0.897E+03   -.628E-01 -.628E-01 0.746E+01
   0.233E+02 0.306E+02 -.906E+03   -.233E+02 -.304E+02 0.898E+03   0.419E-01 -.109E+00 0.747E+01
   0.322E+02 0.252E+02 0.964E+03   -.321E+02 -.253E+02 -.955E+03   -.407E-01 0.775E-01 -.760E+01
   0.426E+02 0.277E+02 0.101E+04   -.426E+02 -.282E+02 -.100E+04   -.605E-02 0.357E+00 -.786E+01
   0.792E+02 0.416E+02 -.869E+03   -.788E+02 -.419E+02 0.862E+03   -.265E+00 0.295E+00 0.735E+01
   0.671E+02 0.671E+02 -.862E+03   -.669E+02 -.669E+02 0.854E+03   -.143E+00 -.143E+00 0.733E+01
   0.499E+02 0.287E+01 0.992E+03   -.501E+02 -.338E+01 -.984E+03   0.146E+00 0.381E+00 -.753E+01
   0.342E+02 -.342E+02 0.102E+04   -.339E+02 0.339E+02 -.102E+04   -.202E+00 0.202E+00 -.507E+01
   0.109E+03 -.430E+02 -.840E+03   -.112E+03 0.427E+02 0.832E+03   0.189E+01 0.215E+00 0.751E+01
   0.120E+03 0.624E+02 -.698E+03   -.120E+03 -.655E+02 0.692E+03   -.434E+00 0.209E+01 0.559E+01
   0.312E+02 -.312E+02 0.970E+03   -.315E+02 0.315E+02 -.962E+03   0.253E+00 -.253E+00 -.741E+01
   0.129E+02 -.318E+02 0.960E+03   -.128E+02 0.323E+02 -.952E+03   -.484E-01 -.401E+00 -.759E+01
   0.287E+02 -.387E+02 -.903E+03   -.288E+02 0.391E+02 0.896E+03   0.294E-01 -.346E+00 0.748E+01
   0.431E+02 -.109E+03 -.840E+03   -.428E+02 0.112E+03 0.832E+03   -.216E+00 -.189E+01 0.751E+01
   0.242E+01 -.121E+02 0.949E+03   -.238E+01 0.122E+02 -.941E+03   -.328E-01 -.834E-01 -.754E+01
   -.242E+01 0.121E+02 0.949E+03   0.238E+01 -.122E+02 -.941E+03   0.327E-01 0.835E-01 -.754E+01
   0.788E+01 0.128E+02 -.909E+03   -.792E+01 -.128E+02 0.901E+03   0.271E-01 -.313E-01 0.747E+01
   -.788E+01 -.129E+02 -.909E+03   0.792E+01 0.128E+02 0.901E+03   -.271E-01 0.314E-01 0.747E+01
   0.111E+02 0.281E+02 0.957E+03   -.113E+02 -.281E+02 -.949E+03   0.122E+00 -.339E-02 -.755E+01
   0.287E+01 0.499E+02 0.992E+03   -.338E+01 -.501E+02 -.984E+03   0.381E+00 0.146E+00 -.753E+01
   0.416E+02 0.792E+02 -.869E+03   -.419E+02 -.788E+02 0.862E+03   0.295E+00 -.265E+00 0.735E+01
   0.284E+01 0.581E+02 -.893E+03   -.301E+01 -.583E+02 0.885E+03   0.129E+00 0.154E+00 0.745E+01
   0.277E+02 0.426E+02 0.101E+04   -.282E+02 -.426E+02 -.100E+04   0.357E+00 -.605E-02 -.786E+01
   -.767E+01 0.770E+01 0.105E+04   0.734E+01 -.737E+01 -.104E+04   0.248E+00 -.248E+00 -.784E+01
   0.666E+02 0.666E+02 -.736E+03   -.667E+02 -.667E+02 0.730E+03   0.114E+00 0.114E+00 0.675E+01
   0.624E+02 0.120E+03 -.698E+03   -.655E+02 -.120E+03 0.692E+03   0.209E+01 -.434E+00 0.559E+01
   0.769E+01 -.767E+01 0.105E+04   -.737E+01 0.734E+01 -.104E+04   -.248E+00 0.248E+00 -.784E+01
   -.277E+02 -.426E+02 0.101E+04   0.282E+02 0.426E+02 -.100E+04   -.357E+00 0.601E-02 -.786E+01
   -.624E+02 -.120E+03 -.698E+03   0.655E+02 0.120E+03 0.692E+03   -.209E+01 0.434E+00 0.558E+01
   -.665E+02 -.665E+02 -.736E+03   0.667E+02 0.667E+02 0.730E+03   -.114E+00 -.114E+00 0.675E+01
[...]
   -.181E+02 0.142E+02 0.716E+03   0.182E+02 -.143E+02 -.720E+03   -.258E+00 0.113E+00 0.346E+01
   -.563E+01 0.799E+01 0.707E+03   0.569E+01 -.802E+01 -.710E+03   -.914E-01 0.469E-01 0.343E+01
   -.422E+02 0.143E+02 -.672E+03   0.424E+02 -.143E+02 0.676E+03   -.287E+00 -.966E-01 -.366E+01
   -.142E+02 0.197E+01 -.683E+03   0.143E+02 -.193E+01 0.687E+03   -.595E-01 -.500E-01 -.361E+01
   -.251E+02 -.489E-02 0.723E+03   0.252E+02 0.151E+00 -.727E+03   -.166E+00 -.192E+00 0.341E+01
   -.984E+01 0.738E+01 0.712E+03   0.992E+01 -.736E+01 -.716E+03   -.129E+00 -.159E-01 0.342E+01
   -.339E+02 -.138E+02 -.676E+03   0.339E+02 0.139E+02 0.680E+03   -.350E-02 -.147E+00 -.365E+01
   -.496E+01 -.108E+02 -.685E+03   0.491E+01 0.108E+02 0.689E+03   0.674E-01 -.117E-01 -.359E+01
   -.155E+02 -.121E+02 0.715E+03   0.154E+02 0.122E+02 -.718E+03   0.469E-01 -.444E-01 0.340E+01
   -.646E+01 -.420E+01 0.713E+03   0.645E+01 0.424E+01 -.716E+03   0.831E-02 -.395E-01 0.341E+01
   -.147E+02 -.156E+02 -.686E+03   0.147E+02 0.156E+02 0.690E+03   0.705E-01 0.255E-01 -.359E+01
   -.171E+01 -.840E+01 -.690E+03   0.166E+01 0.840E+01 0.694E+03   0.567E-01 0.720E-02 -.357E+01
   -.770E+01 -.769E+01 0.707E+03   0.767E+01 0.767E+01 -.711E+03   0.313E-01 0.313E-01 0.342E+01
   -.194E+01 -.909E+01 0.708E+03   0.188E+01 0.910E+01 -.712E+03   0.743E-01 -.642E-02 0.342E+01
   -.727E+00 0.725E+00 0.161E+02   0.343E-11 -.405E-12 -.110E-10   0.266E-02 0.266E-02 -.133E+02

 POSITION                                       TOTAL-FORCE (eV/Angst)
      8.54545     12.59441     14.71338        -0.062134      0.063020     -0.163622
      7.02105     14.11881     13.31306         0.123546     -0.124288     -0.049824
     12.00492      9.13494     13.31306        -0.124288      0.123546     -0.049824
     10.48052     10.65934     14.71338         0.063020     -0.062134     -0.163622
      0.00000      0.00000      9.00000        -0.008874      0.008838      0.526190
      2.11389      2.11389      9.00000         0.001158      0.015937      0.528000
      0.00000      2.11389     11.11389         0.005667      0.005667     -0.468274
      2.11389      0.00000     11.11389        -0.007700      0.027260     -0.465973
      0.00000      4.22777      9.00000         0.015937      0.001158      0.528000
      2.11389      6.34166      9.00000         0.014682      0.000571      0.532490
      0.00000      6.34166     11.11389         0.025485      0.000758     -0.464623
      2.11389      4.22777     11.11389         0.012092      0.012092     -0.465599
      0.00000      8.45554      9.00000         0.021272     -0.005241      0.530156
      2.11389     10.56943      9.00000        -0.001163     -0.034939      0.533576
      0.00000     10.56943     11.11389         0.008778     -0.007623     -0.457849
      2.11389      8.45554     11.11389         0.030678     -0.009983     -0.453857
      0.00000     12.68331      9.00000        -0.022855     -0.010023      0.531111
      2.11389     14.79720      9.00000        -0.103589     -0.014589      0.535543
      0.00000     14.79720     11.11389        -0.039573     -0.006593     -0.458859
      2.11389     12.68331     11.11389        -0.041532     -0.039309     -0.436539
      0.00000     16.91108      9.00000        -0.041676      0.005167      0.528310
      2.11389     19.02497      9.00000        -0.033038      0.033037      0.521417
      0.00000     19.02497     11.11389        -0.027283      0.007696     -0.465955
      2.11389     16.91108     11.11389        -0.093818      0.009985     -0.454195
      4.22777      0.00000      9.00000        -0.005184      0.041647      0.528309
      6.34166      2.11389      9.00000        -0.005241      0.021272      0.530156
      4.22777      2.11389     11.11389         0.000758      0.025485     -0.464623
      6.34166      0.00000     11.11389         0.006570      0.039528     -0.458865
      4.22777      4.22777      9.00000         0.000571      0.014682      0.532490
      6.34166      6.34166      9.00000        -0.018914      0.012419      0.549482
      4.22777      6.34166     11.11389         0.019366      0.019366     -0.451713
      6.34166      4.22777     11.11389        -0.009983      0.030678     -0.453857
      4.22777      8.45554      9.00000         0.012419     -0.018914      0.549482
      6.34166     10.56943      9.00000         0.005584     -0.089266      0.606355
      4.22777     10.56943     11.11389         0.085657     -0.070101     -0.386944
      6.34166      8.45554     11.11389         0.049423      0.049423     -0.380551
      4.22777     12.68331      9.00000        -0.054192     -0.123676      0.506642
      6.34166     14.79720      9.00000         0.068838     -0.068732     -0.060958
      4.22777     14.79720     11.11389        -0.590868     -0.074165     -0.426165
      6.34166     12.68331     11.11389         0.010690     -0.970725     -0.451514
      4.22777     16.91108      9.00000        -0.086839      0.086839      0.477001
      6.34166     19.02497      9.00000         0.014615      0.103534      0.535560
      4.22777     19.02497     11.11389        -0.009978      0.093790     -0.454179
      6.34166     16.91108     11.11389         0.074221      0.590868     -0.426179
      8.45554      0.00000      9.00000         0.010006      0.022808      0.531148
     10.56943      2.11389      9.00000        -0.010023     -0.022855      0.531111
      8.45554      2.11389     11.11389        -0.007623      0.008778     -0.457849
     10.56943      0.00000     11.11389         0.007630     -0.008863     -0.457865
      8.45554      4.22777      9.00000        -0.034939     -0.001163      0.533576
     10.56943      6.34166      9.00000        -0.123676     -0.054192      0.506642
      8.45554      6.34166     11.11389        -0.070101      0.085657     -0.386944
     10.56943      4.22777     11.11389        -0.039309     -0.041532     -0.436539
      8.45554      8.45554      9.00000        -0.089266      0.005584      0.606355
     10.56943     10.56943      9.00000        -0.080240      0.080292      0.561185
      8.45554     10.56943     11.11389        -0.014534     -0.014534     -0.063023
     10.56943      8.45554     11.11389        -0.970725      0.010690     -0.451514
      8.45554     12.68331      9.00000         0.080292     -0.080240      0.561185
     10.56943     14.79720      9.00000         0.089272     -0.005601      0.606423
      8.45554     14.79720     11.11389         0.971703     -0.010355     -0.452555
     10.56943     12.68331     11.11389         0.014643      0.014643     -0.062754
[...]
     19.02497      6.34166     11.11389        -0.035939      0.004961      0.298521
     16.91108      6.34166      9.00000        -0.071329      0.030674     -0.354109
     19.02497      4.22777      9.00000        -0.025279      0.012907     -0.361273
     16.91108      8.45554     11.11389        -0.082641     -0.026412      0.281980
     19.02497     10.56943     11.11389        -0.016730     -0.013928      0.292532
     16.91108     10.56943      9.00000        -0.045621     -0.052401     -0.367238
     19.02497      8.45554      9.00000        -0.035910     -0.004521     -0.363538
     16.91108     12.68331     11.11389        -0.001658     -0.041224      0.281244
     19.02497     14.79720     11.11389         0.018740     -0.003125      0.296872
     16.91108     14.79720      9.00000         0.013026     -0.012301     -0.370811
     19.02497     12.68331      9.00000         0.002372     -0.010885     -0.366680
     16.91108     16.91108     11.11389         0.019475      0.007036      0.296555
     19.02497     19.02497     11.11389         0.015688      0.001973      0.303157
     16.91108     19.02497      9.00000         0.008656      0.008656     -0.364640
     19.02497     16.91108      9.00000         0.020585     -0.001747     -0.364158
    total drift:                               -0.724573      0.727936      2.795461

  FREE ENERGIE OF THE ION-ELECTRON SYSTEM (eV)
  free  energy   TOTEN  =     -1693.96448585 eV

  energy  without entropy=    -1693.96448585  energy(sigma->0) =    -1693.96448585