 vasp.6.4.1 05Apr23 (build May 06 2023 19:47:20) complex

 executed on             LinuxIFC date 2023.07.04  00:17:07

 INCAR:
   SYSTEM = MgO-rocksalt
   ISMEAR = 0
   SIGMA = 0.05
   EDIFF = 1E-6
   ALGO = ALL
   ISTART = 0
   IBRION = -1
   NSW = 0
   ISYM = 2
   DIPOL = 0.5 0.5 0.5
   IDIPOL = 3
   LDIPOL = .TRUE.
   GGA = PE
   IVDW = 11
   ENCUT = 520
   PREC = Accurate
   LASPH = .TRUE.
   LREAL = Auto
   ISPIN = 1
   NELM = 200
   NELMIN = 8
   NCORE = 16
   KPAR = 1
   LWAVE = .FALSE.
   LCHARG = .FALSE.

 POTCAR:    PAW_PBE Ag 02Apr2005
 POTCAR:    PAW_PBE Mg_pv 13Apr2007
 POTCAR:    PAW_PBE O 08Apr2002
 POTCAR:    PAW_PBE Ag 02Apr2005
   VRHFIN =Ag : s1 d10

   TITEL  = PAW_PBE Ag 02Apr2005
   POMASS =  107.868; ZVAL   =   11.000    mass and valenz
   ENMAX  =  249.844; ENMIN  =  187.383 eV

   TITEL  = PAW_PBE Mg_pv 13Apr2007
   POMASS =   24.305; ZVAL   =    8.000    mass and valenz
   ENMAX  =  403.929; ENMIN  =  302.947 eV

   TITEL  = PAW_PBE O 08Apr2002
   POMASS =   16.000; ZVAL   =    6.000    mass and valenz
   ENMAX  =  400.000; ENMIN  =  300.000 eV

 Optimization of the real space projectors (new method)

 maximal supplied QI-value         = 15.12
 optimisation between [QCUT,QGAM] = [ 11.64, 23.28] = [ 37.95,151.78] Ry
 Optimized for a Real-space Cutoff    1.45 Angstroem

   l    n(q)    QCUT    max X(q) W(low)/X(q) W(high)/X(q)  e(spline)
   2      9    11.641    53.897    0.22E-03    0.42E-04    0.28E-06
   2      9    11.641    52.416    0.23E-03    0.44E-04    0.29E-06
   0     10    11.641   122.045    0.51E-04    0.25E-04    0.16E-06
   0     10    11.641    73.629    0.49E-04    0.24E-04    0.16E-06
   1     10    11.641    15.255    0.99E-04    0.55E-04    0.11E-06
   1     10    11.641     9.562    0.81E-04    0.47E-04    0.95E-07
 Optimization of the real space projectors (new method)

[...]

   l    n(q)    QCUT    max X(q) W(low)/X(q) W(high)/X(q)  e(spline)
   1      8    11.527     2.974    0.44E-04    0.56E-04    0.12E-06
   1      8    11.527     4.279    0.12E-03    0.12E-03    0.26E-06
   0      9    11.527    16.381    0.46E-04    0.64E-04    0.78E-07
   0      9    11.527     5.611    0.26E-04    0.43E-04    0.55E-07
   2      8    11.527     4.652    0.22E-03    0.72E-04    0.47E-07
 Optimization of the real space projectors (new method)

 maximal supplied QI-value         = 24.76
 optimisation between [QCUT,QGAM] = [ 11.64, 23.27] = [ 37.91,151.63] Ry
 Optimized for a Real-space Cutoff    1.14 Angstroem

   l    n(q)    QCUT    max X(q) W(low)/X(q) W(high)/X(q)  e(spline)
   0      8    11.635    20.381    0.10E-03    0.33E-03    0.24E-06
   0      8    11.635    15.268    0.11E-03    0.35E-03    0.26E-06
   1      7    11.635     5.964    0.24E-03    0.31E-03    0.30E-06
   1      7    11.635     5.382    0.22E-03    0.25E-03    0.26E-06
  PAW_PBE Ag 02Apr2005                  :
  PAW_PBE Mg_pv 13Apr2007               :
  PAW_PBE O 08Apr2002                   :

 POSCAR: Ag Mg  O
  positions in direct lattice
 exchange correlation table for  LEXCH =        8
   RHO(1)=    0.500       N(1)  =     2000
   RHO(2)=  100.500       N(2)  =     4000

 ion  position               nearest neighbor table
   1  0.493  0.407  0.638-   2 2.57  54 2.99
   2  0.407  0.493  0.638-   1 2.57  53 2.99
   3  0.000  0.000  0.407- 105 2.11 106 2.11 121 2.11 186 2.11 103 2.11
   4  0.100  0.100  0.407- 105 2.11 106 2.11 110 2.11 125 2.11 104 2.11
   5  0.000  0.100  0.503- 103 2.11 104 2.11 107 2.11 184 2.11 105 2.11
   6  0.100  0.000  0.503- 103 2.11 104 2.11 120 2.11 123 2.11 106 2.11
   7  0.000  0.200  0.407- 109 2.11 105 2.11 110 2.11 190 2.11 107 2.11
   8  0.100  0.300  0.407- 110 2.11 109 2.11 114 2.11 129 2.11 108 2.11
   9  0.000  0.300  0.503- 107 2.11 108 2.11 111 2.11 188 2.11 109 2.11
  10  0.100  0.200  0.503- 108 2.11 107 2.11 104 2.11 127 2.11 110 2.11
  11  0.000  0.400  0.407- 109 2.11 113 2.11 114 2.11 194 2.11 111 2.11
  12  0.100  0.500  0.407- 113 2.11 114 2.11 118 2.11 133 2.11 112 2.11
  13  0.000  0.500  0.503- 111 2.11 112 2.11 115 2.11 192 2.11 113 2.11
  14  0.100  0.400  0.503- 108 2.11 111 2.11 112 2.11 131 2.11 114 2.11
  15  0.000  0.600  0.407- 113 2.11 117 2.11 118 2.11 198 2.11 115 2.11
  16  0.100  0.700  0.407- 122 2.11 118 2.11 117 2.11 137 2.11 116 2.11
  17  0.000  0.700  0.503- 119 2.11 116 2.11 115 2.11 196 2.11 117 2.11
  18  0.100  0.600  0.503- 112 2.11 115 2.11 116 2.11 135 2.11 118 2.11
  19  0.000  0.800  0.407- 117 2.11 121 2.11 122 2.11 202 2.11 119 2.11
  20  0.100  0.900  0.407- 106 2.11 121 2.11 122 2.11 141 2.11 120 2.11
  21  0.000  0.900  0.503- 103 2.11 119 2.11 120 2.11 200 2.11 121 2.11
  22  0.100  0.800  0.503- 116 2.11 119 2.11 120 2.11 139 2.11 122 2.11
  23  0.200  0.000  0.407- 126 2.11 125 2.11 106 2.11 141 2.11 123 2.11
  24  0.300  0.100  0.407- 125 2.11 126 2.11 130 2.11 145 2.11 124 2.11
  25  0.200  0.100  0.503- 124 2.11 123 2.11 104 2.11 127 2.11 125 2.11
  26  0.300  0.000  0.503- 123 2.11 124 2.11 140 2.11 143 2.11 126 2.11
  27  0.200  0.200  0.407- 129 2.11 130 2.11 110 2.11 125 2.11 127 2.11
  28  0.300  0.300  0.407- 129 2.11 130 2.11 134 2.11 149 2.11 128 2.11
  29  0.200  0.300  0.503- 127 2.11 128 2.11 108 2.11 131 2.11 129 2.11
  30  0.300  0.200  0.503- 127 2.11 128 2.11 124 2.11 147 2.11 130 2.11
  31  0.200  0.400  0.407- 134 2.11 129 2.11 133 2.11 114 2.11 131 2.11
  32  0.300  0.500  0.407- 133 2.11 134 2.11 138 2.11 153 2.11 132 2.11
  33  0.200  0.500  0.503- 132 2.11 131 2.11 112 2.11 135 2.11 133 2.11
  34  0.300  0.400  0.503- 131 2.11 128 2.11 132 2.11 151 2.11 134 2.11
  35  0.200  0.600  0.407- 138 2.11 133 2.11 137 2.11 118 2.11 135 2.11
  36  0.300  0.700  0.407- 137 2.11 142 2.11 138 2.11 157 2.11 136 2.11
  37  0.200  0.700  0.503- 136 2.11 139 2.11 116 2.11 135 2.11 137 2.11
  38  0.300  0.600  0.503- 135 2.11 132 2.11 136 2.11 155 2.11 138 2.11
  39  0.200  0.800  0.407- 137 2.11 142 2.11 141 2.11 122 2.11 139 2.11
  40  0.300  0.900  0.407- 141 2.11 126 2.11 142 2.11 161 2.11 140 2.11
  41  0.200  0.900  0.503- 140 2.11 123 2.11 139 2.11 120 2.11 141 2.11
  42  0.300  0.800  0.503- 136 2.11 139 2.11 140 2.11 159 2.11 142 2.11
  43  0.400  0.000  0.407- 126 2.11 145 2.11 146 2.11 161 2.11 143 2.11
  44  0.500  0.100  0.407- 145 2.11 146 2.11 150 2.11 165 2.11 144 2.11
  45  0.400  0.100  0.503- 124 2.11 143 2.11 144 2.11 147 2.11 145 2.11
  46  0.500  0.000  0.503- 143 2.11 144 2.11 160 2.11 163 2.11 146 2.11
  47  0.400  0.200  0.407- 149 2.11 145 2.11 130 2.11 150 2.11 147 2.11
  48  0.500  0.300  0.407- 150 2.11 149 2.11 154 2.11 169 2.11 148 2.11
  49  0.400  0.300  0.503- 147 2.11 128 2.11 148 2.11 151 2.11 149 2.11
  50  0.500  0.200  0.503- 148 2.11 147 2.11 144 2.11 167 2.11 150 2.11
  51  0.400  0.400  0.407- 134 2.11 149 2.11 153 2.11 154 2.11 151 2.11
  52  0.500  0.500  0.407- 153 2.11 154 2.11 158 2.11 173 2.11 152 2.11
  53  0.400  0.500  0.503- 132 2.11 151 2.11 152 2.11 155 2.11 153 2.11   2 2.99
  54  0.500  0.400  0.503- 148 2.11 151 2.11 152 2.11 171 2.11 154 2.11   1 2.99
  55  0.400  0.600  0.407- 138 2.11 153 2.11 157 2.11 158 2.11 155 2.11
  56  0.500  0.700  0.407- 162 2.11 158 2.11 157 2.11 177 2.11 156 2.11
  57  0.400  0.700  0.503- 159 2.11 155 2.11 156 2.11 136 2.11 157 2.11
  58  0.500  0.600  0.503- 152 2.11 155 2.11 156 2.11 175 2.11 158 2.11
  59  0.400  0.800  0.407- 157 2.11 142 2.11 161 2.11 162 2.11 159 2.11
  60  0.500  0.900  0.407- 146 2.11 161 2.11 162 2.11 181 2.11 160 2.11
[...]
 188  0.900  0.300  0.503-  90 2.11  89 2.11   9 2.11  94 2.11  88 2.11
 189  0.800  0.300  0.407-  68 2.11  87 2.11  88 2.11  91 2.11  89 2.11
 190  0.900  0.200  0.407-  88 2.11  84 2.11  87 2.11   7 2.11  90 2.11
 191  0.800  0.400  0.503-  74 2.11  89 2.11  93 2.11  94 2.11  91 2.11
 192  0.900  0.500  0.503-  13 2.11  93 2.11  94 2.11  98 2.11  92 2.11
 193  0.800  0.500  0.407-  72 2.11  91 2.11  92 2.11  95 2.11  93 2.11
 194  0.900  0.400  0.407-  11 2.11  88 2.11  91 2.11  92 2.11  94 2.11
 195  0.800  0.600  0.503-  78 2.11  93 2.11  97 2.11  98 2.11  95 2.11
 196  0.900  0.700  0.503- 102 2.11  97 2.11  98 2.11  17 2.11  96 2.11
 197  0.800  0.700  0.407-  76 2.11  99 2.11  96 2.11  95 2.11  97 2.11
 198  0.900  0.600  0.407-  15 2.11  92 2.11  95 2.11  96 2.11  98 2.11
 199  0.800  0.800  0.503-  82 2.11  97 2.11 101 2.11 102 2.11  99 2.11
 200  0.900  0.900  0.503-  21 2.11  86 2.11 101 2.11 102 2.11 100 2.11
 201  0.800  0.900  0.407-  80 2.11  83 2.11  99 2.11 100 2.11 101 2.11
 202  0.900  0.800  0.407-  96 2.11  19 2.11  99 2.11 100 2.11 102 2.11

  LATTYP: Found a simple tetragonal cell.
 ALAT       =    21.1388521970
 C/A-ratio  =     1.0461251639

  Lattice vectors:

 A1 = (  21.1388521970,   0.0000000000,   0.0000000000)
 A2 = (   0.0000000000,  21.1388521970,   0.0000000000)
 A3 = (   0.0000000000,   0.0000000000,  22.1138852197)

Analysis of symmetry for initial positions (statically):
 Subroutine PRICEL returns:
 Original cell was already a primitive cell.

 Routine SETGRP: Setting up the symmetry group for a
 simple tetragonal supercell.

 Subroutine GETGRP returns: Found  4 space group operations
 (whereof  2 operations were pure point group operations)
 out of a pool of 16 trial point group operations.

The static configuration has the point symmetry C_1h.
 The point group associated with its full space group is C_2v.

Analysis of symmetry for dynamics (positions and initial velocities):
 Subroutine PRICEL returns:
 Original cell was already a primitive cell.

 Routine SETGRP: Setting up the symmetry group for a
 simple tetragonal supercell.

 Subroutine GETGRP returns: Found  4 space group operations
 (whereof  2 operations were pure point group operations)
 out of a pool of 16 trial point group operations.

The dynamic configuration has the point symmetry C_1h.
 The point group associated with its full space group is C_2v.

 Subroutine INISYM returns: Found  4 space group operations
 (whereof  2 operations are pure point group operations),
 and found     1 'primitive' translations

                                     Primitive cell

  volume of cell :    9881.6133

  direct lattice vectors                    reciprocal lattice vectors
    21.138852197  0.000000000  0.000000000     0.047306258  0.000000000  0.000000000
     0.000000000 21.138852197  0.000000000     0.000000000  0.047306258  0.000000000
     0.000000000  0.000000000 22.113885220     0.000000000  0.000000000  0.045220457

  length of vectors
    21.138852197 21.138852197 22.113885220     0.047306258  0.047306258  0.045220457

  position of ions in fractional coordinates (direct lattice)
     0.492981444  0.407018562  0.637532147
     0.407018532  0.492981474  0.637532147
     0.000000000  0.000000000  0.406984115
     0.100000000  0.100000000  0.406984115
     0.000000000  0.100000000  0.502574971
     0.100000000  0.000000000  0.502574971
     0.000000000  0.200000000  0.406984115
     0.100000000  0.300000000  0.406984115
     0.000000000  0.300000000  0.502574971
     0.100000000  0.200000000  0.502574971
     0.000000000  0.400000000  0.406984115
     0.100000000  0.500000000  0.406984115
     0.000000000  0.500000000  0.502574971
[...]
    855       4.5423      0.00000
    856       4.5547      0.00000
    857       4.6523      0.00000
    858       4.6694      0.00000
    859       4.6979      0.00000
    860       4.7030      0.00000
    861       4.7149      0.00000
    862       4.7449      0.00000
    863       4.9148      0.00000
    864       5.1277      0.00000

 soft charge-density along one line, spin component           1
         0         1         2         3         4         5         6         7         8         9
 total charge-density along one line

------------------------ aborting loop because EDIFF is reached ----------------------------------------

         DFTD3 V3.0 Rev 1
 IVDW         = 11
 DF pbe
 parameters
 VDW_S6       =    1.0000
 VDW_S8       =    0.7220
 VDW_SR       =    1.2170
 rs18     =    1.0000
 alpha6   =   14.0000
 alpha8   =   16.0000
 k1-k3    =   16.0000    1.3333   -4.0000
 VDW_RADIUS   =   50.2022 A
 VDW_CNRADIUS =   21.1671 A
 Edisp (eV)  -19.19570

 E6    (eV) :    -8.0347
 E8    (eV) :   -11.1610
 % E8        : 58.14

  FORCE on cell =-STRESS in cart. coord.  units (eV):
  Direction    XX          YY          ZZ          XY          YZ          ZX
  Alpha Z  1357.53553  1357.53553  1357.53553
  Ewald  478265.93745478265.93745************  -335.41996     0.00001    -0.00000
  Hartree506925.25434506925.25436************  -245.26095     0.00000    -0.00000
  E(xc)   -7764.89575 -7764.89575 -7796.81646    -0.38363    -0.00000    -0.00000
  Local  ************************************   575.39583    -0.00001     0.00001
  n-local -8783.28081 -8783.28079 -8901.97040     1.53320    -0.00000     0.00000
  augment  3467.11771  3467.11773  3409.75518     1.05144    -0.00000     0.00000
  Kinetic 22951.92433 22951.92431 23208.29308     3.16079    -0.00000    -0.00000
  Fock        0.00000     0.00000     0.00000     0.00000     0.00000     0.00000
  vdW       -26.16032   -26.16032    -3.51579    -0.01689     0.00000    -0.00000
  Total    -176.48036  -176.48036    14.79058     0.05984     0.00000     0.00000
  in kB     -28.61403   -28.61403     2.39810     0.00970     0.00000     0.00000

 VOLUME and BASIS-vectors are now :
  energy-cutoff  :      520.00
  volume of cell :     9881.61
      direct lattice vectors                 reciprocal lattice vectors
    21.138852197  0.000000000  0.000000000     0.047306258  0.000000000  0.000000000
     0.000000000 21.138852197  0.000000000     0.000000000  0.047306258  0.000000000
     0.000000000  0.000000000 22.113885220     0.000000000  0.000000000  0.045220457

  length of vectors
    21.138852197 21.138852197 22.113885220     0.047306258  0.047306258  0.045220457

 FORCES acting on ions:
    Electron-Ion                     Ewald-Force                    Non-Local-Force
   -.190E+03 0.190E+03 -.198E+04   0.185E+03 -.185E+03 0.198E+04   0.502E+01 -.502E+01 0.209E+00
   0.190E+03 -.190E+03 -.198E+04   -.185E+03 0.185E+03 0.198E+04   -.502E+01 0.502E+01 0.209E+00
   0.171E+01 0.171E+01 0.931E+03   -.170E+01 -.170E+01 -.923E+03   -.187E-02 -.187E-02 -.740E+01
   0.612E+01 0.612E+01 0.933E+03   -.611E+01 -.611E+01 -.925E+03   -.426E-02 -.426E-02 -.741E+01
   0.257E+01 0.593E+01 -.922E+03   -.256E+01 -.593E+01 0.914E+03   -.874E-02 -.543E-03 0.739E+01
   0.593E+01 0.257E+01 -.922E+03   -.593E+01 -.256E+01 0.914E+03   -.543E-03 -.874E-02 0.739E+01
   0.287E+01 0.628E+01 0.933E+03   -.285E+01 -.629E+01 -.926E+03   -.109E-01 0.233E-02 -.741E+01
   0.126E+02 0.789E+01 0.939E+03   -.126E+02 -.790E+01 -.931E+03   -.112E-01 0.108E-01 -.741E+01
   0.567E+01 0.707E+01 -.919E+03   -.566E+01 -.707E+01 0.911E+03   -.130E-01 0.430E-02 0.739E+01
   0.124E+02 0.115E+02 -.918E+03   -.124E+02 -.115E+02 0.911E+03   -.162E-01 0.457E-03 0.739E+01
   0.510E+01 0.230E+01 0.936E+03   -.509E+01 -.230E+01 -.929E+03   -.158E-02 0.476E-02 -.741E+01
   0.163E+02 -.259E+01 0.942E+03   -.163E+02 0.258E+01 -.934E+03   0.329E-01 0.109E-01 -.741E+01
   0.808E+01 -.253E+01 -.918E+03   -.810E+01 0.252E+01 0.910E+03   0.112E-01 0.342E-02 0.739E+01
   0.249E+02 0.575E+01 -.912E+03   -.249E+02 -.577E+01 0.905E+03   -.223E-02 0.182E-01 0.739E+01
   0.485E+01 -.534E+01 0.935E+03   -.487E+01 0.534E+01 -.928E+03   0.161E-01 -.932E-03 -.740E+01
   0.986E+01 -.883E+01 0.936E+03   -.988E+01 0.884E+01 -.929E+03   0.177E-01 -.878E-02 -.740E+01
   0.514E+01 -.811E+01 -.920E+03   -.516E+01 0.812E+01 0.913E+03   0.168E-01 -.340E-02 0.739E+01
   0.213E+02 -.109E+02 -.914E+03   -.213E+02 0.109E+02 0.906E+03   0.380E-01 0.201E-02 0.739E+01
   0.259E+01 -.494E+01 0.932E+03   -.260E+01 0.495E+01 -.924E+03   0.879E-02 -.430E-02 -.740E+01
   0.494E+01 -.259E+01 0.932E+03   -.495E+01 0.260E+01 -.924E+03   0.430E-02 -.879E-02 -.740E+01
   0.236E+01 -.236E+01 -.922E+03   -.237E+01 0.237E+01 0.915E+03   0.378E-02 -.378E-02 0.739E+01
   0.889E+01 -.889E+01 -.920E+03   -.890E+01 0.890E+01 0.913E+03   0.120E-01 -.120E-01 0.739E+01
   0.628E+01 0.287E+01 0.933E+03   -.629E+01 -.285E+01 -.926E+03   0.233E-02 -.109E-01 -.741E+01
   0.789E+01 0.126E+02 0.939E+03   -.790E+01 -.126E+02 -.931E+03   0.108E-01 -.112E-01 -.741E+01
   0.115E+02 0.124E+02 -.918E+03   -.115E+02 -.124E+02 0.911E+03   0.457E-03 -.162E-01 0.739E+01
   0.707E+01 0.567E+01 -.919E+03   -.707E+01 -.566E+01 0.911E+03   0.430E-02 -.130E-01 0.739E+01
   0.131E+02 0.131E+02 0.940E+03   -.131E+02 -.131E+02 -.932E+03   -.294E-02 -.294E-02 -.741E+01
   0.215E+02 0.215E+02 0.961E+03   -.215E+02 -.215E+02 -.953E+03   0.157E-01 0.157E-01 -.746E+01
   0.332E+02 0.221E+02 -.905E+03   -.331E+02 -.221E+02 0.898E+03   -.483E-01 0.219E-01 0.738E+01
   0.221E+02 0.332E+02 -.905E+03   -.221E+02 -.331E+02 0.898E+03   0.219E-01 -.483E-01 0.738E+01
   0.257E+02 0.679E+01 0.954E+03   -.257E+02 -.685E+01 -.946E+03   -.802E-02 0.427E-01 -.741E+01
   0.299E+02 -.817E+01 0.979E+03   -.298E+02 0.812E+01 -.971E+03   -.405E-01 0.412E-01 -.721E+01
   0.520E+02 -.741E+01 -.892E+03   -.522E+02 0.736E+01 0.885E+03   0.114E+00 0.393E-01 0.739E+01
   0.745E+02 0.331E+02 -.849E+03   -.743E+02 -.333E+02 0.842E+03   -.141E+00 0.182E+00 0.731E+01
   0.212E+02 -.129E+02 0.949E+03   -.212E+02 0.129E+02 -.942E+03   0.320E-01 -.106E-01 -.739E+01
   0.129E+02 -.212E+02 0.949E+03   -.129E+02 0.212E+02 -.942E+03   0.106E-01 -.320E-01 -.739E+01
   0.220E+02 -.220E+02 -.911E+03   -.221E+02 0.221E+02 0.904E+03   0.284E-01 -.284E-01 0.739E+01
   0.498E+02 -.498E+02 -.870E+03   -.499E+02 0.499E+02 0.862E+03   0.859E-01 -.859E-01 0.743E+01
   0.883E+01 -.986E+01 0.936E+03   -.884E+01 0.988E+01 -.929E+03   0.878E-02 -.177E-01 -.740E+01
   0.534E+01 -.485E+01 0.935E+03   -.534E+01 0.487E+01 -.928E+03   0.932E-03 -.161E-01 -.740E+01
   0.811E+01 -.514E+01 -.920E+03   -.812E+01 0.516E+01 0.913E+03   0.340E-02 -.168E-01 0.739E+01
   0.109E+02 -.213E+02 -.914E+03   -.109E+02 0.213E+02 0.906E+03   -.201E-02 -.380E-01 0.739E+01
   0.230E+01 0.510E+01 0.936E+03   -.230E+01 -.509E+01 -.929E+03   0.476E-02 -.158E-02 -.741E+01
   -.259E+01 0.163E+02 0.942E+03   0.258E+01 -.163E+02 -.934E+03   0.109E-01 0.329E-01 -.741E+01
   0.575E+01 0.249E+02 -.912E+03   -.577E+01 -.249E+02 0.905E+03   0.182E-01 -.223E-02 0.739E+01
   -.253E+01 0.808E+01 -.918E+03   0.252E+01 -.810E+01 0.910E+03   0.342E-02 0.112E-01 0.739E+01
   0.679E+01 0.257E+02 0.954E+03   -.685E+01 -.257E+02 -.946E+03   0.427E-01 -.802E-02 -.741E+01
   -.817E+01 0.299E+02 0.979E+03   0.812E+01 -.298E+02 -.971E+03   0.412E-01 -.405E-01 -.721E+01
   0.331E+02 0.745E+02 -.849E+03   -.333E+02 -.743E+02 0.842E+03   0.182E+00 -.141E+00 0.731E+01
   -.741E+01 0.520E+02 -.892E+03   0.736E+01 -.522E+02 0.885E+03   0.393E-01 0.114E+00 0.739E+01
   0.154E+02 0.154E+02 0.100E+04   -.154E+02 -.154E+02 -.992E+03   0.153E-01 0.153E-01 -.758E+01
   -.154E+02 -.154E+02 0.100E+04   0.154E+02 0.154E+02 -.992E+03   -.153E-01 -.153E-01 -.758E+01
   0.430E+02 -.430E+02 -.731E+03   -.426E+02 0.426E+02 0.724E+03   -.301E+00 0.301E+00 0.602E+01
   -.430E+02 0.430E+02 -.731E+03   0.426E+02 -.426E+02 0.724E+03   0.301E+00 -.301E+00 0.602E+01
   0.817E+01 -.299E+02 0.979E+03   -.812E+01 0.298E+02 -.971E+03   -.412E-01 0.405E-01 -.721E+01
   -.679E+01 -.257E+02 0.954E+03   0.685E+01 0.257E+02 -.946E+03   -.427E-01 0.802E-02 -.741E+01
   0.741E+01 -.520E+02 -.892E+03   -.736E+01 0.522E+02 0.885E+03   -.393E-01 -.114E+00 0.739E+01
   -.331E+02 -.745E+02 -.849E+03   0.333E+02 0.743E+02 0.842E+03   -.182E+00 0.141E+00 0.731E+01
   0.259E+01 -.163E+02 0.942E+03   -.258E+01 0.163E+02 -.934E+03   -.109E-01 -.329E-01 -.741E+01
   -.230E+01 -.510E+01 0.936E+03   0.230E+01 0.509E+01 -.929E+03   -.476E-02 0.158E-02 -.741E+01
[...]
   -.103E+02 0.568E+01 0.706E+03   0.103E+02 -.568E+01 -.710E+03   -.258E-01 0.388E-02 0.355E+01
   -.278E+01 0.477E+01 0.702E+03   0.278E+01 -.478E+01 -.706E+03   -.131E-01 0.487E-02 0.354E+01
   -.196E+02 0.270E+01 -.685E+03   0.197E+02 -.268E+01 0.690E+03   -.218E-01 -.194E-01 -.356E+01
   -.559E+01 -.230E+01 -.690E+03   0.559E+01 0.231E+01 0.694E+03   0.161E-02 -.692E-02 -.356E+01
   -.118E+02 -.279E+01 0.708E+03   0.118E+02 0.280E+01 -.712E+03   -.371E-02 -.226E-01 0.354E+01
   -.409E+01 0.148E+01 0.704E+03   0.410E+01 -.148E+01 -.708E+03   -.840E-02 -.335E-02 0.354E+01
   -.141E+02 -.846E+01 -.688E+03   0.141E+02 0.847E+01 0.692E+03   0.107E-01 -.113E-01 -.357E+01
   -.286E+01 -.596E+01 -.692E+03   0.285E+01 0.596E+01 0.696E+03   0.108E-01 -.177E-02 -.356E+01
   -.667E+01 -.636E+01 0.703E+03   0.667E+01 0.636E+01 -.707E+03   0.963E-02 0.694E-03 0.354E+01
   -.302E+01 -.410E+01 0.703E+03   0.301E+01 0.410E+01 -.707E+03   0.791E-02 -.521E-02 0.354E+01
   -.597E+01 -.597E+01 -.692E+03   0.596E+01 0.596E+01 0.696E+03   0.749E-02 0.749E-02 -.356E+01
   -.157E+01 -.157E+01 -.694E+03   0.156E+01 0.156E+01 0.698E+03   0.234E-02 0.234E-02 -.356E+01
   -.358E+01 -.153E+01 0.701E+03   0.358E+01 0.152E+01 -.705E+03   0.204E-03 0.679E-02 0.354E+01
   -.153E+01 -.358E+01 0.701E+03   0.152E+01 0.358E+01 -.705E+03   0.679E-02 0.204E-03 0.354E+01
   -.308E-01 0.152E-01 0.626E+01   0.309E-11 -.100E-11 -.261E-11   0.971E-16 -.356E-16 -.685E+01

 POSITION                                       TOTAL-FORCE (eV/Angst)
     10.42106      8.60391     14.09831         0.050345     -0.050345     -0.068405
      8.60390     10.42106     14.09831        -0.050345      0.050345     -0.068405
      0.00000      0.00000      9.00000         0.000523      0.000523      0.329184
      2.11389      2.11389      9.00000         0.001260      0.001260      0.329730
      0.00000      2.11389     11.11389         0.002395      0.000201     -0.327739
      2.11389      0.00000     11.11389         0.000201      0.002395     -0.327739
      0.00000      4.22777      9.00000         0.002905     -0.000595      0.329339
      2.11389      6.34166      9.00000         0.002921     -0.002834      0.329945
      0.00000      6.34166     11.11389         0.003557     -0.001142     -0.327209
      2.11389      4.22777     11.11389         0.004629      0.000243     -0.326440
      0.00000      8.45554      9.00000         0.000376     -0.001386      0.329275
      2.11389     10.56943      9.00000        -0.008066     -0.003248      0.329901
      0.00000     10.56943     11.11389        -0.002756     -0.001030     -0.327483
      2.11389      8.45554     11.11389         0.001578     -0.005226     -0.325649
      0.00000     12.68331      9.00000        -0.004193      0.000278      0.329010
      2.11389     14.79720      9.00000        -0.004799      0.002505      0.328070
      0.00000     14.79720     11.11389        -0.004474      0.000954     -0.327962
      2.11389     12.68331     11.11389        -0.009733     -0.000620     -0.328396
      0.00000     16.91108      9.00000        -0.002377      0.001181      0.328951
      2.11389     19.02497      9.00000        -0.001181      0.002377      0.328951
      0.00000     19.02497     11.11389        -0.001016      0.001016     -0.328002
      2.11389     16.91108     11.11389        -0.003236      0.003236     -0.328292
      4.22777      0.00000      9.00000        -0.000595      0.002905      0.329339
      6.34166      2.11389      9.00000        -0.002834      0.002921      0.329945
      4.22777      2.11389     11.11389         0.000243      0.004629     -0.326440
      6.34166      0.00000     11.11389        -0.001142      0.003557     -0.327209
      4.22777      4.22777      9.00000         0.001390      0.001390      0.332149
      6.34166      6.34166      9.00000        -0.001017     -0.001017      0.344881
      4.22777      6.34166     11.11389         0.016079     -0.003368     -0.319321
      6.34166      4.22777     11.11389        -0.003368      0.016079     -0.319321
      4.22777      8.45554      9.00000         0.000987     -0.013057      0.330045
      6.34166     10.56943      9.00000         0.016820     -0.013849      0.289361
      4.22777     10.56943     11.11389        -0.030693     -0.013163     -0.319633
      6.34166      8.45554     11.11389         0.083915     -0.030228     -0.233629
      4.22777     12.68331      9.00000        -0.008691      0.003669      0.324840
      6.34166     14.79720      9.00000        -0.003669      0.008691      0.324840
      4.22777     14.79720     11.11389        -0.007210      0.007210     -0.329988
      6.34166     12.68331     11.11389        -0.005606      0.005606     -0.319490
      4.22777     16.91108      9.00000        -0.002505      0.004799      0.328070
      6.34166     19.02497      9.00000        -0.000278      0.004193      0.329010
      4.22777     19.02497     11.11389        -0.000954      0.004474     -0.327962
      6.34166     16.91108     11.11389         0.000620      0.009733     -0.328396
      8.45554      0.00000      9.00000        -0.001386      0.000376      0.329275
     10.56943      2.11389      9.00000        -0.003248     -0.008066      0.329901
      8.45554      2.11389     11.11389        -0.005226      0.001578     -0.325649
     10.56943      0.00000     11.11389        -0.001030     -0.002756     -0.327483
      8.45554      4.22777      9.00000        -0.013057      0.000987      0.330045
     10.56943      6.34166      9.00000        -0.013849      0.016820      0.289361
      8.45554      6.34166     11.11389        -0.030228      0.083915     -0.233629
     10.56943      4.22777     11.11389        -0.013163     -0.030693     -0.319633
      8.45554      8.45554      9.00000         0.001937      0.001937      0.366184
     10.56943     10.56943      9.00000        -0.001937     -0.001937      0.366184
      8.45554     10.56943     11.11389         0.132210     -0.132210     -0.318625
     10.56943      8.45554     11.11389        -0.132210      0.132210     -0.318625
      8.45554     12.68331      9.00000         0.013849     -0.016820      0.289361
     10.56943     14.79720      9.00000         0.013057     -0.000987      0.330045
      8.45554     14.79720     11.11389         0.013163      0.030693     -0.319633
     10.56943     12.68331     11.11389         0.030228     -0.083915     -0.233629
      8.45554     16.91108      9.00000         0.003248      0.008066      0.329901
     10.56943     19.02497      9.00000         0.001386     -0.000376      0.329275
[...]
     19.02497      6.34166     11.11389        -0.004041      0.000346      0.514440
     16.91108      6.34166      9.00000        -0.007363      0.001187     -0.514576
     19.02497      4.22777      9.00000        -0.003643      0.001415     -0.515777
     16.91108      8.45554     11.11389        -0.006557     -0.005347      0.514306
     19.02497     10.56943     11.11389         0.000374     -0.001925      0.513829
     16.91108     10.56943      9.00000        -0.001354     -0.006298     -0.516848
     19.02497      8.45554      9.00000        -0.002402     -0.000898     -0.515896
     16.91108     12.68331     11.11389         0.002715     -0.003236      0.512369
     19.02497     14.79720     11.11389         0.002953     -0.000526      0.514096
     16.91108     14.79720      9.00000         0.002560      0.000094     -0.516997
     19.02497     12.68331      9.00000         0.002152     -0.001496     -0.516300
     16.91108     16.91108     11.11389         0.002008      0.002008      0.513794
     19.02497     19.02497     11.11389         0.000632      0.000632      0.514545
     16.91108     19.02497      9.00000         0.000025      0.001856     -0.516215
     19.02497     16.91108      9.00000         0.001856      0.000025     -0.516215
    total drift:                               -0.030771      0.015153     -0.597513

  FREE ENERGIE OF THE ION-ELECTRON SYSTEM (eV)
  free  energy   TOTEN  =     -1159.52191293 eV

  energy  without entropy=    -1159.52191293  energy(sigma->0) =    -1159.52191293