 vasp.6.3.0 20Jan22 (build Apr  1 2022 16:44:48) complex
 executed on        HPECrayEX_GCC date 2023.01.09  23:08:46

 INCAR:
   SYSTEM = MgO-rocksalt
   ISMEAR = 0
   SIGMA = 0.05
   EDIFF = 1E-6
   ALGO = ALL
   ISTART = 0
   IBRION = -1
   NSW = 0
   ISYM = 2
   DIPOL = 0.5 0.5 0.5
   IDIPOL = 3
   LDIPOL = .TRUE.
   METAGGA = SCAN
   LUSE_VDW = .TRUE.
   BPARAM = 15.7
   CPARAM = 0.0093
   ENCUT = 520
   PREC = Accurate
   LASPH = .TRUE.
   LREAL = Auto
   ISPIN = 1
   NELM = 200
   NELMIN = 8
   NCORE = 4
   KPAR = 2
   LWAVE = .FALSE.
   LCHARG = .FALSE.

 POTCAR:    PAW_PBE Ag 02Apr2005
 POTCAR:    PAW_PBE Mg_pv 13Apr2007
 POTCAR:    PAW_PBE O 08Apr2002
|               ----> ADVICE to this user running VASP <----                  |
|     You have switched on vdW-DFT.                                           |
|     This routine was written and supplied by Jiri Klimes. We recommend      |
|     that you carefully read and cite the following publications:            |
|       J. Klimes, D.R. Bowler, A. Michelides                                 |
|          J. Phys.: Cond Matt. 22 022201 (2010)                              |
|       J. Klimes, D.R. Bowler, A. Michelides                                 |
|          Phys. Rev. B. 83, 195131 (2011)                                    |
|     and references therein.                                                 |

   TITEL  = PAW_PBE Ag 02Apr2005
   POMASS =  107.868; ZVAL   =   11.000    mass and valenz
   ENMAX  =  249.844; ENMIN  =  187.383 eV

   TITEL  = PAW_PBE Mg_pv 13Apr2007
   POMASS =   24.305; ZVAL   =    8.000    mass and valenz
   ENMAX  =  403.929; ENMIN  =  302.947 eV

   TITEL  = PAW_PBE O 08Apr2002
   POMASS =   16.000; ZVAL   =    6.000    mass and valenz
   ENMAX  =  400.000; ENMIN  =  300.000 eV

 Optimization of the real space projectors (new method)

 maximal supplied QI-value         = 15.12
 optimisation between [QCUT,QGAM] = [ 11.64, 23.28] = [ 37.95,151.78] Ry
 Optimized for a Real-space Cutoff    1.45 Angstroem

   l    n(q)    QCUT    max X(q) W(low)/X(q) W(high)/X(q)  e(spline)
   2      9    11.641    53.897    0.22E-03    0.42E-04    0.28E-06
   2      9    11.641    52.416    0.23E-03    0.44E-04    0.29E-06
   0     10    11.641   122.045    0.51E-04    0.25E-04    0.16E-06
   0     10    11.641    73.629    0.49E-04    0.24E-04    0.16E-06
   1     10    11.641    15.255    0.99E-04    0.55E-04    0.11E-06
   1     10    11.641     9.562    0.81E-04    0.47E-04    0.95E-07
 Optimization of the real space projectors (new method)

[...]

   l    n(q)    QCUT    max X(q) W(low)/X(q) W(high)/X(q)  e(spline)
   1      8    11.527     2.974    0.44E-04    0.56E-04    0.12E-06
   1      8    11.527     4.279    0.12E-03    0.12E-03    0.26E-06
   0      9    11.527    16.381    0.46E-04    0.64E-04    0.78E-07
   0      9    11.527     5.611    0.26E-04    0.43E-04    0.55E-07
   2      8    11.527     4.652    0.22E-03    0.72E-04    0.47E-07
 Optimization of the real space projectors (new method)

 maximal supplied QI-value         = 24.76
 optimisation between [QCUT,QGAM] = [ 11.64, 23.27] = [ 37.91,151.63] Ry
 Optimized for a Real-space Cutoff    1.14 Angstroem

   l    n(q)    QCUT    max X(q) W(low)/X(q) W(high)/X(q)  e(spline)
   0      8    11.635    20.381    0.10E-03    0.33E-03    0.24E-06
   0      8    11.635    15.268    0.11E-03    0.35E-03    0.26E-06
   1      7    11.635     5.964    0.24E-03    0.31E-03    0.30E-06
   1      7    11.635     5.382    0.22E-03    0.25E-03    0.26E-06
  PAW_PBE Ag 02Apr2005                  :
  PAW_PBE Mg_pv 13Apr2007               :
  PAW_PBE O 08Apr2002                   :

 POSCAR: Ag Mg  O
  positions in direct lattice
  velocities in cartesian coordinates

 METAGGA = SCAN     LMAXTAU =  6    LMIXTAU =  F

 ion  position               nearest neighbor table
   1  0.400  0.429  0.610- 153 2.46   2 2.60  55 2.82   4 3.42
   2  0.400  0.512  0.697-   1 2.60   4 2.64   3 2.77
   3  0.401  0.641  0.713-   4 2.63   2 2.77
   4  0.400  0.590  0.604- 157 2.26   3 2.63   2 2.64  55 2.95   1 3.42
   5  0.000  0.000  0.407- 107 2.11 108 2.11 123 2.11 188 2.11 105 2.11
   6  0.100  0.100  0.407- 107 2.11 108 2.11 112 2.11 127 2.11 106 2.11
   7  0.000  0.100  0.503- 105 2.11 106 2.11 109 2.11 186 2.11 107 2.11
   8  0.100  0.000  0.503- 105 2.11 106 2.11 122 2.11 125 2.11 108 2.11
   9  0.000  0.200  0.407- 111 2.11 107 2.11 112 2.11 192 2.11 109 2.11
  10  0.100  0.300  0.407- 112 2.11 111 2.11 116 2.11 131 2.11 110 2.11
  11  0.000  0.300  0.503- 109 2.11 110 2.11 113 2.11 190 2.11 111 2.11
  12  0.100  0.200  0.503- 110 2.11 109 2.11 106 2.11 129 2.11 112 2.11
  13  0.000  0.400  0.407- 111 2.11 115 2.11 116 2.11 196 2.11 113 2.11
  14  0.100  0.500  0.407- 115 2.11 116 2.11 120 2.11 135 2.11 114 2.11
  15  0.000  0.500  0.503- 113 2.11 114 2.11 117 2.11 194 2.11 115 2.11
  16  0.100  0.400  0.503- 110 2.11 113 2.11 114 2.11 133 2.11 116 2.11
  17  0.000  0.600  0.407- 115 2.11 119 2.11 120 2.11 200 2.11 117 2.11
  18  0.100  0.700  0.407- 124 2.11 120 2.11 119 2.11 139 2.11 118 2.11
  19  0.000  0.700  0.503- 121 2.11 118 2.11 117 2.11 198 2.11 119 2.11
  20  0.100  0.600  0.503- 114 2.11 117 2.11 118 2.11 137 2.11 120 2.11
  21  0.000  0.800  0.407- 119 2.11 123 2.11 124 2.11 204 2.11 121 2.11
  22  0.100  0.900  0.407- 108 2.11 123 2.11 124 2.11 143 2.11 122 2.11
  23  0.000  0.900  0.503- 105 2.11 121 2.11 122 2.11 202 2.11 123 2.11
  24  0.100  0.800  0.503- 118 2.11 121 2.11 122 2.11 141 2.11 124 2.11
  25  0.200  0.000  0.407- 128 2.11 127 2.11 108 2.11 143 2.11 125 2.11
  26  0.300  0.100  0.407- 127 2.11 128 2.11 132 2.11 147 2.11 126 2.11
  27  0.200  0.100  0.503- 126 2.11 125 2.11 106 2.11 129 2.11 127 2.11
  28  0.300  0.000  0.503- 125 2.11 126 2.11 142 2.11 145 2.11 128 2.11
  29  0.200  0.200  0.407- 131 2.11 132 2.11 112 2.11 127 2.11 129 2.11
  30  0.300  0.300  0.407- 131 2.11 132 2.11 136 2.11 151 2.11 130 2.11
  31  0.200  0.300  0.503- 129 2.11 130 2.11 110 2.11 133 2.11 131 2.11
  32  0.300  0.200  0.503- 129 2.11 130 2.11 126 2.11 149 2.11 132 2.11
  33  0.200  0.400  0.407- 136 2.11 131 2.11 135 2.11 116 2.11 133 2.11
  34  0.300  0.500  0.407- 135 2.11 136 2.11 140 2.11 155 2.11 134 2.11
  35  0.200  0.500  0.503- 134 2.11 133 2.11 114 2.11 137 2.11 135 2.11
  36  0.300  0.400  0.503- 133 2.11 130 2.11 134 2.11 153 2.11 136 2.11
  37  0.200  0.600  0.407- 140 2.11 135 2.11 139 2.11 120 2.11 137 2.11
  38  0.300  0.700  0.407- 139 2.11 144 2.11 140 2.11 159 2.11 138 2.11
  39  0.200  0.700  0.503- 138 2.11 141 2.11 118 2.11 137 2.11 139 2.11
  40  0.300  0.600  0.503- 137 2.11 134 2.11 138 2.11 157 2.11 140 2.11
  41  0.200  0.800  0.407- 139 2.11 144 2.11 143 2.11 124 2.11 141 2.11
  42  0.300  0.900  0.407- 143 2.11 128 2.11 144 2.11 163 2.11 142 2.11
  43  0.200  0.900  0.503- 142 2.11 125 2.11 141 2.11 122 2.11 143 2.11
  44  0.300  0.800  0.503- 138 2.11 141 2.11 142 2.11 161 2.11 144 2.11
  45  0.400  0.000  0.407- 128 2.11 147 2.11 148 2.11 163 2.11 145 2.11
  46  0.500  0.100  0.407- 147 2.11 148 2.11 152 2.11 167 2.11 146 2.11
  47  0.400  0.100  0.503- 126 2.11 145 2.11 146 2.11 149 2.11 147 2.11
  48  0.500  0.000  0.503- 145 2.11 146 2.11 162 2.11 165 2.11 148 2.11
  49  0.400  0.200  0.407- 151 2.11 147 2.11 132 2.11 152 2.11 149 2.11
  50  0.500  0.300  0.407- 152 2.11 151 2.11 156 2.11 171 2.11 150 2.11
  51  0.400  0.300  0.503- 149 2.11 130 2.11 150 2.11 153 2.11 151 2.11
  52  0.500  0.200  0.503- 150 2.11 149 2.11 146 2.11 169 2.11 152 2.11
  53  0.400  0.400  0.407- 136 2.11 151 2.11 155 2.11 156 2.11 153 2.11
  54  0.500  0.500  0.407- 155 2.11 156 2.11 160 2.11 175 2.11 154 2.11
  55  0.400  0.500  0.503- 134 2.11 153 2.11 154 2.11 157 2.11 155 2.11   1 2.82   4 2.95
  56  0.500  0.400  0.503- 150 2.11 153 2.11 154 2.11 173 2.11 156 2.11
  57  0.400  0.600  0.407- 140 2.11 155 2.11 159 2.11 160 2.11 157 2.11
  58  0.500  0.700  0.407- 164 2.11 160 2.11 159 2.11 179 2.11 158 2.11
  59  0.400  0.700  0.503- 161 2.11 157 2.11 158 2.11 138 2.11 159 2.11
  60  0.500  0.600  0.503- 154 2.11 157 2.11 158 2.11 177 2.11 160 2.11
[...]
 190  0.900  0.300  0.503-  92 2.11  91 2.11  11 2.11  96 2.11  90 2.11
 191  0.800  0.300  0.407-  70 2.11  89 2.11  90 2.11  93 2.11  91 2.11
 192  0.900  0.200  0.407-  90 2.11  86 2.11  89 2.11   9 2.11  92 2.11
 193  0.800  0.400  0.503-  76 2.11  91 2.11  95 2.11  96 2.11  93 2.11
 194  0.900  0.500  0.503-  15 2.11  95 2.11  96 2.11 100 2.11  94 2.11
 195  0.800  0.500  0.407-  74 2.11  93 2.11  94 2.11  97 2.11  95 2.11
 196  0.900  0.400  0.407-  13 2.11  90 2.11  93 2.11  94 2.11  96 2.11
 197  0.800  0.600  0.503-  80 2.11  95 2.11  99 2.11 100 2.11  97 2.11
 198  0.900  0.700  0.503- 104 2.11  99 2.11 100 2.11  19 2.11  98 2.11
 199  0.800  0.700  0.407-  78 2.11 101 2.11  98 2.11  97 2.11  99 2.11
 200  0.900  0.600  0.407-  17 2.11  94 2.11  97 2.11  98 2.11 100 2.11
 201  0.800  0.800  0.503-  84 2.11  99 2.11 103 2.11 104 2.11 101 2.11
 202  0.900  0.900  0.503-  23 2.11  88 2.11 103 2.11 104 2.11 102 2.11
 203  0.800  0.900  0.407-  82 2.11  85 2.11 101 2.11 102 2.11 103 2.11
 204  0.900  0.800  0.407-  98 2.11  21 2.11 101 2.11 102 2.11 104 2.11

  LATTYP: Found a simple tetragonal cell.
 ALAT       =    21.1388521970
 C/A-ratio  =     1.0461251639

  Lattice vectors:

 A1 = (  21.1388521970,   0.0000000000,   0.0000000000)
 A2 = (   0.0000000000,  21.1388521970,   0.0000000000)
 A3 = (   0.0000000000,   0.0000000000,  22.1138852197)

Analysis of symmetry for initial positions (statically):
 Subroutine PRICEL returns:
 Original cell was already a primitive cell.

 Routine SETGRP: Setting up the symmetry group for a
 simple tetragonal supercell.

 Subroutine GETGRP returns: Found  1 space group operations
 (whereof  1 operations were pure point group operations)
 out of a pool of 16 trial point group operations.

The static configuration has the point symmetry C_1 .

Analysis of symmetry for dynamics (positions and initial velocities):
 Subroutine PRICEL returns:
 Original cell was already a primitive cell.

[...]

The dynamic configuration has the point symmetry C_1 .

Analysis of constrained symmetry for selective dynamics:
 Subroutine PRICEL returns:
 Original cell was already a primitive cell.

 Routine SETGRP: Setting up the symmetry group for a
 simple tetragonal supercell.

 Subroutine GETGRP returns: Found  1 space group operations
 (whereof  1 operations were pure point group operations)
 out of a pool of 16 trial point group operations.

The constrained configuration has the point symmetry C_1 .

 Subroutine INISYM returns: Found  1 space group operations
 (whereof  1 operations are pure point group operations),
 and found     1 'primitive' translations

                                     Primitive cell

  volume of cell :    9881.6133

  direct lattice vectors                    reciprocal lattice vectors
    21.138852197  0.000000000  0.000000000     0.047306258  0.000000000  0.000000000
     0.000000000 21.138852197  0.000000000     0.000000000  0.047306258  0.000000000
     0.000000000  0.000000000 22.113885220     0.000000000  0.000000000  0.045220457

[...]
     52     -44.4943      2.00000
     53     -44.4940      2.00000
     54     -44.4938      2.00000
     55     -44.4933      2.00000
     56     -44.4905      2.00000
     57     -44.4903      2.00000
     58     -44.4902      2.00000
     59     -44.4893      2.00000
     60     -44.4891      2.00000
[...]
    946       6.6066      0.00000
    947       6.6385      0.00000
    948       6.6665      0.00000
    949       6.6752      0.00000
    950       6.7788      0.00000
    951       6.8442      0.00000
    952       6.9474      0.00000
    953       6.9705      0.00000
    954       7.0329      0.00000
    955       7.1855      0.00000
    956       7.1959      0.00000
    957       7.2724      0.00000
    958       7.3135      0.00000
    959       7.4197      0.00000
    960       7.4785      0.00000

 soft charge-density along one line, spin component           1
         0         1         2         3         4         5         6         7         8         9
 total charge-density along one line

------------------------ aborting loop because EDIFF is reached ----------------------------------------

  FORCE on cell =-STRESS in cart. coord.  units (eV):
  Direction    XX          YY          ZZ          XY          YZ          ZX
  Alpha Z  1401.13727  1401.13727  1401.13727
  Ewald  477666.07547479799.93693************     3.84227   439.22239     3.11972
  Hartree507477.03809509214.94413************     3.08629   356.20046     2.36121
  E(xc)   -8530.42393 -8529.74888 -8521.65685     0.00110     0.27361     0.00110
  Local  ************************************    -6.91167  -794.04857    -5.45085
  n-local -8742.99101 -8743.75349 -8869.34924     0.00093    -0.01777    -0.00599
  augment  4080.21517  4077.93883  4018.09636    -0.00651    -0.36137    -0.00801
  Kinetic 23289.54003 23281.73532 23506.88237    -0.01322    -1.53643    -0.02874
  Fock        0.00000     0.00000     0.00000     0.00000     0.00000     0.00000
  Total    -242.27420  -243.66138   -29.99346    -0.00081    -0.26766    -0.01156
  in kB     -39.28167   -39.50658    -4.86306    -0.00013    -0.04340    -0.00187

 VOLUME and BASIS-vectors are now :
  energy-cutoff  :      520.00
  volume of cell :     9881.61
      direct lattice vectors                 reciprocal lattice vectors
    21.138852197  0.000000000  0.000000000     0.047306258  0.000000000  0.000000000
     0.000000000 21.138852197  0.000000000     0.000000000  0.047306258  0.000000000
     0.000000000  0.000000000 22.113885220     0.000000000  0.000000000  0.045220457

  length of vectors
    21.138852197 21.138852197 22.113885220     0.047306258  0.047306258  0.045220457

 FORCES acting on ions:
    Electron-Ion                     Ewald-Force                    Non-Local-Force
   0.594E+00 0.382E+03 -.193E+04   -.587E+00 -.376E+03 0.193E+04   -.279E-02 -.510E+01 -.489E+01
   0.160E+00 0.207E+03 -.197E+04   -.167E+00 -.207E+03 0.196E+04   0.150E-01 0.566E+00 0.764E+01
   -.149E+01 -.389E+03 -.180E+04   0.146E+01 0.384E+03 0.179E+04   0.429E-01 0.547E+01 0.588E+01
   0.689E+00 -.198E+03 -.175E+04   -.677E+00 0.199E+03 0.176E+04   -.625E-02 -.722E+00 -.423E+01
   0.710E+01 -.266E+01 0.937E+03   -.712E+01 0.267E+01 -.929E+03   0.118E-01 -.638E-02 -.747E+01
   0.128E+02 0.613E+01 0.940E+03   -.128E+02 -.614E+01 -.932E+03   0.236E-01 0.764E-02 -.747E+01
   0.932E+01 0.530E+01 -.918E+03   -.933E+01 -.530E+01 0.910E+03   0.976E-02 -.229E-02 0.740E+01
   0.155E+02 -.503E+01 -.915E+03   -.155E+02 0.504E+01 0.908E+03   0.134E-01 -.881E-02 0.740E+01
   0.955E+01 0.984E+01 0.939E+03   -.957E+01 -.985E+01 -.931E+03   0.202E-01 0.757E-02 -.747E+01
   0.248E+02 0.182E+02 0.950E+03   -.249E+02 -.183E+02 -.942E+03   0.776E-01 0.278E-01 -.749E+01
   0.181E+02 0.157E+02 -.913E+03   -.181E+02 -.157E+02 0.905E+03   0.155E-01 0.424E-02 0.740E+01
   0.235E+02 0.199E+02 -.912E+03   -.235E+02 -.199E+02 0.904E+03   0.330E-01 0.447E-02 0.739E+01
   0.168E+02 0.959E+01 0.945E+03   -.169E+02 -.960E+01 -.937E+03   0.416E-01 0.122E-01 -.748E+01
   0.383E+02 0.456E+01 0.962E+03   -.385E+02 -.459E+01 -.954E+03   0.143E+00 0.179E-01 -.751E+01
   0.281E+02 0.416E+01 -.907E+03   -.281E+02 -.417E+01 0.900E+03   0.246E-01 0.762E-02 0.739E+01
   0.527E+02 0.223E+02 -.897E+03   -.527E+02 -.223E+02 0.889E+03   0.505E-01 0.127E-01 0.736E+01
   0.186E+02 -.489E+01 0.947E+03   -.186E+02 0.489E+01 -.939E+03   0.555E-01 0.305E-03 -.748E+01
   0.302E+02 -.166E+02 0.955E+03   -.304E+02 0.166E+02 -.947E+03   0.119E+00 -.266E-01 -.750E+01
   0.226E+02 -.140E+02 -.910E+03   -.226E+02 0.140E+02 0.902E+03   0.291E-01 -.165E-02 0.739E+01
   0.607E+02 -.119E+02 -.891E+03   -.608E+02 0.119E+02 0.884E+03   0.104E+00 0.837E-02 0.736E+01
   0.118E+02 -.119E+02 0.941E+03   -.118E+02 0.119E+02 -.933E+03   0.307E-01 -.135E-01 -.747E+01
   0.152E+02 -.124E+02 0.942E+03   -.152E+02 0.124E+02 -.934E+03   0.322E-01 -.268E-01 -.747E+01
   0.114E+02 -.112E+02 -.916E+03   -.114E+02 0.112E+02 0.908E+03   0.135E-01 -.799E-02 0.740E+01
   0.319E+02 -.252E+02 -.906E+03   -.319E+02 0.253E+02 0.898E+03   0.519E-01 -.167E-01 0.739E+01
   0.130E+02 -.503E+01 0.943E+03   -.130E+02 0.505E+01 -.935E+03   0.205E-01 -.154E-01 -.747E+01
   0.924E+01 0.123E+02 0.948E+03   -.927E+01 -.124E+02 -.940E+03   0.184E-01 0.499E-01 -.748E+01
   0.184E+02 0.130E+02 -.911E+03   -.184E+02 -.130E+02 0.904E+03   0.180E-01 0.167E-01 0.739E+01
   0.114E+02 -.101E+02 -.908E+03   -.114E+02 0.101E+02 0.900E+03   0.787E-02 -.882E-02 0.739E+01
   0.199E+02 0.221E+02 0.951E+03   -.200E+02 -.222E+02 -.943E+03   0.610E-01 0.594E-01 -.748E+01
   0.251E+02 0.442E+02 0.984E+03   -.254E+02 -.445E+02 -.976E+03   0.155E+00 0.215E+00 -.748E+01
   0.539E+02 0.495E+02 -.887E+03   -.541E+02 -.495E+02 0.879E+03   0.152E+00 0.122E-01 0.734E+01
   0.231E+02 0.522E+02 -.894E+03   -.231E+02 -.523E+02 0.886E+03   0.280E-01 0.140E+00 0.736E+01
   0.454E+02 0.249E+02 0.981E+03   -.457E+02 -.250E+02 -.973E+03   0.262E+00 0.768E-01 -.757E+01
   0.487E+02 0.112E+02 0.104E+04   -.492E+02 -.113E+02 -.103E+04   0.370E+00 0.115E+00 -.753E+01
   0.110E+03 0.140E+02 -.846E+03   -.111E+03 -.141E+02 0.838E+03   0.285E+00 0.476E-01 0.727E+01
   0.118E+03 0.916E+02 -.770E+03   -.120E+03 -.917E+02 0.763E+03   0.106E+01 0.142E+00 0.693E+01
   0.514E+02 -.143E+02 0.989E+03   -.519E+02 0.144E+02 -.981E+03   0.382E+00 -.235E-01 -.758E+01
   0.327E+02 -.435E+02 0.100E+04   -.330E+02 0.439E+02 -.996E+03   0.261E+00 -.281E+00 -.746E+01
   0.739E+02 -.493E+02 -.869E+03   -.742E+02 0.493E+02 0.861E+03   0.265E+00 -.300E-01 0.732E+01
   0.146E+03 -.566E+02 -.728E+03   -.149E+03 0.566E+02 0.720E+03   0.200E+01 -.412E-01 0.720E+01
   0.261E+02 -.276E+02 0.959E+03   -.262E+02 0.278E+02 -.951E+03   0.951E-01 -.967E-01 -.749E+01
   0.116E+02 -.244E+02 0.954E+03   -.116E+02 0.245E+02 -.946E+03   0.229E-01 -.106E+00 -.750E+01
   0.242E+02 -.275E+02 -.906E+03   -.242E+02 0.276E+02 0.898E+03   0.165E-01 -.466E-01 0.739E+01
   0.359E+02 -.731E+02 -.870E+03   -.359E+02 0.734E+02 0.863E+03   0.453E-02 -.268E+00 0.731E+01
   0.248E-01 -.703E+01 0.948E+03   -.247E-01 0.705E+01 -.940E+03   -.113E-03 -.206E-01 -.748E+01
   -.921E+01 0.123E+02 0.948E+03   0.924E+01 -.124E+02 -.940E+03   -.186E-01 0.499E-01 -.748E+01
   0.304E-01 0.213E+02 -.906E+03   -.303E-01 -.214E+02 0.898E+03   -.959E-04 0.481E-01 0.739E+01
   -.114E+02 -.102E+02 -.908E+03   0.114E+02 0.102E+02 0.900E+03   -.808E-02 -.868E-02 0.739E+01
   0.300E-01 0.351E+02 0.963E+03   -.299E-01 -.354E+02 -.955E+03   -.105E-03 0.216E+00 -.752E+01
   -.251E+02 0.443E+02 0.984E+03   0.253E+02 -.446E+02 -.976E+03   -.155E+00 0.215E+00 -.748E+01
   0.107E+00 0.125E+03 -.825E+03   -.107E+00 -.126E+03 0.817E+03   -.344E-03 0.109E+01 0.732E+01
   -.230E+02 0.522E+02 -.894E+03   0.230E+02 -.524E+02 0.886E+03   -.283E-01 0.140E+00 0.736E+01
   0.862E-01 0.467E+02 0.104E+04   -.858E-01 -.471E+02 -.103E+04   -.303E-03 0.310E+00 -.640E+01
   -.485E+02 0.112E+02 0.104E+04   0.490E+02 -.114E+02 -.103E+04   -.370E+00 0.115E+00 -.753E+01
   0.463E+00 0.319E+02 -.582E+03   -.463E+00 -.334E+02 0.577E+03   -.452E-03 0.112E+01 0.526E+01
   -.118E+03 0.918E+02 -.769E+03   0.120E+03 -.919E+02 0.762E+03   -.106E+01 0.142E+00 0.692E+01
   0.139E+00 -.290E+02 0.106E+04   -.137E+00 0.291E+02 -.106E+04   -.106E-02 -.126E+00 -.539E+01
   -.325E+02 -.436E+02 0.100E+04   0.329E+02 0.440E+02 -.996E+03   -.261E+00 -.281E+00 -.746E+01
   0.331E+00 -.146E+03 -.756E+03   -.328E+00 0.148E+03 0.748E+03   -.177E-02 -.199E+01 0.705E+01
   -.146E+03 -.567E+02 -.727E+03   0.149E+03 0.567E+02 0.719E+03   -.200E+01 -.426E-01 0.719E+01
[...]
   -.986E+01 0.905E+01 0.708E+03   0.988E+01 -.906E+01 -.712E+03   -.275E-01 0.150E-01 0.351E+01
   -.162E-01 0.628E+01 0.705E+03   0.161E-01 -.628E+01 -.708E+03   0.803E-04 0.612E-02 0.352E+01
   -.183E+02 0.959E+01 -.684E+03   0.183E+02 -.960E+01 0.688E+03   -.218E-01 0.976E-02 -.365E+01
   -.495E-01 0.250E+01 -.685E+03   0.493E-01 -.250E+01 0.689E+03   0.266E-03 0.737E-02 -.364E+01
   -.144E+02 0.228E+01 0.712E+03   0.144E+02 -.228E+01 -.716E+03   -.426E-01 0.115E-01 0.350E+01
   -.283E-01 0.600E+01 0.708E+03   0.281E-01 -.601E+01 -.712E+03   0.206E-03 0.109E-01 0.351E+01
   -.207E+02 -.480E+01 -.682E+03   0.207E+02 0.480E+01 0.686E+03   -.306E-01 0.471E-02 -.365E+01
   -.473E-01 -.830E+01 -.687E+03   0.470E-01 0.830E+01 0.690E+03   0.309E-03 -.225E-02 -.363E+01
   -.118E+02 -.796E+01 0.710E+03   0.118E+02 0.797E+01 -.714E+03   -.399E-01 -.131E-01 0.351E+01
   -.356E-01 -.299E+01 0.709E+03   0.354E-01 0.299E+01 -.713E+03   0.286E-03 0.992E-03 0.351E+01
   -.123E+02 -.116E+02 -.687E+03   0.123E+02 0.116E+02 0.691E+03   -.219E-01 -.112E-01 -.363E+01
   -.260E-01 -.701E+01 -.690E+03   0.259E-01 0.702E+01 0.694E+03   0.158E-03 -.798E-02 -.362E+01
   -.654E+01 -.655E+01 0.705E+03   0.655E+01 0.656E+01 -.709E+03   -.195E-01 -.157E-01 0.352E+01
   -.259E-01 -.754E+01 0.706E+03   0.257E-01 0.755E+01 -.710E+03   0.190E-03 -.118E-01 0.352E+01
   -.311E-01 -.275E+00 0.251E+01   0.702E-12 0.682E-12 0.200E-10   0.667E-01 0.290E+00 -.171E+01

 POSITION                                       TOTAL-FORCE (eV/Angst)
      8.45714      9.05883     13.49759         0.003299      0.158828     -0.049291
      8.46060     10.81262     15.42040         0.008706      0.100845     -0.243879
      8.46768     13.55697     15.76553         0.012727     -0.200113     -0.192114
      8.45984     12.47141     13.36585         0.005744     -0.039535      0.126030
      0.00000      0.00000      9.00000        -0.004056      0.002014      0.591238
      2.11389      2.11389      9.00000        -0.007989     -0.002644      0.592294
      0.00000      2.11389     11.11389        -0.002571      0.000565     -0.565158
      2.11389      0.00000     11.11389        -0.003609      0.002085     -0.563472
      0.00000      4.22777      9.00000        -0.006692     -0.002529      0.592501
      2.11389      6.34166      9.00000        -0.025021     -0.009192      0.598585
      0.00000      6.34166     11.11389        -0.003383     -0.000972     -0.560845
      2.11389      4.22777     11.11389        -0.007770     -0.000846     -0.558983
      0.00000      8.45554      9.00000        -0.013539     -0.003998      0.595280
      2.11389     10.56943      9.00000        -0.045976     -0.006230      0.604397
      0.00000     10.56943     11.11389        -0.004878     -0.002178     -0.557140
      2.11389      8.45554     11.11389        -0.008421     -0.002611     -0.543100
      0.00000     12.68331      9.00000        -0.017748     -0.000102      0.595851
      2.11389     14.79720      9.00000        -0.038250      0.008975      0.600138
      0.00000     14.79720     11.11389        -0.006544      0.000199     -0.559745
      2.11389     12.68331     11.11389        -0.020751     -0.002950     -0.541267
      0.00000     16.91108      9.00000        -0.010034      0.004440      0.593204
      2.11389     19.02497      9.00000        -0.010817      0.008764      0.592757
      0.00000     19.02497     11.11389        -0.003466      0.001957     -0.564393
      2.11389     16.91108     11.11389        -0.011872      0.003926     -0.556002
      4.22777      0.00000      9.00000        -0.006939      0.004799      0.594247
      6.34166      2.11389      9.00000        -0.006459     -0.016049      0.596189
      4.22777      2.11389     11.11389        -0.004778     -0.003672     -0.559424
      6.34166      0.00000     11.11389        -0.002163      0.001611     -0.558129
      4.22777      4.22777      9.00000        -0.020637     -0.019921      0.595650
      6.34166      6.34166      9.00000        -0.056909     -0.074676      0.583985
      4.22777      6.34166     11.11389        -0.031932      0.002521     -0.524186
      6.34166      4.22777     11.11389        -0.007110     -0.030872     -0.537959
      4.22777      8.45554      9.00000        -0.083164     -0.025250      0.618203
      6.34166     10.56943      9.00000        -0.135594     -0.042598      0.571564
      4.22777     10.56943     11.11389        -0.055242     -0.015525     -0.474987
      6.34166      8.45554     11.11389        -0.368807     -0.017723     -0.366114
      4.22777     12.68331      9.00000        -0.118466      0.007328      0.619299
      6.34166     14.79720      9.00000        -0.095230      0.101517      0.571251
      4.22777     14.79720     11.11389        -0.056606      0.004981     -0.511564
      6.34166     12.68331     11.11389        -0.720097      0.018276     -0.539983
      4.22777     16.91108      9.00000        -0.032162      0.032336      0.597408
      6.34166     19.02497      9.00000        -0.007877      0.033385      0.600898
      4.22777     19.02497     11.11389        -0.004145      0.010214     -0.555599
      6.34166     16.91108     11.11389         0.003936      0.054511     -0.504837
      8.45554      0.00000      9.00000        -0.000154      0.006441      0.596002
     10.56943      2.11389      9.00000         0.006151     -0.016063      0.596158
      8.45554      2.11389     11.11389        -0.000122     -0.010074     -0.553882
     10.56943      0.00000     11.11389         0.001860      0.001571     -0.558119
      8.45554      4.22777      9.00000        -0.000121     -0.067487      0.604624
     10.56943      6.34166      9.00000         0.056641     -0.074642      0.584069
      8.45554      6.34166     11.11389        -0.000033     -0.326478     -0.494568
     10.56943      4.22777     11.11389         0.006823     -0.030801     -0.537926
      8.45554      8.45554      9.00000        -0.000089     -0.090683      0.276235
     10.56943     10.56943      9.00000         0.135395     -0.042460      0.571423
      8.45554     10.56943     11.11389        -0.000468     -0.305166     -0.499807
     10.56943      8.45554     11.11389         0.369303     -0.017886     -0.365917
      8.45554     12.68331      9.00000         0.000180      0.033462     -0.008531
     10.56943     14.79720      9.00000         0.095062      0.101394      0.571561
      8.45554     14.79720     11.11389         0.000376      0.639623     -0.381992
     10.56943     12.68331     11.11389         0.723725      0.019192     -0.542204
[...]
     19.02497      6.34166     11.11389        -0.000127      0.001251      0.281800
     16.91108      6.34166      9.00000        -0.007796      0.004088     -0.315571
     19.02497      4.22777      9.00000        -0.000148      0.001637     -0.313457
     16.91108      8.45554     11.11389        -0.006306      0.002662      0.276208
     19.02497     10.56943     11.11389        -0.000090      0.001980      0.279100
     16.91108     10.56943      9.00000        -0.011984      0.003096     -0.317750
     19.02497      8.45554      9.00000        -0.000126      0.002973     -0.315318
     16.91108     12.68331     11.11389        -0.008767      0.001238      0.275281
     19.02497     14.79720     11.11389        -0.000090     -0.000713      0.280938
     16.91108     14.79720      9.00000        -0.011212     -0.003714     -0.315976
     19.02497     12.68331      9.00000        -0.000093      0.000184     -0.315418
     16.91108     16.91108     11.11389        -0.006277     -0.003211      0.280953
     19.02497     19.02497     11.11389        -0.000131     -0.002295      0.284397
     16.91108     19.02497      9.00000        -0.005545     -0.004415     -0.313406
     19.02497     16.91108      9.00000        -0.000115     -0.003358     -0.313684
    total drift:                                0.035581      0.014720      0.805262

  FREE ENERGIE OF THE ION-ELECTRON SYSTEM (eV)
  free  energy   TOTEN  =     -1744.80208766 eV

  energy  without entropy=    -1744.80208766  energy(sigma->0) =    -1744.80208766