 vasp.6.4.0 14Feb23 (build Jul 14 2023 13:46:40) complex

 executed on             LinuxIFC date 2023.07.30  06:17:42

 INCAR:
   SYSTEM = MgO-rocksalt
   ISMEAR = 0
   SIGMA = 0.05
   EDIFF = 1E-6
   ALGO = ALL
   ISTART = 0
   IBRION = -1
   NSW = 0
   ISYM = 2
   DIPOL = 0.5 0.5 0.5
   IDIPOL = 3
   LDIPOL = .TRUE.
   METAGGA = TPSS
   ENCUT = 520
   PREC = Accurate
   LASPH = .TRUE.
   LREAL = Auto
   ISPIN = 1
   NELM = 200
   NELMIN = 8
   NCORE = 16
   KPAR = 1
   LWAVE = .FALSE.
   LCHARG = .FALSE.

 POTCAR:    PAW_PBE Au 04Oct2007
 POTCAR:    PAW_PBE Mg_pv 13Apr2007
 POTCAR:    PAW_PBE O 08Apr2002
 POTCAR:    PAW_PBE Au 04Oct2007
   VRHFIN =Au: s1d10

   TITEL  = PAW_PBE Au 04Oct2007
   POMASS =  196.966; ZVAL   =   11.000    mass and valenz
   ENMAX  =  229.943; ENMIN  =  172.457 eV

   TITEL  = PAW_PBE Mg_pv 13Apr2007
   POMASS =   24.305; ZVAL   =    8.000    mass and valenz
   ENMAX  =  403.929; ENMIN  =  302.947 eV

   TITEL  = PAW_PBE O 08Apr2002
   POMASS =   16.000; ZVAL   =    6.000    mass and valenz
   ENMAX  =  400.000; ENMIN  =  300.000 eV

 Optimization of the real space projectors (new method)

 maximal supplied QI-value         = 15.12
 optimisation between [QCUT,QGAM] = [ 11.64, 23.28] = [ 37.95,151.78] Ry
 Optimized for a Real-space Cutoff    1.49 Angstroem

   l    n(q)    QCUT    max X(q) W(low)/X(q) W(high)/X(q)  e(spline)
   2      9    11.641    60.898    0.24E-03    0.10E-03    0.19E-06
   2      9    11.641    58.894    0.25E-03    0.10E-03    0.19E-06
   0     10    11.641   109.617    0.73E-04    0.33E-04    0.11E-06
   0     10    11.641    75.026    0.71E-04    0.32E-04    0.11E-06
   1     10    11.641    16.344    0.27E-04    0.97E-04    0.16E-06
   1     10    11.641    10.160    0.23E-04    0.77E-04    0.13E-06
 Optimization of the real space projectors (new method)

[...]

   l    n(q)    QCUT    max X(q) W(low)/X(q) W(high)/X(q)  e(spline)
   1      8    11.527     2.974    0.44E-04    0.56E-04    0.12E-06
   1      8    11.527     4.279    0.12E-03    0.12E-03    0.26E-06
   0      9    11.527    16.381    0.46E-04    0.64E-04    0.78E-07
   0      9    11.527     5.611    0.26E-04    0.43E-04    0.55E-07
   2      8    11.527     4.652    0.22E-03    0.72E-04    0.47E-07
 Optimization of the real space projectors (new method)

 maximal supplied QI-value         = 24.76
 optimisation between [QCUT,QGAM] = [ 11.64, 23.27] = [ 37.91,151.63] Ry
 Optimized for a Real-space Cutoff    1.14 Angstroem

   l    n(q)    QCUT    max X(q) W(low)/X(q) W(high)/X(q)  e(spline)
   0      8    11.635    20.381    0.10E-03    0.33E-03    0.24E-06
   0      8    11.635    15.268    0.11E-03    0.35E-03    0.26E-06
   1      7    11.635     5.964    0.24E-03    0.31E-03    0.30E-06
   1      7    11.635     5.382    0.22E-03    0.25E-03    0.26E-06
  PAW_PBE Au 04Oct2007                  :
  PAW_PBE Mg_pv 13Apr2007               :
  PAW_PBE O 08Apr2002                   :

 POSCAR: Au Mg  O
  positions in direct lattice
  velocities in cartesian coordinates

 METAGGA = TPSS                                        LMAXTAU =  6    LMIXTAU =  F

 ion  position               nearest neighbor table
   1  0.404  0.596  0.665-   2 2.57   4 2.74
   2  0.332  0.668  0.602- 138 2.40   1 2.57  59 2.71  40 2.71
   3  0.568  0.432  0.602- 173 2.40   4 2.57  75 2.71  56 2.71
   4  0.496  0.504  0.665-   3 2.57   1 2.74
   5  0.000  0.000  0.407- 107 2.11 108 2.11 123 2.11 188 2.11 105 2.11
   6  0.100  0.100  0.407- 107 2.11 108 2.11 112 2.11 127 2.11 106 2.11
   7  0.000  0.100  0.503- 105 2.11 106 2.11 109 2.11 186 2.11 107 2.11
   8  0.100  0.000  0.503- 105 2.11 106 2.11 122 2.11 125 2.11 108 2.11
   9  0.000  0.200  0.407- 111 2.11 107 2.11 112 2.11 192 2.11 109 2.11
  10  0.100  0.300  0.407- 112 2.11 111 2.11 116 2.11 131 2.11 110 2.11
  11  0.000  0.300  0.503- 109 2.11 110 2.11 113 2.11 190 2.11 111 2.11
  12  0.100  0.200  0.503- 110 2.11 109 2.11 106 2.11 129 2.11 112 2.11
  13  0.000  0.400  0.407- 111 2.11 115 2.11 116 2.11 196 2.11 113 2.11
  14  0.100  0.500  0.407- 115 2.11 116 2.11 120 2.11 135 2.11 114 2.11
  15  0.000  0.500  0.503- 113 2.11 114 2.11 117 2.11 194 2.11 115 2.11
  16  0.100  0.400  0.503- 110 2.11 113 2.11 114 2.11 133 2.11 116 2.11
  17  0.000  0.600  0.407- 115 2.11 119 2.11 120 2.11 200 2.11 117 2.11
  18  0.100  0.700  0.407- 124 2.11 120 2.11 119 2.11 139 2.11 118 2.11
  19  0.000  0.700  0.503- 121 2.11 118 2.11 117 2.11 198 2.11 119 2.11
  20  0.100  0.600  0.503- 114 2.11 117 2.11 118 2.11 137 2.11 120 2.11
  21  0.000  0.800  0.407- 119 2.11 123 2.11 124 2.11 204 2.11 121 2.11
  22  0.100  0.900  0.407- 108 2.11 123 2.11 124 2.11 143 2.11 122 2.11
  23  0.000  0.900  0.503- 105 2.11 121 2.11 122 2.11 202 2.11 123 2.11
  24  0.100  0.800  0.503- 118 2.11 121 2.11 122 2.11 141 2.11 124 2.11
  25  0.200  0.000  0.407- 128 2.11 127 2.11 108 2.11 143 2.11 125 2.11
  26  0.300  0.100  0.407- 127 2.11 128 2.11 132 2.11 147 2.11 126 2.11
  27  0.200  0.100  0.503- 126 2.11 125 2.11 106 2.11 129 2.11 127 2.11
  28  0.300  0.000  0.503- 125 2.11 126 2.11 142 2.11 145 2.11 128 2.11
  29  0.200  0.200  0.407- 131 2.11 132 2.11 112 2.11 127 2.11 129 2.11
  30  0.300  0.300  0.407- 131 2.11 132 2.11 136 2.11 151 2.11 130 2.11
  31  0.200  0.300  0.503- 129 2.11 130 2.11 110 2.11 133 2.11 131 2.11
  32  0.300  0.200  0.503- 129 2.11 130 2.11 126 2.11 149 2.11 132 2.11
  33  0.200  0.400  0.407- 136 2.11 131 2.11 135 2.11 116 2.11 133 2.11
  34  0.300  0.500  0.407- 135 2.11 136 2.11 140 2.11 155 2.11 134 2.11
  35  0.200  0.500  0.503- 134 2.11 133 2.11 114 2.11 137 2.11 135 2.11
  36  0.300  0.400  0.503- 133 2.11 130 2.11 134 2.11 153 2.11 136 2.11
  37  0.200  0.600  0.407- 140 2.11 135 2.11 139 2.11 120 2.11 137 2.11
  38  0.300  0.700  0.407- 139 2.11 144 2.11 140 2.11 159 2.11 138 2.11
  39  0.200  0.700  0.503- 138 2.11 141 2.11 118 2.11 137 2.11 139 2.11
  40  0.300  0.600  0.503- 137 2.11 134 2.11 138 2.11 157 2.11 140 2.11   2 2.71
  41  0.200  0.800  0.407- 139 2.11 144 2.11 143 2.11 124 2.11 141 2.11
  42  0.300  0.900  0.407- 143 2.11 128 2.11 144 2.11 163 2.11 142 2.11
  43  0.200  0.900  0.503- 142 2.11 125 2.11 141 2.11 122 2.11 143 2.11
  44  0.300  0.800  0.503- 138 2.11 141 2.11 142 2.11 161 2.11 144 2.11
  45  0.400  0.000  0.407- 128 2.11 147 2.11 148 2.11 163 2.11 145 2.11
  46  0.500  0.100  0.407- 147 2.11 148 2.11 152 2.11 167 2.11 146 2.11
  47  0.400  0.100  0.503- 126 2.11 145 2.11 146 2.11 149 2.11 147 2.11
  48  0.500  0.000  0.503- 145 2.11 146 2.11 162 2.11 165 2.11 148 2.11
  49  0.400  0.200  0.407- 151 2.11 147 2.11 132 2.11 152 2.11 149 2.11
  50  0.500  0.300  0.407- 152 2.11 151 2.11 156 2.11 171 2.11 150 2.11
  51  0.400  0.300  0.503- 149 2.11 130 2.11 150 2.11 153 2.11 151 2.11
  52  0.500  0.200  0.503- 150 2.11 149 2.11 146 2.11 169 2.11 152 2.11
  53  0.400  0.400  0.407- 136 2.11 151 2.11 155 2.11 156 2.11 153 2.11
  54  0.500  0.500  0.407- 155 2.11 156 2.11 160 2.11 175 2.11 154 2.11
  55  0.400  0.500  0.503- 134 2.11 153 2.11 154 2.11 157 2.11 155 2.11
  56  0.500  0.400  0.503- 150 2.11 153 2.11 154 2.11 173 2.11 156 2.11   3 2.71
  57  0.400  0.600  0.407- 140 2.11 155 2.11 159 2.11 160 2.11 157 2.11
  58  0.500  0.700  0.407- 164 2.11 160 2.11 159 2.11 179 2.11 158 2.11
  59  0.400  0.700  0.503- 161 2.11 157 2.11 158 2.11 138 2.11 159 2.11   2 2.71
  60  0.500  0.600  0.503- 154 2.11 157 2.11 158 2.11 177 2.11 160 2.11
[...]
 190  0.900  0.300  0.503-  92 2.11  91 2.11  11 2.11  96 2.11  90 2.11
 191  0.800  0.300  0.407-  70 2.11  89 2.11  90 2.11  93 2.11  91 2.11
 192  0.900  0.200  0.407-  90 2.11  86 2.11  89 2.11   9 2.11  92 2.11
 193  0.800  0.400  0.503-  76 2.11  91 2.11  95 2.11  96 2.11  93 2.11
 194  0.900  0.500  0.503-  15 2.11  95 2.11  96 2.11 100 2.11  94 2.11
 195  0.800  0.500  0.407-  74 2.11  93 2.11  94 2.11  97 2.11  95 2.11
 196  0.900  0.400  0.407-  13 2.11  90 2.11  93 2.11  94 2.11  96 2.11
 197  0.800  0.600  0.503-  80 2.11  95 2.11  99 2.11 100 2.11  97 2.11
 198  0.900  0.700  0.503- 104 2.11  99 2.11 100 2.11  19 2.11  98 2.11
 199  0.800  0.700  0.407-  78 2.11 101 2.11  98 2.11  97 2.11  99 2.11
 200  0.900  0.600  0.407-  17 2.11  94 2.11  97 2.11  98 2.11 100 2.11
 201  0.800  0.800  0.503-  84 2.11  99 2.11 103 2.11 104 2.11 101 2.11
 202  0.900  0.900  0.503-  23 2.11  88 2.11 103 2.11 104 2.11 102 2.11
 203  0.800  0.900  0.407-  82 2.11  85 2.11 101 2.11 102 2.11 103 2.11
 204  0.900  0.800  0.407-  98 2.11  21 2.11 101 2.11 102 2.11 104 2.11

  LATTYP: Found a simple tetragonal cell.
 ALAT       =    21.1388521970
 C/A-ratio  =     1.0461251639

  Lattice vectors:

 A1 = (  21.1388521970,   0.0000000000,   0.0000000000)
 A2 = (   0.0000000000,  21.1388521970,   0.0000000000)
 A3 = (   0.0000000000,   0.0000000000,  22.1138852197)

Analysis of symmetry for initial positions (statically):
 Subroutine PRICEL returns:
 Original cell was already a primitive cell.

 Routine SETGRP: Setting up the symmetry group for a
 simple tetragonal supercell.

 Subroutine GETGRP returns: Found  2 space group operations
 (whereof  1 operations were pure point group operations)
 out of a pool of 16 trial point group operations.

The static configuration has the point symmetry C_1 .
 The point group associated with its full space group is C_1h.

Analysis of symmetry for dynamics (positions and initial velocities):
 Subroutine PRICEL returns:
 Original cell was already a primitive cell.

[...]

The dynamic configuration has the point symmetry C_1 .
 The point group associated with its full space group is C_1h.

Analysis of constrained symmetry for selective dynamics:
 Subroutine PRICEL returns:
 Original cell was already a primitive cell.

 Routine SETGRP: Setting up the symmetry group for a
 simple tetragonal supercell.

 Subroutine GETGRP returns: Found  2 space group operations
 (whereof  1 operations were pure point group operations)
 out of a pool of 16 trial point group operations.

The constrained configuration has the point symmetry C_1 .
 The point group associated with its full space group is C_1h.

 Subroutine INISYM returns: Found  2 space group operations
 (whereof  1 operations are pure point group operations),
 and found     1 'primitive' translations

                                     Primitive cell

  volume of cell :    9881.6133

  direct lattice vectors                    reciprocal lattice vectors
    21.138852197  0.000000000  0.000000000     0.047306258  0.000000000  0.000000000
     0.000000000 21.138852197  0.000000000     0.000000000  0.047306258  0.000000000
     0.000000000  0.000000000 22.113885220     0.000000000  0.000000000  0.045220457

  length of vectors
    21.138852197 21.138852197 22.113885220     0.047306258  0.047306258  0.045220457

  position of ions in fractional coordinates (direct lattice)
     0.404253373  0.595794633  0.665345618
     0.332139373  0.667908160  0.602022863
     0.567907686  0.432139846  0.602022863
     0.495794160  0.504253373  0.665345618
     0.000000000  0.000000000  0.406984115
     0.100000000  0.100000000  0.406984115
     0.000000000  0.100000000  0.502574971
     0.100000000  0.000000000  0.502574971
[...]
     52     -43.3570      2.00000
     53     -43.3515      2.00000
     54     -43.3489      2.00000
     55     -43.3485      2.00000
     56     -43.3485      2.00000
     57     -43.3482      2.00000
     58     -43.3475      2.00000
     59     -43.3458      2.00000
     60     -43.3457      2.00000
[...]
    882       5.7391      0.00000
    883       5.7625      0.00000
    884       5.7949      0.00000
    885       5.8330      0.00000
    886       5.8608      0.00000
    887       5.9239      0.00000
    888       5.9299      0.00000
    889       6.0364      0.00000
    890       6.0536      0.00000
    891       6.0674      0.00000
    892       6.1162      0.00000
    893       6.1584      0.00000
    894       6.2503      0.00000
    895       6.3142      0.00000
    896       6.4362      0.00000

 soft charge-density along one line, spin component           1
         0         1         2         3         4         5         6         7         8         9
 total charge-density along one line

------------------------ aborting loop because EDIFF is reached ----------------------------------------

  FORCE on cell =-STRESS in cart. coord.  units (eV):
  Direction    XX          YY          ZZ          XY          YZ          ZX
  Alpha Z  1417.83424  1417.83424  1417.83424
  Ewald  482423.15860482423.15974************ -1155.82133    -0.02915    -0.03097
  Hartree511760.03260511760.03300************  -910.07451    -0.01302    -0.01359
  E(xc)   -8277.54388 -8277.54388 -8303.07006    -0.96079     0.00003     0.00004
  Local  ************************************  2048.67849     0.04078     0.04294
  n-local -8936.28841 -8936.28837 -9061.04400    11.68806    -0.00291    -0.00316
  augment  4042.43833  4042.43833  3987.67549     1.44956     0.00140     0.00141
  Kinetic 23331.82803 23331.82798 23575.89247     6.72391    -0.00019     0.00001
  Fock        0.00000     0.00000     0.00000     0.00000     0.00000     0.00000
  Total    -165.49839  -165.49839     9.04081     1.68340    -0.00319    -0.00319
  in kB     -26.83345   -26.83345     1.46585     0.27294    -0.00052    -0.00052

 VOLUME and BASIS-vectors are now :
  energy-cutoff  :      520.00
  volume of cell :     9881.61
      direct lattice vectors                 reciprocal lattice vectors
    21.138852197  0.000000000  0.000000000     0.047306258  0.000000000  0.000000000
     0.000000000 21.138852197  0.000000000     0.000000000  0.047306258  0.000000000
     0.000000000  0.000000000 22.113885220     0.000000000  0.000000000  0.045220457

  length of vectors
    21.138852197 21.138852197 22.113885220     0.047306258  0.047306258  0.045220457

 FORCES acting on ions:
    Electron-Ion                     Ewald-Force                    Non-Local-Force
   0.492E+02 -.492E+02 -.197E+04   -.510E+02 0.510E+02 0.197E+04   0.193E+01 -.193E+01 0.265E+01
   0.221E+03 -.221E+03 -.203E+04   -.218E+03 0.218E+03 0.203E+04   -.253E+01 0.253E+01 -.226E+01
   -.221E+03 0.221E+03 -.203E+04   0.218E+03 -.218E+03 0.203E+04   0.253E+01 -.253E+01 -.226E+01
   -.492E+02 0.492E+02 -.197E+04   0.510E+02 -.510E+02 0.197E+04   -.193E+01 0.193E+01 0.265E+01
   0.457E+01 -.457E+01 0.938E+03   -.461E+01 0.461E+01 -.929E+03   0.307E-01 -.306E-01 -.795E+01
   0.896E+01 0.203E+01 0.939E+03   -.895E+01 -.195E+01 -.930E+03   -.470E-02 -.580E-01 -.795E+01
   0.331E+01 0.331E+01 -.919E+03   -.328E+01 -.328E+01 0.911E+03   -.207E-01 -.207E-01 0.786E+01
   0.139E+02 -.104E+02 -.917E+03   -.139E+02 0.105E+02 0.908E+03   0.248E-01 -.981E-01 0.786E+01
   0.202E+01 0.896E+01 0.939E+03   -.195E+01 -.895E+01 -.930E+03   -.580E-01 -.470E-02 -.795E+01
   0.143E+02 0.155E+02 0.945E+03   -.142E+02 -.155E+02 -.936E+03   -.527E-01 0.225E-03 -.797E+01
   0.314E+01 0.155E+02 -.915E+03   -.302E+01 -.155E+02 0.907E+03   -.919E-01 -.792E-03 0.785E+01
   0.132E+02 0.132E+02 -.916E+03   -.132E+02 -.132E+02 0.908E+03   -.418E-01 -.418E-01 0.786E+01
   0.487E+01 0.110E+02 0.945E+03   -.477E+01 -.110E+02 -.937E+03   -.798E-01 0.198E-01 -.796E+01
   0.281E+02 0.111E+02 0.958E+03   -.281E+02 -.113E+02 -.949E+03   -.573E-02 0.122E+00 -.797E+01
   0.128E+02 0.788E+01 -.909E+03   -.128E+02 -.792E+01 0.901E+03   -.301E-01 0.267E-01 0.784E+01
   0.306E+02 0.233E+02 -.906E+03   -.304E+02 -.233E+02 0.898E+03   -.108E+00 0.437E-01 0.784E+01
   0.121E+02 -.242E+01 0.949E+03   -.122E+02 0.238E+01 -.941E+03   0.844E-01 0.315E-01 -.797E+01
   0.317E+02 -.129E+02 0.961E+03   -.323E+02 0.128E+02 -.952E+03   0.410E+00 0.461E-01 -.802E+01
   0.203E+02 -.128E+02 -.910E+03   -.205E+02 0.128E+02 0.901E+03   0.145E+00 0.197E-01 0.785E+01
   0.581E+02 0.285E+01 -.893E+03   -.583E+02 -.301E+01 0.885E+03   0.149E+00 0.121E+00 0.782E+01
   0.108E+02 -.130E+02 0.944E+03   -.110E+02 0.130E+02 -.936E+03   0.152E+00 -.161E-01 -.796E+01
   0.158E+02 -.158E+02 0.945E+03   -.159E+02 0.159E+02 -.937E+03   0.111E+00 -.111E+00 -.794E+01
   0.104E+02 -.139E+02 -.917E+03   -.105E+02 0.139E+02 0.908E+03   0.982E-01 -.248E-01 0.786E+01
   0.387E+02 -.287E+02 -.904E+03   -.391E+02 0.288E+02 0.896E+03   0.335E+00 -.250E-01 0.785E+01
   0.130E+02 -.109E+02 0.944E+03   -.130E+02 0.110E+02 -.936E+03   0.160E-01 -.152E+00 -.796E+01
   0.110E+02 0.487E+01 0.945E+03   -.110E+02 -.477E+01 -.937E+03   0.198E-01 -.798E-01 -.796E+01
   0.155E+02 0.314E+01 -.915E+03   -.155E+02 -.302E+01 0.907E+03   -.792E-03 -.919E-01 0.785E+01
   0.128E+02 -.203E+02 -.910E+03   -.128E+02 0.205E+02 0.901E+03   -.197E-01 -.145E+00 0.785E+01
   0.155E+02 0.143E+02 0.945E+03   -.155E+02 -.142E+02 -.936E+03   0.225E-03 -.527E-01 -.797E+01
   0.252E+02 0.322E+02 0.964E+03   -.253E+02 -.321E+02 -.955E+03   0.776E-01 -.413E-01 -.802E+01
   0.329E+02 0.329E+02 -.905E+03   -.328E+02 -.328E+02 0.897E+03   -.616E-01 -.616E-01 0.783E+01
   0.233E+02 0.306E+02 -.906E+03   -.233E+02 -.304E+02 0.898E+03   0.437E-01 -.108E+00 0.784E+01
   0.322E+02 0.252E+02 0.964E+03   -.321E+02 -.253E+02 -.955E+03   -.413E-01 0.776E-01 -.802E+01
   0.425E+02 0.277E+02 0.101E+04   -.426E+02 -.282E+02 -.100E+04   0.105E-01 0.364E+00 -.830E+01
   0.792E+02 0.416E+02 -.870E+03   -.788E+02 -.419E+02 0.862E+03   -.272E+00 0.294E+00 0.775E+01
   0.671E+02 0.671E+02 -.862E+03   -.669E+02 -.669E+02 0.854E+03   -.150E+00 -.150E+00 0.772E+01
   0.499E+02 0.287E+01 0.992E+03   -.501E+02 -.338E+01 -.984E+03   0.144E+00 0.380E+00 -.796E+01
   0.342E+02 -.342E+02 0.103E+04   -.339E+02 0.339E+02 -.102E+04   -.204E+00 0.203E+00 -.547E+01
   0.109E+03 -.430E+02 -.840E+03   -.112E+03 0.427E+02 0.832E+03   0.185E+01 0.216E+00 0.788E+01
   0.120E+03 0.626E+02 -.698E+03   -.120E+03 -.655E+02 0.692E+03   -.485E+00 0.188E+01 0.565E+01
   0.312E+02 -.312E+02 0.970E+03   -.315E+02 0.315E+02 -.962E+03   0.254E+00 -.254E+00 -.786E+01
   0.129E+02 -.318E+02 0.961E+03   -.128E+02 0.323E+02 -.952E+03   -.462E-01 -.410E+00 -.802E+01
   0.287E+02 -.387E+02 -.904E+03   -.288E+02 0.391E+02 0.896E+03   0.249E-01 -.335E+00 0.785E+01
   0.431E+02 -.109E+03 -.840E+03   -.428E+02 0.112E+03 0.832E+03   -.216E+00 -.185E+01 0.788E+01
   0.242E+01 -.121E+02 0.949E+03   -.238E+01 0.122E+02 -.941E+03   -.315E-01 -.844E-01 -.797E+01
   -.242E+01 0.121E+02 0.949E+03   0.238E+01 -.122E+02 -.941E+03   0.315E-01 0.844E-01 -.797E+01
   0.788E+01 0.128E+02 -.909E+03   -.792E+01 -.128E+02 0.901E+03   0.267E-01 -.301E-01 0.784E+01
   -.788E+01 -.129E+02 -.909E+03   0.792E+01 0.128E+02 0.901E+03   -.267E-01 0.302E-01 0.784E+01
   0.111E+02 0.281E+02 0.958E+03   -.113E+02 -.281E+02 -.949E+03   0.122E+00 -.573E-02 -.797E+01
   0.287E+01 0.499E+02 0.992E+03   -.338E+01 -.501E+02 -.984E+03   0.380E+00 0.144E+00 -.796E+01
   0.416E+02 0.792E+02 -.870E+03   -.419E+02 -.788E+02 0.862E+03   0.294E+00 -.272E+00 0.775E+01
   0.285E+01 0.581E+02 -.893E+03   -.301E+01 -.583E+02 0.885E+03   0.121E+00 0.149E+00 0.782E+01
   0.277E+02 0.425E+02 0.101E+04   -.282E+02 -.426E+02 -.100E+04   0.364E+00 0.105E-01 -.830E+01
   -.765E+01 0.767E+01 0.105E+04   0.734E+01 -.737E+01 -.104E+04   0.232E+00 -.233E+00 -.821E+01
   0.665E+02 0.665E+02 -.737E+03   -.667E+02 -.667E+02 0.730E+03   0.161E+00 0.161E+00 0.720E+01
   0.626E+02 0.120E+03 -.698E+03   -.655E+02 -.120E+03 0.692E+03   0.188E+01 -.485E+00 0.565E+01
   0.767E+01 -.765E+01 0.105E+04   -.737E+01 0.734E+01 -.104E+04   -.233E+00 0.232E+00 -.821E+01
   -.277E+02 -.425E+02 0.101E+04   0.282E+02 0.426E+02 -.100E+04   -.364E+00 -.105E-01 -.830E+01
   -.626E+02 -.120E+03 -.698E+03   0.655E+02 0.120E+03 0.692E+03   -.188E+01 0.485E+00 0.564E+01
   -.665E+02 -.665E+02 -.737E+03   0.667E+02 0.667E+02 0.730E+03   -.162E+00 -.162E+00 0.720E+01
[...]
   -.181E+02 0.142E+02 0.716E+03   0.182E+02 -.143E+02 -.720E+03   -.251E+00 0.113E+00 0.350E+01
   -.563E+01 0.800E+01 0.706E+03   0.569E+01 -.802E+01 -.710E+03   -.895E-01 0.460E-01 0.349E+01
   -.423E+02 0.143E+02 -.672E+03   0.424E+02 -.143E+02 0.676E+03   -.272E+00 -.927E-01 -.372E+01
   -.142E+02 0.197E+01 -.682E+03   0.143E+02 -.193E+01 0.687E+03   -.573E-01 -.472E-01 -.366E+01
   -.251E+02 -.571E-02 0.723E+03   0.252E+02 0.151E+00 -.727E+03   -.164E+00 -.191E+00 0.346E+01
   -.984E+01 0.738E+01 0.712E+03   0.992E+01 -.736E+01 -.716E+03   -.125E+00 -.145E-01 0.348E+01
   -.339E+02 -.138E+02 -.675E+03   0.339E+02 0.139E+02 0.680E+03   -.499E-02 -.144E+00 -.371E+01
   -.496E+01 -.108E+02 -.685E+03   0.491E+01 0.108E+02 0.689E+03   0.646E-01 -.127E-01 -.365E+01
   -.155E+02 -.121E+02 0.714E+03   0.154E+02 0.122E+02 -.718E+03   0.467E-01 -.436E-01 0.345E+01
   -.646E+01 -.420E+01 0.712E+03   0.645E+01 0.424E+01 -.716E+03   0.737E-02 -.398E-01 0.347E+01
   -.147E+02 -.156E+02 -.685E+03   0.147E+02 0.156E+02 0.690E+03   0.690E-01 0.249E-01 -.365E+01
   -.171E+01 -.840E+01 -.689E+03   0.166E+01 0.840E+01 0.694E+03   0.553E-01 0.714E-02 -.362E+01
   -.770E+01 -.769E+01 0.707E+03   0.767E+01 0.767E+01 -.711E+03   0.309E-01 0.309E-01 0.347E+01
   -.194E+01 -.909E+01 0.708E+03   0.188E+01 0.910E+01 -.712E+03   0.724E-01 -.635E-02 0.348E+01
   -.734E+00 0.733E+00 0.167E+02   0.343E-11 -.405E-12 -.110E-10   0.254E-02 0.254E-02 -.174E+02

 POSITION                                       TOTAL-FORCE (eV/Angst)
      8.54545     12.59441     14.71338         0.004298     -0.003500      0.065968
      7.02105     14.11881     13.31306        -0.004064      0.003411      0.089835
     12.00492      9.13494     13.31306         0.003411     -0.004064      0.089835
     10.48052     10.65934     14.71338        -0.003500      0.004298      0.065968
      0.00000      0.00000      9.00000        -0.008530      0.008496      0.411867
      2.11389      2.11389      9.00000         0.001200      0.015446      0.413712
      0.00000      2.11389     11.11389         0.005457      0.005457     -0.382022
      2.11389      0.00000     11.11389        -0.007189      0.025918     -0.379860
      0.00000      4.22777      9.00000         0.015446      0.001200      0.413712
      2.11389      6.34166      9.00000         0.014399      0.000679      0.417974
      0.00000      6.34166     11.11389         0.024255      0.000597     -0.378628
      2.11389      4.22777     11.11389         0.011524      0.011524     -0.379597
      0.00000      8.45554      9.00000         0.020601     -0.005056      0.415656
      2.11389     10.56943      9.00000        -0.000608     -0.034179      0.418563
      0.00000     10.56943     11.11389         0.008193     -0.007283     -0.372332
      2.11389      8.45554     11.11389         0.029547     -0.009950     -0.368791
      0.00000     12.68331      9.00000        -0.022328     -0.009435      0.416738
      2.11389     14.79720      9.00000        -0.102658     -0.013739      0.424352
      0.00000     14.79720     11.11389        -0.036487     -0.005974     -0.373409
      2.11389     12.68331     11.11389        -0.039583     -0.036018     -0.352288
      0.00000     16.91108      9.00000        -0.040142      0.004770      0.414036
      2.11389     19.02497      9.00000        -0.031713      0.031718      0.407308
      0.00000     19.02497     11.11389        -0.025935      0.007193     -0.379843
      2.11389     16.91108     11.11389        -0.087183      0.008752     -0.369230
      4.22777      0.00000      9.00000        -0.004791      0.040091      0.414058
      6.34166      2.11389      9.00000        -0.005056      0.020601      0.415656
      4.22777      2.11389     11.11389         0.000597      0.024255     -0.378628
      6.34166      0.00000     11.11389         0.005963      0.036441     -0.373401
      4.22777      4.22777      9.00000         0.000679      0.014399      0.417974
      6.34166      6.34166      9.00000        -0.017820      0.012653      0.434319
      4.22777      6.34166     11.11389         0.018533      0.018533     -0.366794
      6.34166      4.22777     11.11389        -0.009950      0.029547     -0.368791
      4.22777      8.45554      9.00000         0.012653     -0.017820      0.434319
      6.34166     10.56943      9.00000         0.001612     -0.088148      0.497118
      4.22777     10.56943     11.11389         0.086111     -0.065894     -0.307482
      6.34166      8.45554     11.11389         0.049344      0.049344     -0.303319
      4.22777     12.68331      9.00000        -0.052468     -0.122247      0.395557
      6.34166     14.79720      9.00000         0.069271     -0.069143     -0.158262
      4.22777     14.79720     11.11389        -0.566567     -0.075303     -0.331975
      6.34166     12.68331     11.11389        -0.011479     -0.978059     -0.384075
      4.22777     16.91108      9.00000        -0.086653      0.086660      0.368593
      6.34166     19.02497      9.00000         0.013746      0.102608      0.424357
      4.22777     19.02497     11.11389        -0.008754      0.087161     -0.369212
      6.34166     16.91108     11.11389         0.075385      0.566546     -0.331946
      8.45554      0.00000      9.00000         0.009440      0.022289      0.416753
     10.56943      2.11389      9.00000        -0.009435     -0.022328      0.416738
      8.45554      2.11389     11.11389        -0.007283      0.008193     -0.372332
     10.56943      0.00000     11.11389         0.007276     -0.008262     -0.372331
      8.45554      4.22777      9.00000        -0.034179     -0.000608      0.418563
     10.56943      6.34166      9.00000        -0.122247     -0.052468      0.395557
      8.45554      6.34166     11.11389        -0.065894      0.086111     -0.307482
     10.56943      4.22777     11.11389        -0.036018     -0.039583     -0.352288
      8.45554      8.45554      9.00000        -0.088148      0.001612      0.497118
     10.56943     10.56943      9.00000        -0.073780      0.073856      0.435381
      8.45554     10.56943     11.11389        -0.026296     -0.026296      0.013395
     10.56943      8.45554     11.11389        -0.978059     -0.011479     -0.384075
      8.45554     12.68331      9.00000         0.073856     -0.073780      0.435381
     10.56943     14.79720      9.00000         0.088144     -0.001640      0.497204
      8.45554     14.79720     11.11389         0.979142      0.011829     -0.385299
     10.56943     12.68331     11.11389         0.026425      0.026425      0.013669
[...]
     19.02497      6.34166     11.11389        -0.034367      0.004575      0.488825
     16.91108      6.34166      9.00000        -0.069060      0.030493     -0.520942
     19.02497      4.22777      9.00000        -0.024676      0.012589     -0.526018
     16.91108      8.45554     11.11389        -0.077083     -0.025404      0.470393
     19.02497     10.56943     11.11389        -0.016042     -0.013173      0.482995
     16.91108     10.56943      9.00000        -0.044829     -0.051772     -0.532537
     19.02497      8.45554      9.00000        -0.034566     -0.004223     -0.528777
     16.91108     12.68331     11.11389        -0.001843     -0.040215      0.471997
     19.02497     14.79720     11.11389         0.017961     -0.003298      0.487399
     16.91108     14.79720      9.00000         0.012983     -0.011969     -0.534881
     19.02497     12.68331      9.00000         0.002134     -0.010891     -0.530990
     16.91108     16.91108     11.11389         0.019054      0.006883      0.487158
     19.02497     19.02497     11.11389         0.015250      0.001961      0.493402
     16.91108     19.02497      9.00000         0.008534      0.008534     -0.529023
     19.02497     16.91108      9.00000         0.020031     -0.001666     -0.528582
    total drift:                               -0.731652      0.735056     -0.694355

  FREE ENERGIE OF THE ION-ELECTRON SYSTEM (eV)
  free  energy   TOTEN  =     -1766.14017987 eV

  energy  without entropy=    -1766.14017987  energy(sigma->0) =    -1766.14017987