 vasp.6.4.0 14Feb23 (build Jul 14 2023 13:46:40) complex

 executed on             LinuxIFC date 2023.07.30  06:17:02

 INCAR:
   SYSTEM = MgO-rocksalt
   ISMEAR = 0
   SIGMA = 0.05
   EDIFF = 1E-6
   ALGO = ALL
   ISTART = 0
   IBRION = -1
   NSW = 0
   ISYM = 2
   DIPOL = 0.5 0.5 0.5
   IDIPOL = 3
   LDIPOL = .TRUE.
   METAGGA = TPSS
   ENCUT = 520
   PREC = Accurate
   LASPH = .TRUE.
   LREAL = Auto
   ISPIN = 1
   NELM = 200
   NELMIN = 8
   NCORE = 16
   KPAR = 1
   LWAVE = .FALSE.
   LCHARG = .FALSE.

 POTCAR:    PAW_PBE Au 04Oct2007
 POTCAR:    PAW_PBE Mg_pv 13Apr2007
 POTCAR:    PAW_PBE O 08Apr2002
 POTCAR:    PAW_PBE Au 04Oct2007
   VRHFIN =Au: s1d10

   TITEL  = PAW_PBE Au 04Oct2007
   POMASS =  196.966; ZVAL   =   11.000    mass and valenz
   ENMAX  =  229.943; ENMIN  =  172.457 eV

   TITEL  = PAW_PBE Mg_pv 13Apr2007
   POMASS =   24.305; ZVAL   =    8.000    mass and valenz
   ENMAX  =  403.929; ENMIN  =  302.947 eV

   TITEL  = PAW_PBE O 08Apr2002
   POMASS =   16.000; ZVAL   =    6.000    mass and valenz
   ENMAX  =  400.000; ENMIN  =  300.000 eV

 Optimization of the real space projectors (new method)

 maximal supplied QI-value         = 15.12
 optimisation between [QCUT,QGAM] = [ 11.64, 23.28] = [ 37.95,151.78] Ry
 Optimized for a Real-space Cutoff    1.49 Angstroem

   l    n(q)    QCUT    max X(q) W(low)/X(q) W(high)/X(q)  e(spline)
   2      9    11.641    60.898    0.24E-03    0.10E-03    0.19E-06
   2      9    11.641    58.894    0.25E-03    0.10E-03    0.19E-06
   0     10    11.641   109.617    0.73E-04    0.33E-04    0.11E-06
   0     10    11.641    75.026    0.71E-04    0.32E-04    0.11E-06
   1     10    11.641    16.344    0.27E-04    0.97E-04    0.16E-06
   1     10    11.641    10.160    0.23E-04    0.77E-04    0.13E-06
 Optimization of the real space projectors (new method)

[...]

   l    n(q)    QCUT    max X(q) W(low)/X(q) W(high)/X(q)  e(spline)
   1      8    11.527     2.974    0.44E-04    0.56E-04    0.12E-06
   1      8    11.527     4.279    0.12E-03    0.12E-03    0.26E-06
   0      9    11.527    16.381    0.46E-04    0.64E-04    0.78E-07
   0      9    11.527     5.611    0.26E-04    0.43E-04    0.55E-07
   2      8    11.527     4.652    0.22E-03    0.72E-04    0.47E-07
 Optimization of the real space projectors (new method)

 maximal supplied QI-value         = 24.76
 optimisation between [QCUT,QGAM] = [ 11.64, 23.27] = [ 37.91,151.63] Ry
 Optimized for a Real-space Cutoff    1.14 Angstroem

   l    n(q)    QCUT    max X(q) W(low)/X(q) W(high)/X(q)  e(spline)
   0      8    11.635    20.381    0.10E-03    0.33E-03    0.24E-06
   0      8    11.635    15.268    0.11E-03    0.35E-03    0.26E-06
   1      7    11.635     5.964    0.24E-03    0.31E-03    0.30E-06
   1      7    11.635     5.382    0.22E-03    0.25E-03    0.26E-06
  PAW_PBE Au 04Oct2007                  :
  PAW_PBE Mg_pv 13Apr2007               :
  PAW_PBE O 08Apr2002                   :

 POSCAR: Au Mg  O
  positions in direct lattice
  velocities in cartesian coordinates

 METAGGA = TPSS                                        LMAXTAU =  6    LMIXTAU =  F

 ion  position               nearest neighbor table
   1  0.400  0.425  0.603- 153 2.29   2 2.53  55 2.73
   2  0.400  0.510  0.684-   1 2.53   3 2.68   4 2.74
   3  0.400  0.633  0.713-   4 2.57   2 2.68
   4  0.400  0.605  0.600- 157 2.16   3 2.57   2 2.74  59 2.95  40 3.02  60 3.02
   5  0.000  0.000  0.407- 107 2.11 108 2.11 123 2.11 188 2.11 105 2.11
   6  0.100  0.100  0.407- 107 2.11 108 2.11 112 2.11 127 2.11 106 2.11
   7  0.000  0.100  0.503- 105 2.11 106 2.11 109 2.11 186 2.11 107 2.11
   8  0.100  0.000  0.503- 105 2.11 106 2.11 122 2.11 125 2.11 108 2.11
   9  0.000  0.200  0.407- 111 2.11 107 2.11 112 2.11 192 2.11 109 2.11
  10  0.100  0.300  0.407- 112 2.11 111 2.11 116 2.11 131 2.11 110 2.11
  11  0.000  0.300  0.503- 109 2.11 110 2.11 113 2.11 190 2.11 111 2.11
  12  0.100  0.200  0.503- 110 2.11 109 2.11 106 2.11 129 2.11 112 2.11
  13  0.000  0.400  0.407- 111 2.11 115 2.11 116 2.11 196 2.11 113 2.11
  14  0.100  0.500  0.407- 115 2.11 116 2.11 120 2.11 135 2.11 114 2.11
  15  0.000  0.500  0.503- 113 2.11 114 2.11 117 2.11 194 2.11 115 2.11
  16  0.100  0.400  0.503- 110 2.11 113 2.11 114 2.11 133 2.11 116 2.11
  17  0.000  0.600  0.407- 115 2.11 119 2.11 120 2.11 200 2.11 117 2.11
  18  0.100  0.700  0.407- 124 2.11 120 2.11 119 2.11 139 2.11 118 2.11
  19  0.000  0.700  0.503- 121 2.11 118 2.11 117 2.11 198 2.11 119 2.11
  20  0.100  0.600  0.503- 114 2.11 117 2.11 118 2.11 137 2.11 120 2.11
  21  0.000  0.800  0.407- 119 2.11 123 2.11 124 2.11 204 2.11 121 2.11
  22  0.100  0.900  0.407- 108 2.11 123 2.11 124 2.11 143 2.11 122 2.11
  23  0.000  0.900  0.503- 105 2.11 121 2.11 122 2.11 202 2.11 123 2.11
  24  0.100  0.800  0.503- 118 2.11 121 2.11 122 2.11 141 2.11 124 2.11
  25  0.200  0.000  0.407- 128 2.11 127 2.11 108 2.11 143 2.11 125 2.11
  26  0.300  0.100  0.407- 127 2.11 128 2.11 132 2.11 147 2.11 126 2.11
  27  0.200  0.100  0.503- 126 2.11 125 2.11 106 2.11 129 2.11 127 2.11
  28  0.300  0.000  0.503- 125 2.11 126 2.11 142 2.11 145 2.11 128 2.11
  29  0.200  0.200  0.407- 131 2.11 132 2.11 112 2.11 127 2.11 129 2.11
  30  0.300  0.300  0.407- 131 2.11 132 2.11 136 2.11 151 2.11 130 2.11
  31  0.200  0.300  0.503- 129 2.11 130 2.11 110 2.11 133 2.11 131 2.11
  32  0.300  0.200  0.503- 129 2.11 130 2.11 126 2.11 149 2.11 132 2.11
  33  0.200  0.400  0.407- 136 2.11 131 2.11 135 2.11 116 2.11 133 2.11
  34  0.300  0.500  0.407- 135 2.11 136 2.11 140 2.11 155 2.11 134 2.11
  35  0.200  0.500  0.503- 134 2.11 133 2.11 114 2.11 137 2.11 135 2.11
  36  0.300  0.400  0.503- 133 2.11 130 2.11 134 2.11 153 2.11 136 2.11
  37  0.200  0.600  0.407- 140 2.11 135 2.11 139 2.11 120 2.11 137 2.11
  38  0.300  0.700  0.407- 139 2.11 144 2.11 140 2.11 159 2.11 138 2.11
  39  0.200  0.700  0.503- 138 2.11 141 2.11 118 2.11 137 2.11 139 2.11
  40  0.300  0.600  0.503- 137 2.11 134 2.11 138 2.11 157 2.11 140 2.11   4 3.02
  41  0.200  0.800  0.407- 139 2.11 144 2.11 143 2.11 124 2.11 141 2.11
  42  0.300  0.900  0.407- 143 2.11 128 2.11 144 2.11 163 2.11 142 2.11
  43  0.200  0.900  0.503- 142 2.11 125 2.11 141 2.11 122 2.11 143 2.11
  44  0.300  0.800  0.503- 138 2.11 141 2.11 142 2.11 161 2.11 144 2.11
  45  0.400  0.000  0.407- 128 2.11 147 2.11 148 2.11 163 2.11 145 2.11
  46  0.500  0.100  0.407- 147 2.11 148 2.11 152 2.11 167 2.11 146 2.11
  47  0.400  0.100  0.503- 126 2.11 145 2.11 146 2.11 149 2.11 147 2.11
  48  0.500  0.000  0.503- 145 2.11 146 2.11 162 2.11 165 2.11 148 2.11
  49  0.400  0.200  0.407- 151 2.11 147 2.11 132 2.11 152 2.11 149 2.11
  50  0.500  0.300  0.407- 152 2.11 151 2.11 156 2.11 171 2.11 150 2.11
  51  0.400  0.300  0.503- 149 2.11 130 2.11 150 2.11 153 2.11 151 2.11
  52  0.500  0.200  0.503- 150 2.11 149 2.11 146 2.11 169 2.11 152 2.11
  53  0.400  0.400  0.407- 136 2.11 151 2.11 155 2.11 156 2.11 153 2.11
  54  0.500  0.500  0.407- 155 2.11 156 2.11 160 2.11 175 2.11 154 2.11
  55  0.400  0.500  0.503- 134 2.11 153 2.11 154 2.11 157 2.11 155 2.11   1 2.73
  56  0.500  0.400  0.503- 150 2.11 153 2.11 154 2.11 173 2.11 156 2.11
  57  0.400  0.600  0.407- 140 2.11 155 2.11 159 2.11 160 2.11 157 2.11
  58  0.500  0.700  0.407- 164 2.11 160 2.11 159 2.11 179 2.11 158 2.11
  59  0.400  0.700  0.503- 161 2.11 157 2.11 158 2.11 138 2.11 159 2.11   4 2.95
  60  0.500  0.600  0.503- 154 2.11 157 2.11 158 2.11 177 2.11 160 2.11   4 3.02
[...]
 190  0.900  0.300  0.503-  92 2.11  91 2.11  11 2.11  96 2.11  90 2.11
 191  0.800  0.300  0.407-  70 2.11  89 2.11  90 2.11  93 2.11  91 2.11
 192  0.900  0.200  0.407-  90 2.11  86 2.11  89 2.11   9 2.11  92 2.11
 193  0.800  0.400  0.503-  76 2.11  91 2.11  95 2.11  96 2.11  93 2.11
 194  0.900  0.500  0.503-  15 2.11  95 2.11  96 2.11 100 2.11  94 2.11
 195  0.800  0.500  0.407-  74 2.11  93 2.11  94 2.11  97 2.11  95 2.11
 196  0.900  0.400  0.407-  13 2.11  90 2.11  93 2.11  94 2.11  96 2.11
 197  0.800  0.600  0.503-  80 2.11  95 2.11  99 2.11 100 2.11  97 2.11
 198  0.900  0.700  0.503- 104 2.11  99 2.11 100 2.11  19 2.11  98 2.11
 199  0.800  0.700  0.407-  78 2.11 101 2.11  98 2.11  97 2.11  99 2.11
 200  0.900  0.600  0.407-  17 2.11  94 2.11  97 2.11  98 2.11 100 2.11
 201  0.800  0.800  0.503-  84 2.11  99 2.11 103 2.11 104 2.11 101 2.11
 202  0.900  0.900  0.503-  23 2.11  88 2.11 103 2.11 104 2.11 102 2.11
 203  0.800  0.900  0.407-  82 2.11  85 2.11 101 2.11 102 2.11 103 2.11
 204  0.900  0.800  0.407-  98 2.11  21 2.11 101 2.11 102 2.11 104 2.11

  LATTYP: Found a simple tetragonal cell.
 ALAT       =    21.1388521970
 C/A-ratio  =     1.0461251639

  Lattice vectors:

 A1 = (  21.1388521970,   0.0000000000,   0.0000000000)
 A2 = (   0.0000000000,  21.1388521970,   0.0000000000)
 A3 = (   0.0000000000,   0.0000000000,  22.1138852197)

Analysis of symmetry for initial positions (statically):
 Subroutine PRICEL returns:
 Original cell was already a primitive cell.

 Routine SETGRP: Setting up the symmetry group for a
 simple tetragonal supercell.

 Subroutine GETGRP returns: Found  1 space group operations
 (whereof  1 operations were pure point group operations)
 out of a pool of 16 trial point group operations.

The static configuration has the point symmetry C_1 .

Analysis of symmetry for dynamics (positions and initial velocities):
 Subroutine PRICEL returns:
 Original cell was already a primitive cell.

[...]

The dynamic configuration has the point symmetry C_1 .

Analysis of constrained symmetry for selective dynamics:
 Subroutine PRICEL returns:
 Original cell was already a primitive cell.

 Routine SETGRP: Setting up the symmetry group for a
 simple tetragonal supercell.

 Subroutine GETGRP returns: Found  1 space group operations
 (whereof  1 operations were pure point group operations)
 out of a pool of 16 trial point group operations.

The constrained configuration has the point symmetry C_1 .

 Subroutine INISYM returns: Found  1 space group operations
 (whereof  1 operations are pure point group operations),
 and found     1 'primitive' translations

                                     Primitive cell

  volume of cell :    9881.6133

  direct lattice vectors                    reciprocal lattice vectors
    21.138852197  0.000000000  0.000000000     0.047306258  0.000000000  0.000000000
     0.000000000 21.138852197  0.000000000     0.000000000  0.047306258  0.000000000
     0.000000000  0.000000000 22.113885220     0.000000000  0.000000000  0.045220457

  length of vectors
    21.138852197 21.138852197 22.113885220     0.047306258  0.047306258  0.045220457

  position of ions in fractional coordinates (direct lattice)
     0.399951201  0.425242954  0.603301976
     0.399957296  0.509675129  0.684179581
     0.400053355  0.632584174  0.713145052
     0.399972466  0.604759939  0.599963044
     0.000000000  0.000000000  0.406984115
     0.100000000  0.100000000  0.406984115
     0.000000000  0.100000000  0.502574971
     0.100000000  0.000000000  0.502574971
     0.000000000  0.200000000  0.406984115
     0.100000000  0.300000000  0.406984115
     0.000000000  0.300000000  0.502574971
[...]
     52     -43.3573      2.00000
     53     -43.3572      2.00000
     54     -43.3538      2.00000
     55     -43.3533      2.00000
     56     -43.3482      2.00000
     57     -43.3469      2.00000
     58     -43.3452      2.00000
     59     -43.3450      2.00000
     60     -43.3449      2.00000
[...]
    882       6.1416      0.00000
    883       6.1631      0.00000
    884       6.1845      0.00000
    885       6.2285      0.00000
    886       6.2838      0.00000
    887       6.3813      0.00000
    888       6.4190      0.00000
    889       6.4264      0.00000
    890       6.4635      0.00000
    891       6.4648      0.00000
    892       6.5446      0.00000
    893       6.5863      0.00000
    894       6.6339      0.00000
    895       6.6455      0.00000
    896       6.7778      0.00000

 soft charge-density along one line, spin component           1
         0         1         2         3         4         5         6         7         8         9
 total charge-density along one line

------------------------ aborting loop because EDIFF is reached ----------------------------------------

  FORCE on cell =-STRESS in cart. coord.  units (eV):
  Direction    XX          YY          ZZ          XY          YZ          ZX
  Alpha Z  1417.83424  1417.83424  1417.83424
  Ewald  478689.67923480803.91176************     0.83759   457.00324     0.56808
  Hartree508373.09297510021.03690************     0.62574   334.89947     0.41914
  E(xc)   -8278.91841 -8277.47812 -8302.67801     0.00065     0.46310     0.00063
  Local  ************************************    -1.44851  -780.22122    -0.97681
  n-local -8917.77727 -8928.81610 -9064.53920    -0.00490    -5.65640    -0.00400
  augment  4045.61129  4041.73994  3983.86114    -0.00270    -1.51389    -0.00275
  Kinetic 23340.92917 23329.05620 23563.24343    -0.00778    -5.03379    -0.00122
  Fock        0.00000     0.00000     0.00000     0.00000     0.00000     0.00000
  Total    -164.64005  -164.29050     8.82722     0.00010    -0.05949     0.00306
  in kB     -26.69428   -26.63761     1.43122     0.00002    -0.00965     0.00050

 VOLUME and BASIS-vectors are now :
  energy-cutoff  :      520.00
  volume of cell :     9881.61
      direct lattice vectors                 reciprocal lattice vectors
    21.138852197  0.000000000  0.000000000     0.047306258  0.000000000  0.000000000
     0.000000000 21.138852197  0.000000000     0.000000000  0.047306258  0.000000000
     0.000000000  0.000000000 22.113885220     0.000000000  0.000000000  0.045220457

  length of vectors
    21.138852197 21.138852197 22.113885220     0.047306258  0.047306258  0.045220457

 FORCES acting on ions:
    Electron-Ion                     Ewald-Force                    Non-Local-Force
   0.615E-01 0.369E+03 -.196E+04   -.629E-01 -.366E+03 0.197E+04   0.228E-02 -.337E+01 -.442E+01
   0.196E+00 0.209E+03 -.198E+04   -.196E+00 -.211E+03 0.198E+04   0.774E-03 0.237E+01 0.381E+01
   -.393E+00 -.355E+03 -.186E+04   0.386E+00 0.351E+03 0.185E+04   0.685E-02 0.390E+01 0.575E+01
   0.139E+00 -.226E+03 -.180E+04   -.137E+00 0.227E+03 0.180E+04   -.214E-03 -.106E+01 -.253E+01
   0.728E+01 -.275E+01 0.937E+03   -.731E+01 0.276E+01 -.929E+03   0.167E-01 -.697E-02 -.795E+01
   0.131E+02 0.618E+01 0.940E+03   -.131E+02 -.620E+01 -.932E+03   0.349E-01 0.121E-01 -.795E+01
   0.949E+01 0.529E+01 -.918E+03   -.951E+01 -.529E+01 0.910E+03   0.146E-01 -.281E-02 0.786E+01
   0.158E+02 -.520E+01 -.916E+03   -.158E+02 0.521E+01 0.908E+03   0.192E-01 -.937E-02 0.786E+01
   0.977E+01 0.993E+01 0.939E+03   -.981E+01 -.994E+01 -.931E+03   0.301E-01 0.885E-02 -.795E+01
   0.254E+02 0.186E+02 0.950E+03   -.256E+02 -.186E+02 -.942E+03   0.114E+00 0.328E-01 -.798E+01
   0.184E+02 0.158E+02 -.914E+03   -.185E+02 -.158E+02 0.906E+03   0.221E-01 0.301E-02 0.785E+01
   0.240E+02 0.201E+02 -.912E+03   -.240E+02 -.201E+02 0.904E+03   0.483E-01 0.438E-02 0.785E+01
   0.172E+02 0.973E+01 0.946E+03   -.173E+02 -.974E+01 -.937E+03   0.571E-01 0.126E-01 -.797E+01
   0.394E+02 0.477E+01 0.962E+03   -.396E+02 -.479E+01 -.954E+03   0.194E+00 0.177E-01 -.801E+01
   0.286E+02 0.429E+01 -.908E+03   -.286E+02 -.430E+01 0.900E+03   0.284E-01 0.775E-02 0.784E+01
   0.538E+02 0.225E+02 -.898E+03   -.538E+02 -.225E+02 0.889E+03   0.555E-01 0.905E-02 0.782E+01
   0.191E+02 -.486E+01 0.948E+03   -.192E+02 0.486E+01 -.939E+03   0.707E-01 0.373E-03 -.797E+01
   0.313E+02 -.168E+02 0.956E+03   -.315E+02 0.168E+02 -.948E+03   0.158E+00 -.303E-01 -.799E+01
   0.231E+02 -.140E+02 -.911E+03   -.232E+02 0.140E+02 0.902E+03   0.348E-01 0.145E-04 0.785E+01
   0.622E+02 -.117E+02 -.892E+03   -.623E+02 0.117E+02 0.884E+03   0.994E-01 0.117E-01 0.781E+01
   0.122E+02 -.120E+02 0.942E+03   -.122E+02 0.121E+02 -.933E+03   0.408E-01 -.149E-01 -.796E+01
   0.157E+02 -.127E+02 0.943E+03   -.157E+02 0.128E+02 -.934E+03   0.431E-01 -.323E-01 -.795E+01
   0.116E+02 -.114E+02 -.917E+03   -.117E+02 0.114E+02 0.909E+03   0.185E-01 -.801E-02 0.786E+01
   0.329E+02 -.257E+02 -.907E+03   -.330E+02 0.258E+02 0.898E+03   0.665E-01 -.157E-01 0.784E+01
   0.133E+02 -.528E+01 0.943E+03   -.134E+02 0.530E+01 -.935E+03   0.283E-01 -.158E-01 -.796E+01
   0.952E+01 0.126E+02 0.948E+03   -.955E+01 -.127E+02 -.940E+03   0.261E-01 0.777E-01 -.797E+01
   0.188E+02 0.132E+02 -.912E+03   -.188E+02 -.132E+02 0.904E+03   0.257E-01 0.253E-01 0.785E+01
   0.117E+02 -.106E+02 -.909E+03   -.117E+02 0.106E+02 0.901E+03   0.119E-01 -.721E-02 0.785E+01
   0.206E+02 0.226E+02 0.951E+03   -.207E+02 -.227E+02 -.943E+03   0.908E-01 0.841E-01 -.797E+01
   0.265E+02 0.457E+02 0.987E+03   -.268E+02 -.462E+02 -.978E+03   0.246E+00 0.316E+00 -.800E+01
   0.559E+02 0.506E+02 -.888E+03   -.561E+02 -.506E+02 0.880E+03   0.199E+00 -.186E-02 0.779E+01
   0.240E+02 0.539E+02 -.895E+03   -.241E+02 -.542E+02 0.886E+03   0.314E-01 0.177E+00 0.781E+01
   0.470E+02 0.254E+02 0.983E+03   -.475E+02 -.255E+02 -.974E+03   0.414E+00 0.918E-01 -.812E+01
   0.505E+02 0.115E+02 0.104E+04   -.512E+02 -.117E+02 -.103E+04   0.557E+00 0.128E+00 -.815E+01
   0.113E+03 0.144E+02 -.847E+03   -.113E+03 -.145E+02 0.839E+03   0.301E+00 0.373E-01 0.771E+01
   0.128E+03 0.927E+02 -.764E+03   -.130E+03 -.928E+02 0.757E+03   0.154E+01 0.566E-01 0.692E+01
   0.534E+02 -.141E+02 0.991E+03   -.541E+02 0.141E+02 -.983E+03   0.556E+00 -.361E-01 -.814E+01
   0.351E+02 -.449E+02 0.101E+04   -.355E+02 0.454E+02 -.100E+04   0.352E+00 -.397E+00 -.799E+01
   0.780E+02 -.504E+02 -.869E+03   -.783E+02 0.504E+02 0.860E+03   0.293E+00 -.764E-02 0.778E+01
   0.156E+03 -.488E+02 -.722E+03   -.159E+03 0.489E+02 0.714E+03   0.255E+01 -.415E-01 0.708E+01
   0.274E+02 -.286E+02 0.960E+03   -.275E+02 0.288E+02 -.952E+03   0.122E+00 -.123E+00 -.798E+01
   0.121E+02 -.255E+02 0.955E+03   -.121E+02 0.257E+02 -.947E+03   0.279E-01 -.133E+00 -.799E+01
   0.250E+02 -.284E+02 -.906E+03   -.250E+02 0.285E+02 0.898E+03   0.222E-01 -.553E-01 0.784E+01
   0.386E+02 -.776E+02 -.870E+03   -.386E+02 0.779E+02 0.862E+03   -.123E-01 -.292E+00 0.777E+01
   -.176E-02 -.745E+01 0.948E+03   0.172E-02 0.747E+01 -.940E+03   0.372E-04 -.178E-01 -.797E+01
   -.952E+01 0.126E+02 0.948E+03   0.955E+01 -.127E+02 -.940E+03   -.260E-01 0.778E-01 -.797E+01
   -.405E-02 0.219E+02 -.906E+03   0.401E-02 -.220E+02 0.898E+03   0.117E-03 0.611E-01 0.784E+01
   -.117E+02 -.106E+02 -.909E+03   0.117E+02 0.106E+02 0.901E+03   -.118E-01 -.719E-02 0.785E+01
   -.584E-02 0.364E+02 0.965E+03   0.574E-02 -.368E+02 -.956E+03   0.577E-04 0.351E+00 -.805E+01
   -.265E+02 0.457E+02 0.986E+03   0.268E+02 -.461E+02 -.978E+03   -.246E+00 0.316E+00 -.800E+01
   -.365E-01 0.133E+03 -.820E+03   0.361E-01 -.135E+03 0.813E+03   0.299E-03 0.162E+01 0.768E+01
   -.241E+02 0.539E+02 -.895E+03   0.241E+02 -.542E+02 0.886E+03   -.313E-01 0.177E+00 0.781E+01
   -.203E-01 0.474E+02 0.105E+04   0.198E-01 -.480E+02 -.104E+04   0.396E-03 0.466E+00 -.601E+01
   -.505E+02 0.115E+02 0.104E+04   0.512E+02 -.117E+02 -.103E+04   -.557E+00 0.128E+00 -.815E+01
   -.980E-01 0.196E+02 -.584E+03   0.971E-01 -.212E+02 0.579E+03   0.935E-03 0.142E+01 0.467E+01
   -.128E+03 0.927E+02 -.764E+03   0.130E+03 -.928E+02 0.757E+03   -.154E+01 0.571E-01 0.693E+01
   -.162E-01 -.272E+02 0.107E+04   0.157E-01 0.276E+02 -.106E+04   0.400E-03 -.310E+00 -.475E+01
   -.351E+02 -.449E+02 0.101E+04   0.355E+02 0.454E+02 -.100E+04   -.352E+00 -.398E+00 -.799E+01
   -.276E-01 -.162E+03 -.734E+03   0.275E-01 0.166E+03 0.727E+03   0.958E-04 -.243E+01 0.654E+01
   -.156E+03 -.488E+02 -.722E+03   0.159E+03 0.488E+02 0.715E+03   -.255E+01 -.420E-01 0.709E+01
[...]
   -.101E+02 0.914E+01 0.708E+03   0.101E+02 -.915E+01 -.712E+03   -.378E-01 0.164E-01 0.347E+01
   0.208E-02 0.632E+01 0.704E+03   -.206E-02 -.632E+01 -.708E+03   -.447E-04 0.675E-02 0.348E+01
   -.185E+02 0.966E+01 -.684E+03   0.185E+02 -.967E+01 0.688E+03   -.291E-01 0.831E-02 -.366E+01
   0.472E-02 0.256E+01 -.685E+03   -.466E-02 -.257E+01 0.690E+03   -.101E-03 0.754E-02 -.364E+01
   -.147E+02 0.235E+01 0.712E+03   0.147E+02 -.236E+01 -.716E+03   -.535E-01 0.113E-01 0.346E+01
   0.347E-02 0.607E+01 0.708E+03   -.342E-02 -.608E+01 -.712E+03   -.898E-04 0.108E-01 0.347E+01
   -.210E+02 -.474E+01 -.682E+03   0.210E+02 0.474E+01 0.687E+03   -.372E-01 0.628E-02 -.366E+01
   0.252E-02 -.831E+01 -.687E+03   -.247E-02 0.831E+01 0.691E+03   -.870E-04 -.808E-03 -.363E+01
   -.121E+02 -.802E+01 0.710E+03   0.121E+02 0.803E+01 -.714E+03   -.495E-01 -.140E-01 0.347E+01
   0.290E-02 -.296E+01 0.709E+03   -.287E-02 0.296E+01 -.713E+03   -.762E-04 0.131E-02 0.347E+01
   -.126E+02 -.117E+02 -.687E+03   0.126E+02 0.117E+02 0.691E+03   -.283E-01 -.111E-01 -.363E+01
   0.108E-02 -.709E+01 -.690E+03   -.107E-02 0.710E+01 0.694E+03   -.285E-04 -.817E-02 -.362E+01
   -.669E+01 -.666E+01 0.705E+03   0.671E+01 0.667E+01 -.709E+03   -.259E-01 -.178E-01 0.348E+01
   0.136E-02 -.762E+01 0.706E+03   -.135E-02 0.763E+01 -.710E+03   -.390E-04 -.124E-01 0.348E+01
   -.646E-03 -.363E+01 0.453E+01   0.264E-11 -.120E-11 -.898E-11   0.562E-03 0.362E+01 -.523E+01

 POSITION                                       TOTAL-FORCE (eV/Angst)
      8.45451      8.98915     13.34135         0.000800     -0.021574      0.060175
      8.45464     10.77395     15.12987         0.000300      0.024336      0.048754
      8.45667     13.37210     15.77041        -0.000947      0.005183      0.056932
      8.45496     12.78393     13.26751         0.001434     -0.031180      0.084684
      0.00000      0.00000      9.00000        -0.004605      0.001878      0.413428
      2.11389      2.11389      9.00000        -0.009664     -0.003350      0.414635
      0.00000      2.11389     11.11389        -0.003767      0.000829     -0.382263
      2.11389      0.00000     11.11389        -0.005237      0.002454     -0.380638
      0.00000      4.22777      9.00000        -0.007943     -0.002382      0.414986
      2.11389      6.34166      9.00000        -0.029918     -0.008884      0.421988
      0.00000      6.34166     11.11389        -0.005197     -0.000545     -0.376780
      2.11389      4.22777     11.11389        -0.012076     -0.000991     -0.374373
      0.00000      8.45554      9.00000        -0.015083     -0.003462      0.418160
      2.11389     10.56943      9.00000        -0.051020     -0.005218      0.428823
      0.00000     10.56943     11.11389        -0.006251     -0.002181     -0.372148
      2.11389      8.45554     11.11389        -0.010637     -0.001933     -0.355531
      0.00000     12.68331      9.00000        -0.018495     -0.000162      0.418528
      2.11389     14.79720      9.00000        -0.041479      0.008497      0.423022
      0.00000     14.79720     11.11389        -0.008355     -0.000217     -0.375906
      2.11389     12.68331     11.11389        -0.021470     -0.003676     -0.354106
      0.00000     16.91108      9.00000        -0.010874      0.004134      0.415232
      2.11389     19.02497      9.00000        -0.011966      0.008935      0.414836
      0.00000     19.02497     11.11389        -0.004798      0.002088     -0.381734
      2.11389     16.91108     11.11389        -0.016687      0.004197     -0.371892
      4.22777      0.00000      9.00000        -0.007847      0.004061      0.415993
      6.34166      2.11389      9.00000        -0.007515     -0.020394      0.418776
      4.22777      2.11389     11.11389        -0.007068     -0.006002     -0.375054
      6.34166      0.00000     11.11389        -0.003200      0.001648     -0.374495
      4.22777      4.22777      9.00000        -0.025578     -0.023602      0.418070
      6.34166      6.34166      9.00000        -0.081407     -0.097772      0.408975
      4.22777      6.34166     11.11389        -0.044679      0.005815     -0.332140
      6.34166      4.22777     11.11389        -0.008626     -0.041823     -0.347880
      4.22777      8.45554      9.00000        -0.104738     -0.024902      0.450815
      6.34166     10.56943      9.00000        -0.186504     -0.043515      0.411085
      4.22777     10.56943     11.11389        -0.062066     -0.013148     -0.273786
      6.34166      8.45554     11.11389        -0.532459      0.006108     -0.090279
      4.22777     12.68331      9.00000        -0.138595      0.008951      0.454439
      6.34166     14.79720      9.00000        -0.115600      0.128147      0.394802
      4.22777     14.79720     11.11389        -0.069891     -0.001296     -0.321072
      6.34166     12.68331     11.11389        -0.898849     -0.004441     -0.218113
      4.22777     16.91108      9.00000        -0.034723      0.034757      0.419047
      6.34166     19.02497      9.00000        -0.007791      0.034633      0.422923
      4.22777     19.02497     11.11389        -0.006082      0.013582     -0.372024
      6.34166     16.91108     11.11389         0.009166      0.064722     -0.318207
      8.45554      0.00000      9.00000        -0.000006      0.004858      0.418117
     10.56943      2.11389      9.00000         0.007590     -0.020348      0.418918
      8.45554      2.11389     11.11389         0.000086     -0.013650     -0.368812
     10.56943      0.00000     11.11389         0.003192      0.001651     -0.374406
      8.45554      4.22777      9.00000        -0.000049     -0.087312      0.433238
     10.56943      6.34166      9.00000         0.081409     -0.097891      0.408883
      8.45554      6.34166     11.11389        -0.000149     -0.500482     -0.261228
     10.56943      4.22777     11.11389         0.008573     -0.041961     -0.347919
      8.45554      8.45554      9.00000        -0.000127     -0.102135     -0.000804
     10.56943     10.56943      9.00000         0.186443     -0.043531      0.411065
      8.45554     10.56943     11.11389         0.000010     -0.164599     -0.076686
     10.56943      8.45554     11.11389         0.531854      0.006133     -0.090464
      8.45554     12.68331      9.00000        -0.000152      0.073131     -0.270745
     10.56943     14.79720      9.00000         0.115566      0.128119      0.394669
      8.45554     14.79720     11.11389         0.000006      0.923909     -0.172523
     10.56943     12.68331     11.11389         0.898255     -0.004384     -0.217734
[...]
     19.02497      6.34166     11.11389        -0.000032      0.001067      0.492003
     16.91108      6.34166      9.00000        -0.010405      0.004526     -0.530645
     19.02497      4.22777      9.00000        -0.000028      0.001860     -0.528064
     16.91108      8.45554     11.11389        -0.008080      0.002310      0.485077
     19.02497     10.56943     11.11389        -0.000041      0.002085      0.488839
     16.91108     10.56943      9.00000        -0.014703      0.003113     -0.533283
     19.02497      8.45554      9.00000        -0.000042      0.002983     -0.530208
     16.91108     12.68331     11.11389        -0.010364      0.001734      0.484313
     19.02497     14.79720     11.11389        -0.000035     -0.000229      0.491354
     16.91108     14.79720      9.00000        -0.013645     -0.003843     -0.530974
     19.02497     12.68331      9.00000        -0.000044      0.000357     -0.530301
     16.91108     16.91108     11.11389        -0.007840     -0.003055      0.491576
     19.02497     19.02497     11.11389        -0.000018     -0.002256      0.495666
     16.91108     19.02497      9.00000        -0.007104     -0.004855     -0.527838
     19.02497     16.91108      9.00000        -0.000023     -0.003397     -0.528250
    total drift:                               -0.000084     -0.001475     -0.703893

  FREE ENERGIE OF THE ION-ELECTRON SYSTEM (eV)
  free  energy   TOTEN  =     -1767.35867267 eV

  energy  without entropy=    -1767.35867267  energy(sigma->0) =    -1767.35867267