 vasp.6.3.0 20Jan22 (build Apr  1 2022 16:44:48) complex
 executed on        HPECrayEX_GCC date 2023.02.10  17:52:56

 INCAR:
   SYSTEM = MgO-rocksalt
   ISMEAR = 0
   SIGMA = 0.05
   EDIFF = 1E-6
   ALGO = ALL
   ISTART = 0
   IBRION = -1
   NSW = 0
   ISYM = 2
   DIPOL = 0.5 0.5 0.5
   IDIPOL = 3
   LDIPOL = .TRUE.
   LHFCALC = .TRUE.
   HFSCREEN = 0.2
   GGA = PE
   ENCUT = 520
   PREC = Accurate
   LASPH = .TRUE.
   LREAL = Auto
   ISPIN = 1
   NELM = 200
   NELMIN = 8
   NCORE = 4
   KPAR = 2
   LWAVE = .FALSE.
   LCHARG = .FALSE.

 POTCAR:    PAW_PBE Cu 22Jun2005
 POTCAR:    PAW_PBE Mg_pv 13Apr2007
 POTCAR:    PAW_PBE O 08Apr2002
|           W    W    AA    RRRRR   N    N  II  N    N   GGGG   !!!           |
|           W    W   A  A   R    R  NN   N  II  NN   N  G    G  !!!           |
|           W    W  A    A  R    R  N N  N  II  N N  N  G       !!!           |
|           W WW W  AAAAAA  RRRRR   N  N N  II  N  N N  G  GGG   !            |
|           WW  WW  A    A  R   R   N   NN  II  N   NN  G    G                |
|           W    W  A    A  R    R  N    N  II  N    N   GGGG   !!!           |
|     You have selected ISYM=2 for a HF type calculation. This will           |
|     symmetrize the charge density but not the exchange potential. I         |
|     suggest to use ISYM=3 instead. This uses symmetry to obtain the         |
|     orbitals at all k-points in the Brillouin zone, but does not apply      |
|     symmetry to the Hartree potential directly. The resultant charge        |
|     might have lower symmetry than the crystal but, at least, Hartree       |
|     and exchange are fully compatible.                                      |

   TITEL  = PAW_PBE Cu 22Jun2005
   POMASS =   63.546; ZVAL   =   11.000    mass and valenz
   ENMAX  =  295.446; ENMIN  =  221.585 eV

   TITEL  = PAW_PBE Mg_pv 13Apr2007
   POMASS =   24.305; ZVAL   =    8.000    mass and valenz
   ENMAX  =  403.929; ENMIN  =  302.947 eV

   TITEL  = PAW_PBE O 08Apr2002
   POMASS =   16.000; ZVAL   =    6.000    mass and valenz
   ENMAX  =  400.000; ENMIN  =  300.000 eV

 Optimization of the real space projectors (new method)

 maximal supplied QI-value         = 16.25
 optimisation between [QCUT,QGAM] = [ 11.54, 23.24] = [ 37.28,151.24] Ry
 Optimized for a Real-space Cutoff    1.53 Angstroem

   l    n(q)    QCUT    max X(q) W(low)/X(q) W(high)/X(q)  e(spline)
   2     10    11.539     4.610    0.96E-04    0.13E-03    0.19E-06
   2     10    11.539     8.522    0.16E-03    0.21E-03    0.28E-06
   0     11    11.539    51.609    0.45E-04    0.31E-04    0.11E-06
   0     11    11.539    27.747    0.39E-04    0.29E-04    0.10E-06
   1     10    11.539    20.408    0.70E-05    0.38E-04    0.18E-06
   1     10    11.539    13.425    0.66E-05    0.34E-04    0.17E-06
 Optimization of the real space projectors (new method)

[...]

   l    n(q)    QCUT    max X(q) W(low)/X(q) W(high)/X(q)  e(spline)
   1      8    11.527     2.974    0.44E-04    0.56E-04    0.12E-06
   1      8    11.527     4.279    0.12E-03    0.12E-03    0.26E-06
   0      9    11.527    16.381    0.46E-04    0.64E-04    0.78E-07
   0      9    11.527     5.611    0.26E-04    0.43E-04    0.55E-07
   2      8    11.527     4.652    0.22E-03    0.72E-04    0.47E-07
 Optimization of the real space projectors (new method)

 maximal supplied QI-value         = 24.76
 optimisation between [QCUT,QGAM] = [ 11.64, 23.27] = [ 37.91,151.63] Ry
 Optimized for a Real-space Cutoff    1.14 Angstroem

   l    n(q)    QCUT    max X(q) W(low)/X(q) W(high)/X(q)  e(spline)
   0      8    11.635    20.381    0.10E-03    0.33E-03    0.24E-06
   0      8    11.635    15.268    0.11E-03    0.35E-03    0.26E-06
   1      7    11.635     5.964    0.24E-03    0.31E-03    0.30E-06
   1      7    11.635     5.382    0.22E-03    0.25E-03    0.26E-06
  PAW_PBE Cu 22Jun2005                  :
  PAW_PBE Mg_pv 13Apr2007               :
  PAW_PBE O 08Apr2002                   :

 POSCAR: Cu Mg  O
  positions in direct lattice
 exchange correlation table for  LEXCH =        8
   RHO(1)=    0.500       N(1)  =     2000
   RHO(2)=  100.500       N(2)  =     4000

 ion  position               nearest neighbor table
   1  0.538  0.462  0.618-   2 2.25
   2  0.462  0.538  0.618-   1 2.25
   3  0.000  0.000  0.407- 105 2.11 106 2.11 121 2.11 186 2.11 103 2.11
   4  0.100  0.100  0.407- 105 2.11 106 2.11 110 2.11 125 2.11 104 2.11
   5  0.000  0.100  0.503- 103 2.11 104 2.11 107 2.11 184 2.11 105 2.11
   6  0.100  0.000  0.503- 103 2.11 104 2.11 120 2.11 123 2.11 106 2.11
   7  0.000  0.200  0.407- 109 2.11 105 2.11 110 2.11 190 2.11 107 2.11
   8  0.100  0.300  0.407- 110 2.11 109 2.11 114 2.11 129 2.11 108 2.11
   9  0.000  0.300  0.503- 107 2.11 108 2.11 111 2.11 188 2.11 109 2.11
  10  0.100  0.200  0.503- 108 2.11 107 2.11 104 2.11 127 2.11 110 2.11
  11  0.000  0.400  0.407- 109 2.11 113 2.11 114 2.11 194 2.11 111 2.11
  12  0.100  0.500  0.407- 113 2.11 114 2.11 118 2.11 133 2.11 112 2.11
  13  0.000  0.500  0.503- 111 2.11 112 2.11 115 2.11 192 2.11 113 2.11
  14  0.100  0.400  0.503- 108 2.11 111 2.11 112 2.11 131 2.11 114 2.11
  15  0.000  0.600  0.407- 113 2.11 117 2.11 118 2.11 198 2.11 115 2.11
  16  0.100  0.700  0.407- 122 2.11 118 2.11 117 2.11 137 2.11 116 2.11
  17  0.000  0.700  0.503- 119 2.11 116 2.11 115 2.11 196 2.11 117 2.11
  18  0.100  0.600  0.503- 112 2.11 115 2.11 116 2.11 135 2.11 118 2.11
  19  0.000  0.800  0.407- 117 2.11 121 2.11 122 2.11 202 2.11 119 2.11
  20  0.100  0.900  0.407- 106 2.11 121 2.11 122 2.11 141 2.11 120 2.11
  21  0.000  0.900  0.503- 103 2.11 119 2.11 120 2.11 200 2.11 121 2.11
  22  0.100  0.800  0.503- 116 2.11 119 2.11 120 2.11 139 2.11 122 2.11
  23  0.200  0.000  0.407- 126 2.11 125 2.11 106 2.11 141 2.11 123 2.11
  24  0.300  0.100  0.407- 125 2.11 126 2.11 130 2.11 145 2.11 124 2.11
  25  0.200  0.100  0.503- 124 2.11 123 2.11 104 2.11 127 2.11 125 2.11
  26  0.300  0.000  0.503- 123 2.11 124 2.11 140 2.11 143 2.11 126 2.11
  27  0.200  0.200  0.407- 129 2.11 130 2.11 110 2.11 125 2.11 127 2.11
  28  0.300  0.300  0.407- 129 2.11 130 2.11 134 2.11 149 2.11 128 2.11
  29  0.200  0.300  0.503- 127 2.11 128 2.11 108 2.11 131 2.11 129 2.11
  30  0.300  0.200  0.503- 127 2.11 128 2.11 124 2.11 147 2.11 130 2.11
  31  0.200  0.400  0.407- 134 2.11 129 2.11 133 2.11 114 2.11 131 2.11
  32  0.300  0.500  0.407- 133 2.11 134 2.11 138 2.11 153 2.11 132 2.11
  33  0.200  0.500  0.503- 132 2.11 131 2.11 112 2.11 135 2.11 133 2.11
  34  0.300  0.400  0.503- 131 2.11 128 2.11 132 2.11 151 2.11 134 2.11
  35  0.200  0.600  0.407- 138 2.11 133 2.11 137 2.11 118 2.11 135 2.11
  36  0.300  0.700  0.407- 137 2.11 142 2.11 138 2.11 157 2.11 136 2.11
  37  0.200  0.700  0.503- 136 2.11 139 2.11 116 2.11 135 2.11 137 2.11
  38  0.300  0.600  0.503- 135 2.11 132 2.11 136 2.11 155 2.11 138 2.11
  39  0.200  0.800  0.407- 137 2.11 142 2.11 141 2.11 122 2.11 139 2.11
  40  0.300  0.900  0.407- 141 2.11 126 2.11 142 2.11 161 2.11 140 2.11
  41  0.200  0.900  0.503- 140 2.11 123 2.11 139 2.11 120 2.11 141 2.11
  42  0.300  0.800  0.503- 136 2.11 139 2.11 140 2.11 159 2.11 142 2.11
  43  0.400  0.000  0.407- 126 2.11 145 2.11 146 2.11 161 2.11 143 2.11
  44  0.500  0.100  0.407- 145 2.11 146 2.11 150 2.11 165 2.11 144 2.11
  45  0.400  0.100  0.503- 124 2.11 143 2.11 144 2.11 147 2.11 145 2.11
  46  0.500  0.000  0.503- 143 2.11 144 2.11 160 2.11 163 2.11 146 2.11
  47  0.400  0.200  0.407- 149 2.11 145 2.11 130 2.11 150 2.11 147 2.11
  48  0.500  0.300  0.407- 150 2.11 149 2.11 154 2.11 169 2.11 148 2.11
  49  0.400  0.300  0.503- 147 2.11 128 2.11 148 2.11 151 2.11 149 2.11
  50  0.500  0.200  0.503- 148 2.11 147 2.11 144 2.11 167 2.11 150 2.11
  51  0.400  0.400  0.407- 134 2.11 149 2.11 153 2.11 154 2.11 151 2.11
  52  0.500  0.500  0.407- 153 2.11 154 2.11 158 2.11 173 2.11 152 2.11
  53  0.400  0.500  0.503- 132 2.11 151 2.11 152 2.11 155 2.11 153 2.11
  54  0.500  0.400  0.503- 148 2.11 151 2.11 152 2.11 171 2.11 154 2.11
  55  0.400  0.600  0.407- 138 2.11 153 2.11 157 2.11 158 2.11 155 2.11
  56  0.500  0.700  0.407- 162 2.11 158 2.11 157 2.11 177 2.11 156 2.11
  57  0.400  0.700  0.503- 159 2.11 155 2.11 156 2.11 136 2.11 157 2.11
  58  0.500  0.600  0.503- 152 2.11 155 2.11 156 2.11 175 2.11 158 2.11
  59  0.400  0.800  0.407- 157 2.11 142 2.11 161 2.11 162 2.11 159 2.11
  60  0.500  0.900  0.407- 146 2.11 161 2.11 162 2.11 181 2.11 160 2.11
[...]
 188  0.900  0.300  0.503-  90 2.11  89 2.11   9 2.11  94 2.11  88 2.11
 189  0.800  0.300  0.407-  68 2.11  87 2.11  88 2.11  91 2.11  89 2.11
 190  0.900  0.200  0.407-  88 2.11  84 2.11  87 2.11   7 2.11  90 2.11
 191  0.800  0.400  0.503-  74 2.11  89 2.11  93 2.11  94 2.11  91 2.11
 192  0.900  0.500  0.503-  13 2.11  93 2.11  94 2.11  98 2.11  92 2.11
 193  0.800  0.500  0.407-  72 2.11  91 2.11  92 2.11  95 2.11  93 2.11
 194  0.900  0.400  0.407-  11 2.11  88 2.11  91 2.11  92 2.11  94 2.11
 195  0.800  0.600  0.503-  78 2.11  93 2.11  97 2.11  98 2.11  95 2.11
 196  0.900  0.700  0.503- 102 2.11  97 2.11  98 2.11  17 2.11  96 2.11
 197  0.800  0.700  0.407-  76 2.11  99 2.11  96 2.11  95 2.11  97 2.11
 198  0.900  0.600  0.407-  15 2.11  92 2.11  95 2.11  96 2.11  98 2.11
 199  0.800  0.800  0.503-  82 2.11  97 2.11 101 2.11 102 2.11  99 2.11
 200  0.900  0.900  0.503-  21 2.11  86 2.11 101 2.11 102 2.11 100 2.11
 201  0.800  0.900  0.407-  80 2.11  83 2.11  99 2.11 100 2.11 101 2.11
 202  0.900  0.800  0.407-  96 2.11  19 2.11  99 2.11 100 2.11 102 2.11

  LATTYP: Found a simple tetragonal cell.
 ALAT       =    21.1388521970
 C/A-ratio  =     1.0461251639

  Lattice vectors:

 A1 = (  21.1388521970,   0.0000000000,   0.0000000000)
 A2 = (   0.0000000000,  21.1388521970,   0.0000000000)
 A3 = (   0.0000000000,   0.0000000000,  22.1138852197)

Analysis of symmetry for initial positions (statically):
 Subroutine PRICEL returns:
 Original cell was already a primitive cell.

 Routine SETGRP: Setting up the symmetry group for a
 simple tetragonal supercell.

 Subroutine GETGRP returns: Found  4 space group operations
 (whereof  4 operations were pure point group operations)
 out of a pool of 16 trial point group operations.

The static configuration has the point symmetry C_2v.

Analysis of symmetry for dynamics (positions and initial velocities):
 Subroutine PRICEL returns:
 Original cell was already a primitive cell.

 Routine SETGRP: Setting up the symmetry group for a
 simple tetragonal supercell.

 Subroutine GETGRP returns: Found  4 space group operations
 (whereof  4 operations were pure point group operations)
 out of a pool of 16 trial point group operations.

The dynamic configuration has the point symmetry C_2v.

 Subroutine INISYM returns: Found  4 space group operations
 (whereof  4 operations are pure point group operations),
 and found     1 'primitive' translations

                                     Primitive cell

  volume of cell :    9881.6133

  direct lattice vectors                    reciprocal lattice vectors
    21.138852197  0.000000000  0.000000000     0.047306258  0.000000000  0.000000000
[...]
     22     -46.6108      2.00000
     23     -46.6108      2.00000
     24     -46.6073      2.00000
     25     -46.6071      2.00000
     26     -46.6054      2.00000
     27     -46.6050      2.00000
     28     -46.6038      2.00000
     29     -46.6036      2.00000
     30     -46.6019      2.00000
     31     -46.6012      2.00000
     32     -46.6009      2.00000
     33     -46.6006      2.00000
     34     -46.6001      2.00000
     35     -46.6001      2.00000
     36     -46.5995      2.00000
     37     -46.5987      2.00000
     38     -46.5986      2.00000
     39     -46.5983      2.00000
     40     -46.5979      2.00000
     41     -46.5977      2.00000
     42     -46.5971      2.00000
     43     -46.5959      2.00000
     44     -46.5955      2.00000
     45     -46.5955      2.00000
     46     -46.5950      2.00000
     47     -46.5946      2.00000
     48     -46.5941      2.00000
     49     -46.5935      2.00000
     50     -46.5934      2.00000
     51     -46.5923      2.00000
     52     -46.5921      2.00000
     53     -46.5909      2.00000
     54     -46.5909      2.00000
     55     -46.5908      2.00000
     56     -46.5905      2.00000
     57     -46.5903      2.00000
     58     -46.5889      2.00000
     59     -46.5886      2.00000
     60     -46.5883      2.00000
[...]
   1010       7.3811      0.00000
   1011       7.5727      0.00000
   1012       7.5754      0.00000
   1013       7.6059      0.00000
   1014       7.7039      0.00000
   1015       7.7586      0.00000
   1016       7.7785      0.00000
   1017       7.7814      0.00000
   1018       7.7899      0.00000
   1019       7.9277      0.00000
   1020       7.9684      0.00000
   1021       8.0721      0.00000
   1022       8.0835      0.00000
   1023       8.1685      0.00000
   1024       8.3583      0.00000

 soft charge-density along one line, spin component           1
         0         1         2         3         4         5         6         7         8         9
 total charge-density along one line

------------------------ aborting loop because EDIFF is reached ----------------------------------------

 VOLUME and BASIS-vectors are now :
  energy-cutoff  :      520.00
  volume of cell :     9881.61
      direct lattice vectors                 reciprocal lattice vectors
    21.138852197  0.000000000  0.000000000     0.047306258  0.000000000  0.000000000
     0.000000000 21.138852197  0.000000000     0.000000000  0.047306258  0.000000000
     0.000000000  0.000000000 22.113885220     0.000000000  0.000000000  0.045220457

  length of vectors
    21.138852197 21.138852197 22.113885220     0.047306258  0.047306258  0.045220457

 FORCES acting on ions:
    Electron-Ion                     Ewald-Force                    Non-Local-Force
   -.252E+03 0.252E+03 -.210E+04   0.243E+03 -.243E+03 0.210E+04   0.837E+01 -.837E+01 -.151E+01
   0.252E+03 -.252E+03 -.210E+04   -.243E+03 0.243E+03 0.210E+04   -.837E+01 0.837E+01 -.151E+01
   -.495E-10 0.113E-08 0.932E+03   0.758E-10 -.173E-08 -.923E+03   0.000E+00 0.000E+00 -.717E+01
   0.392E+01 0.392E+01 0.932E+03   -.391E+01 -.391E+01 -.924E+03   -.307E-02 -.307E-02 -.717E+01
   -.213E+00 0.423E+01 -.924E+03   0.225E+00 -.424E+01 0.915E+03   -.839E-02 0.205E-02 0.714E+01
   0.423E+01 -.213E+00 -.924E+03   -.424E+01 0.225E+00 0.915E+03   0.205E-02 -.839E-02 0.714E+01
   -.285E+00 0.590E+01 0.933E+03   0.305E+00 -.591E+01 -.925E+03   -.139E-01 0.434E-02 -.717E+01
   0.791E+01 0.757E+01 0.936E+03   -.789E+01 -.758E+01 -.927E+03   -.818E-02 0.719E-02 -.718E+01
   -.536E+00 0.772E+01 -.922E+03   0.565E+00 -.773E+01 0.913E+03   -.201E-01 0.305E-02 0.714E+01
   0.705E+01 0.862E+01 -.922E+03   -.703E+01 -.862E+01 0.914E+03   -.121E-01 -.695E-03 0.714E+01
   -.253E+00 0.403E+01 0.936E+03   0.271E+00 -.403E+01 -.928E+03   -.127E-01 0.260E-02 -.718E+01
   0.120E+02 0.326E+00 0.939E+03   -.120E+02 -.343E+00 -.931E+03   0.192E-01 0.116E-01 -.718E+01
   0.152E-09 -.170E-08 -.920E+03   -.231E-09 0.260E-08 0.911E+03   0.000E+00 0.000E+00 0.714E+01
   0.151E+02 0.701E+01 -.919E+03   -.151E+02 -.703E+01 0.910E+03   -.860E-02 0.119E-01 0.714E+01
   0.253E+00 -.403E+01 0.936E+03   -.271E+00 0.403E+01 -.928E+03   0.127E-01 -.260E-02 -.718E+01
   0.873E+01 -.759E+01 0.936E+03   -.877E+01 0.760E+01 -.928E+03   0.338E-01 -.518E-02 -.717E+01
   0.536E+00 -.772E+01 -.922E+03   -.565E+00 0.773E+01 0.913E+03   0.201E-01 -.305E-02 0.714E+01
   0.163E+02 -.637E+01 -.918E+03   -.164E+02 0.636E+01 0.910E+03   0.366E-01 0.710E-02 0.714E+01
   0.285E+00 -.590E+01 0.933E+03   -.305E+00 0.591E+01 -.925E+03   0.139E-01 -.434E-02 -.717E+01
   0.422E+01 -.422E+01 0.933E+03   -.423E+01 0.423E+01 -.924E+03   0.106E-01 -.106E-01 -.717E+01
   0.213E+00 -.423E+01 -.924E+03   -.225E+00 0.424E+01 0.915E+03   0.839E-02 -.205E-02 0.714E+01
   0.801E+01 -.906E+01 -.922E+03   -.805E+01 0.907E+01 0.913E+03   0.253E-01 -.989E-02 0.714E+01
   0.590E+01 -.285E+00 0.933E+03   -.591E+01 0.305E+00 -.925E+03   0.434E-02 -.139E-01 -.717E+01
   0.757E+01 0.791E+01 0.936E+03   -.758E+01 -.789E+01 -.927E+03   0.719E-02 -.818E-02 -.718E+01
   0.862E+01 0.705E+01 -.922E+03   -.862E+01 -.703E+01 0.914E+03   -.695E-03 -.121E-01 0.714E+01
   0.772E+01 -.536E+00 -.922E+03   -.773E+01 0.565E+00 0.913E+03   0.305E-02 -.201E-01 0.714E+01
   0.101E+02 0.101E+02 0.936E+03   -.101E+02 -.101E+02 -.928E+03   -.156E-03 -.156E-03 -.718E+01
   0.200E+02 0.200E+02 0.950E+03   -.200E+02 -.200E+02 -.941E+03   0.185E-01 0.185E-01 -.720E+01
   0.226E+02 0.171E+02 -.916E+03   -.225E+02 -.171E+02 0.907E+03   -.222E-01 0.789E-02 0.713E+01
   0.171E+02 0.226E+02 -.916E+03   -.171E+02 -.225E+02 0.907E+03   0.789E-02 -.222E-01 0.713E+01
   0.215E+02 0.899E+01 0.946E+03   -.216E+02 -.903E+01 -.937E+03   0.858E-02 0.291E-01 -.718E+01
   0.367E+02 0.181E+01 0.971E+03   -.368E+02 -.193E+01 -.962E+03   0.763E-01 0.787E-01 -.718E+01
   0.418E+02 0.188E+01 -.907E+03   -.419E+02 -.194E+01 0.899E+03   0.352E-01 0.400E-01 0.713E+01
   0.596E+02 0.332E+02 -.889E+03   -.595E+02 -.333E+02 0.880E+03   -.672E-01 0.706E-01 0.709E+01
   0.226E+02 -.808E+01 0.947E+03   -.228E+02 0.807E+01 -.939E+03   0.861E-01 0.114E-01 -.718E+01
   0.209E+02 -.209E+02 0.953E+03   -.210E+02 0.210E+02 -.944E+03   0.556E-01 -.556E-01 -.714E+01
   0.251E+02 -.180E+02 -.914E+03   -.252E+02 0.180E+02 0.906E+03   0.824E-01 -.104E-01 0.714E+01
   0.682E+02 -.314E+02 -.880E+03   -.687E+02 0.313E+02 0.872E+03   0.386E+00 0.552E-01 0.718E+01
   0.107E+02 -.107E+02 0.937E+03   -.107E+02 0.107E+02 -.929E+03   0.264E-01 -.264E-01 -.717E+01
   0.759E+01 -.873E+01 0.936E+03   -.760E+01 0.877E+01 -.928E+03   0.518E-02 -.338E-01 -.717E+01
   0.906E+01 -.801E+01 -.922E+03   -.907E+01 0.805E+01 0.913E+03   0.989E-02 -.253E-01 0.714E+01
   0.180E+02 -.251E+02 -.914E+03   -.180E+02 0.252E+02 0.906E+03   0.104E-01 -.824E-01 0.714E+01
   0.403E+01 -.253E+00 0.936E+03   -.403E+01 0.271E+00 -.928E+03   0.260E-02 -.127E-01 -.718E+01
   0.326E+00 0.120E+02 0.939E+03   -.343E+00 -.120E+02 -.931E+03   0.116E-01 0.192E-01 -.718E+01
   0.701E+01 0.151E+02 -.919E+03   -.703E+01 -.151E+02 0.910E+03   0.119E-01 -.860E-02 0.714E+01
   0.151E-09 0.513E-08 -.920E+03   -.231E-09 -.785E-08 0.911E+03   0.000E+00 0.000E+00 0.714E+01
   0.899E+01 0.215E+02 0.946E+03   -.903E+01 -.216E+02 -.937E+03   0.291E-01 0.858E-02 -.718E+01
   0.181E+01 0.367E+02 0.971E+03   -.193E+01 -.368E+02 -.962E+03   0.787E-01 0.763E-01 -.718E+01
   0.332E+02 0.596E+02 -.889E+03   -.333E+02 -.595E+02 0.880E+03   0.706E-01 -.672E-01 0.709E+01
   0.188E+01 0.418E+02 -.907E+03   -.194E+01 -.419E+02 0.899E+03   0.400E-01 0.352E-01 0.713E+01
   0.276E+02 0.276E+02 0.988E+03   -.278E+02 -.278E+02 -.980E+03   0.954E-01 0.954E-01 -.731E+01
   -.122E-08 -.131E-07 0.103E+04   0.187E-08 0.201E-07 -.102E+04   0.000E+00 0.000E+00 -.700E+01
   0.121E+03 0.210E+02 -.754E+03   -.121E+03 -.218E+02 0.746E+03   0.240E+00 0.471E+00 0.648E+01
   0.210E+02 0.121E+03 -.754E+03   -.218E+02 -.121E+03 0.746E+03   0.471E+00 0.240E+00 0.648E+01
   0.267E+02 -.267E+02 0.993E+03   -.267E+02 0.267E+02 -.985E+03   -.504E-02 0.504E-02 -.672E+01
   -.181E+01 -.367E+02 0.971E+03   0.193E+01 0.368E+02 -.962E+03   -.787E-01 -.763E-01 -.718E+01
   0.314E+02 -.682E+02 -.880E+03   -.313E+02 0.687E+02 0.872E+03   -.552E-01 -.386E+00 0.718E+01
   -.210E+02 -.121E+03 -.754E+03   0.218E+02 0.121E+03 0.746E+03   -.471E+00 -.240E+00 0.648E+01
   0.808E+01 -.226E+02 0.947E+03   -.807E+01 0.228E+02 -.939E+03   -.114E-01 -.861E-01 -.718E+01
   -.326E+00 -.120E+02 0.939E+03   0.343E+00 0.120E+02 -.931E+03   -.116E-01 -.192E-01 -.718E+01
[...]
   -.124E+02 0.913E+01 0.708E+03   0.124E+02 -.915E+01 -.712E+03   -.557E-01 0.241E-01 0.316E+01
   -.455E+01 0.534E+01 0.702E+03   0.457E+01 -.535E+01 -.706E+03   -.215E-01 0.133E-01 0.315E+01
   -.281E+02 0.936E+01 -.683E+03   0.281E+02 -.934E+01 0.687E+03   -.690E-01 -.254E-01 -.320E+01
   -.132E+02 -.422E+00 -.689E+03   0.132E+02 0.437E+00 0.693E+03   -.131E-01 -.179E-01 -.320E+01
   -.187E+02 -.647E+00 0.713E+03   0.188E+02 0.683E+00 -.717E+03   -.375E-01 -.428E-01 0.315E+01
   -.841E+01 0.361E+01 0.705E+03   0.844E+01 -.361E+01 -.709E+03   -.284E-01 -.495E-02 0.315E+01
   -.257E+02 -.105E+02 -.684E+03   0.257E+02 0.106E+02 0.688E+03   0.122E-02 -.351E-01 -.322E+01
   -.810E+01 -.734E+01 -.691E+03   0.809E+01 0.735E+01 0.695E+03   0.104E-01 -.518E-02 -.320E+01
   -.116E+02 -.896E+01 0.707E+03   0.116E+02 0.897E+01 -.711E+03   0.242E-02 -.100E-01 0.314E+01
   -.791E+01 -.392E+01 0.705E+03   0.791E+01 0.393E+01 -.709E+03   -.110E-02 -.140E-01 0.315E+01
   -.102E+02 -.102E+02 -.691E+03   0.101E+02 0.101E+02 0.695E+03   0.888E-02 0.888E-02 -.320E+01
   -.361E+01 -.361E+01 -.694E+03   0.361E+01 0.361E+01 0.698E+03   0.450E-02 0.450E-02 -.319E+01
   -.515E+01 -.408E+01 0.702E+03   0.515E+01 0.408E+01 -.706E+03   -.131E-02 0.682E-02 0.315E+01
   -.408E+01 -.515E+01 0.702E+03   0.408E+01 0.515E+01 -.706E+03   0.682E-02 -.131E-02 0.315E+01
   0.154E-06 0.643E-06 0.105E+02   0.412E-12 0.838E-12 0.671E-11   -.210E-14 -.210E-14 -.103E+02

 POSITION                                       TOTAL-FORCE (eV/Angst)
     11.36317      9.77568     13.65917         0.098188     -0.098188      0.147327
      9.77568     11.36317     13.65917        -0.098188      0.098188      0.147327
      0.00000      0.00000      9.00000        -0.000000     -0.000000      0.560448
      2.11389      2.11389      9.00000         0.000977      0.000977      0.560862
      0.00000      2.11389     11.11389         0.002611     -0.000649     -0.552921
      2.11389      0.00000     11.11389        -0.000649      0.002611     -0.552921
      0.00000      4.22777      9.00000         0.004303     -0.001384      0.560572
      2.11389      6.34166      9.00000         0.002463     -0.002216      0.561663
      0.00000      6.34166     11.11389         0.006163     -0.000961     -0.551983
      2.11389      4.22777     11.11389         0.003809      0.000336     -0.551777
      0.00000      8.45554      9.00000         0.003805     -0.000837      0.560954
      2.11389     10.56943      9.00000        -0.005927     -0.003918      0.561249
      0.00000     10.56943     11.11389        -0.000000     -0.000000     -0.551285
      2.11389      8.45554     11.11389         0.002813     -0.003807     -0.549851
      0.00000     12.68331      9.00000        -0.003805      0.000837      0.560954
      2.11389     14.79720      9.00000        -0.010327      0.001793      0.560155
      0.00000     14.79720     11.11389        -0.006163      0.000961     -0.551983
      2.11389     12.68331     11.11389        -0.010840     -0.002380     -0.551221
      0.00000     16.91108      9.00000        -0.004303      0.001384      0.560572
      2.11389     19.02497      9.00000        -0.003379      0.003379      0.560071
      0.00000     19.02497     11.11389        -0.002611      0.000649     -0.552921
      2.11389     16.91108     11.11389        -0.007817      0.003241     -0.552635
      4.22777      0.00000      9.00000        -0.001384      0.004303      0.560572
      6.34166      2.11389      9.00000        -0.002216      0.002463      0.561663
      4.22777      2.11389     11.11389         0.000336      0.003809     -0.551777
      6.34166      0.00000     11.11389        -0.000961      0.006163     -0.551983
      4.22777      4.22777      9.00000         0.000252      0.000252      0.562719
      6.34166      6.34166      9.00000        -0.004817     -0.004817      0.570110
      4.22777      6.34166     11.11389         0.007409     -0.001811     -0.546489
      6.34166      4.22777     11.11389        -0.001811      0.007409     -0.546489
      4.22777      8.45554      9.00000        -0.003336     -0.009442      0.563587
      6.34166     10.56943      9.00000        -0.026084     -0.028903      0.558297
      4.22777     10.56943     11.11389        -0.011303     -0.013997     -0.545196
      6.34166      8.45554     11.11389         0.027636     -0.017684     -0.515100
      4.22777     12.68331      9.00000        -0.025414     -0.003803      0.560648
      6.34166     14.79720      9.00000        -0.021320      0.021320      0.546242
      4.22777     14.79720     11.11389        -0.025461      0.004133     -0.552807
      6.34166     12.68331     11.11389        -0.133981     -0.021251     -0.559128
      4.22777     16.91108      9.00000        -0.008712      0.008712      0.558165
      6.34166     19.02497      9.00000        -0.001793      0.010327      0.560155
      4.22777     19.02497     11.11389        -0.003241      0.007817     -0.552635
      6.34166     16.91108     11.11389        -0.004133      0.025461     -0.552807
      8.45554      0.00000      9.00000        -0.000837      0.003805      0.560954
     10.56943      2.11389      9.00000        -0.003918     -0.005927      0.561249
      8.45554      2.11389     11.11389        -0.003807      0.002813     -0.549851
     10.56943      0.00000     11.11389        -0.000000     -0.000000     -0.551285
      8.45554      4.22777      9.00000        -0.009442     -0.003336      0.563587
     10.56943      6.34166      9.00000        -0.028903     -0.026084      0.558297
      8.45554      6.34166     11.11389        -0.017684      0.027636     -0.515100
     10.56943      4.22777     11.11389        -0.013997     -0.011303     -0.545196
      8.45554      8.45554      9.00000        -0.030611     -0.030611      0.589005
     10.56943     10.56943      9.00000        -0.000000     -0.000000      0.436858
      8.45554     10.56943     11.11389        -0.161067     -0.256657     -0.533744
     10.56943      8.45554     11.11389        -0.256657     -0.161067     -0.533744
      8.45554     12.68331      9.00000         0.001973     -0.001973      0.428025
     10.56943     14.79720      9.00000         0.028903      0.026084      0.558297
      8.45554     14.79720     11.11389         0.021251      0.133981     -0.559128
     10.56943     12.68331     11.11389         0.256657      0.161067     -0.533744
      8.45554     16.91108      9.00000         0.003803      0.025414      0.560648
     10.56943     19.02497      9.00000         0.003918      0.005927      0.561249
[...]
     19.02497      6.34166     11.11389        -0.009952      0.002098      0.430330
     16.91108      6.34166      9.00000        -0.018409      0.007932     -0.435537
     19.02497      4.22777      9.00000        -0.007050      0.004349     -0.438398
     16.91108      8.45554     11.11389        -0.023049     -0.008101      0.428922
     19.02497     10.56943     11.11389        -0.004390     -0.005827      0.428086
     16.91108     10.56943      9.00000        -0.013042     -0.013816     -0.440399
     19.02497      8.45554      9.00000        -0.009384     -0.001571     -0.438640
     16.91108     12.68331     11.11389        -0.000069     -0.011639      0.421385
     19.02497     14.79720     11.11389         0.003346     -0.001703      0.428736
     16.91108     14.79720      9.00000         0.000691     -0.003387     -0.442605
     19.02497     12.68331      9.00000        -0.000385     -0.004588     -0.440417
     16.91108     16.91108     11.11389         0.002824      0.002824      0.427733
     19.02497     19.02497     11.11389         0.001433      0.001433      0.430778
     16.91108     19.02497      9.00000        -0.000456      0.002197     -0.439818
     19.02497     16.91108      9.00000         0.002197     -0.000456     -0.439818
    total drift:                                0.000000      0.000001     -0.636739

  FREE ENERGIE OF THE ION-ELECTRON SYSTEM (eV)
  free  energy   TOTEN  =     -1367.50602660 eV

  energy  without entropy=    -1367.50602660  energy(sigma->0) =    -1367.50602660