 vasp.6.4.0 14Feb23 (build Dec 05 2023 14:15:48) complex

 executed on             LinuxIFC date 2023.12.05  23:02:04

 INCAR:
   SYSTEM = MgO-rocksalt
   ISMEAR = 0
   SIGMA = 0.05
   EDIFF = 1E-6
   ALGO = ALL
   ISTART = 0
   IBRION = -1
   NSW = 0
   ISYM = 0
   DIPOL = 0.5 0.5 0.5
   IDIPOL = 3
   LDIPOL = .TRUE.
   METAGGA = TPSS
   ENCUT = 520
   PREC = Accurate
   LASPH = .TRUE.
   LREAL = Auto
   ISPIN = 1
   NELM = 2000
   NELMIN = 8
   NCORE = 8
   KPAR = 1
   LWAVE = .FALSE.
   LCHARG = .FALSE.

 POTCAR:    PAW_PBE Ag 02Apr2005
 POTCAR:    PAW_PBE Mg_pv 13Apr2007
 POTCAR:    PAW_PBE O 08Apr2002
 POTCAR:    PAW_PBE Ag 02Apr2005
   VRHFIN =Ag : s1 d10

   TITEL  = PAW_PBE Ag 02Apr2005
   POMASS =  107.868; ZVAL   =   11.000    mass and valenz
   ENMAX  =  249.844; ENMIN  =  187.383 eV

   TITEL  = PAW_PBE Mg_pv 13Apr2007
   POMASS =   24.305; ZVAL   =    8.000    mass and valenz
   ENMAX  =  403.929; ENMIN  =  302.947 eV

   TITEL  = PAW_PBE O 08Apr2002
   POMASS =   16.000; ZVAL   =    6.000    mass and valenz
   ENMAX  =  400.000; ENMIN  =  300.000 eV

 Optimization of the real space projectors (new method)

 maximal supplied QI-value         = 15.12
 optimisation between [QCUT,QGAM] = [ 11.64, 23.28] = [ 37.95,151.78] Ry
 Optimized for a Real-space Cutoff    1.45 Angstroem

   l    n(q)    QCUT    max X(q) W(low)/X(q) W(high)/X(q)  e(spline)
   2      9    11.641    53.897    0.22E-03    0.42E-04    0.28E-06
   2      9    11.641    52.416    0.23E-03    0.44E-04    0.29E-06
   0     10    11.641   122.045    0.51E-04    0.25E-04    0.16E-06
   0     10    11.641    73.629    0.49E-04    0.24E-04    0.16E-06
   1     10    11.641    15.255    0.99E-04    0.55E-04    0.11E-06
   1     10    11.641     9.562    0.81E-04    0.47E-04    0.95E-07
 Optimization of the real space projectors (new method)

[...]

   l    n(q)    QCUT    max X(q) W(low)/X(q) W(high)/X(q)  e(spline)
   1      8    11.527     2.974    0.44E-04    0.56E-04    0.12E-06
   1      8    11.527     4.279    0.12E-03    0.12E-03    0.26E-06
   0      9    11.527    16.381    0.46E-04    0.64E-04    0.78E-07
   0      9    11.527     5.611    0.26E-04    0.43E-04    0.55E-07
   2      8    11.527     4.652    0.22E-03    0.72E-04    0.47E-07
 Optimization of the real space projectors (new method)

 maximal supplied QI-value         = 24.76
 optimisation between [QCUT,QGAM] = [ 11.64, 23.27] = [ 37.91,151.63] Ry
 Optimized for a Real-space Cutoff    1.14 Angstroem

   l    n(q)    QCUT    max X(q) W(low)/X(q) W(high)/X(q)  e(spline)
   0      8    11.635    20.381    0.10E-03    0.33E-03    0.24E-06
   0      8    11.635    15.268    0.11E-03    0.35E-03    0.26E-06
   1      7    11.635     5.964    0.24E-03    0.31E-03    0.30E-06
   1      7    11.635     5.382    0.22E-03    0.25E-03    0.26E-06
  PAW_PBE Ag 02Apr2005                  :
  PAW_PBE Mg_pv 13Apr2007               :
  PAW_PBE O 08Apr2002                   :

 POSCAR: Ag Mg  O
  positions in direct lattice

 METAGGA = TPSS                                        LMAXTAU =  6    LMIXTAU =  F

 ion  position               nearest neighbor table
   1  0.493  0.407  0.638-   2 2.57  54 2.99
   2  0.407  0.493  0.638-   1 2.57  53 2.99
   3  0.000  0.000  0.407- 105 2.11 106 2.11 121 2.11 186 2.11 103 2.11
   4  0.100  0.100  0.407- 105 2.11 106 2.11 110 2.11 125 2.11 104 2.11
   5  0.000  0.100  0.503- 103 2.11 104 2.11 107 2.11 184 2.11 105 2.11
   6  0.100  0.000  0.503- 103 2.11 104 2.11 120 2.11 123 2.11 106 2.11
   7  0.000  0.200  0.407- 109 2.11 105 2.11 110 2.11 190 2.11 107 2.11
   8  0.100  0.300  0.407- 110 2.11 109 2.11 114 2.11 129 2.11 108 2.11
   9  0.000  0.300  0.503- 107 2.11 108 2.11 111 2.11 188 2.11 109 2.11
  10  0.100  0.200  0.503- 108 2.11 107 2.11 104 2.11 127 2.11 110 2.11
  11  0.000  0.400  0.407- 109 2.11 113 2.11 114 2.11 194 2.11 111 2.11
  12  0.100  0.500  0.407- 113 2.11 114 2.11 118 2.11 133 2.11 112 2.11
  13  0.000  0.500  0.503- 111 2.11 112 2.11 115 2.11 192 2.11 113 2.11
  14  0.100  0.400  0.503- 108 2.11 111 2.11 112 2.11 131 2.11 114 2.11
  15  0.000  0.600  0.407- 113 2.11 117 2.11 118 2.11 198 2.11 115 2.11
  16  0.100  0.700  0.407- 122 2.11 118 2.11 117 2.11 137 2.11 116 2.11
  17  0.000  0.700  0.503- 119 2.11 116 2.11 115 2.11 196 2.11 117 2.11
  18  0.100  0.600  0.503- 112 2.11 115 2.11 116 2.11 135 2.11 118 2.11
  19  0.000  0.800  0.407- 117 2.11 121 2.11 122 2.11 202 2.11 119 2.11
  20  0.100  0.900  0.407- 106 2.11 121 2.11 122 2.11 141 2.11 120 2.11
  21  0.000  0.900  0.503- 103 2.11 119 2.11 120 2.11 200 2.11 121 2.11
  22  0.100  0.800  0.503- 116 2.11 119 2.11 120 2.11 139 2.11 122 2.11
  23  0.200  0.000  0.407- 126 2.11 125 2.11 106 2.11 141 2.11 123 2.11
  24  0.300  0.100  0.407- 125 2.11 126 2.11 130 2.11 145 2.11 124 2.11
  25  0.200  0.100  0.503- 124 2.11 123 2.11 104 2.11 127 2.11 125 2.11
  26  0.300  0.000  0.503- 123 2.11 124 2.11 140 2.11 143 2.11 126 2.11
  27  0.200  0.200  0.407- 129 2.11 130 2.11 110 2.11 125 2.11 127 2.11
  28  0.300  0.300  0.407- 129 2.11 130 2.11 134 2.11 149 2.11 128 2.11
  29  0.200  0.300  0.503- 127 2.11 128 2.11 108 2.11 131 2.11 129 2.11
  30  0.300  0.200  0.503- 127 2.11 128 2.11 124 2.11 147 2.11 130 2.11
  31  0.200  0.400  0.407- 134 2.11 129 2.11 133 2.11 114 2.11 131 2.11
  32  0.300  0.500  0.407- 133 2.11 134 2.11 138 2.11 153 2.11 132 2.11
  33  0.200  0.500  0.503- 132 2.11 131 2.11 112 2.11 135 2.11 133 2.11
  34  0.300  0.400  0.503- 131 2.11 128 2.11 132 2.11 151 2.11 134 2.11
  35  0.200  0.600  0.407- 138 2.11 133 2.11 137 2.11 118 2.11 135 2.11
  36  0.300  0.700  0.407- 137 2.11 142 2.11 138 2.11 157 2.11 136 2.11
  37  0.200  0.700  0.503- 136 2.11 139 2.11 116 2.11 135 2.11 137 2.11
  38  0.300  0.600  0.503- 135 2.11 132 2.11 136 2.11 155 2.11 138 2.11
  39  0.200  0.800  0.407- 137 2.11 142 2.11 141 2.11 122 2.11 139 2.11
  40  0.300  0.900  0.407- 141 2.11 126 2.11 142 2.11 161 2.11 140 2.11
  41  0.200  0.900  0.503- 140 2.11 123 2.11 139 2.11 120 2.11 141 2.11
  42  0.300  0.800  0.503- 136 2.11 139 2.11 140 2.11 159 2.11 142 2.11
  43  0.400  0.000  0.407- 126 2.11 145 2.11 146 2.11 161 2.11 143 2.11
  44  0.500  0.100  0.407- 145 2.11 146 2.11 150 2.11 165 2.11 144 2.11
  45  0.400  0.100  0.503- 124 2.11 143 2.11 144 2.11 147 2.11 145 2.11
  46  0.500  0.000  0.503- 143 2.11 144 2.11 160 2.11 163 2.11 146 2.11
  47  0.400  0.200  0.407- 149 2.11 145 2.11 130 2.11 150 2.11 147 2.11
  48  0.500  0.300  0.407- 150 2.11 149 2.11 154 2.11 169 2.11 148 2.11
  49  0.400  0.300  0.503- 147 2.11 128 2.11 148 2.11 151 2.11 149 2.11
  50  0.500  0.200  0.503- 148 2.11 147 2.11 144 2.11 167 2.11 150 2.11
  51  0.400  0.400  0.407- 134 2.11 149 2.11 153 2.11 154 2.11 151 2.11
  52  0.500  0.500  0.407- 153 2.11 154 2.11 158 2.11 173 2.11 152 2.11
  53  0.400  0.500  0.503- 132 2.11 151 2.11 152 2.11 155 2.11 153 2.11   2 2.99
  54  0.500  0.400  0.503- 148 2.11 151 2.11 152 2.11 171 2.11 154 2.11   1 2.99
  55  0.400  0.600  0.407- 138 2.11 153 2.11 157 2.11 158 2.11 155 2.11
  56  0.500  0.700  0.407- 162 2.11 158 2.11 157 2.11 177 2.11 156 2.11
  57  0.400  0.700  0.503- 159 2.11 155 2.11 156 2.11 136 2.11 157 2.11
  58  0.500  0.600  0.503- 152 2.11 155 2.11 156 2.11 175 2.11 158 2.11
  59  0.400  0.800  0.407- 157 2.11 142 2.11 161 2.11 162 2.11 159 2.11
  60  0.500  0.900  0.407- 146 2.11 161 2.11 162 2.11 181 2.11 160 2.11
[...]
 188  0.900  0.300  0.503-  90 2.11  89 2.11   9 2.11  94 2.11  88 2.11
 189  0.800  0.300  0.407-  68 2.11  87 2.11  88 2.11  91 2.11  89 2.11
 190  0.900  0.200  0.407-  88 2.11  84 2.11  87 2.11   7 2.11  90 2.11
 191  0.800  0.400  0.503-  74 2.11  89 2.11  93 2.11  94 2.11  91 2.11
 192  0.900  0.500  0.503-  13 2.11  93 2.11  94 2.11  98 2.11  92 2.11
 193  0.800  0.500  0.407-  72 2.11  91 2.11  92 2.11  95 2.11  93 2.11
 194  0.900  0.400  0.407-  11 2.11  88 2.11  91 2.11  92 2.11  94 2.11
 195  0.800  0.600  0.503-  78 2.11  93 2.11  97 2.11  98 2.11  95 2.11
 196  0.900  0.700  0.503- 102 2.11  97 2.11  98 2.11  17 2.11  96 2.11
 197  0.800  0.700  0.407-  76 2.11  99 2.11  96 2.11  95 2.11  97 2.11
 198  0.900  0.600  0.407-  15 2.11  92 2.11  95 2.11  96 2.11  98 2.11
 199  0.800  0.800  0.503-  82 2.11  97 2.11 101 2.11 102 2.11  99 2.11
 200  0.900  0.900  0.503-  21 2.11  86 2.11 101 2.11 102 2.11 100 2.11
 201  0.800  0.900  0.407-  80 2.11  83 2.11  99 2.11 100 2.11 101 2.11
 202  0.900  0.800  0.407-  96 2.11  19 2.11  99 2.11 100 2.11 102 2.11

IMPORTANT INFORMATION: All symmetrisations will be switched off!
NOSYMM: (Re-)initialisation of all symmetry stuff for point group C_1.

                                     Primitive cell

  volume of cell :    9881.6133

  direct lattice vectors                    reciprocal lattice vectors
    21.138852197  0.000000000  0.000000000     0.047306258  0.000000000  0.000000000
     0.000000000 21.138852197  0.000000000     0.000000000  0.047306258  0.000000000
     0.000000000  0.000000000 22.113885220     0.000000000  0.000000000  0.045220457

  length of vectors
    21.138852197 21.138852197 22.113885220     0.047306258  0.047306258  0.045220457

  position of ions in fractional coordinates (direct lattice)
     0.492981444  0.407018562  0.637532147
     0.407018532  0.492981474  0.637532147
     0.000000000  0.000000000  0.406984115
     0.100000000  0.100000000  0.406984115
     0.000000000  0.100000000  0.502574971
     0.100000000  0.000000000  0.502574971
     0.000000000  0.200000000  0.406984115
     0.100000000  0.300000000  0.406984115
     0.000000000  0.300000000  0.502574971
     0.100000000  0.200000000  0.502574971
     0.000000000  0.400000000  0.406984115
     0.100000000  0.500000000  0.406984115
     0.000000000  0.500000000  0.502574971
     0.100000000  0.400000000  0.502574971
     0.000000000  0.600000000  0.406984115
     0.100000000  0.700000000  0.406984115
     0.000000000  0.700000000  0.502574971
     0.100000000  0.600000000  0.502574971
     0.000000000  0.800000000  0.406984115
     0.100000000  0.900000000  0.406984115
     0.000000000  0.900000000  0.502574971
     0.100000000  0.800000000  0.502574971
     0.200000000  0.000000000  0.406984115
     0.300000000  0.100000000  0.406984115
     0.200000000  0.100000000  0.502574971
     0.300000000  0.000000000  0.502574971
     0.200000000  0.200000000  0.406984115
     0.300000000  0.300000000  0.406984115
     0.200000000  0.300000000  0.502574971
     0.300000000  0.200000000  0.502574971
     0.200000000  0.400000000  0.406984115
     0.300000000  0.500000000  0.406984115
     0.200000000  0.500000000  0.502574971
     0.300000000  0.400000000  0.502574971
     0.200000000  0.600000000  0.406984115
     0.300000000  0.700000000  0.406984115
     0.200000000  0.700000000  0.502574971
     0.300000000  0.600000000  0.502574971
     0.200000000  0.800000000  0.406984115
     0.300000000  0.900000000  0.406984115
     0.200000000  0.900000000  0.502574971
     0.300000000  0.800000000  0.502574971
     0.400000000  0.000000000  0.406984115
     0.500000000  0.100000000  0.406984115
     0.400000000  0.100000000  0.502574971
[...]
     52     -43.2667      2.00000
     53     -43.2659      2.00000
     54     -43.2654      2.00000
     55     -43.2651      2.00000
     56     -43.2649      2.00000
     57     -43.2646      2.00000
     58     -43.2641      2.00000
     59     -43.2637      2.00000
     60     -43.2636      2.00000
[...]
    850       4.8109      0.00000
    851       4.8536      0.00000
    852       4.8692      0.00000
    853       4.8888      0.00000
    854       4.9355      0.00000
    855       4.9550      0.00000
    856       4.9811      0.00000
    857       5.0463      0.00000
    858       5.0891      0.00000
    859       5.1282      0.00000
    860       5.1768      0.00000
    861       5.2252      0.00000
    862       5.2762      0.00000
    863       5.3489      0.00000
    864       5.4617      0.00000

 soft charge-density along one line, spin component           1
         0         1         2         3         4         5         6         7         8         9
 total charge-density along one line

------------------------ aborting loop because EDIFF is reached ----------------------------------------

  FORCE on cell =-STRESS in cart. coord.  units (eV):
  Direction    XX          YY          ZZ          XY          YZ          ZX
  Alpha Z  1357.53553  1357.53553  1357.53553
  Ewald  478265.93745478265.93745************  -335.41996     0.00001    -0.00000
  Hartree507133.49174507133.49201************  -245.29016    -0.00020     0.00015
  E(xc)   -8197.44272 -8197.44272 -8223.35048    -0.29884     0.00000    -0.00000
  Local  ************************************   575.34168     0.00017    -0.00016
  n-local -8954.52654 -8954.52637 -9077.90261     1.69587    -0.00001     0.00007
  augment  3961.78454  3961.78455  3905.88887     1.01463     0.00001     0.00001
  Kinetic 22986.32721 22986.32690 23234.95658     3.15318     0.00004    -0.00003
  Fock        0.00000     0.00000     0.00000     0.00000     0.00000     0.00000
  Total    -167.33341  -167.33381     8.17764     0.19640     0.00001     0.00003
  in kB     -27.13097   -27.13104     1.32590     0.03184     0.00000     0.00001

 VOLUME and BASIS-vectors are now :
  energy-cutoff  :      520.00
  volume of cell :     9881.61
      direct lattice vectors                 reciprocal lattice vectors
    21.138852197  0.000000000  0.000000000     0.047306258  0.000000000  0.000000000
     0.000000000 21.138852197  0.000000000     0.000000000  0.047306258  0.000000000
     0.000000000  0.000000000 22.113885220     0.000000000  0.000000000  0.045220457

  length of vectors
    21.138852197 21.138852197 22.113885220     0.047306258  0.047306258  0.045220457

 FORCES acting on ions:
    Electron-Ion                     Ewald-Force                    Non-Local-Force
   -.190E+03 0.190E+03 -.198E+04   0.185E+03 -.185E+03 0.198E+04   0.523E+01 -.523E+01 0.270E+00
   0.190E+03 -.190E+03 -.198E+04   -.185E+03 0.185E+03 0.198E+04   -.523E+01 0.523E+01 0.270E+00
   0.171E+01 0.171E+01 0.932E+03   -.170E+01 -.170E+01 -.923E+03   -.209E-02 -.217E-02 -.791E+01
   0.612E+01 0.612E+01 0.934E+03   -.611E+01 -.611E+01 -.925E+03   -.496E-02 -.507E-02 -.791E+01
   0.257E+01 0.593E+01 -.922E+03   -.256E+01 -.593E+01 0.914E+03   -.932E-02 -.956E-03 0.790E+01
   0.593E+01 0.257E+01 -.922E+03   -.593E+01 -.256E+01 0.914E+03   -.847E-03 -.942E-02 0.790E+01
   0.287E+01 0.628E+01 0.934E+03   -.285E+01 -.629E+01 -.926E+03   -.117E-01 0.189E-02 -.791E+01
   0.126E+02 0.789E+01 0.939E+03   -.126E+02 -.790E+01 -.931E+03   -.132E-01 0.102E-01 -.791E+01
   0.567E+01 0.707E+01 -.920E+03   -.566E+01 -.707E+01 0.911E+03   -.142E-01 0.437E-02 0.790E+01
   0.124E+02 0.115E+02 -.919E+03   -.124E+02 -.115E+02 0.911E+03   -.177E-01 -.208E-03 0.789E+01
   0.510E+01 0.230E+01 0.937E+03   -.509E+01 -.230E+01 -.929E+03   -.256E-02 0.503E-02 -.791E+01
   0.163E+02 -.259E+01 0.942E+03   -.163E+02 0.258E+01 -.934E+03   0.307E-01 0.117E-01 -.792E+01
   0.808E+01 -.253E+01 -.918E+03   -.810E+01 0.252E+01 0.910E+03   0.113E-01 0.385E-02 0.790E+01
   0.249E+02 0.574E+01 -.913E+03   -.249E+02 -.577E+01 0.905E+03   -.498E-02 0.193E-01 0.789E+01
   0.485E+01 -.534E+01 0.936E+03   -.487E+01 0.534E+01 -.928E+03   0.160E-01 -.881E-03 -.791E+01
   0.986E+01 -.883E+01 0.937E+03   -.988E+01 0.884E+01 -.929E+03   0.175E-01 -.813E-02 -.791E+01
   0.514E+01 -.811E+01 -.921E+03   -.516E+01 0.812E+01 0.913E+03   0.174E-01 -.331E-02 0.790E+01
   0.213E+02 -.109E+02 -.915E+03   -.213E+02 0.109E+02 0.906E+03   0.382E-01 0.264E-02 0.790E+01
   0.259E+01 -.494E+01 0.933E+03   -.260E+01 0.495E+01 -.924E+03   0.899E-02 -.390E-02 -.791E+01
   0.494E+01 -.259E+01 0.933E+03   -.495E+01 0.260E+01 -.924E+03   0.412E-02 -.889E-02 -.791E+01
   0.236E+01 -.236E+01 -.923E+03   -.237E+01 0.237E+01 0.915E+03   0.385E-02 -.394E-02 0.790E+01
   0.889E+01 -.889E+01 -.921E+03   -.890E+01 0.890E+01 0.913E+03   0.123E-01 -.123E-01 0.790E+01
   0.628E+01 0.287E+01 0.934E+03   -.629E+01 -.285E+01 -.926E+03   0.196E-02 -.117E-01 -.791E+01
   0.789E+01 0.126E+02 0.939E+03   -.790E+01 -.126E+02 -.931E+03   0.104E-01 -.133E-01 -.791E+01
   0.115E+02 0.124E+02 -.919E+03   -.115E+02 -.124E+02 0.911E+03   -.127E-03 -.178E-01 0.789E+01
   0.707E+01 0.567E+01 -.920E+03   -.707E+01 -.566E+01 0.911E+03   0.430E-02 -.141E-01 0.790E+01
   0.131E+02 0.131E+02 0.941E+03   -.131E+02 -.131E+02 -.932E+03   -.455E-02 -.466E-02 -.792E+01
   0.215E+02 0.215E+02 0.962E+03   -.215E+02 -.215E+02 -.953E+03   0.129E-01 0.128E-01 -.797E+01
   0.332E+02 0.221E+02 -.906E+03   -.331E+02 -.221E+02 0.898E+03   -.539E-01 0.209E-01 0.788E+01
   0.221E+02 0.332E+02 -.906E+03   -.221E+02 -.331E+02 0.898E+03   0.209E-01 -.540E-01 0.788E+01
   0.257E+02 0.679E+01 0.954E+03   -.257E+02 -.685E+01 -.946E+03   -.111E-01 0.429E-01 -.791E+01
   0.299E+02 -.818E+01 0.979E+03   -.298E+02 0.812E+01 -.971E+03   -.478E-01 0.434E-01 -.772E+01
   0.520E+02 -.741E+01 -.893E+03   -.522E+02 0.736E+01 0.885E+03   0.109E+00 0.425E-01 0.791E+01
   0.745E+02 0.331E+02 -.850E+03   -.743E+02 -.333E+02 0.842E+03   -.160E+00 0.176E+00 0.780E+01
   0.212E+02 -.129E+02 0.950E+03   -.212E+02 0.129E+02 -.942E+03   0.294E-01 -.883E-02 -.790E+01
   0.129E+02 -.212E+02 0.950E+03   -.129E+02 0.212E+02 -.942E+03   0.876E-02 -.291E-01 -.790E+01
   0.220E+02 -.220E+02 -.912E+03   -.221E+02 0.221E+02 0.904E+03   0.283E-01 -.283E-01 0.790E+01
   0.498E+02 -.498E+02 -.870E+03   -.499E+02 0.499E+02 0.862E+03   0.746E-01 -.747E-01 0.793E+01
   0.883E+01 -.986E+01 0.937E+03   -.884E+01 0.988E+01 -.929E+03   0.833E-02 -.173E-01 -.791E+01
   0.534E+01 -.485E+01 0.936E+03   -.534E+01 0.487E+01 -.928E+03   0.610E-03 -.161E-01 -.791E+01
   0.811E+01 -.514E+01 -.921E+03   -.812E+01 0.516E+01 0.913E+03   0.329E-02 -.175E-01 0.790E+01
   0.109E+02 -.213E+02 -.915E+03   -.109E+02 0.213E+02 0.906E+03   -.267E-02 -.383E-01 0.790E+01
   0.230E+01 0.510E+01 0.937E+03   -.230E+01 -.509E+01 -.929E+03   0.489E-02 -.246E-02 -.791E+01
   -.259E+01 0.163E+02 0.942E+03   0.258E+01 -.163E+02 -.934E+03   0.119E-01 0.309E-01 -.792E+01
   0.574E+01 0.249E+02 -.913E+03   -.577E+01 -.249E+02 0.905E+03   0.192E-01 -.493E-02 0.789E+01
   -.253E+01 0.808E+01 -.918E+03   0.252E+01 -.810E+01 0.910E+03   0.376E-02 0.114E-01 0.790E+01
   0.679E+01 0.257E+02 0.954E+03   -.685E+01 -.257E+02 -.946E+03   0.430E-01 -.113E-01 -.791E+01
   -.818E+01 0.299E+02 0.979E+03   0.812E+01 -.298E+02 -.971E+03   0.435E-01 -.479E-01 -.772E+01
   0.331E+02 0.745E+02 -.850E+03   -.333E+02 -.743E+02 0.842E+03   0.176E+00 -.160E+00 0.780E+01
   -.741E+01 0.520E+02 -.893E+03   0.736E+01 -.522E+02 0.885E+03   0.425E-01 0.109E+00 0.790E+01
   0.154E+02 0.154E+02 0.100E+04   -.154E+02 -.154E+02 -.992E+03   0.106E-01 0.105E-01 -.808E+01
   -.154E+02 -.154E+02 0.100E+04   0.154E+02 0.154E+02 -.992E+03   -.105E-01 -.107E-01 -.808E+01
   0.431E+02 -.431E+02 -.731E+03   -.426E+02 0.426E+02 0.724E+03   -.335E+00 0.335E+00 0.631E+01
   -.431E+02 0.431E+02 -.731E+03   0.426E+02 -.426E+02 0.724E+03   0.335E+00 -.335E+00 0.631E+01
   0.818E+01 -.299E+02 0.979E+03   -.812E+01 0.298E+02 -.971E+03   -.434E-01 0.479E-01 -.772E+01
   -.679E+01 -.257E+02 0.954E+03   0.685E+01 0.257E+02 -.946E+03   -.429E-01 0.112E-01 -.791E+01
   0.741E+01 -.520E+02 -.893E+03   -.736E+01 0.522E+02 0.885E+03   -.426E-01 -.109E+00 0.791E+01
   -.331E+02 -.745E+02 -.850E+03   0.333E+02 0.743E+02 0.842E+03   -.176E+00 0.160E+00 0.780E+01
   0.259E+01 -.163E+02 0.942E+03   -.258E+01 0.163E+02 -.934E+03   -.119E-01 -.308E-01 -.792E+01
   -.230E+01 -.510E+01 0.937E+03   0.230E+01 0.509E+01 -.929E+03   -.485E-02 0.263E-02 -.791E+01
[...]
   -.103E+02 0.568E+01 0.706E+03   0.103E+02 -.568E+01 -.710E+03   -.251E-01 0.294E-02 0.354E+01
   -.277E+01 0.477E+01 0.702E+03   0.278E+01 -.478E+01 -.706E+03   -.133E-01 0.450E-02 0.353E+01
   -.196E+02 0.270E+01 -.686E+03   0.197E+02 -.268E+01 0.690E+03   -.211E-01 -.210E-01 -.354E+01
   -.559E+01 -.230E+01 -.690E+03   0.559E+01 0.231E+01 0.694E+03   0.227E-02 -.716E-02 -.355E+01
   -.118E+02 -.279E+01 0.708E+03   0.118E+02 0.280E+01 -.712E+03   -.155E-02 -.228E-01 0.353E+01
   -.409E+01 0.148E+01 0.704E+03   0.410E+01 -.148E+01 -.708E+03   -.818E-02 -.377E-02 0.353E+01
   -.141E+02 -.846E+01 -.688E+03   0.141E+02 0.847E+01 0.692E+03   0.129E-01 -.109E-01 -.355E+01
   -.286E+01 -.596E+01 -.692E+03   0.285E+01 0.596E+01 0.696E+03   0.117E-01 -.140E-02 -.355E+01
   -.668E+01 -.637E+01 0.703E+03   0.667E+01 0.636E+01 -.707E+03   0.109E-01 0.155E-02 0.353E+01
   -.302E+01 -.410E+01 0.703E+03   0.301E+01 0.410E+01 -.707E+03   0.882E-02 -.485E-02 0.353E+01
   -.597E+01 -.597E+01 -.692E+03   0.596E+01 0.596E+01 0.696E+03   0.831E-02 0.832E-02 -.355E+01
   -.157E+01 -.157E+01 -.694E+03   0.156E+01 0.156E+01 0.698E+03   0.257E-02 0.257E-02 -.355E+01
   -.358E+01 -.153E+01 0.701E+03   0.358E+01 0.152E+01 -.705E+03   0.581E-03 0.730E-02 0.353E+01
   -.153E+01 -.358E+01 0.701E+03   0.152E+01 0.358E+01 -.705E+03   0.728E-02 0.588E-03 0.353E+01
   0.354E-04 0.110E-03 0.640E+01   0.309E-11 -.100E-11 -.261E-11   0.778E-04 -.243E-03 -.712E+01

 POSITION                                       TOTAL-FORCE (eV/Angst)
     10.42106      8.60391     14.09831        -0.006092      0.006052      0.053927
      8.60390     10.42106     14.09831         0.006350     -0.006217      0.053762
      0.00000      0.00000      9.00000         0.000548      0.000503      0.400757
      2.11389      2.11389      9.00000         0.001481      0.001413      0.401278
      0.00000      2.11389     11.11389         0.002539      0.000212     -0.400384
      2.11389      0.00000     11.11389         0.000265      0.002487     -0.400371
      0.00000      4.22777      9.00000         0.003090     -0.000546      0.400864
      2.11389      6.34166      9.00000         0.003395     -0.002918      0.401416
      0.00000      6.34166     11.11389         0.003760     -0.001148     -0.399885
      2.11389      4.22777     11.11389         0.004975      0.000300     -0.399175
      0.00000      8.45554      9.00000         0.000508     -0.001250      0.400845
      2.11389     10.56943      9.00000        -0.007930     -0.003550      0.401202
      0.00000     10.56943     11.11389        -0.002976     -0.000946     -0.400092
      2.11389      8.45554     11.11389         0.001394     -0.005710     -0.398793
      0.00000     12.68331      9.00000        -0.004415     -0.000021      0.400809
      2.11389     14.79720      9.00000        -0.004726      0.002549      0.399963
      0.00000     14.79720     11.11389        -0.004791      0.000954     -0.400190
      2.11389     12.68331     11.11389        -0.010772     -0.000358     -0.401324
      0.00000     16.91108      9.00000        -0.002449      0.001275      0.400584
      2.11389     19.02497      9.00000        -0.001196      0.002564      0.400582
      0.00000     19.02497     11.11389        -0.001102      0.000932     -0.400566
      2.11389     16.91108     11.11389        -0.003445      0.003343     -0.400758
      4.22777      0.00000      9.00000        -0.000464      0.003184      0.400906
      6.34166      2.11389      9.00000        -0.002686      0.003339      0.401390
      4.22777      2.11389     11.11389         0.000394      0.004916     -0.399127
      6.34166      0.00000     11.11389        -0.001105      0.003810     -0.399909
      4.22777      4.22777      9.00000         0.001818      0.001724      0.403664
      6.34166      6.34166      9.00000        -0.001355     -0.001505      0.415409
      4.22777      6.34166     11.11389         0.015694     -0.004596     -0.393404
      6.34166      4.22777     11.11389        -0.004484      0.015607     -0.393426
      4.22777      8.45554      9.00000         0.001055     -0.013616      0.400620
      6.34166     10.56943      9.00000         0.015478     -0.013918      0.354365
      4.22777     10.56943     11.11389        -0.039762     -0.013546     -0.400458
      6.34166      8.45554     11.11389         0.059410     -0.044582     -0.334762
      4.22777     12.68331      9.00000        -0.008598      0.003660      0.395342
      6.34166     14.79720      9.00000        -0.003678      0.008807      0.394963
      4.22777     14.79720     11.11389        -0.008501      0.008460     -0.403962
      6.34166     12.68331     11.11389        -0.019757      0.019755     -0.417436
      4.22777     16.91108      9.00000        -0.002382      0.004755      0.399534
      6.34166     19.02497      9.00000        -0.000059      0.004326      0.400482
      4.22777     19.02497     11.11389        -0.000948      0.004651     -0.400587
      6.34166     16.91108     11.11389         0.000416      0.010669     -0.401787
      8.45554      0.00000      9.00000        -0.001350      0.000614      0.400655
     10.56943      2.11389      9.00000        -0.003502     -0.007778      0.400896
      8.45554      2.11389     11.11389        -0.005686      0.001422     -0.398963
     10.56943      0.00000     11.11389        -0.001094     -0.002865     -0.400311
      8.45554      4.22777      9.00000        -0.013458      0.000863      0.400514
     10.56943      6.34166      9.00000        -0.013829      0.015270      0.354243
      8.45554      6.34166     11.11389        -0.044542      0.059297     -0.334768
     10.56943      4.22777     11.11389        -0.013528     -0.039793     -0.400645
      8.45554      8.45554      9.00000         0.000243      0.000181      0.421237
     10.56943     10.56943      9.00000        -0.000201     -0.000263      0.421159
      8.45554     10.56943     11.11389         0.130919     -0.130958     -0.310265
     10.56943      8.45554     11.11389        -0.130976      0.130849     -0.310298
      8.45554     12.68331      9.00000         0.013956     -0.015370      0.354374
     10.56943     14.79720      9.00000         0.013574     -0.000900      0.400480
      8.45554     14.79720     11.11389         0.013520      0.039728     -0.400669
     10.56943     12.68331     11.11389         0.044564     -0.059398     -0.334805
      8.45554     16.91108      9.00000         0.003559      0.007883      0.400830
     10.56943     19.02497      9.00000         0.001427     -0.000490      0.400683
[...]
     19.02497      6.34166     11.11389        -0.004086      0.000176      0.513801
     16.91108      6.34166      9.00000        -0.006927      0.000889     -0.512855
     19.02497      4.22777      9.00000        -0.003622      0.001311     -0.514084
     16.91108      8.45554     11.11389        -0.005981     -0.005832      0.514031
     19.02497     10.56943     11.11389         0.000717     -0.001968      0.513026
     16.91108     10.56943      9.00000        -0.000477     -0.006308     -0.515462
     19.02497      8.45554      9.00000        -0.002230     -0.001060     -0.514299
     16.91108     12.68331     11.11389         0.003545     -0.003001      0.511604
     19.02497     14.79720     11.11389         0.003311     -0.000393      0.513192
     16.91108     14.79720      9.00000         0.002999      0.000351     -0.515643
     19.02497     12.68331      9.00000         0.002311     -0.001417     -0.514756
     16.91108     16.91108     11.11389         0.002258      0.002296      0.513050
     19.02497     19.02497     11.11389         0.000706      0.000718      0.513797
     16.91108     19.02497      9.00000         0.000171      0.001989     -0.514670
     19.02497     16.91108      9.00000         0.002002      0.000154     -0.514621
    total drift:                                0.000113     -0.000133     -0.723184

  FREE ENERGIE OF THE ION-ELECTRON SYSTEM (eV)
  free  energy   TOTEN  =     -1776.85817081 eV

  energy  without entropy=    -1776.85817081  energy(sigma->0) =    -1776.85817081