 vasp.6.3.0 20Jan22 (build Apr  1 2022 16:44:48) complex
 executed on        HPECrayEX_GCC date 2023.01.09  20:26:36

 INCAR:
   SYSTEM = MgO-rocksalt
   ISMEAR = 0
   SIGMA = 0.05
   EDIFF = 1E-6
   ALGO = ALL
   ISTART = 0
   IBRION = -1
   NSW = 0
   ISYM = 2
   DIPOL = 0.5 0.5 0.5
   IDIPOL = 3
   LDIPOL = .TRUE.
   GGA = ML
   LUSE_VDW = .TRUE.
   ZAB_VDW = -1.8867
   AGGAC = 0.0000
   ENCUT = 520
   PREC = Accurate
   LASPH = .TRUE.
   LREAL = Auto
   ISPIN = 1
   NELM = 200
   NELMIN = 8
   NCORE = 4
   KPAR = 2
   LWAVE = .FALSE.
   LCHARG = .FALSE.

 POTCAR:    PAW_PBE Au 04Oct2007
 POTCAR:    PAW_PBE Mg_pv 13Apr2007
 POTCAR:    PAW_PBE O 08Apr2002
|               ----> ADVICE to this user running VASP <----                  |
|     You have switched on vdW-DFT.                                           |
|     This routine was written and supplied by Jiri Klimes. We recommend      |
|     that you carefully read and cite the following publications:            |
|       J. Klimes, D.R. Bowler, A. Michelides                                 |
|          J. Phys.: Cond Matt. 22 022201 (2010)                              |
|       J. Klimes, D.R. Bowler, A. Michelides                                 |
|          Phys. Rev. B. 83, 195131 (2011)                                    |
|     and references therein.                                                 |

   TITEL  = PAW_PBE Au 04Oct2007
   POMASS =  196.966; ZVAL   =   11.000    mass and valenz
   ENMAX  =  229.943; ENMIN  =  172.457 eV

   TITEL  = PAW_PBE Mg_pv 13Apr2007
   POMASS =   24.305; ZVAL   =    8.000    mass and valenz
   ENMAX  =  403.929; ENMIN  =  302.947 eV

   TITEL  = PAW_PBE O 08Apr2002
   POMASS =   16.000; ZVAL   =    6.000    mass and valenz
   ENMAX  =  400.000; ENMIN  =  300.000 eV

 Optimization of the real space projectors (new method)

 maximal supplied QI-value         = 15.12
 optimisation between [QCUT,QGAM] = [ 11.64, 23.28] = [ 37.95,151.78] Ry
 Optimized for a Real-space Cutoff    1.49 Angstroem

   l    n(q)    QCUT    max X(q) W(low)/X(q) W(high)/X(q)  e(spline)
   2      9    11.641    60.898    0.24E-03    0.10E-03    0.19E-06
   2      9    11.641    58.894    0.25E-03    0.10E-03    0.19E-06
   0     10    11.641   109.617    0.73E-04    0.33E-04    0.11E-06
   0     10    11.641    75.026    0.71E-04    0.32E-04    0.11E-06
   1     10    11.641    16.344    0.27E-04    0.97E-04    0.16E-06
   1     10    11.641    10.160    0.23E-04    0.77E-04    0.13E-06
 Optimization of the real space projectors (new method)

[...]

   l    n(q)    QCUT    max X(q) W(low)/X(q) W(high)/X(q)  e(spline)
   1      8    11.527     2.974    0.44E-04    0.56E-04    0.12E-06
   1      8    11.527     4.279    0.12E-03    0.12E-03    0.26E-06
   0      9    11.527    16.381    0.46E-04    0.64E-04    0.78E-07
   0      9    11.527     5.611    0.26E-04    0.43E-04    0.55E-07
   2      8    11.527     4.652    0.22E-03    0.72E-04    0.47E-07
 Optimization of the real space projectors (new method)

 maximal supplied QI-value         = 24.76
 optimisation between [QCUT,QGAM] = [ 11.64, 23.27] = [ 37.91,151.63] Ry
 Optimized for a Real-space Cutoff    1.14 Angstroem

   l    n(q)    QCUT    max X(q) W(low)/X(q) W(high)/X(q)  e(spline)
   0      8    11.635    20.381    0.10E-03    0.33E-03    0.24E-06
   0      8    11.635    15.268    0.11E-03    0.35E-03    0.26E-06
   1      7    11.635     5.964    0.24E-03    0.31E-03    0.30E-06
   1      7    11.635     5.382    0.22E-03    0.25E-03    0.26E-06
|               ----> ADVICE to this user running VASP <----                  |
|     You enforced a specific xc type in the INCAR file but a different       |
|     type was found in the POTCAR file.                                      |
|     I HOPE YOU KNOW WHAT YOU ARE DOING!                                     |

  PAW_PBE Au 04Oct2007                  :
  PAW_PBE Mg_pv 13Apr2007               :
  PAW_PBE O 08Apr2002                   :

 POSCAR: Au Mg  O
  positions in direct lattice
  velocities in cartesian coordinates
 exchange correlation table for  LEXCH =       44
   RHO(1)=    0.500       N(1)  =     2000
   RHO(2)=  100.500       N(2)  =     4000

 ion  position               nearest neighbor table
   1  0.290  0.507  0.638-   2 2.69   3 2.71
   2  0.397  0.442  0.618-   1 2.69   4 2.69 153 2.70   3 2.70  55 2.83
   3  0.397  0.569  0.609- 157 2.45   2 2.70   1 2.71   4 2.71  55 2.78
   4  0.505  0.506  0.637-   2 2.69   3 2.71
   5  0.000  0.000  0.407- 107 2.11 108 2.11 123 2.11 188 2.11 105 2.11
   6  0.100  0.100  0.407- 107 2.11 108 2.11 112 2.11 127 2.11 106 2.11
   7  0.000  0.100  0.503- 105 2.11 106 2.11 109 2.11 186 2.11 107 2.11
   8  0.100  0.000  0.503- 105 2.11 106 2.11 122 2.11 125 2.11 108 2.11
   9  0.000  0.200  0.407- 111 2.11 107 2.11 112 2.11 192 2.11 109 2.11
  10  0.100  0.300  0.407- 112 2.11 111 2.11 116 2.11 131 2.11 110 2.11
  11  0.000  0.300  0.503- 109 2.11 110 2.11 113 2.11 190 2.11 111 2.11
  12  0.100  0.200  0.503- 110 2.11 109 2.11 106 2.11 129 2.11 112 2.11
  13  0.000  0.400  0.407- 111 2.11 115 2.11 116 2.11 196 2.11 113 2.11
  14  0.100  0.500  0.407- 115 2.11 116 2.11 120 2.11 135 2.11 114 2.11
  15  0.000  0.500  0.503- 113 2.11 114 2.11 117 2.11 194 2.11 115 2.11
  16  0.100  0.400  0.503- 110 2.11 113 2.11 114 2.11 133 2.11 116 2.11
  17  0.000  0.600  0.407- 115 2.11 119 2.11 120 2.11 200 2.11 117 2.11
  18  0.100  0.700  0.407- 124 2.11 120 2.11 119 2.11 139 2.11 118 2.11
  19  0.000  0.700  0.503- 121 2.11 118 2.11 117 2.11 198 2.11 119 2.11
  20  0.100  0.600  0.503- 114 2.11 117 2.11 118 2.11 137 2.11 120 2.11
  21  0.000  0.800  0.407- 119 2.11 123 2.11 124 2.11 204 2.11 121 2.11
  22  0.100  0.900  0.407- 108 2.11 123 2.11 124 2.11 143 2.11 122 2.11
  23  0.000  0.900  0.503- 105 2.11 121 2.11 122 2.11 202 2.11 123 2.11
  24  0.100  0.800  0.503- 118 2.11 121 2.11 122 2.11 141 2.11 124 2.11
  25  0.200  0.000  0.407- 128 2.11 127 2.11 108 2.11 143 2.11 125 2.11
  26  0.300  0.100  0.407- 127 2.11 128 2.11 132 2.11 147 2.11 126 2.11
  27  0.200  0.100  0.503- 126 2.11 125 2.11 106 2.11 129 2.11 127 2.11
  28  0.300  0.000  0.503- 125 2.11 126 2.11 142 2.11 145 2.11 128 2.11
  29  0.200  0.200  0.407- 131 2.11 132 2.11 112 2.11 127 2.11 129 2.11
  30  0.300  0.300  0.407- 131 2.11 132 2.11 136 2.11 151 2.11 130 2.11
  31  0.200  0.300  0.503- 129 2.11 130 2.11 110 2.11 133 2.11 131 2.11
  32  0.300  0.200  0.503- 129 2.11 130 2.11 126 2.11 149 2.11 132 2.11
  33  0.200  0.400  0.407- 136 2.11 131 2.11 135 2.11 116 2.11 133 2.11
  34  0.300  0.500  0.407- 135 2.11 136 2.11 140 2.11 155 2.11 134 2.11
  35  0.200  0.500  0.503- 134 2.11 133 2.11 114 2.11 137 2.11 135 2.11
  36  0.300  0.400  0.503- 133 2.11 130 2.11 134 2.11 153 2.11 136 2.11
  37  0.200  0.600  0.407- 140 2.11 135 2.11 139 2.11 120 2.11 137 2.11
  38  0.300  0.700  0.407- 139 2.11 144 2.11 140 2.11 159 2.11 138 2.11
  39  0.200  0.700  0.503- 138 2.11 141 2.11 118 2.11 137 2.11 139 2.11
  40  0.300  0.600  0.503- 137 2.11 134 2.11 138 2.11 157 2.11 140 2.11
  41  0.200  0.800  0.407- 139 2.11 144 2.11 143 2.11 124 2.11 141 2.11
  42  0.300  0.900  0.407- 143 2.11 128 2.11 144 2.11 163 2.11 142 2.11
  43  0.200  0.900  0.503- 142 2.11 125 2.11 141 2.11 122 2.11 143 2.11
  44  0.300  0.800  0.503- 138 2.11 141 2.11 142 2.11 161 2.11 144 2.11
  45  0.400  0.000  0.407- 128 2.11 147 2.11 148 2.11 163 2.11 145 2.11
  46  0.500  0.100  0.407- 147 2.11 148 2.11 152 2.11 167 2.11 146 2.11
  47  0.400  0.100  0.503- 126 2.11 145 2.11 146 2.11 149 2.11 147 2.11
  48  0.500  0.000  0.503- 145 2.11 146 2.11 162 2.11 165 2.11 148 2.11
  49  0.400  0.200  0.407- 151 2.11 147 2.11 132 2.11 152 2.11 149 2.11
  50  0.500  0.300  0.407- 152 2.11 151 2.11 156 2.11 171 2.11 150 2.11
  51  0.400  0.300  0.503- 149 2.11 130 2.11 150 2.11 153 2.11 151 2.11
  52  0.500  0.200  0.503- 150 2.11 149 2.11 146 2.11 169 2.11 152 2.11
  53  0.400  0.400  0.407- 136 2.11 151 2.11 155 2.11 156 2.11 153 2.11
  54  0.500  0.500  0.407- 155 2.11 156 2.11 160 2.11 175 2.11 154 2.11
  55  0.400  0.500  0.503- 134 2.11 153 2.11 154 2.11 157 2.11 155 2.11   3 2.78   2 2.83
  56  0.500  0.400  0.503- 150 2.11 153 2.11 154 2.11 173 2.11 156 2.11
  57  0.400  0.600  0.407- 140 2.11 155 2.11 159 2.11 160 2.11 157 2.11
  58  0.500  0.700  0.407- 164 2.11 160 2.11 159 2.11 179 2.11 158 2.11
  59  0.400  0.700  0.503- 161 2.11 157 2.11 158 2.11 138 2.11 159 2.11
  60  0.500  0.600  0.503- 154 2.11 157 2.11 158 2.11 177 2.11 160 2.11
[...]
 190  0.900  0.300  0.503-  92 2.11  91 2.11  11 2.11  96 2.11  90 2.11
 191  0.800  0.300  0.407-  70 2.11  89 2.11  90 2.11  93 2.11  91 2.11
 192  0.900  0.200  0.407-  90 2.11  86 2.11  89 2.11   9 2.11  92 2.11
 193  0.800  0.400  0.503-  76 2.11  91 2.11  95 2.11  96 2.11  93 2.11
 194  0.900  0.500  0.503-  15 2.11  95 2.11  96 2.11 100 2.11  94 2.11
 195  0.800  0.500  0.407-  74 2.11  93 2.11  94 2.11  97 2.11  95 2.11
 196  0.900  0.400  0.407-  13 2.11  90 2.11  93 2.11  94 2.11  96 2.11
 197  0.800  0.600  0.503-  80 2.11  95 2.11  99 2.11 100 2.11  97 2.11
 198  0.900  0.700  0.503- 104 2.11  99 2.11 100 2.11  19 2.11  98 2.11
 199  0.800  0.700  0.407-  78 2.11 101 2.11  98 2.11  97 2.11  99 2.11
 200  0.900  0.600  0.407-  17 2.11  94 2.11  97 2.11  98 2.11 100 2.11
 201  0.800  0.800  0.503-  84 2.11  99 2.11 103 2.11 104 2.11 101 2.11
 202  0.900  0.900  0.503-  23 2.11  88 2.11 103 2.11 104 2.11 102 2.11
 203  0.800  0.900  0.407-  82 2.11  85 2.11 101 2.11 102 2.11 103 2.11
 204  0.900  0.800  0.407-  98 2.11  21 2.11 101 2.11 102 2.11 104 2.11

  LATTYP: Found a simple tetragonal cell.
 ALAT       =    21.1388521970
 C/A-ratio  =     1.0461251639

  Lattice vectors:

 A1 = (  21.1388521970,   0.0000000000,   0.0000000000)
 A2 = (   0.0000000000,  21.1388521970,   0.0000000000)
 A3 = (   0.0000000000,   0.0000000000,  22.1138852197)

Analysis of symmetry for initial positions (statically):
 Subroutine PRICEL returns:
 Original cell was already a primitive cell.

 Routine SETGRP: Setting up the symmetry group for a
 simple tetragonal supercell.

 Subroutine GETGRP returns: Found  1 space group operations
 (whereof  1 operations were pure point group operations)
 out of a pool of 16 trial point group operations.

The static configuration has the point symmetry C_1 .

Analysis of symmetry for dynamics (positions and initial velocities):
 Subroutine PRICEL returns:
 Original cell was already a primitive cell.

[...]

The dynamic configuration has the point symmetry C_1 .

Analysis of constrained symmetry for selective dynamics:
 Subroutine PRICEL returns:
 Original cell was already a primitive cell.

 Routine SETGRP: Setting up the symmetry group for a
 simple tetragonal supercell.

 Subroutine GETGRP returns: Found  1 space group operations
 (whereof  1 operations were pure point group operations)
 out of a pool of 16 trial point group operations.

The constrained configuration has the point symmetry C_1 .

 Subroutine INISYM returns: Found  1 space group operations
 (whereof  1 operations are pure point group operations),
 and found     1 'primitive' translations

[...]
     52     -44.0036      2.00000
     53     -44.0028      2.00000
     54     -43.9990      2.00000
     55     -43.9984      2.00000
     56     -43.9983      2.00000
     57     -43.9962      2.00000
     58     -43.9950      2.00000
     59     -43.9923      2.00000
     60     -43.9903      2.00000
[...]
    946       5.1763      0.00000
    947       5.2283      0.00000
    948       5.2414      0.00000
    949       5.2573      0.00000
    950       5.2849      0.00000
    951       5.3002      0.00000
    952       5.3112      0.00000
    953       5.3389      0.00000
    954       5.3642      0.00000
    955       5.3857      0.00000
    956       5.4267      0.00000
    957       5.4527      0.00000
    958       5.5429      0.00000
    959       5.6194      0.00000
    960       5.8557      0.00000

 soft charge-density along one line, spin component           1
         0         1         2         3         4         5         6         7         8         9
 total charge-density along one line

------------------------ aborting loop because EDIFF is reached ----------------------------------------

  FORCE on cell =-STRESS in cart. coord.  units (eV):
  Direction    XX          YY          ZZ          XY          YZ          ZX
  Alpha Z  1417.83424  1417.83424  1417.83424
  Ewald  484651.50164483712.19756************    -3.57601   -87.59049   -13.50229
  Hartree513402.41193512623.20711************    -3.36636   -60.29946    -9.35988
  E(xc)   -8147.95242 -8148.15213 -8157.58342     0.00439    -0.09265    -0.02458
  Local  ************************************     7.07397   145.69275    22.40262
  n-local -8839.55171 -8839.26849 -8937.90448    -0.08389     0.85182     0.31750
  augment  3704.82474  3705.43385  3655.73267    -0.00982     0.34276     0.00684
  Kinetic 23413.93063 23414.21759 23634.15173    -0.04847     0.89301     0.13023
  Fock        0.00000     0.00000     0.00000     0.00000     0.00000     0.00000
  Total    -118.56538  -119.75649    43.83699    -0.00618    -0.20226    -0.02956
  in kB     -19.22386   -19.41698     7.10761    -0.00100    -0.03279    -0.00479

 VOLUME and BASIS-vectors are now :
  energy-cutoff  :      520.00
  volume of cell :     9881.61
      direct lattice vectors                 reciprocal lattice vectors
    21.138852197  0.000000000  0.000000000     0.047306258  0.000000000  0.000000000
     0.000000000 21.138852197  0.000000000     0.000000000  0.047306258  0.000000000
     0.000000000  0.000000000 22.113885220     0.000000000  0.000000000  0.045220457

  length of vectors
    21.138852197 21.138852197 22.113885220     0.047306258  0.047306258  0.045220457

 FORCES acting on ions:
    Electron-Ion                     Ewald-Force                    Non-Local-Force
   0.482E+03 -.681E+01 -.207E+04   -.480E+03 0.671E+01 0.207E+04   -.371E+01 0.130E+00 0.610E+00
   0.183E+01 0.482E+03 -.204E+04   -.183E+01 -.480E+03 0.204E+04   -.175E-02 -.363E+01 -.678E+00
   -.139E+01 -.470E+03 -.203E+04   0.131E+01 0.468E+03 0.203E+04   0.928E-01 0.297E+01 -.950E+00
   -.483E+03 -.418E+01 -.207E+04   0.480E+03 0.406E+01 0.207E+04   0.374E+01 0.152E+00 0.509E+00
   0.664E+01 -.546E+00 0.935E+03   -.667E+01 0.554E+00 -.929E+03   0.229E-01 -.603E-02 -.618E+01
   0.127E+02 0.109E+02 0.939E+03   -.127E+02 -.109E+02 -.933E+03   0.460E-01 -.329E-02 -.618E+01
   0.953E+01 0.100E+02 -.916E+03   -.956E+01 -.100E+02 0.910E+03   0.225E-01 -.156E-01 0.611E+01
   0.135E+02 -.967E+00 -.915E+03   -.136E+02 0.979E+00 0.909E+03   0.376E-01 -.957E-02 0.611E+01
   0.107E+02 0.143E+02 0.939E+03   -.108E+02 -.143E+02 -.933E+03   0.313E-01 -.133E-01 -.619E+01
   0.288E+02 0.247E+02 0.955E+03   -.289E+02 -.247E+02 -.948E+03   0.102E+00 -.856E-02 -.621E+01
   0.227E+02 0.217E+02 -.909E+03   -.227E+02 -.216E+02 0.903E+03   0.169E-01 -.293E-01 0.609E+01
   0.259E+02 0.288E+02 -.908E+03   -.260E+02 -.288E+02 0.902E+03   0.655E-01 -.295E-01 0.610E+01
   0.211E+02 0.113E+02 0.950E+03   -.212E+02 -.112E+02 -.943E+03   0.372E-01 -.776E-02 -.620E+01
   0.468E+02 0.135E+01 0.973E+03   -.470E+02 -.137E+01 -.966E+03   0.129E+00 0.125E-01 -.626E+01
   0.376E+02 0.108E+01 -.901E+03   -.376E+02 -.108E+01 0.895E+03   -.234E-01 0.574E-02 0.608E+01
   0.704E+02 0.318E+02 -.883E+03   -.704E+02 -.317E+02 0.877E+03   0.214E-01 -.523E-01 0.604E+01
   0.217E+02 -.102E+02 0.950E+03   -.218E+02 0.101E+02 -.944E+03   0.453E-01 0.180E-01 -.621E+01
   0.305E+02 -.247E+02 0.956E+03   -.306E+02 0.246E+02 -.950E+03   0.136E+00 0.135E-01 -.622E+01
   0.240E+02 -.215E+02 -.908E+03   -.240E+02 0.215E+02 0.902E+03   0.258E-01 0.328E-01 0.609E+01
   0.738E+02 -.293E+02 -.881E+03   -.738E+02 0.292E+02 0.875E+03   0.363E-01 0.679E-01 0.603E+01
   0.113E+02 -.148E+02 0.940E+03   -.114E+02 0.148E+02 -.934E+03   0.408E-01 0.908E-02 -.619E+01
   0.132E+02 -.123E+02 0.939E+03   -.133E+02 0.123E+02 -.933E+03   0.556E-01 -.141E-01 -.618E+01
   0.995E+01 -.113E+02 -.916E+03   -.999E+01 0.112E+02 0.910E+03   0.274E-01 0.640E-02 0.611E+01
   0.277E+02 -.304E+02 -.908E+03   -.279E+02 0.304E+02 0.901E+03   0.890E-01 0.235E-01 0.609E+01
   0.113E+02 -.104E+01 0.940E+03   -.114E+02 0.106E+01 -.934E+03   0.446E-01 -.159E-01 -.618E+01
   0.857E+01 0.192E+02 0.947E+03   -.862E+01 -.193E+02 -.940E+03   0.372E-01 0.541E-01 -.619E+01
   0.175E+02 0.214E+02 -.910E+03   -.175E+02 -.214E+02 0.904E+03   0.490E-01 0.107E-01 0.610E+01
   0.901E+01 -.181E+01 -.911E+03   -.904E+01 0.184E+01 0.905E+03   0.283E-01 -.215E-01 0.611E+01
   0.207E+02 0.301E+02 0.953E+03   -.209E+02 -.302E+02 -.947E+03   0.996E-01 0.382E-01 -.619E+01
   0.250E+02 0.556E+02 0.993E+03   -.253E+02 -.558E+02 -.986E+03   0.215E+00 0.176E+00 -.614E+01
   0.597E+02 0.698E+02 -.876E+03   -.600E+02 -.697E+02 0.870E+03   0.234E+00 -.840E-01 0.604E+01
   0.218E+02 0.653E+02 -.891E+03   -.219E+02 -.655E+02 0.885E+03   0.731E-01 0.157E+00 0.609E+01
   0.520E+02 0.322E+02 0.998E+03   -.524E+02 -.323E+02 -.992E+03   0.312E+00 0.283E-01 -.633E+01
   0.490E+02 0.440E+01 0.107E+04   -.496E+02 -.452E+01 -.106E+04   0.423E+00 0.940E-01 -.650E+01
   0.150E+03 0.677E+01 -.783E+03   -.150E+03 -.679E+01 0.778E+03   0.223E+00 0.157E-01 0.567E+01
   0.109E+03 0.136E+03 -.726E+03   -.111E+03 -.136E+03 0.720E+03   0.130E+01 0.165E-01 0.592E+01
   0.544E+02 -.294E+02 0.100E+04   -.549E+02 0.294E+02 -.995E+03   0.400E+00 0.134E-01 -.635E+01
   0.273E+02 -.571E+02 0.999E+03   -.277E+02 0.574E+02 -.993E+03   0.289E+00 -.216E+00 -.611E+01
   0.656E+02 -.726E+02 -.871E+03   -.660E+02 0.725E+02 0.865E+03   0.329E+00 0.100E+00 0.603E+01
   0.123E+03 -.131E+03 -.702E+03   -.126E+03 0.131E+03 0.697E+03   0.194E+01 0.818E-01 0.582E+01
   0.223E+02 -.319E+02 0.955E+03   -.224E+02 0.320E+02 -.949E+03   0.132E+00 -.646E-01 -.619E+01
   0.904E+01 -.220E+02 0.948E+03   -.910E+01 0.221E+02 -.942E+03   0.458E-01 -.105E+00 -.619E+01
   0.185E+02 -.244E+02 -.910E+03   -.186E+02 0.244E+02 0.904E+03   0.600E-01 -.434E-01 0.610E+01
   0.243E+02 -.713E+02 -.888E+03   -.244E+02 0.716E+02 0.882E+03   0.967E-01 -.244E+00 0.608E+01
   -.227E+00 -.142E+01 0.944E+03   0.225E+00 0.145E+01 -.938E+03   0.100E-02 -.256E-01 -.619E+01
   -.897E+01 0.191E+02 0.947E+03   0.902E+01 -.191E+02 -.940E+03   -.356E-01 0.541E-01 -.619E+01
   -.362E+00 0.311E+02 -.906E+03   0.360E+00 -.312E+02 0.900E+03   0.106E-02 0.664E-01 0.610E+01
   -.945E+01 -.177E+01 -.911E+03   0.948E+01 0.180E+01 0.905E+03   -.266E-01 -.221E-01 0.611E+01
   -.437E+00 0.440E+02 0.965E+03   0.435E+00 -.443E+02 -.959E+03   0.125E-02 0.247E+00 -.621E+01
   -.260E+02 0.548E+02 0.992E+03   0.262E+02 -.551E+02 -.986E+03   -.211E+00 0.186E+00 -.615E+01
   -.180E+01 0.139E+03 -.823E+03   0.180E+01 -.141E+03 0.817E+03   0.139E-04 0.110E+01 0.619E+01
   -.227E+02 0.643E+02 -.891E+03   0.228E+02 -.645E+02 0.885E+03   -.705E-01 0.156E+00 0.609E+01
   -.131E+01 0.563E+02 0.106E+04   0.129E+01 -.566E+02 -.105E+04   0.141E-01 0.245E+00 -.485E+01
   -.507E+02 0.423E+01 0.107E+04   0.513E+02 -.436E+01 -.106E+04   -.415E+00 0.943E-01 -.646E+01
   -.600E+01 0.230E+02 -.504E+03   0.598E+01 -.240E+02 0.499E+03   0.381E-01 0.713E+00 0.476E+01
   -.111E+03 0.133E+03 -.732E+03   0.112E+03 -.133E+03 0.726E+03   -.128E+01 0.408E-01 0.594E+01
   -.148E+01 -.517E+02 0.107E+04   0.146E+01 0.518E+02 -.106E+04   0.168E-01 -.117E+00 -.414E+01
   -.284E+02 -.563E+02 0.998E+03   0.288E+02 0.566E+02 -.991E+03   -.282E+00 -.225E+00 -.611E+01
   -.231E+01 -.153E+03 -.808E+03   0.231E+01 0.156E+03 0.801E+03   0.410E-02 -.168E+01 0.628E+01
   -.125E+03 -.128E+03 -.711E+03   0.127E+03 0.128E+03 0.705E+03   -.191E+01 0.632E-01 0.589E+01
[...]
   -.112E+02 0.118E+02 0.711E+03   0.113E+02 -.118E+02 -.715E+03   -.346E-01 -.126E-01 0.357E+01
   0.224E+00 0.909E+01 0.706E+03   -.223E+00 -.908E+01 -.710E+03   -.184E-02 -.141E-01 0.359E+01
   -.229E+02 0.115E+02 -.681E+03   0.229E+02 -.115E+02 0.685E+03   -.130E-01 -.212E-01 -.374E+01
   0.721E+00 0.567E+00 -.683E+03   -.717E+00 -.571E+00 0.688E+03   -.537E-02 0.577E-02 -.372E+01
   -.169E+02 0.543E+00 0.716E+03   0.169E+02 -.550E+00 -.720E+03   -.317E-01 0.863E-02 0.356E+01
   0.422E+00 0.675E+01 0.711E+03   -.419E+00 -.674E+01 -.715E+03   -.398E-02 -.789E-02 0.357E+01
   -.237E+02 -.105E+02 -.681E+03   0.237E+02 0.105E+02 0.685E+03   -.192E-01 0.335E-01 -.374E+01
   0.498E+00 -.125E+02 -.687E+03   -.495E+00 0.125E+02 0.691E+03   -.393E-02 0.274E-01 -.371E+01
   -.117E+02 -.117E+02 0.711E+03   0.118E+02 0.117E+02 -.715E+03   -.445E-01 0.163E-01 0.357E+01
   0.443E+00 -.609E+01 0.711E+03   -.440E+00 0.608E+01 -.715E+03   -.441E-02 0.177E-01 0.357E+01
   -.108E+02 -.142E+02 -.688E+03   0.109E+02 0.142E+02 0.692E+03   -.336E-01 0.150E-01 -.370E+01
   0.221E+00 -.709E+01 -.691E+03   -.220E+00 0.708E+01 0.695E+03   -.168E-02 0.478E-02 -.369E+01
   -.562E+01 -.656E+01 0.705E+03   0.564E+01 0.656E+01 -.709E+03   -.325E-01 -.418E-02 0.359E+01
   0.247E+00 -.939E+01 0.706E+03   -.245E+00 0.939E+01 -.710E+03   -.233E-02 0.101E-01 0.359E+01
   0.656E-02 0.722E+00 0.112E+02   0.273E-11 0.210E-11 0.218E-10   -.514E-02 -.720E+00 -.117E+02

 POSITION                                       TOTAL-FORCE (eV/Angst)
      6.12143     10.70919     14.10279        -0.976367      0.025429      0.463137
      8.38943      9.33976     13.66282        -0.006353     -1.141268      0.298383
      8.39418     12.03706     13.47256         0.002853      1.087334      0.333484
     10.67333     10.69253     14.07734         0.974868      0.022287      0.461368
      0.00000      0.00000      9.00000        -0.006390      0.001700      0.093661
      2.11389      2.11389      9.00000        -0.012894      0.000750      0.094106
      0.00000      2.11389     11.11389        -0.006110      0.004330     -0.068181
      2.11389      0.00000     11.11389        -0.010575      0.002641     -0.067624
      0.00000      4.22777      9.00000        -0.008383      0.003738      0.095782
      2.11389      6.34166      9.00000        -0.026953      0.002690      0.102880
      0.00000      6.34166     11.11389        -0.003844      0.008651     -0.061309
      2.11389      4.22777     11.11389        -0.017296      0.008289     -0.061606
      0.00000      8.45554      9.00000        -0.009864      0.002542      0.101011
      2.11389     10.56943      9.00000        -0.035575     -0.003646      0.116500
      0.00000     10.56943     11.11389         0.007853     -0.001628     -0.052713
      2.11389      8.45554     11.11389         0.000442      0.017813     -0.029057
      0.00000     12.68331      9.00000        -0.012029     -0.005451      0.101244
      2.11389     14.79720      9.00000        -0.035805     -0.004047      0.103743
      0.00000     14.79720     11.11389        -0.006127     -0.009648     -0.060577
      2.11389     12.68331     11.11389        -0.003435     -0.022342     -0.026657
      0.00000     16.91108      9.00000        -0.010942     -0.002543      0.095927
      2.11389     19.02497      9.00000        -0.015601      0.004133      0.093939
      0.00000     19.02497     11.11389        -0.007428     -0.001742     -0.067912
      2.11389     16.91108     11.11389        -0.023496     -0.006513     -0.060271
      4.22777      0.00000      9.00000        -0.012797      0.004367      0.093917
      6.34166      2.11389      9.00000        -0.010946     -0.014471      0.094754
      4.22777      2.11389     11.11389        -0.013969     -0.002589     -0.064321
      6.34166      0.00000     11.11389        -0.008191      0.005782     -0.065126
      4.22777      4.22777      9.00000        -0.028615     -0.011723      0.094416
      6.34166      6.34166      9.00000        -0.069823     -0.057182      0.073272
      4.22777      6.34166     11.11389        -0.060973      0.025984     -0.028949
      6.34166      4.22777     11.11389        -0.022346     -0.041068     -0.052709
      4.22777      8.45554      9.00000        -0.081621     -0.006450      0.127326
      6.34166     10.56943      9.00000        -0.139908     -0.030147      0.102939
      4.22777     10.56943     11.11389        -0.042792     -0.003119      0.144123
      6.34166      8.45554     11.11389        -0.425155      0.014002      0.048373
      4.22777     12.68331      9.00000        -0.103574     -0.005657      0.130021
      6.34166     14.79720      9.00000        -0.093972      0.072261      0.058100
      4.22777     14.79720     11.11389        -0.084918     -0.030420     -0.020774
      6.34166     12.68331     11.11389        -0.654972     -0.031856      0.044607
      4.22777     16.91108      9.00000        -0.037843      0.019535      0.093043
      6.34166     19.02497      9.00000        -0.013504      0.028274      0.094591
      4.22777     19.02497     11.11389        -0.017090      0.011402     -0.063363
      6.34166     16.91108     11.11389        -0.029419      0.064518     -0.048866
      8.45554      0.00000      9.00000        -0.000283      0.006887      0.094397
     10.56943      2.11389      9.00000         0.010468     -0.014500      0.094691
      8.45554      2.11389     11.11389        -0.000297     -0.016632     -0.062347
     10.56943      0.00000     11.11389         0.007677      0.005932     -0.065164
      8.45554      4.22777      9.00000        -0.000346     -0.063848      0.097691
     10.56943      6.34166      9.00000         0.068500     -0.059850      0.074535
      8.45554      6.34166     11.11389         0.000066     -0.346060     -0.072445
     10.56943      4.22777     11.11389         0.021564     -0.040779     -0.052766
      8.45554      8.45554      9.00000        -0.004939     -0.051584     -0.230663
     10.56943     10.56943      9.00000         0.138077     -0.030261      0.095640
      8.45554     10.56943     11.11389         0.011136     -0.301670     -0.477511
     10.56943      8.45554     11.11389         0.411310      0.009900      0.060008
      8.45554     12.68331      9.00000        -0.005842      0.019440     -0.390193
     10.56943     14.79720      9.00000         0.092095      0.075095      0.058436
      8.45554     14.79720     11.11389        -0.001264      0.529286     -0.101691
     10.56943     12.68331     11.11389         0.628828     -0.031445      0.054172
[...]
     19.02497      6.34166     11.11389        -0.000915     -0.006850      0.457381
     16.91108      6.34166      9.00000        -0.009825     -0.003543     -0.492189
     19.02497      4.22777      9.00000        -0.000529     -0.003981     -0.489328
     16.91108      8.45554     11.11389        -0.003860     -0.005993      0.449317
     19.02497     10.56943     11.11389        -0.001514      0.001611      0.453136
     16.91108     10.56943      9.00000        -0.009332      0.002416     -0.497541
     19.02497      8.45554      9.00000        -0.001115     -0.002327     -0.492856
     16.91108     12.68331     11.11389        -0.005631      0.009422      0.448740
     19.02497     14.79720     11.11389        -0.001110      0.007771      0.456876
     16.91108     14.79720      9.00000        -0.012653      0.004545     -0.492252
     19.02497     12.68331      9.00000        -0.001243      0.005062     -0.492903
     16.91108     16.91108     11.11389        -0.009468      0.004234      0.458317
     19.02497     19.02497     11.11389        -0.000483      0.001352      0.461829
     16.91108     19.02497      9.00000        -0.009173     -0.001173     -0.488313
     19.02497     16.91108      9.00000        -0.000661      0.002840     -0.489348
    total drift:                                0.001422      0.001343     -0.503401

  FREE ENERGIE OF THE ION-ELECTRON SYSTEM (eV)
  free  energy   TOTEN  =      -748.52386599 eV

  energy  without entropy=     -748.52386599  energy(sigma->0) =     -748.52386599