 vasp.6.3.0 20Jan22 (build Apr  1 2022 16:44:48) complex
 executed on        HPECrayEX_GCC date 2022.11.18  08:57:10

 INCAR:
   SYSTEM = MgO-rocksalt
   ISMEAR = 0
   SIGMA = 0.05
   EDIFF = 1E-6
   ALGO = ALL
   ISTART = 0
   IBRION = -1
   NSW = 0
   ISYM = 2
   DIPOL = 0.5 0.5 0.5
   IDIPOL = 3
   LDIPOL = .TRUE.
   GGA = PE
   IVDW = 13
   VDW_S8 = 0.9595
   VDW_A1 = 0.3857
   VDW_A2 = 4.8069
   ENCUT = 520
   PREC = Accurate
   LASPH = .TRUE.
   LREAL = Auto
   ISPIN = 1
   NELM = 200
   NELMIN = 8
   NCORE = 4
   KPAR = 2
   LWAVE = .FALSE.
   LCHARG = .FALSE.

 POTCAR:    PAW_PBE Cu 22Jun2005
 POTCAR:    PAW_PBE Mg_pv 13Apr2007
 POTCAR:    PAW_PBE O 08Apr2002
 POTCAR:    PAW_PBE Cu 22Jun2005
   VRHFIN =Cu: d10 p1

   TITEL  = PAW_PBE Cu 22Jun2005
   POMASS =   63.546; ZVAL   =   11.000    mass and valenz
   ENMAX  =  295.446; ENMIN  =  221.585 eV

   TITEL  = PAW_PBE Mg_pv 13Apr2007
   POMASS =   24.305; ZVAL   =    8.000    mass and valenz
   ENMAX  =  403.929; ENMIN  =  302.947 eV

   TITEL  = PAW_PBE O 08Apr2002
   POMASS =   16.000; ZVAL   =    6.000    mass and valenz
   ENMAX  =  400.000; ENMIN  =  300.000 eV

 Optimization of the real space projectors (new method)

 maximal supplied QI-value         = 16.25
 optimisation between [QCUT,QGAM] = [ 11.54, 23.24] = [ 37.28,151.24] Ry
 Optimized for a Real-space Cutoff    1.53 Angstroem

   l    n(q)    QCUT    max X(q) W(low)/X(q) W(high)/X(q)  e(spline)
   2     10    11.539     4.610    0.96E-04    0.13E-03    0.19E-06
   2     10    11.539     8.522    0.16E-03    0.21E-03    0.28E-06
   0     11    11.539    51.609    0.45E-04    0.31E-04    0.11E-06
   0     11    11.539    27.747    0.39E-04    0.29E-04    0.10E-06
   1     10    11.539    20.408    0.70E-05    0.38E-04    0.18E-06
   1     10    11.539    13.425    0.66E-05    0.34E-04    0.17E-06
 Optimization of the real space projectors (new method)

[...]

   l    n(q)    QCUT    max X(q) W(low)/X(q) W(high)/X(q)  e(spline)
   1      8    11.527     2.974    0.44E-04    0.56E-04    0.12E-06
   1      8    11.527     4.279    0.12E-03    0.12E-03    0.26E-06
   0      9    11.527    16.381    0.46E-04    0.64E-04    0.78E-07
   0      9    11.527     5.611    0.26E-04    0.43E-04    0.55E-07
   2      8    11.527     4.652    0.22E-03    0.72E-04    0.47E-07
 Optimization of the real space projectors (new method)

 maximal supplied QI-value         = 24.76
 optimisation between [QCUT,QGAM] = [ 11.64, 23.27] = [ 37.91,151.63] Ry
 Optimized for a Real-space Cutoff    1.14 Angstroem

   l    n(q)    QCUT    max X(q) W(low)/X(q) W(high)/X(q)  e(spline)
   0      8    11.635    20.381    0.10E-03    0.33E-03    0.24E-06
   0      8    11.635    15.268    0.11E-03    0.35E-03    0.26E-06
   1      7    11.635     5.964    0.24E-03    0.31E-03    0.30E-06
   1      7    11.635     5.382    0.22E-03    0.25E-03    0.26E-06
  PAW_PBE Cu 22Jun2005                  :
  PAW_PBE Mg_pv 13Apr2007               :
  PAW_PBE O 08Apr2002                   :

 POSCAR: Cu Mg  O
  positions in direct lattice
|           W    W    AA    RRRRR   N    N  II  N    N   GGGG   !!!           |
|           W    W   A  A   R    R  NN   N  II  NN   N  G    G  !!!           |
|           W    W  A    A  R    R  N N  N  II  N N  N  G       !!!           |
|           W WW W  AAAAAA  RRRRR   N  N N  II  N  N N  G  GGG   !            |
|           WW  WW  A    A  R   R   N   NN  II  N   NN  G    G                |
|           W    W  A    A  R    R  N    N  II  N    N   GGGG   !!!           |
|     Specifying the vdW parameters                                           |
|     VDW_S8 = 0.96                                                           |
|     VDW_A1 = 0.386                                                          |
|     VDW_A2 = 4.807                                                          |
|     in the INCAR file will overwrite the defaults for pbe. Please make      |
|     sure that is what you intended.                                         |

 ion  position               nearest neighbor table
   1  0.538  0.462  0.618-   2 2.25
   2  0.462  0.538  0.618-   1 2.25
   3  0.000  0.000  0.407- 105 2.11 106 2.11 121 2.11 186 2.11 103 2.11
   4  0.100  0.100  0.407- 105 2.11 106 2.11 110 2.11 125 2.11 104 2.11
   5  0.000  0.100  0.503- 103 2.11 104 2.11 107 2.11 184 2.11 105 2.11
   6  0.100  0.000  0.503- 103 2.11 104 2.11 120 2.11 123 2.11 106 2.11
   7  0.000  0.200  0.407- 109 2.11 105 2.11 110 2.11 190 2.11 107 2.11
   8  0.100  0.300  0.407- 110 2.11 109 2.11 114 2.11 129 2.11 108 2.11
   9  0.000  0.300  0.503- 107 2.11 108 2.11 111 2.11 188 2.11 109 2.11
  10  0.100  0.200  0.503- 108 2.11 107 2.11 104 2.11 127 2.11 110 2.11
  11  0.000  0.400  0.407- 109 2.11 113 2.11 114 2.11 194 2.11 111 2.11
  12  0.100  0.500  0.407- 113 2.11 114 2.11 118 2.11 133 2.11 112 2.11
  13  0.000  0.500  0.503- 111 2.11 112 2.11 115 2.11 192 2.11 113 2.11
  14  0.100  0.400  0.503- 108 2.11 111 2.11 112 2.11 131 2.11 114 2.11
  15  0.000  0.600  0.407- 113 2.11 117 2.11 118 2.11 198 2.11 115 2.11
  16  0.100  0.700  0.407- 122 2.11 118 2.11 117 2.11 137 2.11 116 2.11
  17  0.000  0.700  0.503- 119 2.11 116 2.11 115 2.11 196 2.11 117 2.11
  18  0.100  0.600  0.503- 112 2.11 115 2.11 116 2.11 135 2.11 118 2.11
  19  0.000  0.800  0.407- 117 2.11 121 2.11 122 2.11 202 2.11 119 2.11
  20  0.100  0.900  0.407- 106 2.11 121 2.11 122 2.11 141 2.11 120 2.11
  21  0.000  0.900  0.503- 103 2.11 119 2.11 120 2.11 200 2.11 121 2.11
  22  0.100  0.800  0.503- 116 2.11 119 2.11 120 2.11 139 2.11 122 2.11
  23  0.200  0.000  0.407- 126 2.11 125 2.11 106 2.11 141 2.11 123 2.11
  24  0.300  0.100  0.407- 125 2.11 126 2.11 130 2.11 145 2.11 124 2.11
  25  0.200  0.100  0.503- 124 2.11 123 2.11 104 2.11 127 2.11 125 2.11
  26  0.300  0.000  0.503- 123 2.11 124 2.11 140 2.11 143 2.11 126 2.11
  27  0.200  0.200  0.407- 129 2.11 130 2.11 110 2.11 125 2.11 127 2.11
  28  0.300  0.300  0.407- 129 2.11 130 2.11 134 2.11 149 2.11 128 2.11
  29  0.200  0.300  0.503- 127 2.11 128 2.11 108 2.11 131 2.11 129 2.11
  30  0.300  0.200  0.503- 127 2.11 128 2.11 124 2.11 147 2.11 130 2.11
  31  0.200  0.400  0.407- 134 2.11 129 2.11 133 2.11 114 2.11 131 2.11
  32  0.300  0.500  0.407- 133 2.11 134 2.11 138 2.11 153 2.11 132 2.11
  33  0.200  0.500  0.503- 132 2.11 131 2.11 112 2.11 135 2.11 133 2.11
  34  0.300  0.400  0.503- 131 2.11 128 2.11 132 2.11 151 2.11 134 2.11
  35  0.200  0.600  0.407- 138 2.11 133 2.11 137 2.11 118 2.11 135 2.11
  36  0.300  0.700  0.407- 137 2.11 142 2.11 138 2.11 157 2.11 136 2.11
  37  0.200  0.700  0.503- 136 2.11 139 2.11 116 2.11 135 2.11 137 2.11
  38  0.300  0.600  0.503- 135 2.11 132 2.11 136 2.11 155 2.11 138 2.11
  39  0.200  0.800  0.407- 137 2.11 142 2.11 141 2.11 122 2.11 139 2.11
  40  0.300  0.900  0.407- 141 2.11 126 2.11 142 2.11 161 2.11 140 2.11
  41  0.200  0.900  0.503- 140 2.11 123 2.11 139 2.11 120 2.11 141 2.11
  42  0.300  0.800  0.503- 136 2.11 139 2.11 140 2.11 159 2.11 142 2.11
  43  0.400  0.000  0.407- 126 2.11 145 2.11 146 2.11 161 2.11 143 2.11
  44  0.500  0.100  0.407- 145 2.11 146 2.11 150 2.11 165 2.11 144 2.11
  45  0.400  0.100  0.503- 124 2.11 143 2.11 144 2.11 147 2.11 145 2.11
  46  0.500  0.000  0.503- 143 2.11 144 2.11 160 2.11 163 2.11 146 2.11
  47  0.400  0.200  0.407- 149 2.11 145 2.11 130 2.11 150 2.11 147 2.11
  48  0.500  0.300  0.407- 150 2.11 149 2.11 154 2.11 169 2.11 148 2.11
  49  0.400  0.300  0.503- 147 2.11 128 2.11 148 2.11 151 2.11 149 2.11
  50  0.500  0.200  0.503- 148 2.11 147 2.11 144 2.11 167 2.11 150 2.11
  51  0.400  0.400  0.407- 134 2.11 149 2.11 153 2.11 154 2.11 151 2.11
  52  0.500  0.500  0.407- 153 2.11 154 2.11 158 2.11 173 2.11 152 2.11
  53  0.400  0.500  0.503- 132 2.11 151 2.11 152 2.11 155 2.11 153 2.11
  54  0.500  0.400  0.503- 148 2.11 151 2.11 152 2.11 171 2.11 154 2.11
  55  0.400  0.600  0.407- 138 2.11 153 2.11 157 2.11 158 2.11 155 2.11
  56  0.500  0.700  0.407- 162 2.11 158 2.11 157 2.11 177 2.11 156 2.11
  57  0.400  0.700  0.503- 159 2.11 155 2.11 156 2.11 136 2.11 157 2.11
  58  0.500  0.600  0.503- 152 2.11 155 2.11 156 2.11 175 2.11 158 2.11
  59  0.400  0.800  0.407- 157 2.11 142 2.11 161 2.11 162 2.11 159 2.11
  60  0.500  0.900  0.407- 146 2.11 161 2.11 162 2.11 181 2.11 160 2.11
[...]
 188  0.900  0.300  0.503-  90 2.11  89 2.11   9 2.11  94 2.11  88 2.11
 189  0.800  0.300  0.407-  68 2.11  87 2.11  88 2.11  91 2.11  89 2.11
 190  0.900  0.200  0.407-  88 2.11  84 2.11  87 2.11   7 2.11  90 2.11
 191  0.800  0.400  0.503-  74 2.11  89 2.11  93 2.11  94 2.11  91 2.11
 192  0.900  0.500  0.503-  13 2.11  93 2.11  94 2.11  98 2.11  92 2.11
 193  0.800  0.500  0.407-  72 2.11  91 2.11  92 2.11  95 2.11  93 2.11
 194  0.900  0.400  0.407-  11 2.11  88 2.11  91 2.11  92 2.11  94 2.11
 195  0.800  0.600  0.503-  78 2.11  93 2.11  97 2.11  98 2.11  95 2.11
 196  0.900  0.700  0.503- 102 2.11  97 2.11  98 2.11  17 2.11  96 2.11
 197  0.800  0.700  0.407-  76 2.11  99 2.11  96 2.11  95 2.11  97 2.11
 198  0.900  0.600  0.407-  15 2.11  92 2.11  95 2.11  96 2.11  98 2.11
 199  0.800  0.800  0.503-  82 2.11  97 2.11 101 2.11 102 2.11  99 2.11
 200  0.900  0.900  0.503-  21 2.11  86 2.11 101 2.11 102 2.11 100 2.11
 201  0.800  0.900  0.407-  80 2.11  83 2.11  99 2.11 100 2.11 101 2.11
 202  0.900  0.800  0.407-  96 2.11  19 2.11  99 2.11 100 2.11 102 2.11

  LATTYP: Found a simple tetragonal cell.
 ALAT       =    21.1388521970
 C/A-ratio  =     1.0461251639

  Lattice vectors:

 A1 = (  21.1388521970,   0.0000000000,   0.0000000000)
 A2 = (   0.0000000000,  21.1388521970,   0.0000000000)
 A3 = (   0.0000000000,   0.0000000000,  22.1138852197)

Analysis of symmetry for initial positions (statically):
 Subroutine PRICEL returns:
 Original cell was already a primitive cell.

 Routine SETGRP: Setting up the symmetry group for a
 simple tetragonal supercell.

 Subroutine GETGRP returns: Found  4 space group operations
 (whereof  4 operations were pure point group operations)
 out of a pool of 16 trial point group operations.

The static configuration has the point symmetry C_2v.

Analysis of symmetry for dynamics (positions and initial velocities):
 Subroutine PRICEL returns:
 Original cell was already a primitive cell.

 Routine SETGRP: Setting up the symmetry group for a
 simple tetragonal supercell.

 Subroutine GETGRP returns: Found  4 space group operations
 (whereof  4 operations were pure point group operations)
 out of a pool of 16 trial point group operations.

The dynamic configuration has the point symmetry C_2v.

 Subroutine INISYM returns: Found  4 space group operations
 (whereof  4 operations are pure point group operations),
 and found     1 'primitive' translations

                                     Primitive cell

  volume of cell :    9881.6133

  direct lattice vectors                    reciprocal lattice vectors
    21.138852197  0.000000000  0.000000000     0.047306258  0.000000000  0.000000000
     0.000000000 21.138852197  0.000000000     0.000000000  0.047306258  0.000000000
     0.000000000  0.000000000 22.113885220     0.000000000  0.000000000  0.045220457

  length of vectors
[...]
     54     -42.9976      2.00000
     55     -42.9974      2.00000
     56     -42.9969      2.00000
     57     -42.9967      2.00000
     58     -42.9963      2.00000
     59     -42.9961      2.00000
     60     -42.9960      2.00000
[...]
   1010       7.0645      0.00000
   1011       7.0886      0.00000
   1012       7.1357      0.00000
   1013       7.2132      0.00000
   1014       7.2400      0.00000
   1015       7.2512      0.00000
   1016       7.2613      0.00000
   1017       7.4482      0.00000
   1018       7.5014      0.00000
   1019       7.5941      0.00000
   1020       7.7535      0.00000
   1021       7.7896      0.00000
   1022       7.8338      0.00000
   1023       7.8763      0.00000
   1024       7.9300      0.00000

 soft charge-density along one line, spin component           1
         0         1         2         3         4         5         6         7         8         9
 total charge-density along one line

------------------------ aborting loop because EDIFF is reached ----------------------------------------

  FORCE on cell =-STRESS in cart. coord.  units (eV):
  Direction    XX          YY          ZZ          XY          YZ          ZX
  Alpha Z  1354.41543  1354.41543  1354.41543
  Ewald  480118.83707480118.83707************  -374.58146     0.00000     0.00000
  Hartree508891.62265508891.62265************  -285.85285    -0.00000    -0.00000
  E(xc)   -7777.47286 -7777.47286 -7809.16452    -0.25670    -0.00000    -0.00000
  Local  ************************************   654.64953    -0.00000    -0.00000
  n-local -8810.90393 -8810.90393 -8930.06470     1.87789    -0.00000     0.00000
  augment  3468.15265  3468.15265  3414.23466     2.17243    -0.00001    -0.00000
  Kinetic 22858.15394 22858.15396 23116.44376     2.56797    -0.00001    -0.00001
  Fock        0.00000     0.00000     0.00000     0.00000     0.00000     0.00000
  vdW       -23.19384   -23.19384    -8.14702    -0.00488    -0.00000    -0.00000
  Total    -173.06034  -173.06034    10.06166     0.57193     0.00000     0.00000
  in kB     -28.05952   -28.05952     1.63137     0.09273     0.00000     0.00000

 VOLUME and BASIS-vectors are now :
  energy-cutoff  :      520.00
  volume of cell :     9881.61
      direct lattice vectors                 reciprocal lattice vectors
    21.138852197  0.000000000  0.000000000     0.047306258  0.000000000  0.000000000
     0.000000000 21.138852197  0.000000000     0.000000000  0.047306258  0.000000000
     0.000000000  0.000000000 22.113885220     0.000000000  0.000000000  0.045220457

  length of vectors
    21.138852197 21.138852197 22.113885220     0.047306258  0.047306258  0.045220457

 FORCES acting on ions:
    Electron-Ion                     Ewald-Force                    Non-Local-Force
   -.251E+03 0.251E+03 -.210E+04   0.243E+03 -.243E+03 0.210E+04   0.800E+01 -.800E+01 -.103E+01
   0.251E+03 -.251E+03 -.210E+04   -.243E+03 0.243E+03 0.210E+04   -.800E+01 0.800E+01 -.103E+01
   -.490E-10 0.112E-08 0.931E+03   0.758E-10 -.173E-08 -.923E+03   0.000E+00 0.000E+00 -.741E+01
   0.392E+01 0.392E+01 0.932E+03   -.391E+01 -.391E+01 -.924E+03   -.384E-02 -.384E-02 -.741E+01
   -.213E+00 0.423E+01 -.923E+03   0.225E+00 -.424E+01 0.915E+03   -.986E-02 0.218E-02 0.738E+01
   0.423E+01 -.213E+00 -.923E+03   -.424E+01 0.225E+00 0.915E+03   0.218E-02 -.986E-02 0.738E+01
   -.283E+00 0.590E+01 0.932E+03   0.305E+00 -.591E+01 -.925E+03   -.168E-01 0.484E-02 -.741E+01
   0.791E+01 0.757E+01 0.935E+03   -.789E+01 -.758E+01 -.927E+03   -.102E-01 0.841E-02 -.742E+01
   -.536E+00 0.772E+01 -.921E+03   0.565E+00 -.773E+01 0.913E+03   -.229E-01 0.315E-02 0.738E+01
   0.705E+01 0.862E+01 -.921E+03   -.703E+01 -.862E+01 0.914E+03   -.142E-01 -.924E-03 0.738E+01
   -.252E+00 0.403E+01 0.935E+03   0.271E+00 -.403E+01 -.928E+03   -.152E-01 0.281E-02 -.741E+01
   0.120E+02 0.326E+00 0.938E+03   -.120E+02 -.343E+00 -.931E+03   0.238E-01 0.135E-01 -.742E+01
   0.150E-09 -.168E-08 -.919E+03   -.231E-09 0.260E-08 0.911E+03   0.000E+00 0.000E+00 0.738E+01
   0.151E+02 0.701E+01 -.918E+03   -.151E+02 -.703E+01 0.910E+03   -.109E-01 0.130E-01 0.738E+01
   0.252E+00 -.403E+01 0.935E+03   -.271E+00 0.403E+01 -.928E+03   0.152E-01 -.281E-02 -.741E+01
   0.872E+01 -.759E+01 0.936E+03   -.877E+01 0.760E+01 -.928E+03   0.412E-01 -.559E-02 -.741E+01
   0.536E+00 -.772E+01 -.921E+03   -.565E+00 0.773E+01 0.913E+03   0.229E-01 -.315E-02 0.738E+01
   0.163E+02 -.637E+01 -.917E+03   -.164E+02 0.636E+01 0.910E+03   0.399E-01 0.832E-02 0.738E+01
   0.283E+00 -.590E+01 0.932E+03   -.305E+00 0.591E+01 -.925E+03   0.168E-01 -.484E-02 -.741E+01
   0.422E+01 -.422E+01 0.932E+03   -.423E+01 0.423E+01 -.924E+03   0.125E-01 -.125E-01 -.741E+01
   0.213E+00 -.423E+01 -.923E+03   -.225E+00 0.424E+01 0.915E+03   0.986E-02 -.218E-02 0.738E+01
   0.801E+01 -.906E+01 -.921E+03   -.805E+01 0.907E+01 0.913E+03   0.294E-01 -.105E-01 0.738E+01
   0.590E+01 -.283E+00 0.932E+03   -.591E+01 0.305E+00 -.925E+03   0.484E-02 -.168E-01 -.741E+01
   0.757E+01 0.791E+01 0.935E+03   -.758E+01 -.789E+01 -.927E+03   0.841E-02 -.102E-01 -.742E+01
   0.862E+01 0.705E+01 -.921E+03   -.862E+01 -.703E+01 0.914E+03   -.924E-03 -.142E-01 0.738E+01
   0.772E+01 -.536E+00 -.921E+03   -.773E+01 0.565E+00 0.913E+03   0.315E-02 -.229E-01 0.738E+01
   0.101E+02 0.101E+02 0.936E+03   -.101E+02 -.101E+02 -.928E+03   -.551E-03 -.551E-03 -.742E+01
   0.200E+02 0.200E+02 0.949E+03   -.200E+02 -.200E+02 -.941E+03   0.222E-01 0.222E-01 -.745E+01
   0.226E+02 0.171E+02 -.915E+03   -.225E+02 -.171E+02 0.907E+03   -.268E-01 0.850E-02 0.737E+01
   0.171E+02 0.226E+02 -.915E+03   -.171E+02 -.225E+02 0.907E+03   0.850E-02 -.268E-01 0.737E+01
   0.215E+02 0.899E+01 0.945E+03   -.216E+02 -.903E+01 -.937E+03   0.936E-02 0.356E-01 -.743E+01
   0.367E+02 0.180E+01 0.970E+03   -.368E+02 -.193E+01 -.962E+03   0.945E-01 0.999E-01 -.744E+01
   0.419E+02 0.188E+01 -.906E+03   -.419E+02 -.194E+01 0.899E+03   0.307E-01 0.436E-01 0.737E+01
   0.596E+02 0.332E+02 -.888E+03   -.595E+02 -.333E+02 0.880E+03   -.847E-01 0.749E-01 0.733E+01
   0.226E+02 -.809E+01 0.946E+03   -.228E+02 0.807E+01 -.939E+03   0.114E+00 0.135E-01 -.743E+01
   0.209E+02 -.209E+02 0.952E+03   -.210E+02 0.210E+02 -.944E+03   0.712E-01 -.712E-01 -.738E+01
   0.251E+02 -.180E+02 -.914E+03   -.252E+02 0.180E+02 0.906E+03   0.951E-01 -.827E-02 0.738E+01
   0.681E+02 -.314E+02 -.879E+03   -.687E+02 0.313E+02 0.872E+03   0.467E+00 0.728E-01 0.740E+01
   0.107E+02 -.107E+02 0.936E+03   -.107E+02 0.107E+02 -.929E+03   0.317E-01 -.317E-01 -.741E+01
   0.759E+01 -.872E+01 0.936E+03   -.760E+01 0.877E+01 -.928E+03   0.559E-02 -.412E-01 -.741E+01
   0.906E+01 -.801E+01 -.921E+03   -.907E+01 0.805E+01 0.913E+03   0.105E-01 -.294E-01 0.738E+01
   0.180E+02 -.251E+02 -.914E+03   -.180E+02 0.252E+02 0.906E+03   0.827E-02 -.951E-01 0.738E+01
   0.403E+01 -.252E+00 0.935E+03   -.403E+01 0.271E+00 -.928E+03   0.281E-02 -.152E-01 -.741E+01
   0.326E+00 0.120E+02 0.938E+03   -.343E+00 -.120E+02 -.931E+03   0.135E-01 0.238E-01 -.742E+01
   0.701E+01 0.151E+02 -.918E+03   -.703E+01 -.151E+02 0.910E+03   0.130E-01 -.109E-01 0.738E+01
   0.149E-09 0.508E-08 -.919E+03   -.231E-09 -.785E-08 0.911E+03   0.000E+00 0.000E+00 0.738E+01
   0.899E+01 0.215E+02 0.945E+03   -.903E+01 -.216E+02 -.937E+03   0.356E-01 0.936E-02 -.743E+01
   0.180E+01 0.367E+02 0.970E+03   -.193E+01 -.368E+02 -.962E+03   0.999E-01 0.945E-01 -.744E+01
   0.332E+02 0.596E+02 -.888E+03   -.333E+02 -.595E+02 0.880E+03   0.749E-01 -.847E-01 0.733E+01
   0.188E+01 0.419E+02 -.906E+03   -.194E+01 -.419E+02 0.899E+03   0.436E-01 0.307E-01 0.737E+01
   0.276E+02 0.276E+02 0.987E+03   -.278E+02 -.278E+02 -.980E+03   0.120E+00 0.120E+00 -.758E+01
   -.121E-08 -.130E-07 0.103E+04   0.187E-08 0.201E-07 -.102E+04   0.000E+00 0.000E+00 -.717E+01
   0.121E+03 0.210E+02 -.752E+03   -.121E+03 -.218E+02 0.746E+03   0.265E+00 0.524E+00 0.638E+01
   0.210E+02 0.121E+03 -.752E+03   -.218E+02 -.121E+03 0.746E+03   0.524E+00 0.265E+00 0.638E+01
   0.267E+02 -.267E+02 0.992E+03   -.267E+02 0.267E+02 -.985E+03   -.132E-01 0.132E-01 -.681E+01
   -.180E+01 -.367E+02 0.970E+03   0.193E+01 0.368E+02 -.962E+03   -.999E-01 -.945E-01 -.744E+01
   0.314E+02 -.681E+02 -.879E+03   -.313E+02 0.687E+02 0.872E+03   -.728E-01 -.467E+00 0.740E+01
   -.210E+02 -.121E+03 -.752E+03   0.218E+02 0.121E+03 0.746E+03   -.524E+00 -.265E+00 0.638E+01
   0.809E+01 -.226E+02 0.946E+03   -.807E+01 0.228E+02 -.939E+03   -.135E-01 -.114E+00 -.743E+01
   -.326E+00 -.120E+02 0.938E+03   0.343E+00 0.120E+02 -.931E+03   -.135E-01 -.238E-01 -.742E+01
[...]
   -.124E+02 0.913E+01 0.708E+03   0.124E+02 -.915E+01 -.712E+03   -.697E-01 0.312E-01 0.354E+01
   -.455E+01 0.534E+01 0.702E+03   0.457E+01 -.535E+01 -.706E+03   -.264E-01 0.162E-01 0.353E+01
   -.281E+02 0.936E+01 -.683E+03   0.281E+02 -.934E+01 0.687E+03   -.767E-01 -.333E-01 -.359E+01
   -.132E+02 -.422E+00 -.689E+03   0.132E+02 0.437E+00 0.693E+03   -.145E-01 -.207E-01 -.359E+01
   -.187E+02 -.643E+00 0.713E+03   0.188E+02 0.683E+00 -.717E+03   -.449E-01 -.557E-01 0.352E+01
   -.841E+01 0.362E+01 0.705E+03   0.844E+01 -.361E+01 -.709E+03   -.342E-01 -.642E-02 0.353E+01
   -.257E+02 -.105E+02 -.684E+03   0.257E+02 0.106E+02 0.688E+03   0.248E-02 -.389E-01 -.361E+01
   -.810E+01 -.734E+01 -.691E+03   0.809E+01 0.735E+01 0.695E+03   0.123E-01 -.583E-02 -.358E+01
   -.116E+02 -.896E+01 0.707E+03   0.116E+02 0.897E+01 -.711E+03   0.392E-02 -.113E-01 0.352E+01
   -.791E+01 -.392E+01 0.705E+03   0.791E+01 0.393E+01 -.709E+03   -.125E-02 -.172E-01 0.353E+01
   -.102E+02 -.102E+02 -.691E+03   0.101E+02 0.101E+02 0.695E+03   0.110E-01 0.110E-01 -.359E+01
   -.361E+01 -.361E+01 -.693E+03   0.361E+01 0.361E+01 0.698E+03   0.553E-02 0.553E-02 -.357E+01
   -.515E+01 -.408E+01 0.701E+03   0.515E+01 0.408E+01 -.706E+03   -.121E-02 0.855E-02 0.353E+01
   -.408E+01 -.515E+01 0.701E+03   0.408E+01 0.515E+01 -.706E+03   0.855E-02 -.121E-02 0.353E+01
   0.150E-06 0.657E-06 0.112E+02   0.412E-12 0.838E-12 0.671E-11   -.324E-14 -.324E-14 -.118E+02

 POSITION                                       TOTAL-FORCE (eV/Angst)
     11.36317      9.77568     13.65917         0.032232     -0.032232     -0.036061
      9.77568     11.36317     13.65917        -0.032232      0.032232     -0.036061
      0.00000      0.00000      9.00000         0.000000     -0.000000      0.356011
      2.11389      2.11389      9.00000         0.001065      0.001065      0.356438
      0.00000      2.11389     11.11389         0.002650     -0.000599     -0.348989
      2.11389      0.00000     11.11389        -0.000599      0.002650     -0.348989
      0.00000      4.22777      9.00000         0.004465     -0.001344      0.356258
      2.11389      6.34166      9.00000         0.002678     -0.002213      0.357228
      0.00000      6.34166     11.11389         0.006080     -0.000857     -0.348011
      2.11389      4.22777     11.11389         0.003908      0.000395     -0.347927
      0.00000      8.45554      9.00000         0.003928     -0.000779      0.356744
      2.11389     10.56943      9.00000        -0.006336     -0.003979      0.357450
      0.00000     10.56943     11.11389         0.000000     -0.000000     -0.347257
      2.11389      8.45554     11.11389         0.003242     -0.003582     -0.345881
      0.00000     12.68331      9.00000        -0.003928      0.000779      0.356744
      2.11389     14.79720      9.00000        -0.010838      0.001704      0.356299
      0.00000     14.79720     11.11389        -0.006080      0.000857     -0.348011
      2.11389     12.68331     11.11389        -0.010011     -0.002468     -0.346929
      0.00000     16.91108      9.00000        -0.004465      0.001344      0.356258
      2.11389     19.02497      9.00000        -0.003463      0.003463      0.355775
      0.00000     19.02497     11.11389        -0.002650      0.000599     -0.348989
      2.11389     16.91108     11.11389        -0.007808      0.003004     -0.348585
      4.22777      0.00000      9.00000        -0.001344      0.004465      0.356258
      6.34166      2.11389      9.00000        -0.002213      0.002678      0.357228
      4.22777      2.11389     11.11389         0.000395      0.003908     -0.347927
      6.34166      0.00000     11.11389        -0.000857      0.006080     -0.348011
      4.22777      4.22777      9.00000         0.000394      0.000394      0.358213
      6.34166      6.34166      9.00000        -0.004803     -0.004803      0.366313
      4.22777      6.34166     11.11389         0.007927     -0.001501     -0.342902
      6.34166      4.22777     11.11389        -0.001501      0.007927     -0.342902
      4.22777      8.45554      9.00000        -0.003172     -0.009924      0.359812
      6.34166     10.56943      9.00000        -0.026390     -0.032258      0.359213
      4.22777     10.56943     11.11389        -0.007560     -0.013189     -0.339192
      6.34166      8.45554     11.11389         0.035040     -0.012127     -0.307440
      4.22777     12.68331      9.00000        -0.028559     -0.004028      0.359165
      6.34166     14.79720      9.00000        -0.023811      0.023811      0.343966
      4.22777     14.79720     11.11389        -0.024986      0.002927     -0.347432
      6.34166     12.68331     11.11389        -0.137359     -0.028760     -0.338472
      4.22777     16.91108      9.00000        -0.009087      0.009087      0.354384
      6.34166     19.02497      9.00000        -0.001704      0.010838      0.356299
      4.22777     19.02497     11.11389        -0.003004      0.007808     -0.348585
      6.34166     16.91108     11.11389        -0.002927      0.024986     -0.347432
      8.45554      0.00000      9.00000        -0.000779      0.003928      0.356744
     10.56943      2.11389      9.00000        -0.003979     -0.006336      0.357450
      8.45554      2.11389     11.11389        -0.003582      0.003242     -0.345881
     10.56943      0.00000     11.11389         0.000000     -0.000000     -0.347257
      8.45554      4.22777      9.00000        -0.009924     -0.003172      0.359812
     10.56943      6.34166      9.00000        -0.032258     -0.026390      0.359213
      8.45554      6.34166     11.11389        -0.012127      0.035040     -0.307440
     10.56943      4.22777     11.11389        -0.013189     -0.007560     -0.339192
      8.45554      8.45554      9.00000        -0.031200     -0.031200      0.392984
     10.56943     10.56943      9.00000         0.000000     -0.000000      0.239097
      8.45554     10.56943     11.11389        -0.144950     -0.248577     -0.248419
     10.56943      8.45554     11.11389        -0.248577     -0.144950     -0.248419
      8.45554     12.68331      9.00000         0.006624     -0.006624      0.213921
     10.56943     14.79720      9.00000         0.032258      0.026390      0.359213
      8.45554     14.79720     11.11389         0.028760      0.137359     -0.338472
     10.56943     12.68331     11.11389         0.248577      0.144950     -0.248419
      8.45554     16.91108      9.00000         0.004028      0.028559      0.359165
     10.56943     19.02497      9.00000         0.003979      0.006336      0.357450
[...]
     19.02497      6.34166     11.11389        -0.009780      0.001826      0.485080
     16.91108      6.34166      9.00000        -0.019576      0.008763     -0.491724
     19.02497      4.22777      9.00000        -0.007334      0.004512     -0.493463
     16.91108      8.45554     11.11389        -0.022685     -0.008822      0.482168
     19.02497     10.56943     11.11389        -0.004251     -0.005728      0.482913
     16.91108     10.56943      9.00000        -0.013665     -0.015147     -0.497025
     19.02497      8.45554      9.00000        -0.009647     -0.001690     -0.494104
     16.91108     12.68331     11.11389        -0.000203     -0.011168      0.476501
     19.02497     14.79720     11.11389         0.003321     -0.001649      0.484010
     16.91108     14.79720      9.00000         0.000819     -0.003334     -0.497575
     19.02497     12.68331      9.00000        -0.000463     -0.004815     -0.495515
     16.91108     16.91108     11.11389         0.002919      0.002919      0.483126
     19.02497     19.02497     11.11389         0.001495      0.001495      0.485996
     16.91108     19.02497      9.00000        -0.000380      0.002318     -0.494614
     19.02497     16.91108      9.00000         0.002318     -0.000380     -0.494614
    total drift:                                0.000000      0.000001     -0.598851

  FREE ENERGIE OF THE ION-ELECTRON SYSTEM (eV)
  free  energy   TOTEN  =     -1160.56273848 eV

  energy  without entropy=    -1160.56273848  energy(sigma->0) =    -1160.56273848