 vasp.6.3.0 20Jan22 (build Apr  1 2022 16:44:48) complex
 executed on        HPECrayEX_GCC date 2023.01.09  09:30:08

 INCAR:
   SYSTEM = MgO-rocksalt
   ISMEAR = 0
   SIGMA = 0.05
   EDIFF = 1E-6
   ALGO = ALL
   ISTART = 0
   IBRION = -1
   NSW = 0
   ISYM = 2
   DIPOL = 0.5 0.5 0.5
   IDIPOL = 3
   LDIPOL = .TRUE.
   GGA = PE
   IVDW = 1
   ENCUT = 520
   PREC = Accurate
   LASPH = .TRUE.
   LREAL = Auto
   ISPIN = 1
   NELM = 200
   NELMIN = 8
   NCORE = 4
   KPAR = 2
   LWAVE = .FALSE.
   LCHARG = .FALSE.

 POTCAR:    PAW_PBE Cu 22Jun2005
 POTCAR:    PAW_PBE Mg_pv 13Apr2007
 POTCAR:    PAW_PBE O 08Apr2002
 POTCAR:    PAW_PBE Cu 22Jun2005
   VRHFIN =Cu: d10 p1

   TITEL  = PAW_PBE Cu 22Jun2005
   POMASS =   63.546; ZVAL   =   11.000    mass and valenz
   ENMAX  =  295.446; ENMIN  =  221.585 eV

   TITEL  = PAW_PBE Mg_pv 13Apr2007
   POMASS =   24.305; ZVAL   =    8.000    mass and valenz
   ENMAX  =  403.929; ENMIN  =  302.947 eV

   TITEL  = PAW_PBE O 08Apr2002
   POMASS =   16.000; ZVAL   =    6.000    mass and valenz
   ENMAX  =  400.000; ENMIN  =  300.000 eV

 Optimization of the real space projectors (new method)

 maximal supplied QI-value         = 16.25
 optimisation between [QCUT,QGAM] = [ 11.54, 23.24] = [ 37.28,151.24] Ry
 Optimized for a Real-space Cutoff    1.53 Angstroem

   l    n(q)    QCUT    max X(q) W(low)/X(q) W(high)/X(q)  e(spline)
   2     10    11.539     4.610    0.96E-04    0.13E-03    0.19E-06
   2     10    11.539     8.522    0.16E-03    0.21E-03    0.28E-06
   0     11    11.539    51.609    0.45E-04    0.31E-04    0.11E-06
   0     11    11.539    27.747    0.39E-04    0.29E-04    0.10E-06
   1     10    11.539    20.408    0.70E-05    0.38E-04    0.18E-06
   1     10    11.539    13.425    0.66E-05    0.34E-04    0.17E-06
 Optimization of the real space projectors (new method)

[...]

   l    n(q)    QCUT    max X(q) W(low)/X(q) W(high)/X(q)  e(spline)
   1      8    11.527     2.974    0.44E-04    0.56E-04    0.12E-06
   1      8    11.527     4.279    0.12E-03    0.12E-03    0.26E-06
   0      9    11.527    16.381    0.46E-04    0.64E-04    0.78E-07
   0      9    11.527     5.611    0.26E-04    0.43E-04    0.55E-07
   2      8    11.527     4.652    0.22E-03    0.72E-04    0.47E-07
 Optimization of the real space projectors (new method)

 maximal supplied QI-value         = 24.76
 optimisation between [QCUT,QGAM] = [ 11.64, 23.27] = [ 37.91,151.63] Ry
 Optimized for a Real-space Cutoff    1.14 Angstroem

   l    n(q)    QCUT    max X(q) W(low)/X(q) W(high)/X(q)  e(spline)
   0      8    11.635    20.381    0.10E-03    0.33E-03    0.24E-06
   0      8    11.635    15.268    0.11E-03    0.35E-03    0.26E-06
   1      7    11.635     5.964    0.24E-03    0.31E-03    0.30E-06
   1      7    11.635     5.382    0.22E-03    0.25E-03    0.26E-06
  PAW_PBE Cu 22Jun2005                  :
  PAW_PBE Mg_pv 13Apr2007               :
  PAW_PBE O 08Apr2002                   :

 POSCAR: Cu Mg  O
  positions in direct lattice
  velocities in cartesian coordinates
 exchange correlation table for  LEXCH =        8
   RHO(1)=    0.500       N(1)  =     2000
   RHO(2)=  100.500       N(2)  =     4000

 ion  position               nearest neighbor table
   1  0.400  0.558  0.598- 157 2.29   3 2.35  55 2.43   4 2.47
   2  0.400  0.499  0.790-   3 2.25
   3  0.400  0.499  0.688-   2 2.25   1 2.35   4 2.35
   4  0.400  0.441  0.597- 153 2.26   3 2.35  55 2.43   1 2.47
   5  0.000  0.000  0.407- 107 2.11 108 2.11 123 2.11 188 2.11 105 2.11
   6  0.100  0.100  0.407- 107 2.11 108 2.11 112 2.11 127 2.11 106 2.11
   7  0.000  0.100  0.503- 105 2.11 106 2.11 109 2.11 186 2.11 107 2.11
   8  0.100  0.000  0.503- 105 2.11 106 2.11 122 2.11 125 2.11 108 2.11
   9  0.000  0.200  0.407- 111 2.11 107 2.11 112 2.11 192 2.11 109 2.11
  10  0.100  0.300  0.407- 112 2.11 111 2.11 116 2.11 131 2.11 110 2.11
  11  0.000  0.300  0.503- 109 2.11 110 2.11 113 2.11 190 2.11 111 2.11
  12  0.100  0.200  0.503- 110 2.11 109 2.11 106 2.11 129 2.11 112 2.11
  13  0.000  0.400  0.407- 111 2.11 115 2.11 116 2.11 196 2.11 113 2.11
  14  0.100  0.500  0.407- 115 2.11 116 2.11 120 2.11 135 2.11 114 2.11
  15  0.000  0.500  0.503- 113 2.11 114 2.11 117 2.11 194 2.11 115 2.11
  16  0.100  0.400  0.503- 110 2.11 113 2.11 114 2.11 133 2.11 116 2.11
  17  0.000  0.600  0.407- 115 2.11 119 2.11 120 2.11 200 2.11 117 2.11
  18  0.100  0.700  0.407- 124 2.11 120 2.11 119 2.11 139 2.11 118 2.11
  19  0.000  0.700  0.503- 121 2.11 118 2.11 117 2.11 198 2.11 119 2.11
  20  0.100  0.600  0.503- 114 2.11 117 2.11 118 2.11 137 2.11 120 2.11
  21  0.000  0.800  0.407- 119 2.11 123 2.11 124 2.11 204 2.11 121 2.11
  22  0.100  0.900  0.407- 108 2.11 123 2.11 124 2.11 143 2.11 122 2.11
  23  0.000  0.900  0.503- 105 2.11 121 2.11 122 2.11 202 2.11 123 2.11
  24  0.100  0.800  0.503- 118 2.11 121 2.11 122 2.11 141 2.11 124 2.11
  25  0.200  0.000  0.407- 128 2.11 127 2.11 108 2.11 143 2.11 125 2.11
  26  0.300  0.100  0.407- 127 2.11 128 2.11 132 2.11 147 2.11 126 2.11
  27  0.200  0.100  0.503- 126 2.11 125 2.11 106 2.11 129 2.11 127 2.11
  28  0.300  0.000  0.503- 125 2.11 126 2.11 142 2.11 145 2.11 128 2.11
  29  0.200  0.200  0.407- 131 2.11 132 2.11 112 2.11 127 2.11 129 2.11
  30  0.300  0.300  0.407- 131 2.11 132 2.11 136 2.11 151 2.11 130 2.11
  31  0.200  0.300  0.503- 129 2.11 130 2.11 110 2.11 133 2.11 131 2.11
  32  0.300  0.200  0.503- 129 2.11 130 2.11 126 2.11 149 2.11 132 2.11
  33  0.200  0.400  0.407- 136 2.11 131 2.11 135 2.11 116 2.11 133 2.11
  34  0.300  0.500  0.407- 135 2.11 136 2.11 140 2.11 155 2.11 134 2.11
  35  0.200  0.500  0.503- 134 2.11 133 2.11 114 2.11 137 2.11 135 2.11
  36  0.300  0.400  0.503- 133 2.11 130 2.11 134 2.11 153 2.11 136 2.11
  37  0.200  0.600  0.407- 140 2.11 135 2.11 139 2.11 120 2.11 137 2.11
  38  0.300  0.700  0.407- 139 2.11 144 2.11 140 2.11 159 2.11 138 2.11
  39  0.200  0.700  0.503- 138 2.11 141 2.11 118 2.11 137 2.11 139 2.11
  40  0.300  0.600  0.503- 137 2.11 134 2.11 138 2.11 157 2.11 140 2.11
  41  0.200  0.800  0.407- 139 2.11 144 2.11 143 2.11 124 2.11 141 2.11
  42  0.300  0.900  0.407- 143 2.11 128 2.11 144 2.11 163 2.11 142 2.11
  43  0.200  0.900  0.503- 142 2.11 125 2.11 141 2.11 122 2.11 143 2.11
  44  0.300  0.800  0.503- 138 2.11 141 2.11 142 2.11 161 2.11 144 2.11
  45  0.400  0.000  0.407- 128 2.11 147 2.11 148 2.11 163 2.11 145 2.11
  46  0.500  0.100  0.407- 147 2.11 148 2.11 152 2.11 167 2.11 146 2.11
  47  0.400  0.100  0.503- 126 2.11 145 2.11 146 2.11 149 2.11 147 2.11
  48  0.500  0.000  0.503- 145 2.11 146 2.11 162 2.11 165 2.11 148 2.11
  49  0.400  0.200  0.407- 151 2.11 147 2.11 132 2.11 152 2.11 149 2.11
  50  0.500  0.300  0.407- 152 2.11 151 2.11 156 2.11 171 2.11 150 2.11
  51  0.400  0.300  0.503- 149 2.11 130 2.11 150 2.11 153 2.11 151 2.11
  52  0.500  0.200  0.503- 150 2.11 149 2.11 146 2.11 169 2.11 152 2.11
  53  0.400  0.400  0.407- 136 2.11 151 2.11 155 2.11 156 2.11 153 2.11
  54  0.500  0.500  0.407- 155 2.11 156 2.11 160 2.11 175 2.11 154 2.11
  55  0.400  0.500  0.503- 134 2.11 153 2.11 154 2.11 157 2.11 155 2.11   4 2.43   1 2.43
  56  0.500  0.400  0.503- 150 2.11 153 2.11 154 2.11 173 2.11 156 2.11
  57  0.400  0.600  0.407- 140 2.11 155 2.11 159 2.11 160 2.11 157 2.11
  58  0.500  0.700  0.407- 164 2.11 160 2.11 159 2.11 179 2.11 158 2.11
  59  0.400  0.700  0.503- 161 2.11 157 2.11 158 2.11 138 2.11 159 2.11
  60  0.500  0.600  0.503- 154 2.11 157 2.11 158 2.11 177 2.11 160 2.11
[...]
 190  0.900  0.300  0.503-  92 2.11  91 2.11  11 2.11  96 2.11  90 2.11
 191  0.800  0.300  0.407-  70 2.11  89 2.11  90 2.11  93 2.11  91 2.11
 192  0.900  0.200  0.407-  90 2.11  86 2.11  89 2.11   9 2.11  92 2.11
 193  0.800  0.400  0.503-  76 2.11  91 2.11  95 2.11  96 2.11  93 2.11
 194  0.900  0.500  0.503-  15 2.11  95 2.11  96 2.11 100 2.11  94 2.11
 195  0.800  0.500  0.407-  74 2.11  93 2.11  94 2.11  97 2.11  95 2.11
 196  0.900  0.400  0.407-  13 2.11  90 2.11  93 2.11  94 2.11  96 2.11
 197  0.800  0.600  0.503-  80 2.11  95 2.11  99 2.11 100 2.11  97 2.11
 198  0.900  0.700  0.503- 104 2.11  99 2.11 100 2.11  19 2.11  98 2.11
 199  0.800  0.700  0.407-  78 2.11 101 2.11  98 2.11  97 2.11  99 2.11
 200  0.900  0.600  0.407-  17 2.11  94 2.11  97 2.11  98 2.11 100 2.11
 201  0.800  0.800  0.503-  84 2.11  99 2.11 103 2.11 104 2.11 101 2.11
 202  0.900  0.900  0.503-  23 2.11  88 2.11 103 2.11 104 2.11 102 2.11
 203  0.800  0.900  0.407-  82 2.11  85 2.11 101 2.11 102 2.11 103 2.11
 204  0.900  0.800  0.407-  98 2.11  21 2.11 101 2.11 102 2.11 104 2.11

  LATTYP: Found a simple tetragonal cell.
 ALAT       =    21.1388521970
 C/A-ratio  =     1.0461251639

  Lattice vectors:

 A1 = (  21.1388521970,   0.0000000000,   0.0000000000)
 A2 = (   0.0000000000,  21.1388521970,   0.0000000000)
 A3 = (   0.0000000000,   0.0000000000,  22.1138852197)

Analysis of symmetry for initial positions (statically):
 Subroutine PRICEL returns:
 Original cell was already a primitive cell.

 Routine SETGRP: Setting up the symmetry group for a
 simple tetragonal supercell.

 Subroutine GETGRP returns: Found  1 space group operations
 (whereof  1 operations were pure point group operations)
 out of a pool of 16 trial point group operations.

The static configuration has the point symmetry C_1 .

Analysis of symmetry for dynamics (positions and initial velocities):
 Subroutine PRICEL returns:
 Original cell was already a primitive cell.

[...]

The dynamic configuration has the point symmetry C_1 .

Analysis of constrained symmetry for selective dynamics:
 Subroutine PRICEL returns:
 Original cell was already a primitive cell.

 Routine SETGRP: Setting up the symmetry group for a
 simple tetragonal supercell.

 Subroutine GETGRP returns: Found  1 space group operations
 (whereof  1 operations were pure point group operations)
 out of a pool of 16 trial point group operations.

The constrained configuration has the point symmetry C_1 .

 Subroutine INISYM returns: Found  1 space group operations
 (whereof  1 operations are pure point group operations),
 and found     1 'primitive' translations

                                     Primitive cell

  volume of cell :    9881.6133

  direct lattice vectors                    reciprocal lattice vectors
    21.138852197  0.000000000  0.000000000     0.047306258  0.000000000  0.000000000
     0.000000000 21.138852197  0.000000000     0.000000000  0.047306258  0.000000000
     0.000000000  0.000000000 22.113885220     0.000000000  0.000000000  0.045220457

  length of vectors
    21.138852197 21.138852197 22.113885220     0.047306258  0.047306258  0.045220457

  position of ions in fractional coordinates (direct lattice)
     0.399799103  0.557704010  0.597819508
     0.399656041  0.499161715  0.789905234
     0.399599063  0.498964654  0.687952686
     0.399792629  0.441052696  0.597113492
     0.000000000  0.000000000  0.406984115
     0.100000000  0.100000000  0.406984115
     0.000000000  0.100000000  0.502574971
     0.100000000  0.000000000  0.502574971
     0.000000000  0.200000000  0.406984115
     0.100000000  0.300000000  0.406984115
     0.000000000  0.300000000  0.502574971
[...]
    953       6.6263      0.00000
    954       6.6306      0.00000
    955       6.6987      0.00000
    956       6.7299      0.00000
    957       6.8000      0.00000
    958       6.8515      0.00000
    959       6.8766      0.00000
    960       6.9160      0.00000

 soft charge-density along one line, spin component           1
         0         1         2         3         4         5         6         7         8         9
 total charge-density along one line

------------------------ aborting loop because EDIFF is reached ----------------------------------------

  DFT-D2 method for vdW energy calculation

  Parameters of vdW forcefield:
         C6(Jnm^6/mol)     R0(A)
   Cu      10.800          1.562
   Mg       5.710          1.364
   O        0.700          1.342

  vdW correction parametrized for the method pbe

  IVDW =   1
  VDW_RADIUS =    50.000 A
  VDW_S6 =     0.750
  VDW_SR =     1.000
  VDW_D =    20.000
  LVDW_EWALD = F

  Number of pair interactions contributing to vdW energy: 1118598
  Edisp (eV):  -34.56212

  FORCE on cell =-STRESS in cart. coord.  units (eV):
  Direction    XX          YY          ZZ          XY          YZ          ZX
  Alpha Z  1394.80054  1394.80054  1394.80054
  Ewald  476789.57733478031.49515************     0.08233     1.75104    -2.53842
  Hartree506622.73752507591.47638************     0.06350     1.09538    -2.00107
  E(xc)   -7906.59665 -7905.89141 -7936.42792     0.00004     0.00298    -0.00179
  Local  ************************************    -0.14451    -2.84235     4.50716
  n-local -8853.68305 -8854.92304 -8973.58021     0.00011     0.00336    -0.00024
  augment  3663.82421  3656.68603  3594.76681    -0.00043    -0.00894     0.01458
  Kinetic 23046.44885 23038.68544 23286.83728    -0.00051    -0.01269     0.02983
  Fock        0.00000     0.00000     0.00000     0.00000     0.00000     0.00000
  vdW       -48.05541   -48.01537   -26.12607     0.00014     0.00405     0.00681
  Total    -196.10879  -197.46091    -7.32662     0.00068    -0.00717     0.01686
  in kB     -31.79653   -32.01576    -1.18792     0.00011    -0.00116     0.00273

 VOLUME and BASIS-vectors are now :
  energy-cutoff  :      520.00
  volume of cell :     9881.61
      direct lattice vectors                 reciprocal lattice vectors
    21.138852197  0.000000000  0.000000000     0.047306258  0.000000000  0.000000000
     0.000000000 21.138852197  0.000000000     0.000000000  0.047306258  0.000000000
     0.000000000  0.000000000 22.113885220     0.000000000  0.000000000  0.045220457

  length of vectors
    21.138852197 21.138852197 22.113885220     0.047306258  0.047306258  0.045220457

 FORCES acting on ions:
    Electron-Ion                     Ewald-Force                    Non-Local-Force
   -.594E+00 -.488E+03 -.187E+04   0.583E+00 0.479E+03 0.188E+04   0.135E-01 0.971E+01 -.502E+01
   -.808E-01 -.288E+00 -.155E+04   0.676E-01 0.246E+00 0.153E+04   0.123E-01 0.395E-01 0.114E+02
   0.132E+01 0.389E+01 -.186E+04   -.129E+01 -.384E+01 0.186E+04   -.205E-01 -.553E-01 0.687E+00
   -.533E+00 0.484E+03 -.187E+04   0.524E+00 -.475E+03 0.188E+04   0.124E-01 -.950E+01 -.503E+01
   0.647E+01 0.578E-01 0.935E+03   -.650E+01 -.582E-01 -.927E+03   0.239E-01 0.299E-03 -.745E+01
   0.127E+02 0.987E+01 0.939E+03   -.128E+02 -.990E+01 -.931E+03   0.529E-01 0.199E-01 -.745E+01
   0.929E+01 0.884E+01 -.918E+03   -.932E+01 -.884E+01 0.910E+03   0.273E-01 0.184E-02 0.735E+01
   0.135E+02 0.103E+00 -.917E+03   -.135E+02 -.103E+00 0.909E+03   0.375E-01 0.491E-03 0.735E+01
   0.102E+02 0.119E+02 0.938E+03   -.102E+02 -.120E+02 -.931E+03   0.423E-01 0.830E-02 -.745E+01
   0.270E+02 0.195E+02 0.950E+03   -.272E+02 -.195E+02 -.943E+03   0.138E+00 0.234E-01 -.747E+01
   0.197E+02 0.165E+02 -.912E+03   -.198E+02 -.165E+02 0.904E+03   0.443E-01 -.194E-02 0.734E+01
   0.251E+02 0.238E+02 -.911E+03   -.252E+02 -.238E+02 0.903E+03   0.881E-01 0.120E-01 0.734E+01
   0.180E+02 0.821E+01 0.945E+03   -.181E+02 -.821E+01 -.937E+03   0.655E-01 0.274E-02 -.746E+01
   0.401E+02 -.121E+00 0.961E+03   -.403E+02 0.122E+00 -.953E+03   0.169E+00 -.703E-03 -.749E+01
   0.287E+02 -.946E-01 -.907E+03   -.288E+02 0.949E-01 0.900E+03   0.423E-01 -.252E-03 0.733E+01
   0.573E+02 0.201E+02 -.895E+03   -.575E+02 -.201E+02 0.887E+03   0.121E+00 -.406E-02 0.732E+01
   0.180E+02 -.832E+01 0.945E+03   -.181E+02 0.832E+01 -.937E+03   0.650E-01 -.325E-02 -.746E+01
   0.269E+02 -.195E+02 0.950E+03   -.271E+02 0.196E+02 -.942E+03   0.136E+00 -.236E-01 -.747E+01
   0.196E+02 -.165E+02 -.912E+03   -.197E+02 0.165E+02 0.904E+03   0.437E-01 0.178E-02 0.734E+01
   0.571E+02 -.203E+02 -.895E+03   -.573E+02 0.203E+02 0.887E+03   0.120E+00 0.327E-02 0.732E+01
   0.101E+02 -.119E+02 0.938E+03   -.102E+02 0.119E+02 -.931E+03   0.417E-01 -.809E-02 -.745E+01
   0.127E+02 -.973E+01 0.939E+03   -.128E+02 0.975E+01 -.931E+03   0.523E-01 -.190E-01 -.745E+01
   0.925E+01 -.871E+01 -.918E+03   -.928E+01 0.871E+01 0.910E+03   0.270E-01 -.143E-02 0.735E+01
   0.249E+02 -.237E+02 -.911E+03   -.250E+02 0.237E+02 0.903E+03   0.866E-01 -.117E-01 0.734E+01
   0.115E+02 0.112E+00 0.940E+03   -.116E+02 -.114E+00 -.932E+03   0.442E-01 0.934E-03 -.745E+01
   0.920E+01 0.186E+02 0.946E+03   -.925E+01 -.187E+02 -.939E+03   0.411E-01 0.100E+00 -.746E+01
   0.182E+02 0.199E+02 -.911E+03   -.183E+02 -.200E+02 0.904E+03   0.544E-01 0.511E-01 0.734E+01
   0.947E+01 0.203E+00 -.912E+03   -.950E+01 -.204E+00 0.904E+03   0.264E-01 0.119E-02 0.734E+01
   0.213E+02 0.265E+02 0.951E+03   -.215E+02 -.266E+02 -.943E+03   0.121E+00 0.877E-01 -.745E+01
   0.281E+02 0.498E+02 0.988E+03   -.284E+02 -.501E+02 -.981E+03   0.257E+00 0.250E+00 -.737E+01
   0.592E+02 0.544E+02 -.883E+03   -.596E+02 -.545E+02 0.876E+03   0.319E+00 0.168E-01 0.732E+01
   0.244E+02 0.605E+02 -.892E+03   -.245E+02 -.609E+02 0.884E+03   0.834E-01 0.275E+00 0.734E+01
   0.508E+02 0.239E+02 0.985E+03   -.512E+02 -.239E+02 -.977E+03   0.386E+00 0.399E-01 -.755E+01
   0.559E+02 -.445E+00 0.105E+04   -.565E+02 0.454E+00 -.104E+04   0.396E+00 -.644E-02 -.753E+01
   0.121E+03 -.448E+00 -.843E+03   -.122E+03 0.449E+00 0.836E+03   0.264E+00 -.102E-02 0.726E+01
   0.142E+03 0.108E+03 -.750E+03   -.144E+03 -.108E+03 0.743E+03   0.162E+01 -.392E-01 0.704E+01
   0.505E+02 -.241E+02 0.984E+03   -.510E+02 0.242E+02 -.976E+03   0.379E+00 -.425E-01 -.755E+01
   0.278E+02 -.497E+02 0.988E+03   -.281E+02 0.500E+02 -.980E+03   0.252E+00 -.247E+00 -.738E+01
   0.586E+02 -.543E+02 -.884E+03   -.590E+02 0.543E+02 0.876E+03   0.312E+00 -.178E-01 0.732E+01
   0.140E+03 -.109E+03 -.752E+03   -.142E+03 0.109E+03 0.745E+03   0.157E+01 0.308E-01 0.705E+01
   0.212E+02 -.263E+02 0.951E+03   -.213E+02 0.264E+02 -.943E+03   0.118E+00 -.860E-01 -.745E+01
   0.914E+01 -.183E+02 0.946E+03   -.919E+01 0.184E+02 -.939E+03   0.406E-01 -.970E-01 -.746E+01
   0.181E+02 -.196E+02 -.911E+03   -.181E+02 0.197E+02 0.904E+03   0.538E-01 -.492E-01 0.734E+01
   0.241E+02 -.599E+02 -.892E+03   -.242E+02 0.603E+02 0.884E+03   0.821E-01 -.268E+00 0.734E+01
   -.221E-01 0.159E+00 0.944E+03   0.220E-01 -.161E+00 -.936E+03   0.931E-04 0.153E-02 -.746E+01
   -.924E+01 0.186E+02 0.946E+03   0.929E+01 -.187E+02 -.939E+03   -.409E-01 0.100E+00 -.746E+01
   -.377E-01 0.308E+02 -.906E+03   0.375E-01 -.310E+02 0.898E+03   0.130E-03 0.125E+00 0.734E+01
   -.951E+01 0.202E+00 -.912E+03   0.955E+01 -.204E+00 0.904E+03   -.263E-01 0.119E-02 0.734E+01
   -.458E-01 0.417E+02 0.964E+03   0.456E-01 -.421E+02 -.957E+03   0.138E-03 0.346E+00 -.749E+01
   -.282E+02 0.497E+02 0.988E+03   0.285E+02 -.500E+02 -.981E+03   -.257E+00 0.250E+00 -.737E+01
   -.207E+00 0.140E+03 -.821E+03   0.206E+00 -.142E+03 0.813E+03   0.439E-03 0.160E+01 0.746E+01
   -.245E+02 0.604E+02 -.892E+03   0.246E+02 -.608E+02 0.884E+03   -.830E-01 0.275E+00 0.734E+01
   -.150E+00 0.509E+02 0.106E+04   0.149E+00 -.511E+02 -.105E+04   0.873E-03 0.158E+00 -.555E+01
   -.561E+02 -.443E+00 0.105E+04   0.566E+02 0.452E+00 -.104E+04   -.396E+00 -.646E-02 -.753E+01
   -.937E+00 -.271E+01 -.454E+03   0.939E+00 0.279E+01 0.451E+03   0.230E-02 -.493E-01 0.219E+01
   -.142E+03 0.108E+03 -.751E+03   0.144E+03 -.108E+03 0.744E+03   -.162E+01 -.394E-01 0.705E+01
   -.147E+00 -.514E+02 0.106E+04   0.146E+00 0.516E+02 -.105E+04   0.816E-03 -.166E+00 -.561E+01
   -.279E+02 -.496E+02 0.988E+03   0.282E+02 0.499E+02 -.980E+03   -.252E+00 -.247E+00 -.738E+01
   -.200E+00 -.138E+03 -.822E+03   0.200E+00 0.140E+03 0.815E+03   0.436E-03 -.156E+01 0.746E+01
   -.140E+03 -.109E+03 -.753E+03   0.142E+03 0.109E+03 0.746E+03   -.157E+01 0.311E-01 0.706E+01
[...]
   -.106E+02 0.948E+01 0.708E+03   0.106E+02 -.949E+01 -.712E+03   -.505E-01 0.926E-02 0.348E+01
   0.214E-01 0.764E+01 0.704E+03   -.213E-01 -.764E+01 -.708E+03   -.147E-03 0.601E-02 0.349E+01
   -.194E+02 0.814E+01 -.683E+03   0.194E+02 -.813E+01 0.687E+03   -.456E-01 -.242E-02 -.368E+01
   0.564E-01 -.545E-01 -.685E+03   -.562E-01 0.546E-01 0.689E+03   -.291E-03 -.243E-03 -.367E+01
   -.147E+02 -.536E-01 0.712E+03   0.147E+02 0.539E-01 -.716E+03   -.569E-01 -.413E-03 0.347E+01
   0.363E-01 0.505E+01 0.708E+03   -.361E-01 -.505E+01 -.712E+03   -.236E-03 0.124E-02 0.348E+01
   -.194E+02 -.824E+01 -.683E+03   0.194E+02 0.824E+01 0.687E+03   -.453E-01 0.187E-02 -.368E+01
   0.398E-01 -.991E+01 -.688E+03   -.397E-01 0.991E+01 0.692E+03   -.221E-03 0.108E-02 -.366E+01
   -.106E+02 -.951E+01 0.708E+03   0.106E+02 0.951E+01 -.712E+03   -.499E-01 -.945E-02 0.348E+01
   0.361E-01 -.512E+01 0.708E+03   -.360E-01 0.512E+01 -.712E+03   -.232E-03 -.170E-02 0.348E+01
   -.995E+01 -.113E+02 -.688E+03   0.998E+01 0.113E+02 0.692E+03   -.357E-01 -.586E-02 -.365E+01
   0.199E-01 -.552E+01 -.691E+03   -.198E-01 0.552E+01 0.695E+03   -.126E-03 -.164E-02 -.364E+01
   -.552E+01 -.522E+01 0.704E+03   0.555E+01 0.522E+01 -.708E+03   -.310E-01 -.850E-02 0.349E+01
   0.212E-01 -.761E+01 0.704E+03   -.211E-01 0.761E+01 -.708E+03   -.147E-03 -.583E-02 0.349E+01
   0.923E-02 -.249E+00 0.592E+01   0.223E-11 0.853E-12 0.182E-11   -.634E-02 0.248E+00 -.651E+01

 POSITION                                       TOTAL-FORCE (eV/Angst)
      8.45129     11.78922     13.22011         0.004329      0.106688     -0.075250
      8.44827     10.55171     17.46787        -0.001036     -0.002619      0.058893
      8.44707     10.54754     15.21331         0.002212     -0.002715     -0.007335
      8.45116      9.32335     13.20450         0.004833     -0.097610     -0.059606
      0.00000      0.00000      9.00000        -0.006597     -0.000078      0.529814
      2.11389      2.11389      9.00000        -0.014670     -0.005624      0.529777
      0.00000      2.11389     11.11389        -0.007302     -0.000478     -0.492246
      2.11389      0.00000     11.11389        -0.010365     -0.000128     -0.491452
      0.00000      4.22777      9.00000        -0.011285     -0.002320      0.531000
      2.11389      6.34166      9.00000        -0.036344     -0.006434      0.534558
      0.00000      6.34166     11.11389        -0.011117      0.000834     -0.487057
      2.11389      4.22777     11.11389        -0.022953     -0.003166     -0.486170
      0.00000      8.45554      9.00000        -0.017238     -0.000606      0.533425
      2.11389     10.56943      9.00000        -0.045733      0.000201      0.538732
      0.00000     10.56943     11.11389        -0.009924      0.000064     -0.482698
      2.11389      8.45554     11.11389        -0.028278      0.002334     -0.470405
      0.00000     12.68331      9.00000        -0.017100      0.000756      0.533396
      2.11389     14.79720      9.00000        -0.035762      0.006517      0.534492
      0.00000     14.79720     11.11389        -0.010977     -0.000786     -0.487127
      2.11389     12.68331     11.11389        -0.028053     -0.002108     -0.470568
      0.00000     16.91108      9.00000        -0.011117      0.002276      0.530977
      2.11389     19.02497      9.00000        -0.014501      0.005360      0.529768
      0.00000     19.02497     11.11389        -0.007226      0.000378     -0.492277
      2.11389     16.91108     11.11389        -0.022561      0.003091     -0.486308
      4.22777      0.00000      9.00000        -0.012503     -0.000248      0.529996
      6.34166      2.11389      9.00000        -0.011995     -0.026509      0.530603
      4.22777      2.11389     11.11389        -0.015198     -0.013115     -0.487430
      6.34166      0.00000     11.11389        -0.007541     -0.000303     -0.488012
      4.22777      4.22777      9.00000        -0.034264     -0.025204      0.527742
      6.34166      6.34166      9.00000        -0.083257     -0.079100      0.494205
      4.22777      6.34166     11.11389        -0.080315     -0.001412     -0.463428
      6.34166      4.22777     11.11389        -0.024248     -0.070567     -0.475844
      4.22777      8.45554      9.00000        -0.097447     -0.009337      0.547903
      6.34166     10.56943      9.00000        -0.125073      0.002084      0.510566
      4.22777     10.56943     11.11389        -0.062908      0.000187     -0.409547
      6.34166      8.45554     11.11389        -0.544607      0.031498     -0.430283
      4.22777     12.68331      9.00000        -0.095899      0.010090      0.547600
      6.34166     14.79720      9.00000        -0.081633      0.077979      0.495339
      4.22777     14.79720     11.11389        -0.078610      0.001751     -0.464016
      6.34166     12.68331     11.11389        -0.520502     -0.032510     -0.423689
      4.22777     16.91108      9.00000        -0.033651      0.024703      0.527798
      6.34166     19.02497      9.00000        -0.011842      0.025666      0.530574
      4.22777     19.02497     11.11389        -0.015020      0.012627     -0.487547
      6.34166     16.91108     11.11389        -0.023904      0.068898     -0.476308
      8.45554      0.00000      9.00000        -0.000042     -0.000399      0.530659
     10.56943      2.11389      9.00000         0.011921     -0.026521      0.530592
      8.45554      2.11389     11.11389        -0.000052     -0.031069     -0.484331
     10.56943      0.00000     11.11389         0.007467     -0.000298     -0.488017
      8.45554      4.22777      9.00000        -0.000054     -0.087417      0.532087
     10.56943      6.34166      9.00000         0.083138     -0.079217      0.494190
      8.45554      6.34166     11.11389        -0.000224     -0.463803     -0.480383
     10.56943      4.22777     11.11389         0.024127     -0.070636     -0.475909
      8.45554      8.45554      9.00000        -0.000310     -0.022275      0.119845
     10.56943     10.56943      9.00000         0.124924      0.002097      0.510858
      8.45554     10.56943     11.11389         0.003769      0.025293     -1.661049
     10.56943      8.45554     11.11389         0.540977      0.033034     -0.427719
      8.45554     12.68331      9.00000        -0.000289      0.024044      0.130586
     10.56943     14.79720      9.00000         0.081508      0.078069      0.495301
      8.45554     14.79720     11.11389        -0.000219      0.451176     -0.480234
     10.56943     12.68331     11.11389         0.517267     -0.033922     -0.421488
[...]
     19.02497      6.34166     11.11389        -0.000075     -0.000322      0.460933
     16.91108      6.34166      9.00000        -0.013961      0.002613     -0.504555
     19.02497      4.22777      9.00000        -0.000053      0.001710     -0.503227
     16.91108      8.45554     11.11389        -0.012687     -0.000650      0.455164
     19.02497     10.56943     11.11389        -0.000094     -0.000067      0.458003
     16.91108     10.56943      9.00000        -0.015760     -0.000108     -0.506456
     19.02497      8.45554      9.00000        -0.000079      0.000369     -0.504780
     16.91108     12.68331     11.11389        -0.012598      0.000507      0.455228
     19.02497     14.79720     11.11389        -0.000069      0.000287      0.460990
     16.91108     14.79720      9.00000        -0.013808     -0.002655     -0.504538
     19.02497     12.68331      9.00000        -0.000083     -0.000495     -0.504776
     16.91108     16.91108     11.11389        -0.009887     -0.001656      0.462020
     19.02497     19.02497     11.11389        -0.000047     -0.000468      0.465035
     16.91108     19.02497      9.00000        -0.008535     -0.002347     -0.502732
     19.02497     16.91108      9.00000        -0.000055     -0.001647     -0.503219
    total drift:                                0.002891     -0.000859     -0.584364

  FREE ENERGIE OF THE ION-ELECTRON SYSTEM (eV)
  free  energy   TOTEN  =     -1180.58372418 eV

  energy  without entropy=    -1180.58372418  energy(sigma->0) =    -1180.58372418