 vasp.6.3.0 20Jan22 (build Apr  1 2022 16:44:48) complex
 executed on        HPECrayEX_GCC date 2022.10.21  14:27:17

 INCAR:
   SYSTEM = MgO-rocksalt
   ISMEAR = 0
   SIGMA = 0.05
   EDIFF = 1E-6
   ALGO = ALL
   ISTART = 0
   IBRION = -1
   NSW = 0
   ISYM = 2
   DIPOL = 0.5 0.5 0.5
   IDIPOL = 3
   LDIPOL = .TRUE.
   LHFCALC = .TRUE.
   GGA = PE
   IVDW = 12
   VDW_S8 = 1.2177
   VDW_A1 = 0.4145
   VDW_A2 = 4.8593
   ENCUT = 520
   PREC = Accurate
   LASPH = .TRUE.
   LREAL = Auto
   ISPIN = 1
   NELM = 200
   NELMIN = 8
   NCORE = 4
   KPAR = 2
   LWAVE = .FALSE.
   LCHARG = .FALSE.

 POTCAR:    PAW_PBE Ag 02Apr2005
 POTCAR:    PAW_PBE Mg_pv 13Apr2007
 POTCAR:    PAW_PBE O 08Apr2002
|           W    W    AA    RRRRR   N    N  II  N    N   GGGG   !!!           |
|           W    W   A  A   R    R  NN   N  II  NN   N  G    G  !!!           |
|           W    W  A    A  R    R  N N  N  II  N N  N  G       !!!           |
|           W WW W  AAAAAA  RRRRR   N  N N  II  N  N N  G  GGG   !            |
|           WW  WW  A    A  R   R   N   NN  II  N   NN  G    G                |
|           W    W  A    A  R    R  N    N  II  N    N   GGGG   !!!           |
|     You have selected ISYM=2 for a HF type calculation. This will           |
|     symmetrize the charge density but not the exchange potential. I         |
|     suggest to use ISYM=3 instead. This uses symmetry to obtain the         |
|     orbitals at all k-points in the Brillouin zone, but does not apply      |
|     symmetry to the Hartree potential directly. The resultant charge        |
|     might have lower symmetry than the crystal but, at least, Hartree       |
|     and exchange are fully compatible.                                      |

   TITEL  = PAW_PBE Ag 02Apr2005
   POMASS =  107.868; ZVAL   =   11.000    mass and valenz
   ENMAX  =  249.844; ENMIN  =  187.383 eV

   TITEL  = PAW_PBE Mg_pv 13Apr2007
   POMASS =   24.305; ZVAL   =    8.000    mass and valenz
   ENMAX  =  403.929; ENMIN  =  302.947 eV

   TITEL  = PAW_PBE O 08Apr2002
   POMASS =   16.000; ZVAL   =    6.000    mass and valenz
   ENMAX  =  400.000; ENMIN  =  300.000 eV

 Optimization of the real space projectors (new method)

 maximal supplied QI-value         = 15.12
 optimisation between [QCUT,QGAM] = [ 11.64, 23.28] = [ 37.95,151.78] Ry
 Optimized for a Real-space Cutoff    1.45 Angstroem

   l    n(q)    QCUT    max X(q) W(low)/X(q) W(high)/X(q)  e(spline)
   2      9    11.641    53.897    0.22E-03    0.42E-04    0.28E-06
   2      9    11.641    52.416    0.23E-03    0.44E-04    0.29E-06
   0     10    11.641   122.045    0.51E-04    0.25E-04    0.16E-06
   0     10    11.641    73.629    0.49E-04    0.24E-04    0.16E-06
   1     10    11.641    15.255    0.99E-04    0.55E-04    0.11E-06
   1     10    11.641     9.562    0.81E-04    0.47E-04    0.95E-07
 Optimization of the real space projectors (new method)

[...]

   l    n(q)    QCUT    max X(q) W(low)/X(q) W(high)/X(q)  e(spline)
   1      8    11.527     2.974    0.44E-04    0.56E-04    0.12E-06
   1      8    11.527     4.279    0.12E-03    0.12E-03    0.26E-06
   0      9    11.527    16.381    0.46E-04    0.64E-04    0.78E-07
   0      9    11.527     5.611    0.26E-04    0.43E-04    0.55E-07
   2      8    11.527     4.652    0.22E-03    0.72E-04    0.47E-07
 Optimization of the real space projectors (new method)

 maximal supplied QI-value         = 24.76
 optimisation between [QCUT,QGAM] = [ 11.64, 23.27] = [ 37.91,151.63] Ry
 Optimized for a Real-space Cutoff    1.14 Angstroem

   l    n(q)    QCUT    max X(q) W(low)/X(q) W(high)/X(q)  e(spline)
   0      8    11.635    20.381    0.10E-03    0.33E-03    0.24E-06
   0      8    11.635    15.268    0.11E-03    0.35E-03    0.26E-06
   1      7    11.635     5.964    0.24E-03    0.31E-03    0.30E-06
   1      7    11.635     5.382    0.22E-03    0.25E-03    0.26E-06
  PAW_PBE Ag 02Apr2005                  :
  PAW_PBE Mg_pv 13Apr2007               :
  PAW_PBE O 08Apr2002                   :

 POSCAR: Ag Mg  O
  positions in direct lattice
 exchange correlation table for  LEXCH =        8
   RHO(1)=    0.500       N(1)  =     2000
   RHO(2)=  100.500       N(2)  =     4000

 ion  position               nearest neighbor table
   1  0.662  0.500  0.618-   2 2.60 172 2.69  73 2.87
   2  0.538  0.500  0.618-   1 2.60 152 2.69  73 2.87
   3  0.000  0.000  0.407- 105 2.11 106 2.11 121 2.11 186 2.11 103 2.11
   4  0.100  0.100  0.407- 105 2.11 106 2.11 110 2.11 125 2.11 104 2.11
   5  0.000  0.100  0.503- 103 2.11 104 2.11 107 2.11 184 2.11 105 2.11
   6  0.100  0.000  0.503- 103 2.11 104 2.11 120 2.11 123 2.11 106 2.11
   7  0.000  0.200  0.407- 109 2.11 105 2.11 110 2.11 190 2.11 107 2.11
   8  0.100  0.300  0.407- 110 2.11 109 2.11 114 2.11 129 2.11 108 2.11
   9  0.000  0.300  0.503- 107 2.11 108 2.11 111 2.11 188 2.11 109 2.11
  10  0.100  0.200  0.503- 108 2.11 107 2.11 104 2.11 127 2.11 110 2.11
  11  0.000  0.400  0.407- 109 2.11 113 2.11 114 2.11 194 2.11 111 2.11
  12  0.100  0.500  0.407- 113 2.11 114 2.11 118 2.11 133 2.11 112 2.11
  13  0.000  0.500  0.503- 111 2.11 112 2.11 115 2.11 192 2.11 113 2.11
  14  0.100  0.400  0.503- 108 2.11 111 2.11 112 2.11 131 2.11 114 2.11
  15  0.000  0.600  0.407- 113 2.11 117 2.11 118 2.11 198 2.11 115 2.11
  16  0.100  0.700  0.407- 122 2.11 118 2.11 117 2.11 137 2.11 116 2.11
  17  0.000  0.700  0.503- 119 2.11 116 2.11 115 2.11 196 2.11 117 2.11
  18  0.100  0.600  0.503- 112 2.11 115 2.11 116 2.11 135 2.11 118 2.11
  19  0.000  0.800  0.407- 117 2.11 121 2.11 122 2.11 202 2.11 119 2.11
  20  0.100  0.900  0.407- 106 2.11 121 2.11 122 2.11 141 2.11 120 2.11
  21  0.000  0.900  0.503- 103 2.11 119 2.11 120 2.11 200 2.11 121 2.11
  22  0.100  0.800  0.503- 116 2.11 119 2.11 120 2.11 139 2.11 122 2.11
  23  0.200  0.000  0.407- 126 2.11 125 2.11 106 2.11 141 2.11 123 2.11
  24  0.300  0.100  0.407- 125 2.11 126 2.11 130 2.11 145 2.11 124 2.11
  25  0.200  0.100  0.503- 124 2.11 123 2.11 104 2.11 127 2.11 125 2.11
  26  0.300  0.000  0.503- 123 2.11 124 2.11 140 2.11 143 2.11 126 2.11
  27  0.200  0.200  0.407- 129 2.11 130 2.11 110 2.11 125 2.11 127 2.11
  28  0.300  0.300  0.407- 129 2.11 130 2.11 134 2.11 149 2.11 128 2.11
  29  0.200  0.300  0.503- 127 2.11 128 2.11 108 2.11 131 2.11 129 2.11
  30  0.300  0.200  0.503- 127 2.11 128 2.11 124 2.11 147 2.11 130 2.11
  31  0.200  0.400  0.407- 134 2.11 129 2.11 133 2.11 114 2.11 131 2.11
  32  0.300  0.500  0.407- 133 2.11 134 2.11 138 2.11 153 2.11 132 2.11
  33  0.200  0.500  0.503- 132 2.11 131 2.11 112 2.11 135 2.11 133 2.11
  34  0.300  0.400  0.503- 131 2.11 128 2.11 132 2.11 151 2.11 134 2.11
  35  0.200  0.600  0.407- 138 2.11 133 2.11 137 2.11 118 2.11 135 2.11
  36  0.300  0.700  0.407- 137 2.11 142 2.11 138 2.11 157 2.11 136 2.11
  37  0.200  0.700  0.503- 136 2.11 139 2.11 116 2.11 135 2.11 137 2.11
  38  0.300  0.600  0.503- 135 2.11 132 2.11 136 2.11 155 2.11 138 2.11
  39  0.200  0.800  0.407- 137 2.11 142 2.11 141 2.11 122 2.11 139 2.11
  40  0.300  0.900  0.407- 141 2.11 126 2.11 142 2.11 161 2.11 140 2.11
  41  0.200  0.900  0.503- 140 2.11 123 2.11 139 2.11 120 2.11 141 2.11
  42  0.300  0.800  0.503- 136 2.11 139 2.11 140 2.11 159 2.11 142 2.11
  43  0.400  0.000  0.407- 126 2.11 145 2.11 146 2.11 161 2.11 143 2.11
  44  0.500  0.100  0.407- 145 2.11 146 2.11 150 2.11 165 2.11 144 2.11
  45  0.400  0.100  0.503- 124 2.11 143 2.11 144 2.11 147 2.11 145 2.11
  46  0.500  0.000  0.503- 143 2.11 144 2.11 160 2.11 163 2.11 146 2.11
  47  0.400  0.200  0.407- 149 2.11 145 2.11 130 2.11 150 2.11 147 2.11
  48  0.500  0.300  0.407- 150 2.11 149 2.11 154 2.11 169 2.11 148 2.11
  49  0.400  0.300  0.503- 147 2.11 128 2.11 148 2.11 151 2.11 149 2.11
  50  0.500  0.200  0.503- 148 2.11 147 2.11 144 2.11 167 2.11 150 2.11
  51  0.400  0.400  0.407- 134 2.11 149 2.11 153 2.11 154 2.11 151 2.11
  52  0.500  0.500  0.407- 153 2.11 154 2.11 158 2.11 173 2.11 152 2.11
  53  0.400  0.500  0.503- 132 2.11 151 2.11 152 2.11 155 2.11 153 2.11
  54  0.500  0.400  0.503- 148 2.11 151 2.11 152 2.11 171 2.11 154 2.11
  55  0.400  0.600  0.407- 138 2.11 153 2.11 157 2.11 158 2.11 155 2.11
  56  0.500  0.700  0.407- 162 2.11 158 2.11 157 2.11 177 2.11 156 2.11
  57  0.400  0.700  0.503- 159 2.11 155 2.11 156 2.11 136 2.11 157 2.11
  58  0.500  0.600  0.503- 152 2.11 155 2.11 156 2.11 175 2.11 158 2.11
  59  0.400  0.800  0.407- 157 2.11 142 2.11 161 2.11 162 2.11 159 2.11
  60  0.500  0.900  0.407- 146 2.11 161 2.11 162 2.11 181 2.11 160 2.11
[...]
 188  0.900  0.300  0.503-  90 2.11  89 2.11   9 2.11  94 2.11  88 2.11
 189  0.800  0.300  0.407-  68 2.11  87 2.11  88 2.11  91 2.11  89 2.11
 190  0.900  0.200  0.407-  88 2.11  84 2.11  87 2.11   7 2.11  90 2.11
 191  0.800  0.400  0.503-  74 2.11  89 2.11  93 2.11  94 2.11  91 2.11
 192  0.900  0.500  0.503-  13 2.11  93 2.11  94 2.11  98 2.11  92 2.11
 193  0.800  0.500  0.407-  72 2.11  91 2.11  92 2.11  95 2.11  93 2.11
 194  0.900  0.400  0.407-  11 2.11  88 2.11  91 2.11  92 2.11  94 2.11
 195  0.800  0.600  0.503-  78 2.11  93 2.11  97 2.11  98 2.11  95 2.11
 196  0.900  0.700  0.503- 102 2.11  97 2.11  98 2.11  17 2.11  96 2.11
 197  0.800  0.700  0.407-  76 2.11  99 2.11  96 2.11  95 2.11  97 2.11
 198  0.900  0.600  0.407-  15 2.11  92 2.11  95 2.11  96 2.11  98 2.11
 199  0.800  0.800  0.503-  82 2.11  97 2.11 101 2.11 102 2.11  99 2.11
 200  0.900  0.900  0.503-  21 2.11  86 2.11 101 2.11 102 2.11 100 2.11
 201  0.800  0.900  0.407-  80 2.11  83 2.11  99 2.11 100 2.11 101 2.11
 202  0.900  0.800  0.407-  96 2.11  19 2.11  99 2.11 100 2.11 102 2.11

  LATTYP: Found a simple tetragonal cell.
 ALAT       =    21.1388521970
 C/A-ratio  =     1.0461251639

  Lattice vectors:

 A1 = (  21.1388521970,   0.0000000000,   0.0000000000)
 A2 = (   0.0000000000,  21.1388521970,   0.0000000000)
 A3 = (   0.0000000000,   0.0000000000,  22.1138852197)

Analysis of symmetry for initial positions (statically):
 Subroutine PRICEL returns:
 Original cell was already a primitive cell.

 Routine SETGRP: Setting up the symmetry group for a
 simple tetragonal supercell.

 Subroutine GETGRP returns: Found  4 space group operations
 (whereof  2 operations were pure point group operations)
 out of a pool of 16 trial point group operations.

The static configuration has the point symmetry C_1h.
 The point group associated with its full space group is C_2v.

Analysis of symmetry for dynamics (positions and initial velocities):
 Subroutine PRICEL returns:
 Original cell was already a primitive cell.

 Routine SETGRP: Setting up the symmetry group for a
 simple tetragonal supercell.

 Subroutine GETGRP returns: Found  4 space group operations
 (whereof  2 operations were pure point group operations)
 out of a pool of 16 trial point group operations.

The dynamic configuration has the point symmetry C_1h.
 The point group associated with its full space group is C_2v.

 Subroutine INISYM returns: Found  4 space group operations
 (whereof  2 operations are pure point group operations),
 and found     1 'primitive' translations

                                     Primitive cell

  volume of cell :    9881.6133

[...]
[...]
    946       6.6648      0.00000
    947       6.6813      0.00000
    948       6.7194      0.00000
    949       6.7340      0.00000
    950       6.8111      0.00000
    951       6.9089      0.00000
    952       6.9357      0.00000
    953       6.9691      0.00000
    954       6.9897      0.00000
    955       7.1530      0.00000
    956       7.2670      0.00000
    957       7.3228      0.00000
    958       7.3992      0.00000
    959       7.5005      0.00000
    960       7.6211      0.00000

 soft charge-density along one line, spin component           1
         0         1         2         3         4         5         6         7         8         9
 total charge-density along one line

------------------------ aborting loop because EDIFF is reached ----------------------------------------

|           W    W    AA    RRRRR   N    N  II  N    N   GGGG   !!!           |
|           W    W   A  A   R    R  NN   N  II  NN   N  G    G  !!!           |
|           W    W  A    A  R    R  N N  N  II  N N  N  G       !!!           |
|           W WW W  AAAAAA  RRRRR   N  N N  II  N  N N  G  GGG   !            |
|           WW  WW  A    A  R   R   N   NN  II  N   NN  G    G                |
|           W    W  A    A  R    R  N    N  II  N    N   GGGG   !!!           |
|     Specifying the vdW parameters                                           |
|     VDW_A1 = 0.414                                                          |
|     VDW_A2 = 4.859                                                          |
|     VDW_S8 = 1.218                                                          |
|     in the INCAR file will overwrite the defaults for pbe0. Please make     |
|     sure that is what you intended.                                         |

         DFTD3 V3.0 Rev 1
 IVDW         = 12
 DF pbe0
 parameters
 VDW_S6       =    1.0000
 VDW_S8       =    1.2177
 VDW_A1       =    0.4145
 VDW_A2       =    4.8593
 k1-k3        =   16.0000    1.3333   -4.0000
 VDW_RADIUS   =   50.2022 A
 VDW_CNRADIUS =   21.1671 A
 Edisp (eV)  -32.59043

 E6    (eV) :   -16.1008
 E8    (eV) :   -16.4896
 % E8        : 50.60

 VOLUME and BASIS-vectors are now :
  energy-cutoff  :      520.00
  volume of cell :     9881.61
      direct lattice vectors                 reciprocal lattice vectors
    21.138852197  0.000000000  0.000000000     0.047306258  0.000000000  0.000000000
     0.000000000 21.138852197  0.000000000     0.000000000  0.047306258  0.000000000
     0.000000000  0.000000000 22.113885220     0.000000000  0.000000000  0.045220457

  length of vectors
    21.138852197 21.138852197 22.113885220     0.047306258  0.047306258  0.045220457

 FORCES acting on ions:
    Electron-Ion                     Ewald-Force                    Non-Local-Force
   -.265E+03 -.127E-05 -.210E+04   0.257E+03 0.115E-07 0.210E+04   0.771E+01 0.000E+00 -.977E-01
   0.265E+03 -.851E-06 -.210E+04   -.257E+03 0.115E-07 0.210E+04   -.771E+01 0.000E+00 -.977E-01
   -.329E+01 0.483E-06 0.932E+03   0.329E+01 0.838E-08 -.923E+03   0.408E-02 0.000E+00 -.710E+01
   -.184E-03 0.369E+01 0.932E+03   -.144E-05 -.371E+01 -.923E+03   0.000E+00 0.108E-01 -.710E+01
   -.479E+01 0.531E+01 -.923E+03   0.478E+01 -.532E+01 0.915E+03   0.548E-02 0.127E-01 0.706E+01
   -.184E-03 0.482E-06 -.924E+03   -.149E-05 0.885E-08 0.915E+03   0.000E+00 0.000E+00 0.706E+01
   -.555E+01 0.740E+01 0.934E+03   0.555E+01 -.743E+01 -.926E+03   0.182E-04 0.229E-01 -.710E+01
   -.182E-03 0.670E+01 0.935E+03   -.297E-05 -.673E+01 -.926E+03   0.000E+00 0.210E-01 -.710E+01
   -.116E+02 0.107E+02 -.920E+03   0.116E+02 -.108E+02 0.911E+03   -.125E-01 0.284E-01 0.706E+01
   -.183E-03 0.774E+01 -.923E+03   -.265E-05 -.777E+01 0.914E+03   0.000E+00 0.193E-01 0.706E+01
   -.110E+02 0.549E+01 0.939E+03   0.110E+02 -.552E+01 -.931E+03   -.285E-01 0.190E-01 -.710E+01
   -.181E-03 0.495E-06 0.937E+03   -.431E-05 -.903E-08 -.929E+03   0.000E+00 0.000E+00 -.710E+01
   -.186E+02 0.469E-06 -.917E+03   0.187E+02 -.159E-07 0.908E+03   -.507E-01 0.000E+00 0.707E+01
   -.180E-03 0.559E+01 -.920E+03   -.558E-05 -.561E+01 0.911E+03   0.000E+00 0.144E-01 0.706E+01
   -.110E+02 -.549E+01 0.939E+03   0.110E+02 0.552E+01 -.931E+03   -.285E-01 -.190E-01 -.710E+01
   -.182E-03 -.670E+01 0.935E+03   -.297E-05 0.673E+01 -.926E+03   0.000E+00 -.210E-01 -.710E+01
   -.116E+02 -.107E+02 -.920E+03   0.116E+02 0.108E+02 0.911E+03   -.125E-01 -.284E-01 0.706E+01
   -.180E-03 -.559E+01 -.920E+03   -.558E-05 0.561E+01 0.911E+03   0.000E+00 -.144E-01 0.706E+01
   -.555E+01 -.740E+01 0.934E+03   0.555E+01 0.743E+01 -.926E+03   0.182E-04 -.229E-01 -.710E+01
   -.184E-03 -.369E+01 0.932E+03   -.144E-05 0.371E+01 -.923E+03   0.000E+00 -.108E-01 -.710E+01
   -.479E+01 -.531E+01 -.923E+03   0.478E+01 0.532E+01 0.915E+03   0.548E-02 -.127E-01 0.706E+01
   -.183E-03 -.774E+01 -.923E+03   -.265E-05 0.777E+01 0.914E+03   0.000E+00 -.193E-01 0.706E+01
   0.329E+01 0.481E-06 0.932E+03   -.329E+01 0.838E-08 -.923E+03   -.408E-02 0.000E+00 -.710E+01
   0.656E+01 0.591E+01 0.934E+03   -.655E+01 -.593E+01 -.925E+03   -.747E-02 0.155E-01 -.710E+01
   0.479E+01 0.531E+01 -.923E+03   -.478E+01 -.532E+01 0.915E+03   -.548E-02 0.127E-01 0.706E+01
   0.672E+01 0.476E-06 -.923E+03   -.670E+01 0.147E-07 0.914E+03   -.990E-02 0.000E+00 0.706E+01
   0.555E+01 0.740E+01 0.934E+03   -.555E+01 -.743E+01 -.926E+03   -.182E-04 0.229E-01 -.710E+01
   0.155E+02 0.129E+02 0.942E+03   -.155E+02 -.129E+02 -.933E+03   0.120E-01 0.484E-01 -.709E+01
   0.116E+02 0.107E+02 -.920E+03   -.116E+02 -.108E+02 0.911E+03   0.125E-01 0.284E-01 0.706E+01
   0.135E+02 0.148E+02 -.919E+03   -.135E+02 -.149E+02 0.911E+03   -.134E-01 0.382E-01 0.706E+01
   0.110E+02 0.549E+01 0.939E+03   -.110E+02 -.552E+01 -.931E+03   0.285E-01 0.190E-01 -.710E+01
   0.253E+02 0.541E-06 0.951E+03   -.254E+02 -.204E-07 -.942E+03   0.961E-01 0.000E+00 -.709E+01
   0.186E+02 0.531E-06 -.917E+03   -.187E+02 -.159E-07 0.908E+03   0.507E-01 0.000E+00 0.707E+01
   0.371E+02 0.154E+02 -.908E+03   -.372E+02 -.155E+02 0.899E+03   0.964E-01 0.472E-01 0.707E+01
   0.110E+02 -.549E+01 0.939E+03   -.110E+02 0.552E+01 -.931E+03   0.285E-01 -.190E-01 -.710E+01
   0.155E+02 -.129E+02 0.942E+03   -.155E+02 0.129E+02 -.933E+03   0.120E-01 -.484E-01 -.709E+01
   0.116E+02 -.107E+02 -.920E+03   -.116E+02 0.108E+02 0.911E+03   0.125E-01 -.284E-01 0.706E+01
   0.371E+02 -.154E+02 -.908E+03   -.372E+02 0.155E+02 0.899E+03   0.964E-01 -.472E-01 0.707E+01
   0.555E+01 -.740E+01 0.934E+03   -.555E+01 0.743E+01 -.926E+03   -.182E-04 -.229E-01 -.710E+01
   0.656E+01 -.591E+01 0.934E+03   -.655E+01 0.593E+01 -.925E+03   -.747E-02 -.155E-01 -.710E+01
   0.479E+01 -.531E+01 -.923E+03   -.478E+01 0.532E+01 0.915E+03   -.548E-02 -.127E-01 0.706E+01
   0.135E+02 -.148E+02 -.919E+03   -.135E+02 0.149E+02 0.911E+03   -.134E-01 -.382E-01 0.706E+01
   0.575E+01 0.475E-06 0.934E+03   -.574E+01 0.157E-07 -.926E+03   -.874E-02 0.000E+00 -.710E+01
   0.456E+01 0.106E+02 0.938E+03   -.454E+01 -.106E+02 -.929E+03   -.739E-02 0.121E-01 -.710E+01
   0.899E+01 0.115E+02 -.920E+03   -.897E+01 -.115E+02 0.912E+03   -.142E-01 0.106E-01 0.706E+01
   0.457E+01 0.467E-06 -.921E+03   -.456E+01 0.273E-07 0.912E+03   -.788E-02 0.000E+00 0.706E+01
   0.111E+02 0.162E+02 0.941E+03   -.111E+02 -.162E+02 -.933E+03   -.123E-01 0.453E-01 -.711E+01
   0.141E+02 0.311E+02 0.962E+03   -.140E+02 -.313E+02 -.954E+03   -.224E-01 0.119E+00 -.715E+01
   0.324E+02 0.370E+02 -.904E+03   -.323E+02 -.372E+02 0.895E+03   -.510E-01 0.141E+00 0.705E+01
   0.114E+02 0.344E+02 -.911E+03   -.114E+02 -.344E+02 0.903E+03   -.222E-01 0.613E-02 0.704E+01
   0.299E+02 0.175E+02 0.966E+03   -.300E+02 -.176E+02 -.957E+03   0.429E-01 0.919E-01 -.703E+01
   0.298E+02 0.639E-06 0.101E+04   -.299E+02 -.697E-07 -.100E+04   0.385E-01 0.000E+00 -.640E+01
   0.880E+02 0.710E-06 -.860E+03   -.888E+02 -.104E-06 0.851E+03   0.533E+00 0.000E+00 0.719E+01
   0.639E+02 0.887E+02 -.818E+03   -.636E+02 -.897E+02 0.809E+03   -.222E+00 0.624E+00 0.690E+01
   0.299E+02 -.175E+02 0.966E+03   -.300E+02 0.176E+02 -.957E+03   0.429E-01 -.919E-01 -.703E+01
   0.141E+02 -.311E+02 0.962E+03   -.140E+02 0.313E+02 -.954E+03   -.224E-01 -.119E+00 -.715E+01
   0.324E+02 -.370E+02 -.904E+03   -.323E+02 0.372E+02 0.895E+03   -.510E-01 -.141E+00 0.705E+01
   0.639E+02 -.887E+02 -.818E+03   -.636E+02 0.897E+02 0.809E+03   -.222E+00 -.624E+00 0.690E+01
   0.111E+02 -.162E+02 0.941E+03   -.111E+02 0.162E+02 -.933E+03   -.123E-01 -.453E-01 -.711E+01
   0.456E+01 -.106E+02 0.938E+03   -.454E+01 0.106E+02 -.929E+03   -.739E-02 -.121E-01 -.710E+01
[...]
   -.143E+02 0.160E+02 0.715E+03   0.143E+02 -.161E+02 -.719E+03   0.334E-02 0.868E-01 0.309E+01
   -.740E+01 0.811E+01 0.704E+03   0.740E+01 -.814E+01 -.708E+03   0.165E-02 0.325E-01 0.308E+01
   -.478E+02 0.290E+02 -.661E+03   0.479E+02 -.292E+02 0.665E+03   -.119E+00 0.241E+00 -.309E+01
   -.336E+02 0.233E-05 -.679E+03   0.337E+02 -.263E-07 0.683E+03   -.105E+00 0.000E+00 -.311E+01
   -.269E+02 0.233E-05 0.731E+03   0.270E+02 -.302E-07 -.736E+03   -.158E+00 0.000E+00 0.325E+01
   -.166E+02 0.705E+01 0.712E+03   0.166E+02 -.709E+01 -.716E+03   -.562E-01 0.503E-01 0.311E+01
   -.478E+02 -.290E+02 -.661E+03   0.479E+02 0.292E+02 0.665E+03   -.119E+00 -.241E+00 -.309E+01
   -.176E+02 -.143E+02 -.687E+03   0.176E+02 0.144E+02 0.691E+03   -.272E-01 -.691E-01 -.313E+01
   -.143E+02 -.160E+02 0.715E+03   0.143E+02 0.161E+02 -.719E+03   0.334E-02 -.868E-01 0.309E+01
   -.166E+02 -.705E+01 0.712E+03   0.166E+02 0.709E+01 -.716E+03   -.562E-01 -.503E-01 0.311E+01
   -.120E+02 -.181E+02 -.688E+03   0.120E+02 0.181E+02 0.692E+03   0.270E-01 -.260E-01 -.315E+01
   -.620E+01 -.581E+01 -.693E+03   0.619E+01 0.582E+01 0.697E+03   0.104E-01 -.118E-01 -.313E+01
   -.524E+01 -.625E+01 0.703E+03   0.523E+01 0.626E+01 -.707E+03   0.110E-01 -.126E-01 0.308E+01
   -.740E+01 -.811E+01 0.704E+03   0.740E+01 0.814E+01 -.708E+03   0.165E-02 -.325E-01 0.308E+01
   -.109E+00 0.285E-03 0.690E+01   0.108E-11 0.102E-11 -.261E-11   -.693E-15 0.118E-15 -.653E+01

 POSITION                                       TOTAL-FORCE (eV/Angst)
     13.98395     10.56943     13.67330         0.041504     -0.000000     -0.009928
     11.38267     10.56943     13.67330        -0.041504     -0.000000     -0.009928
      0.00000      0.00000      9.00000        -0.001316     -0.000000      0.604419
      2.11389      2.11389      9.00000         0.000000     -0.003460      0.604091
      0.00000      2.11389     11.11389        -0.001758     -0.003944     -0.593742
      2.11389      0.00000     11.11389         0.000000     -0.000000     -0.594284
      0.00000      4.22777      9.00000         0.000091     -0.007373      0.603774
      2.11389      6.34166      9.00000         0.000000     -0.006895      0.603347
      0.00000      6.34166     11.11389         0.003630     -0.009174     -0.592946
      2.11389      4.22777     11.11389         0.000000     -0.006199     -0.593659
      0.00000      8.45554      9.00000         0.008701     -0.006432      0.602668
      2.11389     10.56943      9.00000         0.000000     -0.000000      0.603261
      0.00000     10.56943     11.11389         0.014622     -0.000000     -0.593521
      2.11389      8.45554     11.11389         0.000000     -0.004782     -0.593485
      0.00000     12.68331      9.00000         0.008701      0.006432      0.602668
      2.11389     14.79720      9.00000         0.000000      0.006895      0.603347
      0.00000     14.79720     11.11389         0.003630      0.009174     -0.592946
      2.11389     12.68331     11.11389         0.000000      0.004782     -0.593485
      0.00000     16.91108      9.00000         0.000091      0.007373      0.603774
      2.11389     19.02497      9.00000         0.000000      0.003460      0.604091
      0.00000     19.02497     11.11389        -0.001758      0.003944     -0.593742
      2.11389     16.91108     11.11389         0.000000      0.006199     -0.593659
      4.22777      0.00000      9.00000         0.001316     -0.000000      0.604419
      6.34166      2.11389      9.00000         0.002453     -0.004724      0.604943
      4.22777      2.11389     11.11389         0.001758     -0.003944     -0.593742
      6.34166      0.00000     11.11389         0.003290     -0.000000     -0.593275
      4.22777      4.22777      9.00000        -0.000091     -0.007373      0.603774
      6.34166      6.34166      9.00000        -0.004389     -0.015902      0.601890
      4.22777      6.34166     11.11389        -0.003630     -0.009174     -0.592946
      6.34166      4.22777     11.11389         0.004415     -0.011473     -0.591640
      4.22777      8.45554      9.00000        -0.008701     -0.006432      0.602668
      6.34166     10.56943      9.00000        -0.027976     -0.000000      0.599006
      4.22777     10.56943     11.11389        -0.014622     -0.000000     -0.593521
      6.34166      8.45554     11.11389        -0.027589     -0.015202     -0.592732
      4.22777     12.68331      9.00000        -0.008701      0.006432      0.602668
      6.34166     14.79720      9.00000        -0.004389      0.015902      0.601890
      4.22777     14.79720     11.11389        -0.003630      0.009174     -0.592946
      6.34166     12.68331     11.11389        -0.027589      0.015202     -0.592732
      4.22777     16.91108      9.00000        -0.000091      0.007373      0.603774
      6.34166     19.02497      9.00000         0.002453      0.004724      0.604943
      4.22777     19.02497     11.11389         0.001758      0.003944     -0.593742
      6.34166     16.91108     11.11389         0.004415      0.011473     -0.591640
      8.45554      0.00000      9.00000         0.002954     -0.000000      0.605456
     10.56943      2.11389      9.00000         0.002622     -0.003555      0.606980
      8.45554      2.11389     11.11389         0.004908     -0.002835     -0.591275
     10.56943      0.00000     11.11389         0.002723     -0.000000     -0.591373
      8.45554      4.22777      9.00000         0.004360     -0.013254      0.607587
     10.56943      6.34166      9.00000         0.010137     -0.031947      0.621408
      8.45554      6.34166     11.11389         0.020429     -0.038733     -0.580484
     10.56943      4.22777     11.11389         0.008801      0.001733     -0.581215
      8.45554      8.45554      9.00000        -0.016306     -0.032921      0.582974
     10.56943     10.56943      9.00000         0.001127     -0.000000      0.420310
      8.45554     10.56943     11.11389        -0.204306     -0.000000     -0.655435
     10.56943      8.45554     11.11389         0.103646     -0.240268     -0.548764
      8.45554     12.68331      9.00000        -0.016306      0.032921      0.582974
     10.56943     14.79720      9.00000         0.010137      0.031947      0.621408
      8.45554     14.79720     11.11389         0.020429      0.038733     -0.580484
     10.56943     12.68331     11.11389         0.103646      0.240268     -0.548764
      8.45554     16.91108      9.00000         0.004360      0.013254      0.607587
     10.56943     19.02497      9.00000         0.002622      0.003555      0.606980
[...]
     19.02497      6.34166     11.11389        -0.009557      0.023314      0.404396
     16.91108      6.34166      9.00000         0.000477      0.030045     -0.414609
     19.02497      4.22777      9.00000         0.000491      0.010895     -0.416753
     16.91108      8.45554     11.11389        -0.049255      0.085941      0.428178
     19.02497     10.56943     11.11389        -0.036970     -0.000000      0.412365
     16.91108     10.56943      9.00000        -0.062126     -0.000000     -0.363912
     19.02497      8.45554      9.00000        -0.019646      0.016909     -0.408830
     16.91108     12.68331     11.11389        -0.049255     -0.085941      0.428178
     19.02497     14.79720     11.11389        -0.009557     -0.023314      0.404396
     16.91108     14.79720      9.00000         0.000477     -0.030045     -0.414609
     19.02497     12.68331      9.00000        -0.019646     -0.016909     -0.408830
     16.91108     16.91108     11.11389         0.008638     -0.009073      0.399631
     19.02497     19.02497     11.11389         0.003405     -0.003952      0.404715
     16.91108     19.02497      9.00000         0.003587     -0.004242     -0.418033
     19.02497     16.91108      9.00000         0.000491     -0.010895     -0.416753
    total drift:                               -0.108735      0.000285     -0.528803

  FREE ENERGIE OF THE ION-ELECTRON SYSTEM (eV)
  free  energy   TOTEN  =     -1455.32225873 eV

  energy  without entropy=    -1455.32225873  energy(sigma->0) =    -1455.32225873