 vasp.6.3.0 20Jan22 (build Apr  1 2022 16:44:48) complex
 executed on        HPECrayEX_GCC date 2023.01.09  17:19:06

 INCAR:
   SYSTEM = MgO-rocksalt
   ISMEAR = 0
   SIGMA = 0.05
   EDIFF = 1E-6
   ALGO = ALL
   ISTART = 0
   IBRION = -1
   NSW = 0
   ISYM = 2
   DIPOL = 0.5 0.5 0.5
   IDIPOL = 3
   LDIPOL = .TRUE.
   GGA = ML
   LUSE_VDW = .TRUE.
   ZAB_VDW = -1.8867
   AGGAC = 0.0000
   ENCUT = 520
   PREC = Accurate
   LASPH = .TRUE.
   LREAL = Auto
   ISPIN = 1
   NELM = 200
   NELMIN = 8
   NCORE = 4
   KPAR = 2
   LWAVE = .FALSE.
   LCHARG = .FALSE.

 POTCAR:    PAW_PBE Cu 22Jun2005
 POTCAR:    PAW_PBE Mg_pv 13Apr2007
 POTCAR:    PAW_PBE O 08Apr2002
|               ----> ADVICE to this user running VASP <----                  |
|     You have switched on vdW-DFT.                                           |
|     This routine was written and supplied by Jiri Klimes. We recommend      |
|     that you carefully read and cite the following publications:            |
|       J. Klimes, D.R. Bowler, A. Michelides                                 |
|          J. Phys.: Cond Matt. 22 022201 (2010)                              |
|       J. Klimes, D.R. Bowler, A. Michelides                                 |
|          Phys. Rev. B. 83, 195131 (2011)                                    |
|     and references therein.                                                 |

   TITEL  = PAW_PBE Cu 22Jun2005
   POMASS =   63.546; ZVAL   =   11.000    mass and valenz
   ENMAX  =  295.446; ENMIN  =  221.585 eV

   TITEL  = PAW_PBE Mg_pv 13Apr2007
   POMASS =   24.305; ZVAL   =    8.000    mass and valenz
   ENMAX  =  403.929; ENMIN  =  302.947 eV

   TITEL  = PAW_PBE O 08Apr2002
   POMASS =   16.000; ZVAL   =    6.000    mass and valenz
   ENMAX  =  400.000; ENMIN  =  300.000 eV

 Optimization of the real space projectors (new method)

 maximal supplied QI-value         = 16.25
 optimisation between [QCUT,QGAM] = [ 11.54, 23.24] = [ 37.28,151.24] Ry
 Optimized for a Real-space Cutoff    1.53 Angstroem

   l    n(q)    QCUT    max X(q) W(low)/X(q) W(high)/X(q)  e(spline)
   2     10    11.539     4.610    0.96E-04    0.13E-03    0.19E-06
   2     10    11.539     8.522    0.16E-03    0.21E-03    0.28E-06
   0     11    11.539    51.609    0.45E-04    0.31E-04    0.11E-06
   0     11    11.539    27.747    0.39E-04    0.29E-04    0.10E-06
   1     10    11.539    20.408    0.70E-05    0.38E-04    0.18E-06
   1     10    11.539    13.425    0.66E-05    0.34E-04    0.17E-06
 Optimization of the real space projectors (new method)

[...]

   l    n(q)    QCUT    max X(q) W(low)/X(q) W(high)/X(q)  e(spline)
   1      8    11.527     2.974    0.44E-04    0.56E-04    0.12E-06
   1      8    11.527     4.279    0.12E-03    0.12E-03    0.26E-06
   0      9    11.527    16.381    0.46E-04    0.64E-04    0.78E-07
   0      9    11.527     5.611    0.26E-04    0.43E-04    0.55E-07
   2      8    11.527     4.652    0.22E-03    0.72E-04    0.47E-07
 Optimization of the real space projectors (new method)

 maximal supplied QI-value         = 24.76
 optimisation between [QCUT,QGAM] = [ 11.64, 23.27] = [ 37.91,151.63] Ry
 Optimized for a Real-space Cutoff    1.14 Angstroem

   l    n(q)    QCUT    max X(q) W(low)/X(q) W(high)/X(q)  e(spline)
   0      8    11.635    20.381    0.10E-03    0.33E-03    0.24E-06
   0      8    11.635    15.268    0.11E-03    0.35E-03    0.26E-06
   1      7    11.635     5.964    0.24E-03    0.31E-03    0.30E-06
   1      7    11.635     5.382    0.22E-03    0.25E-03    0.26E-06
|               ----> ADVICE to this user running VASP <----                  |
|     You enforced a specific xc type in the INCAR file but a different       |
|     type was found in the POTCAR file.                                      |
|     I HOPE YOU KNOW WHAT YOU ARE DOING!                                     |

  PAW_PBE Cu 22Jun2005                  :
  PAW_PBE Mg_pv 13Apr2007               :
  PAW_PBE O 08Apr2002                   :

 POSCAR: Cu Mg  O
  positions in direct lattice
  velocities in cartesian coordinates
 exchange correlation table for  LEXCH =       44
   RHO(1)=    0.500       N(1)  =     2000
   RHO(2)=  100.500       N(2)  =     4000

 ion  position               nearest neighbor table
   1  0.400  0.417  0.591- 153 1.98   4 2.26   3 2.42   2 2.42  55 2.62
   2  0.490  0.488  0.600- 154 2.19   4 2.37   1 2.42
   3  0.310  0.488  0.600- 134 2.19   4 2.37   1 2.42
   4  0.400  0.492  0.664-   1 2.26   2 2.37   3 2.37
   5  0.000  0.000  0.407- 107 2.11 108 2.11 123 2.11 188 2.11 105 2.11
   6  0.100  0.100  0.407- 107 2.11 108 2.11 112 2.11 127 2.11 106 2.11
   7  0.000  0.100  0.503- 105 2.11 106 2.11 109 2.11 186 2.11 107 2.11
   8  0.100  0.000  0.503- 105 2.11 106 2.11 122 2.11 125 2.11 108 2.11
   9  0.000  0.200  0.407- 111 2.11 107 2.11 112 2.11 192 2.11 109 2.11
  10  0.100  0.300  0.407- 112 2.11 111 2.11 116 2.11 131 2.11 110 2.11
  11  0.000  0.300  0.503- 109 2.11 110 2.11 113 2.11 190 2.11 111 2.11
  12  0.100  0.200  0.503- 110 2.11 109 2.11 106 2.11 129 2.11 112 2.11
  13  0.000  0.400  0.407- 111 2.11 115 2.11 116 2.11 196 2.11 113 2.11
  14  0.100  0.500  0.407- 115 2.11 116 2.11 120 2.11 135 2.11 114 2.11
  15  0.000  0.500  0.503- 113 2.11 114 2.11 117 2.11 194 2.11 115 2.11
  16  0.100  0.400  0.503- 110 2.11 113 2.11 114 2.11 133 2.11 116 2.11
  17  0.000  0.600  0.407- 115 2.11 119 2.11 120 2.11 200 2.11 117 2.11
  18  0.100  0.700  0.407- 124 2.11 120 2.11 119 2.11 139 2.11 118 2.11
  19  0.000  0.700  0.503- 121 2.11 118 2.11 117 2.11 198 2.11 119 2.11
  20  0.100  0.600  0.503- 114 2.11 117 2.11 118 2.11 137 2.11 120 2.11
  21  0.000  0.800  0.407- 119 2.11 123 2.11 124 2.11 204 2.11 121 2.11
  22  0.100  0.900  0.407- 108 2.11 123 2.11 124 2.11 143 2.11 122 2.11
  23  0.000  0.900  0.503- 105 2.11 121 2.11 122 2.11 202 2.11 123 2.11
  24  0.100  0.800  0.503- 118 2.11 121 2.11 122 2.11 141 2.11 124 2.11
  25  0.200  0.000  0.407- 128 2.11 127 2.11 108 2.11 143 2.11 125 2.11
  26  0.300  0.100  0.407- 127 2.11 128 2.11 132 2.11 147 2.11 126 2.11
  27  0.200  0.100  0.503- 126 2.11 125 2.11 106 2.11 129 2.11 127 2.11
  28  0.300  0.000  0.503- 125 2.11 126 2.11 142 2.11 145 2.11 128 2.11
  29  0.200  0.200  0.407- 131 2.11 132 2.11 112 2.11 127 2.11 129 2.11
  30  0.300  0.300  0.407- 131 2.11 132 2.11 136 2.11 151 2.11 130 2.11
  31  0.200  0.300  0.503- 129 2.11 130 2.11 110 2.11 133 2.11 131 2.11
  32  0.300  0.200  0.503- 129 2.11 130 2.11 126 2.11 149 2.11 132 2.11
  33  0.200  0.400  0.407- 136 2.11 131 2.11 135 2.11 116 2.11 133 2.11
  34  0.300  0.500  0.407- 135 2.11 136 2.11 140 2.11 155 2.11 134 2.11
  35  0.200  0.500  0.503- 134 2.11 133 2.11 114 2.11 137 2.11 135 2.11
  36  0.300  0.400  0.503- 133 2.11 130 2.11 134 2.11 153 2.11 136 2.11
  37  0.200  0.600  0.407- 140 2.11 135 2.11 139 2.11 120 2.11 137 2.11
  38  0.300  0.700  0.407- 139 2.11 144 2.11 140 2.11 159 2.11 138 2.11
  39  0.200  0.700  0.503- 138 2.11 141 2.11 118 2.11 137 2.11 139 2.11
  40  0.300  0.600  0.503- 137 2.11 134 2.11 138 2.11 157 2.11 140 2.11
  41  0.200  0.800  0.407- 139 2.11 144 2.11 143 2.11 124 2.11 141 2.11
  42  0.300  0.900  0.407- 143 2.11 128 2.11 144 2.11 163 2.11 142 2.11
  43  0.200  0.900  0.503- 142 2.11 125 2.11 141 2.11 122 2.11 143 2.11
  44  0.300  0.800  0.503- 138 2.11 141 2.11 142 2.11 161 2.11 144 2.11
  45  0.400  0.000  0.407- 128 2.11 147 2.11 148 2.11 163 2.11 145 2.11
  46  0.500  0.100  0.407- 147 2.11 148 2.11 152 2.11 167 2.11 146 2.11
  47  0.400  0.100  0.503- 126 2.11 145 2.11 146 2.11 149 2.11 147 2.11
  48  0.500  0.000  0.503- 145 2.11 146 2.11 162 2.11 165 2.11 148 2.11
  49  0.400  0.200  0.407- 151 2.11 147 2.11 132 2.11 152 2.11 149 2.11
  50  0.500  0.300  0.407- 152 2.11 151 2.11 156 2.11 171 2.11 150 2.11
  51  0.400  0.300  0.503- 149 2.11 130 2.11 150 2.11 153 2.11 151 2.11
  52  0.500  0.200  0.503- 150 2.11 149 2.11 146 2.11 169 2.11 152 2.11
  53  0.400  0.400  0.407- 136 2.11 151 2.11 155 2.11 156 2.11 153 2.11
  54  0.500  0.500  0.407- 155 2.11 156 2.11 160 2.11 175 2.11 154 2.11
  55  0.400  0.500  0.503- 134 2.11 153 2.11 154 2.11 157 2.11 155 2.11   1 2.62
  56  0.500  0.400  0.503- 150 2.11 153 2.11 154 2.11 173 2.11 156 2.11
  57  0.400  0.600  0.407- 140 2.11 155 2.11 159 2.11 160 2.11 157 2.11
  58  0.500  0.700  0.407- 164 2.11 160 2.11 159 2.11 179 2.11 158 2.11
  59  0.400  0.700  0.503- 161 2.11 157 2.11 158 2.11 138 2.11 159 2.11
  60  0.500  0.600  0.503- 154 2.11 157 2.11 158 2.11 177 2.11 160 2.11
[...]
 190  0.900  0.300  0.503-  92 2.11  91 2.11  11 2.11  96 2.11  90 2.11
 191  0.800  0.300  0.407-  70 2.11  89 2.11  90 2.11  93 2.11  91 2.11
 192  0.900  0.200  0.407-  90 2.11  86 2.11  89 2.11   9 2.11  92 2.11
 193  0.800  0.400  0.503-  76 2.11  91 2.11  95 2.11  96 2.11  93 2.11
 194  0.900  0.500  0.503-  15 2.11  95 2.11  96 2.11 100 2.11  94 2.11
 195  0.800  0.500  0.407-  74 2.11  93 2.11  94 2.11  97 2.11  95 2.11
 196  0.900  0.400  0.407-  13 2.11  90 2.11  93 2.11  94 2.11  96 2.11
 197  0.800  0.600  0.503-  80 2.11  95 2.11  99 2.11 100 2.11  97 2.11
 198  0.900  0.700  0.503- 104 2.11  99 2.11 100 2.11  19 2.11  98 2.11
 199  0.800  0.700  0.407-  78 2.11 101 2.11  98 2.11  97 2.11  99 2.11
 200  0.900  0.600  0.407-  17 2.11  94 2.11  97 2.11  98 2.11 100 2.11
 201  0.800  0.800  0.503-  84 2.11  99 2.11 103 2.11 104 2.11 101 2.11
 202  0.900  0.900  0.503-  23 2.11  88 2.11 103 2.11 104 2.11 102 2.11
 203  0.800  0.900  0.407-  82 2.11  85 2.11 101 2.11 102 2.11 103 2.11
 204  0.900  0.800  0.407-  98 2.11  21 2.11 101 2.11 102 2.11 104 2.11

  LATTYP: Found a simple tetragonal cell.
 ALAT       =    21.1388521970
 C/A-ratio  =     1.0461251639

  Lattice vectors:

 A1 = (  21.1388521970,   0.0000000000,   0.0000000000)
 A2 = (   0.0000000000,  21.1388521970,   0.0000000000)
 A3 = (   0.0000000000,   0.0000000000,  22.1138852197)

Analysis of symmetry for initial positions (statically):
 Subroutine PRICEL returns:
 Original cell was already a primitive cell.

 Routine SETGRP: Setting up the symmetry group for a
 simple tetragonal supercell.

 Subroutine GETGRP returns: Found  2 space group operations
 (whereof  1 operations were pure point group operations)
 out of a pool of 16 trial point group operations.

The static configuration has the point symmetry C_1 .
 The point group associated with its full space group is C_1h.

Analysis of symmetry for dynamics (positions and initial velocities):
 Subroutine PRICEL returns:
 Original cell was already a primitive cell.

[...]

The dynamic configuration has the point symmetry C_1 .
 The point group associated with its full space group is C_1h.

Analysis of constrained symmetry for selective dynamics:
 Subroutine PRICEL returns:
 Original cell was already a primitive cell.

 Routine SETGRP: Setting up the symmetry group for a
 simple tetragonal supercell.

 Subroutine GETGRP returns: Found  2 space group operations
 (whereof  1 operations were pure point group operations)
 out of a pool of 16 trial point group operations.

The constrained configuration has the point symmetry C_1 .
[...]
     52     -44.0479      2.00000
     53     -44.0478      2.00000
     54     -44.0459      2.00000
     55     -44.0456      2.00000
     56     -44.0453      2.00000
     57     -44.0432      2.00000
     58     -44.0399      2.00000
     59     -44.0398      2.00000
     60     -44.0345      2.00000
[...]
    946       5.2845      0.00000
    947       5.3118      0.00000
    948       5.3253      0.00000
    949       5.3541      0.00000
    950       5.3725      0.00000
    951       5.4047      0.00000
    952       5.4223      0.00000
    953       5.4491      0.00000
    954       5.5076      0.00000
    955       5.5383      0.00000
    956       5.5470      0.00000
    957       5.6151      0.00000
    958       5.8172      0.00000
    959       5.8950      0.00000
    960       6.0108      0.00000

 soft charge-density along one line, spin component           1
         0         1         2         3         4         5         6         7         8         9
 total charge-density along one line

------------------------ aborting loop because EDIFF is reached ----------------------------------------

  FORCE on cell =-STRESS in cart. coord.  units (eV):
  Direction    XX          YY          ZZ          XY          YZ          ZX
  Alpha Z  1394.80054  1394.80054  1394.80054
  Ewald  487008.22575485627.98407************     0.00456   493.91026     0.00668
  Hartree516267.49001515076.26241************     0.00405   373.65268     0.00120
  E(xc)   -8211.95311 -8212.48453 -8219.64532     0.00002     0.38575     0.00002
  Local  ************************************    -0.00917  -860.99577    -0.00696
  n-local -8924.77316 -8927.60468 -9033.20408     0.00080    -0.34184     0.00069
  augment  3818.57955  3819.16711  3762.71231     0.00017    -3.03411    -0.00019
  Kinetic 23167.43431 23166.15192 23371.38939     0.00072    -3.06296     0.00008
  Fock        0.00000     0.00000     0.00000     0.00000     0.00000     0.00000
  Total    -118.65951  -119.57153    43.96956     0.00000     0.51401     0.00000
  in kB     -19.23912   -19.38700     7.12910     0.00000     0.08334     0.00000

 VOLUME and BASIS-vectors are now :
  energy-cutoff  :      520.00
  volume of cell :     9881.61
      direct lattice vectors                 reciprocal lattice vectors
    21.138852197  0.000000000  0.000000000     0.047306258  0.000000000  0.000000000
     0.000000000 21.138852197  0.000000000     0.000000000  0.047306258  0.000000000
     0.000000000  0.000000000 22.113885220     0.000000000  0.000000000  0.045220457

  length of vectors
    21.138852197 21.138852197 22.113885220     0.047306258  0.047306258  0.045220457

 FORCES acting on ions:
    Electron-Ion                     Ewald-Force                    Non-Local-Force
   0.207E-01 0.597E+03 -.197E+04   -.580E-02 -.593E+03 0.198E+04   0.000E+00 -.452E+01 -.260E+01
   -.599E+03 -.171E+03 -.204E+04   0.595E+03 0.168E+03 0.205E+04   0.420E+01 0.335E+01 -.643E+01
   0.599E+03 -.171E+03 -.204E+04   -.595E+03 0.168E+03 0.205E+04   -.420E+01 0.335E+01 -.643E+01
   -.167E-01 -.263E+03 -.243E+04   0.277E-02 0.258E+03 0.242E+04   0.000E+00 0.508E+01 0.739E+01
   0.683E+01 0.256E+01 0.935E+03   -.683E+01 -.257E+01 -.928E+03   0.168E-01 0.893E-02 -.619E+01
   0.150E+02 0.152E+02 0.940E+03   -.151E+02 -.153E+02 -.933E+03   0.504E-01 0.336E-01 -.619E+01
   0.108E+02 0.133E+02 -.917E+03   -.109E+02 -.133E+02 0.911E+03   0.232E-01 0.285E-02 0.610E+01
   0.140E+02 0.453E+01 -.916E+03   -.140E+02 -.455E+01 0.910E+03   0.247E-01 0.161E-01 0.611E+01
   0.128E+02 0.160E+02 0.940E+03   -.129E+02 -.160E+02 -.934E+03   0.448E-01 0.973E-02 -.620E+01
   0.361E+02 0.255E+02 0.958E+03   -.363E+02 -.255E+02 -.951E+03   0.165E+00 0.295E-01 -.624E+01
   0.262E+02 0.207E+02 -.910E+03   -.262E+02 -.207E+02 0.904E+03   0.321E-01 -.135E-01 0.609E+01
   0.323E+02 0.330E+02 -.908E+03   -.324E+02 -.330E+02 0.902E+03   0.814E-01 -.718E-03 0.608E+01
   0.238E+02 0.842E+01 0.950E+03   -.239E+02 -.842E+01 -.943E+03   0.765E-01 -.220E-02 -.622E+01
   0.515E+02 -.621E+01 0.972E+03   -.519E+02 0.623E+01 -.965E+03   0.282E+00 -.131E-01 -.630E+01
   0.376E+02 -.452E+01 -.905E+03   -.376E+02 0.452E+01 0.899E+03   0.191E-01 -.159E-02 0.607E+01
   0.827E+02 0.251E+02 -.885E+03   -.827E+02 -.251E+02 0.879E+03   0.869E-01 -.288E-01 0.601E+01
   0.211E+02 -.134E+02 0.948E+03   -.211E+02 0.134E+02 -.941E+03   0.678E-01 -.921E-02 -.621E+01
   0.278E+02 -.260E+02 0.951E+03   -.279E+02 0.260E+02 -.945E+03   0.788E-01 -.479E-01 -.621E+01
   0.207E+02 -.217E+02 -.912E+03   -.207E+02 0.217E+02 0.906E+03   0.268E-01 0.683E-02 0.609E+01
   0.684E+02 -.363E+02 -.891E+03   -.685E+02 0.363E+02 0.885E+03   0.140E+00 0.225E-01 0.604E+01
   0.100E+02 -.135E+02 0.938E+03   -.100E+02 0.135E+02 -.932E+03   0.211E-01 -.721E-02 -.619E+01
   0.122E+02 -.856E+01 0.938E+03   -.123E+02 0.856E+01 -.931E+03   0.239E-01 -.211E-02 -.619E+01
   0.888E+01 -.777E+01 -.918E+03   -.888E+01 0.777E+01 0.911E+03   0.111E-01 0.540E-02 0.611E+01
   0.232E+02 -.261E+02 -.912E+03   -.233E+02 0.262E+02 0.906E+03   0.222E-01 -.891E-02 0.610E+01
   0.120E+02 0.514E+01 0.940E+03   -.121E+02 -.519E+01 -.933E+03   0.311E-01 0.358E-01 -.619E+01
   0.110E+02 0.289E+02 0.950E+03   -.111E+02 -.291E+02 -.943E+03   0.420E-01 0.139E+00 -.620E+01
   0.217E+02 0.305E+02 -.910E+03   -.217E+02 -.305E+02 0.904E+03   0.513E-01 0.592E-01 0.609E+01
   0.968E+01 0.904E+01 -.912E+03   -.969E+01 -.911E+01 0.906E+03   0.178E-01 0.507E-01 0.610E+01
   0.276E+02 0.372E+02 0.958E+03   -.277E+02 -.374E+02 -.952E+03   0.133E+00 0.120E+00 -.621E+01
   0.374E+02 0.674E+02 0.101E+04   -.378E+02 -.679E+02 -.101E+04   0.316E+00 0.437E+00 -.622E+01
   0.834E+02 0.800E+02 -.870E+03   -.838E+02 -.800E+02 0.864E+03   0.311E+00 -.187E-01 0.597E+01
   0.325E+02 0.871E+02 -.884E+03   -.326E+02 -.874E+02 0.878E+03   0.931E-01 0.261E+00 0.606E+01
   0.681E+02 0.278E+02 0.101E+04   -.688E+02 -.280E+02 -.100E+04   0.561E+00 0.104E+00 -.643E+01
   0.584E+02 -.240E+02 0.109E+04   -.591E+02 0.244E+02 -.108E+04   0.508E+00 -.283E+00 -.509E+01
   0.182E+03 -.295E+02 -.787E+03   -.184E+03 0.294E+02 0.781E+03   0.139E+01 0.558E-01 0.582E+01
   0.184E+03 0.160E+03 -.639E+03   -.187E+03 -.162E+03 0.634E+03   0.237E+01 0.107E+01 0.486E+01
   0.543E+02 -.416E+02 0.995E+03   -.546E+02 0.418E+02 -.989E+03   0.264E+00 -.194E+00 -.624E+01
   0.231E+02 -.585E+02 0.983E+03   -.231E+02 0.589E+02 -.977E+03   0.572E-01 -.293E+00 -.628E+01
   0.527E+02 -.688E+02 -.887E+03   -.527E+02 0.689E+02 0.881E+03   0.392E-01 -.109E+00 0.604E+01
   0.902E+02 -.176E+03 -.761E+03   -.903E+02 0.177E+03 0.755E+03   0.896E-01 -.134E+01 0.589E+01
   0.193E+02 -.284E+02 0.949E+03   -.193E+02 0.284E+02 -.943E+03   0.373E-01 -.634E-01 -.621E+01
   0.832E+01 -.149E+02 0.944E+03   -.832E+01 0.149E+02 -.938E+03   0.157E-01 -.926E-02 -.620E+01
   0.162E+02 -.161E+02 -.913E+03   -.162E+02 0.161E+02 0.907E+03   0.195E-01 0.709E-02 0.610E+01
   0.182E+02 -.563E+02 -.899E+03   -.182E+02 0.563E+02 0.893E+03   0.154E-01 -.401E-01 0.608E+01
   0.151E-01 0.732E+01 0.943E+03   -.217E-03 -.740E+01 -.937E+03   0.000E+00 0.653E-01 -.620E+01
   -.110E+02 0.289E+02 0.950E+03   0.111E+02 -.291E+02 -.943E+03   -.420E-01 0.139E+00 -.620E+01
   0.152E-01 0.470E+02 -.904E+03   -.391E-03 -.472E+02 0.898E+03   0.000E+00 0.155E+00 0.609E+01
   -.965E+01 0.904E+01 -.912E+03   0.969E+01 -.911E+01 0.906E+03   -.178E-01 0.507E-01 0.610E+01
   0.154E-01 0.590E+02 0.977E+03   -.499E-03 -.596E+02 -.970E+03   0.000E+00 0.431E+00 -.625E+01
   -.374E+02 0.674E+02 0.101E+04   0.378E+02 -.679E+02 -.101E+04   -.316E+00 0.437E+00 -.622E+01
   0.172E-01 0.206E+03 -.775E+03   -.193E-02 -.210E+03 0.769E+03   0.000E+00 0.228E+01 0.629E+01
   -.324E+02 0.871E+02 -.884E+03   0.326E+02 -.874E+02 0.878E+03   -.931E-01 0.261E+00 0.606E+01
   0.163E-01 0.519E+02 0.111E+04   -.142E-02 -.523E+02 -.110E+04   0.000E+00 0.249E+00 -.385E+01
   -.584E+02 -.240E+02 0.109E+04   0.591E+02 0.244E+02 -.108E+04   -.508E+00 -.283E+00 -.509E+01
   0.175E-01 -.150E+03 -.465E+03   -.165E-02 0.154E+03 0.460E+03   0.000E+00 -.237E+01 0.469E+01
   -.184E+03 0.160E+03 -.639E+03   0.187E+03 -.162E+03 0.634E+03   -.237E+01 0.107E+01 0.486E+01
   0.160E-01 -.758E+02 0.105E+04   -.116E-02 0.766E+02 -.105E+04   0.000E+00 -.632E+00 -.639E+01
   -.230E+02 -.585E+02 0.983E+03   0.231E+02 0.589E+02 -.977E+03   -.572E-01 -.293E+00 -.628E+01
   0.161E-01 -.124E+03 -.857E+03   -.126E-02 0.124E+03 0.851E+03   0.000E+00 -.184E+00 0.601E+01
   -.901E+02 -.176E+03 -.761E+03   0.902E+02 0.177E+03 0.755E+03   -.896E-01 -.134E+01 0.589E+01
[...]
   -.139E+02 0.118E+02 0.712E+03   0.140E+02 -.118E+02 -.716E+03   -.512E-01 0.677E-02 0.356E+01
   0.716E-01 0.101E+02 0.706E+03   0.250E-03 -.101E+02 -.710E+03   0.000E+00 0.627E-02 0.358E+01
   -.264E+02 0.873E+01 -.682E+03   0.264E+02 -.872E+01 0.686E+03   -.286E-01 -.126E-01 -.377E+01
   0.711E-01 -.248E+01 -.685E+03   0.726E-03 0.248E+01 0.690E+03   0.000E+00 -.206E-02 -.374E+01
   -.187E+02 -.257E+01 0.716E+03   0.188E+02 0.257E+01 -.720E+03   -.533E-01 -.651E-02 0.355E+01
   0.714E-01 0.499E+01 0.711E+03   0.461E-03 -.499E+01 -.715E+03   0.000E+00 -.349E-02 0.356E+01
   -.230E+02 -.135E+02 -.683E+03   0.231E+02 0.135E+02 0.688E+03   -.277E-01 0.530E-02 -.375E+01
   0.714E-01 -.129E+02 -.688E+03   0.440E-03 0.129E+02 0.693E+03   0.000E+00 0.381E-02 -.372E+01
   -.112E+02 -.126E+02 0.710E+03   0.113E+02 0.126E+02 -.714E+03   -.377E-01 -.174E-01 0.357E+01
   0.714E-01 -.803E+01 0.710E+03   0.431E-03 0.804E+01 -.714E+03   0.000E+00 -.644E-02 0.357E+01
   -.963E+01 -.128E+02 -.689E+03   0.971E+01 0.128E+02 0.694E+03   -.185E-01 -.212E-02 -.371E+01
   0.717E-01 -.497E+01 -.691E+03   0.195E-03 0.496E+01 0.696E+03   0.000E+00 0.471E-02 -.370E+01
   -.537E+01 -.470E+01 0.704E+03   0.545E+01 0.470E+01 -.708E+03   -.168E-01 0.140E-02 0.358E+01
   0.716E-01 -.867E+01 0.705E+03   0.219E-03 0.867E+01 -.709E+03   0.000E+00 -.413E-02 0.358E+01
   0.875E+01 -.756E+01 0.105E+02   0.261E-11 0.227E-12 0.227E-10   0.888E-15 0.756E+01 -.110E+02

 POSITION                                       TOTAL-FORCE (eV/Angst)
      8.45555      8.82382     13.06192         0.000000     -0.506076      0.348436
     10.35658     10.31213     13.27893         0.468405      0.143429      0.374924
      6.55462     10.31214     13.27893        -0.468405      0.143429      0.374924
      8.45565     10.40011     14.68777         0.000000      0.240325      0.634622
      0.00000      0.00000      9.00000        -0.004723     -0.002496      0.092748
      2.11389      2.11389      9.00000        -0.014100     -0.009411      0.093626
      0.00000      2.11389     11.11389        -0.006286     -0.000764     -0.062941
      2.11389      0.00000     11.11389        -0.006952     -0.004390     -0.063143
      0.00000      4.22777      9.00000        -0.012043     -0.002691      0.095559
      2.11389      6.34166      9.00000        -0.044082     -0.007983      0.105221
      0.00000      6.34166     11.11389        -0.007531      0.004291     -0.052854
      2.11389      4.22777     11.11389        -0.021233      0.000647     -0.051128
      0.00000      8.45554      9.00000        -0.020720      0.000739      0.101078
      2.11389     10.56943      9.00000        -0.073220      0.003378      0.118474
      0.00000     10.56943     11.11389        -0.002499      0.000250     -0.045663
      2.11389      8.45554     11.11389        -0.015519      0.009924     -0.008179
      0.00000     12.68331      9.00000        -0.017978      0.002542      0.099768
      2.11389     14.79720      9.00000        -0.022140      0.013837      0.097516
      0.00000     14.79720     11.11389        -0.006663     -0.002026     -0.056831
      2.11389     12.68331     11.11389        -0.032301     -0.007661     -0.023145
      0.00000     16.91108      9.00000        -0.005912      0.002066      0.093993
      2.11389     19.02497      9.00000        -0.006777      0.000507      0.093495
      0.00000     19.02497     11.11389        -0.003089     -0.001568     -0.064312
      2.11389     16.91108     11.11389        -0.006107      0.001809     -0.057635
      4.22777      0.00000      9.00000        -0.008903     -0.009764      0.093361
      6.34166      2.11389      9.00000        -0.012437     -0.037552      0.095132
      4.22777      2.11389     11.11389        -0.014521     -0.015279     -0.056093
      6.34166      0.00000     11.11389        -0.005159     -0.013429     -0.059910
      4.22777      4.22777      9.00000        -0.037891     -0.034239      0.095914
      6.34166      6.34166      9.00000        -0.102680     -0.130267      0.077953
      4.22777      6.34166     11.11389        -0.073712      0.016168      0.018246
      6.34166      4.22777     11.11389        -0.028981     -0.066641     -0.032203
      4.22777      8.45554      9.00000        -0.154005     -0.035982      0.131197
      6.34166     10.56943      9.00000        -0.144489      0.091906     -0.183421
      4.22777     10.56943     11.11389        -0.456975     -0.019876      0.039058
      6.34166      8.45554     11.11389        -0.844801     -0.471890      0.037256
      4.22777     12.68331      9.00000        -0.080804      0.062129      0.093362
      6.34166     14.79720      9.00000        -0.015662      0.075882      0.113002
      4.22777     14.79720     11.11389        -0.009951      0.024735     -0.025602
      6.34166     12.68331     11.11389        -0.016582      0.435665      0.029850
      4.22777     16.91108      9.00000        -0.010624      0.016972      0.097512
      6.34166     19.02497      9.00000        -0.004522      0.002342      0.094934
      4.22777     19.02497     11.11389        -0.005505     -0.002322     -0.060369
      6.34166     16.91108     11.11389        -0.004362      0.007940     -0.047620
      8.45554      0.00000      9.00000         0.000000     -0.017411      0.093897
     10.56943      2.11389      9.00000         0.012437     -0.037552      0.095132
      8.45554      2.11389     11.11389         0.000000     -0.039255     -0.052201
     10.56943      0.00000     11.11389         0.005159     -0.013429     -0.059910
      8.45554      4.22777      9.00000         0.000000     -0.110441      0.101348
     10.56943      6.34166      9.00000         0.102680     -0.130267      0.077953
      8.45554      6.34166     11.11389         0.000000     -0.739882     -0.148683
     10.56943      4.22777     11.11389         0.028981     -0.066641     -0.032203
      8.45554      8.45554      9.00000         0.000000     -0.087612     -0.421345
     10.56943     10.56943      9.00000         0.144489      0.091906     -0.183421
      8.45554     10.56943     11.11389         0.000000      1.075646     -0.261291
     10.56943      8.45554     11.11389         0.844801     -0.471890      0.037256
      8.45554     12.68331      9.00000         0.000000      0.183707      0.109796
     10.56943     14.79720      9.00000         0.015662      0.075882      0.113002
      8.45554     14.79720     11.11389         0.000000      0.038276     -0.005786
     10.56943     12.68331     11.11389         0.016582      0.435665      0.029850
[...]
     19.02497      6.34166     11.11389         0.000000     -0.002951      0.453007
     16.91108      6.34166      9.00000        -0.014747      0.002015     -0.495906
     19.02497      4.22777      9.00000         0.000000      0.001731     -0.491846
     16.91108      8.45554     11.11389        -0.008613     -0.003447      0.441569
     19.02497     10.56943     11.11389         0.000000     -0.000525      0.449134
     16.91108     10.56943      9.00000        -0.016011     -0.001873     -0.500555
     19.02497      8.45554      9.00000         0.000000     -0.001048     -0.495718
     16.91108     12.68331     11.11389        -0.008299      0.001473      0.445509
     19.02497     14.79720     11.11389         0.000000      0.001229      0.455609
     16.91108     14.79720      9.00000        -0.010802     -0.004896     -0.493606
     19.02497     12.68331      9.00000         0.000000     -0.001668     -0.494674
     16.91108     16.91108     11.11389        -0.005233     -0.000502      0.457782
     19.02497     19.02497     11.11389         0.000000      0.001390      0.460922
     16.91108     19.02497      9.00000        -0.004736      0.000431     -0.490122
     19.02497     16.91108      9.00000         0.000000     -0.001087     -0.490840
    total drift:                                8.751232     -0.005956     -0.503531

  FREE ENERGIE OF THE ION-ELECTRON SYSTEM (eV)
  free  energy   TOTEN  =      -748.99487045 eV

  energy  without entropy=     -748.99487045  energy(sigma->0) =     -748.99487045