 vasp.6.3.0 20Jan22 (build Apr  1 2022 16:44:48) complex
 executed on        HPECrayEX_GCC date 2022.12.11  15:37:43

 INCAR:
   SYSTEM = MgO-rocksalt
   ISMEAR = 0
   SIGMA = 0.05
   EDIFF = 1E-6
   ALGO = ALL
   ISTART = 0
   IBRION = -1
   NSW = 0
   ISYM = 2
   DIPOL = 0.5 0.5 0.5
   IDIPOL = 3
   LDIPOL = .TRUE.
   GGA = PS
   IVDW = 13
   VDW_S8 = 1.71885698
   VDW_A1 = 0.47901421
   VDW_A2 = 5.96771589
   ENCUT = 520
   PREC = Accurate
   LASPH = .TRUE.
   LREAL = Auto
   ISPIN = 1
   NELM = 200
   NELMIN = 8
   NCORE = 4
   KPAR = 2
   LWAVE = .FALSE.
   LCHARG = .FALSE.

 POTCAR:    PAW_PBE Cu 22Jun2005
 POTCAR:    PAW_PBE Mg_pv 13Apr2007
 POTCAR:    PAW_PBE O 08Apr2002
 POTCAR:    PAW_PBE Cu 22Jun2005
   VRHFIN =Cu: d10 p1

   TITEL  = PAW_PBE Cu 22Jun2005
   POMASS =   63.546; ZVAL   =   11.000    mass and valenz
   ENMAX  =  295.446; ENMIN  =  221.585 eV

   TITEL  = PAW_PBE Mg_pv 13Apr2007
   POMASS =   24.305; ZVAL   =    8.000    mass and valenz
   ENMAX  =  403.929; ENMIN  =  302.947 eV

   TITEL  = PAW_PBE O 08Apr2002
   POMASS =   16.000; ZVAL   =    6.000    mass and valenz
   ENMAX  =  400.000; ENMIN  =  300.000 eV

 Optimization of the real space projectors (new method)

 maximal supplied QI-value         = 16.25
 optimisation between [QCUT,QGAM] = [ 11.54, 23.24] = [ 37.28,151.24] Ry
 Optimized for a Real-space Cutoff    1.53 Angstroem

   l    n(q)    QCUT    max X(q) W(low)/X(q) W(high)/X(q)  e(spline)
   2     10    11.539     4.610    0.96E-04    0.13E-03    0.19E-06
   2     10    11.539     8.522    0.16E-03    0.21E-03    0.28E-06
   0     11    11.539    51.609    0.45E-04    0.31E-04    0.11E-06
   0     11    11.539    27.747    0.39E-04    0.29E-04    0.10E-06
   1     10    11.539    20.408    0.70E-05    0.38E-04    0.18E-06
   1     10    11.539    13.425    0.66E-05    0.34E-04    0.17E-06
 Optimization of the real space projectors (new method)

[...]

   l    n(q)    QCUT    max X(q) W(low)/X(q) W(high)/X(q)  e(spline)
   1      8    11.527     2.974    0.44E-04    0.56E-04    0.12E-06
   1      8    11.527     4.279    0.12E-03    0.12E-03    0.26E-06
   0      9    11.527    16.381    0.46E-04    0.64E-04    0.78E-07
   0      9    11.527     5.611    0.26E-04    0.43E-04    0.55E-07
   2      8    11.527     4.652    0.22E-03    0.72E-04    0.47E-07
 Optimization of the real space projectors (new method)

 maximal supplied QI-value         = 24.76
 optimisation between [QCUT,QGAM] = [ 11.64, 23.27] = [ 37.91,151.63] Ry
 Optimized for a Real-space Cutoff    1.14 Angstroem

   l    n(q)    QCUT    max X(q) W(low)/X(q) W(high)/X(q)  e(spline)
   0      8    11.635    20.381    0.10E-03    0.33E-03    0.24E-06
   0      8    11.635    15.268    0.11E-03    0.35E-03    0.26E-06
   1      7    11.635     5.964    0.24E-03    0.31E-03    0.30E-06
   1      7    11.635     5.382    0.22E-03    0.25E-03    0.26E-06
|               ----> ADVICE to this user running VASP <----                  |
|     You enforced a specific xc type in the INCAR file but a different       |
|     type was found in the POTCAR file.                                      |
|     I HOPE YOU KNOW WHAT YOU ARE DOING!                                     |

  PAW_PBE Cu 22Jun2005                  :
  PAW_PBE Mg_pv 13Apr2007               :
  PAW_PBE O 08Apr2002                   :

 POSCAR: Cu Mg  O
  positions in direct lattice
|           W    W    AA    RRRRR   N    N  II  N    N   GGGG   !!!           |
|           W    W   A  A   R    R  NN   N  II  NN   N  G    G  !!!           |
|           W    W  A    A  R    R  N N  N  II  N N  N  G       !!!           |
|           W WW W  AAAAAA  RRRRR   N  N N  II  N  N N  G  GGG   !            |
|           WW  WW  A    A  R   R   N   NN  II  N   NN  G    G                |
|           W    W  A    A  R    R  N    N  II  N    N   GGGG   !!!           |
|     Specifying the vdW parameters                                           |
|     VDW_S8 = 1.719                                                          |
|     VDW_A1 = 0.479                                                          |
|     VDW_A2 = 5.968                                                          |
|     in the INCAR file will overwrite the defaults for pbesol. Please        |
|     make sure that is what you intended.                                    |

 ion  position               nearest neighbor table
   1  0.450  0.450  0.699-   2 2.23
   2  0.450  0.450  0.598-   1 2.23  53 2.59  54 2.59
   3  0.000  0.000  0.407- 105 2.11 106 2.11 121 2.11 186 2.11 103 2.11
   4  0.100  0.100  0.407- 105 2.11 106 2.11 110 2.11 125 2.11 104 2.11
   5  0.000  0.100  0.503- 103 2.11 104 2.11 107 2.11 184 2.11 105 2.11
   6  0.100  0.000  0.503- 103 2.11 104 2.11 120 2.11 123 2.11 106 2.11
   7  0.000  0.200  0.407- 109 2.11 105 2.11 110 2.11 190 2.11 107 2.11
   8  0.100  0.300  0.407- 110 2.11 109 2.11 114 2.11 129 2.11 108 2.11
   9  0.000  0.300  0.503- 107 2.11 108 2.11 111 2.11 188 2.11 109 2.11
  10  0.100  0.200  0.503- 108 2.11 107 2.11 104 2.11 127 2.11 110 2.11
  11  0.000  0.400  0.407- 109 2.11 113 2.11 114 2.11 194 2.11 111 2.11
  12  0.100  0.500  0.407- 113 2.11 114 2.11 118 2.11 133 2.11 112 2.11
  13  0.000  0.500  0.503- 111 2.11 112 2.11 115 2.11 192 2.11 113 2.11
  14  0.100  0.400  0.503- 108 2.11 111 2.11 112 2.11 131 2.11 114 2.11
  15  0.000  0.600  0.407- 113 2.11 117 2.11 118 2.11 198 2.11 115 2.11
  16  0.100  0.700  0.407- 122 2.11 118 2.11 117 2.11 137 2.11 116 2.11
  17  0.000  0.700  0.503- 119 2.11 116 2.11 115 2.11 196 2.11 117 2.11
  18  0.100  0.600  0.503- 112 2.11 115 2.11 116 2.11 135 2.11 118 2.11
  19  0.000  0.800  0.407- 117 2.11 121 2.11 122 2.11 202 2.11 119 2.11
  20  0.100  0.900  0.407- 106 2.11 121 2.11 122 2.11 141 2.11 120 2.11
  21  0.000  0.900  0.503- 103 2.11 119 2.11 120 2.11 200 2.11 121 2.11
  22  0.100  0.800  0.503- 116 2.11 119 2.11 120 2.11 139 2.11 122 2.11
  23  0.200  0.000  0.407- 126 2.11 125 2.11 106 2.11 141 2.11 123 2.11
  24  0.300  0.100  0.407- 125 2.11 126 2.11 130 2.11 145 2.11 124 2.11
  25  0.200  0.100  0.503- 124 2.11 123 2.11 104 2.11 127 2.11 125 2.11
  26  0.300  0.000  0.503- 123 2.11 124 2.11 140 2.11 143 2.11 126 2.11
  27  0.200  0.200  0.407- 129 2.11 130 2.11 110 2.11 125 2.11 127 2.11
  28  0.300  0.300  0.407- 129 2.11 130 2.11 134 2.11 149 2.11 128 2.11
  29  0.200  0.300  0.503- 127 2.11 128 2.11 108 2.11 131 2.11 129 2.11
  30  0.300  0.200  0.503- 127 2.11 128 2.11 124 2.11 147 2.11 130 2.11
  31  0.200  0.400  0.407- 134 2.11 129 2.11 133 2.11 114 2.11 131 2.11
  32  0.300  0.500  0.407- 133 2.11 134 2.11 138 2.11 153 2.11 132 2.11
  33  0.200  0.500  0.503- 132 2.11 131 2.11 112 2.11 135 2.11 133 2.11
  34  0.300  0.400  0.503- 131 2.11 128 2.11 132 2.11 151 2.11 134 2.11
  35  0.200  0.600  0.407- 138 2.11 133 2.11 137 2.11 118 2.11 135 2.11
  36  0.300  0.700  0.407- 137 2.11 142 2.11 138 2.11 157 2.11 136 2.11
  37  0.200  0.700  0.503- 136 2.11 139 2.11 116 2.11 135 2.11 137 2.11
  38  0.300  0.600  0.503- 135 2.11 132 2.11 136 2.11 155 2.11 138 2.11
  39  0.200  0.800  0.407- 137 2.11 142 2.11 141 2.11 122 2.11 139 2.11
  40  0.300  0.900  0.407- 141 2.11 126 2.11 142 2.11 161 2.11 140 2.11
  41  0.200  0.900  0.503- 140 2.11 123 2.11 139 2.11 120 2.11 141 2.11
  42  0.300  0.800  0.503- 136 2.11 139 2.11 140 2.11 159 2.11 142 2.11
  43  0.400  0.000  0.407- 126 2.11 145 2.11 146 2.11 161 2.11 143 2.11
  44  0.500  0.100  0.407- 145 2.11 146 2.11 150 2.11 165 2.11 144 2.11
  45  0.400  0.100  0.503- 124 2.11 143 2.11 144 2.11 147 2.11 145 2.11
  46  0.500  0.000  0.503- 143 2.11 144 2.11 160 2.11 163 2.11 146 2.11
  47  0.400  0.200  0.407- 149 2.11 145 2.11 130 2.11 150 2.11 147 2.11
  48  0.500  0.300  0.407- 150 2.11 149 2.11 154 2.11 169 2.11 148 2.11
  49  0.400  0.300  0.503- 147 2.11 128 2.11 148 2.11 151 2.11 149 2.11
  50  0.500  0.200  0.503- 148 2.11 147 2.11 144 2.11 167 2.11 150 2.11
  51  0.400  0.400  0.407- 134 2.11 149 2.11 153 2.11 154 2.11 151 2.11
  52  0.500  0.500  0.407- 153 2.11 154 2.11 158 2.11 173 2.11 152 2.11
  53  0.400  0.500  0.503- 132 2.11 151 2.11 152 2.11 155 2.11 153 2.11   2 2.59
  54  0.500  0.400  0.503- 148 2.11 151 2.11 152 2.11 171 2.11 154 2.11   2 2.59
  55  0.400  0.600  0.407- 138 2.11 153 2.11 157 2.11 158 2.11 155 2.11
  56  0.500  0.700  0.407- 162 2.11 158 2.11 157 2.11 177 2.11 156 2.11
  57  0.400  0.700  0.503- 159 2.11 155 2.11 156 2.11 136 2.11 157 2.11
  58  0.500  0.600  0.503- 152 2.11 155 2.11 156 2.11 175 2.11 158 2.11
  59  0.400  0.800  0.407- 157 2.11 142 2.11 161 2.11 162 2.11 159 2.11
  60  0.500  0.900  0.407- 146 2.11 161 2.11 162 2.11 181 2.11 160 2.11
[...]
 188  0.900  0.300  0.503-  90 2.11  89 2.11   9 2.11  94 2.11  88 2.11
 189  0.800  0.300  0.407-  68 2.11  87 2.11  88 2.11  91 2.11  89 2.11
 190  0.900  0.200  0.407-  88 2.11  84 2.11  87 2.11   7 2.11  90 2.11
 191  0.800  0.400  0.503-  74 2.11  89 2.11  93 2.11  94 2.11  91 2.11
 192  0.900  0.500  0.503-  13 2.11  93 2.11  94 2.11  98 2.11  92 2.11
 193  0.800  0.500  0.407-  72 2.11  91 2.11  92 2.11  95 2.11  93 2.11
 194  0.900  0.400  0.407-  11 2.11  88 2.11  91 2.11  92 2.11  94 2.11
 195  0.800  0.600  0.503-  78 2.11  93 2.11  97 2.11  98 2.11  95 2.11
 196  0.900  0.700  0.503- 102 2.11  97 2.11  98 2.11  17 2.11  96 2.11
 197  0.800  0.700  0.407-  76 2.11  99 2.11  96 2.11  95 2.11  97 2.11
 198  0.900  0.600  0.407-  15 2.11  92 2.11  95 2.11  96 2.11  98 2.11
 199  0.800  0.800  0.503-  82 2.11  97 2.11 101 2.11 102 2.11  99 2.11
 200  0.900  0.900  0.503-  21 2.11  86 2.11 101 2.11 102 2.11 100 2.11
 201  0.800  0.900  0.407-  80 2.11  83 2.11  99 2.11 100 2.11 101 2.11
 202  0.900  0.800  0.407-  96 2.11  19 2.11  99 2.11 100 2.11 102 2.11

  LATTYP: Found a simple tetragonal cell.
 ALAT       =    21.1388521970
 C/A-ratio  =     1.0461251639

  Lattice vectors:

 A1 = (  21.1388521970,   0.0000000000,   0.0000000000)
 A2 = (   0.0000000000,  21.1388521970,   0.0000000000)
 A3 = (   0.0000000000,   0.0000000000,  22.1138852197)

Analysis of symmetry for initial positions (statically):
 Subroutine PRICEL returns:
 Original cell was already a primitive cell.

 Routine SETGRP: Setting up the symmetry group for a
 simple tetragonal supercell.

 Subroutine GETGRP returns: Found  4 space group operations
 (whereof  2 operations were pure point group operations)
 out of a pool of 16 trial point group operations.

The static configuration has the point symmetry C_1h.
 The point group associated with its full space group is C_2v.

Analysis of symmetry for dynamics (positions and initial velocities):
 Subroutine PRICEL returns:
 Original cell was already a primitive cell.

 Routine SETGRP: Setting up the symmetry group for a
 simple tetragonal supercell.

 Subroutine GETGRP returns: Found  4 space group operations
 (whereof  2 operations were pure point group operations)
 out of a pool of 16 trial point group operations.

The dynamic configuration has the point symmetry C_1h.
 The point group associated with its full space group is C_2v.

 Subroutine INISYM returns: Found  4 space group operations
[...]
     54     -42.8434      2.00000
     55     -42.8424      2.00000
     56     -42.8423      2.00000
     57     -42.8421      2.00000
     58     -42.8418      2.00000
     59     -42.8407      2.00000
     60     -42.8406      2.00000
[...]
    882       5.2429      0.00000
    883       5.3133      0.00000
    884       5.3626      0.00000
    885       5.4265      0.00000
    886       5.4505      0.00000
    887       5.4563      0.00000
    888       5.4871      0.00000
    889       5.5449      0.00000
    890       5.5506      0.00000
    891       5.5869      0.00000
    892       5.5892      0.00000
    893       5.6039      0.00000
    894       5.6047      0.00000
    895       5.6289      0.00000
    896       5.6379      0.00000

 soft charge-density along one line, spin component           1
         0         1         2         3         4         5         6         7         8         9
 total charge-density along one line

------------------------ aborting loop because EDIFF is reached ----------------------------------------

  FORCE on cell =-STRESS in cart. coord.  units (eV):
  Direction    XX          YY          ZZ          XY          YZ          ZX
  Alpha Z  1354.41543  1354.41543  1354.41543
  Ewald  477360.44773477360.44773************   -13.54576    -0.00002     0.00002
  Hartree506189.11166506189.11161************    -3.76533    -0.00001     0.00001
  E(xc)   -7623.12473 -7623.12473 -7640.95524     0.00637     0.00000    -0.00000
  Local  ************************************    15.79410     0.00002    -0.00002
  n-local -8846.69032 -8846.69033 -8969.31693    -0.70060     0.00000    -0.00000
  augment  3403.65712  3403.65711  3337.96213     0.98554    -0.00000     0.00000
  Kinetic 22812.39529 22812.39529 23076.30295    -0.21562    -0.00000    -0.00000
  Fock        0.00000     0.00000     0.00000     0.00000     0.00000     0.00000
  vdW       -11.18829   -11.18829    -2.64583    -0.00094    -0.00000     0.00000
  Total    -208.69140  -208.69140   -11.82719    -1.44224    -0.00000     0.00000
  in kB     -33.83664   -33.83664    -1.91763    -0.23384    -0.00000     0.00000

 VOLUME and BASIS-vectors are now :
  energy-cutoff  :      520.00
  volume of cell :     9881.61
      direct lattice vectors                 reciprocal lattice vectors
    21.138852197  0.000000000  0.000000000     0.047306258  0.000000000  0.000000000
     0.000000000 21.138852197  0.000000000     0.000000000  0.047306258  0.000000000
     0.000000000  0.000000000 22.113885220     0.000000000  0.000000000  0.045220457

  length of vectors
    21.138852197 21.138852197 22.113885220     0.047306258  0.047306258  0.045220457

 FORCES acting on ions:
    Electron-Ion                     Ewald-Force                    Non-Local-Force
   0.227E-04 -.999E-04 -.196E+04   0.441E-07 -.340E-07 0.195E+04   -.847E-21 -.635E-21 0.134E+02
   0.159E-04 -.914E-04 -.185E+04   0.798E-05 -.860E-05 0.186E+04   0.000E+00 -.529E-22 -.106E+02
   0.175E+01 0.175E+01 0.931E+03   -.176E+01 -.176E+01 -.923E+03   0.416E-02 0.416E-02 -.769E+01
   0.621E+01 0.621E+01 0.933E+03   -.623E+01 -.623E+01 -.925E+03   0.167E-01 0.167E-01 -.769E+01
   0.286E+01 0.585E+01 -.922E+03   -.287E+01 -.585E+01 0.914E+03   0.931E-02 0.478E-02 0.766E+01
   0.585E+01 0.286E+01 -.922E+03   -.585E+01 -.287E+01 0.914E+03   0.478E-02 0.931E-02 0.766E+01
   0.317E+01 0.617E+01 0.933E+03   -.320E+01 -.618E+01 -.925E+03   0.171E-01 0.761E-02 -.769E+01
   0.129E+02 0.759E+01 0.938E+03   -.129E+02 -.760E+01 -.930E+03   0.611E-01 0.861E-02 -.770E+01
   0.604E+01 0.673E+01 -.920E+03   -.606E+01 -.673E+01 0.912E+03   0.163E-01 0.159E-02 0.765E+01
   0.126E+02 0.113E+02 -.919E+03   -.127E+02 -.113E+02 0.911E+03   0.318E-01 0.848E-02 0.765E+01
   0.513E+01 0.209E+01 0.936E+03   -.516E+01 -.209E+01 -.928E+03   0.199E-01 -.389E-03 -.770E+01
   0.158E+02 -.310E+01 0.941E+03   -.158E+02 0.312E+01 -.932E+03   0.534E-01 -.146E-01 -.771E+01
   0.738E+01 -.269E+01 -.919E+03   -.739E+01 0.270E+01 0.911E+03   0.247E-02 -.377E-02 0.765E+01
   0.242E+02 0.449E+01 -.914E+03   -.242E+02 -.448E+01 0.906E+03   0.379E-01 -.862E-02 0.764E+01
   0.433E+01 -.528E+01 0.935E+03   -.434E+01 0.528E+01 -.927E+03   0.270E-02 -.707E-02 -.770E+01
   0.915E+01 -.845E+01 0.935E+03   -.916E+01 0.847E+01 -.927E+03   0.118E-01 -.126E-01 -.770E+01
   0.429E+01 -.774E+01 -.921E+03   -.428E+01 0.774E+01 0.913E+03   -.554E-02 -.339E-02 0.765E+01
   0.190E+02 -.106E+02 -.916E+03   -.190E+02 0.106E+02 0.908E+03   0.354E-02 -.891E-02 0.765E+01
   0.226E+01 -.474E+01 0.932E+03   -.226E+01 0.475E+01 -.924E+03   -.200E-02 -.431E-02 -.769E+01
   0.474E+01 -.226E+01 0.932E+03   -.475E+01 0.226E+01 -.924E+03   0.431E-02 0.200E-02 -.769E+01
   0.215E+01 -.215E+01 -.923E+03   -.215E+01 0.215E+01 0.915E+03   -.772E-03 0.772E-03 0.766E+01
   0.808E+01 -.808E+01 -.921E+03   -.808E+01 0.808E+01 0.913E+03   0.337E-03 -.337E-03 0.765E+01
   0.617E+01 0.317E+01 0.933E+03   -.618E+01 -.320E+01 -.925E+03   0.761E-02 0.171E-01 -.769E+01
   0.759E+01 0.129E+02 0.938E+03   -.760E+01 -.129E+02 -.930E+03   0.861E-02 0.611E-01 -.770E+01
   0.113E+02 0.126E+02 -.919E+03   -.113E+02 -.127E+02 0.911E+03   0.848E-02 0.318E-01 0.765E+01
   0.673E+01 0.604E+01 -.920E+03   -.673E+01 -.606E+01 0.912E+03   0.159E-02 0.163E-01 0.765E+01
   0.133E+02 0.133E+02 0.940E+03   -.134E+02 -.134E+02 -.932E+03   0.494E-01 0.494E-01 -.770E+01
   0.226E+02 0.226E+02 0.961E+03   -.228E+02 -.228E+02 -.953E+03   0.148E+00 0.148E+00 -.770E+01
   0.338E+02 0.214E+02 -.906E+03   -.340E+02 -.214E+02 0.898E+03   0.132E+00 -.343E-02 0.764E+01
   0.214E+02 0.338E+02 -.906E+03   -.214E+02 -.340E+02 0.898E+03   -.343E-02 0.132E+00 0.764E+01
   0.265E+02 0.578E+01 0.953E+03   -.268E+02 -.577E+01 -.944E+03   0.221E+00 -.764E-02 -.776E+01
   0.330E+02 -.111E+02 0.977E+03   -.333E+02 0.113E+02 -.969E+03   0.227E+00 -.146E+00 -.780E+01
   0.483E+02 -.101E+02 -.898E+03   -.484E+02 0.102E+02 0.890E+03   0.522E-01 -.285E-01 0.761E+01
   0.849E+02 0.290E+02 -.852E+03   -.861E+02 -.289E+02 0.845E+03   0.965E+00 -.115E+00 0.754E+01
   0.204E+02 -.131E+02 0.947E+03   -.205E+02 0.131E+02 -.939E+03   0.606E-01 -.470E-01 -.772E+01
   0.131E+02 -.204E+02 0.947E+03   -.131E+02 0.205E+02 -.939E+03   0.470E-01 -.606E-01 -.772E+01
   0.198E+02 -.198E+02 -.914E+03   -.198E+02 0.198E+02 0.906E+03   0.658E-02 -.658E-02 0.764E+01
   0.464E+02 -.464E+02 -.884E+03   -.464E+02 0.464E+02 0.877E+03   0.508E-01 -.508E-01 0.757E+01
   0.845E+01 -.915E+01 0.935E+03   -.847E+01 0.916E+01 -.927E+03   0.126E-01 -.118E-01 -.770E+01
   0.528E+01 -.433E+01 0.935E+03   -.528E+01 0.434E+01 -.927E+03   0.707E-02 -.270E-02 -.770E+01
   0.774E+01 -.429E+01 -.921E+03   -.774E+01 0.428E+01 0.913E+03   0.339E-02 0.554E-02 0.765E+01
   0.106E+02 -.190E+02 -.916E+03   -.106E+02 0.190E+02 0.908E+03   0.891E-02 -.354E-02 0.765E+01
   0.209E+01 0.513E+01 0.936E+03   -.209E+01 -.516E+01 -.928E+03   -.389E-03 0.199E-01 -.770E+01
   -.310E+01 0.158E+02 0.941E+03   0.312E+01 -.158E+02 -.932E+03   -.146E-01 0.534E-01 -.771E+01
   0.449E+01 0.242E+02 -.914E+03   -.448E+01 -.242E+02 0.906E+03   -.862E-02 0.379E-01 0.764E+01
   -.269E+01 0.738E+01 -.919E+03   0.270E+01 -.739E+01 0.911E+03   -.377E-02 0.247E-02 0.765E+01
   0.578E+01 0.265E+02 0.953E+03   -.577E+01 -.268E+02 -.944E+03   -.764E-02 0.221E+00 -.776E+01
   -.111E+02 0.330E+02 0.977E+03   0.113E+02 -.333E+02 -.969E+03   -.146E+00 0.227E+00 -.780E+01
   0.290E+02 0.849E+02 -.852E+03   -.289E+02 -.861E+02 0.845E+03   -.115E+00 0.965E+00 0.754E+01
   -.101E+02 0.483E+02 -.898E+03   0.102E+02 -.484E+02 0.890E+03   -.285E-01 0.522E-01 0.761E+01
   0.186E+02 0.186E+02 0.101E+04   -.186E+02 -.186E+02 -.100E+04   -.445E-03 -.445E-03 -.669E+01
   -.186E+02 -.186E+02 0.101E+04   0.186E+02 0.186E+02 -.100E+04   0.445E-03 0.445E-03 -.669E+01
   0.889E+02 -.889E+02 -.717E+03   -.903E+02 0.903E+02 0.710E+03   0.776E+00 -.776E+00 0.604E+01
   -.889E+02 0.889E+02 -.717E+03   0.903E+02 -.903E+02 0.710E+03   -.776E+00 0.776E+00 0.604E+01
   0.111E+02 -.330E+02 0.977E+03   -.113E+02 0.333E+02 -.969E+03   0.146E+00 -.227E+00 -.780E+01
   -.578E+01 -.265E+02 0.953E+03   0.577E+01 0.268E+02 -.944E+03   0.764E-02 -.221E+00 -.776E+01
   0.101E+02 -.483E+02 -.898E+03   -.102E+02 0.484E+02 0.890E+03   0.285E-01 -.522E-01 0.761E+01
   -.290E+02 -.849E+02 -.852E+03   0.289E+02 0.861E+02 0.845E+03   0.115E+00 -.965E+00 0.754E+01
   0.310E+01 -.158E+02 0.941E+03   -.312E+01 0.158E+02 -.932E+03   0.146E-01 -.534E-01 -.771E+01
   -.209E+01 -.513E+01 0.936E+03   0.209E+01 0.516E+01 -.928E+03   0.389E-03 -.199E-01 -.770E+01
[...]
   -.968E+01 0.569E+01 0.705E+03   0.970E+01 -.570E+01 -.709E+03   -.238E-01 0.223E-01 0.354E+01
   -.240E+01 0.463E+01 0.701E+03   0.240E+01 -.464E+01 -.705E+03   0.101E-02 0.862E-02 0.355E+01
   -.182E+02 0.335E+01 -.687E+03   0.182E+02 -.336E+01 0.691E+03   -.231E-01 0.177E-01 -.365E+01
   -.553E+01 -.202E+01 -.690E+03   0.554E+01 0.202E+01 0.694E+03   -.112E-01 0.207E-02 -.362E+01
   -.118E+02 -.234E+01 0.707E+03   0.119E+02 0.234E+01 -.711E+03   -.520E-01 0.536E-02 0.354E+01
   -.386E+01 0.156E+01 0.703E+03   0.387E+01 -.157E+01 -.707E+03   -.861E-02 0.656E-02 0.355E+01
   -.143E+02 -.795E+01 -.688E+03   0.143E+02 0.796E+01 0.692E+03   -.383E-01 -.417E-02 -.364E+01
   -.320E+01 -.580E+01 -.692E+03   0.321E+01 0.581E+01 0.696E+03   -.133E-01 -.662E-02 -.361E+01
   -.685E+01 -.633E+01 0.703E+03   0.687E+01 0.635E+01 -.707E+03   -.358E-01 -.237E-01 0.355E+01
   -.324E+01 -.396E+01 0.703E+03   0.325E+01 0.396E+01 -.707E+03   -.176E-01 -.666E-02 0.355E+01
   -.605E+01 -.604E+01 -.692E+03   0.606E+01 0.606E+01 0.696E+03   -.177E-01 -.177E-01 -.361E+01
   -.161E+01 -.161E+01 -.694E+03   0.161E+01 0.161E+01 0.698E+03   -.419E-02 -.419E-02 -.361E+01
   -.355E+01 -.168E+01 0.700E+03   0.356E+01 0.169E+01 -.704E+03   -.923E-02 -.101E-01 0.356E+01
   -.168E+01 -.355E+01 0.700E+03   0.169E+01 0.356E+01 -.704E+03   -.101E-01 -.923E-02 0.356E+01
   -.300E-01 0.150E-01 0.378E+01   0.298E-12 0.127E-11 0.114E-10   0.989E-16 0.989E-16 -.422E+01

 POSITION                                       TOTAL-FORCE (eV/Angst)
      9.51248      9.51248     15.45078        -0.000000     -0.000000     -0.253737
      9.51248      9.51248     13.22359        -0.000000     -0.000000      0.002390
      0.00000      0.00000      9.00000        -0.001143     -0.001143      0.453657
      2.11389      2.11389      9.00000        -0.004631     -0.004631      0.454025
      0.00000      2.11389     11.11389        -0.002454     -0.001309     -0.442323
      2.11389      0.00000     11.11389        -0.001309     -0.002454     -0.442323
      0.00000      4.22777      9.00000        -0.004507     -0.002135      0.454481
      2.11389      6.34166      9.00000        -0.015951     -0.002499      0.456974
      0.00000      6.34166     11.11389        -0.004055     -0.000404     -0.440166
      2.11389      4.22777     11.11389        -0.008015     -0.002375     -0.439314
      0.00000      8.45554      9.00000        -0.005148      0.000136      0.455622
      2.11389     10.56943      9.00000        -0.014037      0.004284      0.458579
      0.00000     10.56943     11.11389        -0.000332      0.001059     -0.439291
      2.11389      8.45554     11.11389        -0.007741      0.002687     -0.433868
      0.00000     12.68331      9.00000        -0.000724      0.001956      0.455200
      2.11389     14.79720      9.00000        -0.003085      0.003345      0.455751
      0.00000     14.79720     11.11389         0.001555      0.000864     -0.441281
      2.11389     12.68331     11.11389         0.000076      0.002219     -0.435944
      0.00000     16.91108      9.00000         0.000540      0.001176      0.454050
      2.11389     19.02497      9.00000        -0.001176     -0.000540      0.454050
      0.00000     19.02497     11.11389         0.000214     -0.000214     -0.442876
      2.11389     16.91108     11.11389         0.000036     -0.000036     -0.441302
      4.22777      0.00000      9.00000        -0.002135     -0.004507      0.454481
      6.34166      2.11389      9.00000        -0.002499     -0.015951      0.456974
      4.22777      2.11389     11.11389        -0.002375     -0.008015     -0.439314
      6.34166      0.00000     11.11389        -0.000404     -0.004055     -0.440166
      4.22777      4.22777      9.00000        -0.013986     -0.013986      0.454735
      6.34166      6.34166      9.00000        -0.049303     -0.049303      0.446311
      4.22777      6.34166     11.11389        -0.030757      0.001365     -0.425312
      6.34166      4.22777     11.11389         0.001365     -0.030757     -0.425312
      4.22777      8.45554      9.00000        -0.054046      0.002619      0.470087
      6.34166     10.56943      9.00000        -0.062989      0.047383      0.471348
      4.22777     10.56943     11.11389        -0.008833      0.007861     -0.410261
      6.34166      8.45554     11.11389        -0.263320      0.048752     -0.322669
      4.22777     12.68331      9.00000        -0.016023      0.012672      0.462626
      6.34166     14.79720      9.00000        -0.012672      0.016023      0.462626
      4.22777     14.79720     11.11389        -0.000607      0.000607     -0.433544
      6.34166     12.68331     11.11389         0.000932     -0.000932     -0.378101
      4.22777     16.91108      9.00000        -0.003345      0.003085      0.455751
      6.34166     19.02497      9.00000        -0.001956      0.000724      0.455200
      4.22777     19.02497     11.11389        -0.000864     -0.001555     -0.441281
      6.34166     16.91108     11.11389        -0.002219     -0.000076     -0.435944
      8.45554      0.00000      9.00000         0.000136     -0.005148      0.455622
     10.56943      2.11389      9.00000         0.004284     -0.014037      0.458579
      8.45554      2.11389     11.11389         0.002687     -0.007741     -0.433868
     10.56943      0.00000     11.11389         0.001059     -0.000332     -0.439291
      8.45554      4.22777      9.00000         0.002619     -0.054046      0.470087
     10.56943      6.34166      9.00000         0.047383     -0.062989      0.471348
      8.45554      6.34166     11.11389         0.048752     -0.263320     -0.322669
     10.56943      4.22777     11.11389         0.007861     -0.008833     -0.410261
      8.45554      8.45554      9.00000         0.002538      0.002538      0.200789
     10.56943     10.56943      9.00000        -0.002538     -0.002538      0.200789
      8.45554     10.56943     11.11389        -0.586126      0.586126     -0.727976
     10.56943      8.45554     11.11389         0.586126     -0.586126     -0.727976
      8.45554     12.68331      9.00000        -0.047383      0.062989      0.471348
     10.56943     14.79720      9.00000        -0.002619      0.054046      0.470087
      8.45554     14.79720     11.11389        -0.007861      0.008833     -0.410261
     10.56943     12.68331     11.11389        -0.048752      0.263320     -0.322669
      8.45554     16.91108      9.00000        -0.004284      0.014037      0.458579
     10.56943     19.02497      9.00000        -0.000136      0.005148      0.455622
[...]
     19.02497      6.34166     11.11389         0.000290      0.001573      0.385183
     16.91108      6.34166      9.00000        -0.006540      0.006156     -0.403552
     19.02497      4.22777      9.00000         0.000284      0.002372     -0.400582
     16.91108      8.45554     11.11389        -0.006543      0.004886      0.377868
     19.02497     10.56943     11.11389        -0.003094      0.000573      0.384149
     16.91108     10.56943      9.00000        -0.014415      0.001419     -0.404298
     19.02497      8.45554      9.00000        -0.002374      0.001811     -0.401744
     16.91108     12.68331     11.11389        -0.010635     -0.001205      0.381081
     19.02497     14.79720     11.11389        -0.003660     -0.001820      0.386593
     16.91108     14.79720      9.00000        -0.009814     -0.006494     -0.400855
     19.02497     12.68331      9.00000        -0.004835     -0.001847     -0.401071
     16.91108     16.91108     11.11389        -0.004822     -0.004822      0.386821
     19.02497     19.02497     11.11389        -0.001140     -0.001140      0.388371
     16.91108     19.02497      9.00000        -0.002525     -0.002763     -0.399888
     19.02497     16.91108      9.00000        -0.002763     -0.002525     -0.399888
    total drift:                               -0.030025      0.015000     -0.435911

  FREE ENERGIE OF THE ION-ELECTRON SYSTEM (eV)
  free  energy   TOTEN  =     -1201.11300118 eV

  energy  without entropy=    -1201.11300118  energy(sigma->0) =    -1201.11300118