 vasp.6.4.0 14Feb23 (build Jul 14 2023 13:46:40) complex

 executed on             LinuxIFC date 2023.08.22  17:51:50

 INCAR:
   SYSTEM = MgO-rocksalt
   ISMEAR = 0
   SIGMA = 0.05
   EDIFF = 1E-6
   ALGO = ALL
   ISTART = 0
   IBRION = -1
   NSW = 0
   ISYM = 2
   DIPOL = 0.5 0.5 0.5
   IDIPOL = 3
   LDIPOL = .TRUE.
   GGA = PE
   ENCUT = 520
   PREC = Accurate
   LASPH = .TRUE.
   LREAL = Auto
   ISPIN = 1
   NELM = 200
   NELMIN = 8
   NCORE = 4
   KPAR = 2
   LWAVE = .FALSE.
   LCHARG = .FALSE.

 POTCAR:    PAW_PBE Au 04Oct2007
 POTCAR:    PAW_PBE Mg_pv 13Apr2007
 POTCAR:    PAW_PBE O 08Apr2002
 POTCAR:    PAW_PBE Au 04Oct2007
   VRHFIN =Au: s1d10

   TITEL  = PAW_PBE Au 04Oct2007
   POMASS =  196.966; ZVAL   =   11.000    mass and valenz
   ENMAX  =  229.943; ENMIN  =  172.457 eV

   TITEL  = PAW_PBE Mg_pv 13Apr2007
   POMASS =   24.305; ZVAL   =    8.000    mass and valenz
   ENMAX  =  403.929; ENMIN  =  302.947 eV

   TITEL  = PAW_PBE O 08Apr2002
   POMASS =   16.000; ZVAL   =    6.000    mass and valenz
   ENMAX  =  400.000; ENMIN  =  300.000 eV

 Optimization of the real space projectors (new method)

 maximal supplied QI-value         = 15.12
 optimisation between [QCUT,QGAM] = [ 11.64, 23.28] = [ 37.95,151.78] Ry
 Optimized for a Real-space Cutoff    1.49 Angstroem

   l    n(q)    QCUT    max X(q) W(low)/X(q) W(high)/X(q)  e(spline)
   2      9    11.641    60.898    0.24E-03    0.10E-03    0.19E-06
   2      9    11.641    58.894    0.25E-03    0.10E-03    0.19E-06
   0     10    11.641   109.617    0.73E-04    0.33E-04    0.11E-06
   0     10    11.641    75.026    0.71E-04    0.32E-04    0.11E-06
   1     10    11.641    16.344    0.27E-04    0.97E-04    0.16E-06
   1     10    11.641    10.160    0.23E-04    0.77E-04    0.13E-06
 Optimization of the real space projectors (new method)

[...]

   l    n(q)    QCUT    max X(q) W(low)/X(q) W(high)/X(q)  e(spline)
   1      8    11.527     2.974    0.44E-04    0.56E-04    0.12E-06
   1      8    11.527     4.279    0.12E-03    0.12E-03    0.26E-06
   0      9    11.527    16.381    0.46E-04    0.64E-04    0.78E-07
   0      9    11.527     5.611    0.26E-04    0.43E-04    0.55E-07
   2      8    11.527     4.652    0.22E-03    0.72E-04    0.47E-07
 Optimization of the real space projectors (new method)

 maximal supplied QI-value         = 24.76
 optimisation between [QCUT,QGAM] = [ 11.64, 23.27] = [ 37.91,151.63] Ry
 Optimized for a Real-space Cutoff    1.14 Angstroem

   l    n(q)    QCUT    max X(q) W(low)/X(q) W(high)/X(q)  e(spline)
   0      8    11.635    20.381    0.10E-03    0.33E-03    0.24E-06
   0      8    11.635    15.268    0.11E-03    0.35E-03    0.26E-06
   1      7    11.635     5.964    0.24E-03    0.31E-03    0.30E-06
   1      7    11.635     5.382    0.22E-03    0.25E-03    0.26E-06
  PAW_PBE Au 04Oct2007                  :
  PAW_PBE Mg_pv 13Apr2007               :
  PAW_PBE O 08Apr2002                   :

 POSCAR: Mg  O
  positions in direct lattice
  velocities in cartesian coordinates
 exchange correlation table for  LEXCH =        8
   RHO(1)=    0.500       N(1)  =     2000
   RHO(2)=  100.500       N(2)  =     4000

 ion  position               nearest neighbor table
   1  0.497  0.433  0.611-  11 2.69  17 2.70  13 2.70   3 2.72   4 2.75   8 2.77
   2  0.327  0.314  0.576- 246 2.40  14 2.68  13 2.69  19 2.72  11 2.75  67 2.86  52 3.06
   3  0.557  0.543  0.591-   9 2.69   8 2.71   1 2.72  17 2.74  91 3.04
   4  0.567  0.324  0.619-  17 2.68   7 2.69  15 2.70  13 2.70   6 2.74   1 2.75
   5  0.449  0.097  0.601-  10 2.64  19 2.70   7 2.80
   6  0.636  0.214  0.616-   7 2.69  15 2.70  16 2.71   4 2.74  10 2.75  20 2.75
   7  0.509  0.211  0.624-  19 2.66   4 2.69   6 2.69  10 2.73  13 2.75   5 2.80
   8  0.429  0.541  0.591-  11 2.67   3 2.71   1 2.77  71 2.92
   9  0.684  0.547  0.594-  18 2.65   3 2.69  17 2.71
  10  0.574  0.101  0.609-  16 2.62   5 2.64   7 2.73   6 2.75
  11  0.370  0.430  0.605-  14 2.64   8 2.67   1 2.69   2 2.75  13 2.78
  12  0.817  0.335  0.591-  18 2.65  15 2.68  20 2.73 107 2.86
  13  0.439  0.320  0.619-   2 2.69   4 2.70   1 2.70   7 2.75  19 2.75  11 2.78
  14  0.252  0.416  0.579- 249 2.61  11 2.64   2 2.68  52 2.69
  15  0.693  0.328  0.609-  12 2.68  17 2.69   4 2.70   6 2.70  20 2.74  18 2.80
  16  0.686  0.114  0.572- 282 2.25  10 2.62   6 2.71  20 2.75  83 2.90  88 2.95
  17  0.625  0.435  0.606-   4 2.68  15 2.69   1 2.70   9 2.71   3 2.74  18 2.77
  18  0.754  0.444  0.595-   9 2.65  12 2.65  17 2.77  15 2.80
  19  0.404  0.211  0.575- 265 2.26   7 2.66   5 2.70   2 2.72  13 2.75  67 3.02
  20  0.758  0.221  0.583- 305 2.69  12 2.73  15 2.74  16 2.75   6 2.75  88 2.87
  21  0.000  1.000  0.429- 321 2.09 221 2.11 239 2.11 224 2.11 304 2.12 223 2.12
  22  0.100  0.100  0.429- 322 2.09 222 2.11 224 2.11 223 2.11 243 2.12 228 2.12
  23  0.000  0.100  0.498- 223 2.07 302 2.11 221 2.11 222 2.11 225 2.12
  24  0.100  1.000  0.498- 224 2.07 238 2.11 241 2.11 221 2.11 222 2.12
  25  0.000  0.200  0.429- 325 2.09 225 2.11 223 2.11 227 2.11 228 2.12 308 2.12
  26  0.100  0.300  0.429- 326 2.09 232 2.11 228 2.11 227 2.11 226 2.11 247 2.12
  27  0.000  0.300  0.498- 227 2.07 306 2.11 229 2.11 225 2.11 226 2.12
  28  0.100  0.200  0.498- 228 2.07 245 2.11 225 2.11 222 2.11 226 2.12
  29  1.000  0.400  0.429- 329 2.09 312 2.10 229 2.11 231 2.11 227 2.12 232 2.13
  30  0.100  0.500  0.429- 330 2.09 230 2.11 231 2.11 236 2.11 251 2.11 232 2.12
  31  1.000  0.500  0.498- 231 2.07 310 2.10 233 2.11 230 2.12 229 2.12
  32  0.099  0.400  0.498- 232 2.07 229 2.09 230 2.10 249 2.11 226 2.12
  33  1.000  0.600  0.429- 333 2.09 233 2.10 316 2.11 235 2.11 236 2.12 231 2.12
  34  0.100  0.700  0.429- 334 2.09 234 2.11 235 2.11 255 2.11 240 2.12 236 2.12
  35  1.000  0.700  0.498- 235 2.07 314 2.11 233 2.12 234 2.12 237 2.12
  36  0.100  0.600  0.498- 236 2.07 233 2.11 253 2.11 234 2.11 230 2.12
  37  1.000  0.800  0.429- 337 2.09 237 2.11 320 2.11 235 2.11 240 2.11 239 2.12
  38  0.100  0.900  0.429- 338 2.09 238 2.11 240 2.11 259 2.11 239 2.11 224 2.12
  39  0.000  0.900  0.498- 239 2.07 237 2.11 318 2.11 238 2.11 221 2.12
  40  0.100  0.800  0.498- 240 2.07 237 2.11 257 2.11 234 2.11 238 2.12
  41  0.200  1.000  0.429- 341 2.09 241 2.11 259 2.11 224 2.11 244 2.12 243 2.12
  42  0.300  0.100  0.429- 342 2.09 263 2.10 244 2.11 242 2.11 243 2.11 248 2.12
  43  0.200  0.100  0.498- 243 2.07 241 2.10 222 2.11 242 2.11 245 2.12
  44  0.300  1.000  0.498- 244 2.07 258 2.11 242 2.11 241 2.11 261 2.12
  45  0.200  0.200  0.429- 345 2.09 228 2.11 243 2.11 245 2.11 248 2.12 247 2.12
  46  0.300  0.300  0.429- 346 2.08 252 2.10 267 2.10 247 2.11 248 2.11 246 2.13
  47  0.199  0.300  0.499- 226 2.08 247 2.09 245 2.11 246 2.12 249 2.13
  48  0.297  0.197  0.498- 248 2.06 245 2.07 242 2.07 265 2.13 246 2.14
  49  0.200  0.400  0.429- 349 2.08 251 2.10 232 2.10 252 2.10 247 2.11 249 2.18
  50  0.300  0.500  0.429- 250 2.07 350 2.09 271 2.10 256 2.11 251 2.12 252 2.13
  51  0.200  0.501  0.498- 251 2.07 253 2.10 230 2.11 250 2.11 249 2.13
  52  0.303  0.403  0.498- 252 2.06 269 2.07 250 2.07 249 2.20 246 2.21  14 2.69   2 3.06
  53  0.200  0.600  0.429- 353 2.09 253 2.10 256 2.11 236 2.11 255 2.11 251 2.13
  54  0.300  0.700  0.429- 354 2.09 254 2.10 275 2.11 256 2.11 255 2.12 260 2.12
  55  0.200  0.700  0.498- 255 2.07 254 2.11 234 2.11 253 2.12 257 2.12
  56  0.300  0.600  0.498- 256 2.08 250 2.10 273 2.11 254 2.11 253 2.12
  57  0.200  0.800  0.429- 357 2.09 257 2.11 260 2.11 240 2.11 255 2.11 259 2.12
  58  0.300  0.900  0.429- 358 2.09 258 2.11 260 2.11 279 2.11 259 2.11 244 2.12
  59  0.200  0.900  0.498- 259 2.07 257 2.11 258 2.11 238 2.11 241 2.12
  60  0.300  0.800  0.498- 260 2.07 277 2.11 254 2.11 257 2.12 258 2.12
[...]
 406  0.900  0.300  0.359- 106 2.09 208 2.11 207 2.11 127 2.11 212 2.11 206 2.11
 407  0.800  0.300  0.289- 186 2.11 205 2.11 206 2.11 209 2.11 207 2.11
 408  0.900  0.200  0.289- 206 2.11 202 2.11 205 2.11 125 2.11 208 2.11
 409  0.800  0.400  0.359- 109 2.09 192 2.11 207 2.11 211 2.11 212 2.11 209 2.11
 410  0.900  0.500  0.359- 110 2.09 131 2.11 211 2.11 212 2.11 216 2.11 210 2.11
 411  0.800  0.500  0.289- 190 2.11 209 2.11 210 2.11 213 2.11 211 2.11
 412  0.900  0.400  0.289- 129 2.11 206 2.11 209 2.11 210 2.11 212 2.11
 413  0.800  0.600  0.359- 113 2.09 196 2.11 211 2.11 215 2.11 216 2.11 213 2.11
 414  0.900  0.700  0.359- 114 2.09 220 2.11 215 2.11 216 2.11 135 2.11 214 2.11
 415  0.800  0.700  0.289- 194 2.11 217 2.11 214 2.11 213 2.11 215 2.11
 416  0.900  0.600  0.289- 133 2.11 210 2.11 213 2.11 214 2.11 216 2.11
 417  0.800  0.800  0.359- 117 2.09 200 2.11 215 2.11 219 2.11 220 2.11 217 2.11
 418  0.900  0.900  0.359- 118 2.09 139 2.11 204 2.11 219 2.11 220 2.11 218 2.11
 419  0.800  0.900  0.289- 198 2.11 201 2.11 217 2.11 218 2.11 219 2.11
 420  0.900  0.800  0.289- 214 2.11 137 2.11 217 2.11 218 2.11 220 2.11

  LATTYP: Found a simple tetragonal cell.
 ALAT       =    21.1388521970
 C/A-ratio  =     1.4191877459

  Lattice vectors:

 A1 = (  21.1388521970,   0.0000000000,   0.0000000000)
 A2 = (   0.0000000000,  21.1388521970,   0.0000000000)
 A3 = (   0.0000000000,   0.0000000000,  30.0000000000)

Analysis of symmetry for initial positions (statically):
 Subroutine PRICEL returns:
 Original cell was already a primitive cell.

 Routine SETGRP: Setting up the symmetry group for a
 simple tetragonal supercell.

 Subroutine GETGRP returns: Found  1 space group operations
 (whereof  1 operations were pure point group operations)
 out of a pool of 16 trial point group operations.

The static configuration has the point symmetry C_1 .

Analysis of symmetry for dynamics (positions and initial velocities):
 Subroutine PRICEL returns:
 Original cell was already a primitive cell.

[...]

The dynamic configuration has the point symmetry C_1 .

Analysis of constrained symmetry for selective dynamics:
 Subroutine PRICEL returns:
 Original cell was already a primitive cell.

 Routine SETGRP: Setting up the symmetry group for a
 simple tetragonal supercell.

 Subroutine GETGRP returns: Found  1 space group operations
 (whereof  1 operations were pure point group operations)
 out of a pool of 16 trial point group operations.

The constrained configuration has the point symmetry C_1 .

 Subroutine INISYM returns: Found  1 space group operations
 (whereof  1 operations are pure point group operations),
 and found     1 'primitive' translations

                                     Primitive cell

  volume of cell :   13405.5322

  direct lattice vectors                    reciprocal lattice vectors
    21.138852197  0.000000000  0.000000000     0.047306258  0.000000000  0.000000000
     0.000000000 21.138852197  0.000000000     0.000000000  0.047306258  0.000000000
     0.000000000  0.000000000 30.000000000     0.000000000  0.000000000  0.033333333

  length of vectors
    21.138852197 21.138852197 30.000000000     0.047306258  0.047306258  0.033333333

  position of ions in fractional coordinates (direct lattice)
     0.497307861  0.432900223  0.610914457
     0.327380804  0.314211214  0.576178778
     0.556883810  0.543372647  0.591093621
[...]
     52     -42.4701      2.00000
     53     -42.4669      2.00000
     54     -42.4656      2.00000
     55     -42.4645      2.00000
     56     -42.4629      2.00000
     57     -42.4618      2.00000
     58     -42.4604      2.00000
     59     -42.4595      2.00000
     60     -42.4575      2.00000
[...]
   1810       7.0239      0.00000
   1811       7.0489      0.00000
   1812       7.0675      0.00000
   1813       7.0729      0.00000
   1814       7.1029      0.00000
   1815       7.1146      0.00000
   1816       7.1296      0.00000
   1817       7.1520      0.00000
   1818       7.1638      0.00000
   1819       7.1760      0.00000
   1820       7.1795      0.00000
   1821       7.1948      0.00000
   1822       7.2074      0.00000
   1823       7.2283      0.00000
   1824       7.2508      0.00000

 soft charge-density along one line, spin component           1
         0         1         2         3         4         5         6         7         8         9
 total charge-density along one line

------------------------ aborting loop because EDIFF is reached ----------------------------------------

  FORCE on cell =-STRESS in cart. coord.  units (eV):
  Direction    XX          YY          ZZ          XY          YZ          ZX
  Alpha Z  4657.84619  4657.84619  4657.84619
  Ewald  ************************************  -511.30769    13.22784   166.51466
  Hartree************************************  -438.43699   -33.19057   133.06025
  E(xc)  -16345.84799-16346.33578-16382.87793    -0.20059     0.25159     0.11688
  Local  ************************************   949.32029    24.38052  -298.53192
  n-local-17582.92497-17576.75892-17637.91134    -0.54500    -2.01527    -0.55998
  augment  7872.63794  7875.47263  7858.54583     0.17368    -0.35803    -0.04307
  Kinetic 48700.26725 48707.47438 49037.71166     0.46796    -2.13105    -1.19418
  Fock        0.00000     0.00000     0.00000     0.00000     0.00000     0.00000
  Total     -84.38039   -84.88491   104.75424    -0.52834     0.16502    -0.63737
  in kB     -10.08482   -10.14512    12.51982    -0.06315     0.01972    -0.07618

 VOLUME and BASIS-vectors are now :
  energy-cutoff  :      520.00
  volume of cell :    13405.53
      direct lattice vectors                 reciprocal lattice vectors
    21.138852197  0.000000000  0.000000000     0.047306258  0.000000000  0.000000000
     0.000000000 21.138852197  0.000000000     0.000000000  0.047306258  0.000000000
     0.000000000  0.000000000 30.000000000     0.000000000  0.000000000  0.033333333

  length of vectors
    21.138852197 21.138852197 30.000000000     0.047306258  0.047306258  0.033333333

 FORCES acting on ions:
    Electron-Ion                     Ewald-Force                    Non-Local-Force
   0.140E+03 -.330E+03 -.368E+04   -.140E+03 0.328E+03 0.368E+04   0.725E-01 0.180E+01 0.288E+00
   0.682E+03 0.244E+03 -.365E+04   -.680E+03 -.243E+03 0.365E+04   -.205E+01 -.116E+01 -.207E+01
   0.649E+01 -.798E+03 -.364E+04   -.608E+01 0.796E+03 0.364E+04   -.452E+00 0.232E+01 -.619E+00
   -.332E+02 -.644E+01 -.366E+04   0.343E+02 0.633E+01 0.366E+04   -.106E+01 0.110E+00 0.239E+00
   0.456E+03 0.772E+03 -.365E+04   -.454E+03 -.769E+03 0.365E+04   -.265E+01 -.309E+01 0.404E+00
   -.272E+03 0.336E+03 -.374E+04   0.271E+03 -.335E+03 0.374E+04   0.641E+00 -.783E+00 0.348E+00
   0.183E+03 0.355E+03 -.377E+04   -.182E+03 -.354E+03 0.377E+04   -.947E+00 -.200E+01 0.940E+00
   0.400E+03 -.774E+03 -.366E+04   -.399E+03 0.771E+03 0.366E+04   -.133E+01 0.380E+01 -.553E+00
   -.416E+03 -.778E+03 -.368E+04   0.415E+03 0.775E+03 0.368E+04   0.142E+01 0.366E+01 0.486E-01
   -.569E+02 0.824E+03 -.367E+04   0.579E+02 -.822E+03 0.367E+04   -.104E+01 -.168E+01 0.106E+01
   0.516E+03 -.383E+03 -.375E+04   -.516E+03 0.383E+03 0.375E+04   0.187E+00 -.226E+00 0.544E+00
   -.858E+03 -.182E+02 -.370E+04   0.854E+03 0.187E+02 0.370E+04   0.488E+01 -.457E+00 -.126E+00
   0.370E+03 0.590E+02 -.379E+04   -.369E+03 -.590E+02 0.379E+04   -.512E+00 -.229E-01 0.126E+01
   0.737E+03 -.256E+03 -.378E+04   -.732E+03 0.254E+03 0.378E+04   -.564E+01 0.193E+01 -.135E+01
   -.395E+03 -.104E+02 -.370E+04   0.394E+03 0.102E+02 0.370E+04   0.141E+01 0.279E+00 -.477E-01
   -.429E+03 0.696E+03 -.363E+04   0.427E+03 -.694E+03 0.363E+04   0.208E+01 -.181E+01 -.308E+01
   -.196E+03 -.326E+03 -.366E+04   0.195E+03 0.325E+03 0.366E+04   0.152E+01 0.159E+01 -.366E+00
   -.679E+03 -.433E+03 -.366E+04   0.678E+03 0.432E+03 0.366E+04   0.115E+01 0.617E+00 -.643E-01
   0.546E+03 0.427E+03 -.353E+04   -.546E+03 -.426E+03 0.353E+04   -.306E+00 -.124E+01 -.271E+01
   -.696E+03 0.396E+03 -.365E+04   0.693E+03 -.395E+03 0.365E+04   0.257E+01 -.161E+01 -.172E+01
   -.265E+02 0.511E+02 -.696E+03   0.265E+02 -.513E+02 0.696E+03   -.472E-01 0.200E+00 -.370E+00
   0.237E+02 0.610E+02 -.674E+03   -.238E+02 -.612E+02 0.674E+03   0.717E-01 0.229E+00 -.373E+00
   -.612E+02 0.914E+02 -.233E+04   0.613E+02 -.916E+02 0.232E+04   -.237E-01 0.219E+00 0.656E+01
   0.262E+02 0.693E+02 -.236E+04   -.263E+02 -.696E+02 0.235E+04   -.774E-02 0.250E+00 0.658E+01
   -.416E+02 0.490E+02 -.642E+03   0.417E+02 -.490E+02 0.643E+03   -.436E-01 0.202E-01 -.361E+00
   0.396E+02 0.199E+02 -.625E+03   -.399E+02 -.199E+02 0.625E+03   0.270E+00 -.288E-01 -.300E+00
   -.867E+02 0.276E+02 -.228E+04   0.866E+02 -.274E+02 0.227E+04   0.132E+00 -.175E+00 0.649E+01
   0.598E+02 0.822E+02 -.231E+04   -.600E+02 -.825E+02 0.230E+04   0.156E+00 0.265E+00 0.654E+01
   -.417E+02 -.264E+02 -.626E+03   0.412E+02 0.266E+02 0.627E+03   0.541E+00 -.214E+00 -.402E+00
   0.395E+02 -.571E+02 -.644E+03   -.397E+02 0.574E+02 0.644E+03   0.149E+00 -.287E+00 -.373E+00
   -.550E+02 -.884E+02 -.230E+04   0.545E+02 0.887E+02 0.230E+04   0.442E+00 -.280E+00 0.655E+01
   0.989E+02 -.328E+02 -.226E+04   -.999E+02 0.332E+02 0.226E+04   0.872E+00 -.389E+00 0.644E+01
   -.237E+02 -.619E+02 -.679E+03   0.236E+02 0.620E+02 0.679E+03   0.173E+00 -.110E+00 -.429E+00
   0.194E+02 -.457E+02 -.702E+03   -.194E+02 0.458E+02 0.703E+03   0.227E-01 -.603E-01 -.401E+00
   -.277E+02 -.627E+02 -.236E+04   0.276E+02 0.627E+02 0.235E+04   0.128E+00 0.358E-01 0.658E+01
   0.489E+02 -.984E+02 -.233E+04   -.490E+02 0.987E+02 0.233E+04   0.120E+00 -.232E+00 0.657E+01
   -.169E+02 -.119E+02 -.715E+03   0.169E+02 0.118E+02 0.715E+03   0.208E-01 0.102E+00 -.390E+00
   0.139E+02 0.216E+02 -.714E+03   -.139E+02 -.218E+02 0.714E+03   -.288E-02 0.153E+00 -.377E+00
   -.284E+02 0.322E+02 -.237E+04   0.284E+02 -.324E+02 0.236E+04   0.206E-01 0.225E+00 0.658E+01
   0.197E+02 -.192E+02 -.237E+04   -.197E+02 0.191E+02 0.237E+04   0.154E-01 0.108E+00 0.658E+01
   0.549E+02 0.605E+02 -.680E+03   -.549E+02 -.608E+02 0.680E+03   0.592E-01 0.272E+00 -.383E+00
   0.991E+02 0.100E+03 -.584E+03   -.989E+02 -.101E+03 0.584E+03   -.167E+00 0.473E+00 -.241E+00
   0.131E+03 0.123E+03 -.230E+04   -.132E+03 -.124E+03 0.229E+04   0.294E+00 0.570E+00 0.655E+01
   0.131E+03 0.141E+03 -.229E+04   -.131E+03 -.142E+03 0.228E+04   0.188E+00 0.360E+00 0.654E+01
   0.948E+02 0.630E+02 -.599E+03   -.952E+02 -.634E+02 0.599E+03   0.335E+00 0.359E+00 -.196E+00
   0.128E+03 0.331E+02 -.477E+03   -.128E+03 -.330E+02 0.475E+03   -.561E-01 -.123E+00 0.133E+01
   0.234E+03 0.749E+02 -.217E+04   -.235E+03 -.756E+02 0.216E+04   0.120E+01 0.667E+00 0.654E+01
   0.256E+03 0.173E+03 -.207E+04   -.257E+03 -.175E+03 0.206E+04   0.163E+01 0.146E+01 0.635E+01
   0.108E+03 -.257E+02 -.567E+03   -.108E+03 0.260E+02 0.566E+03   0.910E-01 -.263E+00 0.172E+01
   0.108E+03 -.947E+02 -.513E+03   -.107E+03 0.954E+02 0.514E+03   -.428E+00 -.657E+00 -.875E+00
   0.192E+03 -.157E+03 -.219E+04   -.192E+03 0.159E+03 0.218E+04   0.927E-01 -.114E+01 0.619E+01
   0.235E+03 -.742E+02 -.187E+04   -.234E+03 0.766E+02 0.186E+04   -.162E+01 -.254E+01 0.394E+01
   0.699E+02 -.809E+02 -.645E+03   -.699E+02 0.813E+02 0.646E+03   -.124E-02 -.430E+00 -.431E+00
   0.630E+02 -.752E+02 -.657E+03   -.629E+02 0.752E+02 0.657E+03   -.862E-01 0.558E-01 -.429E+00
   0.757E+02 -.891E+02 -.234E+04   -.757E+02 0.892E+02 0.234E+04   -.556E-01 -.410E-01 0.658E+01
   0.159E+03 -.207E+03 -.222E+04   -.159E+03 0.207E+03 0.221E+04   -.586E-01 0.292E-01 0.656E+01
   0.404E+02 -.168E+02 -.704E+03   -.404E+02 0.168E+02 0.704E+03   -.140E-01 0.717E-01 -.396E+00
   0.565E+02 0.363E+02 -.678E+03   -.565E+02 -.365E+02 0.679E+03   -.118E-01 0.194E+00 -.412E+00
   0.617E+02 0.389E+02 -.236E+04   -.616E+02 -.391E+02 0.235E+04   -.397E-01 0.204E+00 0.658E+01
   0.757E+02 -.322E+02 -.234E+04   -.756E+02 0.320E+02 0.234E+04   -.694E-01 0.138E+00 0.658E+01
[...]
   -.248E+02 0.380E+01 0.197E+04   0.248E+02 -.373E+01 -.197E+04   0.201E-01 -.894E-01 0.350E+01
   -.199E+02 0.141E+02 0.195E+04   0.199E+02 -.141E+02 -.195E+04   0.955E-02 -.240E-01 0.353E+01
   -.473E+02 -.183E+02 0.793E+03   0.473E+02 0.184E+02 -.793E+03   0.875E-01 -.186E+00 -.297E-02
   -.345E+02 -.305E+02 0.747E+03   0.345E+02 0.306E+02 -.747E+03   0.113E+00 -.924E-01 -.584E-01
   -.222E+02 -.198E+02 0.196E+04   0.222E+02 0.199E+02 -.196E+04   0.416E-01 -.612E-01 0.343E+01
   -.200E+02 -.846E+01 0.195E+04   0.200E+02 0.852E+01 -.196E+04   0.572E-01 -.824E-01 0.348E+01
   -.351E+02 -.406E+02 0.748E+03   0.351E+02 0.406E+02 -.748E+03   0.358E-01 0.280E-01 -.105E+00
   -.227E+02 -.235E+02 0.713E+03   0.227E+02 0.235E+02 -.713E+03   0.421E-01 0.342E-01 -.203E-01
   -.166E+02 -.157E+02 0.193E+04   0.166E+02 0.157E+02 -.194E+04   0.214E-01 0.382E-01 0.344E+01
   -.155E+02 -.192E+02 0.193E+04   0.155E+02 0.192E+02 -.194E+04   0.467E-01 -.193E-01 0.344E+01
   -.251E+02 -.624E+01 0.716E+03   0.251E+02 0.617E+01 -.717E+03   0.107E-01 0.969E-01 -.483E-02
   -.220E+02 0.142E+02 0.708E+03   0.220E+02 -.143E+02 -.708E+03   -.134E-01 0.108E+00 0.294E-01
   -.158E+02 0.977E+01 0.193E+04   0.158E+02 -.983E+01 -.193E+04   -.618E-02 0.865E-01 0.349E+01
   -.125E+02 -.336E+01 0.192E+04   0.125E+02 0.332E+01 -.192E+04   0.112E-01 0.528E-01 0.346E+01
   0.114E+01 -.172E+01 0.114E+03   -.136E-11 -.157E-11 -.937E-10   -.113E+01 0.174E+01 -.114E+03

 POSITION                                       TOTAL-FORCE (eV/Angst)
     10.51252      9.15101     18.32743        -0.005882      0.036306      0.122959
      6.92045      6.64206     17.28536        -0.157557     -0.110670      0.084476
     11.77188     11.48627     17.73281        -0.014254      0.198019      0.065531
     11.98186      6.84217     18.56754        -0.010828      0.001786      0.118268
      9.49558      2.05370     18.03872        -0.179173     -0.210666      0.095994
     13.44926      4.53054     18.48838         0.041908     -0.031156      0.170913
     10.76652      4.44984     18.71409        -0.037428     -0.057511      0.201205
      9.06093     11.42659     17.71548        -0.115568      0.234844      0.082028
     14.45832     11.57043     17.82855         0.114780      0.265679      0.097660
     12.12695      2.12582     18.25604         0.012110     -0.208084      0.147408
      7.83084      9.09462     18.14771        -0.060816      0.059307      0.173523
     17.27713      7.08269     17.71669         0.301926     -0.017786      0.103343
      9.28057      6.75527     18.56493        -0.048239     -0.006593      0.198081
      5.32916      8.79641     17.37260        -0.282456      0.105544      0.152089
     14.65865      6.93076     18.26302         0.034652      0.020095      0.127356
     14.49440      2.40717     17.17487         0.160256     -0.170305      0.094100
     13.20884      9.19804     18.19064         0.030270      0.037006      0.098211
     15.94818      9.37726     17.84485         0.145901      0.089692      0.092096
      8.55037      4.45901     17.24022        -0.140521     -0.077286      0.044022
     16.01375      4.67646     17.49400         0.167230     -0.103084      0.079550
      0.00046     21.13805     12.86120         0.006471     -0.005905      0.040256
      2.11333      2.11286     12.86093        -0.005489     -0.008318      0.037792
      0.00190      2.11239     14.92792         0.034821     -0.019605      0.192143
      2.11320     21.13739     14.92762        -0.012020     -0.017932      0.189133
      0.00028      4.22783     12.86165         0.008025     -0.001236      0.043679
      2.11253      6.34168     12.86269        -0.015484     -0.003148      0.056774
      0.00132      6.34252     14.93084         0.034258      0.010942      0.221590
      2.11058      4.22478     14.92886        -0.050378     -0.041513      0.201248
     21.13656      8.45642     12.86159        -0.012221      0.008342      0.046001
      2.11291     10.57081     12.86170        -0.014163      0.013941      0.046096
     21.13700     10.57125     14.92895        -0.016344      0.022981      0.202106
      2.09767      8.45999     14.93447        -0.140569      0.032508      0.222823
     21.13812     12.68368     12.86184        -0.003632      0.001928      0.046436
      2.11381     14.79759     12.86162        -0.000903      0.003562      0.044491
     21.13868     14.79732     14.92777         0.001846      0.002608      0.191539
      2.11289     12.68498     14.92822        -0.013696      0.020847      0.196016
     21.13884     16.91071     12.86156         0.001068     -0.000996      0.043693
      2.11388     19.02440     12.86144        -0.000209     -0.002469      0.042408
      0.00045     19.02407     14.92762         0.008938     -0.008888      0.189234
      2.11386     16.91094     14.92765         0.000119      0.001001      0.190235
      4.22738     21.13738     12.86115        -0.004153     -0.012564      0.039295
      6.34327      2.10922     12.86119         0.011431     -0.057857      0.041184
      4.21927      2.10403     14.92873        -0.074139     -0.082950      0.209072
      6.33745     21.13347     14.92979        -0.056069     -0.068648      0.208442
      4.22396      4.22694     12.86045        -0.050905     -0.005992      0.035086
      6.34174      6.34076     12.85699         0.002406     -0.014729      0.000801
      4.19687      6.33335     14.96179        -0.022426     -0.037455      0.122375
      6.28185      4.17269     14.92914         0.068347      0.114282      0.218480
      4.22814      8.45668     12.85585         0.006923      0.014513      0.021561
      6.34590     10.57608     12.85773         0.039320      0.064533     -0.006572
      4.22498     10.58693     14.93003        -0.017017      0.148292      0.218417
      6.40078      8.51600     14.92621        -0.086289     -0.107516      0.144538
      4.22802     12.68549     12.86142        -0.000276      0.017514      0.043252
      6.34206     14.79731     12.86173        -0.000410      0.008352      0.044657
      4.22775     14.79790     14.92794        -0.003613      0.011126      0.192977
      6.34098     12.68591     14.93044        -0.024595      0.055026      0.219082
      4.22777     16.91086     12.86153        -0.000984      0.000398      0.043358
      6.34163     19.02395     12.86166        -0.001798     -0.007693      0.043562
      4.22733     19.02404     14.92768        -0.009940     -0.009834      0.189953
      6.34136     16.91081     14.92785        -0.008530      0.000094      0.192452
[...]
     19.02497      6.34166     10.77222         0.013335     -0.043372     -0.107023
     16.91108      6.34166      8.65833         0.005591     -0.024985     -0.530023
     19.02497      4.22777      8.65833         0.002557     -0.006789     -0.523100
     16.91108      8.45554     10.77222         0.028333     -0.058204     -0.124763
     19.02497     10.56943     10.77222         0.035954     -0.027401     -0.130140
     16.91108     10.56943      8.65833         0.011534     -0.017085     -0.548862
     19.02497      8.45554      8.65833         0.015965     -0.022990     -0.536185
     16.91108     12.68331     10.77222         0.011644      0.010467     -0.136206
     19.02497     14.79720     10.77222         0.012475      0.010233     -0.130342
     16.91108     14.79720      8.65833         0.005945      0.010660     -0.546964
     19.02497     12.68331      8.65833         0.012938     -0.005318     -0.545507
     16.91108     16.91108     10.77222         0.003355      0.028901     -0.128041
     19.02497     19.02497     10.77222        -0.004145      0.032540     -0.120938
     16.91108     19.02497      8.65833        -0.001767      0.024098     -0.533584
     19.02497     16.91108      8.65833         0.003088      0.014664     -0.541495
    total drift:                                0.015266      0.014147      0.008904

  FREE ENERGIE OF THE ION-ELECTRON SYSTEM (eV)
  free  energy   TOTEN  =     -2375.30831948 eV

  energy  without entropy=    -2375.30831946  energy(sigma->0) =    -2375.30831947