 vasp.6.3.0 20Jan22 (build Apr  1 2022 16:44:48) complex
 executed on        HPECrayEX_GCC date 2023.01.16  03:08:41

 INCAR:
   SYSTEM = MgO-rocksalt
   ISMEAR = 0
   SIGMA = 0.05
   EDIFF = 1E-6
   ALGO = ALL
   ISTART = 0
   IBRION = -1
   NSW = 0
   ISYM = 2
   DIPOL = 0.5 0.5 0.5
   IDIPOL = 3
   LDIPOL = .TRUE.
   LHFCALC = .TRUE.
   GGA = PE
   IVDW = 12
   VDW_S8 = 1.2177
   VDW_A1 = 0.4145
   VDW_A2 = 4.8593
   ENCUT = 520
   PREC = Accurate
   LASPH = .TRUE.
   LREAL = Auto
   ISPIN = 1
   NELM = 200
   NELMIN = 8
   NCORE = 4
   KPAR = 2
   LWAVE = .FALSE.
   LCHARG = .FALSE.

 POTCAR:    PAW_PBE Ag 02Apr2005
 POTCAR:    PAW_PBE Mg_pv 13Apr2007
 POTCAR:    PAW_PBE O 08Apr2002
|           W    W    AA    RRRRR   N    N  II  N    N   GGGG   !!!           |
|           W    W   A  A   R    R  NN   N  II  NN   N  G    G  !!!           |
|           W    W  A    A  R    R  N N  N  II  N N  N  G       !!!           |
|           W WW W  AAAAAA  RRRRR   N  N N  II  N  N N  G  GGG   !            |
|           WW  WW  A    A  R   R   N   NN  II  N   NN  G    G                |
|           W    W  A    A  R    R  N    N  II  N    N   GGGG   !!!           |
|     You have selected ISYM=2 for a HF type calculation. This will           |
|     symmetrize the charge density but not the exchange potential. I         |
|     suggest to use ISYM=3 instead. This uses symmetry to obtain the         |
|     orbitals at all k-points in the Brillouin zone, but does not apply      |
|     symmetry to the Hartree potential directly. The resultant charge        |
|     might have lower symmetry than the crystal but, at least, Hartree       |
|     and exchange are fully compatible.                                      |

   TITEL  = PAW_PBE Ag 02Apr2005
   POMASS =  107.868; ZVAL   =   11.000    mass and valenz
   ENMAX  =  249.844; ENMIN  =  187.383 eV

   TITEL  = PAW_PBE Mg_pv 13Apr2007
   POMASS =   24.305; ZVAL   =    8.000    mass and valenz
   ENMAX  =  403.929; ENMIN  =  302.947 eV

   TITEL  = PAW_PBE O 08Apr2002
   POMASS =   16.000; ZVAL   =    6.000    mass and valenz
   ENMAX  =  400.000; ENMIN  =  300.000 eV

 Optimization of the real space projectors (new method)

 maximal supplied QI-value         = 15.12
 optimisation between [QCUT,QGAM] = [ 11.64, 23.28] = [ 37.95,151.78] Ry
 Optimized for a Real-space Cutoff    1.45 Angstroem

   l    n(q)    QCUT    max X(q) W(low)/X(q) W(high)/X(q)  e(spline)
   2      9    11.641    53.897    0.22E-03    0.42E-04    0.28E-06
   2      9    11.641    52.416    0.23E-03    0.44E-04    0.29E-06
   0     10    11.641   122.045    0.51E-04    0.25E-04    0.16E-06
   0     10    11.641    73.629    0.49E-04    0.24E-04    0.16E-06
   1     10    11.641    15.255    0.99E-04    0.55E-04    0.11E-06
   1     10    11.641     9.562    0.81E-04    0.47E-04    0.95E-07
 Optimization of the real space projectors (new method)

[...]

   l    n(q)    QCUT    max X(q) W(low)/X(q) W(high)/X(q)  e(spline)
   1      8    11.527     2.974    0.44E-04    0.56E-04    0.12E-06
   1      8    11.527     4.279    0.12E-03    0.12E-03    0.26E-06
   0      9    11.527    16.381    0.46E-04    0.64E-04    0.78E-07
   0      9    11.527     5.611    0.26E-04    0.43E-04    0.55E-07
   2      8    11.527     4.652    0.22E-03    0.72E-04    0.47E-07
 Optimization of the real space projectors (new method)

 maximal supplied QI-value         = 24.76
 optimisation between [QCUT,QGAM] = [ 11.64, 23.27] = [ 37.91,151.63] Ry
 Optimized for a Real-space Cutoff    1.14 Angstroem

   l    n(q)    QCUT    max X(q) W(low)/X(q) W(high)/X(q)  e(spline)
   0      8    11.635    20.381    0.10E-03    0.33E-03    0.24E-06
   0      8    11.635    15.268    0.11E-03    0.35E-03    0.26E-06
   1      7    11.635     5.964    0.24E-03    0.31E-03    0.30E-06
   1      7    11.635     5.382    0.22E-03    0.25E-03    0.26E-06
  PAW_PBE Ag 02Apr2005                  :
  PAW_PBE Mg_pv 13Apr2007               :
  PAW_PBE O 08Apr2002                   :

 POSCAR: Ag Mg  O
  positions in direct lattice
  velocities in cartesian coordinates
 exchange correlation table for  LEXCH =        8
   RHO(1)=    0.500       N(1)  =     2000
   RHO(2)=  100.500       N(2)  =     4000

 ion  position               nearest neighbor table
   1  0.286  0.505  0.630-   2 2.73   3 2.73
   2  0.398  0.441  0.622-   3 2.68   4 2.73   1 2.73 153 2.78  55 2.91
   3  0.398  0.568  0.615- 157 2.59   2 2.68   1 2.73   4 2.73  55 2.88
   4  0.510  0.505  0.629-   2 2.73   3 2.73
   5  0.000  0.000  0.407- 107 2.11 108 2.11 123 2.11 188 2.11 105 2.11
   6  0.100  0.100  0.407- 107 2.11 108 2.11 112 2.11 127 2.11 106 2.11
   7  0.000  0.100  0.503- 105 2.11 106 2.11 109 2.11 186 2.11 107 2.11
   8  0.100  0.000  0.503- 105 2.11 106 2.11 122 2.11 125 2.11 108 2.11
   9  0.000  0.200  0.407- 111 2.11 107 2.11 112 2.11 192 2.11 109 2.11
  10  0.100  0.300  0.407- 112 2.11 111 2.11 116 2.11 131 2.11 110 2.11
  11  0.000  0.300  0.503- 109 2.11 110 2.11 113 2.11 190 2.11 111 2.11
  12  0.100  0.200  0.503- 110 2.11 109 2.11 106 2.11 129 2.11 112 2.11
  13  0.000  0.400  0.407- 111 2.11 115 2.11 116 2.11 196 2.11 113 2.11
  14  0.100  0.500  0.407- 115 2.11 116 2.11 120 2.11 135 2.11 114 2.11
  15  0.000  0.500  0.503- 113 2.11 114 2.11 117 2.11 194 2.11 115 2.11
  16  0.100  0.400  0.503- 110 2.11 113 2.11 114 2.11 133 2.11 116 2.11
  17  0.000  0.600  0.407- 115 2.11 119 2.11 120 2.11 200 2.11 117 2.11
  18  0.100  0.700  0.407- 124 2.11 120 2.11 119 2.11 139 2.11 118 2.11
  19  0.000  0.700  0.503- 121 2.11 118 2.11 117 2.11 198 2.11 119 2.11
  20  0.100  0.600  0.503- 114 2.11 117 2.11 118 2.11 137 2.11 120 2.11
  21  0.000  0.800  0.407- 119 2.11 123 2.11 124 2.11 204 2.11 121 2.11
  22  0.100  0.900  0.407- 108 2.11 123 2.11 124 2.11 143 2.11 122 2.11
  23  0.000  0.900  0.503- 105 2.11 121 2.11 122 2.11 202 2.11 123 2.11
  24  0.100  0.800  0.503- 118 2.11 121 2.11 122 2.11 141 2.11 124 2.11
  25  0.200  0.000  0.407- 128 2.11 127 2.11 108 2.11 143 2.11 125 2.11
  26  0.300  0.100  0.407- 127 2.11 128 2.11 132 2.11 147 2.11 126 2.11
  27  0.200  0.100  0.503- 126 2.11 125 2.11 106 2.11 129 2.11 127 2.11
  28  0.300  0.000  0.503- 125 2.11 126 2.11 142 2.11 145 2.11 128 2.11
  29  0.200  0.200  0.407- 131 2.11 132 2.11 112 2.11 127 2.11 129 2.11
  30  0.300  0.300  0.407- 131 2.11 132 2.11 136 2.11 151 2.11 130 2.11
  31  0.200  0.300  0.503- 129 2.11 130 2.11 110 2.11 133 2.11 131 2.11
  32  0.300  0.200  0.503- 129 2.11 130 2.11 126 2.11 149 2.11 132 2.11
  33  0.200  0.400  0.407- 136 2.11 131 2.11 135 2.11 116 2.11 133 2.11
  34  0.300  0.500  0.407- 135 2.11 136 2.11 140 2.11 155 2.11 134 2.11
  35  0.200  0.500  0.503- 134 2.11 133 2.11 114 2.11 137 2.11 135 2.11
  36  0.300  0.400  0.503- 133 2.11 130 2.11 134 2.11 153 2.11 136 2.11
  37  0.200  0.600  0.407- 140 2.11 135 2.11 139 2.11 120 2.11 137 2.11
  38  0.300  0.700  0.407- 139 2.11 144 2.11 140 2.11 159 2.11 138 2.11
  39  0.200  0.700  0.503- 138 2.11 141 2.11 118 2.11 137 2.11 139 2.11
  40  0.300  0.600  0.503- 137 2.11 134 2.11 138 2.11 157 2.11 140 2.11
  41  0.200  0.800  0.407- 139 2.11 144 2.11 143 2.11 124 2.11 141 2.11
  42  0.300  0.900  0.407- 143 2.11 128 2.11 144 2.11 163 2.11 142 2.11
  43  0.200  0.900  0.503- 142 2.11 125 2.11 141 2.11 122 2.11 143 2.11
  44  0.300  0.800  0.503- 138 2.11 141 2.11 142 2.11 161 2.11 144 2.11
  45  0.400  0.000  0.407- 128 2.11 147 2.11 148 2.11 163 2.11 145 2.11
  46  0.500  0.100  0.407- 147 2.11 148 2.11 152 2.11 167 2.11 146 2.11
  47  0.400  0.100  0.503- 126 2.11 145 2.11 146 2.11 149 2.11 147 2.11
  48  0.500  0.000  0.503- 145 2.11 146 2.11 162 2.11 165 2.11 148 2.11
  49  0.400  0.200  0.407- 151 2.11 147 2.11 132 2.11 152 2.11 149 2.11
  50  0.500  0.300  0.407- 152 2.11 151 2.11 156 2.11 171 2.11 150 2.11
  51  0.400  0.300  0.503- 149 2.11 130 2.11 150 2.11 153 2.11 151 2.11
  52  0.500  0.200  0.503- 150 2.11 149 2.11 146 2.11 169 2.11 152 2.11
  53  0.400  0.400  0.407- 136 2.11 151 2.11 155 2.11 156 2.11 153 2.11
  54  0.500  0.500  0.407- 155 2.11 156 2.11 160 2.11 175 2.11 154 2.11
  55  0.400  0.500  0.503- 134 2.11 153 2.11 154 2.11 157 2.11 155 2.11   3 2.88   2 2.91
  56  0.500  0.400  0.503- 150 2.11 153 2.11 154 2.11 173 2.11 156 2.11
  57  0.400  0.600  0.407- 140 2.11 155 2.11 159 2.11 160 2.11 157 2.11
  58  0.500  0.700  0.407- 164 2.11 160 2.11 159 2.11 179 2.11 158 2.11
  59  0.400  0.700  0.503- 161 2.11 157 2.11 158 2.11 138 2.11 159 2.11
  60  0.500  0.600  0.503- 154 2.11 157 2.11 158 2.11 177 2.11 160 2.11
[...]
 190  0.900  0.300  0.503-  92 2.11  91 2.11  11 2.11  96 2.11  90 2.11
 191  0.800  0.300  0.407-  70 2.11  89 2.11  90 2.11  93 2.11  91 2.11
 192  0.900  0.200  0.407-  90 2.11  86 2.11  89 2.11   9 2.11  92 2.11
 193  0.800  0.400  0.503-  76 2.11  91 2.11  95 2.11  96 2.11  93 2.11
 194  0.900  0.500  0.503-  15 2.11  95 2.11  96 2.11 100 2.11  94 2.11
 195  0.800  0.500  0.407-  74 2.11  93 2.11  94 2.11  97 2.11  95 2.11
 196  0.900  0.400  0.407-  13 2.11  90 2.11  93 2.11  94 2.11  96 2.11
 197  0.800  0.600  0.503-  80 2.11  95 2.11  99 2.11 100 2.11  97 2.11
 198  0.900  0.700  0.503- 104 2.11  99 2.11 100 2.11  19 2.11  98 2.11
 199  0.800  0.700  0.407-  78 2.11 101 2.11  98 2.11  97 2.11  99 2.11
 200  0.900  0.600  0.407-  17 2.11  94 2.11  97 2.11  98 2.11 100 2.11
 201  0.800  0.800  0.503-  84 2.11  99 2.11 103 2.11 104 2.11 101 2.11
 202  0.900  0.900  0.503-  23 2.11  88 2.11 103 2.11 104 2.11 102 2.11
 203  0.800  0.900  0.407-  82 2.11  85 2.11 101 2.11 102 2.11 103 2.11
 204  0.900  0.800  0.407-  98 2.11  21 2.11 101 2.11 102 2.11 104 2.11

  LATTYP: Found a simple tetragonal cell.
 ALAT       =    21.1388521970
 C/A-ratio  =     1.0461251639

  Lattice vectors:

 A1 = (  21.1388521970,   0.0000000000,   0.0000000000)
 A2 = (   0.0000000000,  21.1388521970,   0.0000000000)
 A3 = (   0.0000000000,   0.0000000000,  22.1138852197)

Analysis of symmetry for initial positions (statically):
 Subroutine PRICEL returns:
 Original cell was already a primitive cell.

 Routine SETGRP: Setting up the symmetry group for a
 simple tetragonal supercell.

 Subroutine GETGRP returns: Found  1 space group operations
 (whereof  1 operations were pure point group operations)
 out of a pool of 16 trial point group operations.

The static configuration has the point symmetry C_1 .

Analysis of symmetry for dynamics (positions and initial velocities):
 Subroutine PRICEL returns:
 Original cell was already a primitive cell.

[...]

The dynamic configuration has the point symmetry C_1 .

Analysis of constrained symmetry for selective dynamics:
 Subroutine PRICEL returns:
 Original cell was already a primitive cell.

 Routine SETGRP: Setting up the symmetry group for a
 simple tetragonal supercell.

 Subroutine GETGRP returns: Found  1 space group operations
 (whereof  1 operations were pure point group operations)
 out of a pool of 16 trial point group operations.

The constrained configuration has the point symmetry C_1 .

 Subroutine INISYM returns: Found  1 space group operations
 (whereof  1 operations are pure point group operations),
[...]
[...]
   1010       7.3807      0.00000
   1011       7.5567      0.00000
   1012       7.6068      0.00000
   1013       7.6133      0.00000
   1014       7.7012      0.00000
   1015       7.7788      0.00000
   1016       7.8661      0.00000
   1017       7.8912      0.00000
   1018       7.9253      0.00000
   1019       7.9429      0.00000
   1020       8.0344      0.00000
   1021       8.1452      0.00000
   1022       8.2696      0.00000
   1023       8.3297      0.00000
   1024       8.3686      0.00000

 soft charge-density along one line, spin component           1
         0         1         2         3         4         5         6         7         8         9
 total charge-density along one line

------------------------ aborting loop because EDIFF is reached ----------------------------------------

|           W    W    AA    RRRRR   N    N  II  N    N   GGGG   !!!           |
|           W    W   A  A   R    R  NN   N  II  NN   N  G    G  !!!           |
|           W    W  A    A  R    R  N N  N  II  N N  N  G       !!!           |
|           W WW W  AAAAAA  RRRRR   N  N N  II  N  N N  G  GGG   !            |
|           WW  WW  A    A  R   R   N   NN  II  N   NN  G    G                |
|           W    W  A    A  R    R  N    N  II  N    N   GGGG   !!!           |
|     Specifying the vdW parameters                                           |
|     VDW_A1 = 0.414                                                          |
|     VDW_A2 = 4.859                                                          |
|     VDW_S8 = 1.218                                                          |
|     in the INCAR file will overwrite the defaults for pbe0. Please make     |
|     sure that is what you intended.                                         |

         DFTD3 V3.0 Rev 1
 IVDW         = 12
 DF pbe0
 parameters
 VDW_S6       =    1.0000
 VDW_S8       =    1.2177
 VDW_A1       =    0.4145
 VDW_A2       =    4.8593
 k1-k3        =   16.0000    1.3333   -4.0000
 VDW_RADIUS   =   50.2022 A
 VDW_CNRADIUS =   21.1671 A
 Edisp (eV)  -33.36096

 E6    (eV) :   -16.4696
 E8    (eV) :   -16.8914
 % E8        : 50.63

 VOLUME and BASIS-vectors are now :
  energy-cutoff  :      520.00
  volume of cell :     9881.61
      direct lattice vectors                 reciprocal lattice vectors
    21.138852197  0.000000000  0.000000000     0.047306258  0.000000000  0.000000000
     0.000000000 21.138852197  0.000000000     0.000000000  0.047306258  0.000000000
     0.000000000  0.000000000 22.113885220     0.000000000  0.000000000  0.045220457

  length of vectors
    21.138852197 21.138852197 22.113885220     0.047306258  0.047306258  0.045220457

 FORCES acting on ions:
    Electron-Ion                     Ewald-Force                    Non-Local-Force
   0.481E+03 -.318E+01 -.207E+04   -.474E+03 0.321E+01 0.207E+04   -.613E+01 -.321E-01 0.449E-01
   0.199E+01 0.478E+03 -.206E+04   -.191E+01 -.471E+03 0.206E+04   -.697E-01 -.709E+01 0.662E-01
   -.109E+01 -.473E+03 -.205E+04   0.107E+01 0.466E+03 0.205E+04   0.322E-01 0.667E+01 -.192E+00
   -.481E+03 -.535E+00 -.207E+04   0.475E+03 0.553E+00 0.207E+04   0.623E+01 -.327E-01 -.654E-01
   0.656E+01 -.442E+00 0.937E+03   -.659E+01 0.445E+00 -.929E+03   0.149E-01 -.179E-02 -.710E+01
   0.126E+02 0.111E+02 0.941E+03   -.127E+02 -.111E+02 -.933E+03   0.314E-01 -.492E-03 -.711E+01
   0.948E+01 0.103E+02 -.919E+03   -.951E+01 -.103E+02 0.910E+03   0.158E-01 -.891E-02 0.705E+01
   0.134E+02 -.781E+00 -.918E+03   -.134E+02 0.786E+00 0.909E+03   0.271E-01 -.279E-02 0.705E+01
   0.107E+02 0.145E+02 0.942E+03   -.108E+02 -.145E+02 -.933E+03   0.208E-01 -.857E-02 -.711E+01
   0.290E+02 0.252E+02 0.957E+03   -.291E+02 -.251E+02 -.949E+03   0.689E-01 -.629E-02 -.713E+01
   0.229E+02 0.221E+02 -.911E+03   -.229E+02 -.221E+02 0.903E+03   0.118E-01 -.204E-01 0.704E+01
   0.259E+02 0.293E+02 -.911E+03   -.260E+02 -.292E+02 0.902E+03   0.471E-01 -.196E-01 0.705E+01
   0.213E+02 0.114E+02 0.952E+03   -.213E+02 -.114E+02 -.944E+03   0.248E-01 -.678E-02 -.712E+01
   0.473E+02 0.111E+01 0.976E+03   -.474E+02 -.112E+01 -.967E+03   0.851E-01 0.409E-02 -.716E+01
   0.382E+02 0.890E+00 -.903E+03   -.382E+02 -.892E+00 0.895E+03   -.132E-01 0.126E-02 0.703E+01
   0.719E+02 0.329E+02 -.884E+03   -.719E+02 -.328E+02 0.876E+03   0.260E-01 -.338E-01 0.701E+01
   0.218E+02 -.105E+02 0.953E+03   -.218E+02 0.105E+02 -.944E+03   0.278E-01 0.973E-02 -.712E+01
   0.303E+02 -.251E+02 0.959E+03   -.304E+02 0.251E+02 -.950E+03   0.825E-01 0.789E-02 -.713E+01
   0.239E+02 -.220E+02 -.911E+03   -.240E+02 0.220E+02 0.902E+03   0.140E-01 0.214E-01 0.704E+01
   0.747E+02 -.309E+02 -.882E+03   -.748E+02 0.308E+02 0.874E+03   0.309E-01 0.375E-01 0.701E+01
   0.112E+02 -.150E+02 0.942E+03   -.112E+02 0.150E+02 -.934E+03   0.243E-01 0.741E-02 -.711E+01
   0.130E+02 -.122E+02 0.942E+03   -.131E+02 0.123E+02 -.933E+03   0.352E-01 -.520E-02 -.711E+01
   0.982E+01 -.113E+02 -.918E+03   -.985E+01 0.112E+02 0.910E+03   0.174E-01 0.666E-02 0.705E+01
   0.274E+02 -.306E+02 -.910E+03   -.275E+02 0.306E+02 0.902E+03   0.556E-01 0.187E-01 0.704E+01
   0.112E+02 -.838E+00 0.942E+03   -.112E+02 0.846E+00 -.934E+03   0.310E-01 -.567E-02 -.711E+01
   0.854E+01 0.195E+02 0.949E+03   -.858E+01 -.196E+02 -.940E+03   0.270E-01 0.359E-01 -.711E+01
   0.174E+02 0.217E+02 -.913E+03   -.174E+02 -.218E+02 0.904E+03   0.384E-01 0.991E-02 0.705E+01
   0.894E+01 -.145E+01 -.913E+03   -.897E+01 0.146E+01 0.905E+03   0.217E-01 -.810E-02 0.705E+01
   0.207E+02 0.305E+02 0.956E+03   -.208E+02 -.305E+02 -.947E+03   0.661E-01 0.262E-01 -.711E+01
   0.247E+02 0.559E+02 0.995E+03   -.249E+02 -.561E+02 -.987E+03   0.129E+00 0.112E+00 -.707E+01
   0.597E+02 0.712E+02 -.877E+03   -.599E+02 -.712E+02 0.869E+03   0.166E+00 -.459E-01 0.701E+01
   0.217E+02 0.657E+02 -.893E+03   -.218E+02 -.658E+02 0.885E+03   0.624E-01 0.107E+00 0.706E+01
   0.519E+02 0.328E+02 0.100E+04   -.522E+02 -.328E+02 -.994E+03   0.200E+00 0.122E-01 -.719E+01
   0.471E+02 0.348E+01 0.107E+04   -.476E+02 -.354E+01 -.106E+04   0.282E+00 0.385E-01 -.717E+01
   0.154E+03 0.590E+01 -.776E+03   -.154E+03 -.590E+01 0.768E+03   0.226E+00 0.155E-02 0.661E+01
   0.103E+03 0.138E+03 -.726E+03   -.105E+03 -.138E+03 0.718E+03   0.780E+00 0.273E-01 0.658E+01
   0.538E+02 -.306E+02 0.101E+04   -.542E+02 0.306E+02 -.996E+03   0.237E+00 0.381E-02 -.719E+01
   0.264E+02 -.571E+02 0.100E+04   -.267E+02 0.573E+02 -.992E+03   0.160E+00 -.128E+00 -.706E+01
   0.643E+02 -.736E+02 -.874E+03   -.646E+02 0.735E+02 0.865E+03   0.206E+00 0.519E-01 0.700E+01
   0.113E+03 -.135E+03 -.707E+03   -.115E+03 0.135E+03 0.699E+03   0.104E+01 0.298E-01 0.639E+01
   0.219E+02 -.320E+02 0.957E+03   -.220E+02 0.320E+02 -.949E+03   0.797E-01 -.365E-01 -.711E+01
   0.891E+01 -.217E+02 0.950E+03   -.895E+01 0.218E+02 -.941E+03   0.311E-01 -.557E-01 -.711E+01
   0.182E+02 -.241E+02 -.912E+03   -.183E+02 0.242E+02 0.904E+03   0.434E-01 -.206E-01 0.705E+01
   0.236E+02 -.705E+02 -.891E+03   -.237E+02 0.707E+02 0.882E+03   0.757E-01 -.142E+00 0.705E+01
   -.178E+00 -.113E+01 0.946E+03   0.176E+00 0.115E+01 -.938E+03   0.101E-02 -.102E-01 -.711E+01
   -.886E+01 0.194E+02 0.949E+03   0.889E+01 -.194E+02 -.940E+03   -.252E-01 0.363E-01 -.711E+01
   -.283E+00 0.315E+02 -.908E+03   0.281E+00 -.316E+02 0.900E+03   0.106E-02 0.579E-01 0.706E+01
   -.928E+01 -.142E+01 -.913E+03   0.931E+01 0.143E+01 0.905E+03   -.199E-01 -.858E-02 0.705E+01
   -.334E+00 0.443E+02 0.968E+03   0.332E+00 -.445E+02 -.959E+03   0.149E-02 0.145E+00 -.710E+01
   -.255E+02 0.553E+02 0.995E+03   0.256E+02 -.555E+02 -.986E+03   -.123E+00 0.121E+00 -.707E+01
   -.132E+01 0.139E+03 -.826E+03   0.132E+01 -.140E+03 0.818E+03   0.375E-04 0.691E+00 0.718E+01
   -.224E+02 0.650E+02 -.894E+03   0.225E+02 -.651E+02 0.885E+03   -.597E-01 0.106E+00 0.706E+01
   -.929E+00 0.558E+02 0.106E+04   0.910E+00 -.560E+02 -.105E+04   0.125E-01 0.152E+00 -.630E+01
   -.485E+02 0.336E+01 0.107E+04   0.489E+02 -.342E+01 -.106E+04   -.272E+00 0.387E-01 -.713E+01
   -.348E+01 0.173E+02 -.519E+03   0.345E+01 -.177E+02 0.512E+03   0.316E-01 0.279E+00 0.542E+01
   -.105E+03 0.137E+03 -.730E+03   0.106E+03 -.137E+03 0.722E+03   -.753E+00 0.692E-01 0.659E+01
   -.104E+01 -.522E+02 0.107E+04   0.102E+01 0.523E+02 -.106E+04   0.134E-01 -.102E+00 -.600E+01
   -.273E+02 -.565E+02 0.999E+03   0.275E+02 0.567E+02 -.991E+03   -.153E+00 -.137E+00 -.706E+01
   -.166E+01 -.149E+03 -.814E+03   0.165E+01 0.151E+03 0.805E+03   0.406E-02 -.932E+00 0.722E+01
   -.115E+03 -.133E+03 -.712E+03   0.116E+03 0.133E+03 0.705E+03   -.101E+01 -.969E-02 0.643E+01
[...]
   -.114E+02 0.121E+02 0.711E+03   0.114E+02 -.121E+02 -.715E+03   -.245E-01 -.795E-02 0.306E+01
   0.178E+00 0.927E+01 0.706E+03   -.177E+00 -.926E+01 -.710E+03   -.196E-02 -.863E-02 0.307E+01
   -.236E+02 0.118E+02 -.681E+03   0.236E+02 -.118E+02 0.685E+03   -.117E-01 -.146E-01 -.318E+01
   0.590E+00 0.464E+00 -.684E+03   -.586E+00 -.466E+00 0.688E+03   -.543E-02 0.135E-02 -.317E+01
   -.172E+02 0.445E+00 0.717E+03   0.173E+02 -.447E+00 -.721E+03   -.237E-01 0.262E-02 0.305E+01
   0.339E+00 0.683E+01 0.711E+03   -.336E+00 -.683E+01 -.715E+03   -.415E-02 -.640E-02 0.306E+01
   -.242E+02 -.110E+02 -.681E+03   0.242E+02 0.110E+02 0.685E+03   -.137E-01 0.179E-01 -.318E+01
   0.403E+00 -.128E+02 -.687E+03   -.400E+00 0.128E+02 0.691E+03   -.386E-02 0.173E-01 -.316E+01
   -.118E+02 -.119E+02 0.712E+03   0.119E+02 0.119E+02 -.716E+03   -.282E-01 0.910E-02 0.306E+01
   0.357E+00 -.630E+01 0.712E+03   -.353E+00 0.629E+01 -.716E+03   -.440E-02 0.914E-02 0.306E+01
   -.108E+02 -.144E+02 -.688E+03   0.109E+02 0.144E+02 0.692E+03   -.212E-01 0.110E-01 -.315E+01
   0.177E+00 -.711E+01 -.691E+03   -.175E+00 0.711E+01 0.695E+03   -.163E-02 0.525E-02 -.314E+01
   -.560E+01 -.658E+01 0.705E+03   0.562E+01 0.658E+01 -.709E+03   -.206E-01 -.254E-03 0.307E+01
   0.197E+00 -.952E+01 0.706E+03   -.195E+00 0.951E+01 -.710E+03   -.228E-02 0.753E-02 0.307E+01
   0.365E-01 0.607E+00 0.111E+02   0.171E-11 0.114E-12 0.637E-11   -.167E-01 -.566E+00 -.101E+02

 POSITION                                       TOTAL-FORCE (eV/Angst)
      6.03778     10.68115     13.92861        -0.111471     -0.003578     -0.015209
      8.40302      9.32878     13.74873         0.002209     -0.090197     -0.028684
      8.40867     12.00204     13.60841         0.009253      0.098377     -0.047815
     10.77601     10.66514     13.90267         0.115773     -0.006706     -0.019696
      0.00000      0.00000      9.00000        -0.004768      0.000609      0.607656
      2.11389      2.11389      9.00000        -0.010042      0.000163      0.607705
      0.00000      2.11389     11.11389        -0.004897      0.002951     -0.588867
      2.11389      0.00000     11.11389        -0.008700      0.000897     -0.588585
      0.00000      4.22777      9.00000        -0.006303      0.002935      0.609347
      2.11389      6.34166      9.00000        -0.020222      0.002905      0.615264
      0.00000      6.34166     11.11389        -0.002473      0.007409     -0.583401
      2.11389      4.22777     11.11389        -0.013847      0.007077     -0.584020
      0.00000      8.45554      9.00000        -0.007019      0.002671      0.614083
      2.11389     10.56943      9.00000        -0.023776     -0.001266      0.626220
      0.00000     10.56943     11.11389         0.007037     -0.000326     -0.576168
      2.11389      8.45554     11.11389         0.004026      0.018035     -0.553267
      0.00000     12.68331      9.00000        -0.007908     -0.003548      0.614283
      2.11389     14.79720      9.00000        -0.024238     -0.003376      0.616201
      0.00000     14.79720     11.11389        -0.002990     -0.007717     -0.582612
      2.11389     12.68331     11.11389         0.002945     -0.019117     -0.550669
      0.00000     16.91108      9.00000        -0.007352     -0.002509      0.609537
      2.11389     19.02497      9.00000        -0.011254      0.001729      0.607745
      0.00000     19.02497     11.11389        -0.005374     -0.002173     -0.588623
      2.11389     16.91108     11.11389        -0.016256     -0.006827     -0.582729
      4.22777      0.00000      9.00000        -0.010183      0.001801      0.607050
      6.34166      2.11389      9.00000        -0.009107     -0.010793      0.606590
      4.22777      2.11389     11.11389        -0.012425     -0.002483     -0.587055
      6.34166      0.00000     11.11389        -0.007202      0.002474     -0.587824
      4.22777      4.22777      9.00000        -0.021431     -0.008370      0.607608
      6.34166      6.34166      9.00000        -0.045743     -0.036327      0.594308
      4.22777      6.34166     11.11389        -0.040834      0.027649     -0.550175
      6.34166      4.22777     11.11389        -0.020895     -0.028872     -0.583637
      4.22777      8.45554      9.00000        -0.055902      0.000311      0.632599
      6.34166     10.56943      9.00000        -0.095152     -0.013232      0.585181
      4.22777     10.56943     11.11389        -0.090463     -0.001889     -0.480943
      6.34166      8.45554     11.11389        -0.292087      0.009044     -0.429097
      4.22777     12.68331      9.00000        -0.065747     -0.005538      0.634310
      6.34166     14.79720      9.00000        -0.056977      0.042869      0.588161
      4.22777     14.79720     11.11389        -0.049805     -0.031838     -0.540348
      6.34166     12.68331     11.11389        -0.399065     -0.014274     -0.412650
      4.22777     16.91108      9.00000        -0.025860      0.011842      0.607453
      6.34166     19.02497      9.00000        -0.010484      0.016977      0.606556
      4.22777     19.02497     11.11389        -0.013975      0.005728     -0.586170
      6.34166     16.91108     11.11389        -0.025177      0.038790     -0.580753
      8.45554      0.00000      9.00000        -0.000336      0.003149      0.606855
     10.56943      2.11389      9.00000         0.008507     -0.010948      0.606575
      8.45554      2.11389     11.11389        -0.000339     -0.016422     -0.587679
     10.56943      0.00000     11.11389         0.006629      0.002624     -0.587853
      8.45554      4.22777      9.00000        -0.000478     -0.041238      0.605192
     10.56943      6.34166      9.00000         0.043886     -0.039258      0.595254
      8.45554      6.34166     11.11389         0.000728     -0.234574     -0.638174
     10.56943      4.22777     11.11389         0.019942     -0.028562     -0.583396
      8.45554      8.45554      9.00000        -0.004738     -0.033543      0.406154
     10.56943     10.56943      9.00000         0.091809     -0.013331      0.573644
      8.45554     10.56943     11.11389         0.002987     -0.128817     -0.644437
     10.56943      8.45554     11.11389         0.270487     -0.006081     -0.417804
      8.45554     12.68331      9.00000        -0.005065      0.020136      0.331183
     10.56943     14.79720      9.00000         0.054748      0.045792      0.588042
      8.45554     14.79720     11.11389        -0.000806      0.327029     -0.668515
     10.56943     12.68331     11.11389         0.373614     -0.000597     -0.409632
[...]
     19.02497      6.34166     11.11389        -0.001131     -0.005358      0.397258
     16.91108      6.34166      9.00000        -0.008259     -0.002555     -0.423177
     19.02497      4.22777      9.00000        -0.000646     -0.002837     -0.421111
     16.91108      8.45554     11.11389        -0.004511     -0.004623      0.391080
     19.02497     10.56943     11.11389        -0.001789      0.000482      0.393878
     16.91108     10.56943      9.00000        -0.008430      0.000905     -0.426705
     19.02497      8.45554      9.00000        -0.001373     -0.002137     -0.423861
     16.91108     12.68331     11.11389        -0.005218      0.005779      0.390554
     19.02497     14.79720     11.11389        -0.001273      0.005739      0.396808
     16.91108     14.79720      9.00000        -0.009506      0.002997     -0.423366
     19.02497     12.68331      9.00000        -0.001458      0.003097     -0.423970
     16.91108     16.91108     11.11389        -0.007125      0.003622      0.398097
     19.02497     19.02497     11.11389        -0.000540      0.001770      0.400760
     16.91108     19.02497      9.00000        -0.006833     -0.000050     -0.420297
     19.02497     16.91108      9.00000        -0.000755      0.002544     -0.421213
    total drift:                               -0.000173     -0.006388     -0.537216

  FREE ENERGIE OF THE ION-ELECTRON SYSTEM (eV)
  free  energy   TOTEN  =     -1460.16021983 eV

  energy  without entropy=    -1460.16021983  energy(sigma->0) =    -1460.16021983