 vasp.6.3.0 20Jan22 (build Apr  1 2022 16:44:48) complex
 executed on        HPECrayEX_GCC date 2023.01.17  00:23:37

 INCAR:
   SYSTEM = MgO-rocksalt
   ISMEAR = 0
   SIGMA = 0.05
   EDIFF = 1E-6
   ALGO = ALL
   ISTART = 0
   IBRION = -1
   NSW = 0
   ISYM = 2
   DIPOL = 0.5 0.5 0.5
   IDIPOL = 3
   LDIPOL = .TRUE.
   LHFCALC = .TRUE.
   HFSCREEN = 0.2
   GGA = PE
   IVDW = 13
   VDW_S8 = 1.19528249
   VDW_A1 = 0.38663183
   VDW_A2 = 5.19133469
   ENCUT = 520
   PREC = Accurate
   LASPH = .TRUE.
   LREAL = Auto
   ISPIN = 1
   NELM = 200
   NELMIN = 8
   NCORE = 4
   KPAR = 2
   LWAVE = .FALSE.
   LCHARG = .FALSE.

 POTCAR:    PAW_PBE Ag 02Apr2005
 POTCAR:    PAW_PBE Mg_pv 13Apr2007
 POTCAR:    PAW_PBE O 08Apr2002
|           W    W    AA    RRRRR   N    N  II  N    N   GGGG   !!!           |
|           W    W   A  A   R    R  NN   N  II  NN   N  G    G  !!!           |
|           W    W  A    A  R    R  N N  N  II  N N  N  G       !!!           |
|           W WW W  AAAAAA  RRRRR   N  N N  II  N  N N  G  GGG   !            |
|           WW  WW  A    A  R   R   N   NN  II  N   NN  G    G                |
|           W    W  A    A  R    R  N    N  II  N    N   GGGG   !!!           |
|     You have selected ISYM=2 for a HF type calculation. This will           |
|     symmetrize the charge density but not the exchange potential. I         |
|     suggest to use ISYM=3 instead. This uses symmetry to obtain the         |
|     orbitals at all k-points in the Brillouin zone, but does not apply      |
|     symmetry to the Hartree potential directly. The resultant charge        |
|     might have lower symmetry than the crystal but, at least, Hartree       |
|     and exchange are fully compatible.                                      |

   TITEL  = PAW_PBE Ag 02Apr2005
   POMASS =  107.868; ZVAL   =   11.000    mass and valenz
   ENMAX  =  249.844; ENMIN  =  187.383 eV

   TITEL  = PAW_PBE Mg_pv 13Apr2007
   POMASS =   24.305; ZVAL   =    8.000    mass and valenz
   ENMAX  =  403.929; ENMIN  =  302.947 eV

   TITEL  = PAW_PBE O 08Apr2002
   POMASS =   16.000; ZVAL   =    6.000    mass and valenz
   ENMAX  =  400.000; ENMIN  =  300.000 eV

 Optimization of the real space projectors (new method)

 maximal supplied QI-value         = 15.12
 optimisation between [QCUT,QGAM] = [ 11.64, 23.28] = [ 37.95,151.78] Ry
 Optimized for a Real-space Cutoff    1.45 Angstroem

   l    n(q)    QCUT    max X(q) W(low)/X(q) W(high)/X(q)  e(spline)
   2      9    11.641    53.897    0.22E-03    0.42E-04    0.28E-06
   2      9    11.641    52.416    0.23E-03    0.44E-04    0.29E-06
   0     10    11.641   122.045    0.51E-04    0.25E-04    0.16E-06
   0     10    11.641    73.629    0.49E-04    0.24E-04    0.16E-06
   1     10    11.641    15.255    0.99E-04    0.55E-04    0.11E-06
   1     10    11.641     9.562    0.81E-04    0.47E-04    0.95E-07
 Optimization of the real space projectors (new method)

[...]

   l    n(q)    QCUT    max X(q) W(low)/X(q) W(high)/X(q)  e(spline)
   1      8    11.527     2.974    0.44E-04    0.56E-04    0.12E-06
   1      8    11.527     4.279    0.12E-03    0.12E-03    0.26E-06
   0      9    11.527    16.381    0.46E-04    0.64E-04    0.78E-07
   0      9    11.527     5.611    0.26E-04    0.43E-04    0.55E-07
   2      8    11.527     4.652    0.22E-03    0.72E-04    0.47E-07
 Optimization of the real space projectors (new method)

 maximal supplied QI-value         = 24.76
 optimisation between [QCUT,QGAM] = [ 11.64, 23.27] = [ 37.91,151.63] Ry
 Optimized for a Real-space Cutoff    1.14 Angstroem

   l    n(q)    QCUT    max X(q) W(low)/X(q) W(high)/X(q)  e(spline)
   0      8    11.635    20.381    0.10E-03    0.33E-03    0.24E-06
   0      8    11.635    15.268    0.11E-03    0.35E-03    0.26E-06
   1      7    11.635     5.964    0.24E-03    0.31E-03    0.30E-06
   1      7    11.635     5.382    0.22E-03    0.25E-03    0.26E-06
  PAW_PBE Ag 02Apr2005                  :
  PAW_PBE Mg_pv 13Apr2007               :
  PAW_PBE O 08Apr2002                   :

 POSCAR: Ag Mg  O
  positions in direct lattice
  velocities in cartesian coordinates
|           W    W    AA    RRRRR   N    N  II  N    N   GGGG   !!!           |
|           W    W   A  A   R    R  NN   N  II  NN   N  G    G  !!!           |
|           W    W  A    A  R    R  N N  N  II  N N  N  G       !!!           |
|           W WW W  AAAAAA  RRRRR   N  N N  II  N  N N  G  GGG   !            |
|           WW  WW  A    A  R   R   N   NN  II  N   NN  G    G                |
|           W    W  A    A  R    R  N    N  II  N    N   GGGG   !!!           |
|     Specifying the vdW parameters                                           |
|     VDW_S8 = 1.195                                                          |
|     VDW_A1 = 0.387                                                          |
|     VDW_A2 = 5.191                                                          |
|     in the INCAR file will overwrite the defaults for hse06. Please         |
|     make sure that is what you intended.                                    |

 ion  position               nearest neighbor table
   1  0.404  0.596  0.628-   2 2.63   4 2.74 157 2.77
   2  0.317  0.683  0.613- 138 2.50   1 2.63  59 3.04  40 3.04
   3  0.583  0.417  0.613- 173 2.50   4 2.63  75 3.04  56 3.04
   4  0.496  0.504  0.628-   3 2.63   1 2.74 154 2.77
   5  0.000  0.000  0.407- 107 2.11 108 2.11 123 2.11 188 2.11 105 2.11
   6  0.100  0.100  0.407- 107 2.11 108 2.11 112 2.11 127 2.11 106 2.11
   7  0.000  0.100  0.503- 105 2.11 106 2.11 109 2.11 186 2.11 107 2.11
   8  0.100  0.000  0.503- 105 2.11 106 2.11 122 2.11 125 2.11 108 2.11
   9  0.000  0.200  0.407- 111 2.11 107 2.11 112 2.11 192 2.11 109 2.11
  10  0.100  0.300  0.407- 112 2.11 111 2.11 116 2.11 131 2.11 110 2.11
  11  0.000  0.300  0.503- 109 2.11 110 2.11 113 2.11 190 2.11 111 2.11
  12  0.100  0.200  0.503- 110 2.11 109 2.11 106 2.11 129 2.11 112 2.11
  13  0.000  0.400  0.407- 111 2.11 115 2.11 116 2.11 196 2.11 113 2.11
  14  0.100  0.500  0.407- 115 2.11 116 2.11 120 2.11 135 2.11 114 2.11
  15  0.000  0.500  0.503- 113 2.11 114 2.11 117 2.11 194 2.11 115 2.11
  16  0.100  0.400  0.503- 110 2.11 113 2.11 114 2.11 133 2.11 116 2.11
  17  0.000  0.600  0.407- 115 2.11 119 2.11 120 2.11 200 2.11 117 2.11
  18  0.100  0.700  0.407- 124 2.11 120 2.11 119 2.11 139 2.11 118 2.11
  19  0.000  0.700  0.503- 121 2.11 118 2.11 117 2.11 198 2.11 119 2.11
  20  0.100  0.600  0.503- 114 2.11 117 2.11 118 2.11 137 2.11 120 2.11
  21  0.000  0.800  0.407- 119 2.11 123 2.11 124 2.11 204 2.11 121 2.11
  22  0.100  0.900  0.407- 108 2.11 123 2.11 124 2.11 143 2.11 122 2.11
  23  0.000  0.900  0.503- 105 2.11 121 2.11 122 2.11 202 2.11 123 2.11
  24  0.100  0.800  0.503- 118 2.11 121 2.11 122 2.11 141 2.11 124 2.11
  25  0.200  0.000  0.407- 128 2.11 127 2.11 108 2.11 143 2.11 125 2.11
  26  0.300  0.100  0.407- 127 2.11 128 2.11 132 2.11 147 2.11 126 2.11
  27  0.200  0.100  0.503- 126 2.11 125 2.11 106 2.11 129 2.11 127 2.11
  28  0.300  0.000  0.503- 125 2.11 126 2.11 142 2.11 145 2.11 128 2.11
  29  0.200  0.200  0.407- 131 2.11 132 2.11 112 2.11 127 2.11 129 2.11
  30  0.300  0.300  0.407- 131 2.11 132 2.11 136 2.11 151 2.11 130 2.11
  31  0.200  0.300  0.503- 129 2.11 130 2.11 110 2.11 133 2.11 131 2.11
  32  0.300  0.200  0.503- 129 2.11 130 2.11 126 2.11 149 2.11 132 2.11
  33  0.200  0.400  0.407- 136 2.11 131 2.11 135 2.11 116 2.11 133 2.11
  34  0.300  0.500  0.407- 135 2.11 136 2.11 140 2.11 155 2.11 134 2.11
  35  0.200  0.500  0.503- 134 2.11 133 2.11 114 2.11 137 2.11 135 2.11
  36  0.300  0.400  0.503- 133 2.11 130 2.11 134 2.11 153 2.11 136 2.11
  37  0.200  0.600  0.407- 140 2.11 135 2.11 139 2.11 120 2.11 137 2.11
  38  0.300  0.700  0.407- 139 2.11 144 2.11 140 2.11 159 2.11 138 2.11
  39  0.200  0.700  0.503- 138 2.11 141 2.11 118 2.11 137 2.11 139 2.11
  40  0.300  0.600  0.503- 137 2.11 134 2.11 138 2.11 157 2.11 140 2.11   2 3.04
  41  0.200  0.800  0.407- 139 2.11 144 2.11 143 2.11 124 2.11 141 2.11
  42  0.300  0.900  0.407- 143 2.11 128 2.11 144 2.11 163 2.11 142 2.11
  43  0.200  0.900  0.503- 142 2.11 125 2.11 141 2.11 122 2.11 143 2.11
  44  0.300  0.800  0.503- 138 2.11 141 2.11 142 2.11 161 2.11 144 2.11
  45  0.400  0.000  0.407- 128 2.11 147 2.11 148 2.11 163 2.11 145 2.11
  46  0.500  0.100  0.407- 147 2.11 148 2.11 152 2.11 167 2.11 146 2.11
  47  0.400  0.100  0.503- 126 2.11 145 2.11 146 2.11 149 2.11 147 2.11
  48  0.500  0.000  0.503- 145 2.11 146 2.11 162 2.11 165 2.11 148 2.11
  49  0.400  0.200  0.407- 151 2.11 147 2.11 132 2.11 152 2.11 149 2.11
  50  0.500  0.300  0.407- 152 2.11 151 2.11 156 2.11 171 2.11 150 2.11
  51  0.400  0.300  0.503- 149 2.11 130 2.11 150 2.11 153 2.11 151 2.11
  52  0.500  0.200  0.503- 150 2.11 149 2.11 146 2.11 169 2.11 152 2.11
  53  0.400  0.400  0.407- 136 2.11 151 2.11 155 2.11 156 2.11 153 2.11
  54  0.500  0.500  0.407- 155 2.11 156 2.11 160 2.11 175 2.11 154 2.11
  55  0.400  0.500  0.503- 134 2.11 153 2.11 154 2.11 157 2.11 155 2.11
  56  0.500  0.400  0.503- 150 2.11 153 2.11 154 2.11 173 2.11 156 2.11   3 3.04
  57  0.400  0.600  0.407- 140 2.11 155 2.11 159 2.11 160 2.11 157 2.11
  58  0.500  0.700  0.407- 164 2.11 160 2.11 159 2.11 179 2.11 158 2.11
  59  0.400  0.700  0.503- 161 2.11 157 2.11 158 2.11 138 2.11 159 2.11   2 3.04
  60  0.500  0.600  0.503- 154 2.11 157 2.11 158 2.11 177 2.11 160 2.11
[...]
 190  0.900  0.300  0.503-  92 2.11  91 2.11  11 2.11  96 2.11  90 2.11
 191  0.800  0.300  0.407-  70 2.11  89 2.11  90 2.11  93 2.11  91 2.11
 192  0.900  0.200  0.407-  90 2.11  86 2.11  89 2.11   9 2.11  92 2.11
 193  0.800  0.400  0.503-  76 2.11  91 2.11  95 2.11  96 2.11  93 2.11
 194  0.900  0.500  0.503-  15 2.11  95 2.11  96 2.11 100 2.11  94 2.11
 195  0.800  0.500  0.407-  74 2.11  93 2.11  94 2.11  97 2.11  95 2.11
 196  0.900  0.400  0.407-  13 2.11  90 2.11  93 2.11  94 2.11  96 2.11
 197  0.800  0.600  0.503-  80 2.11  95 2.11  99 2.11 100 2.11  97 2.11
 198  0.900  0.700  0.503- 104 2.11  99 2.11 100 2.11  19 2.11  98 2.11
 199  0.800  0.700  0.407-  78 2.11 101 2.11  98 2.11  97 2.11  99 2.11
 200  0.900  0.600  0.407-  17 2.11  94 2.11  97 2.11  98 2.11 100 2.11
 201  0.800  0.800  0.503-  84 2.11  99 2.11 103 2.11 104 2.11 101 2.11
 202  0.900  0.900  0.503-  23 2.11  88 2.11 103 2.11 104 2.11 102 2.11
 203  0.800  0.900  0.407-  82 2.11  85 2.11 101 2.11 102 2.11 103 2.11
 204  0.900  0.800  0.407-  98 2.11  21 2.11 101 2.11 102 2.11 104 2.11

  LATTYP: Found a simple tetragonal cell.
 ALAT       =    21.1388521970
 C/A-ratio  =     1.0461251639

  Lattice vectors:

 A1 = (  21.1388521970,   0.0000000000,   0.0000000000)
 A2 = (   0.0000000000,  21.1388521970,   0.0000000000)
 A3 = (   0.0000000000,   0.0000000000,  22.1138852197)

Analysis of symmetry for initial positions (statically):
 Subroutine PRICEL returns:
 Original cell was already a primitive cell.

 Routine SETGRP: Setting up the symmetry group for a
 simple tetragonal supercell.

 Subroutine GETGRP returns: Found  2 space group operations
 (whereof  1 operations were pure point group operations)
[...]
     22     -46.6886      2.00000
     23     -46.6667      2.00000
     24     -46.6667      2.00000
     25     -46.6664      2.00000
     26     -46.6664      2.00000
     27     -46.6573      2.00000
     28     -46.6572      2.00000
     29     -46.6567      2.00000
     30     -46.6567      2.00000
     31     -46.6558      2.00000
     32     -46.6556      2.00000
     33     -46.6554      2.00000
     34     -46.6553      2.00000
     35     -46.6495      2.00000
     36     -46.6495      2.00000
     37     -46.6478      2.00000
     38     -46.6478      2.00000
     39     -46.6268      2.00000
     40     -46.6267      2.00000
     41     -46.6179      2.00000
     42     -46.6178      2.00000
     43     -46.6169      2.00000
     44     -46.6168      2.00000
     45     -46.6156      2.00000
     46     -46.6155      2.00000
     47     -46.6155      2.00000
     48     -46.6154      2.00000
     49     -46.6123      2.00000
     50     -46.6114      2.00000
     51     -46.6097      2.00000
     52     -46.6090      2.00000
     53     -46.6090      2.00000
     54     -46.6088      2.00000
     55     -46.6072      2.00000
     56     -46.6071      2.00000
     57     -46.6068      2.00000
     58     -46.6050      2.00000
     59     -46.6049      2.00000
     60     -46.6032      2.00000
[...]
   1010       7.2320      0.00000
   1011       7.2429      0.00000
   1012       7.2550      0.00000
   1013       7.2590      0.00000
   1014       7.3860      0.00000
   1015       7.5380      0.00000
   1016       7.6237      0.00000
   1017       7.6940      0.00000
   1018       7.7396      0.00000
   1019       7.7736      0.00000
   1020       7.8590      0.00000
   1021       7.9102      0.00000
   1022       7.9814      0.00000
   1023       8.0200      0.00000
   1024       8.0415      0.00000

 soft charge-density along one line, spin component           1
         0         1         2         3         4         5         6         7         8         9
 total charge-density along one line

------------------------ aborting loop because EDIFF is reached ----------------------------------------

 VOLUME and BASIS-vectors are now :
  energy-cutoff  :      520.00
  volume of cell :     9881.61
      direct lattice vectors                 reciprocal lattice vectors
    21.138852197  0.000000000  0.000000000     0.047306258  0.000000000  0.000000000
     0.000000000 21.138852197  0.000000000     0.000000000  0.047306258  0.000000000
     0.000000000  0.000000000 22.113885220     0.000000000  0.000000000  0.045220457

  length of vectors
    21.138852197 21.138852197 22.113885220     0.047306258  0.047306258  0.045220457

 FORCES acting on ions:
    Electron-Ion                     Ewald-Force                    Non-Local-Force
   0.246E+02 -.246E+02 -.207E+04   -.273E+02 0.273E+02 0.207E+04   0.240E+01 -.240E+01 -.357E-01
   0.235E+03 -.235E+03 -.209E+04   -.231E+03 0.231E+03 0.209E+04   -.442E+01 0.442E+01 -.447E+00
   -.235E+03 0.235E+03 -.209E+04   0.231E+03 -.231E+03 0.209E+04   0.442E+01 -.442E+01 -.447E+00
   -.246E+02 0.246E+02 -.207E+04   0.273E+02 -.273E+02 0.207E+04   -.240E+01 0.240E+01 -.357E-01
   0.489E+01 -.489E+01 0.939E+03   -.492E+01 0.492E+01 -.930E+03   0.190E-01 -.190E-01 -.719E+01
   0.905E+01 0.161E+01 0.940E+03   -.905E+01 -.156E+01 -.931E+03   -.290E-02 -.356E-01 -.719E+01
   0.313E+01 0.314E+01 -.919E+03   -.312E+01 -.312E+01 0.911E+03   -.135E-01 -.135E-01 0.712E+01
   0.146E+02 -.117E+02 -.916E+03   -.146E+02 0.118E+02 0.908E+03   0.185E-01 -.674E-01 0.712E+01
   0.161E+01 0.905E+01 0.940E+03   -.156E+01 -.905E+01 -.931E+03   -.356E-01 -.290E-02 -.719E+01
   0.143E+02 0.157E+02 0.945E+03   -.142E+02 -.157E+02 -.937E+03   -.296E-01 0.671E-03 -.720E+01
   0.212E+01 0.156E+02 -.916E+03   -.203E+01 -.156E+02 0.907E+03   -.615E-01 -.207E-02 0.712E+01
   0.130E+02 0.130E+02 -.917E+03   -.129E+02 -.129E+02 0.908E+03   -.271E-01 -.271E-01 0.712E+01
   0.445E+01 0.112E+02 0.946E+03   -.438E+01 -.112E+02 -.938E+03   -.468E-01 0.101E-01 -.720E+01
   0.289E+02 0.120E+02 0.959E+03   -.289E+02 -.121E+02 -.950E+03   0.846E-02 0.681E-01 -.721E+01
   0.127E+02 0.835E+01 -.910E+03   -.127E+02 -.838E+01 0.901E+03   -.210E-01 0.181E-01 0.711E+01
   0.305E+02 0.240E+02 -.908E+03   -.304E+02 -.241E+02 0.899E+03   -.619E-01 0.248E-01 0.710E+01
   0.128E+02 -.213E+01 0.951E+03   -.129E+02 0.210E+01 -.942E+03   0.467E-01 0.211E-01 -.720E+01
   0.337E+02 -.125E+02 0.963E+03   -.340E+02 0.125E+02 -.955E+03   0.195E+00 0.320E-01 -.719E+01
   0.225E+02 -.126E+02 -.909E+03   -.226E+02 0.125E+02 0.901E+03   0.105E+00 0.160E-01 0.712E+01
   0.606E+02 0.527E+01 -.892E+03   -.608E+02 -.541E+01 0.884E+03   0.104E+00 0.954E-01 0.711E+01
   0.120E+02 -.133E+02 0.945E+03   -.121E+02 0.133E+02 -.937E+03   0.909E-01 -.922E-02 -.719E+01
   0.168E+02 -.168E+02 0.947E+03   -.169E+02 0.169E+02 -.938E+03   0.652E-01 -.652E-01 -.718E+01
   0.117E+02 -.146E+02 -.916E+03   -.118E+02 0.146E+02 0.908E+03   0.674E-01 -.185E-01 0.712E+01
   0.428E+02 -.304E+02 -.902E+03   -.431E+02 0.304E+02 0.893E+03   0.240E+00 -.257E-01 0.714E+01
   0.133E+02 -.120E+02 0.945E+03   -.133E+02 0.122E+02 -.937E+03   0.921E-02 -.909E-01 -.719E+01
   0.112E+02 0.445E+01 0.946E+03   -.112E+02 -.438E+01 -.938E+03   0.101E-01 -.468E-01 -.720E+01
   0.156E+02 0.212E+01 -.916E+03   -.156E+02 -.203E+01 0.907E+03   -.207E-02 -.615E-01 0.712E+01
   0.126E+02 -.225E+02 -.909E+03   -.125E+02 0.226E+02 0.901E+03   -.160E-01 -.105E+00 0.712E+01
   0.157E+02 0.143E+02 0.945E+03   -.157E+02 -.142E+02 -.937E+03   0.671E-03 -.296E-01 -.720E+01
   0.264E+02 0.335E+02 0.965E+03   -.264E+02 -.335E+02 -.956E+03   0.524E-01 -.103E-01 -.724E+01
   0.333E+02 0.333E+02 -.906E+03   -.333E+02 -.333E+02 0.898E+03   -.342E-01 -.342E-01 0.710E+01
   0.240E+02 0.305E+02 -.908E+03   -.241E+02 -.304E+02 0.899E+03   0.248E-01 -.619E-01 0.710E+01
   0.335E+02 0.264E+02 0.965E+03   -.335E+02 -.264E+02 -.956E+03   -.103E-01 0.524E-01 -.724E+01
   0.466E+02 0.293E+02 0.101E+04   -.467E+02 -.296E+02 -.101E+04   0.527E-01 0.226E+00 -.738E+01
   0.816E+02 0.439E+02 -.871E+03   -.814E+02 -.441E+02 0.863E+03   -.114E+00 0.187E+00 0.703E+01
   0.719E+02 0.719E+02 -.864E+03   -.718E+02 -.718E+02 0.856E+03   -.494E-01 -.494E-01 0.703E+01
   0.514E+02 0.399E+01 0.995E+03   -.516E+02 -.427E+01 -.986E+03   0.129E+00 0.187E+00 -.718E+01
   0.340E+02 -.340E+02 0.103E+04   -.340E+02 0.339E+02 -.102E+04   -.215E-01 0.214E-01 -.600E+01
   0.116E+03 -.393E+02 -.828E+03   -.117E+03 0.391E+02 0.819E+03   0.101E+01 0.154E+00 0.724E+01
   0.123E+03 0.488E+02 -.710E+03   -.123E+03 -.506E+02 0.703E+03   0.912E-01 0.117E+01 0.614E+01
   0.324E+02 -.324E+02 0.974E+03   -.326E+02 0.326E+02 -.966E+03   0.118E+00 -.118E+00 -.706E+01
   0.126E+02 -.337E+02 0.963E+03   -.125E+02 0.340E+02 -.955E+03   -.320E-01 -.195E+00 -.719E+01
   0.304E+02 -.428E+02 -.902E+03   -.304E+02 0.431E+02 0.893E+03   0.257E-01 -.240E+00 0.714E+01
   0.393E+02 -.116E+03 -.828E+03   -.391E+02 0.117E+03 0.819E+03   -.154E+00 -.101E+01 0.724E+01
   0.213E+01 -.128E+02 0.951E+03   -.210E+01 0.129E+02 -.942E+03   -.211E-01 -.466E-01 -.720E+01
   -.213E+01 0.128E+02 0.951E+03   0.210E+01 -.129E+02 -.942E+03   0.211E-01 0.467E-01 -.720E+01
   0.835E+01 0.128E+02 -.910E+03   -.838E+01 -.127E+02 0.901E+03   0.181E-01 -.210E-01 0.711E+01
   -.835E+01 -.128E+02 -.910E+03   0.838E+01 0.127E+02 0.901E+03   -.181E-01 0.211E-01 0.711E+01
   0.120E+02 0.289E+02 0.959E+03   -.121E+02 -.289E+02 -.950E+03   0.681E-01 0.846E-02 -.721E+01
   0.399E+01 0.514E+02 0.995E+03   -.427E+01 -.516E+02 -.986E+03   0.187E+00 0.129E+00 -.718E+01
   0.439E+02 0.816E+02 -.871E+03   -.441E+02 -.814E+02 0.863E+03   0.187E+00 -.114E+00 0.703E+01
   0.527E+01 0.606E+02 -.892E+03   -.541E+01 -.608E+02 0.884E+03   0.954E-01 0.104E+00 0.711E+01
   0.293E+02 0.466E+02 0.101E+04   -.296E+02 -.467E+02 -.101E+04   0.226E+00 0.527E-01 -.738E+01
   -.111E+02 0.111E+02 0.106E+04   0.109E+02 -.109E+02 -.105E+04   0.132E+00 -.132E+00 -.704E+01
   0.857E+02 0.857E+02 -.705E+03   -.863E+02 -.863E+02 0.697E+03   0.378E+00 0.378E+00 0.658E+01
   0.488E+02 0.123E+03 -.710E+03   -.506E+02 -.123E+03 0.703E+03   0.117E+01 0.912E-01 0.614E+01
   0.111E+02 -.111E+02 0.106E+04   -.109E+02 0.109E+02 -.105E+04   -.132E+00 0.132E+00 -.704E+01
   -.293E+02 -.466E+02 0.101E+04   0.296E+02 0.467E+02 -.101E+04   -.226E+00 -.527E-01 -.738E+01
   -.487E+02 -.123E+03 -.710E+03   0.506E+02 0.123E+03 0.703E+03   -.117E+01 -.913E-01 0.614E+01
   -.857E+02 -.857E+02 -.705E+03   0.863E+02 0.863E+02 0.697E+03   -.378E+00 -.378E+00 0.658E+01
[...]
   -.193E+02 0.147E+02 0.718E+03   0.194E+02 -.148E+02 -.722E+03   -.143E+00 0.514E-01 0.317E+01
   -.621E+01 0.833E+01 0.707E+03   0.625E+01 -.834E+01 -.711E+03   -.539E-01 0.266E-01 0.314E+01
   -.458E+02 0.136E+02 -.670E+03   0.460E+02 -.135E+02 0.674E+03   -.179E+00 -.691E-01 -.323E+01
   -.151E+02 0.148E+01 -.682E+03   0.151E+02 -.144E+01 0.686E+03   -.383E-01 -.343E-01 -.324E+01
   -.261E+02 -.707E+00 0.724E+03   0.261E+02 0.794E+00 -.728E+03   -.842E-01 -.968E-01 0.313E+01
   -.107E+02 0.734E+01 0.713E+03   0.107E+02 -.732E+01 -.717E+03   -.753E-01 -.120E-01 0.314E+01
   -.345E+02 -.150E+02 -.676E+03   0.345E+02 0.151E+02 0.680E+03   -.356E-02 -.850E-01 -.328E+01
   -.432E+01 -.110E+02 -.686E+03   0.428E+01 0.110E+02 0.690E+03   0.427E-01 -.455E-02 -.324E+01
   -.157E+02 -.126E+02 0.715E+03   0.157E+02 0.126E+02 -.719E+03   0.231E-01 -.262E-01 0.311E+01
   -.650E+01 -.442E+01 0.713E+03   0.649E+01 0.444E+01 -.717E+03   0.650E-02 -.205E-01 0.312E+01
   -.145E+02 -.157E+02 -.686E+03   0.144E+02 0.157E+02 0.690E+03   0.407E-01 0.144E-01 -.324E+01
   -.119E+01 -.845E+01 -.690E+03   0.115E+01 0.845E+01 0.694E+03   0.358E-01 0.403E-02 -.322E+01
   -.765E+01 -.764E+01 0.707E+03   0.763E+01 0.763E+01 -.711E+03   0.180E-01 0.180E-01 0.312E+01
   -.153E+01 -.923E+01 0.708E+03   0.148E+01 0.924E+01 -.712E+03   0.442E-01 -.304E-02 0.313E+01
   -.725E+00 0.725E+00 0.126E+02   0.193E-11 0.134E-11 0.728E-11   -.147E-02 -.147E-02 -.118E+02

 POSITION                                       TOTAL-FORCE (eV/Angst)
      8.54453     12.59533     13.88470        -0.076752      0.076370      0.042094
      6.69899     14.44084     13.56395        -0.027818      0.027224      0.020121
     12.32695      8.81289     13.56395         0.027224     -0.027818      0.020121
     10.48144     10.65841     13.88470         0.076370     -0.076752      0.042094
      0.00000      0.00000      9.00000        -0.006096      0.006094      0.589851
      2.11389      2.11389      9.00000         0.000866      0.010983      0.591451
      0.00000      2.11389     11.11389         0.004146      0.004146     -0.567218
      2.11389      0.00000     11.11389        -0.006068      0.020592     -0.566731
      0.00000      4.22777      9.00000         0.010983      0.000866      0.591451
      2.11389      6.34166      9.00000         0.009421      0.000305      0.595189
      0.00000      6.34166     11.11389         0.018829      0.000944     -0.564546
      2.11389      4.22777     11.11389         0.008676      0.008676     -0.564772
      0.00000      8.45554      9.00000         0.014023     -0.002903      0.593082
      2.11389     10.56943      9.00000        -0.003493     -0.021852      0.595944
      0.00000     10.56943     11.11389         0.006861     -0.005513     -0.559908
      2.11389      8.45554     11.11389         0.020115     -0.006185     -0.555541
      0.00000     12.68331      9.00000        -0.014282     -0.007196      0.592578
      2.11389     14.79720      9.00000        -0.056969     -0.011085      0.587746
      0.00000     14.79720     11.11389        -0.030777     -0.005623     -0.562716
      2.11389     12.68331     11.11389        -0.028227     -0.031246     -0.548950
      0.00000     16.91108      9.00000        -0.027562      0.003136      0.590042
      2.11389     19.02497      9.00000        -0.021715      0.021720      0.583999
      0.00000     19.02497     11.11389        -0.020596      0.006071     -0.566731
      2.11389     16.91108     11.11389        -0.072693      0.008445     -0.567255
      4.22777      0.00000      9.00000        -0.003130      0.027553      0.590055
      6.34166      2.11389      9.00000        -0.002903      0.014023      0.593082
      4.22777      2.11389     11.11389         0.000944      0.018829     -0.564546
      6.34166      0.00000     11.11389         0.005636      0.030760     -0.562710
      4.22777      4.22777      9.00000         0.000305      0.009421      0.595189
      6.34166      6.34166      9.00000        -0.014387      0.004351      0.607265
      4.22777      6.34166     11.11389         0.012395      0.012395     -0.553688
      6.34166      4.22777     11.11389        -0.006185      0.020115     -0.555541
      4.22777      8.45554      9.00000         0.004351     -0.014387      0.607265
      6.34166     10.56943      9.00000        -0.013560     -0.066486      0.641137
      4.22777     10.56943     11.11389         0.051281     -0.044666     -0.500517
      6.34166      8.45554     11.11389         0.027827      0.027827     -0.499849
      4.22777     12.68331      9.00000        -0.044924     -0.067070      0.577761
      6.34166     14.79720      9.00000         0.008937     -0.008879      0.263950
      4.22777     14.79720     11.11389        -0.384734     -0.058190     -0.655822
      6.34166     12.68331     11.11389        -0.036579     -0.522895     -0.381856
      4.22777     16.91108      9.00000        -0.044090      0.044111      0.542156
      6.34166     19.02497      9.00000         0.011102      0.056964      0.587759
      4.22777     19.02497     11.11389        -0.008432      0.072695     -0.567261
      6.34166     16.91108     11.11389         0.058214      0.384818     -0.655927
      8.45554      0.00000      9.00000         0.007210      0.014266      0.592574
     10.56943      2.11389      9.00000        -0.007196     -0.014282      0.592578
      8.45554      2.11389     11.11389        -0.005513      0.006861     -0.559908
     10.56943      0.00000     11.11389         0.005524     -0.006886     -0.559906
      8.45554      4.22777      9.00000        -0.021852     -0.003493      0.595944
     10.56943      6.34166      9.00000        -0.067070     -0.044924      0.577761
      8.45554      6.34166     11.11389        -0.044666      0.051281     -0.500517
     10.56943      4.22777     11.11389        -0.031246     -0.028227     -0.548950
      8.45554      8.45554      9.00000        -0.066486     -0.013560      0.641137
     10.56943     10.56943      9.00000        -0.049199      0.049256      0.513816
      8.45554     10.56943     11.11389        -0.157488     -0.157488     -0.416537
     10.56943      8.45554     11.11389        -0.522895     -0.036579     -0.381856
      8.45554     12.68331      9.00000         0.049256     -0.049199      0.513816
     10.56943     14.79720      9.00000         0.066516      0.013582      0.641217
      8.45554     14.79720     11.11389         0.523291      0.036637     -0.381955
     10.56943     12.68331     11.11389         0.157646      0.157646     -0.416488
[...]
     19.02497      6.34166     11.11389        -0.027790      0.003822      0.388533
     16.91108      6.34166      9.00000        -0.047909      0.016923     -0.400586
     19.02497      4.22777      9.00000        -0.017659      0.008683     -0.412712
     16.91108      8.45554     11.11389        -0.063777     -0.021823      0.389351
     19.02497     10.56943     11.11389        -0.012969     -0.011269      0.382899
     16.91108     10.56943      9.00000        -0.029565     -0.031786     -0.413960
     19.02497      8.45554      9.00000        -0.024914     -0.003932     -0.413033
     16.91108     12.68331     11.11389        -0.002691     -0.028626      0.372624
     19.02497     14.79720     11.11389         0.013951     -0.001512      0.384528
     16.91108     14.79720      9.00000         0.007400     -0.008724     -0.420682
     19.02497     12.68331      9.00000         0.002052     -0.006708     -0.417036
     16.91108     16.91108     11.11389         0.013100      0.004546      0.383346
     19.02497     19.02497     11.11389         0.011665      0.001269      0.389082
     16.91108     19.02497      9.00000         0.005862      0.005862     -0.416335
     19.02497     16.91108      9.00000         0.014464     -0.001006     -0.415511
    total drift:                               -0.725483      0.724291     -0.642452

  FREE ENERGIE OF THE ION-ELECTRON SYSTEM (eV)
  free  energy   TOTEN  =     -1388.02503693 eV

  energy  without entropy=    -1388.02503693  energy(sigma->0) =    -1388.02503693