 vasp.6.4.0 14Feb23 (build Mar 22 2023 21:21:37) complex

 executed on           IFC15_impi date 2023.05.05  19:34:18

 INCAR:
   SYSTEM = MgO-rocksalt
   ISMEAR = 0
   SIGMA = 0.05
   EDIFF = 1E-6
   ALGO = ALL
   ISTART = 0
   IBRION = -1
   NSW = 0
   ISYM = 2
   DIPOL = 0.5 0.5 0.5
   IDIPOL = 3
   LDIPOL = .TRUE.
   METAGGA = M06L
   ENCUT = 520
   PREC = Accurate
   LASPH = .TRUE.
   LREAL = Auto
   ISPIN = 1
   NELM = 200
   NELMIN = 8
   NCORE = 4
   KPAR = 2
   LWAVE = .FALSE.
   LCHARG = .FALSE.

 POTCAR:    PAW_PBE Au 04Oct2007
 POTCAR:    PAW_PBE Mg_pv 13Apr2007
 POTCAR:    PAW_PBE O 08Apr2002
 POTCAR:    PAW_PBE Au 04Oct2007
   VRHFIN =Au: s1d10

   TITEL  = PAW_PBE Au 04Oct2007
   POMASS =  196.966; ZVAL   =   11.000    mass and valenz
   ENMAX  =  229.943; ENMIN  =  172.457 eV

   TITEL  = PAW_PBE Mg_pv 13Apr2007
   POMASS =   24.305; ZVAL   =    8.000    mass and valenz
   ENMAX  =  403.929; ENMIN  =  302.947 eV

   TITEL  = PAW_PBE O 08Apr2002
   POMASS =   16.000; ZVAL   =    6.000    mass and valenz
   ENMAX  =  400.000; ENMIN  =  300.000 eV

 Optimization of the real space projectors (new method)

 maximal supplied QI-value         = 15.12
 optimisation between [QCUT,QGAM] = [ 11.64, 23.28] = [ 37.95,151.78] Ry
 Optimized for a Real-space Cutoff    1.49 Angstroem

   l    n(q)    QCUT    max X(q) W(low)/X(q) W(high)/X(q)  e(spline)
   2      9    11.641    60.898    0.24E-03    0.10E-03    0.19E-06
   2      9    11.641    58.894    0.25E-03    0.10E-03    0.19E-06
   0     10    11.641   109.617    0.73E-04    0.33E-04    0.11E-06
   0     10    11.641    75.026    0.71E-04    0.32E-04    0.11E-06
   1     10    11.641    16.344    0.27E-04    0.97E-04    0.16E-06
   1     10    11.641    10.160    0.23E-04    0.77E-04    0.13E-06
 Optimization of the real space projectors (new method)

[...]

   l    n(q)    QCUT    max X(q) W(low)/X(q) W(high)/X(q)  e(spline)
   1      8    11.527     2.974    0.44E-04    0.56E-04    0.12E-06
   1      8    11.527     4.279    0.12E-03    0.12E-03    0.26E-06
   0      9    11.527    16.381    0.46E-04    0.64E-04    0.78E-07
   0      9    11.527     5.611    0.26E-04    0.43E-04    0.55E-07
   2      8    11.527     4.652    0.22E-03    0.72E-04    0.47E-07
 Optimization of the real space projectors (new method)

 maximal supplied QI-value         = 24.76
 optimisation between [QCUT,QGAM] = [ 11.64, 23.27] = [ 37.91,151.63] Ry
 Optimized for a Real-space Cutoff    1.14 Angstroem

   l    n(q)    QCUT    max X(q) W(low)/X(q) W(high)/X(q)  e(spline)
   0      8    11.635    20.381    0.10E-03    0.33E-03    0.24E-06
   0      8    11.635    15.268    0.11E-03    0.35E-03    0.26E-06
   1      7    11.635     5.964    0.24E-03    0.31E-03    0.30E-06
   1      7    11.635     5.382    0.22E-03    0.25E-03    0.26E-06
  PAW_PBE Au 04Oct2007                  :
  PAW_PBE Mg_pv 13Apr2007               :
  PAW_PBE O 08Apr2002                   :

 POSCAR: Mg  O
  positions in direct lattice
  velocities in cartesian coordinates

 METAGGA = M06L                                        LMAXTAU =  6    LMIXTAU =  F

 ion  position               nearest neighbor table
   1  0.498  0.433  0.611-  11 2.70  17 2.71  13 2.72   3 2.73   4 2.76   8 2.78
   2  0.326  0.314  0.579- 246 2.42  14 2.70  13 2.70  19 2.73  11 2.77  67 2.88  52 3.07
   3  0.558  0.545  0.592-   9 2.71   8 2.73   1 2.73  17 2.75  91 3.03
   4  0.567  0.324  0.619-  17 2.70   7 2.70  15 2.71  13 2.71   6 2.75   1 2.76
   5  0.449  0.096  0.604-  10 2.66  19 2.71   7 2.81
   6  0.637  0.214  0.618-   7 2.71  15 2.71  16 2.72   4 2.75  20 2.77  10 2.77
   7  0.510  0.210  0.625-  19 2.68   4 2.70   6 2.71  10 2.74  13 2.76   5 2.81
   8  0.428  0.542  0.592-  11 2.69   3 2.73   1 2.78  71 2.93
   9  0.685  0.549  0.597-  18 2.67   3 2.71  17 2.72
  10  0.574  0.099  0.611-  16 2.63   5 2.66   7 2.74   6 2.77
  11  0.370  0.431  0.607-  14 2.65   8 2.69   1 2.70   2 2.77  13 2.80
  12  0.820  0.335  0.592-  18 2.67  15 2.70  20 2.75 107 2.87
  13  0.439  0.320  0.621-   2 2.70   4 2.71   1 2.72   7 2.76  19 2.76  11 2.80
  14  0.251  0.417  0.581- 249 2.61  11 2.65   2 2.70  52 2.70
  15  0.695  0.328  0.609-  12 2.70  17 2.71   4 2.71   6 2.71  20 2.75  18 2.80
  16  0.687  0.112  0.575- 282 2.27  10 2.63   6 2.72  20 2.76  83 2.93  88 2.98
  17  0.626  0.436  0.607-   4 2.70  15 2.71   1 2.71   9 2.72   3 2.75  18 2.78
  18  0.756  0.444  0.596-   9 2.67  12 2.67  17 2.78  15 2.80
  19  0.403  0.210  0.577- 265 2.29   7 2.68   5 2.71   2 2.73  13 2.76  67 3.04
  20  0.759  0.221  0.584- 305 2.65  12 2.75  15 2.75  16 2.76   6 2.77  88 2.86
  21  0.000  1.000  0.430- 239 2.11 224 2.11 304 2.11 321 2.12 223 2.12 221 2.13
  22  0.100  0.100  0.430- 224 2.11 223 2.11 243 2.11 322 2.12 228 2.12 222 2.13
  23  0.000  0.099  0.500- 302 2.10 222 2.11 223 2.11 221 2.11 225 2.12
  24  0.100  0.999  0.500- 224 2.11 238 2.11 221 2.11 241 2.11 222 2.12
  25  1.000  0.200  0.430- 227 2.11 228 2.11 223 2.11 308 2.12 325 2.12 225 2.14
  26  0.100  0.300  0.430- 227 2.11 232 2.11 228 2.11 247 2.12 326 2.12 226 2.14
  27  0.000  0.300  0.500- 226 2.11 227 2.11 306 2.11 229 2.11 225 2.12
  28  0.099  0.200  0.500- 225 2.10 228 2.11 245 2.11 222 2.11 226 2.13
  29  1.000  0.400  0.430- 312 2.10 231 2.11 227 2.12 329 2.12 232 2.13 229 2.14
  30  0.100  0.500  0.430- 231 2.11 236 2.11 251 2.11 232 2.12 330 2.12 230 2.13
  31  1.000  0.501  0.500- 310 2.10 233 2.10 231 2.11 230 2.12 229 2.12
  32  0.098  0.401  0.500- 229 2.08 230 2.10 232 2.11 249 2.12 226 2.13
  33  1.000  0.600  0.430- 316 2.11 235 2.11 231 2.12 236 2.12 333 2.12 233 2.13
  34  0.100  0.700  0.430- 235 2.11 240 2.11 255 2.11 236 2.11 334 2.12 234 2.13
  35  1.000  0.700  0.500- 235 2.11 314 2.11 233 2.11 237 2.11 234 2.11
  36  0.100  0.601  0.500- 234 2.11 233 2.11 236 2.11 253 2.12 230 2.12
  37  1.000  0.800  0.430- 235 2.11 320 2.11 240 2.11 239 2.12 337 2.12 237 2.13
  38  0.100  0.900  0.430- 240 2.11 239 2.11 259 2.11 224 2.12 338 2.12 238 2.13
  39  0.000  0.899  0.500- 239 2.10 237 2.11 238 2.11 318 2.11 221 2.12
  40  0.100  0.800  0.500- 240 2.11 234 2.11 237 2.11 257 2.11 238 2.11
  41  0.200  1.000  0.430- 259 2.11 224 2.11 244 2.11 341 2.12 243 2.12 241 2.13
  42  0.300  0.099  0.430- 244 2.10 263 2.11 243 2.11 342 2.12 248 2.13 242 2.13
  43  0.199  0.099  0.500- 241 2.10 222 2.10 243 2.11 242 2.12 245 2.13
  44  0.300  0.999  0.500- 258 2.10 244 2.11 241 2.11 261 2.12 242 2.12
  45  0.199  0.200  0.430- 228 2.10 243 2.11 345 2.12 248 2.12 247 2.13 245 2.14
  46  0.300  0.300  0.429- 267 2.10 252 2.10 346 2.11 248 2.11 247 2.11 246 2.16
  47  0.198  0.299  0.500- 226 2.08 247 2.11 245 2.11 246 2.12 249 2.13
  48  0.297  0.198  0.500- 245 2.08 242 2.08 248 2.09 246 2.13 265 2.13
  49  0.200  0.400  0.429- 251 2.10 232 2.10 252 2.11 349 2.11 247 2.11 249 2.21
  50  0.300  0.501  0.430- 250 2.10 271 2.10 256 2.11 350 2.12 251 2.12 252 2.14
  51  0.200  0.502  0.500- 253 2.09 251 2.11 250 2.11 230 2.11 249 2.15
  52  0.302  0.402  0.499- 269 2.08 252 2.08 250 2.09 249 2.19 246 2.20  14 2.70   2 3.07
  53  0.200  0.600  0.430- 255 2.11 256 2.11 236 2.11 353 2.12 251 2.13 253 2.13
  54  0.300  0.700  0.430- 256 2.11 275 2.11 260 2.11 255 2.12 354 2.12 254 2.13
  55  0.200  0.700  0.500- 255 2.11 253 2.11 257 2.11 254 2.11 234 2.11
  56  0.300  0.601  0.500- 250 2.10 254 2.11 273 2.11 256 2.11 253 2.12
  57  0.200  0.800  0.430- 255 2.11 260 2.11 240 2.11 259 2.12 357 2.12 257 2.13
  58  0.300  0.900  0.430- 260 2.11 279 2.11 259 2.11 244 2.12 358 2.12 258 2.13
  59  0.200  0.900  0.500- 259 2.11 257 2.11 238 2.11 258 2.11 241 2.12
  60  0.300  0.800  0.500- 260 2.11 254 2.11 258 2.11 277 2.11 257 2.12
[...]
 406  0.900  0.300  0.359- 208 2.11 207 2.11 127 2.11 212 2.11 206 2.11 106 2.12
 407  0.800  0.300  0.289- 186 2.11 205 2.11 206 2.11 209 2.11 207 2.11
 408  0.900  0.200  0.289- 206 2.11 202 2.11 205 2.11 125 2.11 208 2.11
 409  0.800  0.400  0.359- 109 2.11 192 2.11 207 2.11 211 2.11 212 2.11 209 2.11
 410  0.900  0.500  0.359- 131 2.11 211 2.11 212 2.11 216 2.11 210 2.11 110 2.12
 411  0.800  0.500  0.289- 190 2.11 209 2.11 210 2.11 213 2.11 211 2.11
 412  0.900  0.400  0.289- 129 2.11 206 2.11 209 2.11 210 2.11 212 2.11
 413  0.800  0.600  0.359- 196 2.11 211 2.11 215 2.11 216 2.11 213 2.11 113 2.12
 414  0.900  0.700  0.359- 220 2.11 215 2.11 216 2.11 135 2.11 214 2.11 114 2.12
 415  0.800  0.700  0.289- 194 2.11 217 2.11 214 2.11 213 2.11 215 2.11
 416  0.900  0.600  0.289- 133 2.11 210 2.11 213 2.11 214 2.11 216 2.11
 417  0.800  0.800  0.359- 200 2.11 215 2.11 219 2.11 220 2.11 217 2.11 117 2.12
 418  0.900  0.900  0.359- 139 2.11 204 2.11 219 2.11 220 2.11 218 2.11 118 2.12
 419  0.800  0.900  0.289- 198 2.11 201 2.11 217 2.11 218 2.11 219 2.11
 420  0.900  0.800  0.289- 214 2.11 137 2.11 217 2.11 218 2.11 220 2.11

  LATTYP: Found a simple tetragonal cell.
 ALAT       =    21.1388521970
 C/A-ratio  =     1.4191877459

  Lattice vectors:

 A1 = (  21.1388521970,   0.0000000000,   0.0000000000)
 A2 = (   0.0000000000,  21.1388521970,   0.0000000000)
 A3 = (   0.0000000000,   0.0000000000,  30.0000000000)

Analysis of symmetry for initial positions (statically):
 Subroutine PRICEL returns:
 Original cell was already a primitive cell.

 Routine SETGRP: Setting up the symmetry group for a
 simple tetragonal supercell.

 Subroutine GETGRP returns: Found  1 space group operations
 (whereof  1 operations were pure point group operations)
 out of a pool of 16 trial point group operations.

The static configuration has the point symmetry C_1 .

Analysis of symmetry for dynamics (positions and initial velocities):
 Subroutine PRICEL returns:
 Original cell was already a primitive cell.

[...]

The dynamic configuration has the point symmetry C_1 .

Analysis of constrained symmetry for selective dynamics:
 Subroutine PRICEL returns:
 Original cell was already a primitive cell.

 Routine SETGRP: Setting up the symmetry group for a
 simple tetragonal supercell.

 Subroutine GETGRP returns: Found  1 space group operations
 (whereof  1 operations were pure point group operations)
 out of a pool of 16 trial point group operations.

The constrained configuration has the point symmetry C_1 .

 Subroutine INISYM returns: Found  1 space group operations
 (whereof  1 operations are pure point group operations),
 and found     1 'primitive' translations

                                     Primitive cell

  volume of cell :   13405.5322

  direct lattice vectors                    reciprocal lattice vectors
    21.138852197  0.000000000  0.000000000     0.047306258  0.000000000  0.000000000
     0.000000000 21.138852197  0.000000000     0.000000000  0.047306258  0.000000000
     0.000000000  0.000000000 30.000000000     0.000000000  0.000000000  0.033333333

  length of vectors
    21.138852197 21.138852197 30.000000000     0.047306258  0.047306258  0.033333333

  position of ions in fractional coordinates (direct lattice)
     0.497653430  0.433301918  0.611398906
     0.326191035  0.313929231  0.578738456
     0.557546139  0.544553129  0.592090395
     0.567427397  0.323673413  0.619342500
[...]
  506                  m_alltoallv_z                         0.048455                  6   8
  507                  map_scatter                           0.019707                  6   8
  508          m_sumb_d                              0.001301                          3   4
  509        fortau                                3.026405                            1   3
  510          m_sumb_d                              0.002604                          1   4
  511        forhar                                2.974332                            1   3
  512          m_sumb_d                              0.000175                          1   4
  513        strehar                               0.033549                            1   3
  514          m_sumb_d                              0.000684                          1   4
  515        m_bcast_d                             0.034402                            2   3
  516      potlok                                0.168976                              1   2
  517        fft3d_mpi                             0.116933                            5   3
  518          fftbrc_mpi                            0.108076                          5   4
  519            fftbas_plan_mpi                       0.108059                        5   5
  520              dfftw_execute                         0.038020                     15   6
  521              map_backward                          0.024699                      4   6
  522                map_gather                            0.003225                    2   7
  523                m_alltoallv_z                         0.014763                    2   7
  524                map_scatter                           0.006653                    2   7
  525              map_forward                           0.041338                      6   6
  526                map_gather                            0.006269                    4   7
  527                m_alltoallv_z                         0.025081                    4   7
  528                map_scatter                           0.009881                    4   7
  529        m_sumb_d                              0.001685                            2   3
  530        fewald                                0.001392                            2   3
  531          rsp                                   0.001281                          2   4
  532          rcp                                   0.000095                          2   4
  533        pothar                                0.004710                            1   3
  534          m_sumb_d                              0.001006                          1   4
  535        m_bcast_d                             0.009675                            1   3
  536      potlok_metagga                        4.146537                              1   2
  537        fft3d_mpi                             0.405689                           17   3
  538          fftbrc_mpi                            0.379051                         17   4
  539            fftbas_plan_mpi                       0.378985                       17   5
  540              dfftw_execute                         0.116938                     51   6
  541              map_forward                           0.167136                     22   6
  542                map_gather                            0.027515                   13   7
  543                m_alltoallv_z                         0.110653                   13   7
  544                map_scatter                           0.028569                   13   7
  545              map_backward                          0.081993                     12   6
  546                map_gather                            0.009517                    6   7
  547                m_alltoallv_z                         0.051829                    6   7
  548                map_scatter                           0.020329                    6   7
  549        m_sumb_d                              0.001256                            3   3
  550        m_bcast_d                             0.024825                            2   3
  551      set_dd_magatom                        0.000001                              1   2
  552      set_dd_paw                            6.802331                              1   2
  553        set_rsgf_all                          0.000002                            1   3
  554        m_sumb_d                              5.049569                            8   3

 Flat profile

 dfftw_execute                        1725.469175      225654
 edwav                                 771.709339          44
 lincom                                306.305993         139
 m_sumb_d                              288.700546       27201
 map_scatter                           279.739843       75465
 kinhamil_tau                          273.045522        7616
 map_gather                            237.734114       75465
 fftwav_mpi                            212.517228       42235
 potlok_metagga                        190.816946          46
 orth1                                 175.313991        6888
 m_alltoallv_z                         157.414472       75465
 map_forward                           149.370405       85944
 eddav                                 134.069541           5
 wfinit                                 91.485710           1
 set_dd_paw                             81.902997          47
 set_kineden                            76.646111          64
 ggemm                                  56.633685        1289
 eccp_tau                               52.485448        5301
 fftbas_plan_mpi                        48.143344       75218
 m_alltoall_d                           42.021770       50576
 choleski                               29.914997          45
 fftext_mpi                             29.549786       31718
 eddiag                                 25.428890          23
 total_time                             21.328565           1
 crrexp_mul_work_add                    19.293643      948360
 m_bcast_z                              18.967166        2916
 crrexp_mul_wave                        15.396720     1139880
 rpro1                                  14.571934        1973
 vhamil                                 14.368890        2315
 pw_charge                              11.861076        2160
 racc0                                  11.196228        1254
 lapack                                  7.821020        1004
 gemm                                    7.663671      421680
 w1_dscal                                5.614493        1254
 redis_pw                                5.260909        7980
 setdij_                                 4.042322          73
 augmentation_charge                     3.805124          45
 potxc_metagga                           3.718300           1
 rspher_all                              3.698324          14
 phaser                                  3.078172          40
 fortau                                  3.023801           1
 forloc                                  2.991874           1
 forhar                                  2.974157           1
 rpromu_gemm                             2.693001       81900
 fft3d_mpi                               2.583099       75218
 racc0mu                                 1.978148        1004
 m_bcast_d                               1.849367        2150
 stufak                                  1.825528           1
 potlok                                  1.823339          46
 orthch                                  1.125489          45
 map_backward                            0.951062       64492
 w1_copy                                 0.887681        3012
 overl                                   0.878130        3067
 rpromu                                  0.873708         195
 stretau                                 0.620713           1
 elmin_all                               0.500043           1
 redis_proj                              0.339052        7708
 soft_charge                             0.338633          45
 fftbas_mpi                              0.300826       73953
 setup_precond                           0.273901         285
 apply_precond                           0.247577         719
 depsum                                  0.194856          45
 inisym                                  0.183043           1
 pothar                                  0.169797          46
 overl1                                  0.136650        1004
 fft_gq                                  0.080674          45
 rsp                                     0.071452          93
 set_charge                              0.054076          45
 strnlr                                  0.053353           1
 densta                                  0.044544          56
 strkin                                  0.032888           1
 strehar                                 0.032865           1
 hamiltmu_tau                            0.031401        1004
 force_and_stress                        0.029261           1
 strelo                                  0.027682           1
 hamilt_local_tau                        0.025206        1311
 newband                                 0.021883        1009
 fornlr                                  0.017627           1
 raccmu_                                 0.014739        1004
 fewald                                  0.011797          93
 rpro_isp                                0.010656          13
 rcp                                     0.005732          93
 fftbrc_mpi                              0.005170        1265
 w1_projall                              0.005126         719
 brgrid                                  0.002915           1
 truncate_high_frequency_w1              0.001389        1289
 fordep                                  0.000744           1
 redis_pw_all                            0.000443          44
 crpa_reader                             0.000356           1
 posmap                                  0.000291           2
 redis_pw_over_bands                     0.000220          45
 set_rsgf_all                            0.000123          47
 proall                                  0.000069           1
 vectorpot                               0.000025           1
 rotate_active_occupied_orbital          0.000019           1
 shift_bands_between_low_high            0.000009           1
 set_dd_magatom                          0.000009           2
  summed up times    5638.45262694359

 Accumulative profile

 total_time                           5638.452627           1
 elmin_all                            5264.771081           1
 edwav                                2985.994764          44
 fft3d_mpi                            2601.711508       75218
 fftbas_plan_mpi                      2598.822414       75218
 fftbas_mpi                           2570.573213       73953
 kinhamil_tau                         2247.256410        7616
 fftwav_mpi                           1745.612386       42235
 dfftw_execute                        1725.469175      225654
 eccp_tau                             1613.632315        5301
 fftext_mpi                           1067.349682       31718
 eddav                                 782.665886           5
 map_forward                           537.490916       85944
 set_kineden                           536.521298          64
 eddiag                                480.166958          23
 hamilt_local_tau                      395.172936        1311
 hamiltmu_tau                          324.618475        1004
 set_dd_paw                            322.335650          47
 lincom                                306.305993         139
 m_sumb_d                              288.700546       27201
 map_backward                          287.718979       64492
 map_scatter                           279.739843       75465
 map_gather                            237.734114       75465
 force_and_stress                      221.144971           1
 potlok_metagga                        211.665355          46
 orthch                                181.558157          45
 orth1                                 175.313991        6888
 stretau                               159.944001           1
 m_alltoallv_z                         157.414472       75465
 set_charge                            110.150830          45
 wfinit                                109.883430           1
 soft_charge                           104.818459          45
 newband                               100.676924        1009
 ggemm                                  56.633685        1289
 m_alltoall_d                           42.021770       50576
 rpro_isp                               38.266591          13
 redis_pw                               37.728170        7980
 choleski                               29.914997          45
 strnlr                                 29.686107           1
 fftbrc_mpi                             28.555196        1265
 rpro1                                  26.667963        1973
 racc0                                  22.728479        1254
 crrexp_mul_work_add                    19.293643      948360
 m_bcast_z                              18.967166        2916
 raccmu_                                18.742597        1004
 racc0mu                                18.591208        1004
 crrexp_mul_wave                        15.396720     1139880
 vhamil                                 14.368890        2315
 pw_charge                              11.861076        2160
 w1_projall                             10.658809         719
 redis_proj                              9.893560        7708
 fornlr                                  9.866236           1
 potlok                                  8.161926          46
 lapack                                  7.821020        1004
 rpromu                                  7.805213         195
 gemm                                    7.663671      421680
 redis_pw_over_bands                     6.810611          45
 redis_pw_all                            6.810391          44
 w1_dscal                                5.614493        1254
 augmentation_charge                     4.923336          45
 setdij_                                 4.625037          73
 potxc_metagga                           4.035833           1
 rspher_all                              3.698324          14
 proall                                  3.107879           1
 phaser                                  3.078172          40
 fortau                                  3.026405           1
 forloc                                  3.005692           1
 forhar                                  2.974332           1
 rpromu_gemm                             2.693001       81900
 m_bcast_d                               1.849367        2150
 stufak                                  1.825528           1
 fft_gq                                  1.092622          45
 w1_copy                                 0.887681        3012
 overl                                   0.878130        3067
 densta                                  0.553254          56
 fordep                                  0.369067           1
 depsum                                  0.354959          45
 setup_precond                           0.291511         285
 apply_precond                           0.247577         719
 pothar                                  0.236094          46
 inisym                                  0.183334           1
 overl1                                  0.136650        1004
 fewald                                  0.135880          93
 rsp                                     0.071452          93
 strkin                                  0.033603           1
 strehar                                 0.033549           1
 strelo                                  0.028240           1
 rcp                                     0.005732          93
 brgrid                                  0.002915           1
 truncate_high_frequency_w1              0.001389        1289
 crpa_reader                             0.000356           1
 posmap                                  0.000291           2
 set_rsgf_all                            0.000123          47
 vectorpot                               0.000025           1
 rotate_active_occupied_orbital          0.000019           1
 shift_bands_between_low_high            0.000009           1
 set_dd_magatom                          0.000009           2

Profiling took   5.031412  1.232324  0.006687  0.006436 seconds
Profiling took   4.178661 seconds