 vasp.6.3.0 20Jan22 (build Apr  1 2022 16:44:48) complex
 executed on        HPECrayEX_GCC date 2022.08.15  20:34:20

 INCAR:
   SYSTEM = MgO-rocksalt
   ISMEAR = 0
   SIGMA = 0.05
   EDIFF = 1E-6
   ALGO = ALL
   ISTART = 0
   IBRION = -1
   NSW = 0
   ISYM = 2
   DIPOL = 0.5 0.5 0.5
   IDIPOL = 3
   LDIPOL = .TRUE.
   GGA = RE
   IVDW = 13
   VDW_S8 = 1.7468
   VDW_A1 = 0.5363
   VDW_A2 = 3.0726
   ENCUT = 520
   PREC = Accurate
   LASPH = .TRUE.
   LREAL = Auto
   ISPIN = 1
   NELM = 200
   NELMIN = 8
   NCORE = 4
   KPAR = 2
   LWAVE = .FALSE.
   LCHARG = .FALSE.

 POTCAR:    PAW_PBE Ag 02Apr2005
 POTCAR:    PAW_PBE Mg_pv 13Apr2007
 POTCAR:    PAW_PBE O 08Apr2002
 POTCAR:    PAW_PBE Ag 02Apr2005
   VRHFIN =Ag : s1 d10

   TITEL  = PAW_PBE Ag 02Apr2005
   POMASS =  107.868; ZVAL   =   11.000    mass and valenz
   ENMAX  =  249.844; ENMIN  =  187.383 eV

   TITEL  = PAW_PBE Mg_pv 13Apr2007
   POMASS =   24.305; ZVAL   =    8.000    mass and valenz
   ENMAX  =  403.929; ENMIN  =  302.947 eV

   TITEL  = PAW_PBE O 08Apr2002
   POMASS =   16.000; ZVAL   =    6.000    mass and valenz
   ENMAX  =  400.000; ENMIN  =  300.000 eV

 Optimization of the real space projectors (new method)

 maximal supplied QI-value         = 15.12
 optimisation between [QCUT,QGAM] = [ 11.64, 23.28] = [ 37.95,151.78] Ry
 Optimized for a Real-space Cutoff    1.45 Angstroem

   l    n(q)    QCUT    max X(q) W(low)/X(q) W(high)/X(q)  e(spline)
   2      9    11.641    53.897    0.22E-03    0.42E-04    0.28E-06
   2      9    11.641    52.416    0.23E-03    0.44E-04    0.29E-06
   0     10    11.641   122.045    0.51E-04    0.25E-04    0.16E-06
   0     10    11.641    73.629    0.49E-04    0.24E-04    0.16E-06
   1     10    11.641    15.255    0.99E-04    0.55E-04    0.11E-06
   1     10    11.641     9.562    0.81E-04    0.47E-04    0.95E-07
 Optimization of the real space projectors (new method)

[...]

   l    n(q)    QCUT    max X(q) W(low)/X(q) W(high)/X(q)  e(spline)
   1      8    11.527     2.974    0.44E-04    0.56E-04    0.12E-06
   1      8    11.527     4.279    0.12E-03    0.12E-03    0.26E-06
   0      9    11.527    16.381    0.46E-04    0.64E-04    0.78E-07
   0      9    11.527     5.611    0.26E-04    0.43E-04    0.55E-07
   2      8    11.527     4.652    0.22E-03    0.72E-04    0.47E-07
 Optimization of the real space projectors (new method)

 maximal supplied QI-value         = 24.76
 optimisation between [QCUT,QGAM] = [ 11.64, 23.27] = [ 37.91,151.63] Ry
 Optimized for a Real-space Cutoff    1.14 Angstroem

   l    n(q)    QCUT    max X(q) W(low)/X(q) W(high)/X(q)  e(spline)
   0      8    11.635    20.381    0.10E-03    0.33E-03    0.24E-06
   0      8    11.635    15.268    0.11E-03    0.35E-03    0.26E-06
   1      7    11.635     5.964    0.24E-03    0.31E-03    0.30E-06
   1      7    11.635     5.382    0.22E-03    0.25E-03    0.26E-06
|               ----> ADVICE to this user running VASP <----                  |
|     You enforced a specific xc type in the INCAR file but a different       |
|     type was found in the POTCAR file.                                      |
|     I HOPE YOU KNOW WHAT YOU ARE DOING!                                     |

  PAW_PBE Ag 02Apr2005                  :
  PAW_PBE Mg_pv 13Apr2007               :
  PAW_PBE O 08Apr2002                   :

 POSCAR: Ag Mg  O
  positions in direct lattice
|           W    W    AA    RRRRR   N    N  II  N    N   GGGG   !!!           |
|           W    W   A  A   R    R  NN   N  II  NN   N  G    G  !!!           |
|           W    W  A    A  R    R  N N  N  II  N N  N  G       !!!           |
|           W WW W  AAAAAA  RRRRR   N  N N  II  N  N N  G  GGG   !            |
|           WW  WW  A    A  R   R   N   NN  II  N   NN  G    G                |
|           W    W  A    A  R    R  N    N  II  N    N   GGGG   !!!           |
|     Specifying the vdW parameters                                           |
|     VDW_S8 = 1.747                                                          |
|     VDW_A1 = 0.536                                                          |
|     VDW_A2 = 3.073                                                          |
|     in the INCAR file will overwrite the defaults for revpbe. Please        |
|     make sure that is what you intended.                                    |

 ion  position               nearest neighbor table
   1  0.561  0.500  0.635-   2 2.57  73 3.05
   2  0.439  0.500  0.635-   1 2.57  53 3.05
   3  0.000  0.000  0.407- 105 2.11 106 2.11 121 2.11 186 2.11 103 2.11
   4  0.100  0.100  0.407- 105 2.11 106 2.11 110 2.11 125 2.11 104 2.11
   5  0.000  0.100  0.503- 103 2.11 104 2.11 107 2.11 184 2.11 105 2.11
   6  0.100  0.000  0.503- 103 2.11 104 2.11 120 2.11 123 2.11 106 2.11
   7  0.000  0.200  0.407- 109 2.11 105 2.11 110 2.11 190 2.11 107 2.11
   8  0.100  0.300  0.407- 110 2.11 109 2.11 114 2.11 129 2.11 108 2.11
   9  0.000  0.300  0.503- 107 2.11 108 2.11 111 2.11 188 2.11 109 2.11
  10  0.100  0.200  0.503- 108 2.11 107 2.11 104 2.11 127 2.11 110 2.11
  11  0.000  0.400  0.407- 109 2.11 113 2.11 114 2.11 194 2.11 111 2.11
  12  0.100  0.500  0.407- 113 2.11 114 2.11 118 2.11 133 2.11 112 2.11
  13  0.000  0.500  0.503- 111 2.11 112 2.11 115 2.11 192 2.11 113 2.11
  14  0.100  0.400  0.503- 108 2.11 111 2.11 112 2.11 131 2.11 114 2.11
  15  0.000  0.600  0.407- 113 2.11 117 2.11 118 2.11 198 2.11 115 2.11
  16  0.100  0.700  0.407- 122 2.11 118 2.11 117 2.11 137 2.11 116 2.11
  17  0.000  0.700  0.503- 119 2.11 116 2.11 115 2.11 196 2.11 117 2.11
  18  0.100  0.600  0.503- 112 2.11 115 2.11 116 2.11 135 2.11 118 2.11
  19  0.000  0.800  0.407- 117 2.11 121 2.11 122 2.11 202 2.11 119 2.11
  20  0.100  0.900  0.407- 106 2.11 121 2.11 122 2.11 141 2.11 120 2.11
  21  0.000  0.900  0.503- 103 2.11 119 2.11 120 2.11 200 2.11 121 2.11
  22  0.100  0.800  0.503- 116 2.11 119 2.11 120 2.11 139 2.11 122 2.11
  23  0.200  0.000  0.407- 126 2.11 125 2.11 106 2.11 141 2.11 123 2.11
  24  0.300  0.100  0.407- 125 2.11 126 2.11 130 2.11 145 2.11 124 2.11
  25  0.200  0.100  0.503- 124 2.11 123 2.11 104 2.11 127 2.11 125 2.11
  26  0.300  0.000  0.503- 123 2.11 124 2.11 140 2.11 143 2.11 126 2.11
  27  0.200  0.200  0.407- 129 2.11 130 2.11 110 2.11 125 2.11 127 2.11
  28  0.300  0.300  0.407- 129 2.11 130 2.11 134 2.11 149 2.11 128 2.11
  29  0.200  0.300  0.503- 127 2.11 128 2.11 108 2.11 131 2.11 129 2.11
  30  0.300  0.200  0.503- 127 2.11 128 2.11 124 2.11 147 2.11 130 2.11
  31  0.200  0.400  0.407- 134 2.11 129 2.11 133 2.11 114 2.11 131 2.11
  32  0.300  0.500  0.407- 133 2.11 134 2.11 138 2.11 153 2.11 132 2.11
  33  0.200  0.500  0.503- 132 2.11 131 2.11 112 2.11 135 2.11 133 2.11
  34  0.300  0.400  0.503- 131 2.11 128 2.11 132 2.11 151 2.11 134 2.11
  35  0.200  0.600  0.407- 138 2.11 133 2.11 137 2.11 118 2.11 135 2.11
  36  0.300  0.700  0.407- 137 2.11 142 2.11 138 2.11 157 2.11 136 2.11
  37  0.200  0.700  0.503- 136 2.11 139 2.11 116 2.11 135 2.11 137 2.11
  38  0.300  0.600  0.503- 135 2.11 132 2.11 136 2.11 155 2.11 138 2.11
  39  0.200  0.800  0.407- 137 2.11 142 2.11 141 2.11 122 2.11 139 2.11
  40  0.300  0.900  0.407- 141 2.11 126 2.11 142 2.11 161 2.11 140 2.11
  41  0.200  0.900  0.503- 140 2.11 123 2.11 139 2.11 120 2.11 141 2.11
  42  0.300  0.800  0.503- 136 2.11 139 2.11 140 2.11 159 2.11 142 2.11
  43  0.400  0.000  0.407- 126 2.11 145 2.11 146 2.11 161 2.11 143 2.11
  44  0.500  0.100  0.407- 145 2.11 146 2.11 150 2.11 165 2.11 144 2.11
  45  0.400  0.100  0.503- 124 2.11 143 2.11 144 2.11 147 2.11 145 2.11
  46  0.500  0.000  0.503- 143 2.11 144 2.11 160 2.11 163 2.11 146 2.11
  47  0.400  0.200  0.407- 149 2.11 145 2.11 130 2.11 150 2.11 147 2.11
  48  0.500  0.300  0.407- 150 2.11 149 2.11 154 2.11 169 2.11 148 2.11
  49  0.400  0.300  0.503- 147 2.11 128 2.11 148 2.11 151 2.11 149 2.11
  50  0.500  0.200  0.503- 148 2.11 147 2.11 144 2.11 167 2.11 150 2.11
  51  0.400  0.400  0.407- 134 2.11 149 2.11 153 2.11 154 2.11 151 2.11
  52  0.500  0.500  0.407- 153 2.11 154 2.11 158 2.11 173 2.11 152 2.11
  53  0.400  0.500  0.503- 132 2.11 151 2.11 152 2.11 155 2.11 153 2.11   2 3.05
  54  0.500  0.400  0.503- 148 2.11 151 2.11 152 2.11 171 2.11 154 2.11
  55  0.400  0.600  0.407- 138 2.11 153 2.11 157 2.11 158 2.11 155 2.11
  56  0.500  0.700  0.407- 162 2.11 158 2.11 157 2.11 177 2.11 156 2.11
  57  0.400  0.700  0.503- 159 2.11 155 2.11 156 2.11 136 2.11 157 2.11
  58  0.500  0.600  0.503- 152 2.11 155 2.11 156 2.11 175 2.11 158 2.11
  59  0.400  0.800  0.407- 157 2.11 142 2.11 161 2.11 162 2.11 159 2.11
  60  0.500  0.900  0.407- 146 2.11 161 2.11 162 2.11 181 2.11 160 2.11
[...]
 188  0.900  0.300  0.503-  90 2.11  89 2.11   9 2.11  94 2.11  88 2.11
 189  0.800  0.300  0.407-  68 2.11  87 2.11  88 2.11  91 2.11  89 2.11
 190  0.900  0.200  0.407-  88 2.11  84 2.11  87 2.11   7 2.11  90 2.11
 191  0.800  0.400  0.503-  74 2.11  89 2.11  93 2.11  94 2.11  91 2.11
 192  0.900  0.500  0.503-  13 2.11  93 2.11  94 2.11  98 2.11  92 2.11
 193  0.800  0.500  0.407-  72 2.11  91 2.11  92 2.11  95 2.11  93 2.11
 194  0.900  0.400  0.407-  11 2.11  88 2.11  91 2.11  92 2.11  94 2.11
 195  0.800  0.600  0.503-  78 2.11  93 2.11  97 2.11  98 2.11  95 2.11
 196  0.900  0.700  0.503- 102 2.11  97 2.11  98 2.11  17 2.11  96 2.11
 197  0.800  0.700  0.407-  76 2.11  99 2.11  96 2.11  95 2.11  97 2.11
 198  0.900  0.600  0.407-  15 2.11  92 2.11  95 2.11  96 2.11  98 2.11
 199  0.800  0.800  0.503-  82 2.11  97 2.11 101 2.11 102 2.11  99 2.11
 200  0.900  0.900  0.503-  21 2.11  86 2.11 101 2.11 102 2.11 100 2.11
 201  0.800  0.900  0.407-  80 2.11  83 2.11  99 2.11 100 2.11 101 2.11
 202  0.900  0.800  0.407-  96 2.11  19 2.11  99 2.11 100 2.11 102 2.11

  LATTYP: Found a simple tetragonal cell.
 ALAT       =    21.1388521970
 C/A-ratio  =     1.0461251639

  Lattice vectors:

 A1 = (  21.1388521970,   0.0000000000,   0.0000000000)
 A2 = (   0.0000000000,  21.1388521970,   0.0000000000)
 A3 = (   0.0000000000,   0.0000000000,  22.1138852197)

Analysis of symmetry for initial positions (statically):
 Subroutine PRICEL returns:
 Original cell was already a primitive cell.

 Routine SETGRP: Setting up the symmetry group for a
 simple tetragonal supercell.

 Subroutine GETGRP returns: Found  4 space group operations
 (whereof  4 operations were pure point group operations)
 out of a pool of 16 trial point group operations.

The static configuration has the point symmetry C_2v.

Analysis of symmetry for dynamics (positions and initial velocities):
 Subroutine PRICEL returns:
 Original cell was already a primitive cell.

 Routine SETGRP: Setting up the symmetry group for a
 simple tetragonal supercell.

 Subroutine GETGRP returns: Found  4 space group operations
 (whereof  4 operations were pure point group operations)
 out of a pool of 16 trial point group operations.

The dynamic configuration has the point symmetry C_2v.

 Subroutine INISYM returns: Found  4 space group operations
 (whereof  4 operations are pure point group operations),
 and found     1 'primitive' translations

                                     Primitive cell

  volume of cell :    9881.6133

[...]
     54     -42.8670      2.00000
     55     -42.8670      2.00000
     56     -42.8668      2.00000
     57     -42.8667      2.00000
     58     -42.8661      2.00000
     59     -42.8657      2.00000
     60     -42.8654      2.00000
[...]
    882       4.8982      0.00000
    883       4.9116      0.00000
    884       4.9332      0.00000
    885       5.0004      0.00000
    886       5.0948      0.00000
    887       5.1968      0.00000
    888       5.2391      0.00000
    889       5.4562      0.00000
    890       5.6131      0.00000
    891       5.6459      0.00000
    892       5.7231      0.00000
    893       5.7239      0.00000
    894       5.7760      0.00000
    895       5.8221      0.00000
    896       5.8383      0.00000

 soft charge-density along one line, spin component           1
         0         1         2         3         4         5         6         7         8         9
 total charge-density along one line

------------------------ aborting loop because EDIFF is reached ----------------------------------------

  FORCE on cell =-STRESS in cart. coord.  units (eV):
  Direction    XX          YY          ZZ          XY          YZ          ZX
  Alpha Z  1357.53553  1357.53553  1357.53553
  Ewald  478804.93038478115.23721************    -0.00000     0.00000    -0.00000
  Hartree507420.19053506912.99714************    -0.00000     0.00000    -0.00000
  E(xc)   -7791.01581 -7792.01793 -7841.56656     0.00000    -0.00000    -0.00000
  Local  ************************************    -0.00000    -0.00000     0.00000
  n-local -8731.24105 -8728.67125 -8850.17990    -0.00001    -0.00001    -0.00000
  augment  3461.99679  3464.01612  3404.63606    -0.00000     0.00000    -0.00000
  Kinetic 22970.58387 22976.59198 23221.49030     0.00001     0.00001    -0.00001
  Fock        0.00000     0.00000     0.00000     0.00000     0.00000     0.00000
  vdW       -54.19130   -54.18265   -25.52121     0.00000    -0.00000    -0.00000
  Total    -157.67939  -158.49285    15.07975     0.00000     0.00000     0.00000
  in kB     -25.56570   -25.69759     2.44499     0.00000     0.00000     0.00000

 VOLUME and BASIS-vectors are now :
  energy-cutoff  :      520.00
  volume of cell :     9881.61
      direct lattice vectors                 reciprocal lattice vectors
    21.138852197  0.000000000  0.000000000     0.047306258  0.000000000  0.000000000
     0.000000000 21.138852197  0.000000000     0.000000000  0.047306258  0.000000000
     0.000000000  0.000000000 22.113885220     0.000000000  0.000000000  0.045220457

  length of vectors
    21.138852197 21.138852197 22.113885220     0.047306258  0.047306258  0.045220457

 FORCES acting on ions:
    Electron-Ion                     Ewald-Force                    Non-Local-Force
   -.267E+03 -.214E-05 -.199E+04   0.260E+03 0.836E-08 0.199E+04   0.687E+01 -.106E-21 -.116E+00
   0.267E+03 -.214E-05 -.199E+04   -.260E+03 0.836E-08 0.199E+04   -.687E+01 0.000E+00 -.116E+00
   0.166E-12 -.340E-08 0.931E+03   0.764E-13 0.701E-08 -.923E+03   0.000E+00 0.000E+00 -.752E+01
   0.368E+01 0.407E+01 0.932E+03   -.368E+01 -.407E+01 -.924E+03   -.135E-02 0.670E-02 -.752E+01
   0.141E-12 0.437E+01 -.922E+03   0.103E-12 -.438E+01 0.915E+03   0.000E+00 0.623E-02 0.750E+01
   0.387E+01 -.486E-08 -.922E+03   -.387E+01 0.100E-07 0.915E+03   -.266E-02 -.529E-22 0.750E+01
   0.153E-12 0.601E+01 0.933E+03   0.153E-10 -.602E+01 -.925E+03   0.000E+00 0.107E-01 -.752E+01
   0.766E+01 0.768E+01 0.936E+03   -.766E+01 -.770E+01 -.928E+03   0.496E-02 0.154E-01 -.752E+01
   0.137E-12 0.814E+01 -.920E+03   0.181E-11 -.816E+01 0.912E+03   0.662E-23 0.123E-01 0.750E+01
   0.703E+01 0.911E+01 -.921E+03   -.703E+01 -.912E+01 0.913E+03   -.766E-03 0.134E-01 0.750E+01
   0.148E-12 0.415E+01 0.936E+03   -.174E-10 -.417E+01 -.928E+03   0.165E-23 0.789E-02 -.752E+01
   0.112E+02 0.519E-08 0.939E+03   -.113E+02 -.107E-07 -.931E+03   0.252E-01 0.000E+00 -.752E+01
   0.143E-12 0.541E-08 -.918E+03   0.120E-12 -.112E-07 0.910E+03   0.000E+00 0.000E+00 0.750E+01
   0.154E+02 0.716E+01 -.916E+03   -.155E+02 -.717E+01 0.908E+03   0.184E-01 0.115E-01 0.750E+01
   0.159E-12 -.415E+01 0.936E+03   0.116E-11 0.417E+01 -.928E+03   0.000E+00 -.789E-02 -.752E+01
   0.766E+01 -.768E+01 0.936E+03   -.766E+01 0.770E+01 -.928E+03   0.496E-02 -.154E-01 -.752E+01
   0.151E-12 -.814E+01 -.920E+03   -.785E-12 0.816E+01 0.912E+03   0.000E+00 -.123E-01 0.750E+01
   0.154E+02 -.716E+01 -.916E+03   -.155E+02 0.717E+01 0.908E+03   0.184E-01 -.115E-01 0.750E+01
   0.170E-12 -.601E+01 0.933E+03   0.853E-12 0.602E+01 -.925E+03   0.000E+00 -.107E-01 -.752E+01
   0.368E+01 -.407E+01 0.932E+03   -.368E+01 0.407E+01 -.924E+03   -.135E-02 -.670E-02 -.752E+01
   0.146E-12 -.437E+01 -.922E+03   -.867E-12 0.438E+01 0.915E+03   0.000E+00 -.623E-02 0.750E+01
   0.703E+01 -.911E+01 -.921E+03   -.703E+01 0.912E+01 0.913E+03   -.766E-03 -.134E-01 0.750E+01
   0.528E+01 -.523E-08 0.932E+03   -.528E+01 0.108E-07 -.925E+03   -.340E-02 -.248E-22 -.752E+01
   0.663E+01 0.778E+01 0.935E+03   -.662E+01 -.779E+01 -.927E+03   -.413E-02 0.106E-01 -.752E+01
   0.800E+01 0.745E+01 -.921E+03   -.799E+01 -.746E+01 0.913E+03   -.530E-02 0.848E-02 0.750E+01
   0.688E+01 -.982E-08 -.920E+03   -.687E+01 0.203E-07 0.913E+03   -.567E-02 0.199E-22 0.750E+01
   0.924E+01 0.101E+02 0.936E+03   -.924E+01 -.101E+02 -.928E+03   0.311E-04 0.175E-01 -.752E+01
   0.172E+02 0.191E+02 0.950E+03   -.172E+02 -.192E+02 -.942E+03   0.926E-02 0.401E-01 -.752E+01
   0.221E+02 0.180E+02 -.913E+03   -.221E+02 -.181E+02 0.905E+03   0.497E-02 0.314E-01 0.750E+01
   0.152E+02 0.227E+02 -.914E+03   -.151E+02 -.227E+02 0.906E+03   -.118E-01 0.250E-01 0.749E+01
   0.200E+02 0.853E+01 0.946E+03   -.200E+02 -.857E+01 -.939E+03   0.242E-01 0.243E-01 -.752E+01
   0.310E+02 0.167E-07 0.969E+03   -.310E+02 -.344E-07 -.961E+03   0.101E-01 -.265E-22 -.742E+01
   0.409E+02 0.156E-07 -.902E+03   -.410E+02 -.321E-07 0.895E+03   0.859E-01 0.000E+00 0.751E+01
   0.561E+02 0.338E+02 -.879E+03   -.562E+02 -.339E+02 0.871E+03   0.540E-01 0.937E-01 0.752E+01
   0.200E+02 -.853E+01 0.946E+03   -.200E+02 0.857E+01 -.939E+03   0.242E-01 -.243E-01 -.752E+01
   0.172E+02 -.191E+02 0.950E+03   -.172E+02 0.192E+02 -.942E+03   0.926E-02 -.401E-01 -.752E+01
   0.221E+02 -.180E+02 -.913E+03   -.221E+02 0.181E+02 0.905E+03   0.497E-02 -.314E-01 0.750E+01
   0.561E+02 -.338E+02 -.879E+03   -.562E+02 0.339E+02 0.871E+03   0.540E-01 -.937E-01 0.752E+01
   0.924E+01 -.101E+02 0.936E+03   -.924E+01 0.101E+02 -.928E+03   0.311E-04 -.175E-01 -.752E+01
   0.663E+01 -.778E+01 0.935E+03   -.662E+01 0.779E+01 -.927E+03   -.413E-02 -.106E-01 -.752E+01
   0.800E+01 -.745E+01 -.921E+03   -.799E+01 0.746E+01 0.913E+03   -.530E-02 -.848E-02 0.750E+01
   0.152E+02 -.227E+02 -.914E+03   -.151E+02 0.227E+02 0.906E+03   -.118E-01 -.250E-01 0.749E+01
   0.351E+01 -.893E-08 0.935E+03   -.351E+01 0.184E-07 -.927E+03   -.280E-02 0.000E+00 -.752E+01
   -.199E-12 0.107E+02 0.938E+03   0.387E-11 -.107E+02 -.930E+03   0.000E+00 0.802E-02 -.753E+01
   0.574E+01 0.144E+02 -.917E+03   -.573E+01 -.144E+02 0.910E+03   -.522E-02 0.295E-02 0.749E+01
   -.260E-12 -.138E-07 -.919E+03   0.622E-14 0.285E-07 0.911E+03   0.000E+00 0.000E+00 0.750E+01
   0.702E+01 0.197E+02 0.944E+03   -.702E+01 -.198E+02 -.937E+03   -.372E-02 0.356E-01 -.754E+01
   -.184E-12 0.312E+02 0.964E+03   -.579E-11 -.313E+02 -.956E+03   -.132E-22 0.441E-01 -.757E+01
   0.238E+02 0.558E+02 -.886E+03   -.238E+02 -.559E+02 0.879E+03   -.354E-01 0.100E+00 0.748E+01
   -.237E-12 0.364E+02 -.907E+03   -.193E-10 -.364E+02 0.899E+03   0.529E-22 -.109E-01 0.748E+01
   0.203E+02 0.239E+02 0.983E+03   -.203E+02 -.240E+02 -.975E+03   0.864E-02 0.236E-01 -.742E+01
   -.206E-12 0.328E-07 0.101E+04   -.104E-12 -.677E-07 -.100E+04   0.000E+00 0.000E+00 -.753E+01
   0.821E+02 0.111E-06 -.756E+03   -.821E+02 -.229E-06 0.749E+03   -.604E-01 0.000E+00 0.657E+01
   -.252E-12 0.922E+02 -.797E+03   0.215E-10 -.924E+02 0.790E+03   0.000E+00 0.929E-01 0.719E+01
   0.203E+02 -.239E+02 0.983E+03   -.203E+02 0.240E+02 -.975E+03   0.864E-02 -.236E-01 -.742E+01
   -.203E-12 -.312E+02 0.964E+03   -.183E-10 0.313E+02 -.956E+03   0.000E+00 -.441E-01 -.757E+01
   0.238E+02 -.558E+02 -.886E+03   -.238E+02 0.559E+02 0.879E+03   -.354E-01 -.100E+00 0.748E+01
   -.258E-12 -.922E+02 -.797E+03   0.183E-10 0.924E+02 0.790E+03   0.000E+00 -.929E-01 0.719E+01
   0.702E+01 -.197E+02 0.944E+03   -.702E+01 0.198E+02 -.937E+03   -.372E-02 -.356E-01 -.754E+01
   -.205E-12 -.107E+02 0.938E+03   0.203E-10 0.107E+02 -.930E+03   0.000E+00 -.802E-02 -.753E+01
[...]
   -.107E+02 0.891E+01 0.707E+03   0.107E+02 -.893E+01 -.711E+03   -.859E-02 0.269E-01 0.346E+01
   -.393E+01 0.527E+01 0.702E+03   0.393E+01 -.528E+01 -.706E+03   -.106E-02 0.135E-01 0.346E+01
   -.257E+02 0.107E+02 -.681E+03   0.258E+02 -.107E+02 0.685E+03   -.348E-01 0.396E-01 -.348E+01
   -.131E+02 0.549E-08 -.688E+03   0.132E+02 -.113E-07 0.692E+03   -.199E-01 -.562E-22 -.348E+01
   -.170E+02 0.668E-08 0.713E+03   0.170E+02 -.138E-07 -.717E+03   -.456E-01 0.000E+00 0.349E+01
   -.761E+01 0.386E+01 0.705E+03   0.762E+01 -.387E+01 -.709E+03   -.142E-01 0.152E-01 0.346E+01
   -.257E+02 -.107E+02 -.681E+03   0.258E+02 0.107E+02 0.685E+03   -.348E-01 -.396E-01 -.348E+01
   -.826E+01 -.774E+01 -.690E+03   0.826E+01 0.775E+01 0.694E+03   -.731E-02 -.198E-01 -.349E+01
   -.107E+02 -.891E+01 0.707E+03   0.107E+02 0.893E+01 -.711E+03   -.859E-02 -.269E-01 0.346E+01
   -.761E+01 -.386E+01 0.705E+03   0.762E+01 0.387E+01 -.709E+03   -.142E-01 -.152E-01 0.346E+01
   -.965E+01 -.106E+02 -.690E+03   0.965E+01 0.106E+02 0.694E+03   0.786E-03 -.180E-01 -.349E+01
   -.348E+01 -.386E+01 -.693E+03   0.348E+01 0.386E+01 0.697E+03   0.168E-02 -.699E-02 -.349E+01
   -.468E+01 -.419E+01 0.702E+03   0.468E+01 0.419E+01 -.706E+03   0.263E-02 -.826E-02 0.346E+01
   -.393E+01 -.527E+01 0.702E+03   0.393E+01 0.528E+01 -.706E+03   -.106E-02 -.135E-01 0.346E+01
   -.738E-11 -.434E-05 0.703E+01   0.161E-11 0.120E-11 -.819E-11   -.117E-14 -.243E-16 -.770E+01

 POSITION                                       TOTAL-FORCE (eV/Angst)
     11.85490     10.56943     14.05048         0.216461     -0.000000     -0.033691
      9.28395     10.56943     14.05048        -0.216461     -0.000000     -0.033691
      0.00000      0.00000      9.00000        -0.000000     -0.000000      0.311528
      2.11389      2.11389      9.00000         0.000374     -0.001815      0.311590
      0.00000      2.11389     11.11389        -0.000000     -0.001685     -0.308426
      2.11389      0.00000     11.11389         0.000751     -0.000000     -0.308321
      0.00000      4.22777      9.00000        -0.000000     -0.002972      0.311398
      2.11389      6.34166      9.00000        -0.001405     -0.004312      0.311087
      0.00000      6.34166     11.11389        -0.000000     -0.003478     -0.308552
      2.11389      4.22777     11.11389         0.000248     -0.003659     -0.308303
      0.00000      8.45554      9.00000        -0.000000     -0.002287      0.311167
      2.11389     10.56943      9.00000        -0.006323     -0.000000      0.311348
      0.00000     10.56943     11.11389        -0.000000     -0.000000     -0.308881
      2.11389      8.45554     11.11389        -0.004739     -0.003358     -0.308926
      0.00000     12.68331      9.00000        -0.000000      0.002287      0.311167
      2.11389     14.79720      9.00000        -0.001405      0.004312      0.311087
      0.00000     14.79720     11.11389        -0.000000      0.003478     -0.308552
      2.11389     12.68331     11.11389        -0.004739      0.003358     -0.308926
      0.00000     16.91108      9.00000        -0.000000      0.002972      0.311398
      2.11389     19.02497      9.00000         0.000374      0.001815      0.311590
      0.00000     19.02497     11.11389        -0.000000      0.001685     -0.308426
      2.11389     16.91108     11.11389         0.000248      0.003659     -0.308303
      4.22777      0.00000      9.00000         0.000967     -0.000000      0.311864
      6.34166      2.11389      9.00000         0.001215     -0.002731      0.312449
      4.22777      2.11389     11.11389         0.001493     -0.002205     -0.307880
      6.34166      0.00000     11.11389         0.001651     -0.000000     -0.307484
      4.22777      4.22777      9.00000        -0.000023     -0.004698      0.311763
      6.34166      6.34166      9.00000        -0.003017     -0.010973      0.312328
      4.22777      6.34166     11.11389        -0.000926     -0.008437     -0.308122
      6.34166      4.22777     11.11389         0.003551     -0.006054     -0.305741
      4.22777      8.45554      9.00000        -0.006859     -0.007297      0.309509
      6.34166     10.56943      9.00000        -0.000489     -0.000000      0.288986
      4.22777     10.56943     11.11389        -0.025294     -0.000000     -0.309747
      6.34166      8.45554     11.11389        -0.005526     -0.019475     -0.303290
      4.22777     12.68331      9.00000        -0.006859      0.007297      0.309509
      6.34166     14.79720      9.00000        -0.003017      0.010973      0.312328
      4.22777     14.79720     11.11389        -0.000926      0.008437     -0.308122
      6.34166     12.68331     11.11389        -0.005526      0.019475     -0.303290
      4.22777     16.91108      9.00000        -0.000023      0.004698      0.311763
      6.34166     19.02497      9.00000         0.001215      0.002731      0.312449
      4.22777     19.02497     11.11389         0.001493      0.002205     -0.307880
      6.34166     16.91108     11.11389         0.003551      0.006054     -0.305741
      8.45554      0.00000      9.00000         0.000827     -0.000000      0.312428
     10.56943      2.11389      9.00000        -0.000000     -0.002226      0.313050
      8.45554      2.11389     11.11389         0.001625     -0.000314     -0.306062
     10.56943      0.00000     11.11389        -0.000000     -0.000000     -0.306690
      8.45554      4.22777      9.00000         0.001386     -0.008842      0.315639
     10.56943      6.34166      9.00000        -0.000000     -0.013031      0.323300
      8.45554      6.34166     11.11389         0.016499     -0.022664     -0.284069
     10.56943      4.22777     11.11389        -0.000000      0.005299     -0.300006
      8.45554      8.45554      9.00000         0.000115     -0.002467      0.290960
     10.56943     10.56943      9.00000        -0.000000     -0.000000      0.285757
      8.45554     10.56943     11.11389        -0.016364     -0.000000     -0.369485
     10.56943      8.45554     11.11389        -0.000000      0.004993     -0.129747
      8.45554     12.68331      9.00000         0.000115      0.002467      0.290960
     10.56943     14.79720      9.00000        -0.000000      0.013031      0.323300
      8.45554     14.79720     11.11389         0.016499      0.022664     -0.284069
     10.56943     12.68331     11.11389        -0.000000     -0.004993     -0.129747
      8.45554     16.91108      9.00000         0.001386      0.008842      0.315639
     10.56943     19.02497      9.00000        -0.000000      0.002226      0.313050
[...]
     19.02497      6.34166     11.11389        -0.002152      0.005583      0.502750
     16.91108      6.34166      9.00000        -0.002618      0.007640     -0.505585
     19.02497      4.22777      9.00000        -0.000328      0.003768     -0.505993
     16.91108      8.45554     11.11389        -0.011483      0.011699      0.505972
     19.02497     10.56943     11.11389        -0.005975     -0.000000      0.503445
     16.91108     10.56943      9.00000        -0.014128     -0.000000     -0.497508
     19.02497      8.45554      9.00000        -0.004066      0.004271     -0.505111
     16.91108     12.68331     11.11389        -0.011483     -0.011699      0.505972
     19.02497     14.79720     11.11389        -0.002152     -0.005583      0.502750
     16.91108     14.79720      9.00000        -0.002618     -0.007640     -0.505585
     19.02497     12.68331      9.00000        -0.004066     -0.004271     -0.505111
     16.91108     16.91108     11.11389         0.000057     -0.005125      0.501885
     19.02497     19.02497     11.11389         0.000416     -0.001966      0.502531
     16.91108     19.02497      9.00000         0.000686     -0.002298     -0.506388
     19.02497     16.91108      9.00000        -0.000328     -0.003768     -0.505993
    total drift:                               -0.000000     -0.000004     -0.664710

  FREE ENERGIE OF THE ION-ELECTRON SYSTEM (eV)
  free  energy   TOTEN  =     -1130.34013822 eV

  energy  without entropy=    -1130.34013822  energy(sigma->0) =    -1130.34013822