 vasp.6.3.0 20Jan22 (build Apr  1 2022 16:44:48) complex
 executed on        HPECrayEX_GCC date 2022.11.18  20:56:08

 INCAR:
   SYSTEM = MgO-rocksalt
   ISMEAR = 0
   SIGMA = 0.05
   EDIFF = 1E-6
   ALGO = ALL
   ISTART = 0
   IBRION = -1
   NSW = 0
   ISYM = 2
   DIPOL = 0.5 0.5 0.5
   IDIPOL = 3
   LDIPOL = .TRUE.
   LHFCALC = .TRUE.
   GGA = B5
   AEXX = 0.2
   AGGAX = 0.72
   AGGAC = 0.81
   ALDAC = 0.19
   IVDW = 1
   VDW_S6 = 1.05
   VDW_C6 = 10.8 0.63 0.70
   VDW_R0 = 1.562 1.243 1.342
   ENCUT = 520
   PREC = Accurate
   LASPH = .TRUE.
   LREAL = Auto
   ISPIN = 1
   NELM = 200
   NELMIN = 8
   NCORE = 4
   KPAR = 2
   LWAVE = .FALSE.
   LCHARG = .FALSE.

 POTCAR:    PAW_PBE Cu 22Jun2005
 POTCAR:    PAW_PBE Mg_pv 13Apr2007
 POTCAR:    PAW_PBE O 08Apr2002
|           W    W    AA    RRRRR   N    N  II  N    N   GGGG   !!!           |
|           W    W   A  A   R    R  NN   N  II  NN   N  G    G  !!!           |
|           W    W  A    A  R    R  N N  N  II  N N  N  G       !!!           |
|           W WW W  AAAAAA  RRRRR   N  N N  II  N  N N  G  GGG   !            |
|           WW  WW  A    A  R   R   N   NN  II  N   NN  G    G                |
|           W    W  A    A  R    R  N    N  II  N    N   GGGG   !!!           |
|     You have selected ISYM=2 for a HF type calculation. This will           |
|     symmetrize the charge density but not the exchange potential. I         |
|     suggest to use ISYM=3 instead. This uses symmetry to obtain the         |
|     orbitals at all k-points in the Brillouin zone, but does not apply      |
|     symmetry to the Hartree potential directly. The resultant charge        |
|     might have lower symmetry than the crystal but, at least, Hartree       |
|     and exchange are fully compatible.                                      |

   TITEL  = PAW_PBE Cu 22Jun2005
   POMASS =   63.546; ZVAL   =   11.000    mass and valenz
   ENMAX  =  295.446; ENMIN  =  221.585 eV

   TITEL  = PAW_PBE Mg_pv 13Apr2007
   POMASS =   24.305; ZVAL   =    8.000    mass and valenz
   ENMAX  =  403.929; ENMIN  =  302.947 eV

   TITEL  = PAW_PBE O 08Apr2002
   POMASS =   16.000; ZVAL   =    6.000    mass and valenz
   ENMAX  =  400.000; ENMIN  =  300.000 eV

 Optimization of the real space projectors (new method)

 maximal supplied QI-value         = 16.25
 optimisation between [QCUT,QGAM] = [ 11.54, 23.24] = [ 37.28,151.24] Ry
 Optimized for a Real-space Cutoff    1.53 Angstroem

   l    n(q)    QCUT    max X(q) W(low)/X(q) W(high)/X(q)  e(spline)
   2     10    11.539     4.610    0.96E-04    0.13E-03    0.19E-06
   2     10    11.539     8.522    0.16E-03    0.21E-03    0.28E-06
   0     11    11.539    51.609    0.45E-04    0.31E-04    0.11E-06
   0     11    11.539    27.747    0.39E-04    0.29E-04    0.10E-06
   1     10    11.539    20.408    0.70E-05    0.38E-04    0.18E-06
   1     10    11.539    13.425    0.66E-05    0.34E-04    0.17E-06
 Optimization of the real space projectors (new method)

[...]

   l    n(q)    QCUT    max X(q) W(low)/X(q) W(high)/X(q)  e(spline)
   1      8    11.527     2.974    0.44E-04    0.56E-04    0.12E-06
   1      8    11.527     4.279    0.12E-03    0.12E-03    0.26E-06
   0      9    11.527    16.381    0.46E-04    0.64E-04    0.78E-07
   0      9    11.527     5.611    0.26E-04    0.43E-04    0.55E-07
   2      8    11.527     4.652    0.22E-03    0.72E-04    0.47E-07
 Optimization of the real space projectors (new method)

 maximal supplied QI-value         = 24.76
 optimisation between [QCUT,QGAM] = [ 11.64, 23.27] = [ 37.91,151.63] Ry
 Optimized for a Real-space Cutoff    1.14 Angstroem

   l    n(q)    QCUT    max X(q) W(low)/X(q) W(high)/X(q)  e(spline)
   0      8    11.635    20.381    0.10E-03    0.33E-03    0.24E-06
   0      8    11.635    15.268    0.11E-03    0.35E-03    0.26E-06
   1      7    11.635     5.964    0.24E-03    0.31E-03    0.30E-06
   1      7    11.635     5.382    0.22E-03    0.25E-03    0.26E-06
|               ----> ADVICE to this user running VASP <----                  |
|     You enforced a specific xc type in the INCAR file but a different       |
|     type was found in the POTCAR file.                                      |
|     I HOPE YOU KNOW WHAT YOU ARE DOING!                                     |

  PAW_PBE Cu 22Jun2005                  :
  PAW_PBE Mg_pv 13Apr2007               :
  PAW_PBE O 08Apr2002                   :

 POSCAR: Cu Mg  O
  positions in direct lattice
 exchange correlation table for  LEXCH =       12
   RHO(1)=    0.500       N(1)  =     2000
   RHO(2)=  100.500       N(2)  =     4000

 ion  position               nearest neighbor table
   1  0.500  0.600  0.727-   2 2.22
   2  0.500  0.600  0.627-   1 2.22
   3  0.000  0.000  0.407- 105 2.11 106 2.11 121 2.11 186 2.11 103 2.11
   4  0.100  0.100  0.407- 105 2.11 106 2.11 110 2.11 125 2.11 104 2.11
   5  0.000  0.100  0.503- 103 2.11 104 2.11 107 2.11 184 2.11 105 2.11
   6  0.100  0.000  0.503- 103 2.11 104 2.11 120 2.11 123 2.11 106 2.11
   7  0.000  0.200  0.407- 109 2.11 105 2.11 110 2.11 190 2.11 107 2.11
   8  0.100  0.300  0.407- 110 2.11 109 2.11 114 2.11 129 2.11 108 2.11
   9  0.000  0.300  0.503- 107 2.11 108 2.11 111 2.11 188 2.11 109 2.11
  10  0.100  0.200  0.503- 108 2.11 107 2.11 104 2.11 127 2.11 110 2.11
  11  0.000  0.400  0.407- 109 2.11 113 2.11 114 2.11 194 2.11 111 2.11
  12  0.100  0.500  0.407- 113 2.11 114 2.11 118 2.11 133 2.11 112 2.11
  13  0.000  0.500  0.503- 111 2.11 112 2.11 115 2.11 192 2.11 113 2.11
  14  0.100  0.400  0.503- 108 2.11 111 2.11 112 2.11 131 2.11 114 2.11
  15  0.000  0.600  0.407- 113 2.11 117 2.11 118 2.11 198 2.11 115 2.11
  16  0.100  0.700  0.407- 122 2.11 118 2.11 117 2.11 137 2.11 116 2.11
  17  0.000  0.700  0.503- 119 2.11 116 2.11 115 2.11 196 2.11 117 2.11
  18  0.100  0.600  0.503- 112 2.11 115 2.11 116 2.11 135 2.11 118 2.11
  19  0.000  0.800  0.407- 117 2.11 121 2.11 122 2.11 202 2.11 119 2.11
  20  0.100  0.900  0.407- 106 2.11 121 2.11 122 2.11 141 2.11 120 2.11
  21  0.000  0.900  0.503- 103 2.11 119 2.11 120 2.11 200 2.11 121 2.11
  22  0.100  0.800  0.503- 116 2.11 119 2.11 120 2.11 139 2.11 122 2.11
  23  0.200  0.000  0.407- 126 2.11 125 2.11 106 2.11 141 2.11 123 2.11
  24  0.300  0.100  0.407- 125 2.11 126 2.11 130 2.11 145 2.11 124 2.11
  25  0.200  0.100  0.503- 124 2.11 123 2.11 104 2.11 127 2.11 125 2.11
  26  0.300  0.000  0.503- 123 2.11 124 2.11 140 2.11 143 2.11 126 2.11
  27  0.200  0.200  0.407- 129 2.11 130 2.11 110 2.11 125 2.11 127 2.11
  28  0.300  0.300  0.407- 129 2.11 130 2.11 134 2.11 149 2.11 128 2.11
  29  0.200  0.300  0.503- 127 2.11 128 2.11 108 2.11 131 2.11 129 2.11
  30  0.300  0.200  0.503- 127 2.11 128 2.11 124 2.11 147 2.11 130 2.11
  31  0.200  0.400  0.407- 134 2.11 129 2.11 133 2.11 114 2.11 131 2.11
  32  0.300  0.500  0.407- 133 2.11 134 2.11 138 2.11 153 2.11 132 2.11
  33  0.200  0.500  0.503- 132 2.11 131 2.11 112 2.11 135 2.11 133 2.11
  34  0.300  0.400  0.503- 131 2.11 128 2.11 132 2.11 151 2.11 134 2.11
  35  0.200  0.600  0.407- 138 2.11 133 2.11 137 2.11 118 2.11 135 2.11
  36  0.300  0.700  0.407- 137 2.11 142 2.11 138 2.11 157 2.11 136 2.11
  37  0.200  0.700  0.503- 136 2.11 139 2.11 116 2.11 135 2.11 137 2.11
  38  0.300  0.600  0.503- 135 2.11 132 2.11 136 2.11 155 2.11 138 2.11
  39  0.200  0.800  0.407- 137 2.11 142 2.11 141 2.11 122 2.11 139 2.11
  40  0.300  0.900  0.407- 141 2.11 126 2.11 142 2.11 161 2.11 140 2.11
  41  0.200  0.900  0.503- 140 2.11 123 2.11 139 2.11 120 2.11 141 2.11
  42  0.300  0.800  0.503- 136 2.11 139 2.11 140 2.11 159 2.11 142 2.11
  43  0.400  0.000  0.407- 126 2.11 145 2.11 146 2.11 161 2.11 143 2.11
  44  0.500  0.100  0.407- 145 2.11 146 2.11 150 2.11 165 2.11 144 2.11
  45  0.400  0.100  0.503- 124 2.11 143 2.11 144 2.11 147 2.11 145 2.11
  46  0.500  0.000  0.503- 143 2.11 144 2.11 160 2.11 163 2.11 146 2.11
  47  0.400  0.200  0.407- 149 2.11 145 2.11 130 2.11 150 2.11 147 2.11
  48  0.500  0.300  0.407- 150 2.11 149 2.11 154 2.11 169 2.11 148 2.11
  49  0.400  0.300  0.503- 147 2.11 128 2.11 148 2.11 151 2.11 149 2.11
  50  0.500  0.200  0.503- 148 2.11 147 2.11 144 2.11 167 2.11 150 2.11
  51  0.400  0.400  0.407- 134 2.11 149 2.11 153 2.11 154 2.11 151 2.11
  52  0.500  0.500  0.407- 153 2.11 154 2.11 158 2.11 173 2.11 152 2.11
  53  0.400  0.500  0.503- 132 2.11 151 2.11 152 2.11 155 2.11 153 2.11
  54  0.500  0.400  0.503- 148 2.11 151 2.11 152 2.11 171 2.11 154 2.11
  55  0.400  0.600  0.407- 138 2.11 153 2.11 157 2.11 158 2.11 155 2.11
  56  0.500  0.700  0.407- 162 2.11 158 2.11 157 2.11 177 2.11 156 2.11
  57  0.400  0.700  0.503- 159 2.11 155 2.11 156 2.11 136 2.11 157 2.11
  58  0.500  0.600  0.503- 152 2.11 155 2.11 156 2.11 175 2.11 158 2.11
  59  0.400  0.800  0.407- 157 2.11 142 2.11 161 2.11 162 2.11 159 2.11
  60  0.500  0.900  0.407- 146 2.11 161 2.11 162 2.11 181 2.11 160 2.11
[...]
 188  0.900  0.300  0.503-  90 2.11  89 2.11   9 2.11  94 2.11  88 2.11
 189  0.800  0.300  0.407-  68 2.11  87 2.11  88 2.11  91 2.11  89 2.11
 190  0.900  0.200  0.407-  88 2.11  84 2.11  87 2.11   7 2.11  90 2.11
 191  0.800  0.400  0.503-  74 2.11  89 2.11  93 2.11  94 2.11  91 2.11
 192  0.900  0.500  0.503-  13 2.11  93 2.11  94 2.11  98 2.11  92 2.11
 193  0.800  0.500  0.407-  72 2.11  91 2.11  92 2.11  95 2.11  93 2.11
 194  0.900  0.400  0.407-  11 2.11  88 2.11  91 2.11  92 2.11  94 2.11
 195  0.800  0.600  0.503-  78 2.11  93 2.11  97 2.11  98 2.11  95 2.11
 196  0.900  0.700  0.503- 102 2.11  97 2.11  98 2.11  17 2.11  96 2.11
 197  0.800  0.700  0.407-  76 2.11  99 2.11  96 2.11  95 2.11  97 2.11
 198  0.900  0.600  0.407-  15 2.11  92 2.11  95 2.11  96 2.11  98 2.11
 199  0.800  0.800  0.503-  82 2.11  97 2.11 101 2.11 102 2.11  99 2.11
 200  0.900  0.900  0.503-  21 2.11  86 2.11 101 2.11 102 2.11 100 2.11
 201  0.800  0.900  0.407-  80 2.11  83 2.11  99 2.11 100 2.11 101 2.11
 202  0.900  0.800  0.407-  96 2.11  19 2.11  99 2.11 100 2.11 102 2.11

  LATTYP: Found a simple tetragonal cell.
 ALAT       =    21.1388521970
 C/A-ratio  =     1.0461251639

  Lattice vectors:

 A1 = (  21.1388521970,   0.0000000000,   0.0000000000)
 A2 = (   0.0000000000,  21.1388521970,   0.0000000000)
 A3 = (   0.0000000000,   0.0000000000,  22.1138852197)

Analysis of symmetry for initial positions (statically):
 Subroutine PRICEL returns:
 Original cell was already a primitive cell.

 Routine SETGRP: Setting up the symmetry group for a
 simple tetragonal supercell.

 Subroutine GETGRP returns: Found  8 space group operations
 (whereof  2 operations were pure point group operations)
 out of a pool of 16 trial point group operations.

The static configuration has the point symmetry C_1h.
 The point group associated with its full space group is C_4v.

Analysis of symmetry for dynamics (positions and initial velocities):
 Subroutine PRICEL returns:
 Original cell was already a primitive cell.

 Routine SETGRP: Setting up the symmetry group for a
 simple tetragonal supercell.

 Subroutine GETGRP returns: Found  8 space group operations
 (whereof  2 operations were pure point group operations)
 out of a pool of 16 trial point group operations.

[...]
     36     -46.3602      2.00000
     37     -46.3602      2.00000
     38     -46.3581      2.00000
     39     -46.3581      2.00000
     40     -46.3577      2.00000
     41     -46.3566      2.00000
     42     -46.3566      2.00000
     43     -46.3564      2.00000
     44     -46.3556      2.00000
     45     -46.3552      2.00000
     46     -46.3550      2.00000
     47     -46.3541      2.00000
     48     -46.3541      2.00000
     49     -46.3531      2.00000
     50     -46.3531      2.00000
     51     -46.3525      2.00000
     52     -46.3520      2.00000
     53     -46.3514      2.00000
     54     -46.3513      2.00000
     55     -46.3513      2.00000
     56     -46.3504      2.00000
     57     -46.3504      2.00000
     58     -46.3504      2.00000
     59     -46.3503      2.00000
     60     -46.3499      2.00000
[...]
   1010       7.5821      0.00000
   1011       7.6450      0.00000
   1012       7.7220      0.00000
   1013       7.7281      0.00000
   1014       7.7714      0.00000
   1015       7.8126      0.00000
   1016       7.8195      0.00000
   1017       7.8762      0.00000
   1018       7.9343      0.00000
   1019       8.0345      0.00000
   1020       8.0628      0.00000
   1021       8.0728      0.00000
   1022       8.3633      0.00000
   1023       8.4561      0.00000
   1024       8.4799      0.00000

 soft charge-density along one line, spin component           1
         0         1         2         3         4         5         6         7         8         9
 total charge-density along one line

------------------------ aborting loop because EDIFF is reached ----------------------------------------

  DFT-D2 method for vdW energy calculation

  Parameters of vdW forcefield:
         C6(Jnm^6/mol)     R0(A)
   Cu      10.800          1.562
   Mg       0.630          1.243
   O        0.700          1.342

  vdW correction parametrized for the method        <Zz

  IVDW =   1
  VDW_RADIUS =    50.000 A
  VDW_S6 =     1.050
  VDW_SR =     1.000
  VDW_D =    20.000
  LVDW_EWALD = F

  Number of pair interactions contributing to vdW energy: 1097016
  Edisp (eV):  -12.11745

 VOLUME and BASIS-vectors are now :
  energy-cutoff  :      520.00
  volume of cell :     9881.61
      direct lattice vectors                 reciprocal lattice vectors
    21.138852197  0.000000000  0.000000000     0.047306258  0.000000000  0.000000000
     0.000000000 21.138852197  0.000000000     0.000000000  0.047306258  0.000000000
     0.000000000  0.000000000 22.113885220     0.000000000  0.000000000  0.045220457

  length of vectors
    21.138852197 21.138852197 22.113885220     0.047306258  0.047306258  0.045220457

 FORCES acting on ions:
    Electron-Ion                     Ewald-Force                    Non-Local-Force
   0.173E-03 0.564E-07 -.178E+04   -.169E-07 -.399E-07 0.177E+04   0.424E-21 -.424E-21 0.118E+02
   0.178E-03 0.792E-05 -.169E+04   -.312E-05 -.740E-05 0.170E+04   0.000E+00 0.424E-21 -.118E+02
   0.531E-04 -.304E+01 0.931E+03   -.952E-06 0.304E+01 -.923E+03   0.000E+00 -.213E-02 -.669E+01
   0.303E+01 -.321E-03 0.931E+03   -.304E+01 -.226E-05 -.923E+03   0.213E-02 0.678E-20 -.669E+01
   0.527E-04 -.321E-03 -.922E+03   -.103E-05 -.245E-05 0.915E+03   0.000E+00 0.000E+00 0.668E+01
   0.443E+01 -.443E+01 -.922E+03   -.443E+01 0.443E+01 0.914E+03   0.157E-02 -.157E-02 0.668E+01
   0.531E-04 0.303E+01 0.931E+03   -.952E-06 -.304E+01 -.923E+03   0.000E+00 0.213E-02 -.669E+01
   0.474E+01 0.591E+01 0.933E+03   -.475E+01 -.591E+01 -.925E+03   0.541E-02 0.516E-02 -.670E+01
   0.536E-04 0.639E+01 -.921E+03   -.171E-05 -.639E+01 0.913E+03   0.000E+00 0.189E-02 0.667E+01
   0.443E+01 0.443E+01 -.922E+03   -.443E+01 -.443E+01 0.914E+03   0.157E-02 0.157E-02 0.668E+01
   0.539E-04 0.532E+01 0.933E+03   -.177E-05 -.533E+01 -.925E+03   0.000E+00 0.378E-02 -.670E+01
   0.848E+01 0.414E+01 0.936E+03   -.851E+01 -.414E+01 -.929E+03   0.165E-01 0.392E-02 -.670E+01
   0.553E-04 0.441E+01 -.918E+03   -.324E-05 -.441E+01 0.911E+03   0.000E+00 0.120E-02 0.667E+01
   0.953E+01 0.843E+01 -.918E+03   -.954E+01 -.844E+01 0.911E+03   0.568E-02 0.277E-02 0.667E+01
   0.545E-04 -.326E-03 0.935E+03   -.242E-05 0.230E-05 -.927E+03   0.000E+00 0.000E+00 -.670E+01
   0.848E+01 -.414E+01 0.936E+03   -.851E+01 0.414E+01 -.929E+03   0.165E-01 -.392E-02 -.670E+01
   0.553E-04 -.441E+01 -.918E+03   -.324E-05 0.441E+01 0.911E+03   0.000E+00 -.120E-02 0.667E+01
   0.142E+02 -.327E-03 -.915E+03   -.142E+02 0.387E-05 0.908E+03   0.108E-01 0.212E-20 0.667E+01
   0.539E-04 -.532E+01 0.933E+03   -.177E-05 0.533E+01 -.925E+03   0.000E+00 -.378E-02 -.670E+01
   0.474E+01 -.591E+01 0.933E+03   -.475E+01 0.591E+01 -.925E+03   0.541E-02 -.516E-02 -.670E+01
   0.536E-04 -.639E+01 -.921E+03   -.171E-05 0.639E+01 0.913E+03   0.000E+00 -.189E-02 0.667E+01
   0.953E+01 -.843E+01 -.918E+03   -.954E+01 0.844E+01 0.911E+03   0.568E-02 -.277E-02 0.667E+01
   0.591E+01 -.474E+01 0.933E+03   -.591E+01 0.475E+01 -.925E+03   0.516E-02 -.541E-02 -.670E+01
   0.532E+01 -.319E-03 0.933E+03   -.533E+01 -.419E-05 -.925E+03   0.378E-02 0.635E-20 -.670E+01
   0.639E+01 -.319E-03 -.921E+03   -.639E+01 -.406E-05 0.913E+03   0.189E-02 0.212E-20 0.667E+01
   0.843E+01 -.953E+01 -.918E+03   -.844E+01 0.954E+01 0.911E+03   0.277E-02 -.568E-02 0.667E+01
   0.591E+01 0.474E+01 0.933E+03   -.591E+01 -.475E+01 -.925E+03   0.516E-02 0.541E-02 -.670E+01
   0.951E+01 0.124E+02 0.939E+03   -.953E+01 -.124E+02 -.931E+03   0.145E-01 0.218E-01 -.670E+01
   0.118E+02 0.118E+02 -.918E+03   -.118E+02 -.118E+02 0.910E+03   0.583E-02 0.583E-02 0.667E+01
   0.843E+01 0.953E+01 -.918E+03   -.844E+01 -.954E+01 0.911E+03   0.277E-02 0.568E-02 0.667E+01
   0.124E+02 0.951E+01 0.939E+03   -.124E+02 -.953E+01 -.931E+03   0.218E-01 0.145E-01 -.670E+01
   0.221E+02 0.115E+02 0.955E+03   -.223E+02 -.115E+02 -.947E+03   0.719E-01 0.400E-01 -.672E+01
   0.275E+02 0.104E+02 -.908E+03   -.276E+02 -.104E+02 0.901E+03   0.295E-01 0.454E-02 0.666E+01
   0.262E+02 0.262E+02 -.903E+03   -.263E+02 -.263E+02 0.896E+03   0.253E-01 0.253E-01 0.666E+01
   0.185E+02 -.328E-03 0.944E+03   -.186E+02 0.458E-05 -.936E+03   0.638E-01 0.339E-20 -.671E+01
   0.221E+02 -.115E+02 0.955E+03   -.223E+02 0.115E+02 -.947E+03   0.719E-01 -.400E-01 -.672E+01
   0.275E+02 -.104E+02 -.908E+03   -.276E+02 0.104E+02 0.901E+03   0.295E-01 -.454E-02 0.666E+01
   0.561E+02 -.341E-03 -.880E+03   -.564E+02 0.178E-04 0.872E+03   0.231E+00 0.339E-20 0.664E+01
   0.124E+02 -.951E+01 0.939E+03   -.124E+02 0.953E+01 -.931E+03   0.218E-01 -.145E-01 -.670E+01
   0.951E+01 -.124E+02 0.939E+03   -.953E+01 0.124E+02 -.931E+03   0.145E-01 -.218E-01 -.670E+01
   0.118E+02 -.118E+02 -.918E+03   -.118E+02 0.118E+02 0.910E+03   0.583E-02 -.583E-02 0.667E+01
   0.262E+02 -.262E+02 -.903E+03   -.263E+02 0.263E+02 0.896E+03   0.253E-01 -.253E-01 0.666E+01
   0.414E+01 -.848E+01 0.936E+03   -.414E+01 0.851E+01 -.929E+03   0.392E-02 -.165E-01 -.670E+01
   0.522E-04 -.318E-03 0.935E+03   0.970E-06 -.573E-05 -.927E+03   0.000E+00 0.000E+00 -.670E+01
   0.441E+01 -.316E-03 -.918E+03   -.441E+01 -.767E-05 0.911E+03   0.120E-02 0.296E-20 0.667E+01
   0.519E-04 -.142E+02 -.915E+03   0.164E-05 0.142E+02 0.908E+03   0.000E+00 -.108E-01 0.667E+01
   0.414E+01 0.848E+01 0.936E+03   -.414E+01 -.851E+01 -.929E+03   0.392E-02 0.165E-01 -.670E+01
   0.515E-04 0.185E+02 0.944E+03   0.193E-05 -.186E+02 -.936E+03   0.000E+00 0.638E-01 -.671E+01
   0.104E+02 0.275E+02 -.908E+03   -.104E+02 -.276E+02 0.901E+03   0.454E-02 0.295E-01 0.666E+01
   0.519E-04 0.142E+02 -.915E+03   0.163E-05 -.142E+02 0.908E+03   0.000E+00 0.108E-01 0.667E+01
   0.115E+02 0.221E+02 0.955E+03   -.115E+02 -.223E+02 -.947E+03   0.400E-01 0.719E-01 -.672E+01
   0.485E-04 0.229E+02 0.983E+03   0.603E-05 -.229E+02 -.975E+03   0.000E+00 0.478E-01 -.652E+01
   0.514E+02 0.514E+02 -.846E+03   -.517E+02 -.517E+02 0.838E+03   0.196E+00 0.196E+00 0.665E+01
   0.482E-04 0.561E+02 -.880E+03   0.753E-05 -.564E+02 0.872E+03   0.000E+00 0.231E+00 0.664E+01
   0.229E+02 -.337E-03 0.983E+03   -.229E+02 0.143E-04 -.975E+03   0.478E-01 0.678E-20 -.652E+01
   0.485E-04 -.229E+02 0.983E+03   0.603E-05 0.229E+02 -.975E+03   0.000E+00 -.478E-01 -.652E+01
   0.514E+02 -.514E+02 -.846E+03   -.517E+02 0.517E+02 0.838E+03   0.196E+00 -.196E+00 0.665E+01
   0.246E-04 -.416E-03 -.711E+03   0.389E-04 0.922E-04 0.703E+03   0.000E+00 0.000E+00 0.640E+01
   0.115E+02 -.221E+02 0.955E+03   -.115E+02 0.223E+02 -.947E+03   0.400E-01 -.719E-01 -.672E+01
   0.515E-04 -.185E+02 0.944E+03   0.193E-05 0.186E+02 -.936E+03   -.339E-20 -.638E-01 -.671E+01
[...]
   -.630E+01 0.630E+01 0.703E+03   0.631E+01 -.631E+01 -.707E+03   -.110E-01 0.110E-01 0.318E+01
   -.260E+01 0.260E+01 0.700E+03   0.261E+01 -.261E+01 -.704E+03   -.305E-02 0.305E-02 0.318E+01
   -.143E+02 0.106E+02 -.687E+03   0.143E+02 -.106E+02 0.691E+03   -.161E-01 0.128E-01 -.323E+01
   -.956E+01 0.424E+01 -.689E+03   0.956E+01 -.425E+01 0.693E+03   -.860E-02 0.312E-02 -.322E+01
   -.125E+02 0.493E+01 0.709E+03   0.125E+02 -.495E+01 -.713E+03   -.349E-01 0.170E-01 0.317E+01
   -.498E+01 0.474E+01 0.703E+03   0.499E+01 -.474E+01 -.707E+03   -.907E-02 0.722E-02 0.318E+01
   -.238E+02 -.157E-02 -.681E+03   0.238E+02 0.558E-05 0.685E+03   -.332E-01 0.974E-20 -.325E+01
   -.956E+01 -.425E+01 -.689E+03   0.956E+01 0.425E+01 0.693E+03   -.860E-02 -.312E-02 -.322E+01
   -.125E+02 -.494E+01 0.709E+03   0.125E+02 0.495E+01 -.713E+03   -.349E-01 -.170E-01 0.317E+01
   -.697E+01 -.157E-02 0.704E+03   0.698E+01 0.210E-05 -.708E+03   -.148E-01 -.847E-21 0.318E+01
   -.143E+02 -.106E+02 -.687E+03   0.143E+02 0.106E+02 0.691E+03   -.161E-01 -.128E-01 -.323E+01
   -.481E+01 -.576E+01 -.692E+03   0.481E+01 0.576E+01 0.696E+03   -.361E-02 -.381E-02 -.321E+01
   -.630E+01 -.630E+01 0.703E+03   0.631E+01 0.631E+01 -.707E+03   -.110E-01 -.110E-01 0.318E+01
   -.498E+01 -.474E+01 0.703E+03   0.499E+01 0.474E+01 -.707E+03   -.907E-02 -.722E-02 0.318E+01
   -.991E-02 -.190E+00 0.290E+01   0.115E-11 0.103E-11 0.134E-10   0.815E-16 0.321E-16 -.298E+01

 POSITION                                       TOTAL-FORCE (eV/Angst)
     10.56943     12.68331     16.08428         0.000000     -0.000000      0.279667
     10.56943     12.68331     13.86085         0.000000     -0.000000     -0.139588
      0.00000      0.00000      9.00000         0.000000      0.000636      0.474042
      2.11389      2.11389      9.00000        -0.000636     -0.000000      0.474042
      0.00000      2.11389     11.11389         0.000000     -0.000000     -0.468038
      2.11389      0.00000     11.11389        -0.000442      0.000442     -0.467649
      0.00000      4.22777      9.00000         0.000000     -0.000636      0.474042
      2.11389      6.34166      9.00000        -0.001635     -0.001607      0.474656
      0.00000      6.34166     11.11389         0.000000     -0.000575     -0.467541
      2.11389      4.22777     11.11389        -0.000442     -0.000442     -0.467649
      0.00000      8.45554      9.00000         0.000000     -0.001154      0.474660
      2.11389     10.56943      9.00000        -0.004917     -0.001268      0.475680
      0.00000     10.56943     11.11389         0.000000     -0.000383     -0.465988
      2.11389      8.45554     11.11389        -0.001486     -0.000821     -0.465695
      0.00000     12.68331      9.00000         0.000000     -0.000000      0.474952
      2.11389     14.79720      9.00000        -0.004917      0.001268      0.475680
      0.00000     14.79720     11.11389         0.000000      0.000383     -0.465988
      2.11389     12.68331     11.11389        -0.002609     -0.000000     -0.464206
      0.00000     16.91108      9.00000         0.000000      0.001154      0.474660
      2.11389     19.02497      9.00000        -0.001635      0.001607      0.474656
      0.00000     19.02497     11.11389         0.000000      0.000575     -0.467541
      2.11389     16.91108     11.11389        -0.001486      0.000821     -0.465695
      4.22777      0.00000      9.00000        -0.001607      0.001635      0.474656
      6.34166      2.11389      9.00000        -0.001154     -0.000000      0.474660
      4.22777      2.11389     11.11389        -0.000575     -0.000000     -0.467541
      6.34166      0.00000     11.11389        -0.000821      0.001486     -0.465695
      4.22777      4.22777      9.00000        -0.001607     -0.001635      0.474656
      6.34166      6.34166      9.00000        -0.004542     -0.006678      0.475845
      4.22777      6.34166     11.11389        -0.001587     -0.001587     -0.465127
      6.34166      4.22777     11.11389        -0.000821     -0.001486     -0.465695
      4.22777      8.45554      9.00000        -0.006678     -0.004542      0.475845
      6.34166     10.56943      9.00000        -0.022999     -0.014194      0.478001
      4.22777     10.56943     11.11389        -0.007389     -0.001379     -0.458958
      6.34166      8.45554     11.11389        -0.006162     -0.006162     -0.454848
      4.22777     12.68331      9.00000        -0.018327     -0.000000      0.478446
      6.34166     14.79720      9.00000        -0.022999      0.014194      0.478001
      4.22777     14.79720     11.11389        -0.007389      0.001379     -0.458958
      6.34166     12.68331     11.11389        -0.069298     -0.000000     -0.432370
      4.22777     16.91108      9.00000        -0.006678      0.004542      0.475845
      6.34166     19.02497      9.00000        -0.004542      0.006678      0.475845
      4.22777     19.02497     11.11389        -0.001587      0.001587     -0.465127
      6.34166     16.91108     11.11389        -0.006162      0.006162     -0.454848
      8.45554      0.00000      9.00000        -0.001268      0.004917      0.475680
     10.56943      2.11389      9.00000         0.000000     -0.000000      0.474952
      8.45554      2.11389     11.11389        -0.000383     -0.000000     -0.465988
     10.56943      0.00000     11.11389         0.000000      0.002609     -0.464206
      8.45554      4.22777      9.00000        -0.001268     -0.004917      0.475680
     10.56943      6.34166      9.00000         0.000000     -0.018327      0.478446
      8.45554      6.34166     11.11389        -0.001379     -0.007389     -0.458958
     10.56943      4.22777     11.11389         0.000000     -0.002609     -0.464206
      8.45554      8.45554      9.00000        -0.014194     -0.022999      0.478001
     10.56943     10.56943      9.00000         0.000000     -0.013213      0.417014
      8.45554     10.56943     11.11389        -0.057526     -0.057526     -0.420374
     10.56943      8.45554     11.11389         0.000000     -0.069298     -0.432370
      8.45554     12.68331      9.00000        -0.013213     -0.000000      0.417014
     10.56943     14.79720      9.00000         0.000000      0.013213      0.417014
      8.45554     14.79720     11.11389        -0.057526      0.057526     -0.420374
     10.56943     12.68331     11.11389         0.000000     -0.000000     -1.069556
      8.45554     16.91108      9.00000        -0.014194      0.022999      0.478001
     10.56943     19.02497      9.00000         0.000000      0.018327      0.478446
[...]
     19.02497      6.34166     11.11389        -0.001159      0.001232      0.410731
     16.91108      6.34166      9.00000        -0.003504      0.003504     -0.419505
     19.02497      4.22777      9.00000        -0.000976      0.000976     -0.418600
     16.91108      8.45554     11.11389        -0.005281      0.004197      0.406288
     19.02497     10.56943     11.11389        -0.002829      0.001024      0.408178
     16.91108     10.56943      9.00000        -0.011283      0.005466     -0.421531
     19.02497      8.45554      9.00000        -0.002943      0.002314     -0.419406
     16.91108     12.68331     11.11389        -0.011146     -0.000000      0.400591
     19.02497     14.79720     11.11389        -0.002829     -0.001024      0.408178
     16.91108     14.79720      9.00000        -0.011283     -0.005466     -0.421531
     19.02497     12.68331      9.00000        -0.004784     -0.000000     -0.420177
     16.91108     16.91108     11.11389        -0.005281     -0.004197      0.406288
     19.02497     19.02497     11.11389        -0.001159     -0.001232      0.410731
     16.91108     19.02497      9.00000        -0.003504     -0.003504     -0.419505
     19.02497     16.91108      9.00000        -0.002943     -0.002314     -0.419406
    total drift:                               -0.009911     -0.190080     -0.286998

  FREE ENERGIE OF THE ION-ELECTRON SYSTEM (eV)
  free  energy   TOTEN  =     -1344.53214277 eV

  energy  without entropy=    -1344.53214277  energy(sigma->0) =    -1344.53214277