 vasp.6.3.0 20Jan22 (build Apr  1 2022 16:44:48) complex
 executed on        HPECrayEX_GCC date 2022.08.15  19:18:31

 INCAR:
   SYSTEM = MgO-rocksalt
   ISMEAR = 0
   SIGMA = 0.05
   EDIFF = 1E-6
   ALGO = ALL
   ISTART = 0
   IBRION = -1
   NSW = 0
   ISYM = 2
   DIPOL = 0.5 0.5 0.5
   IDIPOL = 3
   LDIPOL = .TRUE.
   GGA = RE
   LUSE_VDW = .TRUE.
   AGGAC = 0.0
   ENCUT = 520
   PREC = Accurate
   LASPH = .TRUE.
   LREAL = Auto
   ISPIN = 1
   NELM = 200
   NELMIN = 8
   NCORE = 4
   KPAR = 2
   LWAVE = .FALSE.
   LCHARG = .FALSE.

 POTCAR:    PAW_PBE Au 04Oct2007
 POTCAR:    PAW_PBE Mg_pv 13Apr2007
 POTCAR:    PAW_PBE O 08Apr2002
|               ----> ADVICE to this user running VASP <----                  |
|     You have switched on vdW-DFT.                                           |
|     This routine was written and supplied by Jiri Klimes. We recommend      |
|     that you carefully read and cite the following publications:            |
|       J. Klimes, D.R. Bowler, A. Michelides                                 |
|          J. Phys.: Cond Matt. 22 022201 (2010)                              |
|       J. Klimes, D.R. Bowler, A. Michelides                                 |
|          Phys. Rev. B. 83, 195131 (2011)                                    |
|     and references therein.                                                 |

   TITEL  = PAW_PBE Au 04Oct2007
   POMASS =  196.966; ZVAL   =   11.000    mass and valenz
   ENMAX  =  229.943; ENMIN  =  172.457 eV

   TITEL  = PAW_PBE Mg_pv 13Apr2007
   POMASS =   24.305; ZVAL   =    8.000    mass and valenz
   ENMAX  =  403.929; ENMIN  =  302.947 eV

   TITEL  = PAW_PBE O 08Apr2002
   POMASS =   16.000; ZVAL   =    6.000    mass and valenz
   ENMAX  =  400.000; ENMIN  =  300.000 eV

 Optimization of the real space projectors (new method)

 maximal supplied QI-value         = 15.12
 optimisation between [QCUT,QGAM] = [ 11.64, 23.28] = [ 37.95,151.78] Ry
 Optimized for a Real-space Cutoff    1.49 Angstroem

   l    n(q)    QCUT    max X(q) W(low)/X(q) W(high)/X(q)  e(spline)
   2      9    11.641    60.898    0.24E-03    0.10E-03    0.19E-06
   2      9    11.641    58.894    0.25E-03    0.10E-03    0.19E-06
   0     10    11.641   109.617    0.73E-04    0.33E-04    0.11E-06
   0     10    11.641    75.026    0.71E-04    0.32E-04    0.11E-06
   1     10    11.641    16.344    0.27E-04    0.97E-04    0.16E-06
   1     10    11.641    10.160    0.23E-04    0.77E-04    0.13E-06
 Optimization of the real space projectors (new method)

[...]

   l    n(q)    QCUT    max X(q) W(low)/X(q) W(high)/X(q)  e(spline)
   1      8    11.527     2.974    0.44E-04    0.56E-04    0.12E-06
   1      8    11.527     4.279    0.12E-03    0.12E-03    0.26E-06
   0      9    11.527    16.381    0.46E-04    0.64E-04    0.78E-07
   0      9    11.527     5.611    0.26E-04    0.43E-04    0.55E-07
   2      8    11.527     4.652    0.22E-03    0.72E-04    0.47E-07
 Optimization of the real space projectors (new method)

 maximal supplied QI-value         = 24.76
 optimisation between [QCUT,QGAM] = [ 11.64, 23.27] = [ 37.91,151.63] Ry
 Optimized for a Real-space Cutoff    1.14 Angstroem

   l    n(q)    QCUT    max X(q) W(low)/X(q) W(high)/X(q)  e(spline)
   0      8    11.635    20.381    0.10E-03    0.33E-03    0.24E-06
   0      8    11.635    15.268    0.11E-03    0.35E-03    0.26E-06
   1      7    11.635     5.964    0.24E-03    0.31E-03    0.30E-06
   1      7    11.635     5.382    0.22E-03    0.25E-03    0.26E-06
|               ----> ADVICE to this user running VASP <----                  |
|     You enforced a specific xc type in the INCAR file but a different       |
|     type was found in the POTCAR file.                                      |
|     I HOPE YOU KNOW WHAT YOU ARE DOING!                                     |

  PAW_PBE Au 04Oct2007                  :
  PAW_PBE Mg_pv 13Apr2007               :
  PAW_PBE O 08Apr2002                   :

 POSCAR: Au Mg  O
  positions in direct lattice
 exchange correlation table for  LEXCH =       40
   RHO(1)=    0.500       N(1)  =     2000
   RHO(2)=  100.500       N(2)  =     4000

 ion  position               nearest neighbor table
   1  0.661  0.500  0.614-   2 2.57 172 2.59  73 2.77
   2  0.539  0.500  0.614-   1 2.57 152 2.59  73 2.77
   3  0.000  0.000  0.407- 105 2.11 106 2.11 121 2.11 186 2.11 103 2.11
   4  0.100  0.100  0.407- 105 2.11 106 2.11 110 2.11 125 2.11 104 2.11
   5  0.000  0.100  0.503- 103 2.11 104 2.11 107 2.11 184 2.11 105 2.11
   6  0.100  0.000  0.503- 103 2.11 104 2.11 120 2.11 123 2.11 106 2.11
   7  0.000  0.200  0.407- 109 2.11 105 2.11 110 2.11 190 2.11 107 2.11
   8  0.100  0.300  0.407- 110 2.11 109 2.11 114 2.11 129 2.11 108 2.11
   9  0.000  0.300  0.503- 107 2.11 108 2.11 111 2.11 188 2.11 109 2.11
  10  0.100  0.200  0.503- 108 2.11 107 2.11 104 2.11 127 2.11 110 2.11
  11  0.000  0.400  0.407- 109 2.11 113 2.11 114 2.11 194 2.11 111 2.11
  12  0.100  0.500  0.407- 113 2.11 114 2.11 118 2.11 133 2.11 112 2.11
  13  0.000  0.500  0.503- 111 2.11 112 2.11 115 2.11 192 2.11 113 2.11
  14  0.100  0.400  0.503- 108 2.11 111 2.11 112 2.11 131 2.11 114 2.11
  15  0.000  0.600  0.407- 113 2.11 117 2.11 118 2.11 198 2.11 115 2.11
  16  0.100  0.700  0.407- 122 2.11 118 2.11 117 2.11 137 2.11 116 2.11
  17  0.000  0.700  0.503- 119 2.11 116 2.11 115 2.11 196 2.11 117 2.11
  18  0.100  0.600  0.503- 112 2.11 115 2.11 116 2.11 135 2.11 118 2.11
  19  0.000  0.800  0.407- 117 2.11 121 2.11 122 2.11 202 2.11 119 2.11
  20  0.100  0.900  0.407- 106 2.11 121 2.11 122 2.11 141 2.11 120 2.11
  21  0.000  0.900  0.503- 103 2.11 119 2.11 120 2.11 200 2.11 121 2.11
  22  0.100  0.800  0.503- 116 2.11 119 2.11 120 2.11 139 2.11 122 2.11
  23  0.200  0.000  0.407- 126 2.11 125 2.11 106 2.11 141 2.11 123 2.11
  24  0.300  0.100  0.407- 125 2.11 126 2.11 130 2.11 145 2.11 124 2.11
  25  0.200  0.100  0.503- 124 2.11 123 2.11 104 2.11 127 2.11 125 2.11
  26  0.300  0.000  0.503- 123 2.11 124 2.11 140 2.11 143 2.11 126 2.11
  27  0.200  0.200  0.407- 129 2.11 130 2.11 110 2.11 125 2.11 127 2.11
  28  0.300  0.300  0.407- 129 2.11 130 2.11 134 2.11 149 2.11 128 2.11
  29  0.200  0.300  0.503- 127 2.11 128 2.11 108 2.11 131 2.11 129 2.11
  30  0.300  0.200  0.503- 127 2.11 128 2.11 124 2.11 147 2.11 130 2.11
  31  0.200  0.400  0.407- 134 2.11 129 2.11 133 2.11 114 2.11 131 2.11
  32  0.300  0.500  0.407- 133 2.11 134 2.11 138 2.11 153 2.11 132 2.11
  33  0.200  0.500  0.503- 132 2.11 131 2.11 112 2.11 135 2.11 133 2.11
  34  0.300  0.400  0.503- 131 2.11 128 2.11 132 2.11 151 2.11 134 2.11
  35  0.200  0.600  0.407- 138 2.11 133 2.11 137 2.11 118 2.11 135 2.11
  36  0.300  0.700  0.407- 137 2.11 142 2.11 138 2.11 157 2.11 136 2.11
  37  0.200  0.700  0.503- 136 2.11 139 2.11 116 2.11 135 2.11 137 2.11
  38  0.300  0.600  0.503- 135 2.11 132 2.11 136 2.11 155 2.11 138 2.11
  39  0.200  0.800  0.407- 137 2.11 142 2.11 141 2.11 122 2.11 139 2.11
  40  0.300  0.900  0.407- 141 2.11 126 2.11 142 2.11 161 2.11 140 2.11
  41  0.200  0.900  0.503- 140 2.11 123 2.11 139 2.11 120 2.11 141 2.11
  42  0.300  0.800  0.503- 136 2.11 139 2.11 140 2.11 159 2.11 142 2.11
  43  0.400  0.000  0.407- 126 2.11 145 2.11 146 2.11 161 2.11 143 2.11
  44  0.500  0.100  0.407- 145 2.11 146 2.11 150 2.11 165 2.11 144 2.11
  45  0.400  0.100  0.503- 124 2.11 143 2.11 144 2.11 147 2.11 145 2.11
  46  0.500  0.000  0.503- 143 2.11 144 2.11 160 2.11 163 2.11 146 2.11
  47  0.400  0.200  0.407- 149 2.11 145 2.11 130 2.11 150 2.11 147 2.11
  48  0.500  0.300  0.407- 150 2.11 149 2.11 154 2.11 169 2.11 148 2.11
  49  0.400  0.300  0.503- 147 2.11 128 2.11 148 2.11 151 2.11 149 2.11
  50  0.500  0.200  0.503- 148 2.11 147 2.11 144 2.11 167 2.11 150 2.11
  51  0.400  0.400  0.407- 134 2.11 149 2.11 153 2.11 154 2.11 151 2.11
  52  0.500  0.500  0.407- 153 2.11 154 2.11 158 2.11 173 2.11 152 2.11
  53  0.400  0.500  0.503- 132 2.11 151 2.11 152 2.11 155 2.11 153 2.11
  54  0.500  0.400  0.503- 148 2.11 151 2.11 152 2.11 171 2.11 154 2.11
  55  0.400  0.600  0.407- 138 2.11 153 2.11 157 2.11 158 2.11 155 2.11
  56  0.500  0.700  0.407- 162 2.11 158 2.11 157 2.11 177 2.11 156 2.11
  57  0.400  0.700  0.503- 159 2.11 155 2.11 156 2.11 136 2.11 157 2.11
  58  0.500  0.600  0.503- 152 2.11 155 2.11 156 2.11 175 2.11 158 2.11
  59  0.400  0.800  0.407- 157 2.11 142 2.11 161 2.11 162 2.11 159 2.11
  60  0.500  0.900  0.407- 146 2.11 161 2.11 162 2.11 181 2.11 160 2.11
[...]
 188  0.900  0.300  0.503-  90 2.11  89 2.11   9 2.11  94 2.11  88 2.11
 189  0.800  0.300  0.407-  68 2.11  87 2.11  88 2.11  91 2.11  89 2.11
 190  0.900  0.200  0.407-  88 2.11  84 2.11  87 2.11   7 2.11  90 2.11
 191  0.800  0.400  0.503-  74 2.11  89 2.11  93 2.11  94 2.11  91 2.11
 192  0.900  0.500  0.503-  13 2.11  93 2.11  94 2.11  98 2.11  92 2.11
 193  0.800  0.500  0.407-  72 2.11  91 2.11  92 2.11  95 2.11  93 2.11
 194  0.900  0.400  0.407-  11 2.11  88 2.11  91 2.11  92 2.11  94 2.11
 195  0.800  0.600  0.503-  78 2.11  93 2.11  97 2.11  98 2.11  95 2.11
 196  0.900  0.700  0.503- 102 2.11  97 2.11  98 2.11  17 2.11  96 2.11
 197  0.800  0.700  0.407-  76 2.11  99 2.11  96 2.11  95 2.11  97 2.11
 198  0.900  0.600  0.407-  15 2.11  92 2.11  95 2.11  96 2.11  98 2.11
 199  0.800  0.800  0.503-  82 2.11  97 2.11 101 2.11 102 2.11  99 2.11
 200  0.900  0.900  0.503-  21 2.11  86 2.11 101 2.11 102 2.11 100 2.11
 201  0.800  0.900  0.407-  80 2.11  83 2.11  99 2.11 100 2.11 101 2.11
 202  0.900  0.800  0.407-  96 2.11  19 2.11  99 2.11 100 2.11 102 2.11

  LATTYP: Found a simple tetragonal cell.
 ALAT       =    21.1388521970
 C/A-ratio  =     1.0461251639

  Lattice vectors:

 A1 = (  21.1388521970,   0.0000000000,   0.0000000000)
 A2 = (   0.0000000000,  21.1388521970,   0.0000000000)
 A3 = (   0.0000000000,   0.0000000000,  22.1138852197)

Analysis of symmetry for initial positions (statically):
 Subroutine PRICEL returns:
 Original cell was already a primitive cell.

 Routine SETGRP: Setting up the symmetry group for a
 simple tetragonal supercell.

 Subroutine GETGRP returns: Found  4 space group operations
 (whereof  2 operations were pure point group operations)
 out of a pool of 16 trial point group operations.

The static configuration has the point symmetry C_1h.
 The point group associated with its full space group is C_2v.

Analysis of symmetry for dynamics (positions and initial velocities):
 Subroutine PRICEL returns:
 Original cell was already a primitive cell.

 Routine SETGRP: Setting up the symmetry group for a
 simple tetragonal supercell.

 Subroutine GETGRP returns: Found  4 space group operations
 (whereof  2 operations were pure point group operations)
 out of a pool of 16 trial point group operations.

The dynamic configuration has the point symmetry C_1h.
 The point group associated with its full space group is C_2v.

 Subroutine INISYM returns: Found  4 space group operations
 (whereof  2 operations are pure point group operations),
 and found     1 'primitive' translations

                                     Primitive cell

  volume of cell :    9881.6133

[...]
     52     -43.5759      2.00000
     53     -43.5750      2.00000
     54     -43.5703      2.00000
     55     -43.5701      2.00000
     56     -43.5700      2.00000
     57     -43.5697      2.00000
     58     -43.5696      2.00000
     59     -43.5695      2.00000
     60     -43.5694      2.00000
[...]
    882       4.5390      0.00000
    883       4.5759      0.00000
    884       4.6122      0.00000
    885       4.6219      0.00000
    886       4.6721      0.00000
    887       4.7000      0.00000
    888       4.7357      0.00000
    889       5.0318      0.00000
    890       5.1556      0.00000
    891       5.2175      0.00000
    892       5.3109      0.00000
    893       5.3548      0.00000
    894       5.4037      0.00000
    895       5.4487      0.00000
    896       5.5045      0.00000

 soft charge-density along one line, spin component           1
         0         1         2         3         4         5         6         7         8         9
 total charge-density along one line

------------------------ aborting loop because EDIFF is reached ----------------------------------------

  FORCE on cell =-STRESS in cart. coord.  units (eV):
  Direction    XX          YY          ZZ          XY          YZ          ZX
  Alpha Z  1365.75682  1365.75682  1365.75682
  Ewald  480802.96044480097.24197************    -0.00000     0.00000     0.00003
  Hartree509088.69970508605.45648************     0.00000    -0.00000     0.00001
  E(xc)   -7957.47056 -7958.47457 -7974.91309     0.00000     0.00000    -0.00000
  Local  ************************************     0.00000    -0.00000    -0.00003
  n-local -8775.49784 -8762.43272 -8881.47490     0.00001     0.00001     0.00001
  augment  3511.70456  3513.50291  3458.79882     0.00000    -0.00001     0.00000
  Kinetic 23064.57768 23070.91242 23279.20310    -0.00001     0.00000     0.00000
  Fock        0.00000     0.00000     0.00000     0.00000     0.00000     0.00000
  Total    -117.53882  -119.14193    39.05632     0.00000     0.00000     0.00000
  in kB     -19.05742   -19.31734     6.33248     0.00000     0.00000     0.00000

 VOLUME and BASIS-vectors are now :
  energy-cutoff  :      520.00
  volume of cell :     9881.61
      direct lattice vectors                 reciprocal lattice vectors
    21.138852197  0.000000000  0.000000000     0.047306258  0.000000000  0.000000000
     0.000000000 21.138852197  0.000000000     0.000000000  0.047306258  0.000000000
     0.000000000  0.000000000 22.113885220     0.000000000  0.000000000  0.045220457

  length of vectors
    21.138852197 21.138852197 22.113885220     0.047306258  0.047306258  0.045220457

 FORCES acting on ions:
    Electron-Ion                     Ewald-Force                    Non-Local-Force
   -.269E+03 -.141E-05 -.213E+04   0.264E+03 0.167E-07 0.213E+04   0.528E+01 0.000E+00 -.816E+00
   0.269E+03 -.105E-05 -.213E+04   -.264E+03 0.167E-07 0.213E+04   -.528E+01 0.000E+00 -.816E+00
   -.334E+01 0.487E-06 0.930E+03   0.333E+01 0.847E-08 -.923E+03   0.326E-02 0.000E+00 -.682E+01
   -.185E-03 0.373E+01 0.930E+03   -.146E-05 -.375E+01 -.923E+03   -.339E-20 0.148E-01 -.681E+01
   -.483E+01 0.534E+01 -.922E+03   0.482E+01 -.536E+01 0.915E+03   0.524E-02 0.162E-01 0.676E+01
   -.185E-03 0.486E-06 -.922E+03   -.150E-05 0.890E-08 0.915E+03   0.000E+00 0.000E+00 0.676E+01
   -.564E+01 0.749E+01 0.933E+03   0.565E+01 -.753E+01 -.926E+03   -.445E-02 0.324E-01 -.682E+01
   -.184E-03 0.677E+01 0.933E+03   -.302E-05 -.681E+01 -.926E+03   -.339E-20 0.280E-01 -.682E+01
   -.117E+02 0.108E+02 -.918E+03   0.117E+02 -.109E+02 0.911E+03   -.197E-01 0.339E-01 0.675E+01
   -.184E-03 0.778E+01 -.921E+03   -.268E-05 -.781E+01 0.914E+03   0.000E+00 0.235E-01 0.676E+01
   -.112E+02 0.557E+01 0.938E+03   0.113E+02 -.560E+01 -.931E+03   -.533E-01 0.261E-01 -.682E+01
   -.182E-03 0.498E-06 0.936E+03   -.440E-05 -.915E-08 -.929E+03   0.000E+00 0.000E+00 -.682E+01
   -.189E+02 0.464E-06 -.915E+03   0.190E+02 -.161E-07 0.908E+03   -.669E-01 0.000E+00 0.675E+01
   -.181E-03 0.562E+01 -.919E+03   -.565E-05 -.565E+01 0.912E+03   0.000E+00 0.170E-01 0.675E+01
   -.112E+02 -.557E+01 0.938E+03   0.113E+02 0.560E+01 -.931E+03   -.533E-01 -.261E-01 -.682E+01
   -.184E-03 -.677E+01 0.933E+03   -.302E-05 0.681E+01 -.926E+03   -.339E-20 -.280E-01 -.682E+01
   -.117E+02 -.108E+02 -.918E+03   0.117E+02 0.109E+02 0.911E+03   -.197E-01 -.339E-01 0.675E+01
   -.181E-03 -.562E+01 -.919E+03   -.565E-05 0.565E+01 0.912E+03   0.000E+00 -.170E-01 0.675E+01
   -.564E+01 -.749E+01 0.933E+03   0.565E+01 0.753E+01 -.926E+03   -.445E-02 -.324E-01 -.682E+01
   -.185E-03 -.373E+01 0.930E+03   -.146E-05 0.375E+01 -.923E+03   -.339E-20 -.148E-01 -.681E+01
   -.483E+01 -.534E+01 -.922E+03   0.482E+01 0.536E+01 0.915E+03   0.524E-02 -.162E-01 0.676E+01
   -.184E-03 -.778E+01 -.921E+03   -.268E-05 0.781E+01 0.914E+03   0.000E+00 -.235E-01 0.676E+01
   0.333E+01 0.485E-06 0.930E+03   -.333E+01 0.847E-08 -.923E+03   -.326E-02 0.000E+00 -.682E+01
   0.666E+01 0.599E+01 0.932E+03   -.665E+01 -.602E+01 -.925E+03   -.519E-02 0.235E-01 -.682E+01
   0.483E+01 0.534E+01 -.922E+03   -.482E+01 -.536E+01 0.915E+03   -.524E-02 0.162E-01 0.676E+01
   0.677E+01 0.480E-06 -.921E+03   -.676E+01 0.148E-07 0.914E+03   -.953E-02 0.000E+00 0.676E+01
   0.564E+01 0.749E+01 0.933E+03   -.565E+01 -.753E+01 -.926E+03   0.445E-02 0.324E-01 -.682E+01
   0.159E+02 0.131E+02 0.940E+03   -.159E+02 -.132E+02 -.933E+03   0.333E-01 0.749E-01 -.682E+01
   0.117E+02 0.108E+02 -.918E+03   -.117E+02 -.109E+02 0.911E+03   0.197E-01 0.339E-01 0.675E+01
   0.136E+02 0.150E+02 -.918E+03   -.136E+02 -.150E+02 0.911E+03   -.127E-01 0.498E-01 0.675E+01
   0.112E+02 0.557E+01 0.938E+03   -.113E+02 -.560E+01 -.931E+03   0.533E-01 0.261E-01 -.682E+01
   0.259E+02 0.551E-06 0.949E+03   -.262E+02 -.210E-07 -.942E+03   0.208E+00 0.000E+00 -.684E+01
   0.189E+02 0.541E-06 -.915E+03   -.190E+02 -.161E-07 0.908E+03   0.669E-01 0.000E+00 0.675E+01
   0.378E+02 0.157E+02 -.907E+03   -.380E+02 -.157E+02 0.900E+03   0.135E+00 0.532E-01 0.674E+01
   0.112E+02 -.557E+01 0.938E+03   -.113E+02 0.560E+01 -.931E+03   0.533E-01 -.261E-01 -.682E+01
   0.159E+02 -.131E+02 0.940E+03   -.159E+02 0.132E+02 -.933E+03   0.333E-01 -.749E-01 -.682E+01
   0.117E+02 -.108E+02 -.918E+03   -.117E+02 0.109E+02 0.911E+03   0.197E-01 -.339E-01 0.675E+01
   0.378E+02 -.157E+02 -.907E+03   -.380E+02 0.157E+02 0.900E+03   0.135E+00 -.532E-01 0.674E+01
   0.564E+01 -.749E+01 0.933E+03   -.565E+01 0.753E+01 -.926E+03   0.445E-02 -.324E-01 -.682E+01
   0.666E+01 -.599E+01 0.932E+03   -.665E+01 0.602E+01 -.925E+03   -.519E-02 -.235E-01 -.682E+01
   0.483E+01 -.534E+01 -.922E+03   -.482E+01 0.536E+01 0.915E+03   -.524E-02 -.162E-01 0.676E+01
   0.136E+02 -.150E+02 -.918E+03   -.136E+02 0.150E+02 0.911E+03   -.127E-01 -.498E-01 0.675E+01
   0.583E+01 0.479E-06 0.933E+03   -.582E+01 0.160E-07 -.926E+03   -.727E-02 0.000E+00 -.682E+01
   0.464E+01 0.108E+02 0.936E+03   -.463E+01 -.109E+02 -.929E+03   -.585E-02 0.249E-01 -.683E+01
   0.910E+01 0.116E+02 -.919E+03   -.908E+01 -.116E+02 0.912E+03   -.135E-01 0.153E-01 0.675E+01
   0.462E+01 0.472E-06 -.919E+03   -.461E+01 0.276E-07 0.912E+03   -.754E-02 0.000E+00 0.675E+01
   0.114E+02 0.165E+02 0.940E+03   -.114E+02 -.166E+02 -.933E+03   -.647E-02 0.755E-01 -.683E+01
   0.146E+02 0.321E+02 0.961E+03   -.146E+02 -.324E+02 -.954E+03   -.919E-02 0.234E+00 -.692E+01
   0.332E+02 0.378E+02 -.902E+03   -.331E+02 -.380E+02 0.896E+03   -.568E-01 0.186E+00 0.672E+01
   0.116E+02 0.350E+02 -.910E+03   -.116E+02 -.351E+02 0.903E+03   -.211E-01 0.155E-01 0.673E+01
   0.310E+02 0.181E+02 0.965E+03   -.312E+02 -.183E+02 -.958E+03   0.123E+00 0.172E+00 -.678E+01
   0.316E+02 0.662E-06 0.101E+04   -.317E+02 -.741E-07 -.100E+04   0.118E+00 0.000E+00 -.549E+01
   0.914E+02 0.745E-06 -.858E+03   -.928E+02 -.109E-06 0.851E+03   0.998E+00 0.000E+00 0.688E+01
   0.677E+02 0.938E+02 -.814E+03   -.674E+02 -.953E+02 0.807E+03   -.240E+00 0.110E+01 0.649E+01
   0.310E+02 -.181E+02 0.965E+03   -.312E+02 0.183E+02 -.958E+03   0.123E+00 -.172E+00 -.678E+01
   0.146E+02 -.321E+02 0.961E+03   -.146E+02 0.324E+02 -.954E+03   -.919E-02 -.234E+00 -.692E+01
   0.332E+02 -.378E+02 -.902E+03   -.331E+02 0.380E+02 0.896E+03   -.568E-01 -.186E+00 0.672E+01
   0.677E+02 -.938E+02 -.814E+03   -.674E+02 0.953E+02 0.807E+03   -.240E+00 -.110E+01 0.649E+01
   0.114E+02 -.165E+02 0.940E+03   -.114E+02 0.166E+02 -.933E+03   -.647E-02 -.755E-01 -.683E+01
   0.464E+01 -.108E+02 0.936E+03   -.463E+01 0.109E+02 -.929E+03   -.585E-02 -.249E-01 -.683E+01
[...]
   -.148E+02 0.164E+02 0.715E+03   0.148E+02 -.165E+02 -.719E+03   -.277E-01 0.145E+00 0.356E+01
   -.754E+01 0.824E+01 0.704E+03   0.754E+01 -.828E+01 -.708E+03   -.762E-02 0.505E-01 0.356E+01
   -.495E+02 0.299E+02 -.661E+03   0.496E+02 -.302E+02 0.665E+03   -.240E+00 0.394E+00 -.372E+01
   -.343E+02 0.233E-05 -.679E+03   0.344E+02 -.268E-07 0.684E+03   -.158E+00 0.000E+00 -.368E+01
   -.280E+02 0.234E-05 0.732E+03   0.283E+02 -.316E-07 -.736E+03   -.369E+00 0.000E+00 0.384E+01
   -.170E+02 0.720E+01 0.712E+03   0.171E+02 -.727E+01 -.716E+03   -.110E+00 0.886E-01 0.358E+01
   -.495E+02 -.299E+02 -.661E+03   0.496E+02 0.302E+02 0.665E+03   -.240E+00 -.394E+00 -.372E+01
   -.179E+02 -.145E+02 -.687E+03   0.179E+02 0.146E+02 0.691E+03   -.480E-01 -.954E-01 -.367E+01
   -.148E+02 -.164E+02 0.715E+03   0.148E+02 0.165E+02 -.719E+03   -.277E-01 -.145E+00 0.356E+01
   -.170E+02 -.720E+01 0.712E+03   0.171E+02 0.727E+01 -.716E+03   -.110E+00 -.886E-01 0.358E+01
   -.122E+02 -.183E+02 -.688E+03   0.122E+02 0.184E+02 0.692E+03   0.261E-01 -.398E-01 -.368E+01
   -.626E+01 -.586E+01 -.693E+03   0.625E+01 0.587E+01 0.697E+03   0.955E-02 -.167E-01 -.365E+01
   -.533E+01 -.636E+01 0.703E+03   0.532E+01 0.638E+01 -.707E+03   0.846E-02 -.216E-01 0.356E+01
   -.754E+01 -.824E+01 0.704E+03   0.754E+01 0.828E+01 -.708E+03   -.762E-02 -.505E-01 0.356E+01
   -.110E+00 0.288E-03 0.106E+02   0.128E-11 0.734E-12 0.284E-11   0.789E-15 0.694E-16 -.116E+02

 POSITION                                       TOTAL-FORCE (eV/Angst)
     13.96710     10.56943     13.56860         0.454156     -0.000000      0.394844
     11.39952     10.56943     13.56860        -0.454156     -0.000000      0.394844
      0.00000      0.00000      9.00000        -0.000890     -0.000000      0.166006
      2.11389      2.11389      9.00000         0.000000     -0.004106      0.165781
      0.00000      2.11389     11.11389        -0.001421     -0.004355     -0.153117
      2.11389      0.00000     11.11389         0.000000     -0.000000     -0.153852
      0.00000      4.22777      9.00000         0.001370     -0.009023      0.165992
      2.11389      6.34166      9.00000         0.000000     -0.007984      0.166107
      0.00000      6.34166     11.11389         0.005090     -0.009580     -0.150145
      2.11389      4.22777     11.11389         0.000000     -0.006547     -0.152708
      0.00000      8.45554      9.00000         0.014250     -0.007689      0.166562
      2.11389     10.56943      9.00000         0.000000     -0.000000      0.166533
      0.00000     10.56943     11.11389         0.016730     -0.000000     -0.148212
      2.11389      8.45554     11.11389         0.000000     -0.004905     -0.150747
      0.00000     12.68331      9.00000         0.014250      0.007689      0.166562
      2.11389     14.79720      9.00000         0.000000      0.007984      0.166107
      0.00000     14.79720     11.11389         0.005090      0.009580     -0.150145
      2.11389     12.68331     11.11389         0.000000      0.004905     -0.150747
      0.00000     16.91108      9.00000         0.001370      0.009023      0.165992
      2.11389     19.02497      9.00000         0.000000      0.004106      0.165781
      0.00000     19.02497     11.11389        -0.001421      0.004355     -0.153117
      2.11389     16.91108     11.11389         0.000000      0.006547     -0.152708
      4.22777      0.00000      9.00000         0.000890     -0.000000      0.166006
      6.34166      2.11389      9.00000         0.001436     -0.006235      0.166916
      4.22777      2.11389     11.11389         0.001421     -0.004355     -0.153117
      6.34166      0.00000     11.11389         0.002712     -0.000000     -0.152718
      4.22777      4.22777      9.00000        -0.001370     -0.009023      0.165992
      6.34166      6.34166      9.00000        -0.010149     -0.021382      0.165457
      4.22777      6.34166     11.11389        -0.005090     -0.009580     -0.150145
      6.34166      4.22777     11.11389         0.003410     -0.013003     -0.149062
      4.22777      8.45554      9.00000        -0.014250     -0.007689      0.166562
      6.34166     10.56943      9.00000        -0.053388     -0.000000      0.168526
      4.22777     10.56943     11.11389        -0.016730     -0.000000     -0.148212
      6.34166      8.45554     11.11389        -0.035525     -0.016331     -0.141365
      4.22777     12.68331      9.00000        -0.014250      0.007689      0.166562
      6.34166     14.79720      9.00000        -0.010149      0.021382      0.165457
      4.22777     14.79720     11.11389        -0.005090      0.009580     -0.150145
      6.34166     12.68331     11.11389        -0.035525      0.016331     -0.141365
      4.22777     16.91108      9.00000        -0.001370      0.009023      0.165992
      6.34166     19.02497      9.00000         0.001436      0.006235      0.166916
      4.22777     19.02497     11.11389         0.001421      0.004355     -0.153117
      6.34166     16.91108     11.11389         0.003410      0.013003     -0.149062
      8.45554      0.00000      9.00000         0.002117     -0.000000      0.167207
     10.56943      2.11389      9.00000         0.001800     -0.006604      0.168896
      8.45554      2.11389     11.11389         0.003993     -0.003701     -0.149777
     10.56943      0.00000     11.11389         0.002241     -0.000000     -0.150151
      8.45554      4.22777      9.00000         0.001983     -0.019655      0.170969
     10.56943      6.34166      9.00000         0.004725     -0.058593      0.189641
      8.45554      6.34166     11.11389         0.016932     -0.046928     -0.129078
     10.56943      4.22777     11.11389         0.006878     -0.001512     -0.136651
      8.45554      8.45554      9.00000        -0.042650     -0.056851      0.145848
     10.56943     10.56943      9.00000        -0.018520     -0.000000     -0.148956
      8.45554     10.56943     11.11389        -0.324125     -0.000000     -0.169267
     10.56943      8.45554     11.11389         0.097861     -0.345053     -0.017891
      8.45554     12.68331      9.00000        -0.042650      0.056851      0.145848
     10.56943     14.79720      9.00000         0.004725      0.058593      0.189641
      8.45554     14.79720     11.11389         0.016932      0.046928     -0.129078
     10.56943     12.68331     11.11389         0.097861      0.345053     -0.017891
      8.45554     16.91108      9.00000         0.001983      0.019655      0.170969
     10.56943     19.02497      9.00000         0.001800      0.006604      0.168896
[...]
     19.02497      6.34166     11.11389        -0.013901      0.027046      0.534339
     16.91108      6.34166      9.00000        -0.008205      0.041264     -0.558018
     19.02497      4.22777      9.00000        -0.002198      0.014136     -0.556053
     16.91108      8.45554     11.11389        -0.076314      0.116165      0.529478
     19.02497     10.56943     11.11389        -0.046201     -0.000000      0.532425
     16.91108     10.56943      9.00000        -0.118908     -0.000000     -0.480418
     19.02497      8.45554      9.00000        -0.030866      0.024593     -0.552961
     16.91108     12.68331     11.11389        -0.076314     -0.116165      0.529478
     19.02497     14.79720     11.11389        -0.013901     -0.027046      0.534339
     16.91108     14.79720      9.00000        -0.008205     -0.041264     -0.558018
     19.02497     12.68331      9.00000        -0.030866     -0.024593     -0.552961
     16.91108     16.91108     11.11389         0.007081     -0.011418      0.531523
     19.02497     19.02497     11.11389         0.002629     -0.004667      0.539776
     16.91108     19.02497      9.00000         0.002291     -0.006078     -0.556759
     19.02497     16.91108      9.00000        -0.002198     -0.014136     -0.556053
    total drift:                               -0.109880      0.000288     -0.983410

  FREE ENERGIE OF THE ION-ELECTRON SYSTEM (eV)
  free  energy   TOTEN  =      -681.65986278 eV

  energy  without entropy=     -681.65986278  energy(sigma->0) =     -681.65986278