 vasp.6.3.0 20Jan22 (build Apr  1 2022 16:44:48) complex
 executed on        HPECrayEX_GCC date 2022.08.15  22:05:57

 INCAR:
   SYSTEM = MgO-rocksalt
   ISMEAR = 0
   SIGMA = 0.05
   EDIFF = 1E-6
   ALGO = ALL
   ISTART = 0
   IBRION = -1
   NSW = 0
   ISYM = 2
   DIPOL = 0.5 0.5 0.5
   IDIPOL = 3
   LDIPOL = .TRUE.
   METAGGA = R2SCAN
   IVDW = 13
   VDW_S8 = 0.6019
   VDW_A1 = 0.5156
   VDW_A2 = 5.7734
   ENCUT = 520
   PREC = Accurate
   LASPH = .TRUE.
   LREAL = Auto
   ISPIN = 1
   NELM = 200
   NELMIN = 8
   NCORE = 4
   KPAR = 2
   LWAVE = .FALSE.
   LCHARG = .FALSE.

 POTCAR:    PAW_PBE Ag 02Apr2005
 POTCAR:    PAW_PBE Mg_pv 13Apr2007
 POTCAR:    PAW_PBE O 08Apr2002
 POTCAR:    PAW_PBE Ag 02Apr2005
   VRHFIN =Ag : s1 d10

   TITEL  = PAW_PBE Ag 02Apr2005
   POMASS =  107.868; ZVAL   =   11.000    mass and valenz
   ENMAX  =  249.844; ENMIN  =  187.383 eV

   TITEL  = PAW_PBE Mg_pv 13Apr2007
   POMASS =   24.305; ZVAL   =    8.000    mass and valenz
   ENMAX  =  403.929; ENMIN  =  302.947 eV

   TITEL  = PAW_PBE O 08Apr2002
   POMASS =   16.000; ZVAL   =    6.000    mass and valenz
   ENMAX  =  400.000; ENMIN  =  300.000 eV

 Optimization of the real space projectors (new method)

 maximal supplied QI-value         = 15.12
 optimisation between [QCUT,QGAM] = [ 11.64, 23.28] = [ 37.95,151.78] Ry
 Optimized for a Real-space Cutoff    1.45 Angstroem

   l    n(q)    QCUT    max X(q) W(low)/X(q) W(high)/X(q)  e(spline)
   2      9    11.641    53.897    0.22E-03    0.42E-04    0.28E-06
   2      9    11.641    52.416    0.23E-03    0.44E-04    0.29E-06
   0     10    11.641   122.045    0.51E-04    0.25E-04    0.16E-06
   0     10    11.641    73.629    0.49E-04    0.24E-04    0.16E-06
   1     10    11.641    15.255    0.99E-04    0.55E-04    0.11E-06
   1     10    11.641     9.562    0.81E-04    0.47E-04    0.95E-07
 Optimization of the real space projectors (new method)

[...]

   l    n(q)    QCUT    max X(q) W(low)/X(q) W(high)/X(q)  e(spline)
   1      8    11.527     2.974    0.44E-04    0.56E-04    0.12E-06
   1      8    11.527     4.279    0.12E-03    0.12E-03    0.26E-06
   0      9    11.527    16.381    0.46E-04    0.64E-04    0.78E-07
   0      9    11.527     5.611    0.26E-04    0.43E-04    0.55E-07
   2      8    11.527     4.652    0.22E-03    0.72E-04    0.47E-07
 Optimization of the real space projectors (new method)

 maximal supplied QI-value         = 24.76
 optimisation between [QCUT,QGAM] = [ 11.64, 23.27] = [ 37.91,151.63] Ry
 Optimized for a Real-space Cutoff    1.14 Angstroem

   l    n(q)    QCUT    max X(q) W(low)/X(q) W(high)/X(q)  e(spline)
   0      8    11.635    20.381    0.10E-03    0.33E-03    0.24E-06
   0      8    11.635    15.268    0.11E-03    0.35E-03    0.26E-06
   1      7    11.635     5.964    0.24E-03    0.31E-03    0.30E-06
   1      7    11.635     5.382    0.22E-03    0.25E-03    0.26E-06
  PAW_PBE Ag 02Apr2005                  :
  PAW_PBE Mg_pv 13Apr2007               :
  PAW_PBE O 08Apr2002                   :

 POSCAR: Ag Mg  O
  positions in direct lattice

 METAGGA = R2SCA    LMAXTAU =  6    LMIXTAU =  F

 WARNING: Using user supplied parameters
     VDW_S8 = 0.602
     VDW_A1 = 0.516
     VDW_A2 = 5.773
     because the xc functional is not supported. Required parameters not
     defined in the INCAR file will be replaced with PBE defaults ones.

 ion  position               nearest neighbor table
   1  0.543  0.457  0.625-   2 2.59
   2  0.457  0.543  0.625-   1 2.59
   3  0.000  0.000  0.407- 105 2.11 106 2.11 121 2.11 186 2.11 103 2.11
   4  0.100  0.100  0.407- 105 2.11 106 2.11 110 2.11 125 2.11 104 2.11
   5  0.000  0.100  0.503- 103 2.11 104 2.11 107 2.11 184 2.11 105 2.11
   6  0.100  0.000  0.503- 103 2.11 104 2.11 120 2.11 123 2.11 106 2.11
   7  0.000  0.200  0.407- 109 2.11 105 2.11 110 2.11 190 2.11 107 2.11
   8  0.100  0.300  0.407- 110 2.11 109 2.11 114 2.11 129 2.11 108 2.11
   9  0.000  0.300  0.503- 107 2.11 108 2.11 111 2.11 188 2.11 109 2.11
  10  0.100  0.200  0.503- 108 2.11 107 2.11 104 2.11 127 2.11 110 2.11
  11  0.000  0.400  0.407- 109 2.11 113 2.11 114 2.11 194 2.11 111 2.11
  12  0.100  0.500  0.407- 113 2.11 114 2.11 118 2.11 133 2.11 112 2.11
  13  0.000  0.500  0.503- 111 2.11 112 2.11 115 2.11 192 2.11 113 2.11
  14  0.100  0.400  0.503- 108 2.11 111 2.11 112 2.11 131 2.11 114 2.11
  15  0.000  0.600  0.407- 113 2.11 117 2.11 118 2.11 198 2.11 115 2.11
  16  0.100  0.700  0.407- 122 2.11 118 2.11 117 2.11 137 2.11 116 2.11
  17  0.000  0.700  0.503- 119 2.11 116 2.11 115 2.11 196 2.11 117 2.11
  18  0.100  0.600  0.503- 112 2.11 115 2.11 116 2.11 135 2.11 118 2.11
  19  0.000  0.800  0.407- 117 2.11 121 2.11 122 2.11 202 2.11 119 2.11
  20  0.100  0.900  0.407- 106 2.11 121 2.11 122 2.11 141 2.11 120 2.11
  21  0.000  0.900  0.503- 103 2.11 119 2.11 120 2.11 200 2.11 121 2.11
  22  0.100  0.800  0.503- 116 2.11 119 2.11 120 2.11 139 2.11 122 2.11
  23  0.200  0.000  0.407- 126 2.11 125 2.11 106 2.11 141 2.11 123 2.11
  24  0.300  0.100  0.407- 125 2.11 126 2.11 130 2.11 145 2.11 124 2.11
  25  0.200  0.100  0.503- 124 2.11 123 2.11 104 2.11 127 2.11 125 2.11
  26  0.300  0.000  0.503- 123 2.11 124 2.11 140 2.11 143 2.11 126 2.11
  27  0.200  0.200  0.407- 129 2.11 130 2.11 110 2.11 125 2.11 127 2.11
  28  0.300  0.300  0.407- 129 2.11 130 2.11 134 2.11 149 2.11 128 2.11
  29  0.200  0.300  0.503- 127 2.11 128 2.11 108 2.11 131 2.11 129 2.11
  30  0.300  0.200  0.503- 127 2.11 128 2.11 124 2.11 147 2.11 130 2.11
  31  0.200  0.400  0.407- 134 2.11 129 2.11 133 2.11 114 2.11 131 2.11
  32  0.300  0.500  0.407- 133 2.11 134 2.11 138 2.11 153 2.11 132 2.11
  33  0.200  0.500  0.503- 132 2.11 131 2.11 112 2.11 135 2.11 133 2.11
  34  0.300  0.400  0.503- 131 2.11 128 2.11 132 2.11 151 2.11 134 2.11
  35  0.200  0.600  0.407- 138 2.11 133 2.11 137 2.11 118 2.11 135 2.11
  36  0.300  0.700  0.407- 137 2.11 142 2.11 138 2.11 157 2.11 136 2.11
  37  0.200  0.700  0.503- 136 2.11 139 2.11 116 2.11 135 2.11 137 2.11
  38  0.300  0.600  0.503- 135 2.11 132 2.11 136 2.11 155 2.11 138 2.11
  39  0.200  0.800  0.407- 137 2.11 142 2.11 141 2.11 122 2.11 139 2.11
  40  0.300  0.900  0.407- 141 2.11 126 2.11 142 2.11 161 2.11 140 2.11
  41  0.200  0.900  0.503- 140 2.11 123 2.11 139 2.11 120 2.11 141 2.11
  42  0.300  0.800  0.503- 136 2.11 139 2.11 140 2.11 159 2.11 142 2.11
  43  0.400  0.000  0.407- 126 2.11 145 2.11 146 2.11 161 2.11 143 2.11
  44  0.500  0.100  0.407- 145 2.11 146 2.11 150 2.11 165 2.11 144 2.11
  45  0.400  0.100  0.503- 124 2.11 143 2.11 144 2.11 147 2.11 145 2.11
  46  0.500  0.000  0.503- 143 2.11 144 2.11 160 2.11 163 2.11 146 2.11
  47  0.400  0.200  0.407- 149 2.11 145 2.11 130 2.11 150 2.11 147 2.11
  48  0.500  0.300  0.407- 150 2.11 149 2.11 154 2.11 169 2.11 148 2.11
  49  0.400  0.300  0.503- 147 2.11 128 2.11 148 2.11 151 2.11 149 2.11
  50  0.500  0.200  0.503- 148 2.11 147 2.11 144 2.11 167 2.11 150 2.11
  51  0.400  0.400  0.407- 134 2.11 149 2.11 153 2.11 154 2.11 151 2.11
  52  0.500  0.500  0.407- 153 2.11 154 2.11 158 2.11 173 2.11 152 2.11
  53  0.400  0.500  0.503- 132 2.11 151 2.11 152 2.11 155 2.11 153 2.11
  54  0.500  0.400  0.503- 148 2.11 151 2.11 152 2.11 171 2.11 154 2.11
  55  0.400  0.600  0.407- 138 2.11 153 2.11 157 2.11 158 2.11 155 2.11
  56  0.500  0.700  0.407- 162 2.11 158 2.11 157 2.11 177 2.11 156 2.11
  57  0.400  0.700  0.503- 159 2.11 155 2.11 156 2.11 136 2.11 157 2.11
  58  0.500  0.600  0.503- 152 2.11 155 2.11 156 2.11 175 2.11 158 2.11
  59  0.400  0.800  0.407- 157 2.11 142 2.11 161 2.11 162 2.11 159 2.11
  60  0.500  0.900  0.407- 146 2.11 161 2.11 162 2.11 181 2.11 160 2.11
[...]
 188  0.900  0.300  0.503-  90 2.11  89 2.11   9 2.11  94 2.11  88 2.11
 189  0.800  0.300  0.407-  68 2.11  87 2.11  88 2.11  91 2.11  89 2.11
 190  0.900  0.200  0.407-  88 2.11  84 2.11  87 2.11   7 2.11  90 2.11
 191  0.800  0.400  0.503-  74 2.11  89 2.11  93 2.11  94 2.11  91 2.11
 192  0.900  0.500  0.503-  13 2.11  93 2.11  94 2.11  98 2.11  92 2.11
 193  0.800  0.500  0.407-  72 2.11  91 2.11  92 2.11  95 2.11  93 2.11
 194  0.900  0.400  0.407-  11 2.11  88 2.11  91 2.11  92 2.11  94 2.11
 195  0.800  0.600  0.503-  78 2.11  93 2.11  97 2.11  98 2.11  95 2.11
 196  0.900  0.700  0.503- 102 2.11  97 2.11  98 2.11  17 2.11  96 2.11
 197  0.800  0.700  0.407-  76 2.11  99 2.11  96 2.11  95 2.11  97 2.11
 198  0.900  0.600  0.407-  15 2.11  92 2.11  95 2.11  96 2.11  98 2.11
 199  0.800  0.800  0.503-  82 2.11  97 2.11 101 2.11 102 2.11  99 2.11
 200  0.900  0.900  0.503-  21 2.11  86 2.11 101 2.11 102 2.11 100 2.11
 201  0.800  0.900  0.407-  80 2.11  83 2.11  99 2.11 100 2.11 101 2.11
 202  0.900  0.800  0.407-  96 2.11  19 2.11  99 2.11 100 2.11 102 2.11

  LATTYP: Found a simple tetragonal cell.
 ALAT       =    21.1388521970
 C/A-ratio  =     1.0461251639

  Lattice vectors:

 A1 = (  21.1388521970,   0.0000000000,   0.0000000000)
 A2 = (   0.0000000000,  21.1388521970,   0.0000000000)
 A3 = (   0.0000000000,   0.0000000000,  22.1138852197)

Analysis of symmetry for initial positions (statically):
 Subroutine PRICEL returns:
 Original cell was already a primitive cell.

 Routine SETGRP: Setting up the symmetry group for a
 simple tetragonal supercell.

 Subroutine GETGRP returns: Found  4 space group operations
 (whereof  4 operations were pure point group operations)
 out of a pool of 16 trial point group operations.

The static configuration has the point symmetry C_2v.

Analysis of symmetry for dynamics (positions and initial velocities):
 Subroutine PRICEL returns:
 Original cell was already a primitive cell.

 Routine SETGRP: Setting up the symmetry group for a
 simple tetragonal supercell.

 Subroutine GETGRP returns: Found  4 space group operations
 (whereof  4 operations were pure point group operations)
 out of a pool of 16 trial point group operations.

The dynamic configuration has the point symmetry C_2v.

 Subroutine INISYM returns: Found  4 space group operations
 (whereof  4 operations are pure point group operations),
 and found     1 'primitive' translations

                                     Primitive cell

  volume of cell :    9881.6133

  direct lattice vectors                    reciprocal lattice vectors
    21.138852197  0.000000000  0.000000000     0.047306258  0.000000000  0.000000000
     0.000000000 21.138852197  0.000000000     0.000000000  0.047306258  0.000000000
     0.000000000  0.000000000 22.113885220     0.000000000  0.000000000  0.045220457

  length of vectors
    21.138852197 21.138852197 22.113885220     0.047306258  0.047306258  0.045220457

  position of ions in fractional coordinates (direct lattice)
     0.543282734  0.456717266  0.625334806
     0.456717266  0.543282734  0.625334806
     0.000000000  0.000000000  0.406984115
     0.100000000  0.100000000  0.406984115
     0.000000000  0.100000000  0.502574971
     0.100000000  0.000000000  0.502574971
     0.000000000  0.200000000  0.406984115
     0.100000000  0.300000000  0.406984115
     0.000000000  0.300000000  0.502574971
     0.100000000  0.200000000  0.502574971
     0.000000000  0.400000000  0.406984115
[...]
     54     -44.3969      2.00000
     55     -44.3967      2.00000
     56     -44.3961      2.00000
     57     -44.3955      2.00000
     58     -44.3955      2.00000
     59     -44.3952      2.00000
     60     -44.3947      2.00000
[...]
    882       5.2527      0.00000
    883       5.4182      0.00000
    884       5.4302      0.00000
    885       5.4644      0.00000
    886       5.4960      0.00000
    887       5.5479      0.00000
    888       5.7184      0.00000
    889       5.8733      0.00000
    890       5.9971      0.00000
    891       6.0136      0.00000
    892       6.0612      0.00000
    893       6.1198      0.00000
    894       6.1570      0.00000
    895       6.1621      0.00000
    896       6.2058      0.00000

 soft charge-density along one line, spin component           1
         0         1         2         3         4         5         6         7         8         9
 total charge-density along one line

------------------------ aborting loop because EDIFF is reached ----------------------------------------

  FORCE on cell =-STRESS in cart. coord.  units (eV):
  Direction    XX          YY          ZZ          XY          YZ          ZX
  Alpha Z  1357.53553  1357.53553  1357.53553
  Ewald  479361.88727479361.88727************  -323.89554     0.00000     0.00000
  Hartree508211.47550508211.47550************  -243.28276    -0.00000    -0.00000
  E(xc)   -8397.83310 -8397.83310 -8398.62955    -0.17438     0.00000    -0.00000
  Local  ************************************   563.70779    -0.00000    -0.00000
  n-local -8705.62439 -8705.62439 -8828.56851     1.83645    -0.00000     0.00000
  augment  3884.18998  3884.18997  3826.55884     0.24245     0.00000    -0.00001
  Kinetic 23011.55280 23011.55280 23241.14291     2.26387     0.00000    -0.00000
  Fock        0.00000     0.00000     0.00000     0.00000     0.00000     0.00000
  vdW        -7.96866    -7.96866    -1.96413    -0.00058     0.00000     0.00000
  Total    -230.53958  -230.53958   -19.13010     0.69730     0.00000     0.00000
  in kB     -37.37905   -37.37905    -3.10170     0.11306     0.00000     0.00000

 VOLUME and BASIS-vectors are now :
  energy-cutoff  :      520.00
  volume of cell :     9881.61
      direct lattice vectors                 reciprocal lattice vectors
    21.138852197  0.000000000  0.000000000     0.047306258  0.000000000  0.000000000
     0.000000000 21.138852197  0.000000000     0.000000000  0.047306258  0.000000000
     0.000000000  0.000000000 22.113885220     0.000000000  0.000000000  0.045220457

  length of vectors
    21.138852197 21.138852197 22.113885220     0.047306258  0.047306258  0.045220457

 FORCES acting on ions:
    Electron-Ion                     Ewald-Force                    Non-Local-Force
   -.188E+03 0.188E+03 -.205E+04   0.183E+03 -.183E+03 0.205E+04   0.514E+01 -.514E+01 -.678E+00
   0.188E+03 -.188E+03 -.205E+04   -.183E+03 0.183E+03 0.205E+04   -.514E+01 0.514E+01 -.678E+00
   -.473E-10 0.828E-09 0.931E+03   0.974E-10 -.170E-08 -.923E+03   0.000E+00 0.000E+00 -.754E+01
   0.379E+01 0.379E+01 0.932E+03   -.378E+01 -.378E+01 -.924E+03   -.397E-02 -.397E-02 -.754E+01
   -.281E+00 0.419E+01 -.923E+03   0.293E+00 -.419E+01 0.915E+03   -.100E-01 0.229E-02 0.756E+01
   0.419E+01 -.281E+00 -.923E+03   -.419E+01 0.293E+00 0.915E+03   0.229E-02 -.100E-01 0.756E+01
   -.369E+00 0.579E+01 0.933E+03   0.390E+00 -.579E+01 -.925E+03   -.167E-01 0.489E-02 -.754E+01
   0.753E+01 0.737E+01 0.936E+03   -.751E+01 -.738E+01 -.928E+03   -.109E-01 0.838E-02 -.754E+01
   -.702E+00 0.763E+01 -.921E+03   0.732E+00 -.764E+01 0.913E+03   -.237E-01 0.340E-02 0.756E+01
   0.679E+01 0.845E+01 -.921E+03   -.677E+01 -.845E+01 0.913E+03   -.149E-01 -.105E-02 0.756E+01
   -.325E+00 0.393E+01 0.936E+03   0.345E+00 -.394E+01 -.928E+03   -.153E-01 0.291E-02 -.754E+01
   0.115E+02 0.414E+00 0.939E+03   -.116E+02 -.432E+00 -.931E+03   0.228E-01 0.138E-01 -.754E+01
   0.146E-09 -.125E-08 -.919E+03   -.299E-09 0.256E-08 0.911E+03   0.000E+00 0.000E+00 0.756E+01
   0.146E+02 0.699E+01 -.918E+03   -.146E+02 -.701E+01 0.910E+03   -.110E-01 0.138E-01 0.756E+01
   0.325E+00 -.393E+01 0.936E+03   -.345E+00 0.394E+01 -.928E+03   0.153E-01 -.291E-02 -.754E+01
   0.857E+01 -.739E+01 0.936E+03   -.862E+01 0.740E+01 -.928E+03   0.397E-01 -.586E-02 -.754E+01
   0.702E+00 -.763E+01 -.921E+03   -.732E+00 0.764E+01 0.913E+03   0.237E-01 -.340E-02 0.756E+01
   0.162E+02 -.615E+01 -.917E+03   -.162E+02 0.614E+01 0.909E+03   0.418E-01 0.852E-02 0.756E+01
   0.369E+00 -.579E+01 0.933E+03   -.390E+00 0.579E+01 -.925E+03   0.167E-01 -.489E-02 -.754E+01
   0.418E+01 -.418E+01 0.932E+03   -.419E+01 0.419E+01 -.924E+03   0.124E-01 -.124E-01 -.753E+01
   0.281E+00 -.419E+01 -.923E+03   -.293E+00 0.419E+01 0.915E+03   0.100E-01 -.229E-02 0.756E+01
   0.806E+01 -.901E+01 -.921E+03   -.810E+01 0.902E+01 0.913E+03   0.295E-01 -.113E-01 0.756E+01
   0.579E+01 -.369E+00 0.933E+03   -.579E+01 0.390E+00 -.925E+03   0.489E-02 -.167E-01 -.754E+01
   0.737E+01 0.753E+01 0.936E+03   -.738E+01 -.751E+01 -.928E+03   0.838E-02 -.109E-01 -.754E+01
   0.845E+01 0.679E+01 -.921E+03   -.845E+01 -.677E+01 0.913E+03   -.105E-02 -.149E-01 0.756E+01
   0.763E+01 -.702E+00 -.921E+03   -.764E+01 0.732E+00 0.913E+03   0.340E-02 -.237E-01 0.756E+01
   0.967E+01 0.967E+01 0.936E+03   -.967E+01 -.967E+01 -.928E+03   -.118E-02 -.118E-02 -.754E+01
   0.188E+02 0.188E+02 0.949E+03   -.189E+02 -.189E+02 -.941E+03   0.193E-01 0.193E-01 -.757E+01
   0.217E+02 0.166E+02 -.915E+03   -.216E+02 -.166E+02 0.907E+03   -.285E-01 0.911E-02 0.755E+01
   0.166E+02 0.217E+02 -.915E+03   -.166E+02 -.216E+02 0.907E+03   0.911E-02 -.285E-01 0.755E+01
   0.204E+02 0.873E+01 0.945E+03   -.204E+02 -.878E+01 -.937E+03   0.630E-02 0.354E-01 -.755E+01
   0.338E+02 0.216E+01 0.969E+03   -.339E+02 -.228E+01 -.961E+03   0.654E-01 0.944E-01 -.753E+01
   0.404E+02 0.238E+01 -.906E+03   -.405E+02 -.244E+01 0.898E+03   0.436E-01 0.465E-01 0.755E+01
   0.554E+02 0.317E+02 -.888E+03   -.553E+02 -.318E+02 0.880E+03   -.881E-01 0.860E-01 0.750E+01
   0.217E+02 -.758E+01 0.947E+03   -.218E+02 0.756E+01 -.939E+03   0.100E+00 0.132E-01 -.754E+01
   0.199E+02 -.199E+02 0.952E+03   -.199E+02 0.199E+02 -.944E+03   0.638E-01 -.638E-01 -.750E+01
   0.249E+02 -.177E+02 -.913E+03   -.250E+02 0.177E+02 0.905E+03   0.948E-01 -.113E-01 0.757E+01
   0.654E+02 -.291E+02 -.877E+03   -.660E+02 0.290E+02 0.869E+03   0.438E+00 0.633E-01 0.758E+01
   0.105E+02 -.105E+02 0.937E+03   -.105E+02 0.105E+02 -.929E+03   0.307E-01 -.307E-01 -.753E+01
   0.739E+01 -.857E+01 0.936E+03   -.740E+01 0.862E+01 -.928E+03   0.586E-02 -.397E-01 -.754E+01
   0.901E+01 -.806E+01 -.921E+03   -.902E+01 0.810E+01 0.913E+03   0.113E-01 -.295E-01 0.756E+01
   0.177E+02 -.249E+02 -.913E+03   -.177E+02 0.250E+02 0.905E+03   0.113E-01 -.948E-01 0.757E+01
   0.393E+01 -.325E+00 0.936E+03   -.394E+01 0.345E+00 -.928E+03   0.291E-02 -.153E-01 -.754E+01
   0.414E+00 0.115E+02 0.939E+03   -.432E+00 -.116E+02 -.931E+03   0.138E-01 0.228E-01 -.754E+01
   0.699E+01 0.146E+02 -.918E+03   -.701E+01 -.146E+02 0.910E+03   0.138E-01 -.110E-01 0.756E+01
   0.146E-09 0.374E-08 -.919E+03   -.299E-09 -.769E-08 0.911E+03   0.000E+00 0.000E+00 0.756E+01
   0.873E+01 0.204E+02 0.945E+03   -.878E+01 -.204E+02 -.937E+03   0.354E-01 0.630E-02 -.755E+01
   0.216E+01 0.338E+02 0.969E+03   -.228E+01 -.339E+02 -.961E+03   0.944E-01 0.654E-01 -.753E+01
   0.317E+02 0.554E+02 -.888E+03   -.318E+02 -.553E+02 0.880E+03   0.860E-01 -.881E-01 0.750E+01
   0.238E+01 0.404E+02 -.906E+03   -.244E+01 -.405E+02 0.898E+03   0.465E-01 0.436E-01 0.755E+01
   0.250E+02 0.250E+02 0.984E+03   -.252E+02 -.252E+02 -.976E+03   0.958E-01 0.958E-01 -.769E+01
   -.979E-09 -.837E-08 0.102E+04   0.201E-08 0.172E-07 -.101E+04   0.000E+00 0.000E+00 -.751E+01
   0.101E+03 0.219E+02 -.766E+03   -.101E+03 -.227E+02 0.759E+03   0.133E+00 0.559E+00 0.681E+01
   0.219E+02 0.101E+03 -.766E+03   -.227E+02 -.101E+03 0.759E+03   0.559E+00 0.133E+00 0.681E+01
   0.237E+02 -.237E+02 0.990E+03   -.237E+02 0.237E+02 -.982E+03   -.230E-01 0.230E-01 -.697E+01
   -.216E+01 -.338E+02 0.969E+03   0.228E+01 0.339E+02 -.961E+03   -.944E-01 -.654E-01 -.753E+01
   0.291E+02 -.654E+02 -.877E+03   -.290E+02 0.660E+02 0.869E+03   -.633E-01 -.438E+00 0.758E+01
   -.219E+02 -.101E+03 -.766E+03   0.227E+02 0.101E+03 0.759E+03   -.559E+00 -.133E+00 0.681E+01
   0.758E+01 -.217E+02 0.947E+03   -.756E+01 0.218E+02 -.939E+03   -.132E-01 -.100E+00 -.754E+01
   -.414E+00 -.115E+02 0.939E+03   0.432E+00 0.116E+02 -.931E+03   -.138E-01 -.228E-01 -.754E+01
[...]
   -.120E+02 0.881E+01 0.708E+03   0.121E+02 -.883E+01 -.712E+03   -.672E-01 0.288E-01 0.346E+01
   -.450E+01 0.525E+01 0.702E+03   0.452E+01 -.526E+01 -.706E+03   -.261E-01 0.159E-01 0.345E+01
   -.275E+02 0.888E+01 -.682E+03   0.276E+02 -.886E+01 0.686E+03   -.793E-01 -.304E-01 -.349E+01
   -.129E+02 -.546E+00 -.689E+03   0.129E+02 0.562E+00 0.693E+03   -.153E-01 -.217E-01 -.349E+01
   -.178E+02 -.804E+00 0.713E+03   0.178E+02 0.843E+00 -.717E+03   -.452E-01 -.535E-01 0.344E+01
   -.818E+01 0.346E+01 0.705E+03   0.820E+01 -.346E+01 -.709E+03   -.343E-01 -.613E-02 0.345E+01
   -.246E+02 -.104E+02 -.684E+03   0.246E+02 0.105E+02 0.688E+03   0.305E-02 -.439E-01 -.352E+01
   -.779E+01 -.722E+01 -.691E+03   0.778E+01 0.723E+01 0.695E+03   0.133E-01 -.626E-02 -.349E+01
   -.110E+02 -.861E+01 0.707E+03   0.110E+02 0.862E+01 -.711E+03   0.542E-02 -.110E-01 0.343E+01
   -.755E+01 -.385E+01 0.705E+03   0.755E+01 0.386E+01 -.709E+03   -.547E-03 -.175E-01 0.344E+01
   -.985E+01 -.985E+01 -.691E+03   0.984E+01 0.984E+01 0.695E+03   0.119E-01 0.119E-01 -.349E+01
   -.352E+01 -.352E+01 -.694E+03   0.351E+01 0.351E+01 0.697E+03   0.583E-02 0.583E-02 -.348E+01
   -.501E+01 -.390E+01 0.702E+03   0.501E+01 0.390E+01 -.706E+03   -.104E-02 0.909E-02 0.344E+01
   -.390E+01 -.501E+01 0.702E+03   0.390E+01 0.501E+01 -.706E+03   0.909E-02 -.104E-02 0.344E+01
   -.183E-06 0.613E-06 0.978E+01   0.149E-11 0.146E-11 0.152E-10   -.238E-15 -.236E-15 -.713E+01

 POSITION                                       TOTAL-FORCE (eV/Angst)
     11.48437      9.65448     13.82858        -0.088665      0.088665     -0.058619
      9.65448     11.48437     13.82858         0.088665     -0.088665     -0.058619
      0.00000      0.00000      9.00000         0.000000      0.000000      0.520466
      2.11389      2.11389      9.00000         0.001128      0.001128      0.520916
      0.00000      2.11389     11.11389         0.002794     -0.000656     -0.488476
      2.11389      0.00000     11.11389        -0.000656      0.002794     -0.488476
      0.00000      4.22777      9.00000         0.004583     -0.001399      0.520651
      2.11389      6.34166      9.00000         0.002923     -0.002272      0.521690
      0.00000      6.34166     11.11389         0.006544     -0.000976     -0.487499
      2.11389      4.22777     11.11389         0.004229      0.000436     -0.487304
      0.00000      8.45554      9.00000         0.004046     -0.000883      0.521018
      2.11389     10.56943      9.00000        -0.006207     -0.004160      0.521558
      0.00000     10.56943     11.11389         0.000000      0.000000     -0.486828
      2.11389      8.45554     11.11389         0.003329     -0.003936     -0.485282
      0.00000     12.68331      9.00000        -0.004046      0.000883      0.521018
      2.11389     14.79720      9.00000        -0.010749      0.001808      0.520281
      0.00000     14.79720     11.11389        -0.006544      0.000976     -0.487499
      2.11389     12.68331     11.11389        -0.011036     -0.002599     -0.486618
      0.00000     16.91108      9.00000        -0.004583      0.001399      0.520651
      2.11389     19.02497      9.00000        -0.003527      0.003527      0.520133
      0.00000     19.02497     11.11389        -0.002794      0.000656     -0.488476
      2.11389     16.91108     11.11389        -0.008172      0.003314     -0.488201
      4.22777      0.00000      9.00000        -0.001399      0.004583      0.520651
      6.34166      2.11389      9.00000        -0.002272      0.002923      0.521690
      4.22777      2.11389     11.11389         0.000436      0.004229     -0.487304
      6.34166      0.00000     11.11389        -0.000976      0.006544     -0.487499
      4.22777      4.22777      9.00000         0.000567      0.000567      0.522799
      6.34166      6.34166      9.00000        -0.004173     -0.004173      0.530859
      4.22777      6.34166     11.11389         0.008719     -0.001670     -0.481919
      6.34166      4.22777     11.11389        -0.001670      0.008719     -0.481919
      4.22777      8.45554      9.00000        -0.002397     -0.010231      0.523821
      6.34166     10.56943      9.00000        -0.020092     -0.030639      0.514347
      4.22777     10.56943     11.11389        -0.011854     -0.014478     -0.479167
      6.34166      8.45554     11.11389         0.033230     -0.018869     -0.446322
      4.22777     12.68331      9.00000        -0.025945     -0.003943      0.521114
      6.34166     14.79720      9.00000        -0.021459      0.021459      0.505763
      4.22777     14.79720     11.11389        -0.026029      0.003740     -0.487846
      6.34166     12.68331     11.11389        -0.136976     -0.023053     -0.488353
      4.22777     16.91108      9.00000        -0.008997      0.008997      0.518341
      6.34166     19.02497      9.00000        -0.001808      0.010749      0.520281
      4.22777     19.02497     11.11389        -0.003314      0.008172     -0.488201
      6.34166     16.91108     11.11389        -0.003740      0.026029     -0.487846
      8.45554      0.00000      9.00000        -0.000883      0.004046      0.521018
     10.56943      2.11389      9.00000        -0.004160     -0.006207      0.521558
      8.45554      2.11389     11.11389        -0.003936      0.003329     -0.485282
     10.56943      0.00000     11.11389         0.000000      0.000000     -0.486828
      8.45554      4.22777      9.00000        -0.010231     -0.002397      0.523821
     10.56943      6.34166      9.00000        -0.030639     -0.020092      0.514347
      8.45554      6.34166     11.11389        -0.018869      0.033230     -0.446322
     10.56943      4.22777     11.11389        -0.014478     -0.011854     -0.479167
      8.45554      8.45554      9.00000        -0.025111     -0.025111      0.550468
     10.56943     10.56943      9.00000         0.000000      0.000000      0.449171
      8.45554     10.56943     11.11389        -0.077130     -0.238142     -0.418819
     10.56943      8.45554     11.11389        -0.238142     -0.077130     -0.418819
      8.45554     12.68331      9.00000         0.008628     -0.008628      0.375610
     10.56943     14.79720      9.00000         0.030639      0.020092      0.514347
      8.45554     14.79720     11.11389         0.023053      0.136976     -0.488353
     10.56943     12.68331     11.11389         0.238142      0.077130     -0.418819
      8.45554     16.91108      9.00000         0.003943      0.025945      0.521114
     10.56943     19.02497      9.00000         0.004160      0.006207      0.521558
[...]
     19.02497      6.34166     11.11389        -0.010193      0.002094      0.336766
     16.91108      6.34166      9.00000        -0.018897      0.008051     -0.364758
     19.02497      4.22777      9.00000        -0.007279      0.004451     -0.367651
     16.91108      8.45554     11.11389        -0.023539     -0.008054      0.335453
     19.02497     10.56943     11.11389        -0.004446     -0.006047      0.334462
     16.91108     10.56943      9.00000        -0.013618     -0.014642     -0.368919
     19.02497      8.45554      9.00000        -0.009654     -0.001654     -0.367928
     16.91108     12.68331     11.11389        -0.000058     -0.012631      0.327808
     19.02497     14.79720     11.11389         0.003642     -0.001781      0.335178
     16.91108     14.79720      9.00000         0.001359     -0.003215     -0.371950
     19.02497     12.68331      9.00000        -0.000200     -0.004890     -0.369734
     16.91108     16.91108     11.11389         0.003200      0.003200      0.334140
     19.02497     19.02497     11.11389         0.001599      0.001599      0.337173
     16.91108     19.02497      9.00000        -0.000317      0.002508     -0.369025
     19.02497     16.91108      9.00000         0.002508     -0.000317     -0.369025
    total drift:                               -0.000000      0.000001      2.652715

  FREE ENERGIE OF THE ION-ELECTRON SYSTEM (eV)
  free  energy   TOTEN  =     -1595.89976825 eV

  energy  without entropy=    -1595.89976825  energy(sigma->0) =    -1595.89976825