 vasp.6.3.0 20Jan22 (build Apr  1 2022 16:44:48) complex
 executed on        HPECrayEX_GCC date 2022.11.21  09:22:00

 INCAR:
   SYSTEM = MgO-rocksalt
   ISMEAR = 0
   SIGMA = 0.05
   EDIFF = 1E-5
   ALGO = ALL
   ISTART = 0
   IBRION = -1
   NSW = 0
   ISYM = 2
   DIPOL = 0.5 0.5 0.5
   IDIPOL = 3
   LDIPOL = .TRUE.
   LHFCALC = .TRUE.
   GGA = B5
   AEXX = 0.2
   AGGAX = 0.72
   AGGAC = 0.81
   ALDAC = 0.19
   IVDW = 12
   VDW_S8 = 1.9889
   VDW_A1 = 0.3981
   VDW_A2 = 4.4211
   ENCUT = 520
   PREC = Accurate
   LASPH = .TRUE.
   LREAL = Auto
   ISPIN = 1
   NELM = 200
   NELMIN = 8
   NCORE = 4
   KPAR = 2
   LWAVE = .FALSE.
   LCHARG = .FALSE.

 POTCAR:    PAW_PBE Cu 22Jun2005
 POTCAR:    PAW_PBE Mg_pv 13Apr2007
 POTCAR:    PAW_PBE O 08Apr2002
|           W    W    AA    RRRRR   N    N  II  N    N   GGGG   !!!           |
|           W    W   A  A   R    R  NN   N  II  NN   N  G    G  !!!           |
|           W    W  A    A  R    R  N N  N  II  N N  N  G       !!!           |
|           W WW W  AAAAAA  RRRRR   N  N N  II  N  N N  G  GGG   !            |
|           WW  WW  A    A  R   R   N   NN  II  N   NN  G    G                |
|           W    W  A    A  R    R  N    N  II  N    N   GGGG   !!!           |
|     You have selected ISYM=2 for a HF type calculation. This will           |
|     symmetrize the charge density but not the exchange potential. I         |
|     suggest to use ISYM=3 instead. This uses symmetry to obtain the         |
|     orbitals at all k-points in the Brillouin zone, but does not apply      |
|     symmetry to the Hartree potential directly. The resultant charge        |
|     might have lower symmetry than the crystal but, at least, Hartree       |
|     and exchange are fully compatible.                                      |

   TITEL  = PAW_PBE Cu 22Jun2005
   POMASS =   63.546; ZVAL   =   11.000    mass and valenz
   ENMAX  =  295.446; ENMIN  =  221.585 eV

   TITEL  = PAW_PBE Mg_pv 13Apr2007
   POMASS =   24.305; ZVAL   =    8.000    mass and valenz
   ENMAX  =  403.929; ENMIN  =  302.947 eV

   TITEL  = PAW_PBE O 08Apr2002
   POMASS =   16.000; ZVAL   =    6.000    mass and valenz
   ENMAX  =  400.000; ENMIN  =  300.000 eV

 Optimization of the real space projectors (new method)

 maximal supplied QI-value         = 16.25
 optimisation between [QCUT,QGAM] = [ 11.54, 23.24] = [ 37.28,151.24] Ry
 Optimized for a Real-space Cutoff    1.53 Angstroem

   l    n(q)    QCUT    max X(q) W(low)/X(q) W(high)/X(q)  e(spline)
   2     10    11.539     4.610    0.96E-04    0.13E-03    0.19E-06
   2     10    11.539     8.522    0.16E-03    0.21E-03    0.28E-06
   0     11    11.539    51.609    0.45E-04    0.31E-04    0.11E-06
   0     11    11.539    27.747    0.39E-04    0.29E-04    0.10E-06
   1     10    11.539    20.408    0.70E-05    0.38E-04    0.18E-06
   1     10    11.539    13.425    0.66E-05    0.34E-04    0.17E-06
 Optimization of the real space projectors (new method)

[...]

   l    n(q)    QCUT    max X(q) W(low)/X(q) W(high)/X(q)  e(spline)
   1      8    11.527     2.974    0.44E-04    0.56E-04    0.12E-06
   1      8    11.527     4.279    0.12E-03    0.12E-03    0.26E-06
   0      9    11.527    16.381    0.46E-04    0.64E-04    0.78E-07
   0      9    11.527     5.611    0.26E-04    0.43E-04    0.55E-07
   2      8    11.527     4.652    0.22E-03    0.72E-04    0.47E-07
 Optimization of the real space projectors (new method)

 maximal supplied QI-value         = 24.76
 optimisation between [QCUT,QGAM] = [ 11.64, 23.27] = [ 37.91,151.63] Ry
 Optimized for a Real-space Cutoff    1.14 Angstroem

   l    n(q)    QCUT    max X(q) W(low)/X(q) W(high)/X(q)  e(spline)
   0      8    11.635    20.381    0.10E-03    0.33E-03    0.24E-06
   0      8    11.635    15.268    0.11E-03    0.35E-03    0.26E-06
   1      7    11.635     5.964    0.24E-03    0.31E-03    0.30E-06
   1      7    11.635     5.382    0.22E-03    0.25E-03    0.26E-06
|               ----> ADVICE to this user running VASP <----                  |
|     You enforced a specific xc type in the INCAR file but a different       |
|     type was found in the POTCAR file.                                      |
|     I HOPE YOU KNOW WHAT YOU ARE DOING!                                     |

  PAW_PBE Cu 22Jun2005                  :
  PAW_PBE Mg_pv 13Apr2007               :
  PAW_PBE O 08Apr2002                   :

 POSCAR: Cu Mg  O
  positions in direct lattice
 exchange correlation table for  LEXCH =       12
   RHO(1)=    0.500       N(1)  =     2000
   RHO(2)=  100.500       N(2)  =     4000

 ion  position               nearest neighbor table
   1  0.538  0.562  0.615-   2 2.24
   2  0.462  0.638  0.615-   1 2.24
   3  0.000  0.000  0.407- 105 2.11 106 2.11 121 2.11 186 2.11 103 2.11
   4  0.100  0.100  0.407- 105 2.11 106 2.11 110 2.11 125 2.11 104 2.11
   5  0.000  0.100  0.503- 103 2.11 104 2.11 107 2.11 184 2.11 105 2.11
   6  0.100  0.000  0.503- 103 2.11 104 2.11 120 2.11 123 2.11 106 2.11
   7  0.000  0.200  0.407- 109 2.11 105 2.11 110 2.11 190 2.11 107 2.11
   8  0.100  0.300  0.407- 110 2.11 109 2.11 114 2.11 129 2.11 108 2.11
   9  0.000  0.300  0.503- 107 2.11 108 2.11 111 2.11 188 2.11 109 2.11
  10  0.100  0.200  0.503- 108 2.11 107 2.11 104 2.11 127 2.11 110 2.11
  11  0.000  0.400  0.407- 109 2.11 113 2.11 114 2.11 194 2.11 111 2.11
  12  0.100  0.500  0.407- 113 2.11 114 2.11 118 2.11 133 2.11 112 2.11
  13  0.000  0.500  0.503- 111 2.11 112 2.11 115 2.11 192 2.11 113 2.11
  14  0.100  0.400  0.503- 108 2.11 111 2.11 112 2.11 131 2.11 114 2.11
  15  0.000  0.600  0.407- 113 2.11 117 2.11 118 2.11 198 2.11 115 2.11
  16  0.100  0.700  0.407- 122 2.11 118 2.11 117 2.11 137 2.11 116 2.11
  17  0.000  0.700  0.503- 119 2.11 116 2.11 115 2.11 196 2.11 117 2.11
  18  0.100  0.600  0.503- 112 2.11 115 2.11 116 2.11 135 2.11 118 2.11
  19  0.000  0.800  0.407- 117 2.11 121 2.11 122 2.11 202 2.11 119 2.11
  20  0.100  0.900  0.407- 106 2.11 121 2.11 122 2.11 141 2.11 120 2.11
  21  0.000  0.900  0.503- 103 2.11 119 2.11 120 2.11 200 2.11 121 2.11
  22  0.100  0.800  0.503- 116 2.11 119 2.11 120 2.11 139 2.11 122 2.11
  23  0.200  0.000  0.407- 126 2.11 125 2.11 106 2.11 141 2.11 123 2.11
  24  0.300  0.100  0.407- 125 2.11 126 2.11 130 2.11 145 2.11 124 2.11
  25  0.200  0.100  0.503- 124 2.11 123 2.11 104 2.11 127 2.11 125 2.11
  26  0.300  0.000  0.503- 123 2.11 124 2.11 140 2.11 143 2.11 126 2.11
  27  0.200  0.200  0.407- 129 2.11 130 2.11 110 2.11 125 2.11 127 2.11
  28  0.300  0.300  0.407- 129 2.11 130 2.11 134 2.11 149 2.11 128 2.11
  29  0.200  0.300  0.503- 127 2.11 128 2.11 108 2.11 131 2.11 129 2.11
  30  0.300  0.200  0.503- 127 2.11 128 2.11 124 2.11 147 2.11 130 2.11
  31  0.200  0.400  0.407- 134 2.11 129 2.11 133 2.11 114 2.11 131 2.11
  32  0.300  0.500  0.407- 133 2.11 134 2.11 138 2.11 153 2.11 132 2.11
  33  0.200  0.500  0.503- 132 2.11 131 2.11 112 2.11 135 2.11 133 2.11
  34  0.300  0.400  0.503- 131 2.11 128 2.11 132 2.11 151 2.11 134 2.11
  35  0.200  0.600  0.407- 138 2.11 133 2.11 137 2.11 118 2.11 135 2.11
  36  0.300  0.700  0.407- 137 2.11 142 2.11 138 2.11 157 2.11 136 2.11
  37  0.200  0.700  0.503- 136 2.11 139 2.11 116 2.11 135 2.11 137 2.11
  38  0.300  0.600  0.503- 135 2.11 132 2.11 136 2.11 155 2.11 138 2.11
  39  0.200  0.800  0.407- 137 2.11 142 2.11 141 2.11 122 2.11 139 2.11
  40  0.300  0.900  0.407- 141 2.11 126 2.11 142 2.11 161 2.11 140 2.11
  41  0.200  0.900  0.503- 140 2.11 123 2.11 139 2.11 120 2.11 141 2.11
  42  0.300  0.800  0.503- 136 2.11 139 2.11 140 2.11 159 2.11 142 2.11
  43  0.400  0.000  0.407- 126 2.11 145 2.11 146 2.11 161 2.11 143 2.11
  44  0.500  0.100  0.407- 145 2.11 146 2.11 150 2.11 165 2.11 144 2.11
  45  0.400  0.100  0.503- 124 2.11 143 2.11 144 2.11 147 2.11 145 2.11
  46  0.500  0.000  0.503- 143 2.11 144 2.11 160 2.11 163 2.11 146 2.11
  47  0.400  0.200  0.407- 149 2.11 145 2.11 130 2.11 150 2.11 147 2.11
  48  0.500  0.300  0.407- 150 2.11 149 2.11 154 2.11 169 2.11 148 2.11
  49  0.400  0.300  0.503- 147 2.11 128 2.11 148 2.11 151 2.11 149 2.11
  50  0.500  0.200  0.503- 148 2.11 147 2.11 144 2.11 167 2.11 150 2.11
  51  0.400  0.400  0.407- 134 2.11 149 2.11 153 2.11 154 2.11 151 2.11
  52  0.500  0.500  0.407- 153 2.11 154 2.11 158 2.11 173 2.11 152 2.11
  53  0.400  0.500  0.503- 132 2.11 151 2.11 152 2.11 155 2.11 153 2.11
  54  0.500  0.400  0.503- 148 2.11 151 2.11 152 2.11 171 2.11 154 2.11
  55  0.400  0.600  0.407- 138 2.11 153 2.11 157 2.11 158 2.11 155 2.11
  56  0.500  0.700  0.407- 162 2.11 158 2.11 157 2.11 177 2.11 156 2.11
  57  0.400  0.700  0.503- 159 2.11 155 2.11 156 2.11 136 2.11 157 2.11
  58  0.500  0.600  0.503- 152 2.11 155 2.11 156 2.11 175 2.11 158 2.11
  59  0.400  0.800  0.407- 157 2.11 142 2.11 161 2.11 162 2.11 159 2.11
  60  0.500  0.900  0.407- 146 2.11 161 2.11 162 2.11 181 2.11 160 2.11
[...]
 188  0.900  0.300  0.503-  90 2.11  89 2.11   9 2.11  94 2.11  88 2.11
 189  0.800  0.300  0.407-  68 2.11  87 2.11  88 2.11  91 2.11  89 2.11
 190  0.900  0.200  0.407-  88 2.11  84 2.11  87 2.11   7 2.11  90 2.11
 191  0.800  0.400  0.503-  74 2.11  89 2.11  93 2.11  94 2.11  91 2.11
 192  0.900  0.500  0.503-  13 2.11  93 2.11  94 2.11  98 2.11  92 2.11
 193  0.800  0.500  0.407-  72 2.11  91 2.11  92 2.11  95 2.11  93 2.11
 194  0.900  0.400  0.407-  11 2.11  88 2.11  91 2.11  92 2.11  94 2.11
 195  0.800  0.600  0.503-  78 2.11  93 2.11  97 2.11  98 2.11  95 2.11
 196  0.900  0.700  0.503- 102 2.11  97 2.11  98 2.11  17 2.11  96 2.11
 197  0.800  0.700  0.407-  76 2.11  99 2.11  96 2.11  95 2.11  97 2.11
 198  0.900  0.600  0.407-  15 2.11  92 2.11  95 2.11  96 2.11  98 2.11
 199  0.800  0.800  0.503-  82 2.11  97 2.11 101 2.11 102 2.11  99 2.11
 200  0.900  0.900  0.503-  21 2.11  86 2.11 101 2.11 102 2.11 100 2.11
 201  0.800  0.900  0.407-  80 2.11  83 2.11  99 2.11 100 2.11 101 2.11
 202  0.900  0.800  0.407-  96 2.11  19 2.11  99 2.11 100 2.11 102 2.11

  LATTYP: Found a simple tetragonal cell.
 ALAT       =    21.1388521970
 C/A-ratio  =     1.0461251639

  Lattice vectors:

 A1 = (  21.1388521970,   0.0000000000,   0.0000000000)
 A2 = (   0.0000000000,  21.1388521970,   0.0000000000)
 A3 = (   0.0000000000,   0.0000000000,  22.1138852197)

Analysis of symmetry for initial positions (statically):
 Subroutine PRICEL returns:
 Original cell was already a primitive cell.

 Routine SETGRP: Setting up the symmetry group for a
 simple tetragonal supercell.

 Subroutine GETGRP returns: Found  4 space group operations
 (whereof  1 operations were pure point group operations)
 out of a pool of 16 trial point group operations.

The static configuration has the point symmetry C_1 .
 The point group associated with its full space group is C_2v.

Analysis of symmetry for dynamics (positions and initial velocities):
 Subroutine PRICEL returns:
 Original cell was already a primitive cell.

 Routine SETGRP: Setting up the symmetry group for a
 simple tetragonal supercell.

 Subroutine GETGRP returns: Found  4 space group operations
 (whereof  1 operations were pure point group operations)
 out of a pool of 16 trial point group operations.

[...]
     40     -46.3719      2.00000
     41     -46.3712      2.00000
     42     -46.3705      2.00000
     43     -46.3698      2.00000
     44     -46.3695      2.00000
     45     -46.3694      2.00000
     46     -46.3690      2.00000
     47     -46.3689      2.00000
     48     -46.3687      2.00000
     49     -46.3675      2.00000
     50     -46.3671      2.00000
     51     -46.3664      2.00000
     52     -46.3658      2.00000
     53     -46.3657      2.00000
     54     -46.3653      2.00000
     55     -46.3651      2.00000
     56     -46.3639      2.00000
     57     -46.3635      2.00000
     58     -46.3635      2.00000
     59     -46.3632      2.00000
     60     -46.3627      2.00000
[...]
   1010       7.6899      0.00000
   1011       7.7300      0.00000
   1012       7.7743      0.00000
   1013       7.8166      0.00000
   1014       7.8700      0.00000
   1015       7.8847      0.00000
   1016       7.9625      0.00000
   1017       7.9817      0.00000
   1018       8.1460      0.00000
   1019       8.2451      0.00000
   1020       8.2877      0.00000
   1021       8.4261      0.00000
   1022       8.4442      0.00000
   1023       8.5090      0.00000
   1024       8.6133      0.00000

 soft charge-density along one line, spin component           1
         0         1         2         3         4         5         6         7         8         9
 total charge-density along one line

------------------------ aborting loop because EDIFF is reached ----------------------------------------

 WARNING: Using user supplied parameters
     VDW_A1 = 0.398
     VDW_A2 = 4.421
     VDW_S8 = 1.989
     because the xc functional is not supported. Required parameters not
     defined in the INCAR file will be replaced with PBE defaults ones.

         DFTD3 V3.0 Rev 1
 IVDW         = 12
 DF unknown
 parameters
 VDW_S6       =    1.0000
 VDW_S8       =    1.9889
 VDW_A1       =    0.3981
 VDW_A2       =    4.4211
 k1-k3        =   16.0000    1.3333   -4.0000
 VDW_RADIUS   =   50.2022 A
 VDW_CNRADIUS =   21.1671 A
 Edisp (eV)  -61.18268

 E6    (eV) :   -20.9169
 E8    (eV) :   -40.2658
 % E8        : 65.81

 VOLUME and BASIS-vectors are now :
  energy-cutoff  :      520.00
  volume of cell :     9881.61
      direct lattice vectors                 reciprocal lattice vectors
    21.138852197  0.000000000  0.000000000     0.047306258  0.000000000  0.000000000
     0.000000000 21.138852197  0.000000000     0.000000000  0.047306258  0.000000000
     0.000000000  0.000000000 22.113885220     0.000000000  0.000000000  0.045220457

  length of vectors
    21.138852197 21.138852197 22.113885220     0.047306258  0.047306258  0.045220457

 FORCES acting on ions:
    Electron-Ion                     Ewald-Force                    Non-Local-Force
   -.254E+03 0.254E+03 -.212E+04   0.246E+03 -.246E+03 0.212E+04   0.850E+01 -.850E+01 -.907E+00
   0.254E+03 -.254E+03 -.212E+04   -.246E+03 0.246E+03 0.212E+04   -.850E+01 0.850E+01 -.907E+00
   0.158E+00 -.352E+01 0.931E+03   -.162E+00 0.353E+01 -.923E+03   0.279E-02 -.287E-02 -.670E+01
   0.352E+01 -.158E+00 0.931E+03   -.353E+01 0.162E+00 -.923E+03   0.287E-02 -.279E-02 -.670E+01
   0.137E-07 -.185E-03 -.923E+03   0.784E-07 -.160E-05 0.915E+03   0.000E+00 0.000E+00 0.667E+01
   0.530E+01 -.530E+01 -.922E+03   -.531E+01 0.531E+01 0.915E+03   0.661E-02 -.661E-02 0.667E+01
   -.158E+00 0.352E+01 0.931E+03   0.162E+00 -.353E+01 -.923E+03   -.279E-02 0.287E-02 -.670E+01
   0.548E+01 0.692E+01 0.933E+03   -.549E+01 -.692E+01 -.925E+03   0.122E-02 0.462E-02 -.670E+01
   -.436E+00 0.725E+01 -.922E+03   0.446E+00 -.725E+01 0.914E+03   -.711E-02 0.393E-02 0.667E+01
   0.483E+01 0.483E+01 -.923E+03   -.483E+01 -.483E+01 0.915E+03   -.366E-03 -.366E-03 0.667E+01
   -.369E+00 0.627E+01 0.934E+03   0.378E+00 -.628E+01 -.926E+03   -.662E-02 0.482E-02 -.670E+01
   0.107E+02 0.528E+01 0.937E+03   -.107E+02 -.529E+01 -.930E+03   0.102E-01 0.769E-02 -.670E+01
   -.421E+00 0.508E+01 -.920E+03   0.430E+00 -.508E+01 0.912E+03   -.669E-02 0.224E-02 0.667E+01
   0.109E+02 0.984E+01 -.920E+03   -.109E+02 -.985E+01 0.912E+03   -.153E-02 0.575E-02 0.667E+01
   0.212E-06 -.189E-03 0.936E+03   -.118E-06 0.158E-05 -.928E+03   0.000E+00 0.000E+00 -.670E+01
   0.114E+02 -.486E+01 0.938E+03   -.114E+02 0.486E+01 -.930E+03   0.235E-01 -.128E-02 -.670E+01
   0.421E+00 -.508E+01 -.920E+03   -.430E+00 0.508E+01 0.912E+03   0.669E-02 -.224E-02 0.667E+01
   0.178E+02 0.580E+00 -.917E+03   -.178E+02 -.589E+00 0.909E+03   0.176E-01 0.628E-02 0.667E+01
   0.369E+00 -.628E+01 0.934E+03   -.378E+00 0.628E+01 -.926E+03   0.662E-02 -.482E-02 -.670E+01
   0.613E+01 -.719E+01 0.933E+03   -.615E+01 0.720E+01 -.926E+03   0.115E-01 -.819E-02 -.670E+01
   0.436E+00 -.725E+01 -.922E+03   -.446E+00 0.725E+01 0.914E+03   0.711E-02 -.393E-02 0.667E+01
   0.123E+02 -.995E+01 -.919E+03   -.124E+02 0.996E+01 0.912E+03   0.216E-01 -.505E-02 0.667E+01
   0.719E+01 -.613E+01 0.933E+03   -.720E+01 0.615E+01 -.926E+03   0.819E-02 -.115E-01 -.670E+01
   0.627E+01 -.369E+00 0.934E+03   -.628E+01 0.378E+00 -.926E+03   0.482E-02 -.662E-02 -.670E+01
   0.725E+01 -.436E+00 -.922E+03   -.725E+01 0.446E+00 0.914E+03   0.393E-02 -.711E-02 0.667E+01
   0.995E+01 -.123E+02 -.919E+03   -.996E+01 0.124E+02 0.912E+03   0.505E-02 -.216E-01 0.667E+01
   0.692E+01 0.548E+01 0.933E+03   -.692E+01 -.549E+01 -.925E+03   0.462E-02 0.122E-02 -.670E+01
   0.121E+02 0.156E+02 0.940E+03   -.121E+02 -.156E+02 -.932E+03   0.139E-01 0.168E-01 -.671E+01
   0.136E+02 0.136E+02 -.919E+03   -.136E+02 -.136E+02 0.912E+03   0.292E-02 0.292E-02 0.667E+01
   0.984E+01 0.109E+02 -.920E+03   -.985E+01 -.109E+02 0.912E+03   0.575E-02 -.153E-02 0.667E+01
   0.156E+02 0.121E+02 0.940E+03   -.156E+02 -.121E+02 -.932E+03   0.168E-01 0.139E-01 -.671E+01
   0.310E+02 0.170E+02 0.962E+03   -.311E+02 -.171E+02 -.954E+03   0.764E-01 0.396E-01 -.672E+01
   0.346E+02 0.142E+02 -.910E+03   -.346E+02 -.142E+02 0.902E+03   0.171E-01 0.201E-01 0.666E+01
   0.334E+02 0.334E+02 -.906E+03   -.334E+02 -.334E+02 0.898E+03   0.194E-01 0.194E-01 0.665E+01
   0.254E+02 0.916E+00 0.948E+03   -.254E+02 -.933E+00 -.940E+03   0.492E-01 0.121E-01 -.670E+01
   0.327E+02 -.156E+02 0.965E+03   -.327E+02 0.156E+02 -.958E+03   0.529E-01 -.192E-01 -.666E+01
   0.378E+02 -.126E+02 -.908E+03   -.379E+02 0.126E+02 0.901E+03   0.726E-01 0.230E-02 0.667E+01
   0.840E+02 0.684E+01 -.872E+03   -.843E+02 -.693E+01 0.864E+03   0.175E+00 0.628E-01 0.669E+01
   0.168E+02 -.123E+02 0.941E+03   -.168E+02 0.124E+02 -.934E+03   0.295E-01 -.157E-01 -.669E+01
   0.123E+02 -.168E+02 0.941E+03   -.124E+02 0.168E+02 -.934E+03   0.157E-01 -.295E-01 -.669E+01
   0.149E+02 -.149E+02 -.919E+03   -.149E+02 0.149E+02 0.911E+03   0.185E-01 -.185E-01 0.667E+01
   0.374E+02 -.374E+02 -.901E+03   -.375E+02 0.375E+02 0.893E+03   0.581E-01 -.581E-01 0.668E+01
   0.486E+01 -.114E+02 0.938E+03   -.486E+01 0.114E+02 -.930E+03   0.128E-02 -.235E-01 -.670E+01
   0.206E-06 -.183E-03 0.936E+03   -.110E-06 -.428E-05 -.928E+03   0.000E+00 0.000E+00 -.670E+01
   0.508E+01 -.421E+00 -.920E+03   -.508E+01 0.430E+00 0.912E+03   0.224E-02 -.669E-02 0.667E+01
   -.580E+00 -.178E+02 -.917E+03   0.589E+00 0.178E+02 0.909E+03   -.628E-02 -.176E-01 0.667E+01
   0.528E+01 0.107E+02 0.937E+03   -.529E+01 -.107E+02 -.930E+03   0.769E-02 0.102E-01 -.670E+01
   0.916E+00 0.254E+02 0.948E+03   -.933E+00 -.254E+02 -.940E+03   0.121E-01 0.492E-01 -.670E+01
   0.142E+02 0.346E+02 -.910E+03   -.142E+02 -.346E+02 0.902E+03   0.201E-01 0.171E-01 0.666E+01
   0.580E+00 0.178E+02 -.917E+03   -.589E+00 -.178E+02 0.909E+03   0.628E-02 0.176E-01 0.667E+01
   0.170E+02 0.310E+02 0.962E+03   -.171E+02 -.311E+02 -.954E+03   0.396E-01 0.764E-01 -.672E+01
   0.278E+01 0.347E+02 0.101E+04   -.275E+01 -.348E+02 -.100E+04   -.241E-01 0.618E-01 -.651E+01
   0.784E+02 0.784E+02 -.833E+03   -.787E+02 -.787E+02 0.826E+03   0.197E+00 0.197E+00 0.654E+01
   0.684E+01 0.840E+02 -.872E+03   -.693E+01 -.843E+02 0.864E+03   0.628E-01 0.175E+00 0.669E+01
   0.347E+02 0.278E+01 0.101E+04   -.348E+02 -.275E+01 -.100E+04   0.618E-01 -.241E-01 -.651E+01
   -.278E+01 -.347E+02 0.101E+04   0.275E+01 0.348E+02 -.100E+04   0.241E-01 -.618E-01 -.651E+01
   0.865E+02 -.865E+02 -.795E+03   -.868E+02 0.868E+02 0.787E+03   0.152E+00 -.152E+00 0.669E+01
   -.237E-04 -.260E-03 -.614E+03   0.242E-04 0.699E-04 0.610E+03   0.000E+00 0.000E+00 0.386E+01
   0.156E+02 -.327E+02 0.965E+03   -.156E+02 0.327E+02 -.958E+03   0.192E-01 -.529E-01 -.666E+01
   -.916E+00 -.254E+02 0.948E+03   0.933E+00 0.254E+02 -.940E+03   -.121E-01 -.492E-01 -.670E+01
[...]
   -.813E+01 0.813E+01 0.704E+03   0.814E+01 -.814E+01 -.708E+03   -.174E-01 0.174E-01 0.318E+01
   -.319E+01 0.319E+01 0.701E+03   0.320E+01 -.320E+01 -.705E+03   -.664E-02 0.664E-02 0.318E+01
   -.191E+02 0.136E+02 -.687E+03   0.191E+02 -.136E+02 0.691E+03   -.380E-01 0.238E-01 -.321E+01
   -.124E+02 0.480E+01 -.690E+03   0.124E+02 -.480E+01 0.694E+03   -.200E-01 0.105E-03 -.322E+01
   -.173E+02 0.613E+01 0.711E+03   0.173E+02 -.614E+01 -.715E+03   -.444E-01 0.558E-02 0.319E+01
   -.664E+01 0.574E+01 0.703E+03   0.666E+01 -.575E+01 -.707E+03   -.172E-01 0.843E-02 0.318E+01
   -.318E+02 -.146E+01 -.682E+03   0.318E+02 0.148E+01 0.686E+03   -.426E-01 -.262E-01 -.323E+01
   -.114E+02 -.530E+01 -.690E+03   0.114E+02 0.530E+01 0.694E+03   -.669E-02 -.982E-02 -.322E+01
   -.164E+02 -.686E+01 0.711E+03   0.164E+02 0.688E+01 -.715E+03   -.241E-01 -.199E-01 0.317E+01
   -.912E+01 -.258E+00 0.706E+03   0.914E+01 0.262E+00 -.710E+03   -.159E-01 -.583E-02 0.318E+01
   -.170E+02 -.129E+02 -.688E+03   0.170E+02 0.130E+02 0.692E+03   -.862E-02 -.116E-01 -.323E+01
   -.530E+01 -.650E+01 -.693E+03   0.530E+01 0.650E+01 0.697E+03   0.798E-03 -.338E-02 -.322E+01
   -.762E+01 -.762E+01 0.703E+03   0.763E+01 0.763E+01 -.707E+03   -.803E-02 -.803E-02 0.318E+01
   -.598E+01 -.573E+01 0.703E+03   0.599E+01 0.573E+01 -.707E+03   -.356E-02 -.786E-02 0.318E+01
   -.136E-04 -.110E+00 0.850E+01   0.166E-11 0.583E-12 -.105E-10   0.734E-15 -.479E-15 -.808E+01

 POSITION                                       TOTAL-FORCE (eV/Angst)
     11.36279     11.88995     13.59669         0.132431     -0.132431      0.004491
      9.77606     13.47667     13.59669        -0.132431      0.132431      0.004491
      0.00000      0.00000      9.00000        -0.000897      0.000896      0.530540
      2.11389      2.11389      9.00000        -0.000896      0.000897      0.530540
      0.00000      2.11389     11.11389        -0.000000      0.000000     -0.521253
      2.11389      0.00000     11.11389        -0.002012      0.002012     -0.521114
      0.00000      4.22777      9.00000         0.000897     -0.000896      0.530540
      2.11389      6.34166      9.00000        -0.000360     -0.001400      0.531005
      0.00000      6.34166     11.11389         0.002179     -0.001159     -0.520669
      2.11389      4.22777     11.11389         0.000137      0.000137     -0.520536
      0.00000      8.45554      9.00000         0.002013     -0.001536      0.530883
      2.11389     10.56943      9.00000        -0.003056     -0.002490      0.531660
      0.00000     10.56943     11.11389         0.002045     -0.000715     -0.519978
      2.11389      8.45554     11.11389         0.000801     -0.001608     -0.518814
      0.00000     12.68331      9.00000        -0.000000      0.000000      0.531214
      2.11389     14.79720      9.00000        -0.006882      0.000389      0.531150
      0.00000     14.79720     11.11389        -0.002045      0.000715     -0.519978
      2.11389     12.68331     11.11389        -0.004495     -0.002079     -0.518989
      0.00000     16.91108      9.00000        -0.002013      0.001536      0.530883
      2.11389     19.02497      9.00000        -0.003572      0.002595      0.530428
      0.00000     19.02497     11.11389        -0.002179      0.001159     -0.520669
      2.11389     16.91108     11.11389        -0.006290      0.001549     -0.520556
      4.22777      0.00000      9.00000        -0.002595      0.003572      0.530428
      6.34166      2.11389      9.00000        -0.001536      0.002013      0.530883
      4.22777      2.11389     11.11389        -0.001159      0.002179     -0.520669
      6.34166      0.00000     11.11389        -0.001549      0.006290     -0.520556
      4.22777      4.22777      9.00000        -0.001400     -0.000360      0.531005
      6.34166      6.34166      9.00000        -0.004179     -0.004957      0.532957
      4.22777      6.34166     11.11389        -0.000518     -0.000518     -0.518080
      6.34166      4.22777     11.11389        -0.001608      0.000801     -0.518814
      4.22777      8.45554      9.00000        -0.004957     -0.004179      0.532957
      6.34166     10.56943      9.00000        -0.021886     -0.012391      0.538581
      4.22777     10.56943     11.11389        -0.001664     -0.005463     -0.513158
      6.34166      8.45554     11.11389        -0.001146     -0.001146     -0.504954
      4.22777     12.68331      9.00000        -0.014211     -0.004093      0.532307
      6.34166     14.79720      9.00000        -0.013573      0.005429      0.523555
      4.22777     14.79720     11.11389        -0.018946     -0.001694     -0.518446
      6.34166     12.68331     11.11389        -0.043272     -0.019566     -0.498601
      4.22777     16.91108      9.00000        -0.009005      0.005054      0.529424
      6.34166     19.02497      9.00000        -0.005054      0.009005      0.529424
      4.22777     19.02497     11.11389        -0.005504      0.005504     -0.521143
      6.34166     16.91108     11.11389        -0.012635      0.012635     -0.521359
      8.45554      0.00000      9.00000        -0.000389      0.006882      0.531150
     10.56943      2.11389      9.00000        -0.000000      0.000000      0.531214
      8.45554      2.11389     11.11389        -0.000715      0.002045     -0.519978
     10.56943      0.00000     11.11389         0.002079      0.004495     -0.518989
      8.45554      4.22777      9.00000        -0.002490     -0.003056      0.531660
     10.56943      6.34166      9.00000        -0.004093     -0.014211      0.532307
      8.45554      6.34166     11.11389        -0.005463     -0.001664     -0.513158
     10.56943      4.22777     11.11389        -0.002079     -0.004495     -0.518989
      8.45554      8.45554      9.00000        -0.012391     -0.021886      0.538581
     10.56943     10.56943      9.00000         0.012597     -0.009038      0.488818
      8.45554     10.56943     11.11389        -0.014434     -0.014434     -0.366366
     10.56943      8.45554     11.11389        -0.019566     -0.043272     -0.498601
      8.45554     12.68331      9.00000        -0.009038      0.012597      0.488818
     10.56943     14.79720      9.00000        -0.012597      0.009038      0.488818
      8.45554     14.79720     11.11389        -0.090029      0.090029     -0.694412
     10.56943     12.68331     11.11389        -0.000000      0.000000     -0.471777
      8.45554     16.91108      9.00000        -0.005429      0.013573      0.523555
     10.56943     19.02497      9.00000         0.004093      0.014211      0.532307
[...]
     19.02497      6.34166     11.11389        -0.004247      0.003180      0.398382
     16.91108      6.34166      9.00000        -0.005618      0.005618     -0.407451
     19.02497      4.22777      9.00000        -0.002141      0.002141     -0.408342
     16.91108      8.45554     11.11389        -0.012724      0.007947      0.398930
     19.02497     10.56943     11.11389        -0.006611      0.000072      0.397007
     16.91108     10.56943      9.00000        -0.015021      0.001916     -0.404664
     19.02497      8.45554      9.00000        -0.005595      0.002680     -0.408067
     16.91108     12.68331     11.11389        -0.014889     -0.008472      0.393803
     19.02497     14.79720     11.11389        -0.002402     -0.003220      0.395750
     16.91108     14.79720      9.00000        -0.008252     -0.006611     -0.410530
     19.02497     12.68331      9.00000        -0.005203     -0.001865     -0.408736
     16.91108     16.91108     11.11389        -0.003087     -0.004110      0.392917
     19.02497     19.02497     11.11389         0.000188     -0.000991      0.397365
     16.91108     19.02497      9.00000        -0.002587     -0.002587     -0.409690
     19.02497     16.91108      9.00000        -0.001170     -0.002545     -0.409303
    total drift:                               -0.000014     -0.109991     -0.251527

  FREE ENERGIE OF THE ION-ELECTRON SYSTEM (eV)
  free  energy   TOTEN  =     -1393.63859477 eV

  energy  without entropy=    -1393.63859477  energy(sigma->0) =    -1393.63859477