 vasp.6.4.0 14Feb23 (build Mar 22 2023 21:21:37) complex

 executed on           IFC15_impi date 2023.05.05  20:52:55

 INCAR:
   SYSTEM = MgO-rocksalt
   ISMEAR = 0
   SIGMA = 0.05
   EDIFF = 1E-6
   ALGO = ALL
   ISTART = 0
   IBRION = -1
   NSW = 0
   ISYM = 2
   DIPOL = 0.5 0.5 0.5
   IDIPOL = 3
   LDIPOL = .TRUE.
   METAGGA = SCAN
   LUSE_VDW = .TRUE.
   BPARAM = 15.7
   CPARAM = 0.0093
   ENCUT = 520
   PREC = Accurate
   LASPH = .TRUE.
   LREAL = Auto
   ISPIN = 1
   NELM = 200
   NELMIN = 8
   NCORE = 4
   KPAR = 2
   LWAVE = .FALSE.
   LCHARG = .FALSE.

 POTCAR:    PAW_PBE Au 04Oct2007
 POTCAR:    PAW_PBE Mg_pv 13Apr2007
 POTCAR:    PAW_PBE O 08Apr2002
|               ----> ADVICE to this user running VASP <----                  |
|     You have switched on vdW-DFT.                                           |
|     This routine was written and supplied by Jiri Klimes. We recommend      |
|     that you carefully read and cite the following publications:            |
|       J. Klimes, D.R. Bowler, A. Michelides                                 |
|          J. Phys.: Cond Matt. 22 022201 (2010)                              |
|       J. Klimes, D.R. Bowler, A. Michelides                                 |
|          Phys. Rev. B. 83, 195131 (2011)                                    |
|     and references therein.                                                 |

   TITEL  = PAW_PBE Au 04Oct2007
   POMASS =  196.966; ZVAL   =   11.000    mass and valenz
   ENMAX  =  229.943; ENMIN  =  172.457 eV

   TITEL  = PAW_PBE Mg_pv 13Apr2007
   POMASS =   24.305; ZVAL   =    8.000    mass and valenz
   ENMAX  =  403.929; ENMIN  =  302.947 eV

   TITEL  = PAW_PBE O 08Apr2002
   POMASS =   16.000; ZVAL   =    6.000    mass and valenz
   ENMAX  =  400.000; ENMIN  =  300.000 eV

 Optimization of the real space projectors (new method)

 maximal supplied QI-value         = 15.12
 optimisation between [QCUT,QGAM] = [ 11.64, 23.28] = [ 37.95,151.78] Ry
 Optimized for a Real-space Cutoff    1.49 Angstroem

   l    n(q)    QCUT    max X(q) W(low)/X(q) W(high)/X(q)  e(spline)
   2      9    11.641    60.898    0.24E-03    0.10E-03    0.19E-06
   2      9    11.641    58.894    0.25E-03    0.10E-03    0.19E-06
   0     10    11.641   109.617    0.73E-04    0.33E-04    0.11E-06
   0     10    11.641    75.026    0.71E-04    0.32E-04    0.11E-06
   1     10    11.641    16.344    0.27E-04    0.97E-04    0.16E-06
   1     10    11.641    10.160    0.23E-04    0.77E-04    0.13E-06
 Optimization of the real space projectors (new method)

[...]

   l    n(q)    QCUT    max X(q) W(low)/X(q) W(high)/X(q)  e(spline)
   1      8    11.527     2.974    0.44E-04    0.56E-04    0.12E-06
   1      8    11.527     4.279    0.12E-03    0.12E-03    0.26E-06
   0      9    11.527    16.381    0.46E-04    0.64E-04    0.78E-07
   0      9    11.527     5.611    0.26E-04    0.43E-04    0.55E-07
   2      8    11.527     4.652    0.22E-03    0.72E-04    0.47E-07
 Optimization of the real space projectors (new method)

 maximal supplied QI-value         = 24.76
 optimisation between [QCUT,QGAM] = [ 11.64, 23.27] = [ 37.91,151.63] Ry
 Optimized for a Real-space Cutoff    1.14 Angstroem

   l    n(q)    QCUT    max X(q) W(low)/X(q) W(high)/X(q)  e(spline)
   0      8    11.635    20.381    0.10E-03    0.33E-03    0.24E-06
   0      8    11.635    15.268    0.11E-03    0.35E-03    0.26E-06
   1      7    11.635     5.964    0.24E-03    0.31E-03    0.30E-06
   1      7    11.635     5.382    0.22E-03    0.25E-03    0.26E-06
  PAW_PBE Au 04Oct2007                  :
  PAW_PBE Mg_pv 13Apr2007               :
  PAW_PBE O 08Apr2002                   :

 POSCAR: Mg  O
  positions in direct lattice
  velocities in cartesian coordinates

 METAGGA = SCAN                                        LMAXTAU =  6    LMIXTAU =  F

 ion  position               nearest neighbor table
   1  0.525  0.447  0.604-   9 2.67   5 2.69   6 2.74  10 2.79   2 2.83
   2  0.392  0.462  0.611-  10 2.68   6 2.70   7 2.71   3 2.74  11 2.75   1 2.83
   3  0.263  0.476  0.611-   8 2.71   4 2.74   2 2.74  12 2.74  11 2.75   7 2.76
   4  0.142  0.488  0.581- 230 2.54  12 2.68   3 2.74   8 2.75  51 2.76
   5  0.597  0.552  0.599-   1 2.69  13 2.70   6 2.73  14 2.76
   6  0.469  0.564  0.610-   7 2.70   2 2.70   5 2.73   1 2.74  14 2.75  15 2.77
   7  0.342  0.580  0.615-  16 2.70   6 2.70   2 2.71   8 2.75   3 2.76  15 2.77
   8  0.223  0.590  0.580- 253 2.44   3 2.71  16 2.73   7 2.75   4 2.75  56 2.95
   9  0.567  0.328  0.608-  17 2.66   1 2.67  10 2.67  18 2.84
  10  0.441  0.345  0.606-   9 2.67  11 2.67   2 2.68  18 2.72   1 2.79  19 2.83
  11  0.316  0.357  0.606-  10 2.67  19 2.71  12 2.72   2 2.75   3 2.75  20 2.78
  12  0.189  0.372  0.596-  20 2.66   4 2.68  11 2.72   3 2.74
  13  0.664  0.657  0.580- 294 2.61  14 2.66   5 2.70  96 2.83  95 2.91
  14  0.542  0.671  0.600-  15 2.63  13 2.66   6 2.75   5 2.76
  15  0.420  0.685  0.613-  14 2.63  16 2.66   7 2.77   6 2.77
  16  0.306  0.688  0.576- 254 2.29  15 2.66   7 2.70   8 2.73  56 2.97  75 3.04
  17  0.590  0.216  0.572- 285 2.19  18 2.62   9 2.66  87 2.86  68 2.93
  18  0.483  0.224  0.615-  17 2.62  19 2.63  10 2.72   9 2.84
  19  0.361  0.238  0.599-  18 2.63  20 2.71  11 2.71  10 2.83
  20  0.235  0.255  0.591-  12 2.66  19 2.71  11 2.78  47 2.95
  21  0.000  0.000  0.430- 223 2.11 224 2.11 304 2.11 239 2.12 321 2.12 221 2.13
  22  0.100  0.100  0.430- 243 2.11 228 2.11 223 2.11 224 2.12 322 2.12 222 2.13
  23  1.000  0.100  0.500- 223 2.11 222 2.11 302 2.11 225 2.11 221 2.11
  24  0.100  0.000  0.500- 224 2.11 222 2.11 221 2.11 238 2.11 241 2.11
  25  0.000  0.200  0.430- 228 2.11 308 2.11 223 2.11 227 2.12 325 2.12 225 2.13
  26  0.100  0.300  0.430- 247 2.10 228 2.11 227 2.12 326 2.12 232 2.13 226 2.13
  27  1.000  0.300  0.500- 306 2.11 227 2.11 226 2.11 225 2.11 229 2.12
  28  0.100  0.200  0.500- 225 2.11 228 2.11 226 2.11 222 2.11 245 2.11
  29  1.000  0.400  0.430- 232 2.11 227 2.11 312 2.11 231 2.12 329 2.12 229 2.13
  30  0.100  0.500  0.429- 232 2.10 251 2.10 231 2.11 330 2.11 236 2.12 230 2.19
  31  0.998  0.500  0.500- 310 2.08 231 2.11 229 2.11 230 2.12 233 2.12
  32  0.100  0.398  0.500- 226 2.09 229 2.11 232 2.11 249 2.12 230 2.16
  33  1.000  0.600  0.430- 316 2.11 231 2.11 235 2.11 333 2.12 236 2.12 233 2.14
  34  0.099  0.700  0.430- 235 2.10 240 2.11 334 2.12 255 2.12 236 2.12 234 2.14
  35  0.999  0.701  0.500- 314 2.10 235 2.11 237 2.11 234 2.11 233 2.12
  36  0.098  0.601  0.500- 233 2.08 234 2.10 236 2.10 253 2.12 230 2.13
  37  1.000  0.800  0.430- 239 2.11 320 2.11 240 2.12 337 2.12 235 2.12 237 2.13
  38  0.100  0.900  0.430- 224 2.11 239 2.11 259 2.11 338 2.12 240 2.12 238 2.13
  39  1.000  0.900  0.500- 239 2.10 221 2.11 318 2.11 238 2.11 237 2.12
  40  0.099  0.801  0.500- 238 2.10 237 2.10 240 2.11 257 2.12 234 2.12
  41  0.200  0.000  0.430- 243 2.11 244 2.11 224 2.11 259 2.12 341 2.12 241 2.13
  42  0.300  0.100  0.430- 248 2.10 243 2.12 263 2.12 244 2.12 342 2.12 242 2.13
  43  0.200  0.100  0.500- 241 2.11 245 2.11 243 2.11 242 2.11 222 2.12
  44  0.300  0.000  0.500- 242 2.10 258 2.10 244 2.11 261 2.12 241 2.12
  45  0.200  0.200  0.430- 248 2.10 247 2.10 243 2.12 228 2.12 345 2.12 245 2.15
  46  0.300  0.300  0.430- 246 2.08 267 2.11 252 2.12 248 2.12 346 2.12 247 2.13
  47  0.200  0.300  0.501- 249 2.11 246 2.12 245 2.13 226 2.13 247 2.14  20 2.95
  48  0.300  0.200  0.501- 265 2.10 246 2.12 242 2.12 245 2.13 248 2.14
  49  0.200  0.399  0.429- 249 2.08 252 2.11 247 2.11 349 2.11 232 2.13 251 2.14
  50  0.301  0.499  0.430- 271 2.10 252 2.10 250 2.10 350 2.11 256 2.14 251 2.14
  51  0.202  0.498  0.500- 250 2.07 249 2.08 251 2.09 253 2.19 230 2.20   4 2.76
  52  0.301  0.399  0.501- 246 2.10 269 2.10 250 2.12 249 2.14 252 2.14
  53  0.200  0.600  0.429- 256 2.10 251 2.10 353 2.10 255 2.11 236 2.11 253 2.16
  54  0.300  0.700  0.429- 354 2.10 275 2.10 256 2.11 260 2.11 255 2.12 254 2.14
  55  0.198  0.702  0.500- 234 2.08 257 2.08 255 2.09 254 2.13 253 2.13
  56  0.302  0.598  0.500- 273 2.06 250 2.07 256 2.10 253 2.20 254 2.22   8 2.95  16 2.97
  57  0.200  0.801  0.430- 259 2.10 260 2.11 240 2.11 357 2.12 255 2.13 257 2.13
  58  0.300  0.901  0.430- 244 2.10 279 2.11 358 2.11 259 2.12 260 2.12 258 2.13
  59  0.200  0.901  0.500- 241 2.10 259 2.11 238 2.11 257 2.11 258 2.12
  60  0.300  0.803  0.499- 258 2.07 260 2.10 277 2.11 254 2.12 257 2.13
[...]
 406  0.900  0.300  0.359- 208 2.11 207 2.11 127 2.11 212 2.11 206 2.11 106 2.12
 407  0.800  0.300  0.289- 186 2.11 205 2.11 206 2.11 209 2.11 207 2.11
 408  0.900  0.200  0.289- 206 2.11 202 2.11 205 2.11 125 2.11 208 2.11
 409  0.800  0.400  0.359- 192 2.11 207 2.11 211 2.11 212 2.11 209 2.11 109 2.12
 410  0.900  0.500  0.359- 131 2.11 211 2.11 212 2.11 216 2.11 210 2.11 110 2.12
 411  0.800  0.500  0.289- 190 2.11 209 2.11 210 2.11 213 2.11 211 2.11
 412  0.900  0.400  0.289- 129 2.11 206 2.11 209 2.11 210 2.11 212 2.11
 413  0.800  0.600  0.359- 196 2.11 211 2.11 215 2.11 216 2.11 213 2.11 113 2.12
 414  0.900  0.700  0.359- 220 2.11 215 2.11 216 2.11 135 2.11 214 2.11 114 2.12
 415  0.800  0.700  0.289- 194 2.11 217 2.11 214 2.11 213 2.11 215 2.11
 416  0.900  0.600  0.289- 133 2.11 210 2.11 213 2.11 214 2.11 216 2.11
 417  0.800  0.800  0.359- 200 2.11 215 2.11 219 2.11 220 2.11 217 2.11 117 2.12
 418  0.900  0.900  0.359- 139 2.11 204 2.11 219 2.11 220 2.11 218 2.11 118 2.12
 419  0.800  0.900  0.289- 198 2.11 201 2.11 217 2.11 218 2.11 219 2.11
 420  0.900  0.800  0.289- 214 2.11 137 2.11 217 2.11 218 2.11 220 2.11

  LATTYP: Found a simple tetragonal cell.
 ALAT       =    21.1388521970
 C/A-ratio  =     1.4191877459

  Lattice vectors:

 A1 = (  21.1388521970,   0.0000000000,   0.0000000000)
 A2 = (   0.0000000000,  21.1388521970,   0.0000000000)
 A3 = (   0.0000000000,   0.0000000000,  30.0000000000)

Analysis of symmetry for initial positions (statically):
 Subroutine PRICEL returns:
 Original cell was already a primitive cell.

 Routine SETGRP: Setting up the symmetry group for a
 simple tetragonal supercell.

 Subroutine GETGRP returns: Found  1 space group operations
 (whereof  1 operations were pure point group operations)
 out of a pool of 16 trial point group operations.

The static configuration has the point symmetry C_1 .

Analysis of symmetry for dynamics (positions and initial velocities):
 Subroutine PRICEL returns:
 Original cell was already a primitive cell.

[...]

The dynamic configuration has the point symmetry C_1 .

Analysis of constrained symmetry for selective dynamics:
 Subroutine PRICEL returns:
 Original cell was already a primitive cell.

 Routine SETGRP: Setting up the symmetry group for a
 simple tetragonal supercell.

 Subroutine GETGRP returns: Found  1 space group operations
 (whereof  1 operations were pure point group operations)
 out of a pool of 16 trial point group operations.

The constrained configuration has the point symmetry C_1 .

 Subroutine INISYM returns: Found  1 space group operations
 (whereof  1 operations are pure point group operations),
 and found     1 'primitive' translations

                                     Primitive cell

[...]
  506                  m_alltoallv_z                         0.277390                 30   8
  507                  map_scatter                           0.098388                 30   8
  508          m_sumb_d                              0.009014                          5   4
  509        fortau                                3.010734                            1   3
  510          m_sumb_d                              0.009628                          1   4
  511        forhar                                2.980055                            1   3
  512          m_sumb_d                              0.000177                          1   4
  513        strehar                               0.033433                            1   3
  514          m_sumb_d                              0.000736                          1   4
  515        m_bcast_d                             2.733362                            2   3
  516      potlok                                0.171826                              1   2
  517        fft3d_mpi                             0.117833                            5   3
  518          fftbrc_mpi                            0.108773                          5   4
  519            fftbas_plan_mpi                       0.108758                        5   5
  520              dfftw_execute                         0.038113                     15   6
  521              map_backward                          0.025633                      4   6
  522                map_gather                            0.003351                    2   7
  523                m_alltoallv_z                         0.015876                    2   7
  524                map_scatter                           0.006351                    2   7
  525              map_forward                           0.041580                      6   6
  526                map_gather                            0.006072                    4   7
  527                m_alltoallv_z                         0.024905                    4   7
  528                map_scatter                           0.010504                    4   7
  529        m_sumb_d                              0.001979                            2   3
  530        fewald                                0.001495                            2   3
  531          rsp                                   0.001329                          2   4
  532          rcp                                   0.000128                          2   4
  533        pothar                                0.005503                            1   3
  534          m_sumb_d                              0.001763                          1   4
  535        m_bcast_d                             0.010495                            1   3
  536      potlok_metagga                       39.264018                              1   2
  537        fft3d_mpi                             1.405149                           65   3
  538          fftbrc_mpi                            1.318963                         65   4
  539            fftbas_plan_mpi                       1.318729                       65   5
  540              dfftw_execute                         0.419348                    195   6
  541              map_forward                           0.431349                     70   6
  542                map_gather                            0.093408                   37   7
  543                m_alltoallv_z                         0.271412                   37   7
  544                map_scatter                           0.065404                   37   7
  545              map_backward                          0.416014                     60   6
  546                map_gather                            0.048071                   30   7
  547                m_alltoallv_z                         0.266750                   30   7
  548                map_scatter                           0.100382                   30   7
  549        m_sumb_d                              0.007664                            5   3
  550        m_bcast_d                             0.024439                            2   3
  551      set_dd_magatom                        0.000008                              1   2
  552      set_dd_paw                            8.321242                              1   2
  553        set_rsgf_all                          0.000019                            1   3
  554        m_sumb_d                              6.929782                            8   3

 Flat profile

 potlok_metagga                       1966.155738          52
 dfftw_execute                        1917.124262      257247
 edwav                                 811.477906          50
 m_sumb_d                              433.938633       29580
 map_scatter                           312.643353       86026
 lincom                                311.255561         142
 kinhamil_tau                          294.590278        8454
 map_gather                            266.236263       86026
 fftwav_mpi                            228.433407       46543
 m_alltoallv_z                         206.592307       86026
 orth1                                 178.347014        7065
 map_forward                           164.178465       97284
 eddav                                 155.747535           5
 wfinit                                 91.272506           1
 set_kineden                            83.795755          70
 set_dd_paw                             73.491157          53
 eccp_tau                               58.179610        5985
 fftbas_plan_mpi                        54.868422       85749
 ggemm                                  54.645298        1272
 m_alltoall_d                           54.536269       54276
 potxc_metagga                          37.873762           1
 fftext_mpi                             32.342564       35241
 choleski                               30.425751          46
 total_time                             26.606225           1
 eddiag                                 24.773371          26
 crrexp_mul_work_add                    19.745574     1013040
 m_bcast_z                              18.938081        2902
 crrexp_mul_wave                        15.732689     1204560
 vhamil                                 14.990346        2469
 rpro1                                  14.387970        2127
 pw_charge                              13.358684        2449
 racc0                                  11.232838        1425
 lapack                                  7.376107         987
 gemm                                    6.732682      414540
 w1_dscal                                6.275242        1425
 fft3d_mpi                               6.052063       85749
 redis_pw                                5.638514        8628
 m_bcast_d                               4.844392        2134
 setdij_                                 4.334730          79
 augmentation_charge                     4.170662          51
 rspher_all                              3.670226          14
 phaser                                  3.302417          43
 fortau                                  3.001106           1
 forloc                                  2.997714           1
 forhar                                  2.979878           1
 rpromu_gemm                             2.670204       81900
 potlok                                  1.922216          52
 racc0mu                                 1.910324         987
 stufak                                  1.825072           1
 orthch                                  1.265251          46
 map_backward                            1.067713       74214
 overl                                   0.934206        3211
 rpromu                                  0.860464         195
 w1_copy                                 0.857813        2961
 stretau                                 0.617911           1
 elmin_all                               0.530020           1
 soft_charge                             0.464885          51
 redis_proj                              0.361669        8184
 fftbas_mpi                              0.320100       81784
 setup_precond                           0.270956         285
 apply_precond                           0.241559         702
 depsum                                  0.219602          51
 pothar                                  0.192196          52
 inisym                                  0.179623           1
 overl1                                  0.153563         987
 fft_gq                                  0.089960          51
 rsp                                     0.079072         105
 set_charge                              0.058277          51
 strnlr                                  0.053385           1
 densta                                  0.044826          62
 strehar                                 0.032697           1
 strkin                                  0.032249           1
 force_and_stress                        0.030242           1
 hamiltmu_tau                            0.029495         987
 strelo                                  0.027011           1
 hamilt_local_tau                        0.025918        1482
 newband                                 0.020106         992
 fornlr                                  0.017721           1
 raccmu_                                 0.015422         987
 fftbrc_mpi                              0.015363        3965
 fewald                                  0.011689         105
 rpro_isp                                0.011508          13
 rcp                                     0.006104         105
 w1_projall                              0.004844         702
 brgrid                                  0.002991           1
 truncate_high_frequency_w1              0.001355        1272
 fordep                                  0.000697           1
 redis_pw_all                            0.000465          50
 crpa_reader                             0.000296           1
 posmap                                  0.000277           2
 set_rsgf_all                            0.000247          53
 redis_pw_over_bands                     0.000221          51
 proall                                  0.000070           1
 vectorpot                               0.000026           1
 rotate_active_occupied_orbital          0.000019           1
 set_dd_magatom                          0.000016           2
 shift_bands_between_low_high            0.000008           1
  summed up times    8056.77124810219

 Accumulative profile

 total_time                           8056.771248           1
 elmin_all                            7603.219789           1
 edwav                                3278.582822          50
 fft3d_mpi                            2929.098310       85749
 fftbas_plan_mpi                      2922.710784       85749
 fftbas_mpi                           2836.815105       81784
 kinhamil_tau                         2475.380227        8454
 potlok_metagga                       2046.231693          52
 dfftw_execute                        1917.124262      257247
 fftwav_mpi                           1907.796832       46543
 eccp_tau                             1815.186402        5985
 fftext_mpi                           1190.144902       35241
 eddav                                 792.245455           5
 map_forward                           607.817340       97284
 set_kineden                           584.096658          70
 eddiag                                534.403764          26
 hamilt_local_tau                      444.603802        1482
 set_dd_paw                            441.421730          53
 m_sumb_d                              433.938633       29580
 map_backward                          342.900760       74214
 hamiltmu_tau                          316.240802         987
 map_scatter                           312.643353       86026
 lincom                                311.255561         142
 map_gather                            266.236263       86026
 force_and_stress                      257.457902           1
 m_alltoallv_z                         206.592307       86026
 orthch                                184.606097          46
 orth1                                 178.347014        7065
 stretau                               159.338574           1
 set_charge                            125.082425          51
 soft_charge                           118.999416          51
 wfinit                                111.531675           1
 newband                               100.424405         992
 fftbrc_mpi                             86.231142        3965
 ggemm                                  54.645298        1272
 m_alltoall_d                           54.536269       54276
 redis_pw                               45.121105        8628
 potxc_metagga                          39.227111           1
 rpro_isp                               38.312423          13
 choleski                               30.425751          46
 strnlr                                 29.733401           1
 rpro1                                  26.729489        2127
 racc0                                  24.239030        1425
 crrexp_mul_work_add                    19.745574     1013040
 m_bcast_z                              18.938081        2902
 raccmu_                                17.265081         987
 racc0mu                                17.096096         987
 crrexp_mul_wave                        15.732689     1204560
 redis_proj                             15.415347        8184
 vhamil                                 14.990346        2469
 pw_charge                              13.358684        2449
 fornlr                                  9.879404           1
 potlok                                  9.072629          52
 w1_projall                              8.798651         702
 redis_pw_over_bands                     7.796816          51
 redis_pw_all                            7.796595          50
 rpromu                                  7.772184         195
 lapack                                  7.376107         987
 gemm                                    6.732682      414540
 w1_dscal                                6.275242        1425
 augmentation_charge                     5.456689          51
 m_bcast_d                               4.844392        2134
 setdij_                                 4.810721          79
 rspher_all                              3.670226          14
 phaser                                  3.302417          43
 proall                                  3.074054           1
 fortau                                  3.010734           1
 forloc                                  3.009001           1
 forhar                                  2.980055           1
 rpromu_gemm                             2.670204       81900
 stufak                                  1.825072           1
 fft_gq                                  1.204745          51
 overl                                   0.934206        3211
 w1_copy                                 0.857813        2961
 depsum                                  0.568042          51
 fordep                                  0.365197           1
 densta                                  0.297672          62
 setup_precond                           0.295124         285
 pothar                                  0.274925          52
 apply_precond                           0.241559         702
 inisym                                  0.179900           1
 overl1                                  0.153563         987
 fewald                                  0.151473         105
 rsp                                     0.079072         105
 strehar                                 0.033433           1
 strkin                                  0.033058           1
 strelo                                  0.027700           1
 rcp                                     0.006104         105
 brgrid                                  0.002991           1
 truncate_high_frequency_w1              0.001355        1272
 crpa_reader                             0.000296           1
 posmap                                  0.000277           2
 set_rsgf_all                            0.000247          53
 vectorpot                               0.000026           1
 rotate_active_occupied_orbital          0.000019           1
 set_dd_magatom                          0.000016           2
 shift_bands_between_low_high            0.000008           1

Profiling took   5.266075  1.315804  0.007048  0.006786 seconds
Profiling took   4.456091 seconds