 vasp.6.4.1 05Apr23 (build May 06 2023 19:47:20) complex

 executed on             LinuxIFC date 2023.07.05  13:35:06

 INCAR:
   SYSTEM = MgO-rocksalt
   ISMEAR = 0
   SIGMA = 0.05
   EDIFF = 1E-6
   ALGO = ALL
   ISTART = 0
   IBRION = -1
   NSW = 0
   ISYM = 2
   DIPOL = 0.5 0.5 0.5
   IDIPOL = 3
   LDIPOL = .TRUE.
   GGA = RE
   IVDW = 11
   ENCUT = 520
   PREC = Accurate
   LASPH = .TRUE.
   LREAL = Auto
   ISPIN = 1
   NELM = 200
   NELMIN = 8
   NCORE = 16
   KPAR = 1
   LWAVE = .FALSE.
   LCHARG = .FALSE.

 POTCAR:    PAW_PBE Cu 22Jun2005
 POTCAR:    PAW_PBE Mg_pv 13Apr2007
 POTCAR:    PAW_PBE O 08Apr2002
 POTCAR:    PAW_PBE Cu 22Jun2005
   VRHFIN =Cu: d10 p1

   TITEL  = PAW_PBE Cu 22Jun2005
   POMASS =   63.546; ZVAL   =   11.000    mass and valenz
   ENMAX  =  295.446; ENMIN  =  221.585 eV

   TITEL  = PAW_PBE Mg_pv 13Apr2007
   POMASS =   24.305; ZVAL   =    8.000    mass and valenz
   ENMAX  =  403.929; ENMIN  =  302.947 eV

   TITEL  = PAW_PBE O 08Apr2002
   POMASS =   16.000; ZVAL   =    6.000    mass and valenz
   ENMAX  =  400.000; ENMIN  =  300.000 eV

 Optimization of the real space projectors (new method)

 maximal supplied QI-value         = 16.25
 optimisation between [QCUT,QGAM] = [ 11.54, 23.24] = [ 37.28,151.24] Ry
 Optimized for a Real-space Cutoff    1.53 Angstroem

   l    n(q)    QCUT    max X(q) W(low)/X(q) W(high)/X(q)  e(spline)
   2     10    11.539     4.610    0.96E-04    0.13E-03    0.19E-06
   2     10    11.539     8.522    0.16E-03    0.21E-03    0.28E-06
   0     11    11.539    51.609    0.45E-04    0.31E-04    0.11E-06
   0     11    11.539    27.747    0.39E-04    0.29E-04    0.10E-06
   1     10    11.539    20.408    0.70E-05    0.38E-04    0.18E-06
   1     10    11.539    13.425    0.66E-05    0.34E-04    0.17E-06
 Optimization of the real space projectors (new method)

[...]

   l    n(q)    QCUT    max X(q) W(low)/X(q) W(high)/X(q)  e(spline)
   1      8    11.527     2.974    0.44E-04    0.56E-04    0.12E-06
   1      8    11.527     4.279    0.12E-03    0.12E-03    0.26E-06
   0      9    11.527    16.381    0.46E-04    0.64E-04    0.78E-07
   0      9    11.527     5.611    0.26E-04    0.43E-04    0.55E-07
   2      8    11.527     4.652    0.22E-03    0.72E-04    0.47E-07
 Optimization of the real space projectors (new method)

 maximal supplied QI-value         = 24.76
 optimisation between [QCUT,QGAM] = [ 11.64, 23.27] = [ 37.91,151.63] Ry
 Optimized for a Real-space Cutoff    1.14 Angstroem

   l    n(q)    QCUT    max X(q) W(low)/X(q) W(high)/X(q)  e(spline)
   0      8    11.635    20.381    0.10E-03    0.33E-03    0.24E-06
   0      8    11.635    15.268    0.11E-03    0.35E-03    0.26E-06
   1      7    11.635     5.964    0.24E-03    0.31E-03    0.30E-06
   1      7    11.635     5.382    0.22E-03    0.25E-03    0.26E-06
|               ----> ADVICE to this user running VASP <----                  |
|     You enforced a specific xc type in the INCAR file but a different       |
|     type was found in the POTCAR file.                                      |
|     I HOPE YOU KNOW WHAT YOU ARE DOING!                                     |

  PAW_PBE Cu 22Jun2005                  :
  PAW_PBE Mg_pv 13Apr2007               :
  PAW_PBE O 08Apr2002                   :

 POSCAR: Cu Mg  O
  positions in direct lattice
  velocities in cartesian coordinates
 exchange correlation table for  LEXCH =       40
   RHO(1)=    0.500       N(1)  =     2000
   RHO(2)=  100.500       N(2)  =     4000

 ion  position               nearest neighbor table
   1  0.400  0.417  0.591- 153 1.98   4 2.26   3 2.42   2 2.42  55 2.62
   2  0.490  0.488  0.600- 154 2.19   4 2.37   1 2.42
   3  0.310  0.488  0.600- 134 2.19   4 2.37   1 2.42
   4  0.400  0.492  0.664-   1 2.26   2 2.37   3 2.37
   5  0.000  0.000  0.407- 107 2.11 108 2.11 123 2.11 188 2.11 105 2.11
   6  0.100  0.100  0.407- 107 2.11 108 2.11 112 2.11 127 2.11 106 2.11
   7  0.000  0.100  0.503- 105 2.11 106 2.11 109 2.11 186 2.11 107 2.11
   8  0.100  0.000  0.503- 105 2.11 106 2.11 122 2.11 125 2.11 108 2.11
   9  0.000  0.200  0.407- 111 2.11 107 2.11 112 2.11 192 2.11 109 2.11
  10  0.100  0.300  0.407- 112 2.11 111 2.11 116 2.11 131 2.11 110 2.11
  11  0.000  0.300  0.503- 109 2.11 110 2.11 113 2.11 190 2.11 111 2.11
  12  0.100  0.200  0.503- 110 2.11 109 2.11 106 2.11 129 2.11 112 2.11
  13  0.000  0.400  0.407- 111 2.11 115 2.11 116 2.11 196 2.11 113 2.11
  14  0.100  0.500  0.407- 115 2.11 116 2.11 120 2.11 135 2.11 114 2.11
  15  0.000  0.500  0.503- 113 2.11 114 2.11 117 2.11 194 2.11 115 2.11
  16  0.100  0.400  0.503- 110 2.11 113 2.11 114 2.11 133 2.11 116 2.11
  17  0.000  0.600  0.407- 115 2.11 119 2.11 120 2.11 200 2.11 117 2.11
  18  0.100  0.700  0.407- 124 2.11 120 2.11 119 2.11 139 2.11 118 2.11
  19  0.000  0.700  0.503- 121 2.11 118 2.11 117 2.11 198 2.11 119 2.11
  20  0.100  0.600  0.503- 114 2.11 117 2.11 118 2.11 137 2.11 120 2.11
  21  0.000  0.800  0.407- 119 2.11 123 2.11 124 2.11 204 2.11 121 2.11
  22  0.100  0.900  0.407- 108 2.11 123 2.11 124 2.11 143 2.11 122 2.11
  23  0.000  0.900  0.503- 105 2.11 121 2.11 122 2.11 202 2.11 123 2.11
  24  0.100  0.800  0.503- 118 2.11 121 2.11 122 2.11 141 2.11 124 2.11
  25  0.200  0.000  0.407- 128 2.11 127 2.11 108 2.11 143 2.11 125 2.11
  26  0.300  0.100  0.407- 127 2.11 128 2.11 132 2.11 147 2.11 126 2.11
  27  0.200  0.100  0.503- 126 2.11 125 2.11 106 2.11 129 2.11 127 2.11
  28  0.300  0.000  0.503- 125 2.11 126 2.11 142 2.11 145 2.11 128 2.11
  29  0.200  0.200  0.407- 131 2.11 132 2.11 112 2.11 127 2.11 129 2.11
  30  0.300  0.300  0.407- 131 2.11 132 2.11 136 2.11 151 2.11 130 2.11
  31  0.200  0.300  0.503- 129 2.11 130 2.11 110 2.11 133 2.11 131 2.11
  32  0.300  0.200  0.503- 129 2.11 130 2.11 126 2.11 149 2.11 132 2.11
  33  0.200  0.400  0.407- 136 2.11 131 2.11 135 2.11 116 2.11 133 2.11
  34  0.300  0.500  0.407- 135 2.11 136 2.11 140 2.11 155 2.11 134 2.11
  35  0.200  0.500  0.503- 134 2.11 133 2.11 114 2.11 137 2.11 135 2.11
  36  0.300  0.400  0.503- 133 2.11 130 2.11 134 2.11 153 2.11 136 2.11
  37  0.200  0.600  0.407- 140 2.11 135 2.11 139 2.11 120 2.11 137 2.11
  38  0.300  0.700  0.407- 139 2.11 144 2.11 140 2.11 159 2.11 138 2.11
  39  0.200  0.700  0.503- 138 2.11 141 2.11 118 2.11 137 2.11 139 2.11
  40  0.300  0.600  0.503- 137 2.11 134 2.11 138 2.11 157 2.11 140 2.11
  41  0.200  0.800  0.407- 139 2.11 144 2.11 143 2.11 124 2.11 141 2.11
  42  0.300  0.900  0.407- 143 2.11 128 2.11 144 2.11 163 2.11 142 2.11
  43  0.200  0.900  0.503- 142 2.11 125 2.11 141 2.11 122 2.11 143 2.11
  44  0.300  0.800  0.503- 138 2.11 141 2.11 142 2.11 161 2.11 144 2.11
  45  0.400  0.000  0.407- 128 2.11 147 2.11 148 2.11 163 2.11 145 2.11
  46  0.500  0.100  0.407- 147 2.11 148 2.11 152 2.11 167 2.11 146 2.11
  47  0.400  0.100  0.503- 126 2.11 145 2.11 146 2.11 149 2.11 147 2.11
  48  0.500  0.000  0.503- 145 2.11 146 2.11 162 2.11 165 2.11 148 2.11
  49  0.400  0.200  0.407- 151 2.11 147 2.11 132 2.11 152 2.11 149 2.11
  50  0.500  0.300  0.407- 152 2.11 151 2.11 156 2.11 171 2.11 150 2.11
  51  0.400  0.300  0.503- 149 2.11 130 2.11 150 2.11 153 2.11 151 2.11
  52  0.500  0.200  0.503- 150 2.11 149 2.11 146 2.11 169 2.11 152 2.11
  53  0.400  0.400  0.407- 136 2.11 151 2.11 155 2.11 156 2.11 153 2.11
  54  0.500  0.500  0.407- 155 2.11 156 2.11 160 2.11 175 2.11 154 2.11
  55  0.400  0.500  0.503- 134 2.11 153 2.11 154 2.11 157 2.11 155 2.11   1 2.62
  56  0.500  0.400  0.503- 150 2.11 153 2.11 154 2.11 173 2.11 156 2.11
  57  0.400  0.600  0.407- 140 2.11 155 2.11 159 2.11 160 2.11 157 2.11
  58  0.500  0.700  0.407- 164 2.11 160 2.11 159 2.11 179 2.11 158 2.11
  59  0.400  0.700  0.503- 161 2.11 157 2.11 158 2.11 138 2.11 159 2.11
  60  0.500  0.600  0.503- 154 2.11 157 2.11 158 2.11 177 2.11 160 2.11
[...]
 190  0.900  0.300  0.503-  92 2.11  91 2.11  11 2.11  96 2.11  90 2.11
 191  0.800  0.300  0.407-  70 2.11  89 2.11  90 2.11  93 2.11  91 2.11
 192  0.900  0.200  0.407-  90 2.11  86 2.11  89 2.11   9 2.11  92 2.11
 193  0.800  0.400  0.503-  76 2.11  91 2.11  95 2.11  96 2.11  93 2.11
 194  0.900  0.500  0.503-  15 2.11  95 2.11  96 2.11 100 2.11  94 2.11
 195  0.800  0.500  0.407-  74 2.11  93 2.11  94 2.11  97 2.11  95 2.11
 196  0.900  0.400  0.407-  13 2.11  90 2.11  93 2.11  94 2.11  96 2.11
 197  0.800  0.600  0.503-  80 2.11  95 2.11  99 2.11 100 2.11  97 2.11
 198  0.900  0.700  0.503- 104 2.11  99 2.11 100 2.11  19 2.11  98 2.11
 199  0.800  0.700  0.407-  78 2.11 101 2.11  98 2.11  97 2.11  99 2.11
 200  0.900  0.600  0.407-  17 2.11  94 2.11  97 2.11  98 2.11 100 2.11
 201  0.800  0.800  0.503-  84 2.11  99 2.11 103 2.11 104 2.11 101 2.11
 202  0.900  0.900  0.503-  23 2.11  88 2.11 103 2.11 104 2.11 102 2.11
 203  0.800  0.900  0.407-  82 2.11  85 2.11 101 2.11 102 2.11 103 2.11
 204  0.900  0.800  0.407-  98 2.11  21 2.11 101 2.11 102 2.11 104 2.11

  LATTYP: Found a simple tetragonal cell.
 ALAT       =    21.1388521970
 C/A-ratio  =     1.0461251639

  Lattice vectors:

 A1 = (  21.1388521970,   0.0000000000,   0.0000000000)
 A2 = (   0.0000000000,  21.1388521970,   0.0000000000)
 A3 = (   0.0000000000,   0.0000000000,  22.1138852197)

Analysis of symmetry for initial positions (statically):
 Subroutine PRICEL returns:
 Original cell was already a primitive cell.

 Routine SETGRP: Setting up the symmetry group for a
 simple tetragonal supercell.

 Subroutine GETGRP returns: Found  2 space group operations
 (whereof  1 operations were pure point group operations)
 out of a pool of 16 trial point group operations.

The static configuration has the point symmetry C_1 .
 The point group associated with its full space group is C_1h.

Analysis of symmetry for dynamics (positions and initial velocities):
 Subroutine PRICEL returns:
 Original cell was already a primitive cell.

[...]

The dynamic configuration has the point symmetry C_1 .
 The point group associated with its full space group is C_1h.

Analysis of constrained symmetry for selective dynamics:
 Subroutine PRICEL returns:
 Original cell was already a primitive cell.

 Routine SETGRP: Setting up the symmetry group for a
 simple tetragonal supercell.

 Subroutine GETGRP returns: Found  2 space group operations
 (whereof  1 operations were pure point group operations)
 out of a pool of 16 trial point group operations.

The constrained configuration has the point symmetry C_1 .
 The point group associated with its full space group is C_1h.

 Subroutine INISYM returns: Found  2 space group operations
 (whereof  1 operations are pure point group operations),
 and found     1 'primitive' translations

                                     Primitive cell

  volume of cell :    9881.6133

  direct lattice vectors                    reciprocal lattice vectors
    21.138852197  0.000000000  0.000000000     0.047306258  0.000000000  0.000000000
     0.000000000 21.138852197  0.000000000     0.000000000  0.047306258  0.000000000
     0.000000000  0.000000000 22.113885220     0.000000000  0.000000000  0.045220457

  length of vectors
    21.138852197 21.138852197 22.113885220     0.047306258  0.047306258  0.045220457

[...]
    903       5.3198      0.00000
    904       5.4380      0.00000
    905       5.5945      0.00000
    906       5.6709      0.00000
    907       5.6958      0.00000
    908       5.7272      0.00000
    909       5.7525      0.00000
    910       5.7751      0.00000
    911       5.7862      0.00000
    912       5.8290      0.00000

 soft charge-density along one line, spin component           1
         0         1         2         3         4         5         6         7         8         9
 total charge-density along one line

------------------------ aborting loop because EDIFF is reached ----------------------------------------

         DFTD3 V3.0 Rev 1
 IVDW         = 11
 DF revpbe
 parameters
 VDW_S6       =    1.0000
 VDW_S8       =    1.0100
 VDW_SR       =    0.9230
 rs18     =    1.0000
 alpha6   =   14.0000
 alpha8   =   16.0000
 k1-k3    =   16.0000    1.3333   -4.0000
 VDW_RADIUS   =   50.2022 A
 VDW_CNRADIUS =   21.1671 A
 Edisp (eV)  -36.86219

 E6    (eV) :   -21.1617
 E8    (eV) :   -15.7005
 % E8        : 42.59

  FORCE on cell =-STRESS in cart. coord.  units (eV):
  Direction    XX          YY          ZZ          XY          YZ          ZX
  Alpha Z  1394.80054  1394.80054  1394.80054
  Ewald  487008.22575485627.98407************     0.00456   493.91026     0.00668
  Hartree516585.20681515388.58737************     0.00411   374.36023     0.00123
  E(xc)   -7932.78167 -7933.71237 -7981.59403     0.00000     0.37884     0.00000
  Local  ************************************    -0.00924  -862.14519    -0.00687
  n-local -8796.85011 -8799.80923 -8921.00432     0.00059    -0.31047     0.00060
  augment  3654.80158  3654.95883  3595.67574     0.00015    -2.83007    -0.00022
  Kinetic 23064.61369 23063.61884 23302.55809     0.00051    -3.12960    -0.00023
  Fock        0.00000     0.00000     0.00000     0.00000     0.00000     0.00000
  vdW       -50.65462   -50.56345    -9.66656    -0.00000    -0.06998     0.00006
  Total    -149.88361  -150.07550    32.23588     0.00000     0.16403     0.00000
  in kB     -24.30171   -24.33282     5.22664     0.00000     0.02659     0.00000

 VOLUME and BASIS-vectors are now :
  energy-cutoff  :      520.00
  volume of cell :     9881.61
      direct lattice vectors                 reciprocal lattice vectors
    21.138852197  0.000000000  0.000000000     0.047306258  0.000000000  0.000000000
     0.000000000 21.138852197  0.000000000     0.000000000  0.047306258  0.000000000
     0.000000000  0.000000000 22.113885220     0.000000000  0.000000000  0.045220457

  length of vectors
    21.138852197 21.138852197 22.113885220     0.047306258  0.047306258  0.045220457

 FORCES acting on ions:
    Electron-Ion                     Ewald-Force                    Non-Local-Force
   0.205E-01 0.599E+03 -.197E+04   -.580E-02 -.593E+03 0.198E+04   0.833E-19 -.649E+01 -.191E+01
   -.601E+03 -.172E+03 -.205E+04   0.595E+03 0.168E+03 0.205E+04   0.625E+01 0.432E+01 -.617E+01
   0.601E+03 -.172E+03 -.205E+04   -.595E+03 0.168E+03 0.205E+04   -.625E+01 0.432E+01 -.617E+01
   -.163E-01 -.264E+03 -.243E+04   0.277E-02 0.258E+03 0.242E+04   0.828E-19 0.638E+01 0.102E+02
   0.683E+01 0.257E+01 0.936E+03   -.683E+01 -.257E+01 -.928E+03   0.159E-01 0.640E-02 -.755E+01
   0.150E+02 0.152E+02 0.941E+03   -.151E+02 -.153E+02 -.933E+03   0.479E-01 0.330E-01 -.756E+01
   0.108E+02 0.133E+02 -.918E+03   -.109E+02 -.133E+02 0.911E+03   0.216E-01 0.207E-02 0.747E+01
   0.140E+02 0.454E+01 -.918E+03   -.140E+02 -.455E+01 0.910E+03   0.228E-01 0.123E-01 0.747E+01
   0.128E+02 0.160E+02 0.942E+03   -.129E+02 -.160E+02 -.934E+03   0.440E-01 0.116E-01 -.756E+01
   0.361E+02 0.255E+02 0.959E+03   -.363E+02 -.255E+02 -.951E+03   0.169E+00 0.376E-01 -.761E+01
   0.262E+02 0.207E+02 -.911E+03   -.262E+02 -.207E+02 0.904E+03   0.305E-01 -.927E-02 0.745E+01
   0.323E+02 0.330E+02 -.910E+03   -.324E+02 -.330E+02 0.902E+03   0.755E-01 0.510E-03 0.745E+01
   0.238E+02 0.841E+01 0.951E+03   -.239E+02 -.842E+01 -.943E+03   0.824E-01 0.251E-02 -.758E+01
   0.515E+02 -.622E+01 0.973E+03   -.519E+02 0.623E+01 -.965E+03   0.309E+00 -.831E-02 -.767E+01
   0.376E+02 -.452E+01 -.906E+03   -.376E+02 0.452E+01 0.899E+03   0.205E-01 0.171E-02 0.744E+01
   0.827E+02 0.251E+02 -.887E+03   -.827E+02 -.251E+02 0.879E+03   0.891E-01 -.215E-01 0.739E+01
   0.211E+02 -.134E+02 0.949E+03   -.211E+02 0.134E+02 -.941E+03   0.758E-01 -.907E-02 -.758E+01
   0.278E+02 -.260E+02 0.953E+03   -.279E+02 0.260E+02 -.945E+03   0.837E-01 -.551E-01 -.757E+01
   0.207E+02 -.217E+02 -.913E+03   -.207E+02 0.217E+02 0.906E+03   0.313E-01 0.439E-02 0.746E+01
   0.683E+02 -.363E+02 -.892E+03   -.685E+02 0.363E+02 0.885E+03   0.164E+00 0.264E-01 0.741E+01
   0.100E+02 -.135E+02 0.939E+03   -.100E+02 0.135E+02 -.932E+03   0.220E-01 -.114E-01 -.755E+01
   0.122E+02 -.856E+01 0.939E+03   -.123E+02 0.856E+01 -.931E+03   0.229E-01 -.736E-02 -.755E+01
   0.888E+01 -.777E+01 -.919E+03   -.888E+01 0.777E+01 0.911E+03   0.106E-01 0.103E-02 0.747E+01
   0.232E+02 -.261E+02 -.913E+03   -.233E+02 0.262E+02 0.906E+03   0.215E-01 -.174E-01 0.746E+01
   0.120E+02 0.515E+01 0.941E+03   -.121E+02 -.519E+01 -.933E+03   0.290E-01 0.318E-01 -.756E+01
   0.110E+02 0.289E+02 0.951E+03   -.111E+02 -.291E+02 -.943E+03   0.391E-01 0.139E+00 -.757E+01
   0.217E+02 0.305E+02 -.912E+03   -.217E+02 -.305E+02 0.904E+03   0.462E-01 0.542E-01 0.746E+01
   0.969E+01 0.905E+01 -.914E+03   -.969E+01 -.911E+01 0.906E+03   0.162E-01 0.437E-01 0.746E+01
   0.276E+02 0.372E+02 0.960E+03   -.277E+02 -.374E+02 -.952E+03   0.130E+00 0.128E+00 -.758E+01
   0.374E+02 0.673E+02 0.102E+04   -.378E+02 -.679E+02 -.101E+04   0.313E+00 0.467E+00 -.764E+01
   0.835E+02 0.800E+02 -.871E+03   -.838E+02 -.800E+02 0.864E+03   0.293E+00 -.311E-02 0.734E+01
   0.325E+02 0.871E+02 -.886E+03   -.326E+02 -.874E+02 0.878E+03   0.768E-01 0.243E+00 0.743E+01
   0.681E+02 0.278E+02 0.101E+04   -.688E+02 -.280E+02 -.100E+04   0.585E+00 0.119E+00 -.780E+01
   0.584E+02 -.240E+02 0.109E+04   -.591E+02 0.244E+02 -.108E+04   0.533E+00 -.279E+00 -.630E+01
   0.182E+03 -.295E+02 -.788E+03   -.184E+03 0.294E+02 0.781E+03   0.134E+01 0.101E+00 0.695E+01
   0.184E+03 0.161E+03 -.639E+03   -.187E+03 -.162E+03 0.634E+03   0.210E+01 0.879E+00 0.518E+01
   0.542E+02 -.416E+02 0.997E+03   -.546E+02 0.418E+02 -.989E+03   0.273E+00 -.201E+00 -.760E+01
   0.231E+02 -.585E+02 0.985E+03   -.231E+02 0.589E+02 -.977E+03   0.555E-01 -.325E+00 -.766E+01
   0.527E+02 -.687E+02 -.888E+03   -.527E+02 0.689E+02 0.881E+03   0.293E-01 -.136E+00 0.742E+01
   0.902E+02 -.176E+03 -.763E+03   -.903E+02 0.177E+03 0.755E+03   0.410E-01 -.132E+01 0.705E+01
   0.193E+02 -.283E+02 0.951E+03   -.193E+02 0.284E+02 -.943E+03   0.360E-01 -.753E-01 -.757E+01
   0.832E+01 -.149E+02 0.946E+03   -.832E+01 0.149E+02 -.938E+03   0.146E-01 -.157E-01 -.756E+01
   0.162E+02 -.161E+02 -.915E+03   -.162E+02 0.161E+02 0.907E+03   0.181E-01 0.105E-02 0.746E+01
   0.182E+02 -.563E+02 -.901E+03   -.182E+02 0.563E+02 0.893E+03   0.132E-01 -.410E-01 0.745E+01
   0.149E-01 0.732E+01 0.945E+03   -.217E-03 -.740E+01 -.937E+03   0.210E-18 0.607E-01 -.756E+01
   -.110E+02 0.289E+02 0.951E+03   0.111E+02 -.291E+02 -.943E+03   -.391E-01 0.139E+00 -.757E+01
   0.151E-01 0.470E+02 -.906E+03   -.391E-03 -.472E+02 0.898E+03   0.432E-18 0.140E+00 0.745E+01
   -.966E+01 0.905E+01 -.914E+03   0.969E+01 -.911E+01 0.906E+03   -.162E-01 0.437E-01 0.746E+01
   0.152E-01 0.590E+02 0.978E+03   -.499E-03 -.596E+02 -.970E+03   -.385E-18 0.456E+00 -.764E+01
   -.374E+02 0.673E+02 0.102E+04   0.378E+02 -.679E+02 -.101E+04   -.313E+00 0.467E+00 -.764E+01
   0.170E-01 0.207E+03 -.777E+03   -.193E-02 -.210E+03 0.769E+03   -.331E-18 0.221E+01 0.745E+01
   -.325E+02 0.871E+02 -.886E+03   0.326E+02 -.874E+02 0.878E+03   -.768E-01 0.243E+00 0.743E+01
   0.162E-01 0.519E+02 0.111E+04   -.142E-02 -.523E+02 -.110E+04   -.280E-18 0.276E+00 -.509E+01
   -.584E+02 -.240E+02 0.109E+04   0.591E+02 0.244E+02 -.108E+04   -.533E+00 -.279E+00 -.630E+01
   0.175E-01 -.151E+03 -.464E+03   -.165E-02 0.154E+03 0.460E+03   0.215E-18 -.201E+01 0.437E+01
   -.184E+03 0.161E+03 -.639E+03   0.187E+03 -.162E+03 0.634E+03   -.210E+01 0.879E+00 0.518E+01
   0.159E-01 -.757E+02 0.105E+04   -.116E-02 0.766E+02 -.105E+04   -.383E-18 -.664E+00 -.780E+01
   -.230E+02 -.585E+02 0.985E+03   0.231E+02 0.589E+02 -.977E+03   -.555E-01 -.325E+00 -.766E+01
   0.159E-01 -.124E+03 -.859E+03   -.126E-02 0.124E+03 0.851E+03   -.212E-18 -.173E+00 0.739E+01
   -.902E+02 -.176E+03 -.763E+03   0.902E+02 0.177E+03 0.755E+03   -.410E-01 -.132E+01 0.705E+01
[...]
   -.139E+02 0.118E+02 0.712E+03   0.140E+02 -.118E+02 -.716E+03   -.520E-01 0.124E-01 0.340E+01
   0.707E-01 0.101E+02 0.706E+03   0.250E-03 -.101E+02 -.710E+03   -.210E-18 0.825E-02 0.341E+01
   -.264E+02 0.872E+01 -.682E+03   0.264E+02 -.872E+01 0.686E+03   -.306E-01 -.705E-02 -.361E+01
   0.703E-01 -.249E+01 -.685E+03   0.726E-03 0.248E+01 0.690E+03   0.930E-19 0.139E-02 -.358E+01
   -.187E+02 -.257E+01 0.716E+03   0.188E+02 0.257E+01 -.720E+03   -.590E-01 -.310E-02 0.338E+01
   0.705E-01 0.499E+01 0.711E+03   0.461E-03 -.499E+01 -.715E+03   0.648E-19 0.119E-02 0.340E+01
   -.230E+02 -.135E+02 -.683E+03   0.231E+02 0.135E+02 0.688E+03   -.325E-01 0.645E-02 -.360E+01
   0.706E-01 -.129E+02 -.688E+03   0.440E-03 0.129E+02 0.693E+03   0.345E-19 0.135E-02 -.356E+01
   -.112E+02 -.126E+02 0.710E+03   0.113E+02 0.126E+02 -.714E+03   -.416E-01 -.220E-01 0.341E+01
   0.706E-01 -.803E+01 0.710E+03   0.431E-03 0.804E+01 -.714E+03   0.432E-18 -.660E-02 0.340E+01
   -.963E+01 -.128E+02 -.689E+03   0.971E+01 0.128E+02 0.694E+03   -.203E-01 -.767E-02 -.355E+01
   0.708E-01 -.497E+01 -.691E+03   0.195E-03 0.496E+01 0.696E+03   0.233E-18 0.678E-03 -.354E+01
   -.537E+01 -.469E+01 0.704E+03   0.545E+01 0.470E+01 -.708E+03   -.168E-01 -.281E-02 0.342E+01
   0.708E-01 -.867E+01 0.705E+03   0.219E-03 0.867E+01 -.709E+03   -.394E-18 -.824E-02 0.342E+01
   0.866E+01 -.882E+01 0.113E+02   0.355E-11 -.711E-14 -.966E-11   0.825E-15 0.881E+01 -.120E+02

 POSITION                                       TOTAL-FORCE (eV/Angst)
      8.45555      8.82382     13.06192        -0.000000     -0.211769      0.045913
     10.35658     10.31213     13.27893         0.163131      0.021784      0.074608
      6.55462     10.31214     13.27893        -0.163131      0.021784      0.074608
      8.45565     10.40011     14.68777         0.000000      0.132573      0.233870
      0.00000      0.00000      9.00000        -0.004373     -0.001774      0.238566
      2.11389      2.11389      9.00000        -0.013100     -0.008928      0.240085
      0.00000      2.11389     11.11389        -0.005642     -0.000429     -0.209418
      2.11389      0.00000     11.11389        -0.006243     -0.003234     -0.209813
      0.00000      4.22777      9.00000        -0.011478     -0.003013      0.241706
      2.11389      6.34166      9.00000        -0.043308     -0.009439      0.253441
      0.00000      6.34166     11.11389        -0.006207      0.003361     -0.199665
      2.11389      4.22777     11.11389        -0.018441      0.001177     -0.197861
      0.00000      8.45554      9.00000        -0.021262     -0.000477      0.247779
      2.11389     10.56943      9.00000        -0.074551      0.001546      0.269328
      0.00000     10.56943     11.11389        -0.001242     -0.000862     -0.192939
      2.11389      8.45554     11.11389        -0.003772      0.013443     -0.149763
      0.00000     12.68331      9.00000        -0.019201      0.002251      0.246229
      2.11389     14.79720      9.00000        -0.022801      0.015277      0.243809
      0.00000     14.79720     11.11389        -0.007325     -0.001534     -0.204029
      2.11389     12.68331     11.11389        -0.029636     -0.013911     -0.168299
      0.00000     16.91108      9.00000        -0.005976      0.003114      0.239681
      2.11389     19.02497      9.00000        -0.006346      0.001807      0.239487
      0.00000     19.02497     11.11389        -0.002891     -0.000412     -0.210908
      2.11389     16.91108     11.11389        -0.005590      0.003561     -0.204925
      4.22777      0.00000      9.00000        -0.008125     -0.008484      0.239775
      6.34166      2.11389      9.00000        -0.011316     -0.036280      0.242907
      4.22777      2.11389     11.11389        -0.012604     -0.012858     -0.202904
      6.34166      0.00000     11.11389        -0.004555     -0.011113     -0.206847
      4.22777      4.22777      9.00000        -0.035747     -0.034517      0.245162
      6.34166      6.34166      9.00000        -0.095446     -0.125395      0.248648
      4.22777      6.34166     11.11389        -0.044464      0.035385     -0.109696
      6.34166      4.22777     11.11389        -0.019230     -0.049875     -0.172450
      4.22777      8.45554      9.00000        -0.147008     -0.035161      0.293815
      6.34166     10.56943      9.00000        -0.132433      0.079983      0.004629
      4.22777     10.56943     11.11389        -0.472635     -0.038349     -0.094442
      6.34166      8.45554     11.11389        -0.784603     -0.456914      0.053696
      4.22777     12.68331      9.00000        -0.077793      0.058922      0.245836
      6.34166     14.79720      9.00000        -0.013723      0.078088      0.267076
      4.22777     14.79720     11.11389        -0.001300      0.023050     -0.170474
      6.34166     12.68331     11.11389         0.035679      0.437763     -0.072177
      4.22777     16.91108      9.00000        -0.009811      0.019150      0.244451
      6.34166     19.02497      9.00000        -0.004066      0.003820      0.241269
      4.22777     19.02497     11.11389        -0.004927     -0.000922     -0.207408
      6.34166     16.91108     11.11389        -0.003178      0.005728     -0.194998
      8.45554      0.00000      9.00000         0.000000     -0.015727      0.240745
     10.56943      2.11389      9.00000         0.011316     -0.036280      0.242907
      8.45554      2.11389     11.11389        -0.000000     -0.032611     -0.198627
     10.56943      0.00000     11.11389         0.004555     -0.011113     -0.206847
      8.45554      4.22777      9.00000        -0.000000     -0.109957      0.257716
     10.56943      6.34166      9.00000         0.095446     -0.125395      0.248648
      8.45554      6.34166     11.11389         0.000000     -0.722463     -0.251137
     10.56943      4.22777     11.11389         0.019230     -0.049875     -0.172450
      8.45554      8.45554      9.00000        -0.000000     -0.079106     -0.208864
     10.56943     10.56943      9.00000         0.132433      0.079983      0.004629
      8.45554     10.56943     11.11389         0.000000      1.034462     -0.175154
     10.56943      8.45554     11.11389         0.784603     -0.456914      0.053696
      8.45554     12.68331      9.00000         0.000000      0.173467      0.293585
     10.56943     14.79720      9.00000         0.013723      0.078088      0.267076
      8.45554     14.79720     11.11389        -0.000000      0.008751     -0.137541
     10.56943     12.68331     11.11389        -0.035679      0.437763     -0.072177
[...]
     19.02497      6.34166     11.11389        -0.000000     -0.001826      0.551679
     16.91108      6.34166      9.00000        -0.014614      0.003521     -0.593931
     19.02497      4.22777      9.00000        -0.000000      0.002247     -0.589575
     16.91108      8.45554     11.11389        -0.009197     -0.001796      0.540113
     19.02497     10.56943     11.11389        -0.000000      0.000436      0.548030
     16.91108     10.56943      9.00000        -0.016998     -0.000890     -0.598460
     19.02497      8.45554      9.00000        -0.000000      0.000283     -0.593379
     16.91108     12.68331     11.11389        -0.009596      0.001673      0.544445
     19.02497     14.79720     11.11389        -0.000000      0.000447      0.554481
     16.91108     14.79720      9.00000        -0.011647     -0.006053     -0.591101
     19.02497     12.68331      9.00000        -0.000000     -0.001697     -0.592174
     16.91108     16.91108     11.11389        -0.005650     -0.002075      0.556626
     19.02497     19.02497     11.11389        -0.000000      0.000221      0.559616
     16.91108     19.02497      9.00000        -0.004654     -0.000742     -0.587746
     19.02497     16.91108      9.00000         0.000000     -0.002230     -0.588365
    total drift:                                8.664864     -0.004978     -0.639296

  FREE ENERGIE OF THE ION-ELECTRON SYSTEM (eV)
  free  energy   TOTEN  =     -1130.90660660 eV

  energy  without entropy=    -1130.90660660  energy(sigma->0) =    -1130.90660660