 vasp.6.3.0 20Jan22 (build Apr  1 2022 16:44:48) complex
 executed on        HPECrayEX_GCC date 2023.01.09  19:11:07

 INCAR:
   SYSTEM = MgO-rocksalt
   ISMEAR = 0
   SIGMA = 0.05
   EDIFF = 1E-6
   ALGO = ALL
   ISTART = 0
   IBRION = -1
   NSW = 0
   ISYM = 2
   DIPOL = 0.5 0.5 0.5
   IDIPOL = 3
   LDIPOL = .TRUE.
   GGA = MK
   PARAM1 = 0.1234
   PARAM2 = 1.0
   LUSE_VDW = .TRUE.
   AGGAC = 0.0
   ENCUT = 520
   PREC = Accurate
   LASPH = .TRUE.
   LREAL = Auto
   ISPIN = 1
   NELM = 200
   NELMIN = 8
   NCORE = 4
   KPAR = 2
   LWAVE = .FALSE.
   LCHARG = .FALSE.

 POTCAR:    PAW_PBE Ag 02Apr2005
 POTCAR:    PAW_PBE Mg_pv 13Apr2007
 POTCAR:    PAW_PBE O 08Apr2002
|               ----> ADVICE to this user running VASP <----                  |
|     You have switched on vdW-DFT.                                           |
|     This routine was written and supplied by Jiri Klimes. We recommend      |
|     that you carefully read and cite the following publications:            |
|       J. Klimes, D.R. Bowler, A. Michelides                                 |
|          J. Phys.: Cond Matt. 22 022201 (2010)                              |
|       J. Klimes, D.R. Bowler, A. Michelides                                 |
|          Phys. Rev. B. 83, 195131 (2011)                                    |
|     and references therein.                                                 |

   TITEL  = PAW_PBE Ag 02Apr2005
   POMASS =  107.868; ZVAL   =   11.000    mass and valenz
   ENMAX  =  249.844; ENMIN  =  187.383 eV

   TITEL  = PAW_PBE Mg_pv 13Apr2007
   POMASS =   24.305; ZVAL   =    8.000    mass and valenz
   ENMAX  =  403.929; ENMIN  =  302.947 eV

   TITEL  = PAW_PBE O 08Apr2002
   POMASS =   16.000; ZVAL   =    6.000    mass and valenz
   ENMAX  =  400.000; ENMIN  =  300.000 eV

 Optimization of the real space projectors (new method)

 maximal supplied QI-value         = 15.12
 optimisation between [QCUT,QGAM] = [ 11.64, 23.28] = [ 37.95,151.78] Ry
 Optimized for a Real-space Cutoff    1.45 Angstroem

   l    n(q)    QCUT    max X(q) W(low)/X(q) W(high)/X(q)  e(spline)
   2      9    11.641    53.897    0.22E-03    0.42E-04    0.28E-06
   2      9    11.641    52.416    0.23E-03    0.44E-04    0.29E-06
   0     10    11.641   122.045    0.51E-04    0.25E-04    0.16E-06
   0     10    11.641    73.629    0.49E-04    0.24E-04    0.16E-06
   1     10    11.641    15.255    0.99E-04    0.55E-04    0.11E-06
   1     10    11.641     9.562    0.81E-04    0.47E-04    0.95E-07
 Optimization of the real space projectors (new method)

[...]

   l    n(q)    QCUT    max X(q) W(low)/X(q) W(high)/X(q)  e(spline)
   1      8    11.527     2.974    0.44E-04    0.56E-04    0.12E-06
   1      8    11.527     4.279    0.12E-03    0.12E-03    0.26E-06
   0      9    11.527    16.381    0.46E-04    0.64E-04    0.78E-07
   0      9    11.527     5.611    0.26E-04    0.43E-04    0.55E-07
   2      8    11.527     4.652    0.22E-03    0.72E-04    0.47E-07
 Optimization of the real space projectors (new method)

 maximal supplied QI-value         = 24.76
 optimisation between [QCUT,QGAM] = [ 11.64, 23.27] = [ 37.91,151.63] Ry
 Optimized for a Real-space Cutoff    1.14 Angstroem

   l    n(q)    QCUT    max X(q) W(low)/X(q) W(high)/X(q)  e(spline)
   0      8    11.635    20.381    0.10E-03    0.33E-03    0.24E-06
   0      8    11.635    15.268    0.11E-03    0.35E-03    0.26E-06
   1      7    11.635     5.964    0.24E-03    0.31E-03    0.30E-06
   1      7    11.635     5.382    0.22E-03    0.25E-03    0.26E-06
|               ----> ADVICE to this user running VASP <----                  |
|     You enforced a specific xc type in the INCAR file but a different       |
|     type was found in the POTCAR file.                                      |
|     I HOPE YOU KNOW WHAT YOU ARE DOING!                                     |

  PAW_PBE Ag 02Apr2005                  :
  PAW_PBE Mg_pv 13Apr2007               :
  PAW_PBE O 08Apr2002                   :

 POSCAR: Ag Mg  O
  positions in direct lattice
  velocities in cartesian coordinates
 exchange correlation table for  LEXCH =       43
   RHO(1)=    0.500       N(1)  =     2000
   RHO(2)=  100.500       N(2)  =     4000

 ion  position               nearest neighbor table
   1  0.404  0.596  0.628-   2 2.63   4 2.74 157 2.77
   2  0.317  0.683  0.613- 138 2.50   1 2.63  59 3.04  40 3.04
   3  0.583  0.417  0.613- 173 2.50   4 2.63  75 3.04  56 3.04
   4  0.496  0.504  0.628-   3 2.63   1 2.74 154 2.77
   5  0.000  0.000  0.407- 107 2.11 108 2.11 123 2.11 188 2.11 105 2.11
   6  0.100  0.100  0.407- 107 2.11 108 2.11 112 2.11 127 2.11 106 2.11
   7  0.000  0.100  0.503- 105 2.11 106 2.11 109 2.11 186 2.11 107 2.11
   8  0.100  0.000  0.503- 105 2.11 106 2.11 122 2.11 125 2.11 108 2.11
   9  0.000  0.200  0.407- 111 2.11 107 2.11 112 2.11 192 2.11 109 2.11
  10  0.100  0.300  0.407- 112 2.11 111 2.11 116 2.11 131 2.11 110 2.11
  11  0.000  0.300  0.503- 109 2.11 110 2.11 113 2.11 190 2.11 111 2.11
  12  0.100  0.200  0.503- 110 2.11 109 2.11 106 2.11 129 2.11 112 2.11
  13  0.000  0.400  0.407- 111 2.11 115 2.11 116 2.11 196 2.11 113 2.11
  14  0.100  0.500  0.407- 115 2.11 116 2.11 120 2.11 135 2.11 114 2.11
  15  0.000  0.500  0.503- 113 2.11 114 2.11 117 2.11 194 2.11 115 2.11
  16  0.100  0.400  0.503- 110 2.11 113 2.11 114 2.11 133 2.11 116 2.11
  17  0.000  0.600  0.407- 115 2.11 119 2.11 120 2.11 200 2.11 117 2.11
  18  0.100  0.700  0.407- 124 2.11 120 2.11 119 2.11 139 2.11 118 2.11
  19  0.000  0.700  0.503- 121 2.11 118 2.11 117 2.11 198 2.11 119 2.11
  20  0.100  0.600  0.503- 114 2.11 117 2.11 118 2.11 137 2.11 120 2.11
  21  0.000  0.800  0.407- 119 2.11 123 2.11 124 2.11 204 2.11 121 2.11
  22  0.100  0.900  0.407- 108 2.11 123 2.11 124 2.11 143 2.11 122 2.11
  23  0.000  0.900  0.503- 105 2.11 121 2.11 122 2.11 202 2.11 123 2.11
  24  0.100  0.800  0.503- 118 2.11 121 2.11 122 2.11 141 2.11 124 2.11
  25  0.200  0.000  0.407- 128 2.11 127 2.11 108 2.11 143 2.11 125 2.11
  26  0.300  0.100  0.407- 127 2.11 128 2.11 132 2.11 147 2.11 126 2.11
  27  0.200  0.100  0.503- 126 2.11 125 2.11 106 2.11 129 2.11 127 2.11
  28  0.300  0.000  0.503- 125 2.11 126 2.11 142 2.11 145 2.11 128 2.11
  29  0.200  0.200  0.407- 131 2.11 132 2.11 112 2.11 127 2.11 129 2.11
  30  0.300  0.300  0.407- 131 2.11 132 2.11 136 2.11 151 2.11 130 2.11
  31  0.200  0.300  0.503- 129 2.11 130 2.11 110 2.11 133 2.11 131 2.11
  32  0.300  0.200  0.503- 129 2.11 130 2.11 126 2.11 149 2.11 132 2.11
  33  0.200  0.400  0.407- 136 2.11 131 2.11 135 2.11 116 2.11 133 2.11
  34  0.300  0.500  0.407- 135 2.11 136 2.11 140 2.11 155 2.11 134 2.11
  35  0.200  0.500  0.503- 134 2.11 133 2.11 114 2.11 137 2.11 135 2.11
  36  0.300  0.400  0.503- 133 2.11 130 2.11 134 2.11 153 2.11 136 2.11
  37  0.200  0.600  0.407- 140 2.11 135 2.11 139 2.11 120 2.11 137 2.11
  38  0.300  0.700  0.407- 139 2.11 144 2.11 140 2.11 159 2.11 138 2.11
  39  0.200  0.700  0.503- 138 2.11 141 2.11 118 2.11 137 2.11 139 2.11
  40  0.300  0.600  0.503- 137 2.11 134 2.11 138 2.11 157 2.11 140 2.11   2 3.04
  41  0.200  0.800  0.407- 139 2.11 144 2.11 143 2.11 124 2.11 141 2.11
  42  0.300  0.900  0.407- 143 2.11 128 2.11 144 2.11 163 2.11 142 2.11
  43  0.200  0.900  0.503- 142 2.11 125 2.11 141 2.11 122 2.11 143 2.11
  44  0.300  0.800  0.503- 138 2.11 141 2.11 142 2.11 161 2.11 144 2.11
  45  0.400  0.000  0.407- 128 2.11 147 2.11 148 2.11 163 2.11 145 2.11
  46  0.500  0.100  0.407- 147 2.11 148 2.11 152 2.11 167 2.11 146 2.11
  47  0.400  0.100  0.503- 126 2.11 145 2.11 146 2.11 149 2.11 147 2.11
  48  0.500  0.000  0.503- 145 2.11 146 2.11 162 2.11 165 2.11 148 2.11
  49  0.400  0.200  0.407- 151 2.11 147 2.11 132 2.11 152 2.11 149 2.11
  50  0.500  0.300  0.407- 152 2.11 151 2.11 156 2.11 171 2.11 150 2.11
  51  0.400  0.300  0.503- 149 2.11 130 2.11 150 2.11 153 2.11 151 2.11
  52  0.500  0.200  0.503- 150 2.11 149 2.11 146 2.11 169 2.11 152 2.11
  53  0.400  0.400  0.407- 136 2.11 151 2.11 155 2.11 156 2.11 153 2.11
  54  0.500  0.500  0.407- 155 2.11 156 2.11 160 2.11 175 2.11 154 2.11
  55  0.400  0.500  0.503- 134 2.11 153 2.11 154 2.11 157 2.11 155 2.11
  56  0.500  0.400  0.503- 150 2.11 153 2.11 154 2.11 173 2.11 156 2.11   3 3.04
  57  0.400  0.600  0.407- 140 2.11 155 2.11 159 2.11 160 2.11 157 2.11
  58  0.500  0.700  0.407- 164 2.11 160 2.11 159 2.11 179 2.11 158 2.11
  59  0.400  0.700  0.503- 161 2.11 157 2.11 158 2.11 138 2.11 159 2.11   2 3.04
  60  0.500  0.600  0.503- 154 2.11 157 2.11 158 2.11 177 2.11 160 2.11
[...]
 190  0.900  0.300  0.503-  92 2.11  91 2.11  11 2.11  96 2.11  90 2.11
 191  0.800  0.300  0.407-  70 2.11  89 2.11  90 2.11  93 2.11  91 2.11
 192  0.900  0.200  0.407-  90 2.11  86 2.11  89 2.11   9 2.11  92 2.11
 193  0.800  0.400  0.503-  76 2.11  91 2.11  95 2.11  96 2.11  93 2.11
 194  0.900  0.500  0.503-  15 2.11  95 2.11  96 2.11 100 2.11  94 2.11
 195  0.800  0.500  0.407-  74 2.11  93 2.11  94 2.11  97 2.11  95 2.11
 196  0.900  0.400  0.407-  13 2.11  90 2.11  93 2.11  94 2.11  96 2.11
 197  0.800  0.600  0.503-  80 2.11  95 2.11  99 2.11 100 2.11  97 2.11
 198  0.900  0.700  0.503- 104 2.11  99 2.11 100 2.11  19 2.11  98 2.11
 199  0.800  0.700  0.407-  78 2.11 101 2.11  98 2.11  97 2.11  99 2.11
 200  0.900  0.600  0.407-  17 2.11  94 2.11  97 2.11  98 2.11 100 2.11
 201  0.800  0.800  0.503-  84 2.11  99 2.11 103 2.11 104 2.11 101 2.11
 202  0.900  0.900  0.503-  23 2.11  88 2.11 103 2.11 104 2.11 102 2.11
 203  0.800  0.900  0.407-  82 2.11  85 2.11 101 2.11 102 2.11 103 2.11
 204  0.900  0.800  0.407-  98 2.11  21 2.11 101 2.11 102 2.11 104 2.11

  LATTYP: Found a simple tetragonal cell.
 ALAT       =    21.1388521970
 C/A-ratio  =     1.0461251639

  Lattice vectors:

 A1 = (  21.1388521970,   0.0000000000,   0.0000000000)
 A2 = (   0.0000000000,  21.1388521970,   0.0000000000)
 A3 = (   0.0000000000,   0.0000000000,  22.1138852197)

Analysis of symmetry for initial positions (statically):
 Subroutine PRICEL returns:
 Original cell was already a primitive cell.

 Routine SETGRP: Setting up the symmetry group for a
 simple tetragonal supercell.

 Subroutine GETGRP returns: Found  2 space group operations
 (whereof  1 operations were pure point group operations)
 out of a pool of 16 trial point group operations.

The static configuration has the point symmetry C_1 .
 The point group associated with its full space group is C_1h.

Analysis of symmetry for dynamics (positions and initial velocities):
 Subroutine PRICEL returns:
 Original cell was already a primitive cell.

[...]

The dynamic configuration has the point symmetry C_1 .
 The point group associated with its full space group is C_1h.

Analysis of constrained symmetry for selective dynamics:
 Subroutine PRICEL returns:
 Original cell was already a primitive cell.

 Routine SETGRP: Setting up the symmetry group for a
 simple tetragonal supercell.

 Subroutine GETGRP returns: Found  2 space group operations
 (whereof  1 operations were pure point group operations)
 out of a pool of 16 trial point group operations.

The constrained configuration has the point symmetry C_1 .
[...]
     52     -43.2359      2.00000
     53     -43.2303      2.00000
     54     -43.2303      2.00000
     55     -43.2286      2.00000
     56     -43.2286      2.00000
     57     -43.2282      2.00000
     58     -43.2261      2.00000
     59     -43.2243      2.00000
     60     -43.2241      2.00000
[...]
    946       5.4594      0.00000
    947       5.4900      0.00000
    948       5.5217      0.00000
    949       5.5218      0.00000
    950       5.5914      0.00000
    951       5.6014      0.00000
    952       5.6411      0.00000
    953       5.6744      0.00000
    954       5.7215      0.00000
    955       5.8113      0.00000
    956       5.9083      0.00000
    957       5.9212      0.00000
    958       6.0701      0.00000
    959       6.1471      0.00000
    960       6.3741      0.00000

 soft charge-density along one line, spin component           1
         0         1         2         3         4         5         6         7         8         9
 total charge-density along one line

------------------------ aborting loop because EDIFF is reached ----------------------------------------

  FORCE on cell =-STRESS in cart. coord.  units (eV):
  Direction    XX          YY          ZZ          XY          YZ          ZX
  Alpha Z  1401.13727  1401.13727  1401.13727
  Ewald  484692.10145484692.10210************ -1322.16574    -0.00388    -0.00457
  Hartree513844.79963513844.79996************ -1067.58496     0.00106     0.00112
  E(xc)   -7886.57593 -7886.57593 -7886.48960    -0.33859     0.00006     0.00006
  Local  ************************************  2381.65936     0.00089     0.00136
  n-local -8849.62499 -8849.62500 -8963.17530     1.44125    -0.00022    -0.00033
  augment  3649.55264  3649.55265  3593.75723     1.74410     0.00112     0.00116
  Kinetic 23234.14004 23234.14008 23474.56469     5.40572     0.00082     0.00083
  Fock        0.00000     0.00000     0.00000     0.00000     0.00000     0.00000
  Total    -186.26542  -186.26542     0.09713     0.16114    -0.00027    -0.00027
  in kB     -30.20056   -30.20056     0.01575     0.02613    -0.00004    -0.00004

 VOLUME and BASIS-vectors are now :
  energy-cutoff  :      520.00
  volume of cell :     9881.61
      direct lattice vectors                 reciprocal lattice vectors
    21.138852197  0.000000000  0.000000000     0.047306258  0.000000000  0.000000000
     0.000000000 21.138852197  0.000000000     0.000000000  0.047306258  0.000000000
     0.000000000  0.000000000 22.113885220     0.000000000  0.000000000  0.045220457

  length of vectors
    21.138852197 21.138852197 22.113885220     0.047306258  0.047306258  0.045220457

 FORCES acting on ions:
    Electron-Ion                     Ewald-Force                    Non-Local-Force
   0.255E+02 -.255E+02 -.207E+04   -.273E+02 0.273E+02 0.207E+04   0.177E+01 -.177E+01 0.172E-01
   0.234E+03 -.234E+03 -.209E+04   -.231E+03 0.231E+03 0.209E+04   -.380E+01 0.380E+01 -.291E+00
   -.234E+03 0.234E+03 -.209E+04   0.231E+03 -.231E+03 0.209E+04   0.380E+01 -.380E+01 -.291E+00
   -.255E+02 0.255E+02 -.207E+04   0.273E+02 -.273E+02 0.207E+04   -.177E+01 0.177E+01 0.172E-01
   0.489E+01 -.489E+01 0.938E+03   -.492E+01 0.492E+01 -.930E+03   0.202E-01 -.202E-01 -.727E+01
   0.905E+01 0.161E+01 0.939E+03   -.905E+01 -.156E+01 -.931E+03   -.206E-02 -.367E-01 -.727E+01
   0.313E+01 0.313E+01 -.918E+03   -.312E+01 -.312E+01 0.911E+03   -.137E-01 -.137E-01 0.721E+01
   0.146E+02 -.117E+02 -.915E+03   -.146E+02 0.118E+02 0.908E+03   0.178E-01 -.682E-01 0.721E+01
   0.160E+01 0.905E+01 0.939E+03   -.156E+01 -.905E+01 -.931E+03   -.367E-01 -.206E-02 -.727E+01
   0.143E+02 0.157E+02 0.944E+03   -.142E+02 -.157E+02 -.937E+03   -.283E-01 0.335E-02 -.728E+01
   0.211E+01 0.156E+02 -.915E+03   -.203E+01 -.156E+02 0.907E+03   -.604E-01 -.713E-03 0.720E+01
   0.130E+02 0.130E+02 -.916E+03   -.129E+02 -.129E+02 0.908E+03   -.260E-01 -.260E-01 0.720E+01
   0.444E+01 0.112E+02 0.945E+03   -.438E+01 -.112E+02 -.938E+03   -.475E-01 0.125E-01 -.728E+01
   0.288E+02 0.120E+02 0.958E+03   -.289E+02 -.121E+02 -.950E+03   0.144E-01 0.745E-01 -.729E+01
   0.127E+02 0.836E+01 -.909E+03   -.127E+02 -.838E+01 0.901E+03   -.178E-01 0.178E-01 0.719E+01
   0.305E+02 0.240E+02 -.907E+03   -.304E+02 -.241E+02 0.899E+03   -.598E-01 0.285E-01 0.719E+01
   0.128E+02 -.212E+01 0.950E+03   -.129E+02 0.210E+01 -.942E+03   0.531E-01 0.207E-01 -.728E+01
   0.337E+02 -.125E+02 0.962E+03   -.340E+02 0.125E+02 -.955E+03   0.228E+00 0.298E-01 -.729E+01
   0.225E+02 -.126E+02 -.909E+03   -.226E+02 0.125E+02 0.901E+03   0.103E+00 0.143E-01 0.720E+01
   0.606E+02 0.530E+01 -.891E+03   -.608E+02 -.541E+01 0.884E+03   0.112E+00 0.864E-01 0.718E+01
   0.120E+02 -.133E+02 0.944E+03   -.121E+02 0.133E+02 -.937E+03   0.982E-01 -.109E-01 -.728E+01
   0.168E+02 -.168E+02 0.946E+03   -.169E+02 0.169E+02 -.938E+03   0.710E-01 -.710E-01 -.726E+01
   0.117E+02 -.146E+02 -.915E+03   -.118E+02 0.146E+02 0.908E+03   0.682E-01 -.178E-01 0.721E+01
   0.428E+02 -.304E+02 -.901E+03   -.431E+02 0.304E+02 0.893E+03   0.245E+00 -.208E-01 0.721E+01
   0.133E+02 -.120E+02 0.944E+03   -.133E+02 0.122E+02 -.937E+03   0.109E-01 -.982E-01 -.728E+01
   0.112E+02 0.444E+01 0.945E+03   -.112E+02 -.438E+01 -.938E+03   0.125E-01 -.475E-01 -.728E+01
   0.156E+02 0.211E+01 -.915E+03   -.156E+02 -.203E+01 0.907E+03   -.713E-03 -.604E-01 0.720E+01
   0.126E+02 -.225E+02 -.909E+03   -.125E+02 0.226E+02 0.901E+03   -.143E-01 -.103E+00 0.720E+01
   0.157E+02 0.143E+02 0.944E+03   -.157E+02 -.142E+02 -.937E+03   0.335E-02 -.283E-01 -.728E+01
   0.264E+02 0.335E+02 0.964E+03   -.264E+02 -.335E+02 -.956E+03   0.609E-01 -.563E-02 -.732E+01
   0.333E+02 0.333E+02 -.905E+03   -.333E+02 -.333E+02 0.898E+03   -.314E-01 -.314E-01 0.718E+01
   0.240E+02 0.305E+02 -.907E+03   -.241E+02 -.304E+02 0.899E+03   0.285E-01 -.598E-01 0.719E+01
   0.335E+02 0.264E+02 0.964E+03   -.335E+02 -.264E+02 -.956E+03   -.563E-02 0.609E-01 -.732E+01
   0.466E+02 0.293E+02 0.101E+04   -.467E+02 -.296E+02 -.101E+04   0.715E-01 0.262E+00 -.748E+01
   0.816E+02 0.439E+02 -.870E+03   -.814E+02 -.441E+02 0.863E+03   -.119E+00 0.192E+00 0.710E+01
   0.719E+02 0.719E+02 -.863E+03   -.718E+02 -.718E+02 0.856E+03   -.525E-01 -.525E-01 0.709E+01
   0.514E+02 0.400E+01 0.994E+03   -.516E+02 -.427E+01 -.986E+03   0.156E+00 0.205E+00 -.727E+01
   0.340E+02 -.340E+02 0.103E+04   -.340E+02 0.339E+02 -.102E+04   -.166E-01 0.164E-01 -.588E+01
   0.116E+03 -.393E+02 -.827E+03   -.117E+03 0.391E+02 0.819E+03   0.113E+01 0.151E+00 0.725E+01
   0.123E+03 0.488E+02 -.709E+03   -.123E+03 -.506E+02 0.703E+03   0.162E+00 0.128E+01 0.618E+01
   0.324E+02 -.324E+02 0.973E+03   -.326E+02 0.326E+02 -.966E+03   0.138E+00 -.139E+00 -.715E+01
   0.125E+02 -.337E+02 0.962E+03   -.125E+02 0.340E+02 -.955E+03   -.299E-01 -.228E+00 -.729E+01
   0.304E+02 -.428E+02 -.901E+03   -.304E+02 0.431E+02 0.893E+03   0.207E-01 -.245E+00 0.721E+01
   0.393E+02 -.116E+03 -.827E+03   -.391E+02 0.117E+03 0.819E+03   -.151E+00 -.113E+01 0.725E+01
   0.212E+01 -.128E+02 0.950E+03   -.210E+01 0.129E+02 -.942E+03   -.208E-01 -.530E-01 -.728E+01
   -.212E+01 0.128E+02 0.950E+03   0.210E+01 -.129E+02 -.942E+03   0.207E-01 0.531E-01 -.728E+01
   0.835E+01 0.127E+02 -.909E+03   -.838E+01 -.127E+02 0.901E+03   0.178E-01 -.178E-01 0.719E+01
   -.836E+01 -.128E+02 -.909E+03   0.838E+01 0.127E+02 0.901E+03   -.179E-01 0.179E-01 0.719E+01
   0.120E+02 0.289E+02 0.958E+03   -.121E+02 -.289E+02 -.950E+03   0.745E-01 0.144E-01 -.729E+01
   0.400E+01 0.514E+02 0.994E+03   -.427E+01 -.516E+02 -.986E+03   0.205E+00 0.156E+00 -.727E+01
   0.439E+02 0.816E+02 -.870E+03   -.441E+02 -.814E+02 0.863E+03   0.192E+00 -.119E+00 0.710E+01
   0.530E+01 0.606E+02 -.891E+03   -.541E+01 -.608E+02 0.884E+03   0.864E-01 0.112E+00 0.718E+01
   0.293E+02 0.466E+02 0.101E+04   -.296E+02 -.467E+02 -.101E+04   0.262E+00 0.715E-01 -.748E+01
   -.111E+02 0.111E+02 0.106E+04   0.109E+02 -.109E+02 -.105E+04   0.145E+00 -.145E+00 -.704E+01
   0.857E+02 0.857E+02 -.704E+03   -.863E+02 -.863E+02 0.697E+03   0.442E+00 0.442E+00 0.657E+01
   0.488E+02 0.123E+03 -.709E+03   -.506E+02 -.123E+03 0.703E+03   0.128E+01 0.162E+00 0.618E+01
   0.111E+02 -.111E+02 0.106E+04   -.109E+02 0.109E+02 -.105E+04   -.145E+00 0.145E+00 -.704E+01
   -.293E+02 -.466E+02 0.101E+04   0.296E+02 0.467E+02 -.101E+04   -.262E+00 -.715E-01 -.748E+01
   -.488E+02 -.123E+03 -.709E+03   0.506E+02 0.123E+03 0.703E+03   -.128E+01 -.162E+00 0.618E+01
   -.857E+02 -.857E+02 -.704E+03   0.863E+02 0.863E+02 0.697E+03   -.442E+00 -.442E+00 0.657E+01
[...]
   -.193E+02 0.147E+02 0.718E+03   0.194E+02 -.148E+02 -.722E+03   -.161E+00 0.617E-01 0.363E+01
   -.621E+01 0.833E+01 0.707E+03   0.625E+01 -.834E+01 -.711E+03   -.587E-01 0.302E-01 0.360E+01
   -.458E+02 0.136E+02 -.670E+03   0.460E+02 -.135E+02 0.674E+03   -.180E+00 -.669E-01 -.373E+01
   -.151E+02 0.147E+01 -.682E+03   0.151E+02 -.144E+01 0.686E+03   -.398E-01 -.329E-01 -.372E+01
   -.261E+02 -.710E+00 0.724E+03   0.261E+02 0.794E+00 -.728E+03   -.991E-01 -.107E+00 0.359E+01
   -.107E+02 0.733E+01 0.713E+03   0.107E+02 -.732E+01 -.717E+03   -.812E-01 -.106E-01 0.359E+01
   -.345E+02 -.150E+02 -.676E+03   0.345E+02 0.151E+02 0.680E+03   -.119E-01 -.918E-01 -.375E+01
   -.431E+01 -.110E+02 -.686E+03   0.428E+01 0.110E+02 0.690E+03   0.412E-01 -.749E-02 -.371E+01
   -.157E+02 -.126E+02 0.715E+03   0.157E+02 0.126E+02 -.719E+03   0.207E-01 -.309E-01 0.357E+01
   -.650E+01 -.442E+01 0.713E+03   0.649E+01 0.444E+01 -.717E+03   0.383E-02 -.236E-01 0.358E+01
   -.145E+02 -.157E+02 -.686E+03   0.144E+02 0.157E+02 0.690E+03   0.399E-01 0.128E-01 -.371E+01
   -.118E+01 -.845E+01 -.690E+03   0.115E+01 0.845E+01 0.694E+03   0.363E-01 0.357E-02 -.369E+01
   -.765E+01 -.764E+01 0.707E+03   0.763E+01 0.763E+01 -.711E+03   0.176E-01 0.176E-01 0.359E+01
   -.152E+01 -.923E+01 0.708E+03   0.148E+01 0.924E+01 -.712E+03   0.457E-01 -.511E-02 0.359E+01
   -.729E+00 0.729E+00 0.124E+02   0.193E-11 0.134E-11 0.728E-11   -.620E-03 -.620E-03 -.129E+02

 POSITION                                       TOTAL-FORCE (eV/Angst)
      8.54453     12.59533     13.88470        -0.004158      0.003764     -0.028987
      6.69899     14.44084     13.56395         0.014459     -0.015015     -0.026516
     12.32695      8.81289     13.56395        -0.015015      0.014459     -0.026516
     10.48144     10.65841     13.88470         0.003764     -0.004158     -0.028987
      0.00000      0.00000      9.00000        -0.005680      0.005683      0.356109
      2.11389      2.11389      9.00000         0.000500      0.009857      0.357491
      0.00000      2.11389     11.11389         0.003641      0.003641     -0.334002
      2.11389      0.00000     11.11389        -0.005153      0.018206     -0.332829
      0.00000      4.22777      9.00000         0.009857      0.000500      0.357491
      2.11389      6.34166      9.00000         0.007753     -0.000535      0.360488
      0.00000      6.34166     11.11389         0.016096      0.000460     -0.331245
      2.11389      4.22777     11.11389         0.007255      0.007255     -0.331762
      0.00000      8.45554      9.00000         0.012364     -0.003229      0.358952
      2.11389     10.56943      9.00000        -0.005340     -0.021153      0.360815
      0.00000     10.56943     11.11389         0.005062     -0.004798     -0.326296
      2.11389      8.45554     11.11389         0.016731     -0.006502     -0.322589
      0.00000     12.68331      9.00000        -0.014345     -0.006227      0.359033
      2.11389     14.79720      9.00000        -0.058833     -0.008962      0.357524
      0.00000     14.79720     11.11389        -0.026492     -0.004416     -0.327809
      2.11389     12.68331     11.11389        -0.029673     -0.025444     -0.311816
      0.00000     16.91108      9.00000        -0.026010      0.003280      0.357138
      2.11389     19.02497      9.00000        -0.020833      0.020843      0.351710
      0.00000     19.02497     11.11389        -0.018208      0.005159     -0.332825
      2.11389     16.91108     11.11389        -0.066475      0.006764     -0.327547
      4.22777      0.00000      9.00000        -0.003281      0.026006      0.357141
      6.34166      2.11389      9.00000        -0.003229      0.012364      0.358952
      4.22777      2.11389     11.11389         0.000460      0.016096     -0.331245
      6.34166      0.00000     11.11389         0.004432      0.026476     -0.327806
      4.22777      4.22777      9.00000        -0.000535      0.007753      0.360488
      6.34166      6.34166      9.00000        -0.015089      0.001978      0.370391
      4.22777      6.34166     11.11389         0.009895      0.009895     -0.321015
      6.34166      4.22777     11.11389        -0.006502      0.016731     -0.322589
      4.22777      8.45554      9.00000         0.001978     -0.015089      0.370391
      6.34166     10.56943      9.00000        -0.019170     -0.069197      0.399975
      4.22777     10.56943     11.11389         0.041533     -0.044389     -0.270479
      6.34166      8.45554     11.11389         0.021558      0.021558     -0.268675
      4.22777     12.68331      9.00000        -0.050109     -0.066267      0.342741
      6.34166     14.79720      9.00000         0.005631     -0.005566      0.018618
      4.22777     14.79720     11.11389        -0.374178     -0.050599     -0.366218
      6.34166     12.68331     11.11389        -0.054006     -0.493120     -0.125992
      4.22777     16.91108      9.00000        -0.047054      0.047077      0.313783
      6.34166     19.02497      9.00000         0.008980      0.058823      0.357524
      4.22777     19.02497     11.11389        -0.006751      0.066477     -0.327543
      6.34166     16.91108     11.11389         0.050634      0.374245     -0.366268
      8.45554      0.00000      9.00000         0.006243      0.014335      0.359038
     10.56943      2.11389      9.00000        -0.006227     -0.014345      0.359033
      8.45554      2.11389     11.11389        -0.004798      0.005062     -0.326296
     10.56943      0.00000     11.11389         0.004810     -0.005082     -0.326292
      8.45554      4.22777      9.00000        -0.021153     -0.005340      0.360815
     10.56943      6.34166      9.00000        -0.066267     -0.050109      0.342741
      8.45554      6.34166     11.11389        -0.044389      0.041533     -0.270479
     10.56943      4.22777     11.11389        -0.025444     -0.029673     -0.311816
      8.45554      8.45554      9.00000        -0.069197     -0.019170      0.399975
     10.56943     10.56943      9.00000        -0.047664      0.047718      0.258887
      8.45554     10.56943     11.11389        -0.149825     -0.149825     -0.131931
     10.56943      8.45554     11.11389        -0.493120     -0.054006     -0.125992
      8.45554     12.68331      9.00000         0.047718     -0.047664      0.258887
     10.56943     14.79720      9.00000         0.069221      0.019177      0.400016
      8.45554     14.79720     11.11389         0.493478      0.054057     -0.126031
     10.56943     12.68331     11.11389         0.149974      0.149974     -0.131820
[...]
     19.02497      6.34166     11.11389        -0.023811      0.003359      0.373064
     16.91108      6.34166      9.00000        -0.045520      0.017218     -0.390103
     19.02497      4.22777      9.00000        -0.016228      0.008366     -0.398780
     16.91108      8.45554     11.11389        -0.055073     -0.017945      0.368439
     19.02497     10.56943     11.11389        -0.011376     -0.009203      0.368153
     16.91108     10.56943      9.00000        -0.030056     -0.029659     -0.401449
     19.02497      8.45554      9.00000        -0.022783     -0.002976     -0.399838
     16.91108     12.68331     11.11389        -0.004490     -0.026163      0.359697
     19.02497     14.79720     11.11389         0.011407     -0.001988      0.370466
     16.91108     14.79720      9.00000         0.005471     -0.008762     -0.405237
     19.02497     12.68331      9.00000         0.000951     -0.006520     -0.402467
     16.91108     16.91108     11.11389         0.010932      0.003441      0.369887
     19.02497     19.02497     11.11389         0.010000      0.000942      0.374940
     16.91108     19.02497      9.00000         0.004798      0.004798     -0.401379
     19.02497     16.91108      9.00000         0.012639     -0.001437     -0.400906
    total drift:                               -0.729641      0.728270     -0.420702

  FREE ENERGIE OF THE ION-ELECTRON SYSTEM (eV)
  free  energy   TOTEN  =      -739.41769323 eV

  energy  without entropy=     -739.41769323  energy(sigma->0) =     -739.41769323