 vasp.6.4.1 05Apr23 (build May 06 2023 19:47:20) complex

 executed on             LinuxIFC date 2023.07.05  10:42:02

 INCAR:
   SYSTEM = MgO-rocksalt
   ISMEAR = 0
   SIGMA = 0.05
   EDIFF = 1E-6
   ALGO = ALL
   ISTART = 0
   IBRION = -1
   NSW = 0
   ISYM = 2
   DIPOL = 0.5 0.5 0.5
   IDIPOL = 3
   LDIPOL = .TRUE.
   LHFCALC = .TRUE.
   GGA = PE
   IVDW = 11
   VDW_S6 = 1.0
   VDW_SR = 1.287
   VDW_S8 = 0.928
   ENCUT = 520
   PREC = Accurate
   LASPH = .TRUE.
   LREAL = Auto
   ISPIN = 1
   NELM = 200
   NELMIN = 8
   NCORE = 16
   KPAR = 1
   LWAVE = .FALSE.
   LCHARG = .FALSE.

 POTCAR:    PAW_PBE Ag 02Apr2005
 POTCAR:    PAW_PBE Mg_pv 13Apr2007
 POTCAR:    PAW_PBE O 08Apr2002
|           W    W    AA    RRRRR   N    N  II  N    N   GGGG   !!!           |
|           W    W   A  A   R    R  NN   N  II  NN   N  G    G  !!!           |
|           W    W  A    A  R    R  N N  N  II  N N  N  G       !!!           |
|           W WW W  AAAAAA  RRRRR   N  N N  II  N  N N  G  GGG   !            |
|           WW  WW  A    A  R   R   N   NN  II  N   NN  G    G                |
|           W    W  A    A  R    R  N    N  II  N    N   GGGG   !!!           |
|     You have selected ISYM=2 for a HF type calculation. This will           |
|     symmetrize the charge density but not the exchange potential. I         |
|     suggest to use ISYM=3 instead. This uses symmetry to obtain the         |
|     orbitals at all k-points in the Brillouin zone, but does not apply      |
|     symmetry to the Hartree potential directly. The resultant charge        |
|     might have lower symmetry than the crystal but, at least, Hartree       |
|     and exchange are fully compatible.                                      |

   TITEL  = PAW_PBE Ag 02Apr2005
   POMASS =  107.868; ZVAL   =   11.000    mass and valenz
   ENMAX  =  249.844; ENMIN  =  187.383 eV

   TITEL  = PAW_PBE Mg_pv 13Apr2007
   POMASS =   24.305; ZVAL   =    8.000    mass and valenz
   ENMAX  =  403.929; ENMIN  =  302.947 eV

   TITEL  = PAW_PBE O 08Apr2002
   POMASS =   16.000; ZVAL   =    6.000    mass and valenz
   ENMAX  =  400.000; ENMIN  =  300.000 eV

 Optimization of the real space projectors (new method)

 maximal supplied QI-value         = 15.12
 optimisation between [QCUT,QGAM] = [ 11.64, 23.28] = [ 37.95,151.78] Ry
 Optimized for a Real-space Cutoff    1.45 Angstroem

   l    n(q)    QCUT    max X(q) W(low)/X(q) W(high)/X(q)  e(spline)
   2      9    11.641    53.897    0.22E-03    0.42E-04    0.28E-06
   2      9    11.641    52.416    0.23E-03    0.44E-04    0.29E-06
   0     10    11.641   122.045    0.51E-04    0.25E-04    0.16E-06
   0     10    11.641    73.629    0.49E-04    0.24E-04    0.16E-06
   1     10    11.641    15.255    0.99E-04    0.55E-04    0.11E-06
   1     10    11.641     9.562    0.81E-04    0.47E-04    0.95E-07
 Optimization of the real space projectors (new method)

[...]

   l    n(q)    QCUT    max X(q) W(low)/X(q) W(high)/X(q)  e(spline)
   1      8    11.527     2.974    0.44E-04    0.56E-04    0.12E-06
   1      8    11.527     4.279    0.12E-03    0.12E-03    0.26E-06
   0      9    11.527    16.381    0.46E-04    0.64E-04    0.78E-07
   0      9    11.527     5.611    0.26E-04    0.43E-04    0.55E-07
   2      8    11.527     4.652    0.22E-03    0.72E-04    0.47E-07
 Optimization of the real space projectors (new method)

 maximal supplied QI-value         = 24.76
 optimisation between [QCUT,QGAM] = [ 11.64, 23.27] = [ 37.91,151.63] Ry
 Optimized for a Real-space Cutoff    1.14 Angstroem

   l    n(q)    QCUT    max X(q) W(low)/X(q) W(high)/X(q)  e(spline)
   0      8    11.635    20.381    0.10E-03    0.33E-03    0.24E-06
   0      8    11.635    15.268    0.11E-03    0.35E-03    0.26E-06
   1      7    11.635     5.964    0.24E-03    0.31E-03    0.30E-06
   1      7    11.635     5.382    0.22E-03    0.25E-03    0.26E-06
  PAW_PBE Ag 02Apr2005                  :
  PAW_PBE Mg_pv 13Apr2007               :
  PAW_PBE O 08Apr2002                   :

 POSCAR: Ag Mg  O
  positions in direct lattice
  velocities in cartesian coordinates
 exchange correlation table for  LEXCH =        8
   RHO(1)=    0.500       N(1)  =     2000
   RHO(2)=  100.500       N(2)  =     4000

 ion  position               nearest neighbor table
   1  0.400  0.429  0.610- 153 2.46   2 2.60  55 2.82   4 3.42
   2  0.400  0.512  0.697-   1 2.60   4 2.64   3 2.77
   3  0.401  0.641  0.713-   4 2.63   2 2.77
   4  0.400  0.590  0.604- 157 2.26   3 2.63   2 2.64  55 2.95   1 3.42
   5  0.000  0.000  0.407- 107 2.11 108 2.11 123 2.11 188 2.11 105 2.11
   6  0.100  0.100  0.407- 107 2.11 108 2.11 112 2.11 127 2.11 106 2.11
   7  0.000  0.100  0.503- 105 2.11 106 2.11 109 2.11 186 2.11 107 2.11
   8  0.100  0.000  0.503- 105 2.11 106 2.11 122 2.11 125 2.11 108 2.11
   9  0.000  0.200  0.407- 111 2.11 107 2.11 112 2.11 192 2.11 109 2.11
  10  0.100  0.300  0.407- 112 2.11 111 2.11 116 2.11 131 2.11 110 2.11
  11  0.000  0.300  0.503- 109 2.11 110 2.11 113 2.11 190 2.11 111 2.11
  12  0.100  0.200  0.503- 110 2.11 109 2.11 106 2.11 129 2.11 112 2.11
  13  0.000  0.400  0.407- 111 2.11 115 2.11 116 2.11 196 2.11 113 2.11
  14  0.100  0.500  0.407- 115 2.11 116 2.11 120 2.11 135 2.11 114 2.11
  15  0.000  0.500  0.503- 113 2.11 114 2.11 117 2.11 194 2.11 115 2.11
  16  0.100  0.400  0.503- 110 2.11 113 2.11 114 2.11 133 2.11 116 2.11
  17  0.000  0.600  0.407- 115 2.11 119 2.11 120 2.11 200 2.11 117 2.11
  18  0.100  0.700  0.407- 124 2.11 120 2.11 119 2.11 139 2.11 118 2.11
  19  0.000  0.700  0.503- 121 2.11 118 2.11 117 2.11 198 2.11 119 2.11
  20  0.100  0.600  0.503- 114 2.11 117 2.11 118 2.11 137 2.11 120 2.11
  21  0.000  0.800  0.407- 119 2.11 123 2.11 124 2.11 204 2.11 121 2.11
  22  0.100  0.900  0.407- 108 2.11 123 2.11 124 2.11 143 2.11 122 2.11
  23  0.000  0.900  0.503- 105 2.11 121 2.11 122 2.11 202 2.11 123 2.11
  24  0.100  0.800  0.503- 118 2.11 121 2.11 122 2.11 141 2.11 124 2.11
  25  0.200  0.000  0.407- 128 2.11 127 2.11 108 2.11 143 2.11 125 2.11
  26  0.300  0.100  0.407- 127 2.11 128 2.11 132 2.11 147 2.11 126 2.11
  27  0.200  0.100  0.503- 126 2.11 125 2.11 106 2.11 129 2.11 127 2.11
  28  0.300  0.000  0.503- 125 2.11 126 2.11 142 2.11 145 2.11 128 2.11
  29  0.200  0.200  0.407- 131 2.11 132 2.11 112 2.11 127 2.11 129 2.11
  30  0.300  0.300  0.407- 131 2.11 132 2.11 136 2.11 151 2.11 130 2.11
  31  0.200  0.300  0.503- 129 2.11 130 2.11 110 2.11 133 2.11 131 2.11
  32  0.300  0.200  0.503- 129 2.11 130 2.11 126 2.11 149 2.11 132 2.11
  33  0.200  0.400  0.407- 136 2.11 131 2.11 135 2.11 116 2.11 133 2.11
  34  0.300  0.500  0.407- 135 2.11 136 2.11 140 2.11 155 2.11 134 2.11
  35  0.200  0.500  0.503- 134 2.11 133 2.11 114 2.11 137 2.11 135 2.11
  36  0.300  0.400  0.503- 133 2.11 130 2.11 134 2.11 153 2.11 136 2.11
  37  0.200  0.600  0.407- 140 2.11 135 2.11 139 2.11 120 2.11 137 2.11
  38  0.300  0.700  0.407- 139 2.11 144 2.11 140 2.11 159 2.11 138 2.11
  39  0.200  0.700  0.503- 138 2.11 141 2.11 118 2.11 137 2.11 139 2.11
  40  0.300  0.600  0.503- 137 2.11 134 2.11 138 2.11 157 2.11 140 2.11
  41  0.200  0.800  0.407- 139 2.11 144 2.11 143 2.11 124 2.11 141 2.11
  42  0.300  0.900  0.407- 143 2.11 128 2.11 144 2.11 163 2.11 142 2.11
  43  0.200  0.900  0.503- 142 2.11 125 2.11 141 2.11 122 2.11 143 2.11
  44  0.300  0.800  0.503- 138 2.11 141 2.11 142 2.11 161 2.11 144 2.11
  45  0.400  0.000  0.407- 128 2.11 147 2.11 148 2.11 163 2.11 145 2.11
  46  0.500  0.100  0.407- 147 2.11 148 2.11 152 2.11 167 2.11 146 2.11
  47  0.400  0.100  0.503- 126 2.11 145 2.11 146 2.11 149 2.11 147 2.11
  48  0.500  0.000  0.503- 145 2.11 146 2.11 162 2.11 165 2.11 148 2.11
  49  0.400  0.200  0.407- 151 2.11 147 2.11 132 2.11 152 2.11 149 2.11
  50  0.500  0.300  0.407- 152 2.11 151 2.11 156 2.11 171 2.11 150 2.11
  51  0.400  0.300  0.503- 149 2.11 130 2.11 150 2.11 153 2.11 151 2.11
  52  0.500  0.200  0.503- 150 2.11 149 2.11 146 2.11 169 2.11 152 2.11
  53  0.400  0.400  0.407- 136 2.11 151 2.11 155 2.11 156 2.11 153 2.11
  54  0.500  0.500  0.407- 155 2.11 156 2.11 160 2.11 175 2.11 154 2.11
  55  0.400  0.500  0.503- 134 2.11 153 2.11 154 2.11 157 2.11 155 2.11   1 2.82   4 2.95
  56  0.500  0.400  0.503- 150 2.11 153 2.11 154 2.11 173 2.11 156 2.11
  57  0.400  0.600  0.407- 140 2.11 155 2.11 159 2.11 160 2.11 157 2.11
  58  0.500  0.700  0.407- 164 2.11 160 2.11 159 2.11 179 2.11 158 2.11
  59  0.400  0.700  0.503- 161 2.11 157 2.11 158 2.11 138 2.11 159 2.11
  60  0.500  0.600  0.503- 154 2.11 157 2.11 158 2.11 177 2.11 160 2.11
[...]
 190  0.900  0.300  0.503-  92 2.11  91 2.11  11 2.11  96 2.11  90 2.11
 191  0.800  0.300  0.407-  70 2.11  89 2.11  90 2.11  93 2.11  91 2.11
 192  0.900  0.200  0.407-  90 2.11  86 2.11  89 2.11   9 2.11  92 2.11
 193  0.800  0.400  0.503-  76 2.11  91 2.11  95 2.11  96 2.11  93 2.11
 194  0.900  0.500  0.503-  15 2.11  95 2.11  96 2.11 100 2.11  94 2.11
 195  0.800  0.500  0.407-  74 2.11  93 2.11  94 2.11  97 2.11  95 2.11
 196  0.900  0.400  0.407-  13 2.11  90 2.11  93 2.11  94 2.11  96 2.11
 197  0.800  0.600  0.503-  80 2.11  95 2.11  99 2.11 100 2.11  97 2.11
 198  0.900  0.700  0.503- 104 2.11  99 2.11 100 2.11  19 2.11  98 2.11
 199  0.800  0.700  0.407-  78 2.11 101 2.11  98 2.11  97 2.11  99 2.11
 200  0.900  0.600  0.407-  17 2.11  94 2.11  97 2.11  98 2.11 100 2.11
 201  0.800  0.800  0.503-  84 2.11  99 2.11 103 2.11 104 2.11 101 2.11
 202  0.900  0.900  0.503-  23 2.11  88 2.11 103 2.11 104 2.11 102 2.11
 203  0.800  0.900  0.407-  82 2.11  85 2.11 101 2.11 102 2.11 103 2.11
 204  0.900  0.800  0.407-  98 2.11  21 2.11 101 2.11 102 2.11 104 2.11

  LATTYP: Found a simple tetragonal cell.
 ALAT       =    21.1388521970
 C/A-ratio  =     1.0461251639

  Lattice vectors:

 A1 = (  21.1388521970,   0.0000000000,   0.0000000000)
 A2 = (   0.0000000000,  21.1388521970,   0.0000000000)
 A3 = (   0.0000000000,   0.0000000000,  22.1138852197)

Analysis of symmetry for initial positions (statically):
 Subroutine PRICEL returns:
 Original cell was already a primitive cell.

 Routine SETGRP: Setting up the symmetry group for a
 simple tetragonal supercell.

 Subroutine GETGRP returns: Found  1 space group operations
 (whereof  1 operations were pure point group operations)
 out of a pool of 16 trial point group operations.

The static configuration has the point symmetry C_1 .

Analysis of symmetry for dynamics (positions and initial velocities):
 Subroutine PRICEL returns:
 Original cell was already a primitive cell.

[...]

The dynamic configuration has the point symmetry C_1 .

Analysis of constrained symmetry for selective dynamics:
 Subroutine PRICEL returns:
 Original cell was already a primitive cell.

 Routine SETGRP: Setting up the symmetry group for a
 simple tetragonal supercell.

 Subroutine GETGRP returns: Found  1 space group operations
 (whereof  1 operations were pure point group operations)
 out of a pool of 16 trial point group operations.

The constrained configuration has the point symmetry C_1 .

 Subroutine INISYM returns: Found  1 space group operations
 (whereof  1 operations are pure point group operations),
[...]
     60     -47.0026      2.00000
[...]
    898       5.2781      0.00000
    899       5.2956      0.00000
    900       5.3189      0.00000
    901       5.3683      0.00000
    902       5.3955      0.00000
    903       5.4154      0.00000
    904       5.4915      0.00000
    905       5.5558      0.00000
    906       5.6840      0.00000
    907       5.7743      0.00000
    908       5.8272      0.00000
    909       5.8789      0.00000
    910       5.8838      0.00000
    911       5.9839      0.00000
    912       6.0433      0.00000

 soft charge-density along one line, spin component           1
         0         1         2         3         4         5         6         7         8         9
 total charge-density along one line

------------------------ aborting loop because EDIFF is reached ----------------------------------------

|           W    W    AA    RRRRR   N    N  II  N    N   GGGG   !!!           |
|           W    W   A  A   R    R  NN   N  II  NN   N  G    G  !!!           |
|           W    W  A    A  R    R  N N  N  II  N N  N  G       !!!           |
|           W WW W  AAAAAA  RRRRR   N  N N  II  N  N N  G  GGG   !            |
|           WW  WW  A    A  R   R   N   NN  II  N   NN  G    G                |
|           W    W  A    A  R    R  N    N  II  N    N   GGGG   !!!           |
|     Specifying the vdW parameters                                           |
|     VDW_S8 = 0.928                                                          |
|     VDW_SR = 1.287                                                          |
|     in the INCAR file will overwrite the defaults for pbe0. Please make     |
|     sure that is what you intended.                                         |

         DFTD3 V3.0 Rev 1
 IVDW         = 11
 DF pbe0
 parameters
 VDW_S6       =    1.0000
 VDW_S8       =    0.9280
 VDW_SR       =    1.2870
 rs18     =    1.0000
 alpha6   =   14.0000
 alpha8   =   16.0000
 k1-k3    =   16.0000    1.3333   -4.0000
 VDW_RADIUS   =   50.2022 A
 VDW_CNRADIUS =   21.1671 A
 Edisp (eV)  -21.50422

 E6    (eV) :    -6.6802
 E8    (eV) :   -14.8240
 % E8        : 68.94

 VOLUME and BASIS-vectors are now :
  energy-cutoff  :      520.00
  volume of cell :     9881.61
      direct lattice vectors                 reciprocal lattice vectors
    21.138852197  0.000000000  0.000000000     0.047306258  0.000000000  0.000000000
     0.000000000 21.138852197  0.000000000     0.000000000  0.047306258  0.000000000
     0.000000000  0.000000000 22.113885220     0.000000000  0.000000000  0.045220457

  length of vectors
    21.138852197 21.138852197 22.113885220     0.047306258  0.047306258  0.045220457

 FORCES acting on ions:
    Electron-Ion                     Ewald-Force                    Non-Local-Force
   0.593E+00 0.382E+03 -.193E+04   -.587E+00 -.376E+03 0.193E+04   -.607E-02 -.511E+01 -.428E+01
   0.160E+00 0.207E+03 -.197E+04   -.167E+00 -.207E+03 0.196E+04   0.679E-02 0.165E+00 0.720E+01
   -.148E+01 -.389E+03 -.180E+04   0.146E+01 0.384E+03 0.179E+04   0.288E-01 0.518E+01 0.547E+01
   0.687E+00 -.198E+03 -.175E+04   -.677E+00 0.199E+03 0.176E+04   -.112E-01 -.483E+00 -.407E+01
   0.710E+01 -.266E+01 0.937E+03   -.712E+01 0.267E+01 -.929E+03   0.108E-01 -.505E-02 -.711E+01
   0.128E+02 0.613E+01 0.940E+03   -.128E+02 -.614E+01 -.932E+03   0.219E-01 0.754E-02 -.711E+01
   0.932E+01 0.530E+01 -.918E+03   -.933E+01 -.530E+01 0.910E+03   0.881E-02 -.131E-02 0.705E+01
   0.155E+02 -.503E+01 -.916E+03   -.155E+02 0.504E+01 0.908E+03   0.119E-01 -.620E-02 0.704E+01
   0.954E+01 0.984E+01 0.939E+03   -.957E+01 -.985E+01 -.931E+03   0.186E-01 0.685E-02 -.711E+01
   0.248E+02 0.183E+02 0.950E+03   -.249E+02 -.183E+02 -.942E+03   0.696E-01 0.239E-01 -.713E+01
   0.181E+02 0.157E+02 -.914E+03   -.181E+02 -.157E+02 0.905E+03   0.140E-01 0.330E-02 0.704E+01
   0.235E+02 0.199E+02 -.912E+03   -.235E+02 -.199E+02 0.904E+03   0.303E-01 0.432E-02 0.704E+01
   0.168E+02 0.959E+01 0.946E+03   -.169E+02 -.960E+01 -.937E+03   0.368E-01 0.102E-01 -.712E+01
   0.383E+02 0.457E+01 0.962E+03   -.385E+02 -.459E+01 -.954E+03   0.125E+00 0.152E-01 -.715E+01
   0.281E+02 0.417E+01 -.908E+03   -.281E+02 -.417E+01 0.900E+03   0.212E-01 0.584E-02 0.703E+01
   0.527E+02 0.223E+02 -.897E+03   -.527E+02 -.223E+02 0.889E+03   0.432E-01 0.101E-01 0.701E+01
   0.186E+02 -.489E+01 0.948E+03   -.186E+02 0.489E+01 -.939E+03   0.487E-01 -.186E-03 -.712E+01
   0.302E+02 -.166E+02 0.956E+03   -.304E+02 0.166E+02 -.947E+03   0.106E+00 -.235E-01 -.714E+01
   0.226E+02 -.140E+02 -.910E+03   -.226E+02 0.140E+02 0.902E+03   0.249E-01 -.162E-02 0.704E+01
   0.607E+02 -.119E+02 -.892E+03   -.608E+02 0.119E+02 0.884E+03   0.885E-01 0.641E-02 0.701E+01
   0.118E+02 -.119E+02 0.942E+03   -.118E+02 0.119E+02 -.933E+03   0.272E-01 -.119E-01 -.712E+01
   0.152E+02 -.124E+02 0.943E+03   -.152E+02 0.124E+02 -.934E+03   0.288E-01 -.231E-01 -.712E+01
   0.114E+02 -.112E+02 -.917E+03   -.114E+02 0.112E+02 0.908E+03   0.113E-01 -.621E-02 0.705E+01
   0.319E+02 -.252E+02 -.906E+03   -.319E+02 0.253E+02 0.898E+03   0.439E-01 -.145E-01 0.703E+01
   0.130E+02 -.503E+01 0.943E+03   -.130E+02 0.505E+01 -.935E+03   0.188E-01 -.123E-01 -.712E+01
   0.924E+01 0.123E+02 0.948E+03   -.927E+01 -.124E+02 -.940E+03   0.172E-01 0.458E-01 -.713E+01
   0.184E+02 0.130E+02 -.912E+03   -.184E+02 -.130E+02 0.904E+03   0.172E-01 0.166E-01 0.704E+01
   0.114E+02 -.101E+02 -.909E+03   -.114E+02 0.101E+02 0.900E+03   0.716E-02 -.441E-02 0.704E+01
   0.199E+02 0.221E+02 0.951E+03   -.200E+02 -.222E+02 -.943E+03   0.555E-01 0.525E-01 -.713E+01
   0.251E+02 0.442E+02 0.985E+03   -.254E+02 -.445E+02 -.976E+03   0.136E+00 0.186E+00 -.712E+01
   0.539E+02 0.495E+02 -.888E+03   -.541E+02 -.495E+02 0.879E+03   0.137E+00 0.949E-02 0.700E+01
   0.231E+02 0.522E+02 -.895E+03   -.231E+02 -.523E+02 0.886E+03   0.292E-01 0.124E+00 0.702E+01
   0.454E+02 0.250E+02 0.982E+03   -.457E+02 -.250E+02 -.973E+03   0.232E+00 0.654E-01 -.720E+01
   0.487E+02 0.112E+02 0.104E+04   -.492E+02 -.113E+02 -.103E+04   0.326E+00 0.104E+00 -.718E+01
   0.110E+03 0.140E+02 -.846E+03   -.111E+03 -.141E+02 0.838E+03   0.234E+00 0.405E-01 0.694E+01
   0.118E+03 0.916E+02 -.770E+03   -.120E+03 -.917E+02 0.763E+03   0.921E+00 0.104E+00 0.667E+01
   0.515E+02 -.143E+02 0.990E+03   -.519E+02 0.144E+02 -.981E+03   0.342E+00 -.199E-01 -.721E+01
   0.327E+02 -.435E+02 0.100E+04   -.330E+02 0.439E+02 -.996E+03   0.230E+00 -.249E+00 -.710E+01
   0.739E+02 -.493E+02 -.869E+03   -.742E+02 0.493E+02 0.861E+03   0.229E+00 -.287E-01 0.699E+01
   0.146E+03 -.566E+02 -.729E+03   -.149E+03 0.566E+02 0.720E+03   0.175E+01 -.296E-01 0.694E+01
   0.261E+02 -.276E+02 0.960E+03   -.262E+02 0.278E+02 -.951E+03   0.839E-01 -.852E-01 -.713E+01
   0.116E+02 -.244E+02 0.955E+03   -.116E+02 0.245E+02 -.946E+03   0.203E-01 -.921E-01 -.714E+01
   0.242E+02 -.275E+02 -.906E+03   -.242E+02 0.276E+02 0.898E+03   0.143E-01 -.384E-01 0.703E+01
   0.359E+02 -.731E+02 -.871E+03   -.359E+02 0.734E+02 0.863E+03   0.501E-02 -.231E+00 0.698E+01
   0.249E-01 -.703E+01 0.948E+03   -.247E-01 0.705E+01 -.940E+03   -.974E-04 -.158E-01 -.713E+01
   -.921E+01 0.123E+02 0.948E+03   0.924E+01 -.124E+02 -.940E+03   -.173E-01 0.458E-01 -.713E+01
   0.304E-01 0.213E+02 -.906E+03   -.303E-01 -.214E+02 0.898E+03   -.975E-04 0.470E-01 0.703E+01
   -.114E+02 -.102E+02 -.909E+03   0.114E+02 0.102E+02 0.900E+03   -.733E-02 -.429E-02 0.704E+01
   0.300E-01 0.351E+02 0.964E+03   -.299E-01 -.354E+02 -.955E+03   -.107E-03 0.191E+00 -.715E+01
   -.251E+02 0.443E+02 0.985E+03   0.253E+02 -.446E+02 -.976E+03   -.137E+00 0.186E+00 -.712E+01
   0.107E+00 0.125E+03 -.825E+03   -.107E+00 -.126E+03 0.817E+03   -.312E-03 0.926E+00 0.703E+01
   -.230E+02 0.522E+02 -.895E+03   0.230E+02 -.524E+02 0.886E+03   -.294E-01 0.124E+00 0.702E+01
   0.862E-01 0.467E+02 0.104E+04   -.858E-01 -.471E+02 -.103E+04   -.258E-03 0.281E+00 -.617E+01
   -.485E+02 0.112E+02 0.104E+04   0.490E+02 -.114E+02 -.103E+04   -.326E+00 0.104E+00 -.718E+01
   0.463E+00 0.320E+02 -.583E+03   -.463E+00 -.334E+02 0.577E+03   -.603E-03 0.958E+00 0.508E+01
   -.118E+03 0.918E+02 -.770E+03   0.120E+03 -.919E+02 0.762E+03   -.921E+00 0.104E+00 0.667E+01
   0.139E+00 -.290E+02 0.106E+04   -.137E+00 0.291E+02 -.106E+04   -.879E-03 -.114E+00 -.523E+01
   -.326E+02 -.436E+02 0.100E+04   0.329E+02 0.440E+02 -.996E+03   -.230E+00 -.249E+00 -.710E+01
   0.331E+00 -.146E+03 -.756E+03   -.328E+00 0.148E+03 0.748E+03   -.154E-02 -.172E+01 0.676E+01
   -.146E+03 -.567E+02 -.728E+03   0.149E+03 0.567E+02 0.719E+03   -.175E+01 -.308E-01 0.694E+01
[...]
   -.986E+01 0.905E+01 0.708E+03   0.988E+01 -.906E+01 -.712E+03   -.230E-01 0.118E-01 0.306E+01
   -.162E-01 0.628E+01 0.704E+03   0.161E-01 -.628E+01 -.708E+03   0.934E-04 0.514E-02 0.306E+01
   -.183E+02 0.959E+01 -.684E+03   0.183E+02 -.960E+01 0.688E+03   -.180E-01 0.711E-02 -.318E+01
   -.495E-01 0.250E+01 -.685E+03   0.493E-01 -.250E+01 0.689E+03   0.236E-03 0.543E-02 -.317E+01
   -.144E+02 0.228E+01 0.712E+03   0.144E+02 -.228E+01 -.716E+03   -.350E-01 0.883E-02 0.305E+01
   -.282E-01 0.600E+01 0.708E+03   0.281E-01 -.601E+01 -.712E+03   0.165E-03 0.842E-02 0.306E+01
   -.207E+02 -.480E+01 -.682E+03   0.207E+02 0.480E+01 0.686E+03   -.249E-01 0.343E-02 -.318E+01
   -.472E-01 -.830E+01 -.686E+03   0.470E-01 0.830E+01 0.690E+03   0.244E-03 -.193E-02 -.317E+01
   -.118E+02 -.796E+01 0.710E+03   0.118E+02 0.797E+01 -.714E+03   -.328E-01 -.107E-01 0.306E+01
   -.356E-01 -.299E+01 0.709E+03   0.354E-01 0.299E+01 -.713E+03   0.217E-03 0.445E-03 0.306E+01
   -.123E+02 -.116E+02 -.686E+03   0.123E+02 0.116E+02 0.691E+03   -.178E-01 -.892E-02 -.317E+01
   -.261E-01 -.702E+01 -.690E+03   0.259E-01 0.702E+01 0.694E+03   0.137E-03 -.595E-02 -.316E+01
   -.654E+01 -.655E+01 0.705E+03   0.655E+01 0.656E+01 -.709E+03   -.160E-01 -.124E-01 0.306E+01
   -.259E-01 -.754E+01 0.706E+03   0.257E-01 0.755E+01 -.710E+03   0.171E-03 -.953E-02 0.306E+01
   -.292E-01 0.923E-01 0.544E+00   0.244E-11 -.178E-11 -.140E-10   0.317E-01 -.212E+00 -.526E+00

 POSITION                                       TOTAL-FORCE (eV/Angst)
      8.45714      9.05883     13.49759        -0.001041     -0.186676     -0.023400
      8.46060     10.81262     15.42040         0.001098     -0.079405      0.041762
      8.46768     13.55697     15.76553         0.001707      0.179449      0.046609
      8.45984     12.47141     13.36585        -0.000899      0.031674      0.061075
      0.00000      0.00000      9.00000        -0.003435      0.001611      0.558514
      2.11389      2.11389      9.00000        -0.007007     -0.002404      0.559333
      0.00000      2.11389     11.11389        -0.002669      0.000476     -0.533810
      2.11389      0.00000     11.11389        -0.003698      0.001843     -0.532237
      0.00000      4.22777      9.00000        -0.005690     -0.002132      0.559702
      2.11389      6.34166      9.00000        -0.020920     -0.007299      0.564792
      0.00000      6.34166     11.11389        -0.003620     -0.000754     -0.529536
      2.11389      4.22777     11.11389        -0.008485     -0.000837     -0.527570
      0.00000      8.45554      9.00000        -0.011141     -0.003229      0.562276
      2.11389     10.56943      9.00000        -0.037496     -0.005168      0.570062
      0.00000     10.56943     11.11389        -0.004994     -0.001929     -0.525418
      2.11389      8.45554     11.11389        -0.007592     -0.001984     -0.511192
      0.00000     12.68331      9.00000        -0.014582     -0.000060      0.562608
      2.11389     14.79720      9.00000        -0.031834      0.007597      0.566083
      0.00000     14.79720     11.11389        -0.006637      0.000318     -0.527985
      2.11389     12.68331     11.11389        -0.019768     -0.002907     -0.509324
      0.00000     16.91108      9.00000        -0.008363      0.003823      0.560152
      2.11389     19.02497      9.00000        -0.009179      0.007344      0.559853
      0.00000     19.02497     11.11389        -0.003403      0.001915     -0.533048
      2.11389     16.91108     11.11389        -0.011936      0.003950     -0.523935
      4.22777      0.00000      9.00000        -0.006067      0.003700      0.560645
      6.34166      2.11389      9.00000        -0.005721     -0.013844      0.562247
      4.22777      2.11389     11.11389        -0.005278     -0.004415     -0.527987
      6.34166      0.00000     11.11389        -0.002156      0.000791     -0.526499
      4.22777      4.22777      9.00000        -0.017981     -0.016748      0.561750
      6.34166      6.34166      9.00000        -0.048565     -0.061020      0.554750
      4.22777      6.34166     11.11389        -0.030484      0.005914     -0.492872
      6.34166      4.22777     11.11389        -0.007183     -0.029981     -0.507765
      4.22777      8.45554      9.00000        -0.067181     -0.019711      0.583631
      6.34166     10.56943      9.00000        -0.112713     -0.038283      0.561035
      4.22777     10.56943     11.11389        -0.034472     -0.014543     -0.433544
      6.34166      8.45554     11.11389        -0.412135     -0.011294     -0.455082
      4.22777     12.68331      9.00000        -0.096745      0.004979      0.584264
      6.34166     14.79720      9.00000        -0.082064      0.087075      0.544669
      4.22777     14.79720     11.11389        -0.051544      0.001171     -0.477147
      6.34166     12.68331     11.11389        -0.772674      0.003278     -0.635201
      4.22777     16.91108      9.00000        -0.027280      0.027495      0.563749
      6.34166     19.02497      9.00000        -0.006520      0.027393      0.566873
      4.22777     19.02497     11.11389        -0.003970      0.010118     -0.523616
      6.34166     16.91108     11.11389         0.007767      0.049705     -0.469749
      8.45554      0.00000      9.00000         0.000018      0.004752      0.562690
     10.56943      2.11389      9.00000         0.005722     -0.013836      0.562261
      8.45554      2.11389     11.11389         0.000011     -0.011950     -0.523145
     10.56943      0.00000     11.11389         0.002170      0.000739     -0.526507
      8.45554      4.22777      9.00000         0.000015     -0.054756      0.568058
     10.56943      6.34166      9.00000         0.048614     -0.060976      0.554840
      8.45554      6.34166     11.11389         0.000123     -0.282921     -0.464891
     10.56943      4.22777     11.11389         0.007224     -0.029912     -0.507729
      8.45554      8.45554      9.00000         0.000087     -0.066495      0.332363
     10.56943     10.56943      9.00000         0.112757     -0.038135      0.561078
      8.45554     10.56943     11.11389        -0.000618     -0.308159     -0.678571
     10.56943      8.45554     11.11389         0.413121     -0.011395     -0.455494
      8.45554     12.68331      9.00000         0.000347      0.021351      0.118316
     10.56943     14.79720      9.00000         0.082169      0.086908      0.544794
      8.45554     14.79720     11.11389         0.000498      0.698823     -0.461598
     10.56943     12.68331     11.11389         0.775794      0.004217     -0.636961
[...]
     19.02497      6.34166     11.11389         0.000030      0.001199      0.390510
     16.91108      6.34166      9.00000        -0.007676      0.003918     -0.420787
     19.02497      4.22777      9.00000         0.000013      0.001728     -0.418862
     16.91108      8.45554     11.11389        -0.006152      0.002386      0.385111
     19.02497     10.56943     11.11389         0.000064      0.001794      0.387871
     16.91108     10.56943      9.00000        -0.011680      0.002915     -0.422789
     19.02497      8.45554      9.00000         0.000044      0.002793     -0.420570
     16.91108     12.68331     11.11389        -0.008480      0.001101      0.384122
     19.02497     14.79720     11.11389         0.000064     -0.000676      0.389535
     16.91108     14.79720      9.00000        -0.010894     -0.003586     -0.421180
     19.02497     12.68331      9.00000         0.000051      0.000133     -0.420696
     16.91108     16.91108     11.11389        -0.005976     -0.003009      0.389558
     19.02497     19.02497     11.11389         0.000024     -0.001982      0.393058
     16.91108     19.02497      9.00000        -0.005317     -0.004079     -0.418855
     19.02497     16.91108      9.00000         0.000027     -0.003162     -0.419153
    total drift:                                0.003642     -0.000996     -0.532138

  FREE ENERGIE OF THE ION-ELECTRON SYSTEM (eV)
  free  energy   TOTEN  =     -1448.68684972 eV

  energy  without entropy=    -1448.68684972  energy(sigma->0) =    -1448.68684972