 vasp.6.3.0 20Jan22 (build Apr  1 2022 16:44:48) complex
 executed on        HPECrayEX_GCC date 2023.01.09  23:39:48

 INCAR:
   SYSTEM = MgO-rocksalt
   ISMEAR = 0
   SIGMA = 0.05
   EDIFF = 1E-6
   ALGO = ALL
   ISTART = 0
   IBRION = -1
   NSW = 0
   ISYM = 2
   DIPOL = 0.5 0.5 0.5
   IDIPOL = 3
   LDIPOL = .TRUE.
   METAGGA = SCAN
   LUSE_VDW = .TRUE.
   BPARAM = 15.7
   CPARAM = 0.0093
   ENCUT = 520
   PREC = Accurate
   LASPH = .TRUE.
   LREAL = Auto
   ISPIN = 1
   NELM = 200
   NELMIN = 8
   NCORE = 4
   KPAR = 2
   LWAVE = .FALSE.
   LCHARG = .FALSE.

 POTCAR:    PAW_PBE Ag 02Apr2005
 POTCAR:    PAW_PBE Mg_pv 13Apr2007
 POTCAR:    PAW_PBE O 08Apr2002
|               ----> ADVICE to this user running VASP <----                  |
|     You have switched on vdW-DFT.                                           |
|     This routine was written and supplied by Jiri Klimes. We recommend      |
|     that you carefully read and cite the following publications:            |
|       J. Klimes, D.R. Bowler, A. Michelides                                 |
|          J. Phys.: Cond Matt. 22 022201 (2010)                              |
|       J. Klimes, D.R. Bowler, A. Michelides                                 |
|          Phys. Rev. B. 83, 195131 (2011)                                    |
|     and references therein.                                                 |

   TITEL  = PAW_PBE Ag 02Apr2005
   POMASS =  107.868; ZVAL   =   11.000    mass and valenz
   ENMAX  =  249.844; ENMIN  =  187.383 eV

   TITEL  = PAW_PBE Mg_pv 13Apr2007
   POMASS =   24.305; ZVAL   =    8.000    mass and valenz
   ENMAX  =  403.929; ENMIN  =  302.947 eV

   TITEL  = PAW_PBE O 08Apr2002
   POMASS =   16.000; ZVAL   =    6.000    mass and valenz
   ENMAX  =  400.000; ENMIN  =  300.000 eV

 Optimization of the real space projectors (new method)

 maximal supplied QI-value         = 15.12
 optimisation between [QCUT,QGAM] = [ 11.64, 23.28] = [ 37.95,151.78] Ry
 Optimized for a Real-space Cutoff    1.45 Angstroem

   l    n(q)    QCUT    max X(q) W(low)/X(q) W(high)/X(q)  e(spline)
   2      9    11.641    53.897    0.22E-03    0.42E-04    0.28E-06
   2      9    11.641    52.416    0.23E-03    0.44E-04    0.29E-06
   0     10    11.641   122.045    0.51E-04    0.25E-04    0.16E-06
   0     10    11.641    73.629    0.49E-04    0.24E-04    0.16E-06
   1     10    11.641    15.255    0.99E-04    0.55E-04    0.11E-06
   1     10    11.641     9.562    0.81E-04    0.47E-04    0.95E-07
 Optimization of the real space projectors (new method)

[...]

   l    n(q)    QCUT    max X(q) W(low)/X(q) W(high)/X(q)  e(spline)
   1      8    11.527     2.974    0.44E-04    0.56E-04    0.12E-06
   1      8    11.527     4.279    0.12E-03    0.12E-03    0.26E-06
   0      9    11.527    16.381    0.46E-04    0.64E-04    0.78E-07
   0      9    11.527     5.611    0.26E-04    0.43E-04    0.55E-07
   2      8    11.527     4.652    0.22E-03    0.72E-04    0.47E-07
 Optimization of the real space projectors (new method)

 maximal supplied QI-value         = 24.76
 optimisation between [QCUT,QGAM] = [ 11.64, 23.27] = [ 37.91,151.63] Ry
 Optimized for a Real-space Cutoff    1.14 Angstroem

   l    n(q)    QCUT    max X(q) W(low)/X(q) W(high)/X(q)  e(spline)
   0      8    11.635    20.381    0.10E-03    0.33E-03    0.24E-06
   0      8    11.635    15.268    0.11E-03    0.35E-03    0.26E-06
   1      7    11.635     5.964    0.24E-03    0.31E-03    0.30E-06
   1      7    11.635     5.382    0.22E-03    0.25E-03    0.26E-06
  PAW_PBE Ag 02Apr2005                  :
  PAW_PBE Mg_pv 13Apr2007               :
  PAW_PBE O 08Apr2002                   :

 POSCAR: Ag Mg  O
  positions in direct lattice
  velocities in cartesian coordinates

 METAGGA = SCAN     LMAXTAU =  6    LMIXTAU =  F

 ion  position               nearest neighbor table
   1  0.404  0.596  0.628-   2 2.63   4 2.74 157 2.77
   2  0.317  0.683  0.613- 138 2.50   1 2.63  59 3.04  40 3.04
   3  0.583  0.417  0.613- 173 2.50   4 2.63  75 3.04  56 3.04
   4  0.496  0.504  0.628-   3 2.63   1 2.74 154 2.77
   5  0.000  0.000  0.407- 107 2.11 108 2.11 123 2.11 188 2.11 105 2.11
   6  0.100  0.100  0.407- 107 2.11 108 2.11 112 2.11 127 2.11 106 2.11
   7  0.000  0.100  0.503- 105 2.11 106 2.11 109 2.11 186 2.11 107 2.11
   8  0.100  0.000  0.503- 105 2.11 106 2.11 122 2.11 125 2.11 108 2.11
   9  0.000  0.200  0.407- 111 2.11 107 2.11 112 2.11 192 2.11 109 2.11
  10  0.100  0.300  0.407- 112 2.11 111 2.11 116 2.11 131 2.11 110 2.11
  11  0.000  0.300  0.503- 109 2.11 110 2.11 113 2.11 190 2.11 111 2.11
  12  0.100  0.200  0.503- 110 2.11 109 2.11 106 2.11 129 2.11 112 2.11
  13  0.000  0.400  0.407- 111 2.11 115 2.11 116 2.11 196 2.11 113 2.11
  14  0.100  0.500  0.407- 115 2.11 116 2.11 120 2.11 135 2.11 114 2.11
  15  0.000  0.500  0.503- 113 2.11 114 2.11 117 2.11 194 2.11 115 2.11
  16  0.100  0.400  0.503- 110 2.11 113 2.11 114 2.11 133 2.11 116 2.11
  17  0.000  0.600  0.407- 115 2.11 119 2.11 120 2.11 200 2.11 117 2.11
  18  0.100  0.700  0.407- 124 2.11 120 2.11 119 2.11 139 2.11 118 2.11
  19  0.000  0.700  0.503- 121 2.11 118 2.11 117 2.11 198 2.11 119 2.11
  20  0.100  0.600  0.503- 114 2.11 117 2.11 118 2.11 137 2.11 120 2.11
  21  0.000  0.800  0.407- 119 2.11 123 2.11 124 2.11 204 2.11 121 2.11
  22  0.100  0.900  0.407- 108 2.11 123 2.11 124 2.11 143 2.11 122 2.11
  23  0.000  0.900  0.503- 105 2.11 121 2.11 122 2.11 202 2.11 123 2.11
  24  0.100  0.800  0.503- 118 2.11 121 2.11 122 2.11 141 2.11 124 2.11
  25  0.200  0.000  0.407- 128 2.11 127 2.11 108 2.11 143 2.11 125 2.11
  26  0.300  0.100  0.407- 127 2.11 128 2.11 132 2.11 147 2.11 126 2.11
  27  0.200  0.100  0.503- 126 2.11 125 2.11 106 2.11 129 2.11 127 2.11
  28  0.300  0.000  0.503- 125 2.11 126 2.11 142 2.11 145 2.11 128 2.11
  29  0.200  0.200  0.407- 131 2.11 132 2.11 112 2.11 127 2.11 129 2.11
  30  0.300  0.300  0.407- 131 2.11 132 2.11 136 2.11 151 2.11 130 2.11
  31  0.200  0.300  0.503- 129 2.11 130 2.11 110 2.11 133 2.11 131 2.11
  32  0.300  0.200  0.503- 129 2.11 130 2.11 126 2.11 149 2.11 132 2.11
  33  0.200  0.400  0.407- 136 2.11 131 2.11 135 2.11 116 2.11 133 2.11
  34  0.300  0.500  0.407- 135 2.11 136 2.11 140 2.11 155 2.11 134 2.11
  35  0.200  0.500  0.503- 134 2.11 133 2.11 114 2.11 137 2.11 135 2.11
  36  0.300  0.400  0.503- 133 2.11 130 2.11 134 2.11 153 2.11 136 2.11
  37  0.200  0.600  0.407- 140 2.11 135 2.11 139 2.11 120 2.11 137 2.11
  38  0.300  0.700  0.407- 139 2.11 144 2.11 140 2.11 159 2.11 138 2.11
  39  0.200  0.700  0.503- 138 2.11 141 2.11 118 2.11 137 2.11 139 2.11
  40  0.300  0.600  0.503- 137 2.11 134 2.11 138 2.11 157 2.11 140 2.11   2 3.04
  41  0.200  0.800  0.407- 139 2.11 144 2.11 143 2.11 124 2.11 141 2.11
  42  0.300  0.900  0.407- 143 2.11 128 2.11 144 2.11 163 2.11 142 2.11
  43  0.200  0.900  0.503- 142 2.11 125 2.11 141 2.11 122 2.11 143 2.11
  44  0.300  0.800  0.503- 138 2.11 141 2.11 142 2.11 161 2.11 144 2.11
  45  0.400  0.000  0.407- 128 2.11 147 2.11 148 2.11 163 2.11 145 2.11
  46  0.500  0.100  0.407- 147 2.11 148 2.11 152 2.11 167 2.11 146 2.11
  47  0.400  0.100  0.503- 126 2.11 145 2.11 146 2.11 149 2.11 147 2.11
  48  0.500  0.000  0.503- 145 2.11 146 2.11 162 2.11 165 2.11 148 2.11
  49  0.400  0.200  0.407- 151 2.11 147 2.11 132 2.11 152 2.11 149 2.11
  50  0.500  0.300  0.407- 152 2.11 151 2.11 156 2.11 171 2.11 150 2.11
  51  0.400  0.300  0.503- 149 2.11 130 2.11 150 2.11 153 2.11 151 2.11
  52  0.500  0.200  0.503- 150 2.11 149 2.11 146 2.11 169 2.11 152 2.11
  53  0.400  0.400  0.407- 136 2.11 151 2.11 155 2.11 156 2.11 153 2.11
  54  0.500  0.500  0.407- 155 2.11 156 2.11 160 2.11 175 2.11 154 2.11
  55  0.400  0.500  0.503- 134 2.11 153 2.11 154 2.11 157 2.11 155 2.11
  56  0.500  0.400  0.503- 150 2.11 153 2.11 154 2.11 173 2.11 156 2.11   3 3.04
  57  0.400  0.600  0.407- 140 2.11 155 2.11 159 2.11 160 2.11 157 2.11
  58  0.500  0.700  0.407- 164 2.11 160 2.11 159 2.11 179 2.11 158 2.11
  59  0.400  0.700  0.503- 161 2.11 157 2.11 158 2.11 138 2.11 159 2.11   2 3.04
  60  0.500  0.600  0.503- 154 2.11 157 2.11 158 2.11 177 2.11 160 2.11
[...]
 190  0.900  0.300  0.503-  92 2.11  91 2.11  11 2.11  96 2.11  90 2.11
 191  0.800  0.300  0.407-  70 2.11  89 2.11  90 2.11  93 2.11  91 2.11
 192  0.900  0.200  0.407-  90 2.11  86 2.11  89 2.11   9 2.11  92 2.11
 193  0.800  0.400  0.503-  76 2.11  91 2.11  95 2.11  96 2.11  93 2.11
 194  0.900  0.500  0.503-  15 2.11  95 2.11  96 2.11 100 2.11  94 2.11
 195  0.800  0.500  0.407-  74 2.11  93 2.11  94 2.11  97 2.11  95 2.11
 196  0.900  0.400  0.407-  13 2.11  90 2.11  93 2.11  94 2.11  96 2.11
 197  0.800  0.600  0.503-  80 2.11  95 2.11  99 2.11 100 2.11  97 2.11
 198  0.900  0.700  0.503- 104 2.11  99 2.11 100 2.11  19 2.11  98 2.11
 199  0.800  0.700  0.407-  78 2.11 101 2.11  98 2.11  97 2.11  99 2.11
 200  0.900  0.600  0.407-  17 2.11  94 2.11  97 2.11  98 2.11 100 2.11
 201  0.800  0.800  0.503-  84 2.11  99 2.11 103 2.11 104 2.11 101 2.11
 202  0.900  0.900  0.503-  23 2.11  88 2.11 103 2.11 104 2.11 102 2.11
 203  0.800  0.900  0.407-  82 2.11  85 2.11 101 2.11 102 2.11 103 2.11
 204  0.900  0.800  0.407-  98 2.11  21 2.11 101 2.11 102 2.11 104 2.11

  LATTYP: Found a simple tetragonal cell.
 ALAT       =    21.1388521970
 C/A-ratio  =     1.0461251639

  Lattice vectors:

 A1 = (  21.1388521970,   0.0000000000,   0.0000000000)
 A2 = (   0.0000000000,  21.1388521970,   0.0000000000)
 A3 = (   0.0000000000,   0.0000000000,  22.1138852197)

Analysis of symmetry for initial positions (statically):
 Subroutine PRICEL returns:
 Original cell was already a primitive cell.

 Routine SETGRP: Setting up the symmetry group for a
 simple tetragonal supercell.

 Subroutine GETGRP returns: Found  2 space group operations
 (whereof  1 operations were pure point group operations)
 out of a pool of 16 trial point group operations.

The static configuration has the point symmetry C_1 .
 The point group associated with its full space group is C_1h.

Analysis of symmetry for dynamics (positions and initial velocities):
 Subroutine PRICEL returns:
 Original cell was already a primitive cell.

[...]

The dynamic configuration has the point symmetry C_1 .
 The point group associated with its full space group is C_1h.

Analysis of constrained symmetry for selective dynamics:
 Subroutine PRICEL returns:
 Original cell was already a primitive cell.

 Routine SETGRP: Setting up the symmetry group for a
 simple tetragonal supercell.

 Subroutine GETGRP returns: Found  2 space group operations
 (whereof  1 operations were pure point group operations)
 out of a pool of 16 trial point group operations.

The constrained configuration has the point symmetry C_1 .
 The point group associated with its full space group is C_1h.

 Subroutine INISYM returns: Found  2 space group operations
 (whereof  1 operations are pure point group operations),
 and found     1 'primitive' translations

                                     Primitive cell

  volume of cell :    9881.6133

  direct lattice vectors                    reciprocal lattice vectors
[...]
     52     -44.5117      2.00000
     53     -44.5053      2.00000
     54     -44.5053      2.00000
     55     -44.5044      2.00000
     56     -44.5044      2.00000
     57     -44.5030      2.00000
     58     -44.5000      2.00000
     59     -44.5000      2.00000
     60     -44.4995      2.00000
[...]
    946       6.6548      0.00000
    947       6.6813      0.00000
    948       6.7365      0.00000
    949       6.8147      0.00000
    950       6.8598      0.00000
    951       6.8916      0.00000
    952       6.9931      0.00000
    953       7.0510      0.00000
    954       7.1929      0.00000
    955       7.2062      0.00000
    956       7.3286      0.00000
    957       7.4191      0.00000
    958       7.4463      0.00000
    959       7.4906      0.00000
    960       7.5335      0.00000

 soft charge-density along one line, spin component           1
         0         1         2         3         4         5         6         7         8         9
 total charge-density along one line

------------------------ aborting loop because EDIFF is reached ----------------------------------------

  FORCE on cell =-STRESS in cart. coord.  units (eV):
  Direction    XX          YY          ZZ          XY          YZ          ZX
  Alpha Z  1401.13727  1401.13727  1401.13727
  Ewald  484692.10145484692.10210************ -1322.16574    -0.00388    -0.00457
  Hartree514151.93750514151.93783************ -1069.08435     0.00134     0.00140
  E(xc)   -8529.77539 -8529.77537 -8521.87857    -0.26715    -0.00001     0.00006
  Local  ************************************  2383.46874     0.00033     0.00080
  n-local -8749.50299 -8749.50306 -8872.58665     1.30695    -0.00010    -0.00029
  augment  4076.97746  4076.97748  4021.60642     1.30234     0.00049     0.00165
  Kinetic 23282.32692 23282.32728 23519.24044     6.25238     0.00079     0.00116
  Fock        0.00000     0.00000     0.00000     0.00000     0.00000     0.00000
  Total    -243.09372  -243.09372   -29.06000     0.81317    -0.00041    -0.00041
  in kB     -39.41454   -39.41454    -4.71171     0.13185    -0.00007    -0.00007

 VOLUME and BASIS-vectors are now :
  energy-cutoff  :      520.00
  volume of cell :     9881.61
      direct lattice vectors                 reciprocal lattice vectors
    21.138852197  0.000000000  0.000000000     0.047306258  0.000000000  0.000000000
     0.000000000 21.138852197  0.000000000     0.000000000  0.047306258  0.000000000
     0.000000000  0.000000000 22.113885220     0.000000000  0.000000000  0.045220457

  length of vectors
    21.138852197 21.138852197 22.113885220     0.047306258  0.047306258  0.045220457

 FORCES acting on ions:
    Electron-Ion                     Ewald-Force                    Non-Local-Force
   0.248E+02 -.248E+02 -.207E+04   -.273E+02 0.273E+02 0.207E+04   0.247E+01 -.247E+01 -.392E+00
   0.235E+03 -.235E+03 -.209E+04   -.231E+03 0.231E+03 0.209E+04   -.466E+01 0.466E+01 -.623E+00
   -.235E+03 0.235E+03 -.209E+04   0.231E+03 -.231E+03 0.209E+04   0.466E+01 -.466E+01 -.623E+00
   -.248E+02 0.248E+02 -.207E+04   0.273E+02 -.273E+02 0.207E+04   -.247E+01 0.247E+01 -.392E+00
   0.489E+01 -.489E+01 0.938E+03   -.492E+01 0.492E+01 -.930E+03   0.211E-01 -.211E-01 -.746E+01
   0.905E+01 0.161E+01 0.939E+03   -.905E+01 -.156E+01 -.931E+03   -.206E-02 -.380E-01 -.747E+01
   0.313E+01 0.314E+01 -.919E+03   -.312E+01 -.312E+01 0.911E+03   -.150E-01 -.150E-01 0.740E+01
   0.146E+02 -.117E+02 -.916E+03   -.146E+02 0.118E+02 0.908E+03   0.204E-01 -.756E-01 0.740E+01
   0.161E+01 0.905E+01 0.939E+03   -.156E+01 -.905E+01 -.931E+03   -.380E-01 -.206E-02 -.747E+01
   0.143E+02 0.157E+02 0.945E+03   -.142E+02 -.157E+02 -.937E+03   -.292E-01 0.313E-02 -.748E+01
   0.211E+01 0.156E+02 -.915E+03   -.203E+01 -.156E+02 0.907E+03   -.675E-01 -.138E-02 0.740E+01
   0.130E+02 0.130E+02 -.916E+03   -.129E+02 -.129E+02 0.908E+03   -.291E-01 -.291E-01 0.740E+01
   0.445E+01 0.112E+02 0.946E+03   -.438E+01 -.112E+02 -.938E+03   -.493E-01 0.122E-01 -.748E+01
   0.288E+02 0.120E+02 0.958E+03   -.289E+02 -.121E+02 -.950E+03   0.179E-01 0.769E-01 -.749E+01
   0.127E+02 0.835E+01 -.909E+03   -.127E+02 -.838E+01 0.901E+03   -.211E-01 0.198E-01 0.739E+01
   0.305E+02 0.240E+02 -.907E+03   -.304E+02 -.241E+02 0.899E+03   -.659E-01 0.298E-01 0.738E+01
   0.128E+02 -.212E+01 0.950E+03   -.129E+02 0.210E+01 -.942E+03   0.549E-01 0.225E-01 -.748E+01
   0.337E+02 -.125E+02 0.963E+03   -.340E+02 0.125E+02 -.955E+03   0.225E+00 0.321E-01 -.748E+01
   0.225E+02 -.126E+02 -.909E+03   -.226E+02 0.125E+02 0.901E+03   0.117E+00 0.166E-01 0.739E+01
   0.606E+02 0.528E+01 -.892E+03   -.608E+02 -.541E+01 0.884E+03   0.128E+00 0.102E+00 0.737E+01
   0.120E+02 -.133E+02 0.945E+03   -.121E+02 0.133E+02 -.937E+03   0.101E+00 -.116E-01 -.747E+01
   0.168E+02 -.168E+02 0.946E+03   -.169E+02 0.169E+02 -.938E+03   0.742E-01 -.742E-01 -.745E+01
   0.117E+02 -.146E+02 -.916E+03   -.118E+02 0.146E+02 0.908E+03   0.757E-01 -.203E-01 0.740E+01
   0.428E+02 -.304E+02 -.901E+03   -.431E+02 0.304E+02 0.893E+03   0.275E+00 -.267E-01 0.741E+01
   0.133E+02 -.120E+02 0.945E+03   -.133E+02 0.122E+02 -.937E+03   0.116E-01 -.101E+00 -.747E+01
   0.112E+02 0.445E+01 0.946E+03   -.112E+02 -.438E+01 -.938E+03   0.122E-01 -.493E-01 -.748E+01
   0.156E+02 0.212E+01 -.915E+03   -.156E+02 -.203E+01 0.907E+03   -.138E-02 -.675E-01 0.740E+01
   0.126E+02 -.225E+02 -.909E+03   -.125E+02 0.226E+02 0.901E+03   -.167E-01 -.117E+00 0.739E+01
   0.157E+02 0.143E+02 0.945E+03   -.157E+02 -.142E+02 -.937E+03   0.313E-02 -.292E-01 -.748E+01
   0.263E+02 0.335E+02 0.964E+03   -.264E+02 -.335E+02 -.956E+03   0.635E-01 -.269E-02 -.752E+01
   0.333E+02 0.333E+02 -.906E+03   -.333E+02 -.333E+02 0.898E+03   -.351E-01 -.351E-01 0.737E+01
   0.240E+02 0.305E+02 -.907E+03   -.241E+02 -.304E+02 0.899E+03   0.298E-01 -.659E-01 0.738E+01
   0.335E+02 0.263E+02 0.964E+03   -.335E+02 -.264E+02 -.956E+03   -.269E-02 0.635E-01 -.752E+01
   0.466E+02 0.293E+02 0.101E+04   -.467E+02 -.296E+02 -.101E+04   0.705E-01 0.260E+00 -.767E+01
   0.816E+02 0.439E+02 -.871E+03   -.814E+02 -.441E+02 0.863E+03   -.115E+00 0.216E+00 0.729E+01
   0.719E+02 0.719E+02 -.863E+03   -.718E+02 -.718E+02 0.856E+03   -.433E-01 -.433E-01 0.728E+01
   0.513E+02 0.399E+01 0.994E+03   -.516E+02 -.427E+01 -.986E+03   0.161E+00 0.209E+00 -.746E+01
   0.340E+02 -.340E+02 0.103E+04   -.340E+02 0.339E+02 -.102E+04   -.151E-01 0.150E-01 -.612E+01
   0.116E+03 -.393E+02 -.827E+03   -.117E+03 0.391E+02 0.819E+03   0.118E+01 0.167E+00 0.745E+01
   0.123E+03 0.488E+02 -.709E+03   -.123E+03 -.506E+02 0.703E+03   0.162E+00 0.131E+01 0.630E+01
   0.324E+02 -.324E+02 0.974E+03   -.326E+02 0.326E+02 -.966E+03   0.141E+00 -.141E+00 -.732E+01
   0.125E+02 -.337E+02 0.963E+03   -.125E+02 0.340E+02 -.955E+03   -.321E-01 -.225E+00 -.748E+01
   0.304E+02 -.428E+02 -.901E+03   -.304E+02 0.431E+02 0.893E+03   0.267E-01 -.275E+00 0.741E+01
   0.393E+02 -.116E+03 -.827E+03   -.391E+02 0.117E+03 0.819E+03   -.168E+00 -.118E+01 0.745E+01
   0.213E+01 -.128E+02 0.950E+03   -.210E+01 0.129E+02 -.942E+03   -.226E-01 -.548E-01 -.748E+01
   -.213E+01 0.128E+02 0.950E+03   0.210E+01 -.129E+02 -.942E+03   0.225E-01 0.549E-01 -.748E+01
   0.835E+01 0.127E+02 -.909E+03   -.838E+01 -.127E+02 0.901E+03   0.198E-01 -.211E-01 0.739E+01
   -.835E+01 -.128E+02 -.909E+03   0.838E+01 0.127E+02 0.901E+03   -.198E-01 0.211E-01 0.739E+01
   0.120E+02 0.288E+02 0.958E+03   -.121E+02 -.289E+02 -.950E+03   0.769E-01 0.179E-01 -.749E+01
   0.399E+01 0.513E+02 0.994E+03   -.427E+01 -.516E+02 -.986E+03   0.209E+00 0.161E+00 -.746E+01
   0.439E+02 0.816E+02 -.871E+03   -.441E+02 -.814E+02 0.863E+03   0.216E+00 -.115E+00 0.729E+01
   0.528E+01 0.606E+02 -.892E+03   -.541E+01 -.608E+02 0.884E+03   0.102E+00 0.128E+00 0.737E+01
   0.293E+02 0.466E+02 0.101E+04   -.296E+02 -.467E+02 -.101E+04   0.260E+00 0.705E-01 -.767E+01
   -.111E+02 0.111E+02 0.106E+04   0.109E+02 -.109E+02 -.105E+04   0.150E+00 -.150E+00 -.725E+01
   0.857E+02 0.857E+02 -.704E+03   -.863E+02 -.863E+02 0.697E+03   0.456E+00 0.456E+00 0.677E+01
   0.488E+02 0.123E+03 -.709E+03   -.506E+02 -.123E+03 0.703E+03   0.131E+01 0.162E+00 0.630E+01
   0.111E+02 -.111E+02 0.106E+04   -.109E+02 0.109E+02 -.105E+04   -.150E+00 0.150E+00 -.725E+01
   -.293E+02 -.466E+02 0.101E+04   0.296E+02 0.467E+02 -.101E+04   -.260E+00 -.705E-01 -.767E+01
   -.487E+02 -.123E+03 -.709E+03   0.506E+02 0.123E+03 0.703E+03   -.131E+01 -.162E+00 0.630E+01
   -.857E+02 -.857E+02 -.704E+03   0.863E+02 0.863E+02 0.697E+03   -.456E+00 -.456E+00 0.677E+01
[...]
   -.193E+02 0.147E+02 0.718E+03   0.194E+02 -.148E+02 -.722E+03   -.176E+00 0.656E-01 0.357E+01
   -.621E+01 0.833E+01 0.707E+03   0.625E+01 -.834E+01 -.711E+03   -.640E-01 0.328E-01 0.353E+01
   -.458E+02 0.136E+02 -.670E+03   0.460E+02 -.135E+02 0.674E+03   -.201E+00 -.757E-01 -.367E+01
   -.151E+02 0.147E+01 -.683E+03   0.151E+02 -.144E+01 0.686E+03   -.449E-01 -.380E-01 -.366E+01
   -.261E+02 -.705E+00 0.724E+03   0.261E+02 0.794E+00 -.728E+03   -.110E+00 -.115E+00 0.352E+01
   -.107E+02 0.733E+01 0.713E+03   0.107E+02 -.732E+01 -.717E+03   -.904E-01 -.121E-01 0.352E+01
   -.345E+02 -.150E+02 -.676E+03   0.345E+02 0.151E+02 0.680E+03   -.118E-01 -.100E+00 -.370E+01
   -.432E+01 -.110E+02 -.686E+03   0.428E+01 0.110E+02 0.690E+03   0.468E-01 -.693E-02 -.365E+01
   -.157E+02 -.126E+02 0.715E+03   0.157E+02 0.126E+02 -.719E+03   0.216E-01 -.340E-01 0.350E+01
   -.650E+01 -.442E+01 0.713E+03   0.649E+01 0.444E+01 -.717E+03   0.473E-02 -.252E-01 0.351E+01
   -.145E+02 -.157E+02 -.686E+03   0.144E+02 0.157E+02 0.690E+03   0.440E-01 0.142E-01 -.365E+01
   -.118E+01 -.845E+01 -.690E+03   0.115E+01 0.845E+01 0.694E+03   0.403E-01 0.386E-02 -.363E+01
   -.765E+01 -.764E+01 0.707E+03   0.763E+01 0.763E+01 -.711E+03   0.191E-01 0.191E-01 0.351E+01
   -.153E+01 -.923E+01 0.708E+03   0.148E+01 0.924E+01 -.712E+03   0.502E-01 -.545E-02 0.352E+01
   -.727E+00 0.727E+00 0.163E+02   0.193E-11 0.134E-11 0.728E-11   -.340E-02 -.340E-02 -.154E+02

 POSITION                                       TOTAL-FORCE (eV/Angst)
      8.54453     12.59533     13.88470        -0.051467      0.050195     -0.092813
      6.69899     14.44084     13.56395         0.165736     -0.167891     -0.119026
     12.32695      8.81289     13.56395        -0.167891      0.165736     -0.119026
     10.48144     10.65841     13.88470         0.050195     -0.051467     -0.092813
      0.00000      0.00000      9.00000        -0.007046      0.007066      0.594476
      2.11389      2.11389      9.00000         0.000561      0.012298      0.596064
      0.00000      2.11389     11.11389         0.003824      0.003824     -0.567642
      2.11389      0.00000     11.11389        -0.005665      0.019256     -0.566605
      0.00000      4.22777      9.00000         0.012298      0.000561      0.596064
      2.11389      6.34166      9.00000         0.009376     -0.000937      0.599386
      0.00000      6.34166     11.11389         0.017092      0.000588     -0.564685
      2.11389      4.22777     11.11389         0.007724      0.007724     -0.565214
      0.00000      8.45554      9.00000         0.015593     -0.004072      0.598108
      2.11389     10.56943      9.00000        -0.007347     -0.026052      0.601208
      0.00000     10.56943     11.11389         0.005801     -0.005153     -0.559692
      2.11389      8.45554     11.11389         0.017854     -0.006120     -0.555412
      0.00000     12.68331      9.00000        -0.017992     -0.007736      0.598532
      2.11389     14.79720      9.00000        -0.071967     -0.010952      0.595862
      0.00000     14.79720     11.11389        -0.028796     -0.005102     -0.561233
      2.11389     12.68331     11.11389        -0.030839     -0.028250     -0.543821
      0.00000     16.91108      9.00000        -0.032739      0.004220      0.596045
      2.11389     19.02497      9.00000        -0.025641      0.025645      0.589797
      0.00000     19.02497     11.11389        -0.019246      0.005690     -0.566633
      2.11389     16.91108     11.11389        -0.071128      0.007978     -0.560883
      4.22777      0.00000      9.00000        -0.004173      0.032782      0.596054
      6.34166      2.11389      9.00000        -0.004072      0.015593      0.598108
      4.22777      2.11389     11.11389         0.000588      0.017092     -0.564685
      6.34166      0.00000     11.11389         0.005137      0.028741     -0.561194
      4.22777      4.22777      9.00000        -0.000937      0.009376      0.599386
      6.34166      6.34166      9.00000        -0.020162      0.000700      0.612244
      4.22777      6.34166     11.11389         0.010778      0.010778     -0.553875
      6.34166      4.22777     11.11389        -0.006120      0.017854     -0.555412
      4.22777      8.45554      9.00000         0.000700     -0.020162      0.612244
      6.34166     10.56943      9.00000        -0.023415     -0.083547      0.641771
      4.22777     10.56943     11.11389         0.042837     -0.044788     -0.496588
      6.34166      8.45554     11.11389         0.021746      0.021746     -0.497709
      4.22777     12.68331      9.00000        -0.058662     -0.075662      0.576963
      6.34166     14.79720      9.00000         0.004239     -0.004166      0.187825
      4.22777     14.79720     11.11389        -0.380530     -0.055535     -0.586610
      6.34166     12.68331     11.11389        -0.052425     -0.534885     -0.317868
      4.22777     16.91108      9.00000        -0.052960      0.053006      0.541785
      6.34166     19.02497      9.00000         0.010983      0.071957      0.595853
      4.22777     19.02497     11.11389        -0.007954      0.071168     -0.560860
      6.34166     16.91108     11.11389         0.055597      0.380670     -0.586620
      8.45554      0.00000      9.00000         0.007749      0.018014      0.598522
     10.56943      2.11389      9.00000        -0.007736     -0.017992      0.598532
      8.45554      2.11389     11.11389        -0.005153      0.005801     -0.559692
     10.56943      0.00000     11.11389         0.005222     -0.005829     -0.559680
      8.45554      4.22777      9.00000        -0.026052     -0.007347      0.601208
     10.56943      6.34166      9.00000        -0.075662     -0.058662      0.576963
      8.45554      6.34166     11.11389        -0.044788      0.042837     -0.496588
     10.56943      4.22777     11.11389        -0.028250     -0.030839     -0.543821
      8.45554      8.45554      9.00000        -0.083547     -0.023415      0.641771
     10.56943     10.56943      9.00000        -0.054128      0.054230      0.488421
      8.45554     10.56943     11.11389        -0.160781     -0.160781     -0.326269
     10.56943      8.45554     11.11389        -0.534885     -0.052425     -0.317868
      8.45554     12.68331      9.00000         0.054230     -0.054128      0.488421
     10.56943     14.79720      9.00000         0.083596      0.023459      0.641823
      8.45554     14.79720     11.11389         0.535216      0.052474     -0.317919
     10.56943     12.68331     11.11389         0.161020      0.161020     -0.326293
[...]
     19.02497      6.34166     11.11389        -0.027168      0.003896      0.280021
     16.91108      6.34166      9.00000        -0.049624      0.018145     -0.301407
     19.02497      4.22777      9.00000        -0.017704      0.009099     -0.312644
     16.91108      8.45554     11.11389        -0.061137     -0.020659      0.275426
     19.02497     10.56943     11.11389        -0.012836     -0.010701      0.274304
     16.91108     10.56943      9.00000        -0.032510     -0.031694     -0.314741
     19.02497      8.45554      9.00000        -0.025253     -0.003372     -0.313464
     16.91108     12.68331     11.11389        -0.004122     -0.028671      0.263657
     19.02497     14.79720     11.11389         0.013204     -0.001855      0.276811
     16.91108     14.79720      9.00000         0.005884     -0.009535     -0.320430
     19.02497     12.68331      9.00000         0.001283     -0.006943     -0.317082
     16.91108     16.91108     11.11389         0.012282      0.003957      0.276025
     19.02497     19.02497     11.11389         0.011305      0.001088      0.281811
     16.91108     19.02497      9.00000         0.005289      0.005289     -0.315794
     19.02497     16.91108      9.00000         0.013941     -0.001497     -0.315166
    total drift:                               -0.729969      0.723229      0.912380

  FREE ENERGIE OF THE ION-ELECTRON SYSTEM (eV)
  free  energy   TOTEN  =     -1744.07082838 eV

  energy  without entropy=    -1744.07082838  energy(sigma->0) =    -1744.07082838