 vasp.6.4.0 14Feb23 (build Dec 05 2023 14:15:48) complex

 executed on             LinuxIFC date 2023.12.06  15:39:55

 INCAR:
   SYSTEM = MgO-rocksalt
   ISMEAR = 0
   SIGMA = 0.05
   EDIFF = 1E-6
   ALGO = ALL
   ISTART = 0
   IBRION = -1
   NSW = 0
   ISYM = 0
   DIPOL = 0.5 0.5 0.5
   IDIPOL = 3
   LDIPOL = .TRUE.
   METAGGA = TPSS
   ENCUT = 520
   PREC = Accurate
   LASPH = .TRUE.
   LREAL = Auto
   ISPIN = 1
   NELM = 2000
   NELMIN = 8
   NCORE = 16
   KPAR = 1
   LWAVE = .FALSE.
   LCHARG = .FALSE.

 POTCAR:    PAW_PBE Ag 02Apr2005
 POTCAR:    PAW_PBE Mg_pv 13Apr2007
 POTCAR:    PAW_PBE O 08Apr2002
 POTCAR:    PAW_PBE Ag 02Apr2005
   VRHFIN =Ag : s1 d10

   TITEL  = PAW_PBE Ag 02Apr2005
   POMASS =  107.868; ZVAL   =   11.000    mass and valenz
   ENMAX  =  249.844; ENMIN  =  187.383 eV

   TITEL  = PAW_PBE Mg_pv 13Apr2007
   POMASS =   24.305; ZVAL   =    8.000    mass and valenz
   ENMAX  =  403.929; ENMIN  =  302.947 eV

   TITEL  = PAW_PBE O 08Apr2002
   POMASS =   16.000; ZVAL   =    6.000    mass and valenz
   ENMAX  =  400.000; ENMIN  =  300.000 eV

 Optimization of the real space projectors (new method)

 maximal supplied QI-value         = 15.12
 optimisation between [QCUT,QGAM] = [ 11.64, 23.28] = [ 37.95,151.78] Ry
 Optimized for a Real-space Cutoff    1.45 Angstroem

   l    n(q)    QCUT    max X(q) W(low)/X(q) W(high)/X(q)  e(spline)
   2      9    11.641    53.897    0.22E-03    0.42E-04    0.28E-06
   2      9    11.641    52.416    0.23E-03    0.44E-04    0.29E-06
   0     10    11.641   122.045    0.51E-04    0.25E-04    0.16E-06
   0     10    11.641    73.629    0.49E-04    0.24E-04    0.16E-06
   1     10    11.641    15.255    0.99E-04    0.55E-04    0.11E-06
   1     10    11.641     9.562    0.81E-04    0.47E-04    0.95E-07
 Optimization of the real space projectors (new method)

[...]

   l    n(q)    QCUT    max X(q) W(low)/X(q) W(high)/X(q)  e(spline)
   1      8    11.527     2.974    0.44E-04    0.56E-04    0.12E-06
   1      8    11.527     4.279    0.12E-03    0.12E-03    0.26E-06
   0      9    11.527    16.381    0.46E-04    0.64E-04    0.78E-07
   0      9    11.527     5.611    0.26E-04    0.43E-04    0.55E-07
   2      8    11.527     4.652    0.22E-03    0.72E-04    0.47E-07
 Optimization of the real space projectors (new method)

 maximal supplied QI-value         = 24.76
 optimisation between [QCUT,QGAM] = [ 11.64, 23.27] = [ 37.91,151.63] Ry
 Optimized for a Real-space Cutoff    1.14 Angstroem

   l    n(q)    QCUT    max X(q) W(low)/X(q) W(high)/X(q)  e(spline)
   0      8    11.635    20.381    0.10E-03    0.33E-03    0.24E-06
   0      8    11.635    15.268    0.11E-03    0.35E-03    0.26E-06
   1      7    11.635     5.964    0.24E-03    0.31E-03    0.30E-06
   1      7    11.635     5.382    0.22E-03    0.25E-03    0.26E-06
  PAW_PBE Ag 02Apr2005                  :
  PAW_PBE Mg_pv 13Apr2007               :
  PAW_PBE O 08Apr2002                   :

 POSCAR: Ag Mg  O
  positions in direct lattice
  velocities in cartesian coordinates

 METAGGA = TPSS                                        LMAXTAU =  6    LMIXTAU =  F

 ion  position               nearest neighbor table
   1  0.286  0.505  0.630-   2 2.73   3 2.73
   2  0.398  0.441  0.622-   3 2.68   4 2.73   1 2.73 153 2.78  55 2.91
   3  0.398  0.568  0.615- 157 2.59   2 2.68   1 2.73   4 2.73  55 2.88
   4  0.510  0.505  0.629-   2 2.73   3 2.73
   5  0.000  0.000  0.407- 107 2.11 108 2.11 123 2.11 188 2.11 105 2.11
   6  0.100  0.100  0.407- 107 2.11 108 2.11 112 2.11 127 2.11 106 2.11
   7  0.000  0.100  0.503- 105 2.11 106 2.11 109 2.11 186 2.11 107 2.11
   8  0.100  0.000  0.503- 105 2.11 106 2.11 122 2.11 125 2.11 108 2.11
   9  0.000  0.200  0.407- 111 2.11 107 2.11 112 2.11 192 2.11 109 2.11
  10  0.100  0.300  0.407- 112 2.11 111 2.11 116 2.11 131 2.11 110 2.11
  11  0.000  0.300  0.503- 109 2.11 110 2.11 113 2.11 190 2.11 111 2.11
  12  0.100  0.200  0.503- 110 2.11 109 2.11 106 2.11 129 2.11 112 2.11
  13  0.000  0.400  0.407- 111 2.11 115 2.11 116 2.11 196 2.11 113 2.11
  14  0.100  0.500  0.407- 115 2.11 116 2.11 120 2.11 135 2.11 114 2.11
  15  0.000  0.500  0.503- 113 2.11 114 2.11 117 2.11 194 2.11 115 2.11
  16  0.100  0.400  0.503- 110 2.11 113 2.11 114 2.11 133 2.11 116 2.11
  17  0.000  0.600  0.407- 115 2.11 119 2.11 120 2.11 200 2.11 117 2.11
  18  0.100  0.700  0.407- 124 2.11 120 2.11 119 2.11 139 2.11 118 2.11
  19  0.000  0.700  0.503- 121 2.11 118 2.11 117 2.11 198 2.11 119 2.11
  20  0.100  0.600  0.503- 114 2.11 117 2.11 118 2.11 137 2.11 120 2.11
  21  0.000  0.800  0.407- 119 2.11 123 2.11 124 2.11 204 2.11 121 2.11
  22  0.100  0.900  0.407- 108 2.11 123 2.11 124 2.11 143 2.11 122 2.11
  23  0.000  0.900  0.503- 105 2.11 121 2.11 122 2.11 202 2.11 123 2.11
  24  0.100  0.800  0.503- 118 2.11 121 2.11 122 2.11 141 2.11 124 2.11
  25  0.200  0.000  0.407- 128 2.11 127 2.11 108 2.11 143 2.11 125 2.11
  26  0.300  0.100  0.407- 127 2.11 128 2.11 132 2.11 147 2.11 126 2.11
  27  0.200  0.100  0.503- 126 2.11 125 2.11 106 2.11 129 2.11 127 2.11
  28  0.300  0.000  0.503- 125 2.11 126 2.11 142 2.11 145 2.11 128 2.11
  29  0.200  0.200  0.407- 131 2.11 132 2.11 112 2.11 127 2.11 129 2.11
  30  0.300  0.300  0.407- 131 2.11 132 2.11 136 2.11 151 2.11 130 2.11
  31  0.200  0.300  0.503- 129 2.11 130 2.11 110 2.11 133 2.11 131 2.11
  32  0.300  0.200  0.503- 129 2.11 130 2.11 126 2.11 149 2.11 132 2.11
  33  0.200  0.400  0.407- 136 2.11 131 2.11 135 2.11 116 2.11 133 2.11
  34  0.300  0.500  0.407- 135 2.11 136 2.11 140 2.11 155 2.11 134 2.11
  35  0.200  0.500  0.503- 134 2.11 133 2.11 114 2.11 137 2.11 135 2.11
  36  0.300  0.400  0.503- 133 2.11 130 2.11 134 2.11 153 2.11 136 2.11
  37  0.200  0.600  0.407- 140 2.11 135 2.11 139 2.11 120 2.11 137 2.11
  38  0.300  0.700  0.407- 139 2.11 144 2.11 140 2.11 159 2.11 138 2.11
  39  0.200  0.700  0.503- 138 2.11 141 2.11 118 2.11 137 2.11 139 2.11
  40  0.300  0.600  0.503- 137 2.11 134 2.11 138 2.11 157 2.11 140 2.11
  41  0.200  0.800  0.407- 139 2.11 144 2.11 143 2.11 124 2.11 141 2.11
  42  0.300  0.900  0.407- 143 2.11 128 2.11 144 2.11 163 2.11 142 2.11
  43  0.200  0.900  0.503- 142 2.11 125 2.11 141 2.11 122 2.11 143 2.11
  44  0.300  0.800  0.503- 138 2.11 141 2.11 142 2.11 161 2.11 144 2.11
  45  0.400  0.000  0.407- 128 2.11 147 2.11 148 2.11 163 2.11 145 2.11
  46  0.500  0.100  0.407- 147 2.11 148 2.11 152 2.11 167 2.11 146 2.11
  47  0.400  0.100  0.503- 126 2.11 145 2.11 146 2.11 149 2.11 147 2.11
  48  0.500  0.000  0.503- 145 2.11 146 2.11 162 2.11 165 2.11 148 2.11
  49  0.400  0.200  0.407- 151 2.11 147 2.11 132 2.11 152 2.11 149 2.11
  50  0.500  0.300  0.407- 152 2.11 151 2.11 156 2.11 171 2.11 150 2.11
  51  0.400  0.300  0.503- 149 2.11 130 2.11 150 2.11 153 2.11 151 2.11
  52  0.500  0.200  0.503- 150 2.11 149 2.11 146 2.11 169 2.11 152 2.11
  53  0.400  0.400  0.407- 136 2.11 151 2.11 155 2.11 156 2.11 153 2.11
  54  0.500  0.500  0.407- 155 2.11 156 2.11 160 2.11 175 2.11 154 2.11
  55  0.400  0.500  0.503- 134 2.11 153 2.11 154 2.11 157 2.11 155 2.11   3 2.88   2 2.91
  56  0.500  0.400  0.503- 150 2.11 153 2.11 154 2.11 173 2.11 156 2.11
  57  0.400  0.600  0.407- 140 2.11 155 2.11 159 2.11 160 2.11 157 2.11
  58  0.500  0.700  0.407- 164 2.11 160 2.11 159 2.11 179 2.11 158 2.11
  59  0.400  0.700  0.503- 161 2.11 157 2.11 158 2.11 138 2.11 159 2.11
  60  0.500  0.600  0.503- 154 2.11 157 2.11 158 2.11 177 2.11 160 2.11
[...]
 190  0.900  0.300  0.503-  92 2.11  91 2.11  11 2.11  96 2.11  90 2.11
 191  0.800  0.300  0.407-  70 2.11  89 2.11  90 2.11  93 2.11  91 2.11
 192  0.900  0.200  0.407-  90 2.11  86 2.11  89 2.11   9 2.11  92 2.11
 193  0.800  0.400  0.503-  76 2.11  91 2.11  95 2.11  96 2.11  93 2.11
 194  0.900  0.500  0.503-  15 2.11  95 2.11  96 2.11 100 2.11  94 2.11
 195  0.800  0.500  0.407-  74 2.11  93 2.11  94 2.11  97 2.11  95 2.11
 196  0.900  0.400  0.407-  13 2.11  90 2.11  93 2.11  94 2.11  96 2.11
 197  0.800  0.600  0.503-  80 2.11  95 2.11  99 2.11 100 2.11  97 2.11
 198  0.900  0.700  0.503- 104 2.11  99 2.11 100 2.11  19 2.11  98 2.11
 199  0.800  0.700  0.407-  78 2.11 101 2.11  98 2.11  97 2.11  99 2.11
 200  0.900  0.600  0.407-  17 2.11  94 2.11  97 2.11  98 2.11 100 2.11
 201  0.800  0.800  0.503-  84 2.11  99 2.11 103 2.11 104 2.11 101 2.11
 202  0.900  0.900  0.503-  23 2.11  88 2.11 103 2.11 104 2.11 102 2.11
 203  0.800  0.900  0.407-  82 2.11  85 2.11 101 2.11 102 2.11 103 2.11
 204  0.900  0.800  0.407-  98 2.11  21 2.11 101 2.11 102 2.11 104 2.11

IMPORTANT INFORMATION: All symmetrisations will be switched off!
NOSYMM: (Re-)initialisation of all symmetry stuff for point group C_1.

                                     Primitive cell

  volume of cell :    9881.6133

  direct lattice vectors                    reciprocal lattice vectors
    21.138852197  0.000000000  0.000000000     0.047306258  0.000000000  0.000000000
     0.000000000 21.138852197  0.000000000     0.000000000  0.047306258  0.000000000
     0.000000000  0.000000000 22.113885220     0.000000000  0.000000000  0.045220457

  length of vectors
    21.138852197 21.138852197 22.113885220     0.047306258  0.047306258  0.045220457

  position of ions in fractional coordinates (direct lattice)
     0.285624611  0.505285429  0.629857969
     0.397515318  0.441309787  0.621723730
     0.397782759  0.567771369  0.615378518
     0.509772545  0.504527893  0.628685236
     0.000000000  0.000000000  0.406984115
     0.100000000  0.100000000  0.406984115
     0.000000000  0.100000000  0.502574971
     0.100000000  0.000000000  0.502574971
     0.000000000  0.200000000  0.406984115
     0.100000000  0.300000000  0.406984115
     0.000000000  0.300000000  0.502574971
     0.100000000  0.200000000  0.502574971
     0.000000000  0.400000000  0.406984115
     0.100000000  0.500000000  0.406984115
     0.000000000  0.500000000  0.502574971
     0.100000000  0.400000000  0.502574971
     0.000000000  0.600000000  0.406984115
     0.100000000  0.700000000  0.406984115
     0.000000000  0.700000000  0.502574971
     0.100000000  0.600000000  0.502574971
     0.000000000  0.800000000  0.406984115
     0.100000000  0.900000000  0.406984115
     0.000000000  0.900000000  0.502574971
     0.100000000  0.800000000  0.502574971
     0.200000000  0.000000000  0.406984115
     0.300000000  0.100000000  0.406984115
     0.200000000  0.100000000  0.502574971
     0.300000000  0.000000000  0.502574971
     0.200000000  0.200000000  0.406984115
     0.300000000  0.300000000  0.406984115
     0.200000000  0.300000000  0.502574971
     0.300000000  0.200000000  0.502574971
     0.200000000  0.400000000  0.406984115
     0.300000000  0.500000000  0.406984115
     0.200000000  0.500000000  0.502574971
     0.300000000  0.400000000  0.502574971
     0.200000000  0.600000000  0.406984115
     0.300000000  0.700000000  0.406984115
     0.200000000  0.700000000  0.502574971
     0.300000000  0.600000000  0.502574971
     0.200000000  0.800000000  0.406984115
     0.300000000  0.900000000  0.406984115
     0.200000000  0.900000000  0.502574971
     0.300000000  0.800000000  0.502574971
[...]
     52     -43.2924      2.00000
     53     -43.2910      2.00000
     54     -43.2902      2.00000
     55     -43.2898      2.00000
     56     -43.2870      2.00000
     57     -43.2865      2.00000
     58     -43.2856      2.00000
     59     -43.2854      2.00000
     60     -43.2847      2.00000
[...]
    882       4.4146      0.00000
    883       4.4294      0.00000
    884       4.4549      0.00000
    885       4.4748      0.00000
    886       4.4895      0.00000
    887       4.4915      0.00000
    888       4.5127      0.00000
    889       4.5231      0.00000
    890       4.5489      0.00000
    891       4.5663      0.00000
    892       4.6191      0.00000
    893       4.6403      0.00000
    894       4.6691      0.00000
    895       4.7208      0.00000
    896       4.7591      0.00000

 soft charge-density along one line, spin component           1
         0         1         2         3         4         5         6         7         8         9
 total charge-density along one line

------------------------ aborting loop because EDIFF is reached ----------------------------------------

  FORCE on cell =-STRESS in cart. coord.  units (eV):
  Direction    XX          YY          ZZ          XY          YZ          ZX
  Alpha Z  1401.13727  1401.13727  1401.13727
  Ewald  484953.40071483912.36336************    -3.45277   -66.40944   -12.81358
  Hartree514347.11522513446.42098************    -3.23720   -48.80885   -10.08087
  E(xc)   -8315.47758 -8316.14794 -8341.64643    -0.00212    -0.05434    -0.00997
  Local  ************************************     6.74294   114.36757    22.88721
  n-local -8974.19241 -8977.18042 -9099.36342    -0.02094     0.17461     0.04931
  augment  4146.48667  4147.06934  4095.98532    -0.00534     0.21177    -0.02904
  Kinetic 23259.41428 23258.69590 23513.22189    -0.02266     0.53738     0.03595
  Fock        0.00000     0.00000     0.00000     0.00000     0.00000     0.00000
  Total    -165.39339  -166.04212     8.30733     0.00191     0.01870     0.03901
  in kB     -26.81642   -26.92161     1.34693     0.00031     0.00303     0.00633

 VOLUME and BASIS-vectors are now :
  energy-cutoff  :      520.00
  volume of cell :     9881.61
      direct lattice vectors                 reciprocal lattice vectors
    21.138852197  0.000000000  0.000000000     0.047306258  0.000000000  0.000000000
     0.000000000 21.138852197  0.000000000     0.000000000  0.047306258  0.000000000
     0.000000000  0.000000000 22.113885220     0.000000000  0.000000000  0.045220457

  length of vectors
    21.138852197 21.138852197 22.113885220     0.047306258  0.047306258  0.045220457

 FORCES acting on ions:
    Electron-Ion                     Ewald-Force                    Non-Local-Force
   0.480E+03 -.317E+01 -.207E+04   -.474E+03 0.321E+01 0.207E+04   -.551E+01 -.361E-01 0.953E-01
   0.197E+01 0.477E+03 -.206E+04   -.191E+01 -.471E+03 0.206E+04   -.580E-01 -.655E+01 0.816E-01
   -.110E+01 -.472E+03 -.205E+04   0.107E+01 0.466E+03 0.205E+04   0.358E-01 0.613E+01 -.176E+00
   -.480E+03 -.527E+00 -.207E+04   0.475E+03 0.553E+00 0.207E+04   0.560E+01 -.335E-01 -.942E-02
   0.656E+01 -.442E+00 0.937E+03   -.659E+01 0.445E+00 -.929E+03   0.173E-01 -.217E-02 -.793E+01
   0.126E+02 0.111E+02 0.941E+03   -.127E+02 -.111E+02 -.933E+03   0.363E-01 -.472E-03 -.793E+01
   0.948E+01 0.103E+02 -.918E+03   -.951E+01 -.103E+02 0.910E+03   0.182E-01 -.107E-01 0.788E+01
   0.134E+02 -.781E+00 -.918E+03   -.134E+02 0.786E+00 0.909E+03   0.303E-01 -.343E-02 0.788E+01
   0.107E+02 0.145E+02 0.942E+03   -.108E+02 -.145E+02 -.933E+03   0.248E-01 -.105E-01 -.794E+01
   0.289E+02 0.252E+02 0.957E+03   -.291E+02 -.251E+02 -.949E+03   0.842E-01 -.685E-02 -.796E+01
   0.229E+02 0.221E+02 -.911E+03   -.229E+02 -.221E+02 0.903E+03   0.140E-01 -.253E-01 0.787E+01
   0.259E+02 0.293E+02 -.911E+03   -.260E+02 -.292E+02 0.902E+03   0.538E-01 -.235E-01 0.787E+01
   0.213E+02 0.114E+02 0.952E+03   -.213E+02 -.114E+02 -.944E+03   0.318E-01 -.853E-02 -.795E+01
   0.473E+02 0.111E+01 0.976E+03   -.474E+02 -.112E+01 -.967E+03   0.109E+00 0.536E-02 -.800E+01
   0.382E+02 0.890E+00 -.903E+03   -.382E+02 -.892E+00 0.895E+03   -.234E-01 0.161E-02 0.785E+01
   0.719E+02 0.329E+02 -.884E+03   -.719E+02 -.328E+02 0.876E+03   0.303E-01 -.477E-01 0.783E+01
   0.218E+02 -.105E+02 0.953E+03   -.218E+02 0.105E+02 -.944E+03   0.360E-01 0.122E-01 -.795E+01
   0.303E+02 -.251E+02 0.958E+03   -.304E+02 0.251E+02 -.950E+03   0.101E+00 0.838E-02 -.796E+01
   0.239E+02 -.220E+02 -.910E+03   -.240E+02 0.220E+02 0.902E+03   0.168E-01 0.265E-01 0.787E+01
   0.747E+02 -.309E+02 -.882E+03   -.748E+02 0.308E+02 0.874E+03   0.369E-01 0.523E-01 0.782E+01
   0.112E+02 -.150E+02 0.942E+03   -.112E+02 0.150E+02 -.934E+03   0.291E-01 0.909E-02 -.794E+01
   0.130E+02 -.122E+02 0.941E+03   -.131E+02 0.123E+02 -.933E+03   0.407E-01 -.641E-02 -.793E+01
   0.982E+01 -.113E+02 -.918E+03   -.985E+01 0.112E+02 0.910E+03   0.202E-01 0.790E-02 0.788E+01
   0.274E+02 -.306E+02 -.910E+03   -.275E+02 0.306E+02 0.902E+03   0.638E-01 0.224E-01 0.787E+01
   0.112E+02 -.838E+00 0.942E+03   -.112E+02 0.846E+00 -.934E+03   0.349E-01 -.668E-02 -.793E+01
   0.854E+01 0.195E+02 0.949E+03   -.858E+01 -.196E+02 -.940E+03   0.302E-01 0.444E-01 -.793E+01
   0.174E+02 0.217E+02 -.913E+03   -.174E+02 -.218E+02 0.904E+03   0.420E-01 0.111E-01 0.788E+01
   0.894E+01 -.145E+01 -.913E+03   -.897E+01 0.146E+01 0.905E+03   0.235E-01 -.908E-02 0.788E+01
   0.207E+02 0.305E+02 0.955E+03   -.208E+02 -.305E+02 -.947E+03   0.776E-01 0.340E-01 -.794E+01
   0.247E+02 0.559E+02 0.995E+03   -.249E+02 -.561E+02 -.987E+03   0.155E+00 0.144E+00 -.791E+01
   0.597E+02 0.712E+02 -.877E+03   -.599E+02 -.712E+02 0.869E+03   0.184E+00 -.544E-01 0.783E+01
   0.217E+02 0.657E+02 -.893E+03   -.218E+02 -.658E+02 0.885E+03   0.645E-01 0.117E+00 0.787E+01
   0.519E+02 0.328E+02 0.100E+04   -.522E+02 -.328E+02 -.994E+03   0.248E+00 0.182E-01 -.803E+01
   0.471E+02 0.348E+01 0.107E+04   -.476E+02 -.354E+01 -.106E+04   0.340E+00 0.435E-01 -.796E+01
   0.154E+03 0.590E+01 -.776E+03   -.154E+03 -.590E+01 0.768E+03   0.253E+00 -.209E-02 0.713E+01
   0.103E+03 0.138E+03 -.725E+03   -.105E+03 -.138E+03 0.718E+03   0.884E+00 0.280E-01 0.712E+01
   0.538E+02 -.306E+02 0.100E+04   -.542E+02 0.306E+02 -.996E+03   0.290E+00 0.125E-02 -.803E+01
   0.264E+02 -.570E+02 0.100E+04   -.267E+02 0.573E+02 -.992E+03   0.187E+00 -.160E+00 -.789E+01
   0.643E+02 -.736E+02 -.874E+03   -.646E+02 0.735E+02 0.865E+03   0.230E+00 0.604E-01 0.782E+01
   0.113E+03 -.135E+03 -.706E+03   -.115E+03 0.135E+03 0.699E+03   0.116E+01 0.436E-01 0.685E+01
   0.219E+02 -.319E+02 0.957E+03   -.220E+02 0.320E+02 -.949E+03   0.930E-01 -.467E-01 -.794E+01
   0.891E+01 -.217E+02 0.950E+03   -.895E+01 0.218E+02 -.941E+03   0.346E-01 -.676E-01 -.794E+01
   0.182E+02 -.241E+02 -.912E+03   -.183E+02 0.242E+02 0.904E+03   0.471E-01 -.238E-01 0.787E+01
   0.236E+02 -.705E+02 -.890E+03   -.237E+02 0.707E+02 0.882E+03   0.768E-01 -.157E+00 0.787E+01
   -.177E+00 -.113E+01 0.946E+03   0.176E+00 0.115E+01 -.938E+03   0.104E-02 -.116E-01 -.793E+01
   -.886E+01 0.194E+02 0.949E+03   0.889E+01 -.194E+02 -.940E+03   -.284E-01 0.446E-01 -.793E+01
   -.282E+00 0.315E+02 -.908E+03   0.281E+00 -.316E+02 0.900E+03   0.111E-02 0.620E-01 0.788E+01
   -.928E+01 -.142E+01 -.913E+03   0.931E+01 0.143E+01 0.905E+03   -.217E-01 -.952E-02 0.788E+01
   -.334E+00 0.442E+02 0.967E+03   0.332E+00 -.445E+02 -.959E+03   0.141E-02 0.184E+00 -.795E+01
   -.254E+02 0.553E+02 0.994E+03   0.256E+02 -.555E+02 -.986E+03   -.149E+00 0.154E+00 -.791E+01
   -.132E+01 0.139E+03 -.826E+03   0.132E+01 -.140E+03 0.818E+03   0.815E-04 0.813E+00 0.797E+01
   -.224E+02 0.650E+02 -.893E+03   0.225E+02 -.651E+02 0.885E+03   -.617E-01 0.116E+00 0.787E+01
   -.929E+00 0.558E+02 0.106E+04   0.910E+00 -.560E+02 -.105E+04   0.145E-01 0.192E+00 -.692E+01
   -.485E+02 0.336E+01 0.107E+04   0.489E+02 -.342E+01 -.106E+04   -.329E+00 0.433E-01 -.791E+01
   -.349E+01 0.173E+02 -.518E+03   0.345E+01 -.177E+02 0.512E+03   0.400E-01 0.303E+00 0.540E+01
   -.105E+03 0.137E+03 -.730E+03   0.106E+03 -.137E+03 0.722E+03   -.859E+00 0.748E-01 0.714E+01
   -.104E+01 -.521E+02 0.107E+04   0.102E+01 0.523E+02 -.106E+04   0.152E-01 -.138E+00 -.658E+01
   -.273E+02 -.564E+02 0.999E+03   0.275E+02 0.567E+02 -.991E+03   -.180E+00 -.171E+00 -.789E+01
   -.166E+01 -.149E+03 -.814E+03   0.165E+01 0.151E+03 0.805E+03   0.401E-02 -.107E+01 0.800E+01
   -.115E+03 -.133E+03 -.712E+03   0.116E+03 0.133E+03 0.705E+03   -.113E+01 -.129E-02 0.690E+01
[...]
   -.114E+02 0.121E+02 0.711E+03   0.114E+02 -.121E+02 -.715E+03   -.296E-01 -.102E-01 0.349E+01
   0.178E+00 0.927E+01 0.706E+03   -.177E+00 -.926E+01 -.710E+03   -.217E-02 -.109E-01 0.350E+01
   -.236E+02 0.118E+02 -.681E+03   0.236E+02 -.118E+02 0.685E+03   -.119E-01 -.206E-01 -.362E+01
   0.590E+00 0.464E+00 -.683E+03   -.586E+00 -.466E+00 0.688E+03   -.595E-02 0.178E-02 -.361E+01
   -.172E+02 0.444E+00 0.717E+03   0.173E+02 -.447E+00 -.721E+03   -.266E-01 0.340E-02 0.347E+01
   0.339E+00 0.683E+01 0.711E+03   -.336E+00 -.683E+01 -.715E+03   -.460E-02 -.831E-02 0.349E+01
   -.242E+02 -.110E+02 -.681E+03   0.242E+02 0.110E+02 0.685E+03   -.143E-01 0.248E-01 -.362E+01
   0.403E+00 -.128E+02 -.687E+03   -.400E+00 0.128E+02 0.691E+03   -.422E-02 0.221E-01 -.360E+01
   -.118E+02 -.119E+02 0.712E+03   0.119E+02 0.119E+02 -.716E+03   -.340E-01 0.115E-01 0.349E+01
   0.356E+00 -.630E+01 0.712E+03   -.353E+00 0.629E+01 -.716E+03   -.485E-02 0.118E-01 0.349E+01
   -.108E+02 -.144E+02 -.688E+03   0.109E+02 0.144E+02 0.692E+03   -.251E-01 0.136E-01 -.359E+01
   0.177E+00 -.711E+01 -.691E+03   -.175E+00 0.711E+01 0.695E+03   -.176E-02 0.632E-02 -.358E+01
   -.560E+01 -.658E+01 0.705E+03   0.562E+01 0.658E+01 -.709E+03   -.247E-01 -.352E-03 0.350E+01
   0.196E+00 -.952E+01 0.706E+03   -.195E+00 0.951E+01 -.710E+03   -.249E-02 0.948E-02 0.350E+01
   0.197E-01 0.570E+00 0.141E+02   0.217E-11 -.112E-11 -.853E-11   -.197E-01 -.577E+00 -.148E+02

 POSITION                                       TOTAL-FORCE (eV/Angst)
      6.03778     10.68115     13.92861         0.015607     -0.003006      0.007873
      8.40302      9.32878     13.74873         0.000131      0.044839      0.017197
      8.40867     12.00204     13.60841         0.006284     -0.038077      0.022656
     10.77601     10.66514     13.90267        -0.010076     -0.004845      0.007138
      0.00000      0.00000      9.00000        -0.004793      0.000633      0.407459
      2.11389      2.11389      9.00000        -0.010090      0.000023      0.407624
      0.00000      2.11389     11.11389        -0.004925      0.002942     -0.390909
      2.11389      0.00000     11.11389        -0.008479      0.000961     -0.390696
      0.00000      4.22777      9.00000        -0.006574      0.002937      0.409084
      2.11389      6.34166      9.00000        -0.022127      0.001935      0.414761
      0.00000      6.34166     11.11389        -0.003148      0.007309     -0.385734
      2.11389      4.22777     11.11389        -0.014177      0.006510     -0.386315
      0.00000      8.45554      9.00000        -0.008302      0.002713      0.413651
      2.11389     10.56943      9.00000        -0.029121     -0.001546      0.425538
      0.00000     10.56943     11.11389         0.006589     -0.000415     -0.378874
      2.11389      8.45554     11.11389        -0.003480      0.017739     -0.356957
      0.00000     12.68331      9.00000        -0.009396     -0.003653      0.413916
      2.11389     14.79720      9.00000        -0.026420     -0.002245      0.415707
      0.00000     14.79720     11.11389        -0.003771     -0.007606     -0.385070
      2.11389     12.68331     11.11389        -0.005697     -0.019155     -0.354375
      0.00000     16.91108      9.00000        -0.007672     -0.002459      0.409304
      2.11389     19.02497      9.00000        -0.011295      0.001969      0.407630
      0.00000     19.02497     11.11389        -0.005450     -0.002109     -0.390672
      2.11389     16.91108     11.11389        -0.016681     -0.006136     -0.385178
      4.22777      0.00000      9.00000        -0.009964      0.001830      0.407183
      6.34166      2.11389      9.00000        -0.008921     -0.011780      0.407187
      4.22777      2.11389     11.11389        -0.011978     -0.002790     -0.389061
      6.34166      0.00000     11.11389        -0.006826      0.002393     -0.389844
      4.22777      4.22777      9.00000        -0.022139     -0.010117      0.407809
      6.34166      6.34166      9.00000        -0.049882     -0.044766      0.391694
      4.22777      6.34166     11.11389        -0.044689      0.018877     -0.355504
      6.34166      4.22777     11.11389        -0.020088     -0.032222     -0.385338
      4.22777      8.45554      9.00000        -0.064118     -0.003996      0.425510
      6.34166     10.56943      9.00000        -0.105881     -0.013539      0.347328
      4.22777     10.56943     11.11389        -0.100091     -0.000719     -0.224428
      6.34166      8.45554     11.11389        -0.298499      0.005687     -0.169496
      4.22777     12.68331      9.00000        -0.073776     -0.001638      0.425770
      6.34166     14.79720      9.00000        -0.060428      0.051391      0.384040
      4.22777     14.79720     11.11389        -0.054397     -0.021969     -0.345983
      6.34166     12.68331     11.11389        -0.402548     -0.012602     -0.141968
      4.22777     16.91108      9.00000        -0.026549      0.013915      0.407670
      6.34166     19.02497      9.00000        -0.010208      0.018018      0.407279
      4.22777     19.02497     11.11389        -0.013409      0.006166     -0.388342
      6.34166     16.91108     11.11389        -0.023809      0.043343     -0.382529
      8.45554      0.00000      9.00000        -0.000302      0.003107      0.407202
     10.56943      2.11389      9.00000         0.008375     -0.011849      0.407123
      8.45554      2.11389     11.11389        -0.000301     -0.015928     -0.389327
     10.56943      0.00000     11.11389         0.006312      0.002524     -0.389846
      8.45554      4.22777      9.00000        -0.000372     -0.046521      0.407494
     10.56943      6.34166      9.00000         0.048291     -0.047772      0.393118
      8.45554      6.34166     11.11389         0.000593     -0.256364     -0.425315
     10.56943      4.22777     11.11389         0.019268     -0.031631     -0.385185
      8.45554      8.45554      9.00000        -0.004731     -0.044705      0.171160
     10.56943     10.56943      9.00000         0.103143     -0.013521      0.336918
      8.45554     10.56943     11.11389         0.002433     -0.126772     -0.320058
     10.56943      8.45554     11.11389         0.279006     -0.008895     -0.160792
      8.45554     12.68331      9.00000        -0.004963      0.032046      0.097152
     10.56943     14.79720      9.00000         0.058571      0.054343      0.384721
      8.45554     14.79720     11.11389        -0.000732      0.342779     -0.447050
     10.56943     12.68331     11.11389         0.379014      0.000830     -0.141045
[...]
     19.02497      6.34166     11.11389        -0.001045     -0.005773      0.500359
     16.91108      6.34166      9.00000        -0.008306     -0.002750     -0.524634
     19.02497      4.22777      9.00000        -0.000599     -0.002964     -0.522243
     16.91108      8.45554     11.11389        -0.003610     -0.005605      0.493658
     19.02497     10.56943     11.11389        -0.001640      0.000533      0.496897
     16.91108     10.56943      9.00000        -0.007845      0.000950     -0.528998
     19.02497      8.45554      9.00000        -0.001277     -0.002388     -0.525173
     16.91108     12.68331     11.11389        -0.004331      0.006792      0.493125
     19.02497     14.79720     11.11389        -0.001160      0.006157      0.499961
     16.91108     14.79720      9.00000        -0.009487      0.003172     -0.524809
     19.02497     12.68331      9.00000        -0.001321      0.003400     -0.525343
     16.91108     16.91108     11.11389        -0.006945      0.003792      0.501203
     19.02497     19.02497     11.11389        -0.000454      0.001775      0.503922
     16.91108     19.02497      9.00000        -0.006829     -0.000049     -0.521490
     19.02497     16.91108      9.00000        -0.000684      0.002670     -0.522395
    total drift:                                0.000000     -0.006742     -0.722593

  FREE ENERGIE OF THE ION-ELECTRON SYSTEM (eV)
  free  energy   TOTEN  =     -1797.09380654 eV

  energy  without entropy=    -1797.09380654  energy(sigma->0) =    -1797.09380654