 vasp.6.3.0 20Jan22 (build Apr  1 2022 16:44:48) complex
 executed on        HPECrayEX_GCC date 2022.10.13  09:30:24

 INCAR:
   SYSTEM = MgO-rocksalt
   ISMEAR = 0
   SIGMA = 0.05
   EDIFF = 1E-6
   ALGO = ALL
   ISTART = 0
   IBRION = -1
   NSW = 0
   ISYM = 2
   DIPOL = 0.5 0.5 0.5
   IDIPOL = 3
   LDIPOL = .TRUE.
   LHFCALC = .TRUE.
   GGA = B5
   AEXX = 0.2
   AGGAX = 0.72
   AGGAC = 0.81
   ALDAC = 0.19
   IVDW = 12
   VDW_S8 = 1.9889
   VDW_A1 = 0.3981
   VDW_A2 = 4.4211
   ENCUT = 520
   PREC = Accurate
   LASPH = .TRUE.
   LREAL = Auto
   ISPIN = 1
   NELM = 200
   NELMIN = 8
   NCORE = 4
   KPAR = 2
   LWAVE = .FALSE.
   LCHARG = .FALSE.

 POTCAR:    PAW_PBE Au 04Oct2007
 POTCAR:    PAW_PBE Mg_pv 13Apr2007
 POTCAR:    PAW_PBE O 08Apr2002
|           W    W    AA    RRRRR   N    N  II  N    N   GGGG   !!!           |
|           W    W   A  A   R    R  NN   N  II  NN   N  G    G  !!!           |
|           W    W  A    A  R    R  N N  N  II  N N  N  G       !!!           |
|           W WW W  AAAAAA  RRRRR   N  N N  II  N  N N  G  GGG   !            |
|           WW  WW  A    A  R   R   N   NN  II  N   NN  G    G                |
|           W    W  A    A  R    R  N    N  II  N    N   GGGG   !!!           |
|     You have selected ISYM=2 for a HF type calculation. This will           |
|     symmetrize the charge density but not the exchange potential. I         |
|     suggest to use ISYM=3 instead. This uses symmetry to obtain the         |
|     orbitals at all k-points in the Brillouin zone, but does not apply      |
|     symmetry to the Hartree potential directly. The resultant charge        |
|     might have lower symmetry than the crystal but, at least, Hartree       |
|     and exchange are fully compatible.                                      |

   TITEL  = PAW_PBE Au 04Oct2007
   POMASS =  196.966; ZVAL   =   11.000    mass and valenz
   ENMAX  =  229.943; ENMIN  =  172.457 eV

   TITEL  = PAW_PBE Mg_pv 13Apr2007
   POMASS =   24.305; ZVAL   =    8.000    mass and valenz
   ENMAX  =  403.929; ENMIN  =  302.947 eV

   TITEL  = PAW_PBE O 08Apr2002
   POMASS =   16.000; ZVAL   =    6.000    mass and valenz
   ENMAX  =  400.000; ENMIN  =  300.000 eV

 Optimization of the real space projectors (new method)

 maximal supplied QI-value         = 15.12
 optimisation between [QCUT,QGAM] = [ 11.64, 23.28] = [ 37.95,151.78] Ry
 Optimized for a Real-space Cutoff    1.49 Angstroem

   l    n(q)    QCUT    max X(q) W(low)/X(q) W(high)/X(q)  e(spline)
   2      9    11.641    60.898    0.24E-03    0.10E-03    0.19E-06
   2      9    11.641    58.894    0.25E-03    0.10E-03    0.19E-06
   0     10    11.641   109.617    0.73E-04    0.33E-04    0.11E-06
   0     10    11.641    75.026    0.71E-04    0.32E-04    0.11E-06
   1     10    11.641    16.344    0.27E-04    0.97E-04    0.16E-06
   1     10    11.641    10.160    0.23E-04    0.77E-04    0.13E-06
 Optimization of the real space projectors (new method)

[...]

   l    n(q)    QCUT    max X(q) W(low)/X(q) W(high)/X(q)  e(spline)
   1      8    11.527     2.974    0.44E-04    0.56E-04    0.12E-06
   1      8    11.527     4.279    0.12E-03    0.12E-03    0.26E-06
   0      9    11.527    16.381    0.46E-04    0.64E-04    0.78E-07
   0      9    11.527     5.611    0.26E-04    0.43E-04    0.55E-07
   2      8    11.527     4.652    0.22E-03    0.72E-04    0.47E-07
 Optimization of the real space projectors (new method)

 maximal supplied QI-value         = 24.76
 optimisation between [QCUT,QGAM] = [ 11.64, 23.27] = [ 37.91,151.63] Ry
 Optimized for a Real-space Cutoff    1.14 Angstroem

   l    n(q)    QCUT    max X(q) W(low)/X(q) W(high)/X(q)  e(spline)
   0      8    11.635    20.381    0.10E-03    0.33E-03    0.24E-06
   0      8    11.635    15.268    0.11E-03    0.35E-03    0.26E-06
   1      7    11.635     5.964    0.24E-03    0.31E-03    0.30E-06
   1      7    11.635     5.382    0.22E-03    0.25E-03    0.26E-06
|               ----> ADVICE to this user running VASP <----                  |
|     You enforced a specific xc type in the INCAR file but a different       |
|     type was found in the POTCAR file.                                      |
|     I HOPE YOU KNOW WHAT YOU ARE DOING!                                     |

  PAW_PBE Au 04Oct2007                  :
  PAW_PBE Mg_pv 13Apr2007               :
  PAW_PBE O 08Apr2002                   :

 POSCAR: Au Mg  O
  positions in direct lattice
 exchange correlation table for  LEXCH =       12
   RHO(1)=    0.500       N(1)  =     2000
   RHO(2)=  100.500       N(2)  =     4000

 ion  position               nearest neighbor table
   1  0.500  0.600  0.740-   2 2.53
   2  0.500  0.600  0.626-   1 2.53  58 2.73
   3  0.000  0.000  0.407- 105 2.11 106 2.11 121 2.11 186 2.11 103 2.11
   4  0.100  0.100  0.407- 105 2.11 106 2.11 110 2.11 125 2.11 104 2.11
   5  0.000  0.100  0.503- 103 2.11 104 2.11 107 2.11 184 2.11 105 2.11
   6  0.100  0.000  0.503- 103 2.11 104 2.11 120 2.11 123 2.11 106 2.11
   7  0.000  0.200  0.407- 109 2.11 105 2.11 110 2.11 190 2.11 107 2.11
   8  0.100  0.300  0.407- 110 2.11 109 2.11 114 2.11 129 2.11 108 2.11
   9  0.000  0.300  0.503- 107 2.11 108 2.11 111 2.11 188 2.11 109 2.11
  10  0.100  0.200  0.503- 108 2.11 107 2.11 104 2.11 127 2.11 110 2.11
  11  0.000  0.400  0.407- 109 2.11 113 2.11 114 2.11 194 2.11 111 2.11
  12  0.100  0.500  0.407- 113 2.11 114 2.11 118 2.11 133 2.11 112 2.11
  13  0.000  0.500  0.503- 111 2.11 112 2.11 115 2.11 192 2.11 113 2.11
  14  0.100  0.400  0.503- 108 2.11 111 2.11 112 2.11 131 2.11 114 2.11
  15  0.000  0.600  0.407- 113 2.11 117 2.11 118 2.11 198 2.11 115 2.11
  16  0.100  0.700  0.407- 122 2.11 118 2.11 117 2.11 137 2.11 116 2.11
  17  0.000  0.700  0.503- 119 2.11 116 2.11 115 2.11 196 2.11 117 2.11
  18  0.100  0.600  0.503- 112 2.11 115 2.11 116 2.11 135 2.11 118 2.11
  19  0.000  0.800  0.407- 117 2.11 121 2.11 122 2.11 202 2.11 119 2.11
  20  0.100  0.900  0.407- 106 2.11 121 2.11 122 2.11 141 2.11 120 2.11
  21  0.000  0.900  0.503- 103 2.11 119 2.11 120 2.11 200 2.11 121 2.11
  22  0.100  0.800  0.503- 116 2.11 119 2.11 120 2.11 139 2.11 122 2.11
  23  0.200  0.000  0.407- 126 2.11 125 2.11 106 2.11 141 2.11 123 2.11
  24  0.300  0.100  0.407- 125 2.11 126 2.11 130 2.11 145 2.11 124 2.11
  25  0.200  0.100  0.503- 124 2.11 123 2.11 104 2.11 127 2.11 125 2.11
  26  0.300  0.000  0.503- 123 2.11 124 2.11 140 2.11 143 2.11 126 2.11
  27  0.200  0.200  0.407- 129 2.11 130 2.11 110 2.11 125 2.11 127 2.11
  28  0.300  0.300  0.407- 129 2.11 130 2.11 134 2.11 149 2.11 128 2.11
  29  0.200  0.300  0.503- 127 2.11 128 2.11 108 2.11 131 2.11 129 2.11
  30  0.300  0.200  0.503- 127 2.11 128 2.11 124 2.11 147 2.11 130 2.11
  31  0.200  0.400  0.407- 134 2.11 129 2.11 133 2.11 114 2.11 131 2.11
  32  0.300  0.500  0.407- 133 2.11 134 2.11 138 2.11 153 2.11 132 2.11
  33  0.200  0.500  0.503- 132 2.11 131 2.11 112 2.11 135 2.11 133 2.11
  34  0.300  0.400  0.503- 131 2.11 128 2.11 132 2.11 151 2.11 134 2.11
  35  0.200  0.600  0.407- 138 2.11 133 2.11 137 2.11 118 2.11 135 2.11
  36  0.300  0.700  0.407- 137 2.11 142 2.11 138 2.11 157 2.11 136 2.11
  37  0.200  0.700  0.503- 136 2.11 139 2.11 116 2.11 135 2.11 137 2.11
  38  0.300  0.600  0.503- 135 2.11 132 2.11 136 2.11 155 2.11 138 2.11
  39  0.200  0.800  0.407- 137 2.11 142 2.11 141 2.11 122 2.11 139 2.11
  40  0.300  0.900  0.407- 141 2.11 126 2.11 142 2.11 161 2.11 140 2.11
  41  0.200  0.900  0.503- 140 2.11 123 2.11 139 2.11 120 2.11 141 2.11
  42  0.300  0.800  0.503- 136 2.11 139 2.11 140 2.11 159 2.11 142 2.11
  43  0.400  0.000  0.407- 126 2.11 145 2.11 146 2.11 161 2.11 143 2.11
  44  0.500  0.100  0.407- 145 2.11 146 2.11 150 2.11 165 2.11 144 2.11
  45  0.400  0.100  0.503- 124 2.11 143 2.11 144 2.11 147 2.11 145 2.11
  46  0.500  0.000  0.503- 143 2.11 144 2.11 160 2.11 163 2.11 146 2.11
  47  0.400  0.200  0.407- 149 2.11 145 2.11 130 2.11 150 2.11 147 2.11
  48  0.500  0.300  0.407- 150 2.11 149 2.11 154 2.11 169 2.11 148 2.11
  49  0.400  0.300  0.503- 147 2.11 128 2.11 148 2.11 151 2.11 149 2.11
  50  0.500  0.200  0.503- 148 2.11 147 2.11 144 2.11 167 2.11 150 2.11
  51  0.400  0.400  0.407- 134 2.11 149 2.11 153 2.11 154 2.11 151 2.11
  52  0.500  0.500  0.407- 153 2.11 154 2.11 158 2.11 173 2.11 152 2.11
  53  0.400  0.500  0.503- 132 2.11 151 2.11 152 2.11 155 2.11 153 2.11
  54  0.500  0.400  0.503- 148 2.11 151 2.11 152 2.11 171 2.11 154 2.11
  55  0.400  0.600  0.407- 138 2.11 153 2.11 157 2.11 158 2.11 155 2.11
  56  0.500  0.700  0.407- 162 2.11 158 2.11 157 2.11 177 2.11 156 2.11
  57  0.400  0.700  0.503- 159 2.11 155 2.11 156 2.11 136 2.11 157 2.11
  58  0.500  0.600  0.503- 152 2.11 155 2.11 156 2.11 175 2.11 158 2.11   2 2.73
  59  0.400  0.800  0.407- 157 2.11 142 2.11 161 2.11 162 2.11 159 2.11
  60  0.500  0.900  0.407- 146 2.11 161 2.11 162 2.11 181 2.11 160 2.11
[...]
 188  0.900  0.300  0.503-  90 2.11  89 2.11   9 2.11  94 2.11  88 2.11
 189  0.800  0.300  0.407-  68 2.11  87 2.11  88 2.11  91 2.11  89 2.11
 190  0.900  0.200  0.407-  88 2.11  84 2.11  87 2.11   7 2.11  90 2.11
 191  0.800  0.400  0.503-  74 2.11  89 2.11  93 2.11  94 2.11  91 2.11
 192  0.900  0.500  0.503-  13 2.11  93 2.11  94 2.11  98 2.11  92 2.11
 193  0.800  0.500  0.407-  72 2.11  91 2.11  92 2.11  95 2.11  93 2.11
 194  0.900  0.400  0.407-  11 2.11  88 2.11  91 2.11  92 2.11  94 2.11
 195  0.800  0.600  0.503-  78 2.11  93 2.11  97 2.11  98 2.11  95 2.11
 196  0.900  0.700  0.503- 102 2.11  97 2.11  98 2.11  17 2.11  96 2.11
 197  0.800  0.700  0.407-  76 2.11  99 2.11  96 2.11  95 2.11  97 2.11
 198  0.900  0.600  0.407-  15 2.11  92 2.11  95 2.11  96 2.11  98 2.11
 199  0.800  0.800  0.503-  82 2.11  97 2.11 101 2.11 102 2.11  99 2.11
 200  0.900  0.900  0.503-  21 2.11  86 2.11 101 2.11 102 2.11 100 2.11
 201  0.800  0.900  0.407-  80 2.11  83 2.11  99 2.11 100 2.11 101 2.11
 202  0.900  0.800  0.407-  96 2.11  19 2.11  99 2.11 100 2.11 102 2.11

  LATTYP: Found a simple tetragonal cell.
 ALAT       =    21.1388521970
 C/A-ratio  =     1.0461251639

  Lattice vectors:

 A1 = (  21.1388521970,   0.0000000000,   0.0000000000)
 A2 = (   0.0000000000,  21.1388521970,   0.0000000000)
 A3 = (   0.0000000000,   0.0000000000,  22.1138852197)

Analysis of symmetry for initial positions (statically):
 Subroutine PRICEL returns:
 Original cell was already a primitive cell.

 Routine SETGRP: Setting up the symmetry group for a
 simple tetragonal supercell.

 Subroutine GETGRP returns: Found  8 space group operations
 (whereof  2 operations were pure point group operations)
 out of a pool of 16 trial point group operations.

The static configuration has the point symmetry C_1h.
 The point group associated with its full space group is C_4v.

Analysis of symmetry for dynamics (positions and initial velocities):
 Subroutine PRICEL returns:
 Original cell was already a primitive cell.

 Routine SETGRP: Setting up the symmetry group for a
 simple tetragonal supercell.

 Subroutine GETGRP returns: Found  8 space group operations
 (whereof  2 operations were pure point group operations)
 out of a pool of 16 trial point group operations.

[...]
     40     -46.3620      2.00000
     41     -46.3593      2.00000
     42     -46.3593      2.00000
     43     -46.3590      2.00000
     44     -46.3590      2.00000
     45     -46.3589      2.00000
     46     -46.3586      2.00000
     47     -46.3576      2.00000
     48     -46.3576      2.00000
     49     -46.3571      2.00000
     50     -46.3571      2.00000
     51     -46.3561      2.00000
     52     -46.3558      2.00000
     53     -46.3558      2.00000
     54     -46.3558      2.00000
     55     -46.3556      2.00000
     56     -46.3550      2.00000
     57     -46.3548      2.00000
     58     -46.3548      2.00000
     59     -46.3548      2.00000
     60     -46.3531      2.00000
[...]
    882       5.1885      0.00000
    883       5.2142      0.00000
    884       5.2481      0.00000
    885       5.2991      0.00000
    886       5.3426      0.00000
    887       5.4490      0.00000
    888       5.5138      0.00000
    889       5.6319      0.00000
    890       5.7422      0.00000
    891       5.8952      0.00000
    892       5.9373      0.00000
    893       6.0504      0.00000
    894       6.1124      0.00000
    895       6.1730      0.00000
    896       6.2064      0.00000

 soft charge-density along one line, spin component           1
         0         1         2         3         4         5         6         7         8         9
 total charge-density along one line

------------------------ aborting loop because EDIFF is reached ----------------------------------------

 WARNING: Using user supplied parameters
     VDW_A1 = 0.398
     VDW_A2 = 4.421
     VDW_S8 = 1.989
     because the xc functional is not supported. Required parameters not
     defined in the INCAR file will be replaced with PBE defaults ones.

         DFTD3 V3.0 Rev 1
 IVDW         = 12
 DF unknown
 parameters
 VDW_S6       =    1.0000
 VDW_S8       =    1.9889
 VDW_A1       =    0.3981
 VDW_A2       =    4.4211
 k1-k3        =   16.0000    1.3333   -4.0000
 VDW_RADIUS   =   50.2022 A
 VDW_CNRADIUS =   21.1671 A
 Edisp (eV)  -60.90645

 E6    (eV) :   -20.8274
 E8    (eV) :   -40.0790
 % E8        : 65.80

 VOLUME and BASIS-vectors are now :
  energy-cutoff  :      520.00
  volume of cell :     9881.61
      direct lattice vectors                 reciprocal lattice vectors
    21.138852197  0.000000000  0.000000000     0.047306258  0.000000000  0.000000000
     0.000000000 21.138852197  0.000000000     0.000000000  0.047306258  0.000000000
     0.000000000  0.000000000 22.113885220     0.000000000  0.000000000  0.045220457

  length of vectors
    21.138852197 21.138852197 22.113885220     0.047306258  0.047306258  0.045220457

 FORCES acting on ions:
    Electron-Ion                     Ewald-Force                    Non-Local-Force
   0.276E-03 0.283E-07 -.162E+04   -.901E-08 -.213E-07 0.161E+04   0.000E+00 -.339E-20 0.691E+01
   0.280E-03 0.827E-05 -.178E+04   -.329E-05 -.778E-05 0.178E+04   0.000E+00 0.169E-20 -.594E+01
   0.526E-04 -.299E+01 0.931E+03   -.939E-06 0.300E+01 -.923E+03   0.000E+00 -.367E-02 -.670E+01
   0.299E+01 -.321E-03 0.931E+03   -.300E+01 -.222E-05 -.923E+03   0.367E-02 0.339E-20 -.670E+01
   0.520E-04 -.321E-03 -.922E+03   -.102E-05 -.242E-05 0.915E+03   0.000E+00 -.339E-20 0.667E+01
   0.436E+01 -.436E+01 -.922E+03   -.436E+01 0.436E+01 0.914E+03   0.309E-02 -.309E-02 0.667E+01
   0.526E-04 0.299E+01 0.931E+03   -.939E-06 -.300E+01 -.923E+03   0.000E+00 0.367E-02 -.670E+01
   0.466E+01 0.581E+01 0.932E+03   -.467E+01 -.583E+01 -.925E+03   0.881E-02 0.872E-02 -.670E+01
   0.529E-04 0.630E+01 -.921E+03   -.168E-05 -.630E+01 0.913E+03   0.000E+00 0.382E-02 0.667E+01
   0.436E+01 0.436E+01 -.922E+03   -.436E+01 -.436E+01 0.914E+03   0.309E-02 0.309E-02 0.667E+01
   0.534E-04 0.524E+01 0.933E+03   -.174E-05 -.525E+01 -.925E+03   0.000E+00 0.651E-02 -.670E+01
   0.830E+01 0.407E+01 0.936E+03   -.833E+01 -.408E+01 -.928E+03   0.262E-01 0.648E-02 -.671E+01
   0.548E-04 0.434E+01 -.918E+03   -.317E-05 -.435E+01 0.911E+03   0.000E+00 0.255E-02 0.666E+01
   0.933E+01 0.829E+01 -.918E+03   -.934E+01 -.829E+01 0.911E+03   0.104E-01 0.560E-02 0.666E+01
   0.541E-04 -.325E-03 0.935E+03   -.237E-05 0.226E-05 -.927E+03   0.000E+00 0.000E+00 -.670E+01
   0.830E+01 -.407E+01 0.936E+03   -.833E+01 0.408E+01 -.928E+03   0.262E-01 -.648E-02 -.671E+01
   0.548E-04 -.434E+01 -.918E+03   -.317E-05 0.435E+01 0.911E+03   0.000E+00 -.255E-02 0.666E+01
   0.138E+02 -.327E-03 -.916E+03   -.139E+02 0.380E-05 0.908E+03   0.190E-01 0.000E+00 0.666E+01
   0.534E-04 -.525E+01 0.933E+03   -.174E-05 0.525E+01 -.925E+03   0.000E+00 -.651E-02 -.670E+01
   0.466E+01 -.582E+01 0.932E+03   -.467E+01 0.583E+01 -.925E+03   0.881E-02 -.872E-02 -.670E+01
   0.529E-04 -.630E+01 -.921E+03   -.168E-05 0.630E+01 0.913E+03   0.000E+00 -.382E-02 0.667E+01
   0.933E+01 -.829E+01 -.918E+03   -.934E+01 0.829E+01 0.911E+03   0.104E-01 -.560E-02 0.666E+01
   0.581E+01 -.466E+01 0.932E+03   -.583E+01 0.467E+01 -.925E+03   0.872E-02 -.881E-02 -.670E+01
   0.525E+01 -.319E-03 0.933E+03   -.525E+01 -.411E-05 -.925E+03   0.651E-02 0.339E-20 -.670E+01
   0.630E+01 -.319E-03 -.921E+03   -.630E+01 -.399E-05 0.913E+03   0.382E-02 0.424E-21 0.667E+01
   0.829E+01 -.933E+01 -.918E+03   -.829E+01 0.934E+01 0.911E+03   0.560E-02 -.104E-01 0.666E+01
   0.581E+01 0.466E+01 0.932E+03   -.583E+01 -.467E+01 -.925E+03   0.872E-02 0.881E-02 -.670E+01
   0.932E+01 0.121E+02 0.938E+03   -.935E+01 -.122E+02 -.931E+03   0.233E-01 0.344E-01 -.671E+01
   0.116E+02 0.116E+02 -.918E+03   -.116E+02 -.116E+02 0.910E+03   0.109E-01 0.109E-01 0.666E+01
   0.829E+01 0.933E+01 -.918E+03   -.829E+01 -.934E+01 0.911E+03   0.560E-02 0.104E-01 0.666E+01
   0.121E+02 0.932E+01 0.938E+03   -.122E+02 -.935E+01 -.931E+03   0.344E-01 0.233E-01 -.671E+01
   0.216E+02 0.112E+02 0.954E+03   -.218E+02 -.113E+02 -.946E+03   0.108E+00 0.618E-01 -.673E+01
   0.268E+02 0.102E+02 -.909E+03   -.269E+02 -.102E+02 0.901E+03   0.472E-01 0.865E-02 0.665E+01
   0.256E+02 0.256E+02 -.904E+03   -.256E+02 -.256E+02 0.896E+03   0.403E-01 0.403E-01 0.664E+01
   0.180E+02 -.328E-03 0.944E+03   -.182E+02 0.448E-05 -.936E+03   0.100E+00 0.339E-20 -.673E+01
   0.216E+02 -.112E+02 0.954E+03   -.218E+02 0.113E+02 -.946E+03   0.108E+00 -.618E-01 -.673E+01
   0.268E+02 -.102E+02 -.909E+03   -.269E+02 0.102E+02 0.901E+03   0.472E-01 -.865E-02 0.665E+01
   0.545E+02 -.340E-03 -.881E+03   -.549E+02 0.174E-04 0.873E+03   0.319E+00 0.424E-20 0.661E+01
   0.121E+02 -.932E+01 0.938E+03   -.122E+02 0.935E+01 -.931E+03   0.344E-01 -.233E-01 -.671E+01
   0.932E+01 -.121E+02 0.938E+03   -.935E+01 0.122E+02 -.931E+03   0.233E-01 -.344E-01 -.671E+01
   0.116E+02 -.116E+02 -.918E+03   -.116E+02 0.116E+02 0.910E+03   0.109E-01 -.109E-01 0.666E+01
   0.256E+02 -.256E+02 -.904E+03   -.256E+02 0.256E+02 0.896E+03   0.403E-01 -.403E-01 0.664E+01
   0.407E+01 -.830E+01 0.936E+03   -.408E+01 0.833E+01 -.928E+03   0.648E-02 -.262E-01 -.671E+01
   0.526E-04 -.318E-03 0.935E+03   0.956E-06 -.562E-05 -.927E+03   0.000E+00 0.339E-20 -.670E+01
   0.434E+01 -.316E-03 -.918E+03   -.435E+01 -.751E-05 0.911E+03   0.255E-02 -.339E-20 0.666E+01
   0.525E-04 -.138E+02 -.916E+03   0.161E-05 0.139E+02 0.908E+03   0.000E+00 -.190E-01 0.666E+01
   0.407E+01 0.830E+01 0.936E+03   -.408E+01 -.833E+01 -.928E+03   0.648E-02 0.262E-01 -.671E+01
   0.522E-04 0.180E+02 0.944E+03   0.189E-05 -.182E+02 -.936E+03   0.000E+00 0.100E+00 -.673E+01
   0.102E+02 0.268E+02 -.909E+03   -.102E+02 -.269E+02 0.901E+03   0.865E-02 0.472E-01 0.665E+01
   0.525E-04 0.138E+02 -.916E+03   0.161E-05 -.139E+02 0.908E+03   0.000E+00 0.190E-01 0.666E+01
   0.112E+02 0.216E+02 0.954E+03   -.113E+02 -.218E+02 -.946E+03   0.618E-01 0.108E+00 -.673E+01
   0.501E-04 0.224E+02 0.981E+03   0.591E-05 -.225E+02 -.974E+03   0.000E+00 0.648E-01 -.644E+01
   0.501E+02 0.501E+02 -.848E+03   -.505E+02 -.505E+02 0.840E+03   0.265E+00 0.265E+00 0.662E+01
   0.507E-04 0.545E+02 -.881E+03   0.733E-05 -.549E+02 0.873E+03   0.000E+00 0.319E+00 0.661E+01
   0.224E+02 -.337E-03 0.981E+03   -.225E+02 0.140E-04 -.974E+03   0.648E-01 -.847E-21 -.644E+01
   0.501E-04 -.224E+02 0.981E+03   0.591E-05 0.225E+02 -.974E+03   0.000E+00 -.648E-01 -.644E+01
   0.501E+02 -.501E+02 -.848E+03   -.505E+02 0.505E+02 0.840E+03   0.265E+00 -.265E+00 0.662E+01
   0.334E-04 -.416E-03 -.714E+03   0.388E-04 0.919E-04 0.707E+03   0.339E-20 0.339E-20 0.583E+01
   0.112E+02 -.216E+02 0.954E+03   -.113E+02 0.218E+02 -.946E+03   0.618E-01 -.108E+00 -.673E+01
   0.522E-04 -.180E+02 0.944E+03   0.189E-05 0.182E+02 -.936E+03   0.000E+00 -.100E+00 -.673E+01
[...]
   -.619E+01 0.618E+01 0.703E+03   0.620E+01 -.620E+01 -.707E+03   -.180E-01 0.180E-01 0.317E+01
   -.256E+01 0.256E+01 0.700E+03   0.257E+01 -.257E+01 -.704E+03   -.526E-02 0.526E-02 0.318E+01
   -.139E+02 0.104E+02 -.687E+03   0.140E+02 -.104E+02 0.691E+03   -.270E-01 0.212E-01 -.324E+01
   -.934E+01 0.416E+01 -.689E+03   0.935E+01 -.417E+01 0.693E+03   -.151E-01 0.570E-02 -.324E+01
   -.122E+02 0.483E+01 0.708E+03   0.122E+02 -.485E+01 -.712E+03   -.555E-01 0.275E-01 0.316E+01
   -.488E+01 0.466E+01 0.702E+03   0.489E+01 -.467E+01 -.706E+03   -.150E-01 0.121E-01 0.317E+01
   -.232E+02 -.157E-02 -.681E+03   0.232E+02 0.545E-05 0.686E+03   -.534E-01 0.635E-20 -.327E+01
   -.934E+01 -.417E+01 -.689E+03   0.935E+01 0.417E+01 0.693E+03   -.151E-01 -.570E-02 -.324E+01
   -.122E+02 -.483E+01 0.708E+03   0.122E+02 0.485E+01 -.712E+03   -.555E-01 -.275E-01 0.316E+01
   -.681E+01 -.157E-02 0.704E+03   0.683E+01 0.207E-05 -.708E+03   -.241E-01 -.847E-21 0.317E+01
   -.139E+02 -.104E+02 -.687E+03   0.140E+02 0.104E+02 0.691E+03   -.270E-01 -.212E-01 -.324E+01
   -.473E+01 -.567E+01 -.692E+03   0.473E+01 0.567E+01 0.696E+03   -.655E-02 -.707E-02 -.322E+01
   -.619E+01 -.619E+01 0.703E+03   0.620E+01 0.620E+01 -.707E+03   -.180E-01 -.180E-01 0.317E+01
   -.488E+01 -.466E+01 0.702E+03   0.489E+01 0.467E+01 -.706E+03   -.150E-01 -.121E-01 0.317E+01
   -.970E-02 -.190E+00 0.483E+01   0.135E-11 0.108E-11 0.124E-10   0.451E-16 -.399E-16 -.451E+01

 POSITION                                       TOTAL-FORCE (eV/Angst)
     10.56943     12.68331     16.36975         0.000000     -0.000000      0.287024
     10.56943     12.68331     13.84123         0.000000     -0.000000     -0.312647
      0.00000      0.00000      9.00000         0.000000      0.001129      0.530859
      2.11389      2.11389      9.00000        -0.001129     -0.000000      0.530859
      0.00000      2.11389     11.11389         0.000000     -0.000000     -0.519953
      2.11389      0.00000     11.11389        -0.000895      0.000895     -0.518880
      0.00000      4.22777      9.00000         0.000000     -0.001129      0.530859
      2.11389      6.34166      9.00000        -0.002689     -0.002725      0.531589
      0.00000      6.34166     11.11389         0.000000     -0.001156     -0.518501
      2.11389      4.22777     11.11389        -0.000895     -0.000895     -0.518880
      0.00000      8.45554      9.00000         0.000000     -0.002054      0.531813
      2.11389     10.56943      9.00000        -0.007773     -0.002098      0.533040
      0.00000     10.56943     11.11389         0.000000     -0.000770     -0.516667
      2.11389      8.45554     11.11389        -0.002764     -0.001628     -0.516230
      0.00000     12.68331      9.00000         0.000000     -0.000000      0.532768
      2.11389     14.79720      9.00000        -0.007773      0.002098      0.533040
      0.00000     14.79720     11.11389         0.000000      0.000770     -0.516667
      2.11389     12.68331     11.11389        -0.004636     -0.000000     -0.514316
      0.00000     16.91108      9.00000         0.000000      0.002054      0.531813
      2.11389     19.02497      9.00000        -0.002689      0.002725      0.531589
      0.00000     19.02497     11.11389         0.000000      0.001156     -0.518501
      2.11389     16.91108     11.11389        -0.002764      0.001628     -0.516230
      4.22777      0.00000      9.00000        -0.002725      0.002689      0.531589
      6.34166      2.11389      9.00000        -0.002054     -0.000000      0.531813
      4.22777      2.11389     11.11389        -0.001156     -0.000000     -0.518501
      6.34166      0.00000     11.11389        -0.001628      0.002764     -0.516230
      4.22777      4.22777      9.00000        -0.002725     -0.002689      0.531589
      6.34166      6.34166      9.00000        -0.007225     -0.010393      0.533802
      4.22777      6.34166     11.11389        -0.002953     -0.002953     -0.515814
      6.34166      4.22777     11.11389        -0.001628     -0.002764     -0.516230
      4.22777      8.45554      9.00000        -0.010393     -0.007225      0.533802
      6.34166     10.56943      9.00000        -0.032919     -0.020910      0.539342
      4.22777     10.56943     11.11389        -0.010846     -0.002211     -0.506694
      6.34166      8.45554     11.11389        -0.008050     -0.008050     -0.500986
      4.22777     12.68331      9.00000        -0.028370     -0.000000      0.540574
      6.34166     14.79720      9.00000        -0.032919      0.020910      0.539342
      4.22777     14.79720     11.11389        -0.010846      0.002211     -0.506694
      6.34166     12.68331     11.11389        -0.082391     -0.000000     -0.459989
      4.22777     16.91108      9.00000        -0.010393      0.007225      0.533802
      6.34166     19.02497      9.00000        -0.007225      0.010393      0.533802
      4.22777     19.02497     11.11389        -0.002953      0.002953     -0.515814
      6.34166     16.91108     11.11389        -0.008050      0.008050     -0.500986
      8.45554      0.00000      9.00000        -0.002098      0.007773      0.533040
     10.56943      2.11389      9.00000         0.000000     -0.000000      0.532768
      8.45554      2.11389     11.11389        -0.000770     -0.000000     -0.516667
     10.56943      0.00000     11.11389         0.000000      0.004636     -0.514316
      8.45554      4.22777      9.00000        -0.002098     -0.007773      0.533040
     10.56943      6.34166      9.00000         0.000000     -0.028370      0.540574
      8.45554      6.34166     11.11389        -0.002211     -0.010846     -0.506694
     10.56943      4.22777     11.11389         0.000000     -0.004636     -0.514316
      8.45554      8.45554      9.00000        -0.020910     -0.032919      0.539342
     10.56943     10.56943      9.00000         0.000000     -0.010551      0.462122
      8.45554     10.56943     11.11389        -0.060470     -0.060470     -0.424043
     10.56943      8.45554     11.11389         0.000000     -0.082391     -0.459989
      8.45554     12.68331      9.00000        -0.010551     -0.000000      0.462122
     10.56943     14.79720      9.00000         0.000000      0.010551      0.462122
      8.45554     14.79720     11.11389        -0.060470      0.060470     -0.424043
     10.56943     12.68331     11.11389         0.000000     -0.000000     -1.169858
      8.45554     16.91108      9.00000        -0.020910      0.032919      0.539342
     10.56943     19.02497      9.00000         0.000000      0.028370      0.540574
[...]
     19.02497      6.34166     11.11389        -0.002120      0.002258      0.395445
     16.91108      6.34166      9.00000        -0.005792      0.005792     -0.410700
     19.02497      4.22777      9.00000        -0.001708      0.001708     -0.409449
     16.91108      8.45554     11.11389        -0.008788      0.006901      0.389416
     19.02497     10.56943     11.11389        -0.004955      0.001839      0.391828
     16.91108     10.56943      9.00000        -0.017787      0.008761     -0.413368
     19.02497      8.45554      9.00000        -0.004836      0.003891     -0.410569
     16.91108     12.68331     11.11389        -0.017832     -0.000000      0.381786
     19.02497     14.79720     11.11389        -0.004955     -0.001839      0.391828
     16.91108     14.79720      9.00000        -0.017787     -0.008761     -0.413368
     19.02497     12.68331      9.00000        -0.007739     -0.000000     -0.411525
     16.91108     16.91108     11.11389        -0.008788     -0.006901      0.389416
     19.02497     19.02497     11.11389        -0.002120     -0.002258      0.395445
     16.91108     19.02497      9.00000        -0.005792     -0.005792     -0.410700
     19.02497     16.91108      9.00000        -0.004836     -0.003891     -0.410569
    total drift:                               -0.009703     -0.190081     -0.247440

  FREE ENERGIE OF THE ION-ELECTRON SYSTEM (eV)
  free  energy   TOTEN  =     -1393.35288078 eV

  energy  without entropy=    -1393.35288078  energy(sigma->0) =    -1393.35288078