 vasp.6.3.0 20Jan22 (build Apr  1 2022 16:44:48) complex
 executed on        HPECrayEX_GCC date 2023.01.09  10:41:15

 INCAR:
   SYSTEM = MgO-rocksalt
   ISMEAR = 0
   SIGMA = 0.05
   EDIFF = 1E-6
   ALGO = ALL
   ISTART = 0
   IBRION = -1
   NSW = 0
   ISYM = 2
   DIPOL = 0.5 0.5 0.5
   IDIPOL = 3
   LDIPOL = .TRUE.
   GGA = PE
   IVDW = 13
   VDW_S8 = 0.9595
   VDW_A1 = 0.3857
   VDW_A2 = 4.8069
   ENCUT = 520
   PREC = Accurate
   LASPH = .TRUE.
   LREAL = Auto
   ISPIN = 1
   NELM = 200
   NELMIN = 8
   NCORE = 4
   KPAR = 2
   LWAVE = .FALSE.
   LCHARG = .FALSE.

 POTCAR:    PAW_PBE Cu 22Jun2005
 POTCAR:    PAW_PBE Mg_pv 13Apr2007
 POTCAR:    PAW_PBE O 08Apr2002
 POTCAR:    PAW_PBE Cu 22Jun2005
   VRHFIN =Cu: d10 p1

   TITEL  = PAW_PBE Cu 22Jun2005
   POMASS =   63.546; ZVAL   =   11.000    mass and valenz
   ENMAX  =  295.446; ENMIN  =  221.585 eV

   TITEL  = PAW_PBE Mg_pv 13Apr2007
   POMASS =   24.305; ZVAL   =    8.000    mass and valenz
   ENMAX  =  403.929; ENMIN  =  302.947 eV

   TITEL  = PAW_PBE O 08Apr2002
   POMASS =   16.000; ZVAL   =    6.000    mass and valenz
   ENMAX  =  400.000; ENMIN  =  300.000 eV

 Optimization of the real space projectors (new method)

 maximal supplied QI-value         = 16.25
 optimisation between [QCUT,QGAM] = [ 11.54, 23.24] = [ 37.28,151.24] Ry
 Optimized for a Real-space Cutoff    1.53 Angstroem

   l    n(q)    QCUT    max X(q) W(low)/X(q) W(high)/X(q)  e(spline)
   2     10    11.539     4.610    0.96E-04    0.13E-03    0.19E-06
   2     10    11.539     8.522    0.16E-03    0.21E-03    0.28E-06
   0     11    11.539    51.609    0.45E-04    0.31E-04    0.11E-06
   0     11    11.539    27.747    0.39E-04    0.29E-04    0.10E-06
   1     10    11.539    20.408    0.70E-05    0.38E-04    0.18E-06
   1     10    11.539    13.425    0.66E-05    0.34E-04    0.17E-06
 Optimization of the real space projectors (new method)

[...]

   l    n(q)    QCUT    max X(q) W(low)/X(q) W(high)/X(q)  e(spline)
   1      8    11.527     2.974    0.44E-04    0.56E-04    0.12E-06
   1      8    11.527     4.279    0.12E-03    0.12E-03    0.26E-06
   0      9    11.527    16.381    0.46E-04    0.64E-04    0.78E-07
   0      9    11.527     5.611    0.26E-04    0.43E-04    0.55E-07
   2      8    11.527     4.652    0.22E-03    0.72E-04    0.47E-07
 Optimization of the real space projectors (new method)

 maximal supplied QI-value         = 24.76
 optimisation between [QCUT,QGAM] = [ 11.64, 23.27] = [ 37.91,151.63] Ry
 Optimized for a Real-space Cutoff    1.14 Angstroem

   l    n(q)    QCUT    max X(q) W(low)/X(q) W(high)/X(q)  e(spline)
   0      8    11.635    20.381    0.10E-03    0.33E-03    0.24E-06
   0      8    11.635    15.268    0.11E-03    0.35E-03    0.26E-06
   1      7    11.635     5.964    0.24E-03    0.31E-03    0.30E-06
   1      7    11.635     5.382    0.22E-03    0.25E-03    0.26E-06
  PAW_PBE Cu 22Jun2005                  :
  PAW_PBE Mg_pv 13Apr2007               :
  PAW_PBE O 08Apr2002                   :

 POSCAR: Cu Mg  O
  positions in direct lattice
  velocities in cartesian coordinates
|           W    W    AA    RRRRR   N    N  II  N    N   GGGG   !!!           |
|           W    W   A  A   R    R  NN   N  II  NN   N  G    G  !!!           |
|           W    W  A    A  R    R  N N  N  II  N N  N  G       !!!           |
|           W WW W  AAAAAA  RRRRR   N  N N  II  N  N N  G  GGG   !            |
|           WW  WW  A    A  R   R   N   NN  II  N   NN  G    G                |
|           W    W  A    A  R    R  N    N  II  N    N   GGGG   !!!           |
|     Specifying the vdW parameters                                           |
|     VDW_S8 = 0.96                                                           |
|     VDW_A1 = 0.386                                                          |
|     VDW_A2 = 4.807                                                          |
|     in the INCAR file will overwrite the defaults for pbe. Please make      |
|     sure that is what you intended.                                         |

 ion  position               nearest neighbor table
   1  0.398  0.602  0.598- 157 2.11   2 2.32
   2  0.321  0.679  0.599- 138 2.22   1 2.32
   3  0.579  0.421  0.599- 173 2.22   4 2.32
   4  0.502  0.498  0.598- 154 2.11   3 2.32
   5  0.000  0.000  0.407- 107 2.11 108 2.11 123 2.11 188 2.11 105 2.11
   6  0.100  0.100  0.407- 107 2.11 108 2.11 112 2.11 127 2.11 106 2.11
   7  0.000  0.100  0.503- 105 2.11 106 2.11 109 2.11 186 2.11 107 2.11
   8  0.100  0.000  0.503- 105 2.11 106 2.11 122 2.11 125 2.11 108 2.11
   9  0.000  0.200  0.407- 111 2.11 107 2.11 112 2.11 192 2.11 109 2.11
  10  0.100  0.300  0.407- 112 2.11 111 2.11 116 2.11 131 2.11 110 2.11
  11  0.000  0.300  0.503- 109 2.11 110 2.11 113 2.11 190 2.11 111 2.11
  12  0.100  0.200  0.503- 110 2.11 109 2.11 106 2.11 129 2.11 112 2.11
  13  0.000  0.400  0.407- 111 2.11 115 2.11 116 2.11 196 2.11 113 2.11
  14  0.100  0.500  0.407- 115 2.11 116 2.11 120 2.11 135 2.11 114 2.11
  15  0.000  0.500  0.503- 113 2.11 114 2.11 117 2.11 194 2.11 115 2.11
  16  0.100  0.400  0.503- 110 2.11 113 2.11 114 2.11 133 2.11 116 2.11
  17  0.000  0.600  0.407- 115 2.11 119 2.11 120 2.11 200 2.11 117 2.11
  18  0.100  0.700  0.407- 124 2.11 120 2.11 119 2.11 139 2.11 118 2.11
  19  0.000  0.700  0.503- 121 2.11 118 2.11 117 2.11 198 2.11 119 2.11
  20  0.100  0.600  0.503- 114 2.11 117 2.11 118 2.11 137 2.11 120 2.11
  21  0.000  0.800  0.407- 119 2.11 123 2.11 124 2.11 204 2.11 121 2.11
  22  0.100  0.900  0.407- 108 2.11 123 2.11 124 2.11 143 2.11 122 2.11
  23  0.000  0.900  0.503- 105 2.11 121 2.11 122 2.11 202 2.11 123 2.11
  24  0.100  0.800  0.503- 118 2.11 121 2.11 122 2.11 141 2.11 124 2.11
  25  0.200  0.000  0.407- 128 2.11 127 2.11 108 2.11 143 2.11 125 2.11
  26  0.300  0.100  0.407- 127 2.11 128 2.11 132 2.11 147 2.11 126 2.11
  27  0.200  0.100  0.503- 126 2.11 125 2.11 106 2.11 129 2.11 127 2.11
  28  0.300  0.000  0.503- 125 2.11 126 2.11 142 2.11 145 2.11 128 2.11
  29  0.200  0.200  0.407- 131 2.11 132 2.11 112 2.11 127 2.11 129 2.11
  30  0.300  0.300  0.407- 131 2.11 132 2.11 136 2.11 151 2.11 130 2.11
  31  0.200  0.300  0.503- 129 2.11 130 2.11 110 2.11 133 2.11 131 2.11
  32  0.300  0.200  0.503- 129 2.11 130 2.11 126 2.11 149 2.11 132 2.11
  33  0.200  0.400  0.407- 136 2.11 131 2.11 135 2.11 116 2.11 133 2.11
  34  0.300  0.500  0.407- 135 2.11 136 2.11 140 2.11 155 2.11 134 2.11
  35  0.200  0.500  0.503- 134 2.11 133 2.11 114 2.11 137 2.11 135 2.11
  36  0.300  0.400  0.503- 133 2.11 130 2.11 134 2.11 153 2.11 136 2.11
  37  0.200  0.600  0.407- 140 2.11 135 2.11 139 2.11 120 2.11 137 2.11
  38  0.300  0.700  0.407- 139 2.11 144 2.11 140 2.11 159 2.11 138 2.11
  39  0.200  0.700  0.503- 138 2.11 141 2.11 118 2.11 137 2.11 139 2.11
  40  0.300  0.600  0.503- 137 2.11 134 2.11 138 2.11 157 2.11 140 2.11
  41  0.200  0.800  0.407- 139 2.11 144 2.11 143 2.11 124 2.11 141 2.11
  42  0.300  0.900  0.407- 143 2.11 128 2.11 144 2.11 163 2.11 142 2.11
  43  0.200  0.900  0.503- 142 2.11 125 2.11 141 2.11 122 2.11 143 2.11
  44  0.300  0.800  0.503- 138 2.11 141 2.11 142 2.11 161 2.11 144 2.11
  45  0.400  0.000  0.407- 128 2.11 147 2.11 148 2.11 163 2.11 145 2.11
  46  0.500  0.100  0.407- 147 2.11 148 2.11 152 2.11 167 2.11 146 2.11
  47  0.400  0.100  0.503- 126 2.11 145 2.11 146 2.11 149 2.11 147 2.11
  48  0.500  0.000  0.503- 145 2.11 146 2.11 162 2.11 165 2.11 148 2.11
  49  0.400  0.200  0.407- 151 2.11 147 2.11 132 2.11 152 2.11 149 2.11
  50  0.500  0.300  0.407- 152 2.11 151 2.11 156 2.11 171 2.11 150 2.11
  51  0.400  0.300  0.503- 149 2.11 130 2.11 150 2.11 153 2.11 151 2.11
  52  0.500  0.200  0.503- 150 2.11 149 2.11 146 2.11 169 2.11 152 2.11
  53  0.400  0.400  0.407- 136 2.11 151 2.11 155 2.11 156 2.11 153 2.11
  54  0.500  0.500  0.407- 155 2.11 156 2.11 160 2.11 175 2.11 154 2.11
  55  0.400  0.500  0.503- 134 2.11 153 2.11 154 2.11 157 2.11 155 2.11
  56  0.500  0.400  0.503- 150 2.11 153 2.11 154 2.11 173 2.11 156 2.11
  57  0.400  0.600  0.407- 140 2.11 155 2.11 159 2.11 160 2.11 157 2.11
  58  0.500  0.700  0.407- 164 2.11 160 2.11 159 2.11 179 2.11 158 2.11
  59  0.400  0.700  0.503- 161 2.11 157 2.11 158 2.11 138 2.11 159 2.11
  60  0.500  0.600  0.503- 154 2.11 157 2.11 158 2.11 177 2.11 160 2.11
[...]
 190  0.900  0.300  0.503-  92 2.11  91 2.11  11 2.11  96 2.11  90 2.11
 191  0.800  0.300  0.407-  70 2.11  89 2.11  90 2.11  93 2.11  91 2.11
 192  0.900  0.200  0.407-  90 2.11  86 2.11  89 2.11   9 2.11  92 2.11
 193  0.800  0.400  0.503-  76 2.11  91 2.11  95 2.11  96 2.11  93 2.11
 194  0.900  0.500  0.503-  15 2.11  95 2.11  96 2.11 100 2.11  94 2.11
 195  0.800  0.500  0.407-  74 2.11  93 2.11  94 2.11  97 2.11  95 2.11
 196  0.900  0.400  0.407-  13 2.11  90 2.11  93 2.11  94 2.11  96 2.11
 197  0.800  0.600  0.503-  80 2.11  95 2.11  99 2.11 100 2.11  97 2.11
 198  0.900  0.700  0.503- 104 2.11  99 2.11 100 2.11  19 2.11  98 2.11
 199  0.800  0.700  0.407-  78 2.11 101 2.11  98 2.11  97 2.11  99 2.11
 200  0.900  0.600  0.407-  17 2.11  94 2.11  97 2.11  98 2.11 100 2.11
 201  0.800  0.800  0.503-  84 2.11  99 2.11 103 2.11 104 2.11 101 2.11
 202  0.900  0.900  0.503-  23 2.11  88 2.11 103 2.11 104 2.11 102 2.11
 203  0.800  0.900  0.407-  82 2.11  85 2.11 101 2.11 102 2.11 103 2.11
 204  0.900  0.800  0.407-  98 2.11  21 2.11 101 2.11 102 2.11 104 2.11

  LATTYP: Found a simple tetragonal cell.
 ALAT       =    21.1388521970
 C/A-ratio  =     1.0461251639

  Lattice vectors:

 A1 = (  21.1388521970,   0.0000000000,   0.0000000000)
 A2 = (   0.0000000000,  21.1388521970,   0.0000000000)
 A3 = (   0.0000000000,   0.0000000000,  22.1138852197)

Analysis of symmetry for initial positions (statically):
 Subroutine PRICEL returns:
 Original cell was already a primitive cell.

 Routine SETGRP: Setting up the symmetry group for a
 simple tetragonal supercell.

 Subroutine GETGRP returns: Found  2 space group operations
 (whereof  1 operations were pure point group operations)
 out of a pool of 16 trial point group operations.

The static configuration has the point symmetry C_1 .
 The point group associated with its full space group is C_1h.

Analysis of symmetry for dynamics (positions and initial velocities):
 Subroutine PRICEL returns:
 Original cell was already a primitive cell.

[...]

The dynamic configuration has the point symmetry C_1 .
 The point group associated with its full space group is C_1h.

Analysis of constrained symmetry for selective dynamics:
 Subroutine PRICEL returns:
 Original cell was already a primitive cell.

 Routine SETGRP: Setting up the symmetry group for a
 simple tetragonal supercell.

 Subroutine GETGRP returns: Found  2 space group operations
 (whereof  1 operations were pure point group operations)
 out of a pool of 16 trial point group operations.

The constrained configuration has the point symmetry C_1 .
 The point group associated with its full space group is C_1h.

 Subroutine INISYM returns: Found  2 space group operations
 (whereof  1 operations are pure point group operations),
 and found     1 'primitive' translations

                                     Primitive cell
[...]
     54     -43.1195      2.00000
     55     -43.1194      2.00000
     56     -43.1193      2.00000
     57     -43.1081      2.00000
     58     -43.1078      2.00000
     59     -43.0989      2.00000
     60     -43.0982      2.00000
[...]
    946       6.2893      0.00000
    947       6.2897      0.00000
    948       6.3455      0.00000
    949       6.3902      0.00000
    950       6.4582      0.00000
    951       6.4889      0.00000
    952       6.5368      0.00000
    953       6.5661      0.00000
    954       6.6081      0.00000
    955       6.7136      0.00000
    956       6.7830      0.00000
    957       6.8453      0.00000
    958       6.8694      0.00000
    959       6.8958      0.00000
    960       6.9465      0.00000

 soft charge-density along one line, spin component           1
         0         1         2         3         4         5         6         7         8         9
 total charge-density along one line

------------------------ aborting loop because EDIFF is reached ----------------------------------------

  FORCE on cell =-STRESS in cart. coord.  units (eV):
  Direction    XX          YY          ZZ          XY          YZ          ZX
  Alpha Z  1394.80054  1394.80054  1394.80054
  Ewald  488949.61640488949.61538************ -1381.09674     0.00920     0.00911
  Hartree518464.93611518464.93569************ -1165.93737     0.00762     0.00830
  E(xc)   -7906.43891 -7906.43891 -7936.94354    -0.56794     0.00019     0.00019
  Local  ************************************  2541.99708    -0.01628    -0.01712
  n-local -8857.32675 -8857.32673 -8979.33254     0.19390    -0.00153    -0.00164
  augment  3656.26213  3656.26215  3600.42028     2.45030     0.00042     0.00048
  Kinetic 23043.18737 23043.18744 23293.85189     3.45627    -0.00225    -0.00230
  Fock        0.00000     0.00000     0.00000     0.00000     0.00000     0.00000
  vdW       -23.75074   -23.75074    -8.60924     0.03213     0.00005     0.00005
  Total    -169.91157  -169.91157    10.46477     0.52763    -0.00277    -0.00277
  in kB     -27.54899   -27.54899     1.69673     0.08555    -0.00045    -0.00045

 VOLUME and BASIS-vectors are now :
  energy-cutoff  :      520.00
  volume of cell :     9881.61
      direct lattice vectors                 reciprocal lattice vectors
    21.138852197  0.000000000  0.000000000     0.047306258  0.000000000  0.000000000
     0.000000000 21.138852197  0.000000000     0.000000000  0.047306258  0.000000000
     0.000000000  0.000000000 22.113885220     0.000000000  0.000000000  0.045220457

  length of vectors
    21.138852197 21.138852197 22.113885220     0.047306258  0.047306258  0.045220457

 FORCES acting on ions:
    Electron-Ion                     Ewald-Force                    Non-Local-Force
   -.647E+02 0.647E+02 -.222E+04   0.602E+02 -.602E+02 0.222E+04   0.460E+01 -.460E+01 -.159E+01
   0.287E+03 -.287E+03 -.222E+04   -.281E+03 0.281E+03 0.222E+04   -.632E+01 0.632E+01 -.149E+01
   -.287E+03 0.287E+03 -.222E+04   0.281E+03 -.281E+03 0.222E+04   0.632E+01 -.632E+01 -.149E+01
   0.647E+02 -.647E+02 -.222E+04   -.602E+02 0.602E+02 0.222E+04   -.460E+01 0.460E+01 -.159E+01
   0.519E+01 -.519E+01 0.937E+03   -.521E+01 0.522E+01 -.930E+03   0.192E-01 -.192E-01 -.744E+01
   0.962E+01 0.175E+01 0.938E+03   -.963E+01 -.171E+01 -.931E+03   0.578E-02 -.241E-01 -.745E+01
   0.326E+01 0.326E+01 -.920E+03   -.325E+01 -.325E+01 0.912E+03   -.858E-02 -.858E-02 0.735E+01
   0.151E+02 -.121E+02 -.917E+03   -.151E+02 0.122E+02 0.910E+03   0.156E-01 -.563E-01 0.735E+01
   0.174E+01 0.962E+01 0.938E+03   -.171E+01 -.963E+01 -.931E+03   -.241E-01 0.578E-02 -.745E+01
   0.156E+02 0.171E+02 0.944E+03   -.156E+02 -.171E+02 -.936E+03   0.726E-02 0.223E-01 -.746E+01
   0.234E+01 0.163E+02 -.916E+03   -.230E+01 -.163E+02 0.909E+03   -.357E-01 0.330E-02 0.734E+01
   0.136E+02 0.136E+02 -.918E+03   -.136E+02 -.136E+02 0.910E+03   -.911E-02 -.911E-02 0.735E+01
   0.497E+01 0.121E+02 0.945E+03   -.495E+01 -.121E+02 -.937E+03   -.206E-01 0.161E-01 -.746E+01
   0.327E+02 0.134E+02 0.958E+03   -.329E+02 -.135E+02 -.950E+03   0.974E-01 0.662E-01 -.749E+01
   0.137E+02 0.882E+01 -.911E+03   -.137E+02 -.883E+01 0.904E+03   -.331E-02 0.123E-01 0.733E+01
   0.328E+02 0.257E+02 -.909E+03   -.328E+02 -.257E+02 0.902E+03   -.528E-02 0.218E-01 0.733E+01
   0.143E+02 -.228E+01 0.949E+03   -.144E+02 0.226E+01 -.942E+03   0.638E-01 0.140E-01 -.746E+01
   0.382E+02 -.141E+02 0.963E+03   -.386E+02 0.141E+02 -.955E+03   0.294E+00 0.115E-01 -.750E+01
   0.238E+02 -.133E+02 -.911E+03   -.239E+02 0.133E+02 0.903E+03   0.811E-01 0.851E-02 0.734E+01
   0.668E+02 0.553E+01 -.895E+03   -.669E+02 -.560E+01 0.888E+03   0.971E-01 0.580E-01 0.731E+01
   0.131E+02 -.143E+02 0.944E+03   -.132E+02 0.143E+02 -.936E+03   0.942E-01 -.167E-01 -.746E+01
   0.182E+02 -.182E+02 0.945E+03   -.183E+02 0.183E+02 -.938E+03   0.761E-01 -.761E-01 -.744E+01
   0.121E+02 -.151E+02 -.917E+03   -.122E+02 0.151E+02 0.910E+03   0.564E-01 -.156E-01 0.735E+01
   0.455E+02 -.324E+02 -.904E+03   -.458E+02 0.324E+02 0.896E+03   0.234E+00 -.141E-01 0.734E+01
   0.143E+02 -.131E+02 0.944E+03   -.143E+02 0.132E+02 -.936E+03   0.166E-01 -.942E-01 -.746E+01
   0.121E+02 0.497E+01 0.945E+03   -.121E+02 -.494E+01 -.937E+03   0.161E-01 -.206E-01 -.746E+01
   0.163E+02 0.234E+01 -.916E+03   -.163E+02 -.230E+01 0.909E+03   0.330E-02 -.357E-01 0.734E+01
   0.133E+02 -.238E+02 -.911E+03   -.133E+02 0.239E+02 0.903E+03   -.856E-02 -.810E-01 0.734E+01
   0.171E+02 0.156E+02 0.944E+03   -.171E+02 -.156E+02 -.936E+03   0.223E-01 0.726E-02 -.746E+01
   0.300E+02 0.382E+02 0.965E+03   -.302E+02 -.383E+02 -.957E+03   0.106E+00 0.971E-01 -.750E+01
   0.357E+02 0.357E+02 -.908E+03   -.357E+02 -.357E+02 0.901E+03   0.781E-02 0.781E-02 0.732E+01
   0.257E+02 0.328E+02 -.909E+03   -.257E+02 -.328E+02 0.902E+03   0.218E-01 -.528E-02 0.733E+01
   0.381E+02 0.300E+02 0.965E+03   -.383E+02 -.302E+02 -.957E+03   0.971E-01 0.106E+00 -.750E+01
   0.576E+02 0.372E+02 0.102E+04   -.581E+02 -.377E+02 -.102E+04   0.392E+00 0.402E+00 -.769E+01
   0.928E+02 0.506E+02 -.874E+03   -.929E+02 -.507E+02 0.867E+03   0.710E-01 0.119E+00 0.722E+01
   0.820E+02 0.820E+02 -.869E+03   -.821E+02 -.821E+02 0.861E+03   0.711E-01 0.711E-01 0.724E+01
   0.619E+02 0.499E+01 0.100E+04   -.624E+02 -.523E+01 -.992E+03   0.435E+00 0.184E+00 -.759E+01
   0.431E+02 -.431E+02 0.104E+04   -.433E+02 0.433E+02 -.104E+04   0.190E+00 -.190E+00 -.587E+01
   0.136E+03 -.474E+02 -.829E+03   -.138E+03 0.472E+02 0.822E+03   0.141E+01 0.154E+00 0.725E+01
   0.176E+03 0.723E+02 -.668E+03   -.178E+03 -.740E+02 0.663E+03   0.135E+01 0.119E+01 0.494E+01
   0.373E+02 -.373E+02 0.975E+03   -.375E+02 0.375E+02 -.967E+03   0.201E+00 -.201E+00 -.738E+01
   0.141E+02 -.382E+02 0.963E+03   -.141E+02 0.386E+02 -.955E+03   -.116E-01 -.294E+00 -.750E+01
   0.324E+02 -.455E+02 -.904E+03   -.324E+02 0.458E+02 0.896E+03   0.139E-01 -.234E+00 0.734E+01
   0.475E+02 -.137E+03 -.829E+03   -.473E+02 0.138E+03 0.821E+03   -.154E+00 -.141E+01 0.725E+01
   0.228E+01 -.143E+02 0.949E+03   -.227E+01 0.144E+02 -.942E+03   -.141E-01 -.636E-01 -.746E+01
   -.228E+01 0.143E+02 0.949E+03   0.226E+01 -.144E+02 -.942E+03   0.140E-01 0.638E-01 -.746E+01
   0.881E+01 0.137E+02 -.911E+03   -.883E+01 -.137E+02 0.904E+03   0.123E-01 -.331E-02 0.733E+01
   -.882E+01 -.138E+02 -.911E+03   0.883E+01 0.137E+02 0.904E+03   -.124E-01 0.354E-02 0.733E+01
   0.134E+02 0.327E+02 0.958E+03   -.135E+02 -.329E+02 -.950E+03   0.662E-01 0.974E-01 -.749E+01
   0.499E+01 0.619E+02 0.100E+04   -.523E+01 -.624E+02 -.992E+03   0.184E+00 0.435E+00 -.759E+01
   0.506E+02 0.928E+02 -.874E+03   -.507E+02 -.929E+02 0.867E+03   0.119E+00 0.710E-01 0.722E+01
   0.553E+01 0.668E+02 -.895E+03   -.560E+01 -.669E+02 0.888E+03   0.580E-01 0.971E-01 0.731E+01
   0.372E+02 0.576E+02 0.102E+04   -.377E+02 -.581E+02 -.102E+04   0.402E+00 0.392E+00 -.769E+01
   -.134E+02 0.135E+02 0.109E+04   0.134E+02 -.134E+02 -.108E+04   0.522E-01 -.526E-01 -.589E+01
   0.120E+03 0.120E+03 -.680E+03   -.122E+03 -.122E+03 0.673E+03   0.152E+01 0.152E+01 0.634E+01
   0.722E+02 0.176E+03 -.668E+03   -.740E+02 -.178E+03 0.663E+03   0.119E+01 0.135E+01 0.494E+01
   0.135E+02 -.134E+02 0.109E+04   -.134E+02 0.134E+02 -.108E+04   -.526E-01 0.522E-01 -.589E+01
   -.372E+02 -.576E+02 0.102E+04   0.377E+02 0.581E+02 -.102E+04   -.402E+00 -.392E+00 -.769E+01
   -.722E+02 -.176E+03 -.668E+03   0.740E+02 0.178E+03 0.663E+03   -.119E+01 -.135E+01 0.494E+01
   -.120E+03 -.120E+03 -.679E+03   0.122E+03 0.122E+03 0.673E+03   -.152E+01 -.152E+01 0.634E+01
[...]
   -.215E+02 0.163E+02 0.718E+03   0.216E+02 -.163E+02 -.722E+03   -.174E+00 0.815E-01 0.350E+01
   -.665E+01 0.888E+01 0.707E+03   0.669E+01 -.890E+01 -.711E+03   -.533E-01 0.342E-01 0.349E+01
   -.498E+02 0.150E+02 -.673E+03   0.499E+02 -.149E+02 0.677E+03   -.171E+00 -.585E-01 -.376E+01
   -.162E+02 0.159E+01 -.684E+03   0.162E+02 -.157E+01 0.688E+03   -.382E-01 -.227E-01 -.368E+01
   -.299E+02 -.828E+00 0.725E+03   0.300E+02 0.895E+00 -.729E+03   -.136E+00 -.846E-01 0.344E+01
   -.118E+02 0.793E+01 0.713E+03   0.118E+02 -.793E+01 -.717E+03   -.766E-01 -.133E-02 0.348E+01
   -.376E+02 -.162E+02 -.678E+03   0.377E+02 0.163E+02 0.683E+03   -.470E-01 -.602E-01 -.374E+01
   -.470E+01 -.116E+02 -.687E+03   0.468E+01 0.116E+02 0.691E+03   0.202E-01 -.790E-02 -.366E+01
   -.175E+02 -.139E+02 0.715E+03   0.175E+02 0.139E+02 -.719E+03   -.341E-01 -.473E-01 0.346E+01
   -.728E+01 -.481E+01 0.713E+03   0.728E+01 0.483E+01 -.717E+03   -.135E-01 -.211E-01 0.347E+01
   -.153E+02 -.166E+02 -.687E+03   0.153E+02 0.166E+02 0.692E+03   0.503E-02 -.793E-02 -.366E+01
   -.129E+01 -.877E+01 -.691E+03   0.127E+01 0.878E+01 0.695E+03   0.220E-01 -.384E-02 -.364E+01
   -.824E+01 -.823E+01 0.707E+03   0.823E+01 0.823E+01 -.711E+03   -.260E-02 -.260E-02 0.349E+01
   -.171E+01 -.987E+01 0.708E+03   0.168E+01 0.989E+01 -.712E+03   0.250E-01 -.154E-01 0.349E+01
   -.731E+00 0.727E+00 0.177E+02   0.165E-11 -.114E-12 0.819E-11   0.239E-02 0.239E-02 -.183E+02

 POSITION                                       TOTAL-FORCE (eV/Angst)
      8.42022     12.71964     13.21830         0.037109     -0.037292     -0.002196
      6.77748     14.36235     13.25117        -0.022988      0.022356      0.007812
     12.24845      8.89138     13.25117         0.022356     -0.022988      0.007812
     10.60574     10.53411     13.21830        -0.037292      0.037109     -0.002196
      0.00000      0.00000      9.00000        -0.005363      0.005351      0.364825
      2.11389      2.11389      9.00000        -0.001706      0.006345      0.366041
      0.00000      2.11389     11.11389         0.002203      0.002203     -0.331948
      2.11389      0.00000     11.11389        -0.004521      0.014681     -0.329602
      0.00000      4.22777      9.00000         0.006345     -0.001706      0.366041
      2.11389      6.34166      9.00000        -0.001943     -0.005896      0.369247
      0.00000      6.34166     11.11389         0.009321     -0.000752     -0.328200
      2.11389      4.22777     11.11389         0.002571      0.002571     -0.329304
      0.00000      8.45554      9.00000         0.005278     -0.004258      0.368881
      2.11389     10.56943      9.00000        -0.026207     -0.018219      0.375652
      0.00000     10.56943     11.11389         0.001545     -0.003166     -0.321388
      2.11389      8.45554     11.11389         0.002725     -0.004865     -0.317289
      0.00000     12.68331      9.00000        -0.017174     -0.004254      0.370226
      2.11389     14.79720      9.00000        -0.074241     -0.004033      0.377231
      0.00000     14.79720     11.11389        -0.019483     -0.002804     -0.322223
      2.11389     12.68331     11.11389        -0.020015     -0.015691     -0.296532
      0.00000     16.91108      9.00000        -0.024655      0.004831      0.367626
      2.11389     19.02497      9.00000        -0.021953      0.021959      0.362789
      0.00000     19.02497     11.11389        -0.014699      0.004523     -0.329604
      2.11389     16.91108     11.11389        -0.058734      0.003629     -0.315748
      4.22777      0.00000      9.00000        -0.004831      0.024626      0.367626
      6.34166      2.11389      9.00000        -0.004258      0.005278      0.368881
      4.22777      2.11389     11.11389        -0.000752      0.009321     -0.328200
      6.34166      0.00000     11.11389         0.002812      0.019429     -0.322222
      4.22777      4.22777      9.00000        -0.005896     -0.001943      0.369247
      6.34166      6.34166      9.00000        -0.028193     -0.026046      0.380971
      4.22777      6.34166     11.11389        -0.000594     -0.000594     -0.316093
      6.34166      4.22777     11.11389        -0.004865      0.002725     -0.317289
      4.22777      8.45554      9.00000        -0.026046     -0.028193      0.380971
      6.34166     10.56943      9.00000        -0.108824     -0.112022      0.408768
      4.22777     10.56943     11.11389         0.004572     -0.012529     -0.239602
      6.34166      8.45554     11.11389        -0.005854     -0.005854     -0.248859
      4.22777     12.68331      9.00000        -0.118945     -0.060237      0.385367
      6.34166     14.79720      9.00000        -0.057756      0.057853     -0.001187
      4.22777     14.79720     11.11389        -0.445724     -0.056913     -0.289185
      6.34166     12.68331     11.11389        -0.525272     -0.586886     -0.033724
      4.22777     16.91108      9.00000        -0.064693      0.064722      0.336389
      6.34166     19.02497      9.00000         0.004051      0.074217      0.377238
      4.22777     19.02497     11.11389        -0.003604      0.058734     -0.315746
      6.34166     16.91108     11.11389         0.057025      0.445789     -0.289192
      8.45554      0.00000      9.00000         0.004255      0.017124      0.370225
     10.56943      2.11389      9.00000        -0.004254     -0.017174      0.370226
      8.45554      2.11389     11.11389        -0.003166      0.001545     -0.321388
     10.56943      0.00000     11.11389         0.003163     -0.001611     -0.321390
      8.45554      4.22777      9.00000        -0.018219     -0.026207      0.375652
     10.56943      6.34166      9.00000        -0.060237     -0.118945      0.385367
      8.45554      6.34166     11.11389        -0.012529      0.004572     -0.239602
     10.56943      4.22777     11.11389        -0.015691     -0.020015     -0.296532
      8.45554      8.45554      9.00000        -0.112022     -0.108824      0.408768
     10.56943     10.56943      9.00000        -0.016435      0.016567     -0.009551
      8.45554     10.56943     11.11389        -0.557958     -0.557958     -0.233841
     10.56943      8.45554     11.11389        -0.586886     -0.525272     -0.033724
      8.45554     12.68331      9.00000         0.016567     -0.016435     -0.009551
     10.56943     14.79720      9.00000         0.112041      0.108809      0.408774
      8.45554     14.79720     11.11389         0.587567      0.525662     -0.034185
     10.56943     12.68331     11.11389         0.558340      0.558340     -0.234085
[...]
     19.02497      6.34166     11.11389        -0.019811      0.003629      0.464316
     16.91108      6.34166      9.00000        -0.050123      0.023278     -0.502165
     19.02497      4.22777      9.00000        -0.014826      0.009545     -0.504737
     16.91108      8.45554     11.11389        -0.054083     -0.015274      0.441648
     19.02497     10.56943     11.11389        -0.011116     -0.006369      0.457504
     16.91108     10.56943      9.00000        -0.041949     -0.024147     -0.519227
     19.02497      8.45554      9.00000        -0.021793     -0.000230     -0.508346
     16.91108     12.68331     11.11389        -0.014980     -0.017821      0.443666
     19.02497     14.79720     11.11389         0.005550     -0.002241      0.462473
     16.91108     14.79720      9.00000        -0.009823     -0.013430     -0.512309
     19.02497     12.68331      9.00000        -0.003952     -0.005924     -0.510007
     16.91108     16.91108     11.11389         0.001204     -0.002362      0.462897
     19.02497     19.02497     11.11389         0.006034     -0.001137      0.469245
     16.91108     19.02497      9.00000        -0.000819     -0.000819     -0.506353
     19.02497     16.91108      9.00000         0.006898     -0.004349     -0.506564
    total drift:                               -0.728571      0.729277     -0.620505

  FREE ENERGIE OF THE ION-ELECTRON SYSTEM (eV)
  free  energy   TOTEN  =     -1165.55092588 eV

  energy  without entropy=    -1165.55092588  energy(sigma->0) =    -1165.55092588