 vasp.6.4.1 05Apr23 (build May 06 2023 19:47:20) complex

 executed on             LinuxIFC date 2023.07.05  11:35:58

 INCAR:
   SYSTEM = MgO-rocksalt
   ISMEAR = 0
   SIGMA = 0.05
   EDIFF = 1E-6
   ALGO = ALL
   ISTART = 0
   IBRION = -1
   NSW = 0
   ISYM = 2
   DIPOL = 0.5 0.5 0.5
   IDIPOL = 3
   LDIPOL = .TRUE.
   LHFCALC = .TRUE.
   GGA = B5
   AEXX = 0.2
   AGGAX = 0.72
   AGGAC = 0.81
   ALDAC = 0.19
   IVDW = 11
   VDW_S6 = 1.0
   VDW_SR = 1.261
   VDW_S8 = 1.703
   ENCUT = 520
   PREC = Accurate
   LASPH = .TRUE.
   LREAL = Auto
   ISPIN = 1
   NELM = 200
   NELMIN = 8
   NCORE = 16
   KPAR = 1
   LWAVE = .FALSE.
   LCHARG = .FALSE.

 POTCAR:    PAW_PBE Ag 02Apr2005
 POTCAR:    PAW_PBE Mg_pv 13Apr2007
 POTCAR:    PAW_PBE O 08Apr2002
|           W    W    AA    RRRRR   N    N  II  N    N   GGGG   !!!           |
|           W    W   A  A   R    R  NN   N  II  NN   N  G    G  !!!           |
|           W    W  A    A  R    R  N N  N  II  N N  N  G       !!!           |
|           W WW W  AAAAAA  RRRRR   N  N N  II  N  N N  G  GGG   !            |
|           WW  WW  A    A  R   R   N   NN  II  N   NN  G    G                |
|           W    W  A    A  R    R  N    N  II  N    N   GGGG   !!!           |
|     You have selected ISYM=2 for a HF type calculation. This will           |
|     symmetrize the charge density but not the exchange potential. I         |
|     suggest to use ISYM=3 instead. This uses symmetry to obtain the         |
|     orbitals at all k-points in the Brillouin zone, but does not apply      |
|     symmetry to the Hartree potential directly. The resultant charge        |
|     might have lower symmetry than the crystal but, at least, Hartree       |
|     and exchange are fully compatible.                                      |

   TITEL  = PAW_PBE Ag 02Apr2005
   POMASS =  107.868; ZVAL   =   11.000    mass and valenz
   ENMAX  =  249.844; ENMIN  =  187.383 eV

   TITEL  = PAW_PBE Mg_pv 13Apr2007
   POMASS =   24.305; ZVAL   =    8.000    mass and valenz
   ENMAX  =  403.929; ENMIN  =  302.947 eV

   TITEL  = PAW_PBE O 08Apr2002
   POMASS =   16.000; ZVAL   =    6.000    mass and valenz
   ENMAX  =  400.000; ENMIN  =  300.000 eV

 Optimization of the real space projectors (new method)

 maximal supplied QI-value         = 15.12
 optimisation between [QCUT,QGAM] = [ 11.64, 23.28] = [ 37.95,151.78] Ry
 Optimized for a Real-space Cutoff    1.45 Angstroem

   l    n(q)    QCUT    max X(q) W(low)/X(q) W(high)/X(q)  e(spline)
   2      9    11.641    53.897    0.22E-03    0.42E-04    0.28E-06
   2      9    11.641    52.416    0.23E-03    0.44E-04    0.29E-06
   0     10    11.641   122.045    0.51E-04    0.25E-04    0.16E-06
   0     10    11.641    73.629    0.49E-04    0.24E-04    0.16E-06
   1     10    11.641    15.255    0.99E-04    0.55E-04    0.11E-06
   1     10    11.641     9.562    0.81E-04    0.47E-04    0.95E-07
 Optimization of the real space projectors (new method)

[...]

   l    n(q)    QCUT    max X(q) W(low)/X(q) W(high)/X(q)  e(spline)
   1      8    11.527     2.974    0.44E-04    0.56E-04    0.12E-06
   1      8    11.527     4.279    0.12E-03    0.12E-03    0.26E-06
   0      9    11.527    16.381    0.46E-04    0.64E-04    0.78E-07
   0      9    11.527     5.611    0.26E-04    0.43E-04    0.55E-07
   2      8    11.527     4.652    0.22E-03    0.72E-04    0.47E-07
 Optimization of the real space projectors (new method)

 maximal supplied QI-value         = 24.76
 optimisation between [QCUT,QGAM] = [ 11.64, 23.27] = [ 37.91,151.63] Ry
 Optimized for a Real-space Cutoff    1.14 Angstroem

   l    n(q)    QCUT    max X(q) W(low)/X(q) W(high)/X(q)  e(spline)
   0      8    11.635    20.381    0.10E-03    0.33E-03    0.24E-06
   0      8    11.635    15.268    0.11E-03    0.35E-03    0.26E-06
   1      7    11.635     5.964    0.24E-03    0.31E-03    0.30E-06
   1      7    11.635     5.382    0.22E-03    0.25E-03    0.26E-06
|               ----> ADVICE to this user running VASP <----                  |
|     You enforced a specific xc type in the INCAR file but a different       |
|     type was found in the POTCAR file.                                      |
|     I HOPE YOU KNOW WHAT YOU ARE DOING!                                     |

  PAW_PBE Ag 02Apr2005                  :
  PAW_PBE Mg_pv 13Apr2007               :
  PAW_PBE O 08Apr2002                   :

 POSCAR: Ag Mg  O
  positions in direct lattice
  velocities in cartesian coordinates
 exchange correlation table for  LEXCH =       12
   RHO(1)=    0.500       N(1)  =     2000
   RHO(2)=  100.500       N(2)  =     4000

 ion  position               nearest neighbor table
   1  0.400  0.563  0.612- 157 2.54   4 2.67   3 2.71  55 2.75
   2  0.400  0.500  0.835-   3 2.58
   3  0.400  0.499  0.718-   2 2.58   1 2.71   4 2.71
   4  0.400  0.436  0.612- 153 2.53   1 2.67   3 2.71  55 2.76
   5  0.000  0.000  0.407- 107 2.11 108 2.11 123 2.11 188 2.11 105 2.11
   6  0.100  0.100  0.407- 107 2.11 108 2.11 112 2.11 127 2.11 106 2.11
   7  0.000  0.100  0.503- 105 2.11 106 2.11 109 2.11 186 2.11 107 2.11
   8  0.100  0.000  0.503- 105 2.11 106 2.11 122 2.11 125 2.11 108 2.11
   9  0.000  0.200  0.407- 111 2.11 107 2.11 112 2.11 192 2.11 109 2.11
  10  0.100  0.300  0.407- 112 2.11 111 2.11 116 2.11 131 2.11 110 2.11
  11  0.000  0.300  0.503- 109 2.11 110 2.11 113 2.11 190 2.11 111 2.11
  12  0.100  0.200  0.503- 110 2.11 109 2.11 106 2.11 129 2.11 112 2.11
  13  0.000  0.400  0.407- 111 2.11 115 2.11 116 2.11 196 2.11 113 2.11
  14  0.100  0.500  0.407- 115 2.11 116 2.11 120 2.11 135 2.11 114 2.11
  15  0.000  0.500  0.503- 113 2.11 114 2.11 117 2.11 194 2.11 115 2.11
  16  0.100  0.400  0.503- 110 2.11 113 2.11 114 2.11 133 2.11 116 2.11
  17  0.000  0.600  0.407- 115 2.11 119 2.11 120 2.11 200 2.11 117 2.11
  18  0.100  0.700  0.407- 124 2.11 120 2.11 119 2.11 139 2.11 118 2.11
  19  0.000  0.700  0.503- 121 2.11 118 2.11 117 2.11 198 2.11 119 2.11
  20  0.100  0.600  0.503- 114 2.11 117 2.11 118 2.11 137 2.11 120 2.11
  21  0.000  0.800  0.407- 119 2.11 123 2.11 124 2.11 204 2.11 121 2.11
  22  0.100  0.900  0.407- 108 2.11 123 2.11 124 2.11 143 2.11 122 2.11
  23  0.000  0.900  0.503- 105 2.11 121 2.11 122 2.11 202 2.11 123 2.11
  24  0.100  0.800  0.503- 118 2.11 121 2.11 122 2.11 141 2.11 124 2.11
  25  0.200  0.000  0.407- 128 2.11 127 2.11 108 2.11 143 2.11 125 2.11
  26  0.300  0.100  0.407- 127 2.11 128 2.11 132 2.11 147 2.11 126 2.11
  27  0.200  0.100  0.503- 126 2.11 125 2.11 106 2.11 129 2.11 127 2.11
  28  0.300  0.000  0.503- 125 2.11 126 2.11 142 2.11 145 2.11 128 2.11
  29  0.200  0.200  0.407- 131 2.11 132 2.11 112 2.11 127 2.11 129 2.11
  30  0.300  0.300  0.407- 131 2.11 132 2.11 136 2.11 151 2.11 130 2.11
  31  0.200  0.300  0.503- 129 2.11 130 2.11 110 2.11 133 2.11 131 2.11
  32  0.300  0.200  0.503- 129 2.11 130 2.11 126 2.11 149 2.11 132 2.11
  33  0.200  0.400  0.407- 136 2.11 131 2.11 135 2.11 116 2.11 133 2.11
  34  0.300  0.500  0.407- 135 2.11 136 2.11 140 2.11 155 2.11 134 2.11
  35  0.200  0.500  0.503- 134 2.11 133 2.11 114 2.11 137 2.11 135 2.11
  36  0.300  0.400  0.503- 133 2.11 130 2.11 134 2.11 153 2.11 136 2.11
  37  0.200  0.600  0.407- 140 2.11 135 2.11 139 2.11 120 2.11 137 2.11
  38  0.300  0.700  0.407- 139 2.11 144 2.11 140 2.11 159 2.11 138 2.11
  39  0.200  0.700  0.503- 138 2.11 141 2.11 118 2.11 137 2.11 139 2.11
  40  0.300  0.600  0.503- 137 2.11 134 2.11 138 2.11 157 2.11 140 2.11
  41  0.200  0.800  0.407- 139 2.11 144 2.11 143 2.11 124 2.11 141 2.11
  42  0.300  0.900  0.407- 143 2.11 128 2.11 144 2.11 163 2.11 142 2.11
  43  0.200  0.900  0.503- 142 2.11 125 2.11 141 2.11 122 2.11 143 2.11
  44  0.300  0.800  0.503- 138 2.11 141 2.11 142 2.11 161 2.11 144 2.11
  45  0.400  0.000  0.407- 128 2.11 147 2.11 148 2.11 163 2.11 145 2.11
  46  0.500  0.100  0.407- 147 2.11 148 2.11 152 2.11 167 2.11 146 2.11
  47  0.400  0.100  0.503- 126 2.11 145 2.11 146 2.11 149 2.11 147 2.11
  48  0.500  0.000  0.503- 145 2.11 146 2.11 162 2.11 165 2.11 148 2.11
  49  0.400  0.200  0.407- 151 2.11 147 2.11 132 2.11 152 2.11 149 2.11
  50  0.500  0.300  0.407- 152 2.11 151 2.11 156 2.11 171 2.11 150 2.11
  51  0.400  0.300  0.503- 149 2.11 130 2.11 150 2.11 153 2.11 151 2.11
  52  0.500  0.200  0.503- 150 2.11 149 2.11 146 2.11 169 2.11 152 2.11
  53  0.400  0.400  0.407- 136 2.11 151 2.11 155 2.11 156 2.11 153 2.11
  54  0.500  0.500  0.407- 155 2.11 156 2.11 160 2.11 175 2.11 154 2.11
  55  0.400  0.500  0.503- 134 2.11 153 2.11 154 2.11 157 2.11 155 2.11   1 2.75   4 2.76
  56  0.500  0.400  0.503- 150 2.11 153 2.11 154 2.11 173 2.11 156 2.11
  57  0.400  0.600  0.407- 140 2.11 155 2.11 159 2.11 160 2.11 157 2.11
  58  0.500  0.700  0.407- 164 2.11 160 2.11 159 2.11 179 2.11 158 2.11
  59  0.400  0.700  0.503- 161 2.11 157 2.11 158 2.11 138 2.11 159 2.11
  60  0.500  0.600  0.503- 154 2.11 157 2.11 158 2.11 177 2.11 160 2.11
[...]
 190  0.900  0.300  0.503-  92 2.11  91 2.11  11 2.11  96 2.11  90 2.11
 191  0.800  0.300  0.407-  70 2.11  89 2.11  90 2.11  93 2.11  91 2.11
 192  0.900  0.200  0.407-  90 2.11  86 2.11  89 2.11   9 2.11  92 2.11
 193  0.800  0.400  0.503-  76 2.11  91 2.11  95 2.11  96 2.11  93 2.11
 194  0.900  0.500  0.503-  15 2.11  95 2.11  96 2.11 100 2.11  94 2.11
 195  0.800  0.500  0.407-  74 2.11  93 2.11  94 2.11  97 2.11  95 2.11
 196  0.900  0.400  0.407-  13 2.11  90 2.11  93 2.11  94 2.11  96 2.11
 197  0.800  0.600  0.503-  80 2.11  95 2.11  99 2.11 100 2.11  97 2.11
 198  0.900  0.700  0.503- 104 2.11  99 2.11 100 2.11  19 2.11  98 2.11
 199  0.800  0.700  0.407-  78 2.11 101 2.11  98 2.11  97 2.11  99 2.11
 200  0.900  0.600  0.407-  17 2.11  94 2.11  97 2.11  98 2.11 100 2.11
 201  0.800  0.800  0.503-  84 2.11  99 2.11 103 2.11 104 2.11 101 2.11
 202  0.900  0.900  0.503-  23 2.11  88 2.11 103 2.11 104 2.11 102 2.11
 203  0.800  0.900  0.407-  82 2.11  85 2.11 101 2.11 102 2.11 103 2.11
 204  0.900  0.800  0.407-  98 2.11  21 2.11 101 2.11 102 2.11 104 2.11

  LATTYP: Found a simple tetragonal cell.
 ALAT       =    21.1388521970
 C/A-ratio  =     1.0461251639

  Lattice vectors:

 A1 = (  21.1388521970,   0.0000000000,   0.0000000000)
 A2 = (   0.0000000000,  21.1388521970,   0.0000000000)
 A3 = (   0.0000000000,   0.0000000000,  22.1138852197)

Analysis of symmetry for initial positions (statically):
 Subroutine PRICEL returns:
 Original cell was already a primitive cell.

 Routine SETGRP: Setting up the symmetry group for a
 simple tetragonal supercell.

 Subroutine GETGRP returns: Found  1 space group operations
 (whereof  1 operations were pure point group operations)
 out of a pool of 16 trial point group operations.

The static configuration has the point symmetry C_1 .

Analysis of symmetry for dynamics (positions and initial velocities):
 Subroutine PRICEL returns:
 Original cell was already a primitive cell.

[...]

The dynamic configuration has the point symmetry C_1 .

Analysis of constrained symmetry for selective dynamics:
 Subroutine PRICEL returns:
 Original cell was already a primitive cell.

 Routine SETGRP: Setting up the symmetry group for a
 simple tetragonal supercell.

[...]
     41     -46.5322      2.00000
     42     -46.5316      2.00000
     43     -46.5314      2.00000
     44     -46.5120      2.00000
     45     -46.5108      2.00000
     46     -46.5095      2.00000
     47     -46.5084      2.00000
     48     -46.5028      2.00000
     49     -46.5025      2.00000
     50     -46.5005      2.00000
     51     -46.5002      2.00000
     52     -46.4992      2.00000
     53     -46.4989      2.00000
     54     -46.4896      2.00000
     55     -46.4892      2.00000
     56     -46.4884      2.00000
     57     -46.4879      2.00000
     58     -46.4872      2.00000
     59     -46.4864      2.00000
     60     -46.4860      2.00000
[...]
    898       5.1515      0.00000
    899       5.1618      0.00000
    900       5.2478      0.00000
    901       5.2792      0.00000
    902       5.3099      0.00000
    903       5.3290      0.00000
    904       5.4048      0.00000
    905       5.4644      0.00000
    906       5.4736      0.00000
    907       5.5743      0.00000
    908       5.6251      0.00000
    909       5.6673      0.00000
    910       5.7433      0.00000
    911       5.8013      0.00000
    912       5.9853      0.00000

 soft charge-density along one line, spin component           1
         0         1         2         3         4         5         6         7         8         9
 total charge-density along one line

------------------------ aborting loop because EDIFF is reached ----------------------------------------

 WARNING: Using user supplied parameters
     VDW_S8 = 1.703
     VDW_SR = 1.261
     because the xc functional is not supported. Required parameters not
     defined in the INCAR file will be replaced with PBE defaults ones.

         DFTD3 V3.0 Rev 1
 IVDW         = 11
 DF unknown
 parameters
 VDW_S6       =    1.0000
 VDW_S8       =    1.7030
 VDW_SR       =    1.2610
 rs18     =    1.0000
 alpha6   =   14.0000
 alpha8   =   16.0000
 k1-k3    =   16.0000    1.3333   -4.0000
 VDW_RADIUS   =   50.2022 A
 VDW_CNRADIUS =   21.1671 A
 Edisp (eV)  -34.13521

 E6    (eV) :    -7.1448
 E8    (eV) :   -26.9904
 % E8        : 79.07

 VOLUME and BASIS-vectors are now :
  energy-cutoff  :      520.00
  volume of cell :     9881.61
      direct lattice vectors                 reciprocal lattice vectors
    21.138852197  0.000000000  0.000000000     0.047306258  0.000000000  0.000000000
     0.000000000 21.138852197  0.000000000     0.000000000  0.047306258  0.000000000
     0.000000000  0.000000000 22.113885220     0.000000000  0.000000000  0.045220457

  length of vectors
    21.138852197 21.138852197 22.113885220     0.047306258  0.047306258  0.045220457

 FORCES acting on ions:
    Electron-Ion                     Ewald-Force                    Non-Local-Force
   -.475E+00 -.383E+03 -.187E+04   0.464E+00 0.376E+03 0.187E+04   0.747E-02 0.708E+01 -.194E+01
   -.148E+00 -.990E+00 -.113E+04   0.141E+00 0.967E+00 0.113E+04   0.481E-02 0.235E-01 0.686E+01
   0.646E+00 0.109E+01 -.162E+04   -.637E+00 -.107E+01 0.162E+04   -.877E-02 -.202E-01 -.134E+01
   -.796E-01 0.382E+03 -.187E+04   0.760E-01 -.376E+03 0.187E+04   0.534E-03 -.705E+01 -.193E+01
   0.615E+01 0.322E-01 0.934E+03   -.618E+01 -.325E-01 -.927E+03   0.237E-01 0.169E-03 -.674E+01
   0.120E+02 0.911E+01 0.938E+03   -.121E+02 -.914E+01 -.930E+03   0.515E-01 0.212E-01 -.674E+01
   0.880E+01 0.828E+01 -.918E+03   -.884E+01 -.829E+01 0.910E+03   0.285E-01 0.526E-02 0.663E+01
   0.129E+02 0.588E-01 -.916E+03   -.129E+02 -.592E-01 0.909E+03   0.402E-01 0.295E-03 0.662E+01
   0.945E+01 0.111E+02 0.938E+03   -.950E+01 -.111E+02 -.930E+03   0.411E-01 0.118E-01 -.674E+01
   0.245E+02 0.176E+02 0.948E+03   -.247E+02 -.177E+02 -.941E+03   0.127E+00 0.281E-01 -.675E+01
   0.182E+02 0.153E+02 -.912E+03   -.182E+02 -.153E+02 0.904E+03   0.519E-01 0.426E-02 0.662E+01
   0.234E+02 0.220E+02 -.910E+03   -.235E+02 -.220E+02 0.903E+03   0.913E-01 0.238E-01 0.662E+01
   0.163E+02 0.757E+01 0.944E+03   -.164E+02 -.757E+01 -.936E+03   0.649E-01 0.544E-02 -.675E+01
   0.355E+02 -.655E-01 0.957E+03   -.357E+02 0.660E-01 -.950E+03   0.154E+00 -.351E-03 -.676E+01
   0.261E+02 -.527E-01 -.907E+03   -.262E+02 0.530E-01 0.900E+03   0.564E-01 -.154E-03 0.661E+01
   0.515E+02 0.180E+02 -.895E+03   -.517E+02 -.180E+02 0.887E+03   0.151E+00 0.498E-02 0.660E+01
   0.163E+02 -.763E+01 0.944E+03   -.164E+02 0.763E+01 -.936E+03   0.647E-01 -.572E-02 -.675E+01
   0.244E+02 -.177E+02 0.948E+03   -.246E+02 0.177E+02 -.940E+03   0.126E+00 -.283E-01 -.675E+01
   0.181E+02 -.153E+02 -.912E+03   -.182E+02 0.153E+02 0.904E+03   0.515E-01 -.437E-02 0.662E+01
   0.514E+02 -.181E+02 -.895E+03   -.516E+02 0.181E+02 0.887E+03   0.150E+00 -.549E-02 0.660E+01
   0.941E+01 -.111E+02 0.938E+03   -.947E+01 0.111E+02 -.930E+03   0.407E-01 -.117E-01 -.674E+01
   0.120E+02 -.902E+01 0.938E+03   -.121E+02 0.905E+01 -.930E+03   0.512E-01 -.207E-01 -.674E+01
   0.878E+01 -.821E+01 -.918E+03   -.882E+01 0.822E+01 0.910E+03   0.284E-01 -.500E-02 0.663E+01
   0.233E+02 -.219E+02 -.910E+03   -.234E+02 0.219E+02 0.903E+03   0.905E-01 -.236E-01 0.662E+01
   0.109E+02 0.636E-01 0.939E+03   -.110E+02 -.642E-01 -.931E+03   0.444E-01 0.449E-03 -.674E+01
   0.864E+01 0.168E+02 0.945E+03   -.870E+01 -.170E+02 -.937E+03   0.405E-01 0.889E-01 -.674E+01
   0.172E+02 0.184E+02 -.911E+03   -.173E+02 -.185E+02 0.903E+03   0.595E-01 0.557E-01 0.662E+01
   0.908E+01 0.118E+00 -.911E+03   -.912E+01 -.119E+00 0.904E+03   0.289E-01 0.731E-03 0.662E+01
   0.196E+02 0.238E+02 0.949E+03   -.197E+02 -.240E+02 -.941E+03   0.110E+00 0.840E-01 -.673E+01
   0.246E+02 0.427E+02 0.982E+03   -.248E+02 -.430E+02 -.974E+03   0.199E+00 0.204E+00 -.661E+01
   0.534E+02 0.482E+02 -.884E+03   -.538E+02 -.483E+02 0.876E+03   0.312E+00 0.553E-01 0.662E+01
   0.226E+02 0.547E+02 -.892E+03   -.227E+02 -.551E+02 0.884E+03   0.970E-01 0.277E+00 0.664E+01
   0.439E+02 0.205E+02 0.978E+03   -.444E+02 -.205E+02 -.970E+03   0.304E+00 0.364E-01 -.677E+01
   0.455E+02 -.205E+00 0.103E+04   -.460E+02 0.208E+00 -.102E+04   0.328E+00 -.210E-02 -.674E+01
   0.103E+03 -.235E+00 -.848E+03   -.104E+03 0.236E+00 0.841E+03   0.299E+00 -.714E-03 0.659E+01
   0.115E+03 0.852E+02 -.768E+03   -.117E+03 -.852E+02 0.760E+03   0.128E+01 0.342E-01 0.673E+01
   0.438E+02 -.206E+02 0.978E+03   -.442E+02 0.207E+02 -.970E+03   0.302E+00 -.376E-01 -.677E+01
   0.244E+02 -.426E+02 0.981E+03   -.247E+02 0.429E+02 -.974E+03   0.198E+00 -.204E+00 -.661E+01
   0.530E+02 -.481E+02 -.884E+03   -.535E+02 0.482E+02 0.877E+03   0.309E+00 -.557E-01 0.662E+01
   0.114E+03 -.857E+02 -.769E+03   -.116E+03 0.858E+02 0.761E+03   0.126E+01 -.387E-01 0.673E+01
   0.195E+02 -.238E+02 0.949E+03   -.197E+02 0.239E+02 -.941E+03   0.109E+00 -.833E-01 -.673E+01
   0.861E+01 -.167E+02 0.945E+03   -.867E+01 0.168E+02 -.937E+03   0.402E-01 -.875E-01 -.674E+01
   0.172E+02 -.182E+02 -.911E+03   -.172E+02 0.183E+02 0.904E+03   0.591E-01 -.546E-01 0.662E+01
   0.224E+02 -.543E+02 -.892E+03   -.225E+02 0.547E+02 0.884E+03   0.960E-01 -.273E+00 0.664E+01
   0.151E-01 0.897E-01 0.942E+03   -.152E-01 -.907E-01 -.935E+03   0.471E-04 0.716E-03 -.674E+01
   -.862E+01 0.169E+02 0.945E+03   0.868E+01 -.170E+02 -.937E+03   -.404E-01 0.890E-01 -.674E+01
   0.250E-01 0.283E+02 -.905E+03   -.251E-01 -.285E+02 0.898E+03   0.469E-04 0.133E+00 0.663E+01
   -.905E+01 0.117E+00 -.911E+03   0.909E+01 -.118E+00 0.904E+03   -.288E-01 0.697E-03 0.662E+01
   0.307E-01 0.370E+02 0.961E+03   -.309E-01 -.373E+02 -.953E+03   0.129E-03 0.262E+00 -.672E+01
   -.245E+02 0.427E+02 0.982E+03   0.248E+02 -.430E+02 -.974E+03   -.199E+00 0.204E+00 -.661E+01
   0.143E+00 0.119E+03 -.825E+03   -.144E+00 -.121E+03 0.816E+03   0.538E-03 0.120E+01 0.689E+01
   -.225E+02 0.547E+02 -.891E+03   0.227E+02 -.551E+02 0.884E+03   -.968E-01 0.277E+00 0.664E+01
   0.101E+00 0.406E+02 0.104E+04   -.101E+00 -.408E+02 -.103E+04   0.343E-04 0.165E+00 -.544E+01
   -.454E+02 -.198E+00 0.103E+04   0.459E+02 0.201E+00 -.102E+04   -.328E+00 -.212E-02 -.673E+01
   0.614E+00 -.668E+00 -.564E+03   -.618E+00 0.681E+00 0.558E+03   0.150E-02 -.135E-01 0.459E+01
   -.115E+03 0.855E+02 -.768E+03   0.117E+03 -.855E+02 0.760E+03   -.128E+01 0.355E-01 0.673E+01
   0.109E+00 -.409E+02 0.104E+04   -.109E+00 0.411E+02 -.103E+04   -.847E-04 -.166E+00 -.545E+01
   -.243E+02 -.427E+02 0.981E+03   0.246E+02 0.430E+02 -.974E+03   -.198E+00 -.204E+00 -.661E+01
   0.165E+00 -.118E+03 -.826E+03   -.167E+00 0.120E+03 0.818E+03   0.774E-03 -.119E+01 0.689E+01
   -.114E+03 -.860E+02 -.769E+03   0.116E+03 0.861E+02 0.761E+03   -.126E+01 -.398E-01 0.673E+01
[...]
   -.979E+01 0.881E+01 0.707E+03   0.983E+01 -.882E+01 -.711E+03   -.502E-01 0.130E-01 0.313E+01
   -.140E-01 0.717E+01 0.704E+03   0.140E-01 -.718E+01 -.708E+03   -.310E-04 0.909E-02 0.313E+01
   -.179E+02 0.755E+01 -.683E+03   0.179E+02 -.755E+01 0.687E+03   -.523E-01 0.227E-02 -.332E+01
   -.368E-01 -.301E-01 -.685E+03   0.369E-01 0.302E-01 0.689E+03   -.501E-04 -.135E-03 -.332E+01
   -.133E+02 -.289E-01 0.710E+03   0.134E+02 0.291E-01 -.714E+03   -.588E-01 -.200E-03 0.312E+01
   -.239E-01 0.472E+01 0.707E+03   0.240E-01 -.472E+01 -.711E+03   -.469E-04 0.378E-02 0.312E+01
   -.178E+02 -.760E+01 -.683E+03   0.179E+02 0.761E+01 0.687E+03   -.522E-01 -.257E-02 -.332E+01
   -.269E-01 -.929E+01 -.687E+03   0.269E-01 0.930E+01 0.692E+03   -.540E-04 -.383E-02 -.331E+01
   -.976E+01 -.882E+01 0.707E+03   0.980E+01 0.883E+01 -.711E+03   -.499E-01 -.131E-01 0.313E+01
   -.245E-01 -.476E+01 0.707E+03   0.245E-01 0.476E+01 -.711E+03   -.586E-04 -.403E-02 0.312E+01
   -.941E+01 -.106E+02 -.688E+03   0.944E+01 0.106E+02 0.692E+03   -.377E-01 -.115E-01 -.330E+01
   -.135E-01 -.523E+01 -.691E+03   0.135E-01 0.524E+01 0.695E+03   -.301E-04 -.430E-02 -.329E+01
   -.526E+01 -.491E+01 0.703E+03   0.529E+01 0.492E+01 -.707E+03   -.296E-01 -.101E-01 0.313E+01
   -.146E-01 -.716E+01 0.704E+03   0.147E-01 0.716E+01 -.708E+03   -.471E-04 -.899E-02 0.313E+01
   -.249E-01 -.500E-02 0.443E+01   0.262E-11 -.102E-11 -.898E-11   0.178E-01 0.106E-01 -.382E+01

 POSITION                                       TOTAL-FORCE (eV/Angst)
      8.46109     11.89365     13.52833        -0.006429      0.397560     -0.050537
      8.45935     10.56642     18.47179        -0.001083      0.000973      0.279266
      8.45769     10.55816     15.88881         0.000407     -0.001477      0.054197
      8.45973      9.22287     13.52627        -0.004457     -0.384009     -0.044997
      0.00000      0.00000      9.00000        -0.007428     -0.000064      0.436706
      2.11389      2.11389      9.00000        -0.016215     -0.006716      0.435832
      0.00000      2.11389     11.11389        -0.008720     -0.001602     -0.386141
      2.11389      0.00000     11.11389        -0.012570     -0.000098     -0.385607
      0.00000      4.22777      9.00000        -0.012504     -0.003729      0.437258
      2.11389      6.34166      9.00000        -0.038110     -0.008709      0.437594
      0.00000      6.34166     11.11389        -0.015035     -0.000976     -0.381168
      2.11389      4.22777     11.11389        -0.027267     -0.007090     -0.381411
      0.00000      8.45554      9.00000        -0.019392     -0.001569      0.438783
      2.11389     10.56943      9.00000        -0.046678      0.000100      0.440048
      0.00000     10.56943     11.11389        -0.015673      0.000041     -0.376742
      2.11389      8.45554     11.11389        -0.040315      0.000147     -0.367921
      0.00000     12.68331      9.00000        -0.019320      0.001641      0.438777
      2.11389     14.79720      9.00000        -0.037846      0.008742      0.437635
      0.00000     14.79720     11.11389        -0.014935      0.000991     -0.381169
      2.11389     12.68331     11.11389        -0.040166     -0.000011     -0.367962
      0.00000     16.91108      9.00000        -0.012414      0.003676      0.437315
      2.11389     19.02497      9.00000        -0.016135      0.006543      0.435837
      0.00000     19.02497     11.11389        -0.008668      0.001502     -0.386152
      2.11389     16.91108     11.11389        -0.027028      0.007001     -0.381369
      4.22777      0.00000      9.00000        -0.014201     -0.000151      0.435469
      6.34166      2.11389      9.00000        -0.013215     -0.026732      0.433552
      4.22777      2.11389     11.11389        -0.018708     -0.016438     -0.382849
      6.34166      0.00000     11.11389        -0.009260     -0.000227     -0.383140
      4.22777      4.22777      9.00000        -0.035160     -0.026889      0.430460
      6.34166      6.34166      9.00000        -0.067443     -0.066267      0.391047
      4.22777      6.34166     11.11389        -0.086438     -0.010449     -0.367947
      6.34166      4.22777     11.11389        -0.029883     -0.078155     -0.380530
      4.22777      8.45554      9.00000        -0.086702     -0.008946      0.439660
      6.34166     10.56943      9.00000        -0.101070      0.000684      0.429167
      4.22777     10.56943     11.11389        -0.047217      0.000118     -0.313543
      6.34166      8.45554     11.11389        -0.516095      0.012539     -0.508881
      4.22777     12.68331      9.00000        -0.086226      0.009295      0.439621
      6.34166     14.79720      9.00000        -0.067122      0.066077      0.391722
      4.22777     14.79720     11.11389        -0.085589      0.010656     -0.368178
      6.34166     12.68331     11.11389        -0.506687     -0.011292     -0.503401
      4.22777     16.91108      9.00000        -0.034880      0.026637      0.430598
      6.34166     19.02497      9.00000        -0.013133      0.026297      0.433876
      4.22777     19.02497     11.11389        -0.018578      0.016094     -0.382803
      6.34166     16.91108     11.11389        -0.029631      0.077271     -0.380294
      8.45554      0.00000      9.00000         0.000006     -0.000221      0.435398
     10.56943      2.11389      9.00000         0.013224     -0.026747      0.433786
      8.45554      2.11389     11.11389         0.000003     -0.038160     -0.381700
     10.56943      0.00000     11.11389         0.009271     -0.000215     -0.383170
      8.45554      4.22777      9.00000        -0.000014     -0.075950      0.426098
     10.56943      6.34166      9.00000         0.067422     -0.066277      0.391012
      8.45554      6.34166     11.11389        -0.000024     -0.306328     -0.400416
     10.56943      4.22777     11.11389         0.029875     -0.078287     -0.380627
      8.45554      8.45554      9.00000         0.000088     -0.026888      0.136556
     10.56943     10.56943      9.00000         0.100969      0.000702      0.429073
      8.45554     10.56943     11.11389        -0.002974      0.000251     -1.086193
     10.56943      8.45554     11.11389         0.519988      0.010878     -0.513843
      8.45554     12.68331      9.00000         0.000159      0.027002      0.139130
     10.56943     14.79720      9.00000         0.067055      0.066052      0.391867
      8.45554     14.79720     11.11389        -0.000067      0.301488     -0.397028
     10.56943     12.68331     11.11389         0.511918     -0.009057     -0.510446
[...]
     19.02497      6.34166     11.11389         0.000002      0.001235      0.370681
     16.91108      6.34166      9.00000        -0.016274      0.004223     -0.425713
     19.02497      4.22777      9.00000         0.000005      0.002962     -0.425635
     16.91108      8.45554     11.11389        -0.017098      0.000776      0.365801
     19.02497     10.56943     11.11389        -0.000004     -0.000054      0.367717
     16.91108     10.56943      9.00000        -0.019116     -0.000076     -0.426753
     19.02497      8.45554      9.00000         0.000005      0.001229     -0.426380
     16.91108     12.68331     11.11389        -0.017051     -0.000898      0.365842
     19.02497     14.79720     11.11389        -0.000011     -0.001288      0.370688
     16.91108     14.79720      9.00000        -0.016189     -0.004278     -0.425730
     19.02497     12.68331      9.00000        -0.000008     -0.001329     -0.426383
     16.91108     16.91108     11.11389        -0.012239     -0.003795      0.372027
     19.02497     19.02497     11.11389         0.000003     -0.001422      0.374662
     16.91108     19.02497      9.00000        -0.009572     -0.003245     -0.425239
     19.02497     16.91108      9.00000        -0.000001     -0.002949     -0.425654
    total drift:                               -0.002538      0.001956     -0.266379

  FREE ENERGIE OF THE ION-ELECTRON SYSTEM (eV)
  free  energy   TOTEN  =     -1369.47186396 eV

  energy  without entropy=    -1369.47186396  energy(sigma->0) =    -1369.47186396