 vasp.6.3.0 20Jan22 (build Apr  1 2022 16:44:48) complex
 executed on        HPECrayEX_GCC date 2022.12.11  05:54:41

 INCAR:
   SYSTEM = MgO-rocksalt
   ISMEAR = 0
   SIGMA = 0.05
   EDIFF = 1E-6
   ALGO = ALL
   ISTART = 0
   IBRION = -1
   NSW = 0
   ISYM = 2
   DIPOL = 0.5 0.5 0.5
   IDIPOL = 3
   LDIPOL = .TRUE.
   GGA = PS
   IVDW = 12
   VDW_A1 = 0.4466
   VDW_S8 = 2.9491
   VDW_A2 = 6.1742
   ENCUT = 520
   PREC = Accurate
   LASPH = .TRUE.
   LREAL = Auto
   ISPIN = 1
   NELM = 200
   NELMIN = 8
   NCORE = 4
   KPAR = 2
   LWAVE = .FALSE.
   LCHARG = .FALSE.

 POTCAR:    PAW_PBE Au 04Oct2007
 POTCAR:    PAW_PBE Mg_pv 13Apr2007
 POTCAR:    PAW_PBE O 08Apr2002
 POTCAR:    PAW_PBE Au 04Oct2007
   VRHFIN =Au: s1d10

   TITEL  = PAW_PBE Au 04Oct2007
   POMASS =  196.966; ZVAL   =   11.000    mass and valenz
   ENMAX  =  229.943; ENMIN  =  172.457 eV

   TITEL  = PAW_PBE Mg_pv 13Apr2007
   POMASS =   24.305; ZVAL   =    8.000    mass and valenz
   ENMAX  =  403.929; ENMIN  =  302.947 eV

   TITEL  = PAW_PBE O 08Apr2002
   POMASS =   16.000; ZVAL   =    6.000    mass and valenz
   ENMAX  =  400.000; ENMIN  =  300.000 eV

 Optimization of the real space projectors (new method)

 maximal supplied QI-value         = 15.12
 optimisation between [QCUT,QGAM] = [ 11.64, 23.28] = [ 37.95,151.78] Ry
 Optimized for a Real-space Cutoff    1.49 Angstroem

   l    n(q)    QCUT    max X(q) W(low)/X(q) W(high)/X(q)  e(spline)
   2      9    11.641    60.898    0.24E-03    0.10E-03    0.19E-06
   2      9    11.641    58.894    0.25E-03    0.10E-03    0.19E-06
   0     10    11.641   109.617    0.73E-04    0.33E-04    0.11E-06
   0     10    11.641    75.026    0.71E-04    0.32E-04    0.11E-06
   1     10    11.641    16.344    0.27E-04    0.97E-04    0.16E-06
   1     10    11.641    10.160    0.23E-04    0.77E-04    0.13E-06
 Optimization of the real space projectors (new method)

[...]

   l    n(q)    QCUT    max X(q) W(low)/X(q) W(high)/X(q)  e(spline)
   1      8    11.527     2.974    0.44E-04    0.56E-04    0.12E-06
   1      8    11.527     4.279    0.12E-03    0.12E-03    0.26E-06
   0      9    11.527    16.381    0.46E-04    0.64E-04    0.78E-07
   0      9    11.527     5.611    0.26E-04    0.43E-04    0.55E-07
   2      8    11.527     4.652    0.22E-03    0.72E-04    0.47E-07
 Optimization of the real space projectors (new method)

 maximal supplied QI-value         = 24.76
 optimisation between [QCUT,QGAM] = [ 11.64, 23.27] = [ 37.91,151.63] Ry
 Optimized for a Real-space Cutoff    1.14 Angstroem

   l    n(q)    QCUT    max X(q) W(low)/X(q) W(high)/X(q)  e(spline)
   0      8    11.635    20.381    0.10E-03    0.33E-03    0.24E-06
   0      8    11.635    15.268    0.11E-03    0.35E-03    0.26E-06
   1      7    11.635     5.964    0.24E-03    0.31E-03    0.30E-06
   1      7    11.635     5.382    0.22E-03    0.25E-03    0.26E-06
|               ----> ADVICE to this user running VASP <----                  |
|     You enforced a specific xc type in the INCAR file but a different       |
|     type was found in the POTCAR file.                                      |
|     I HOPE YOU KNOW WHAT YOU ARE DOING!                                     |

  PAW_PBE Au 04Oct2007                  :
  PAW_PBE Mg_pv 13Apr2007               :
  PAW_PBE O 08Apr2002                   :

 POSCAR: Au Mg  O
  positions in direct lattice
 exchange correlation table for  LEXCH =       14
   RHO(1)=    0.500       N(1)  =     2000
   RHO(2)=  100.500       N(2)  =     4000

 ion  position               nearest neighbor table
   1  0.661  0.500  0.614-   2 2.57 172 2.59  73 2.77
   2  0.539  0.500  0.614-   1 2.57 152 2.59  73 2.77
   3  0.000  0.000  0.407- 105 2.11 106 2.11 121 2.11 186 2.11 103 2.11
   4  0.100  0.100  0.407- 105 2.11 106 2.11 110 2.11 125 2.11 104 2.11
   5  0.000  0.100  0.503- 103 2.11 104 2.11 107 2.11 184 2.11 105 2.11
   6  0.100  0.000  0.503- 103 2.11 104 2.11 120 2.11 123 2.11 106 2.11
   7  0.000  0.200  0.407- 109 2.11 105 2.11 110 2.11 190 2.11 107 2.11
   8  0.100  0.300  0.407- 110 2.11 109 2.11 114 2.11 129 2.11 108 2.11
   9  0.000  0.300  0.503- 107 2.11 108 2.11 111 2.11 188 2.11 109 2.11
  10  0.100  0.200  0.503- 108 2.11 107 2.11 104 2.11 127 2.11 110 2.11
  11  0.000  0.400  0.407- 109 2.11 113 2.11 114 2.11 194 2.11 111 2.11
  12  0.100  0.500  0.407- 113 2.11 114 2.11 118 2.11 133 2.11 112 2.11
  13  0.000  0.500  0.503- 111 2.11 112 2.11 115 2.11 192 2.11 113 2.11
  14  0.100  0.400  0.503- 108 2.11 111 2.11 112 2.11 131 2.11 114 2.11
  15  0.000  0.600  0.407- 113 2.11 117 2.11 118 2.11 198 2.11 115 2.11
  16  0.100  0.700  0.407- 122 2.11 118 2.11 117 2.11 137 2.11 116 2.11
  17  0.000  0.700  0.503- 119 2.11 116 2.11 115 2.11 196 2.11 117 2.11
  18  0.100  0.600  0.503- 112 2.11 115 2.11 116 2.11 135 2.11 118 2.11
  19  0.000  0.800  0.407- 117 2.11 121 2.11 122 2.11 202 2.11 119 2.11
  20  0.100  0.900  0.407- 106 2.11 121 2.11 122 2.11 141 2.11 120 2.11
  21  0.000  0.900  0.503- 103 2.11 119 2.11 120 2.11 200 2.11 121 2.11
  22  0.100  0.800  0.503- 116 2.11 119 2.11 120 2.11 139 2.11 122 2.11
  23  0.200  0.000  0.407- 126 2.11 125 2.11 106 2.11 141 2.11 123 2.11
  24  0.300  0.100  0.407- 125 2.11 126 2.11 130 2.11 145 2.11 124 2.11
  25  0.200  0.100  0.503- 124 2.11 123 2.11 104 2.11 127 2.11 125 2.11
  26  0.300  0.000  0.503- 123 2.11 124 2.11 140 2.11 143 2.11 126 2.11
  27  0.200  0.200  0.407- 129 2.11 130 2.11 110 2.11 125 2.11 127 2.11
  28  0.300  0.300  0.407- 129 2.11 130 2.11 134 2.11 149 2.11 128 2.11
  29  0.200  0.300  0.503- 127 2.11 128 2.11 108 2.11 131 2.11 129 2.11
  30  0.300  0.200  0.503- 127 2.11 128 2.11 124 2.11 147 2.11 130 2.11
  31  0.200  0.400  0.407- 134 2.11 129 2.11 133 2.11 114 2.11 131 2.11
  32  0.300  0.500  0.407- 133 2.11 134 2.11 138 2.11 153 2.11 132 2.11
  33  0.200  0.500  0.503- 132 2.11 131 2.11 112 2.11 135 2.11 133 2.11
  34  0.300  0.400  0.503- 131 2.11 128 2.11 132 2.11 151 2.11 134 2.11
  35  0.200  0.600  0.407- 138 2.11 133 2.11 137 2.11 118 2.11 135 2.11
  36  0.300  0.700  0.407- 137 2.11 142 2.11 138 2.11 157 2.11 136 2.11
  37  0.200  0.700  0.503- 136 2.11 139 2.11 116 2.11 135 2.11 137 2.11
  38  0.300  0.600  0.503- 135 2.11 132 2.11 136 2.11 155 2.11 138 2.11
  39  0.200  0.800  0.407- 137 2.11 142 2.11 141 2.11 122 2.11 139 2.11
  40  0.300  0.900  0.407- 141 2.11 126 2.11 142 2.11 161 2.11 140 2.11
  41  0.200  0.900  0.503- 140 2.11 123 2.11 139 2.11 120 2.11 141 2.11
  42  0.300  0.800  0.503- 136 2.11 139 2.11 140 2.11 159 2.11 142 2.11
  43  0.400  0.000  0.407- 126 2.11 145 2.11 146 2.11 161 2.11 143 2.11
  44  0.500  0.100  0.407- 145 2.11 146 2.11 150 2.11 165 2.11 144 2.11
  45  0.400  0.100  0.503- 124 2.11 143 2.11 144 2.11 147 2.11 145 2.11
  46  0.500  0.000  0.503- 143 2.11 144 2.11 160 2.11 163 2.11 146 2.11
  47  0.400  0.200  0.407- 149 2.11 145 2.11 130 2.11 150 2.11 147 2.11
  48  0.500  0.300  0.407- 150 2.11 149 2.11 154 2.11 169 2.11 148 2.11
  49  0.400  0.300  0.503- 147 2.11 128 2.11 148 2.11 151 2.11 149 2.11
  50  0.500  0.200  0.503- 148 2.11 147 2.11 144 2.11 167 2.11 150 2.11
  51  0.400  0.400  0.407- 134 2.11 149 2.11 153 2.11 154 2.11 151 2.11
  52  0.500  0.500  0.407- 153 2.11 154 2.11 158 2.11 173 2.11 152 2.11
  53  0.400  0.500  0.503- 132 2.11 151 2.11 152 2.11 155 2.11 153 2.11
  54  0.500  0.400  0.503- 148 2.11 151 2.11 152 2.11 171 2.11 154 2.11
  55  0.400  0.600  0.407- 138 2.11 153 2.11 157 2.11 158 2.11 155 2.11
  56  0.500  0.700  0.407- 162 2.11 158 2.11 157 2.11 177 2.11 156 2.11
  57  0.400  0.700  0.503- 159 2.11 155 2.11 156 2.11 136 2.11 157 2.11
  58  0.500  0.600  0.503- 152 2.11 155 2.11 156 2.11 175 2.11 158 2.11
  59  0.400  0.800  0.407- 157 2.11 142 2.11 161 2.11 162 2.11 159 2.11
  60  0.500  0.900  0.407- 146 2.11 161 2.11 162 2.11 181 2.11 160 2.11
[...]
 188  0.900  0.300  0.503-  90 2.11  89 2.11   9 2.11  94 2.11  88 2.11
 189  0.800  0.300  0.407-  68 2.11  87 2.11  88 2.11  91 2.11  89 2.11
 190  0.900  0.200  0.407-  88 2.11  84 2.11  87 2.11   7 2.11  90 2.11
 191  0.800  0.400  0.503-  74 2.11  89 2.11  93 2.11  94 2.11  91 2.11
 192  0.900  0.500  0.503-  13 2.11  93 2.11  94 2.11  98 2.11  92 2.11
 193  0.800  0.500  0.407-  72 2.11  91 2.11  92 2.11  95 2.11  93 2.11
 194  0.900  0.400  0.407-  11 2.11  88 2.11  91 2.11  92 2.11  94 2.11
 195  0.800  0.600  0.503-  78 2.11  93 2.11  97 2.11  98 2.11  95 2.11
 196  0.900  0.700  0.503- 102 2.11  97 2.11  98 2.11  17 2.11  96 2.11
 197  0.800  0.700  0.407-  76 2.11  99 2.11  96 2.11  95 2.11  97 2.11
 198  0.900  0.600  0.407-  15 2.11  92 2.11  95 2.11  96 2.11  98 2.11
 199  0.800  0.800  0.503-  82 2.11  97 2.11 101 2.11 102 2.11  99 2.11
 200  0.900  0.900  0.503-  21 2.11  86 2.11 101 2.11 102 2.11 100 2.11
 201  0.800  0.900  0.407-  80 2.11  83 2.11  99 2.11 100 2.11 101 2.11
 202  0.900  0.800  0.407-  96 2.11  19 2.11  99 2.11 100 2.11 102 2.11

  LATTYP: Found a simple tetragonal cell.
 ALAT       =    21.1388521970
 C/A-ratio  =     1.0461251639

  Lattice vectors:

 A1 = (  21.1388521970,   0.0000000000,   0.0000000000)
 A2 = (   0.0000000000,  21.1388521970,   0.0000000000)
 A3 = (   0.0000000000,   0.0000000000,  22.1138852197)

Analysis of symmetry for initial positions (statically):
 Subroutine PRICEL returns:
 Original cell was already a primitive cell.

 Routine SETGRP: Setting up the symmetry group for a
 simple tetragonal supercell.

 Subroutine GETGRP returns: Found  4 space group operations
 (whereof  2 operations were pure point group operations)
 out of a pool of 16 trial point group operations.

The static configuration has the point symmetry C_1h.
 The point group associated with its full space group is C_2v.

Analysis of symmetry for dynamics (positions and initial velocities):
 Subroutine PRICEL returns:
 Original cell was already a primitive cell.

 Routine SETGRP: Setting up the symmetry group for a
 simple tetragonal supercell.

 Subroutine GETGRP returns: Found  4 space group operations
 (whereof  2 operations were pure point group operations)
 out of a pool of 16 trial point group operations.

The dynamic configuration has the point symmetry C_1h.
 The point group associated with its full space group is C_2v.

 Subroutine INISYM returns: Found  4 space group operations
 (whereof  2 operations are pure point group operations),
 and found     1 'primitive' translations

                                     Primitive cell

  volume of cell :    9881.6133

  direct lattice vectors                    reciprocal lattice vectors
    21.138852197  0.000000000  0.000000000     0.047306258  0.000000000  0.000000000
     0.000000000 21.138852197  0.000000000     0.000000000  0.047306258  0.000000000
     0.000000000  0.000000000 22.113885220     0.000000000  0.000000000  0.045220457

  length of vectors
    21.138852197 21.138852197 22.113885220     0.047306258  0.047306258  0.045220457

  position of ions in fractional coordinates (direct lattice)
     0.660731451  0.500000000  0.613578390
     0.539268477  0.500000000  0.613578390
     0.000000000  0.000000000  0.406984115
     0.100000000  0.100000000  0.406984115
[...]
|           WW  WW  A    A  R   R   N   NN  II  N   NN  G    G                |
|           W    W  A    A  R    R  N    N  II  N    N   GGGG   !!!           |
|     Specifying the vdW parameters                                           |
|     VDW_A1 = 0.447                                                          |
|     VDW_A2 = 6.174                                                          |
|     VDW_S8 = 2.949                                                          |
|     in the INCAR file will overwrite the defaults for pbesol. Please        |
|     make sure that is what you intended.                                    |

         DFTD3 V3.0 Rev 1
 IVDW         = 12
 DF pbesol
 parameters
 VDW_S6       =    1.0000
 VDW_S8       =    2.9491
 VDW_A1       =    0.4466
 VDW_A2       =    6.1742
 k1-k3        =   16.0000    1.3333   -4.0000
 VDW_RADIUS   =   50.2022 A
 VDW_CNRADIUS =   21.1671 A
 Edisp (eV)  -23.39192

 E6    (eV) :    -8.3951
 E8    (eV) :   -14.9968
 % E8        : 64.11

  FORCE on cell =-STRESS in cart. coord.  units (eV):
  Direction    XX          YY          ZZ          XY          YZ          ZX
  Alpha Z  1365.75682  1365.75682  1365.75682
  Ewald  480802.96044480097.24197************    -0.00000     0.00000     0.00003
  Hartree509181.99151508697.68469************     0.00000    -0.00000     0.00001
  E(xc)   -7594.10314 -7594.59855 -7612.25709     0.00000     0.00000    -0.00000
  Local  ************************************     0.00000    -0.00000    -0.00003
  n-local -8810.94684 -8797.64118 -8923.31477    -0.00000    -0.00001     0.00000
  augment  3350.64902  3352.52574  3292.59401    -0.00000    -0.00001    -0.00000
  Kinetic 22936.13121 22942.94475 23206.99232    -0.00000     0.00001     0.00001
  Fock        0.00000     0.00000     0.00000     0.00000     0.00000     0.00000
  vdW       -24.57018   -24.57182    -4.63290     0.00000    -0.00000     0.00000
  Total    -221.77382  -221.27844   -13.49642     0.00000     0.00000     0.00000
  in kB     -35.95779   -35.87747    -2.18827     0.00000     0.00000     0.00000

 VOLUME and BASIS-vectors are now :
  energy-cutoff  :      520.00
  volume of cell :     9881.61
      direct lattice vectors                 reciprocal lattice vectors
    21.138852197  0.000000000  0.000000000     0.047306258  0.000000000  0.000000000
     0.000000000 21.138852197  0.000000000     0.000000000  0.047306258  0.000000000
     0.000000000  0.000000000 22.113885220     0.000000000  0.000000000  0.045220457

  length of vectors
    21.138852197 21.138852197 22.113885220     0.047306258  0.047306258  0.045220457

 FORCES acting on ions:
    Electron-Ion                     Ewald-Force                    Non-Local-Force
   -.270E+03 -.141E-05 -.213E+04   0.264E+03 0.167E-07 0.213E+04   0.551E+01 0.000E+00 -.732E+00
   0.270E+03 -.105E-05 -.213E+04   -.264E+03 0.167E-07 0.213E+04   -.551E+01 0.000E+00 -.732E+00
   -.334E+01 0.489E-06 0.931E+03   0.333E+01 0.847E-08 -.923E+03   0.389E-02 0.000E+00 -.770E+01
   -.186E-03 0.373E+01 0.932E+03   -.146E-05 -.375E+01 -.923E+03   0.000E+00 0.149E-01 -.770E+01
   -.483E+01 0.534E+01 -.923E+03   0.482E+01 -.536E+01 0.915E+03   0.603E-02 0.164E-01 0.765E+01
   -.186E-03 0.488E-06 -.924E+03   -.150E-05 0.890E-08 0.915E+03   0.000E+00 0.000E+00 0.765E+01
   -.565E+01 0.749E+01 0.934E+03   0.565E+01 -.753E+01 -.926E+03   -.363E-02 0.326E-01 -.770E+01
   -.184E-03 0.677E+01 0.935E+03   -.302E-05 -.681E+01 -.926E+03   0.000E+00 0.278E-01 -.770E+01
   -.117E+02 0.108E+02 -.920E+03   0.117E+02 -.109E+02 0.911E+03   -.184E-01 0.333E-01 0.765E+01
   -.185E-03 0.778E+01 -.922E+03   -.268E-05 -.781E+01 0.914E+03   0.339E-20 0.235E-01 0.765E+01
   -.112E+02 0.557E+01 0.939E+03   0.113E+02 -.560E+01 -.931E+03   -.548E-01 0.258E-01 -.770E+01
   -.183E-03 0.500E-06 0.937E+03   -.440E-05 -.915E-08 -.929E+03   0.000E+00 0.000E+00 -.770E+01
   -.189E+02 0.466E-06 -.916E+03   0.190E+02 -.161E-07 0.908E+03   -.622E-01 0.000E+00 0.765E+01
   -.182E-03 0.562E+01 -.920E+03   -.565E-05 -.565E+01 0.912E+03   0.000E+00 0.169E-01 0.765E+01
   -.112E+02 -.557E+01 0.939E+03   0.113E+02 0.560E+01 -.931E+03   -.548E-01 -.258E-01 -.770E+01
   -.184E-03 -.677E+01 0.935E+03   -.302E-05 0.681E+01 -.926E+03   0.000E+00 -.278E-01 -.770E+01
   -.117E+02 -.108E+02 -.920E+03   0.117E+02 0.109E+02 0.911E+03   -.184E-01 -.333E-01 0.765E+01
   -.182E-03 -.562E+01 -.920E+03   -.565E-05 0.565E+01 0.912E+03   0.000E+00 -.169E-01 0.765E+01
   -.565E+01 -.749E+01 0.934E+03   0.565E+01 0.753E+01 -.926E+03   -.363E-02 -.326E-01 -.770E+01
   -.186E-03 -.373E+01 0.932E+03   -.146E-05 0.375E+01 -.923E+03   0.000E+00 -.149E-01 -.770E+01
   -.483E+01 -.534E+01 -.923E+03   0.482E+01 0.536E+01 0.915E+03   0.603E-02 -.164E-01 0.765E+01
   -.185E-03 -.778E+01 -.922E+03   -.268E-05 0.781E+01 0.914E+03   0.339E-20 -.235E-01 0.765E+01
   0.334E+01 0.487E-06 0.931E+03   -.333E+01 0.847E-08 -.923E+03   -.389E-02 0.000E+00 -.770E+01
   0.666E+01 0.599E+01 0.933E+03   -.665E+01 -.602E+01 -.925E+03   -.646E-02 0.236E-01 -.770E+01
   0.483E+01 0.534E+01 -.923E+03   -.482E+01 -.536E+01 0.915E+03   -.603E-02 0.164E-01 0.765E+01
   0.678E+01 0.482E-06 -.922E+03   -.676E+01 0.148E-07 0.914E+03   -.105E-01 0.000E+00 0.765E+01
   0.564E+01 0.749E+01 0.934E+03   -.565E+01 -.753E+01 -.926E+03   0.363E-02 0.326E-01 -.770E+01
   0.159E+02 0.131E+02 0.942E+03   -.159E+02 -.132E+02 -.933E+03   0.325E-01 0.764E-01 -.770E+01
   0.117E+02 0.108E+02 -.920E+03   -.117E+02 -.109E+02 0.911E+03   0.184E-01 0.333E-01 0.765E+01
   0.136E+02 0.150E+02 -.919E+03   -.136E+02 -.150E+02 0.911E+03   -.155E-01 0.496E-01 0.765E+01
   0.112E+02 0.557E+01 0.939E+03   -.113E+02 -.560E+01 -.931E+03   0.548E-01 0.258E-01 -.770E+01
   0.259E+02 0.554E-06 0.950E+03   -.262E+02 -.210E-07 -.942E+03   0.220E+00 0.000E+00 -.773E+01
   0.189E+02 0.543E-06 -.916E+03   -.190E+02 -.161E-07 0.908E+03   0.622E-01 0.000E+00 0.765E+01
   0.378E+02 0.157E+02 -.908E+03   -.380E+02 -.157E+02 0.900E+03   0.131E+00 0.492E-01 0.764E+01
   0.112E+02 -.557E+01 0.939E+03   -.113E+02 0.560E+01 -.931E+03   0.548E-01 -.258E-01 -.770E+01
   0.159E+02 -.131E+02 0.942E+03   -.159E+02 0.132E+02 -.933E+03   0.325E-01 -.764E-01 -.770E+01
   0.117E+02 -.108E+02 -.920E+03   -.117E+02 0.109E+02 0.911E+03   0.184E-01 -.333E-01 0.765E+01
   0.378E+02 -.157E+02 -.908E+03   -.380E+02 0.157E+02 0.900E+03   0.131E+00 -.492E-01 0.764E+01
   0.564E+01 -.749E+01 0.934E+03   -.565E+01 0.753E+01 -.926E+03   0.363E-02 -.326E-01 -.770E+01
   0.666E+01 -.599E+01 0.933E+03   -.665E+01 0.602E+01 -.925E+03   -.646E-02 -.236E-01 -.770E+01
   0.483E+01 -.534E+01 -.923E+03   -.482E+01 0.536E+01 0.915E+03   -.603E-02 -.164E-01 0.765E+01
   0.136E+02 -.150E+02 -.919E+03   -.136E+02 0.150E+02 0.911E+03   -.155E-01 -.496E-01 0.765E+01
   0.583E+01 0.481E-06 0.934E+03   -.582E+01 0.160E-07 -.926E+03   -.840E-02 0.000E+00 -.770E+01
   0.464E+01 0.108E+02 0.937E+03   -.463E+01 -.109E+02 -.929E+03   -.678E-02 0.244E-01 -.771E+01
   0.910E+01 0.116E+02 -.920E+03   -.908E+01 -.116E+02 0.912E+03   -.148E-01 0.138E-01 0.765E+01
   0.462E+01 0.474E-06 -.920E+03   -.461E+01 0.276E-07 0.912E+03   -.810E-02 0.000E+00 0.765E+01
   0.114E+02 0.165E+02 0.941E+03   -.114E+02 -.166E+02 -.933E+03   -.830E-02 0.772E-01 -.772E+01
   0.146E+02 0.321E+02 0.963E+03   -.146E+02 -.324E+02 -.954E+03   -.757E-02 0.248E+00 -.782E+01
   0.332E+02 0.378E+02 -.904E+03   -.331E+02 -.380E+02 0.896E+03   -.668E-01 0.185E+00 0.762E+01
   0.116E+02 0.351E+02 -.911E+03   -.116E+02 -.351E+02 0.903E+03   -.232E-01 0.622E-02 0.763E+01
   0.310E+02 0.180E+02 0.966E+03   -.312E+02 -.183E+02 -.958E+03   0.127E+00 0.178E+00 -.767E+01
   0.316E+02 0.665E-06 0.101E+04   -.317E+02 -.741E-07 -.100E+04   0.128E+00 0.000E+00 -.629E+01
   0.915E+02 0.747E-06 -.859E+03   -.928E+02 -.109E-06 0.851E+03   0.975E+00 0.000E+00 0.768E+01
   0.678E+02 0.940E+02 -.815E+03   -.674E+02 -.953E+02 0.807E+03   -.281E+00 0.101E+01 0.711E+01
   0.310E+02 -.180E+02 0.966E+03   -.312E+02 0.183E+02 -.958E+03   0.127E+00 -.178E+00 -.767E+01
   0.146E+02 -.321E+02 0.963E+03   -.146E+02 0.324E+02 -.954E+03   -.757E-02 -.248E+00 -.782E+01
   0.332E+02 -.378E+02 -.904E+03   -.331E+02 0.380E+02 0.896E+03   -.668E-01 -.185E+00 0.762E+01
   0.678E+02 -.940E+02 -.815E+03   -.674E+02 0.953E+02 0.807E+03   -.281E+00 -.101E+01 0.711E+01
   0.114E+02 -.165E+02 0.941E+03   -.114E+02 0.166E+02 -.933E+03   -.830E-02 -.772E-01 -.772E+01
   0.464E+01 -.108E+02 0.937E+03   -.463E+01 0.109E+02 -.929E+03   -.678E-02 -.244E-01 -.771E+01
[...]
   -.148E+02 0.164E+02 0.715E+03   0.148E+02 -.165E+02 -.719E+03   -.268E-01 0.151E+00 0.353E+01
   -.754E+01 0.824E+01 0.704E+03   0.754E+01 -.828E+01 -.708E+03   -.650E-02 0.513E-01 0.354E+01
   -.495E+02 0.299E+02 -.661E+03   0.496E+02 -.302E+02 0.665E+03   -.202E+00 0.375E+00 -.374E+01
   -.343E+02 0.231E-05 -.680E+03   0.344E+02 -.268E-07 0.684E+03   -.146E+00 0.000E+00 -.367E+01
   -.280E+02 0.231E-05 0.732E+03   0.283E+02 -.316E-07 -.736E+03   -.389E+00 0.000E+00 0.382E+01
   -.170E+02 0.720E+01 0.712E+03   0.171E+02 -.727E+01 -.716E+03   -.114E+00 0.918E-01 0.355E+01
   -.495E+02 -.299E+02 -.661E+03   0.496E+02 0.302E+02 0.665E+03   -.202E+00 -.375E+00 -.374E+01
   -.179E+02 -.145E+02 -.687E+03   0.179E+02 0.146E+02 0.691E+03   -.461E-01 -.960E-01 -.365E+01
   -.148E+02 -.164E+02 0.715E+03   0.148E+02 0.165E+02 -.719E+03   -.268E-01 -.151E+00 0.353E+01
   -.170E+02 -.720E+01 0.712E+03   0.171E+02 0.727E+01 -.716E+03   -.114E+00 -.918E-01 0.355E+01
   -.122E+02 -.183E+02 -.688E+03   0.122E+02 0.184E+02 0.692E+03   0.307E-01 -.372E-01 -.366E+01
   -.626E+01 -.586E+01 -.693E+03   0.625E+01 0.587E+01 0.697E+03   0.113E-01 -.164E-01 -.363E+01
   -.533E+01 -.636E+01 0.703E+03   0.532E+01 0.638E+01 -.707E+03   0.994E-02 -.212E-01 0.354E+01
   -.754E+01 -.824E+01 0.704E+03   0.754E+01 0.828E+01 -.708E+03   -.650E-02 -.513E-01 0.354E+01
   -.109E+00 0.285E-03 0.127E+02   0.128E-11 0.734E-12 0.284E-11   0.563E-15 -.555E-16 -.131E+02

 POSITION                                       TOTAL-FORCE (eV/Angst)
     13.96710     10.56943     13.56860        -0.286672      0.000000     -0.264456
     11.39952     10.56943     13.56860         0.286672      0.000000     -0.264456
      0.00000      0.00000      9.00000        -0.001068      0.000000      0.473274
      2.11389      2.11389      9.00000        -0.000000     -0.004098      0.473002
      0.00000      2.11389     11.11389        -0.001660     -0.004334     -0.457187
      2.11389      0.00000     11.11389        -0.000000      0.000000     -0.457906
      0.00000      4.22777      9.00000         0.001078     -0.008945      0.473224
      2.11389      6.34166      9.00000        -0.000000     -0.007847      0.473304
      0.00000      6.34166     11.11389         0.004310     -0.009147     -0.454158
      2.11389      4.22777     11.11389        -0.000000     -0.006466     -0.456722
      0.00000      8.45554      9.00000         0.014140     -0.007452      0.474358
      2.11389     10.56943      9.00000        -0.000000      0.000000      0.473840
      0.00000     10.56943     11.11389         0.014192      0.000000     -0.452006
      2.11389      8.45554     11.11389        -0.000000     -0.004763     -0.454797
      0.00000     12.68331      9.00000         0.014140      0.007452      0.474358
      2.11389     14.79720      9.00000        -0.000000      0.007847      0.473304
      0.00000     14.79720     11.11389         0.004310      0.009147     -0.454158
      2.11389     12.68331     11.11389        -0.000000      0.004763     -0.454797
      0.00000     16.91108      9.00000         0.001078      0.008945      0.473224
      2.11389     19.02497      9.00000        -0.000000      0.004098      0.473002
      0.00000     19.02497     11.11389        -0.001660      0.004334     -0.457187
      2.11389     16.91108     11.11389        -0.000000      0.006466     -0.456722
      4.22777      0.00000      9.00000         0.001068      0.000000      0.473274
      6.34166      2.11389      9.00000         0.001838     -0.006136      0.474245
      4.22777      2.11389     11.11389         0.001660     -0.004334     -0.457187
      6.34166      0.00000     11.11389         0.003005      0.000000     -0.456807
      4.22777      4.22777      9.00000        -0.001078     -0.008945      0.473224
      6.34166      6.34166      9.00000        -0.009303     -0.021226      0.473645
      4.22777      6.34166     11.11389        -0.004310     -0.009147     -0.454158
      6.34166      4.22777     11.11389         0.004541     -0.012394     -0.453177
      4.22777      8.45554      9.00000        -0.014140     -0.007452      0.474358
      6.34166     10.56943      9.00000        -0.053585      0.000000      0.480462
      4.22777     10.56943     11.11389        -0.014192      0.000000     -0.452006
      6.34166      8.45554     11.11389        -0.030180     -0.013055     -0.442585
      4.22777     12.68331      9.00000        -0.014140      0.007452      0.474358
      6.34166     14.79720      9.00000        -0.009303      0.021226      0.473645
      4.22777     14.79720     11.11389        -0.004310      0.009147     -0.454158
      6.34166     12.68331     11.11389        -0.030180      0.013055     -0.442585
      4.22777     16.91108      9.00000        -0.001078      0.008945      0.473224
      6.34166     19.02497      9.00000         0.001838      0.006136      0.474245
      4.22777     19.02497     11.11389         0.001660      0.004334     -0.457187
      6.34166     16.91108     11.11389         0.004541      0.012394     -0.453177
      8.45554      0.00000      9.00000         0.002459      0.000000      0.474550
     10.56943      2.11389      9.00000         0.002140     -0.006185      0.476528
      8.45554      2.11389     11.11389         0.004476     -0.002970     -0.454006
     10.56943      0.00000     11.11389         0.002440      0.000000     -0.454494
      8.45554      4.22777      9.00000         0.002859     -0.019244      0.479284
     10.56943      6.34166      9.00000         0.005617     -0.057559      0.505068
      8.45554      6.34166     11.11389         0.024526     -0.041235     -0.429153
     10.56943      4.22777     11.11389         0.008293      0.003984     -0.440031
      8.45554      8.45554      9.00000        -0.040162     -0.056545      0.459638
     10.56943     10.56943      9.00000        -0.015852      0.000000      0.148290
      8.45554     10.56943     11.11389        -0.306575      0.000000     -0.432858
     10.56943      8.45554     11.11389         0.120231     -0.313453     -0.242116
      8.45554     12.68331      9.00000        -0.040162      0.056545      0.459638
     10.56943     14.79720      9.00000         0.005617      0.057559      0.505068
      8.45554     14.79720     11.11389         0.024526      0.041235     -0.429153
     10.56943     12.68331     11.11389         0.120231      0.313453     -0.242116
      8.45554     16.91108      9.00000         0.002859      0.019244      0.479284
     10.56943     19.02497      9.00000         0.002140      0.006185      0.476528
[...]
     19.02497      6.34166     11.11389        -0.013347      0.026921      0.380802
     16.91108      6.34166      9.00000        -0.007816      0.042539     -0.409062
     19.02497      4.22777      9.00000        -0.001877      0.014196     -0.406245
     16.91108      8.45554     11.11389        -0.066355      0.109981      0.367515
     19.02497     10.56943     11.11389        -0.043565      0.000000      0.375896
     16.91108     10.56943      9.00000        -0.125485      0.000000     -0.330986
     19.02497      8.45554      9.00000        -0.031704      0.025095     -0.403618
     16.91108     12.68331     11.11389        -0.066355     -0.109981      0.367515
     19.02497     14.79720     11.11389        -0.013347     -0.026921      0.380802
     16.91108     14.79720      9.00000        -0.007816     -0.042539     -0.409062
     19.02497     12.68331      9.00000        -0.031704     -0.025095     -0.403618
     16.91108     16.91108     11.11389         0.008128     -0.010822      0.378255
     19.02497     19.02497     11.11389         0.003032     -0.004551      0.386934
     16.91108     19.02497      9.00000         0.002634     -0.005911     -0.406893
     19.02497     16.91108      9.00000        -0.001877     -0.014196     -0.406245
    total drift:                               -0.108917      0.000285     -0.453765

  FREE ENERGIE OF THE ION-ELECTRON SYSTEM (eV)
  free  energy   TOTEN  =     -1215.31923676 eV

  energy  without entropy=    -1215.31923676  energy(sigma->0) =    -1215.31923676