 vasp.6.4.0 14Feb23 (build Jul 14 2023 13:46:40) complex

 executed on             LinuxIFC date 2023.08.26  00:46:32

 INCAR:
   SYSTEM = MgO-rocksalt
   ISMEAR = 0
   SIGMA = 0.05
   EDIFF = 1E-5
   ALGO = ALL
   ISTART = 0
   IBRION = -1
   NSW = 0
   ISYM = 2
   DIPOL = 0.5 0.5 0.5
   IDIPOL = 3
   LDIPOL = .TRUE.
   LHFCALC = .TRUE.
   HFSCREEN = 0.2
   GGA = PE
   IVDW = 13
   VDW_S8 = 1.19528249
   VDW_A1 = 0.38663183
   VDW_A2 = 5.19133469
   ENCUT = 520
   PREC = Accurate
   LASPH = .TRUE.
   LREAL = Auto
   ISPIN = 1
   NELM = 200
   NELMIN = 8
   NCORE = 4
   KPAR = 2
   LWAVE = .FALSE.
   LCHARG = .FALSE.

 POTCAR:    PAW_PBE Ag 02Apr2005
 POTCAR:    PAW_PBE Mg_pv 13Apr2007
 POTCAR:    PAW_PBE O 08Apr2002
|           W    W    AA    RRRRR   N    N  II  N    N   GGGG   !!!           |
|           W    W   A  A   R    R  NN   N  II  NN   N  G    G  !!!           |
|           W    W  A    A  R    R  N N  N  II  N N  N  G       !!!           |
|           W WW W  AAAAAA  RRRRR   N  N N  II  N  N N  G  GGG   !            |
|           WW  WW  A    A  R   R   N   NN  II  N   NN  G    G                |
|           W    W  A    A  R    R  N    N  II  N    N   GGGG   !!!           |
|     You have selected ISYM=2 for a HF type calculation. This will           |
|     symmetrize the charge density but not the exchange potential. I         |
|     suggest to use ISYM=3 instead. This uses symmetry to obtain the         |
|     orbitals at all k-points in the Brillouin zone, but does not apply      |
|     symmetry to the Hartree potential directly. The resultant charge        |
|     might have lower symmetry than the crystal but, at least, Hartree       |
|     and exchange are fully compatible.                                      |

   TITEL  = PAW_PBE Ag 02Apr2005
   POMASS =  107.868; ZVAL   =   11.000    mass and valenz
   ENMAX  =  249.844; ENMIN  =  187.383 eV

   TITEL  = PAW_PBE Mg_pv 13Apr2007
   POMASS =   24.305; ZVAL   =    8.000    mass and valenz
   ENMAX  =  403.929; ENMIN  =  302.947 eV

   TITEL  = PAW_PBE O 08Apr2002
   POMASS =   16.000; ZVAL   =    6.000    mass and valenz
   ENMAX  =  400.000; ENMIN  =  300.000 eV

 Optimization of the real space projectors (new method)

 maximal supplied QI-value         = 15.12
 optimisation between [QCUT,QGAM] = [ 11.64, 23.28] = [ 37.95,151.78] Ry
 Optimized for a Real-space Cutoff    1.45 Angstroem

   l    n(q)    QCUT    max X(q) W(low)/X(q) W(high)/X(q)  e(spline)
   2      9    11.641    53.897    0.22E-03    0.42E-04    0.28E-06
   2      9    11.641    52.416    0.23E-03    0.44E-04    0.29E-06
   0     10    11.641   122.045    0.51E-04    0.25E-04    0.16E-06
   0     10    11.641    73.629    0.49E-04    0.24E-04    0.16E-06
   1     10    11.641    15.255    0.99E-04    0.55E-04    0.11E-06
   1     10    11.641     9.562    0.81E-04    0.47E-04    0.95E-07
 Optimization of the real space projectors (new method)

[...]

   l    n(q)    QCUT    max X(q) W(low)/X(q) W(high)/X(q)  e(spline)
   1      8    11.527     2.974    0.44E-04    0.56E-04    0.12E-06
   1      8    11.527     4.279    0.12E-03    0.12E-03    0.26E-06
   0      9    11.527    16.381    0.46E-04    0.64E-04    0.78E-07
   0      9    11.527     5.611    0.26E-04    0.43E-04    0.55E-07
   2      8    11.527     4.652    0.22E-03    0.72E-04    0.47E-07
 Optimization of the real space projectors (new method)

 maximal supplied QI-value         = 24.76
 optimisation between [QCUT,QGAM] = [ 11.64, 23.27] = [ 37.91,151.63] Ry
 Optimized for a Real-space Cutoff    1.14 Angstroem

   l    n(q)    QCUT    max X(q) W(low)/X(q) W(high)/X(q)  e(spline)
   0      8    11.635    20.381    0.10E-03    0.33E-03    0.24E-06
   0      8    11.635    15.268    0.11E-03    0.35E-03    0.26E-06
   1      7    11.635     5.964    0.24E-03    0.31E-03    0.30E-06
   1      7    11.635     5.382    0.22E-03    0.25E-03    0.26E-06
  PAW_PBE Ag 02Apr2005                  :
  PAW_PBE Mg_pv 13Apr2007               :
  PAW_PBE O 08Apr2002                   :

 POSCAR: Ag Mg  O
  positions in direct lattice
  velocities in cartesian coordinates
|           W    W    AA    RRRRR   N    N  II  N    N   GGGG   !!!           |
|           W    W   A  A   R    R  NN   N  II  NN   N  G    G  !!!           |
|           W    W  A    A  R    R  N N  N  II  N N  N  G       !!!           |
|           W WW W  AAAAAA  RRRRR   N  N N  II  N  N N  G  GGG   !            |
|           WW  WW  A    A  R   R   N   NN  II  N   NN  G    G                |
|           W    W  A    A  R    R  N    N  II  N    N   GGGG   !!!           |
|     Specifying the vdW parameters                                           |
|     VDW_S8 = 1.195                                                          |
|     VDW_A1 = 0.387                                                          |
|     VDW_A2 = 5.191                                                          |
|     in the INCAR file will overwrite the defaults for hse06. Please         |
|     make sure that is what you intended.                                    |

 ion  position               nearest neighbor table
   1  0.400  0.563  0.612- 157 2.54   4 2.67   3 2.71  55 2.75
   2  0.400  0.500  0.835-   3 2.58
   3  0.400  0.499  0.718-   2 2.58   1 2.71   4 2.71
   4  0.400  0.436  0.612- 153 2.53   1 2.67   3 2.71  55 2.76
   5  0.000  0.000  0.407- 107 2.11 108 2.11 123 2.11 188 2.11 105 2.11
   6  0.100  0.100  0.407- 107 2.11 108 2.11 112 2.11 127 2.11 106 2.11
   7  0.000  0.100  0.503- 105 2.11 106 2.11 109 2.11 186 2.11 107 2.11
   8  0.100  0.000  0.503- 105 2.11 106 2.11 122 2.11 125 2.11 108 2.11
   9  0.000  0.200  0.407- 111 2.11 107 2.11 112 2.11 192 2.11 109 2.11
  10  0.100  0.300  0.407- 112 2.11 111 2.11 116 2.11 131 2.11 110 2.11
  11  0.000  0.300  0.503- 109 2.11 110 2.11 113 2.11 190 2.11 111 2.11
  12  0.100  0.200  0.503- 110 2.11 109 2.11 106 2.11 129 2.11 112 2.11
  13  0.000  0.400  0.407- 111 2.11 115 2.11 116 2.11 196 2.11 113 2.11
  14  0.100  0.500  0.407- 115 2.11 116 2.11 120 2.11 135 2.11 114 2.11
  15  0.000  0.500  0.503- 113 2.11 114 2.11 117 2.11 194 2.11 115 2.11
  16  0.100  0.400  0.503- 110 2.11 113 2.11 114 2.11 133 2.11 116 2.11
  17  0.000  0.600  0.407- 115 2.11 119 2.11 120 2.11 200 2.11 117 2.11
  18  0.100  0.700  0.407- 124 2.11 120 2.11 119 2.11 139 2.11 118 2.11
  19  0.000  0.700  0.503- 121 2.11 118 2.11 117 2.11 198 2.11 119 2.11
  20  0.100  0.600  0.503- 114 2.11 117 2.11 118 2.11 137 2.11 120 2.11
  21  0.000  0.800  0.407- 119 2.11 123 2.11 124 2.11 204 2.11 121 2.11
  22  0.100  0.900  0.407- 108 2.11 123 2.11 124 2.11 143 2.11 122 2.11
  23  0.000  0.900  0.503- 105 2.11 121 2.11 122 2.11 202 2.11 123 2.11
  24  0.100  0.800  0.503- 118 2.11 121 2.11 122 2.11 141 2.11 124 2.11
  25  0.200  0.000  0.407- 128 2.11 127 2.11 108 2.11 143 2.11 125 2.11
  26  0.300  0.100  0.407- 127 2.11 128 2.11 132 2.11 147 2.11 126 2.11
  27  0.200  0.100  0.503- 126 2.11 125 2.11 106 2.11 129 2.11 127 2.11
  28  0.300  0.000  0.503- 125 2.11 126 2.11 142 2.11 145 2.11 128 2.11
  29  0.200  0.200  0.407- 131 2.11 132 2.11 112 2.11 127 2.11 129 2.11
  30  0.300  0.300  0.407- 131 2.11 132 2.11 136 2.11 151 2.11 130 2.11
  31  0.200  0.300  0.503- 129 2.11 130 2.11 110 2.11 133 2.11 131 2.11
  32  0.300  0.200  0.503- 129 2.11 130 2.11 126 2.11 149 2.11 132 2.11
  33  0.200  0.400  0.407- 136 2.11 131 2.11 135 2.11 116 2.11 133 2.11
  34  0.300  0.500  0.407- 135 2.11 136 2.11 140 2.11 155 2.11 134 2.11
  35  0.200  0.500  0.503- 134 2.11 133 2.11 114 2.11 137 2.11 135 2.11
  36  0.300  0.400  0.503- 133 2.11 130 2.11 134 2.11 153 2.11 136 2.11
  37  0.200  0.600  0.407- 140 2.11 135 2.11 139 2.11 120 2.11 137 2.11
  38  0.300  0.700  0.407- 139 2.11 144 2.11 140 2.11 159 2.11 138 2.11
  39  0.200  0.700  0.503- 138 2.11 141 2.11 118 2.11 137 2.11 139 2.11
  40  0.300  0.600  0.503- 137 2.11 134 2.11 138 2.11 157 2.11 140 2.11
  41  0.200  0.800  0.407- 139 2.11 144 2.11 143 2.11 124 2.11 141 2.11
  42  0.300  0.900  0.407- 143 2.11 128 2.11 144 2.11 163 2.11 142 2.11
  43  0.200  0.900  0.503- 142 2.11 125 2.11 141 2.11 122 2.11 143 2.11
  44  0.300  0.800  0.503- 138 2.11 141 2.11 142 2.11 161 2.11 144 2.11
  45  0.400  0.000  0.407- 128 2.11 147 2.11 148 2.11 163 2.11 145 2.11
  46  0.500  0.100  0.407- 147 2.11 148 2.11 152 2.11 167 2.11 146 2.11
  47  0.400  0.100  0.503- 126 2.11 145 2.11 146 2.11 149 2.11 147 2.11
  48  0.500  0.000  0.503- 145 2.11 146 2.11 162 2.11 165 2.11 148 2.11
  49  0.400  0.200  0.407- 151 2.11 147 2.11 132 2.11 152 2.11 149 2.11
  50  0.500  0.300  0.407- 152 2.11 151 2.11 156 2.11 171 2.11 150 2.11
  51  0.400  0.300  0.503- 149 2.11 130 2.11 150 2.11 153 2.11 151 2.11
  52  0.500  0.200  0.503- 150 2.11 149 2.11 146 2.11 169 2.11 152 2.11
  53  0.400  0.400  0.407- 136 2.11 151 2.11 155 2.11 156 2.11 153 2.11
  54  0.500  0.500  0.407- 155 2.11 156 2.11 160 2.11 175 2.11 154 2.11
  55  0.400  0.500  0.503- 134 2.11 153 2.11 154 2.11 157 2.11 155 2.11   1 2.75   4 2.76
  56  0.500  0.400  0.503- 150 2.11 153 2.11 154 2.11 173 2.11 156 2.11
  57  0.400  0.600  0.407- 140 2.11 155 2.11 159 2.11 160 2.11 157 2.11
  58  0.500  0.700  0.407- 164 2.11 160 2.11 159 2.11 179 2.11 158 2.11
  59  0.400  0.700  0.503- 161 2.11 157 2.11 158 2.11 138 2.11 159 2.11
  60  0.500  0.600  0.503- 154 2.11 157 2.11 158 2.11 177 2.11 160 2.11
[...]
 190  0.900  0.300  0.503-  92 2.11  91 2.11  11 2.11  96 2.11  90 2.11
 191  0.800  0.300  0.407-  70 2.11  89 2.11  90 2.11  93 2.11  91 2.11
 192  0.900  0.200  0.407-  90 2.11  86 2.11  89 2.11   9 2.11  92 2.11
 193  0.800  0.400  0.503-  76 2.11  91 2.11  95 2.11  96 2.11  93 2.11
 194  0.900  0.500  0.503-  15 2.11  95 2.11  96 2.11 100 2.11  94 2.11
 195  0.800  0.500  0.407-  74 2.11  93 2.11  94 2.11  97 2.11  95 2.11
 196  0.900  0.400  0.407-  13 2.11  90 2.11  93 2.11  94 2.11  96 2.11
 197  0.800  0.600  0.503-  80 2.11  95 2.11  99 2.11 100 2.11  97 2.11
 198  0.900  0.700  0.503- 104 2.11  99 2.11 100 2.11  19 2.11  98 2.11
 199  0.800  0.700  0.407-  78 2.11 101 2.11  98 2.11  97 2.11  99 2.11
 200  0.900  0.600  0.407-  17 2.11  94 2.11  97 2.11  98 2.11 100 2.11
 201  0.800  0.800  0.503-  84 2.11  99 2.11 103 2.11 104 2.11 101 2.11
 202  0.900  0.900  0.503-  23 2.11  88 2.11 103 2.11 104 2.11 102 2.11
 203  0.800  0.900  0.407-  82 2.11  85 2.11 101 2.11 102 2.11 103 2.11
 204  0.900  0.800  0.407-  98 2.11  21 2.11 101 2.11 102 2.11 104 2.11

  LATTYP: Found a simple tetragonal cell.
 ALAT       =    21.1388521970
 C/A-ratio  =     1.0461251639

  Lattice vectors:

 A1 = (  21.1388521970,   0.0000000000,   0.0000000000)
 A2 = (   0.0000000000,  21.1388521970,   0.0000000000)
 A3 = (   0.0000000000,   0.0000000000,  22.1138852197)

Analysis of symmetry for initial positions (statically):
 Subroutine PRICEL returns:
 Original cell was already a primitive cell.

 Routine SETGRP: Setting up the symmetry group for a
 simple tetragonal supercell.

 Subroutine GETGRP returns: Found  1 space group operations
 (whereof  1 operations were pure point group operations)
 out of a pool of 16 trial point group operations.

[...]
     22     -46.8453      2.00000
     23     -46.8371      2.00000
     24     -46.8337      2.00000
     25     -46.8323      2.00000
     26     -46.8300      2.00000
     27     -46.8131      2.00000
     28     -46.8041      2.00000
     29     -46.8033      2.00000
     30     -46.8027      2.00000
     31     -46.8019      2.00000
     32     -46.7657      2.00000
     33     -46.7586      2.00000
     34     -46.7576      2.00000
     35     -46.7535      2.00000
     36     -46.7518      2.00000
     37     -46.7512      2.00000
     38     -46.7507      2.00000
     39     -46.7499      2.00000
     40     -46.7496      2.00000
     41     -46.7492      2.00000
     42     -46.7491      2.00000
     43     -46.7332      2.00000
     44     -46.7320      2.00000
     45     -46.7306      2.00000
     46     -46.7295      2.00000
     47     -46.7279      2.00000
     48     -46.7205      2.00000
     49     -46.7202      2.00000
     50     -46.7195      2.00000
     51     -46.7192      2.00000
     52     -46.7153      2.00000
     53     -46.7151      2.00000
     54     -46.7085      2.00000
     55     -46.7080      2.00000
     56     -46.7073      2.00000
     57     -46.7067      2.00000
     58     -46.7060      2.00000
     59     -46.7052      2.00000
     60     -46.7049      2.00000
[...]
    946       6.2785      0.00000
    947       6.3033      0.00000
    948       6.3235      0.00000
    949       6.3490      0.00000
    950       6.3959      0.00000
    951       6.4268      0.00000
    952       6.5178      0.00000
    953       6.5722      0.00000
    954       6.6474      0.00000
    955       6.7201      0.00000
    956       6.8250      0.00000
    957       6.8512      0.00000
    958       7.0276      0.00000
    959       7.0705      0.00000
    960       7.1753      0.00000

 soft charge-density along one line, spin component           1
         0         1         2         3         4         5         6         7         8         9
 total charge-density along one line

------------------------ aborting loop because EDIFF is reached ----------------------------------------

 VOLUME and BASIS-vectors are now :
  energy-cutoff  :      520.00
  volume of cell :     9881.61
      direct lattice vectors                 reciprocal lattice vectors
    21.138852197  0.000000000  0.000000000     0.047306258  0.000000000  0.000000000
     0.000000000 21.138852197  0.000000000     0.000000000  0.047306258  0.000000000
     0.000000000  0.000000000 22.113885220     0.000000000  0.000000000  0.045220457

  length of vectors
    21.138852197 21.138852197 22.113885220     0.047306258  0.047306258  0.045220457

 FORCES acting on ions:
    Electron-Ion                     Ewald-Force                    Non-Local-Force
   -.477E+00 -.384E+03 -.187E+04   0.464E+00 0.376E+03 0.187E+04   0.858E-02 0.769E+01 -.186E+01
   -.148E+00 -.993E+00 -.113E+04   0.141E+00 0.967E+00 0.113E+04   0.520E-02 0.255E-01 0.750E+01
   0.648E+00 0.109E+01 -.162E+04   -.637E+00 -.107E+01 0.162E+04   -.969E-02 -.226E-01 -.138E+01
   -.801E-01 0.383E+03 -.187E+04   0.760E-01 -.376E+03 0.187E+04   0.828E-03 -.767E+01 -.185E+01
   0.615E+01 0.323E-01 0.935E+03   -.618E+01 -.325E-01 -.927E+03   0.234E-01 0.155E-03 -.721E+01
   0.120E+02 0.911E+01 0.939E+03   -.121E+02 -.914E+01 -.930E+03   0.508E-01 0.198E-01 -.721E+01
   0.880E+01 0.829E+01 -.918E+03   -.884E+01 -.829E+01 0.910E+03   0.280E-01 0.416E-02 0.710E+01
   0.129E+02 0.588E-01 -.917E+03   -.129E+02 -.592E-01 0.909E+03   0.395E-01 0.272E-03 0.710E+01
   0.945E+01 0.111E+02 0.938E+03   -.950E+01 -.111E+02 -.930E+03   0.402E-01 0.102E-01 -.722E+01
   0.245E+02 0.176E+02 0.949E+03   -.247E+02 -.177E+02 -.941E+03   0.125E+00 0.251E-01 -.722E+01
   0.182E+02 0.153E+02 -.913E+03   -.182E+02 -.153E+02 0.904E+03   0.496E-01 0.212E-02 0.709E+01
   0.234E+02 0.220E+02 -.911E+03   -.235E+02 -.220E+02 0.903E+03   0.895E-01 0.203E-01 0.709E+01
   0.163E+02 0.757E+01 0.944E+03   -.164E+02 -.757E+01 -.936E+03   0.627E-01 0.420E-02 -.722E+01
   0.355E+02 -.655E-01 0.958E+03   -.357E+02 0.660E-01 -.950E+03   0.150E+00 -.332E-03 -.723E+01
   0.261E+02 -.527E-01 -.908E+03   -.262E+02 0.530E-01 0.900E+03   0.519E-01 -.163E-03 0.709E+01
   0.515E+02 0.180E+02 -.896E+03   -.517E+02 -.180E+02 0.887E+03   0.142E+00 0.192E-02 0.708E+01
   0.163E+02 -.763E+01 0.944E+03   -.164E+02 0.763E+01 -.936E+03   0.625E-01 -.445E-02 -.722E+01
   0.244E+02 -.177E+02 0.949E+03   -.246E+02 0.177E+02 -.940E+03   0.124E+00 -.252E-01 -.722E+01
   0.181E+02 -.153E+02 -.913E+03   -.182E+02 0.153E+02 0.904E+03   0.493E-01 -.221E-02 0.709E+01
   0.514E+02 -.181E+02 -.896E+03   -.516E+02 0.181E+02 0.887E+03   0.141E+00 -.239E-02 0.708E+01
   0.941E+01 -.111E+02 0.938E+03   -.947E+01 0.111E+02 -.930E+03   0.399E-01 -.101E-01 -.722E+01
   0.120E+02 -.903E+01 0.939E+03   -.121E+02 0.905E+01 -.930E+03   0.505E-01 -.193E-01 -.721E+01
   0.878E+01 -.821E+01 -.918E+03   -.882E+01 0.822E+01 0.910E+03   0.279E-01 -.391E-02 0.710E+01
   0.233E+02 -.219E+02 -.911E+03   -.234E+02 0.219E+02 0.903E+03   0.887E-01 -.201E-01 0.709E+01
   0.109E+02 0.636E-01 0.940E+03   -.110E+02 -.642E-01 -.931E+03   0.437E-01 0.446E-03 -.721E+01
   0.864E+01 0.168E+02 0.946E+03   -.870E+01 -.170E+02 -.937E+03   0.398E-01 0.870E-01 -.721E+01
   0.172E+02 0.184E+02 -.912E+03   -.173E+02 -.185E+02 0.903E+03   0.583E-01 0.533E-01 0.710E+01
   0.908E+01 0.118E+00 -.912E+03   -.912E+01 -.119E+00 0.904E+03   0.283E-01 0.704E-03 0.710E+01
   0.196E+02 0.238E+02 0.950E+03   -.197E+02 -.240E+02 -.941E+03   0.108E+00 0.802E-01 -.720E+01
   0.246E+02 0.427E+02 0.982E+03   -.248E+02 -.430E+02 -.974E+03   0.195E+00 0.195E+00 -.709E+01
   0.534E+02 0.482E+02 -.885E+03   -.538E+02 -.483E+02 0.876E+03   0.307E+00 0.445E-01 0.709E+01
   0.226E+02 0.547E+02 -.892E+03   -.227E+02 -.551E+02 0.884E+03   0.942E-01 0.269E+00 0.711E+01
   0.439E+02 0.205E+02 0.979E+03   -.444E+02 -.205E+02 -.970E+03   0.299E+00 0.328E-01 -.725E+01
   0.455E+02 -.205E+00 0.103E+04   -.460E+02 0.208E+00 -.102E+04   0.314E+00 -.203E-02 -.722E+01
   0.103E+03 -.235E+00 -.849E+03   -.104E+03 0.236E+00 0.841E+03   0.275E+00 -.636E-03 0.705E+01
   0.115E+03 0.853E+02 -.769E+03   -.117E+03 -.852E+02 0.760E+03   0.120E+01 -.103E-01 0.709E+01
   0.438E+02 -.206E+02 0.979E+03   -.442E+02 0.207E+02 -.970E+03   0.297E+00 -.340E-01 -.724E+01
   0.244E+02 -.426E+02 0.982E+03   -.247E+02 0.429E+02 -.974E+03   0.194E+00 -.194E+00 -.709E+01
   0.530E+02 -.481E+02 -.885E+03   -.535E+02 0.482E+02 0.877E+03   0.304E+00 -.450E-01 0.709E+01
   0.114E+03 -.858E+02 -.770E+03   -.116E+03 0.858E+02 0.761E+03   0.119E+01 0.603E-02 0.709E+01
   0.195E+02 -.238E+02 0.950E+03   -.197E+02 0.239E+02 -.941E+03   0.107E+00 -.795E-01 -.720E+01
   0.861E+01 -.167E+02 0.946E+03   -.867E+01 0.168E+02 -.937E+03   0.395E-01 -.856E-01 -.721E+01
   0.172E+02 -.182E+02 -.912E+03   -.172E+02 0.183E+02 0.904E+03   0.579E-01 -.523E-01 0.710E+01
   0.224E+02 -.543E+02 -.893E+03   -.225E+02 0.547E+02 0.884E+03   0.932E-01 -.266E+00 0.711E+01
   0.151E-01 0.896E-01 0.943E+03   -.152E-01 -.907E-01 -.935E+03   0.281E-04 0.717E-03 -.722E+01
   -.862E+01 0.169E+02 0.946E+03   0.868E+01 -.170E+02 -.937E+03   -.397E-01 0.870E-01 -.721E+01
   0.251E-01 0.284E+02 -.906E+03   -.251E-01 -.285E+02 0.898E+03   0.376E-04 0.129E+00 0.710E+01
   -.905E+01 0.117E+00 -.912E+03   0.909E+01 -.118E+00 0.904E+03   -.283E-01 0.697E-03 0.710E+01
   0.307E-01 0.370E+02 0.962E+03   -.309E-01 -.373E+02 -.953E+03   0.908E-04 0.257E+00 -.720E+01
   -.245E+02 0.427E+02 0.983E+03   0.248E+02 -.430E+02 -.974E+03   -.194E+00 0.195E+00 -.709E+01
   0.144E+00 0.119E+03 -.825E+03   -.144E+00 -.121E+03 0.816E+03   0.462E-03 0.115E+01 0.733E+01
   -.225E+02 0.547E+02 -.892E+03   0.227E+02 -.551E+02 0.884E+03   -.941E-01 0.269E+00 0.711E+01
   0.101E+00 0.406E+02 0.104E+04   -.101E+00 -.408E+02 -.103E+04   -.595E-04 0.156E+00 -.592E+01
   -.454E+02 -.198E+00 0.103E+04   0.459E+02 0.201E+00 -.102E+04   -.314E+00 -.208E-02 -.722E+01
   0.615E+00 -.671E+00 -.564E+03   -.618E+00 0.681E+00 0.558E+03   0.642E-03 -.119E-01 0.444E+01
   -.115E+03 0.855E+02 -.768E+03   0.117E+03 -.855E+02 0.760E+03   -.120E+01 -.913E-02 0.709E+01
   0.109E+00 -.409E+02 0.104E+04   -.109E+00 0.411E+02 -.103E+04   -.187E-03 -.158E+00 -.593E+01
   -.243E+02 -.427E+02 0.982E+03   0.246E+02 0.430E+02 -.974E+03   -.193E+00 -.194E+00 -.709E+01
   0.165E+00 -.119E+03 -.826E+03   -.167E+00 0.120E+03 0.818E+03   0.718E-03 -.114E+01 0.732E+01
   -.114E+03 -.861E+02 -.769E+03   0.116E+03 0.861E+02 0.761E+03   -.119E+01 0.519E-02 0.709E+01
[...]
   -.979E+01 0.881E+01 0.707E+03   0.983E+01 -.882E+01 -.711E+03   -.486E-01 0.110E-01 0.310E+01
   -.140E-01 0.717E+01 0.704E+03   0.140E-01 -.718E+01 -.708E+03   -.274E-04 0.759E-02 0.310E+01
   -.179E+02 0.755E+01 -.683E+03   0.179E+02 -.755E+01 0.687E+03   -.491E-01 0.465E-03 -.329E+01
   -.368E-01 -.301E-01 -.685E+03   0.369E-01 0.302E-01 0.689E+03   -.380E-04 -.127E-03 -.329E+01
   -.134E+02 -.289E-01 0.710E+03   0.134E+02 0.291E-01 -.714E+03   -.561E-01 -.183E-03 0.310E+01
   -.239E-01 0.472E+01 0.707E+03   0.240E-01 -.472E+01 -.711E+03   -.371E-04 0.265E-02 0.310E+01
   -.178E+02 -.761E+01 -.683E+03   0.179E+02 0.761E+01 0.687E+03   -.490E-01 -.738E-03 -.329E+01
   -.269E-01 -.930E+01 -.687E+03   0.269E-01 0.930E+01 0.692E+03   -.529E-04 -.197E-02 -.328E+01
   -.976E+01 -.882E+01 0.707E+03   0.980E+01 0.883E+01 -.711E+03   -.484E-01 -.111E-01 0.310E+01
   -.245E-01 -.476E+01 0.707E+03   0.245E-01 0.476E+01 -.711E+03   -.508E-04 -.288E-02 0.310E+01
   -.941E+01 -.106E+02 -.688E+03   0.944E+01 0.106E+02 0.692E+03   -.366E-01 -.950E-02 -.327E+01
   -.135E-01 -.523E+01 -.691E+03   0.135E-01 0.524E+01 0.695E+03   -.368E-04 -.341E-02 -.326E+01
   -.526E+01 -.491E+01 0.703E+03   0.529E+01 0.492E+01 -.707E+03   -.292E-01 -.910E-02 0.310E+01
   -.147E-01 -.716E+01 0.704E+03   0.147E-01 0.716E+01 -.708E+03   -.359E-04 -.750E-02 0.310E+01
   -.266E-01 -.524E-02 0.456E+01   0.262E-11 -.102E-11 -.898E-11   0.190E-01 0.111E-01 -.422E+01

 POSITION                                       TOTAL-FORCE (eV/Angst)
      8.46109     11.89365     13.52833        -0.003683      0.084381     -0.055785
      8.45935     10.56642     18.47179        -0.001074      0.000438      0.131447
      8.45769     10.55816     15.88881         0.000779     -0.001003      0.029843
      8.45973      9.22287     13.52627        -0.002171     -0.067649     -0.061913
      0.00000      0.00000      9.00000        -0.007452     -0.000063      0.602953
      2.11389      2.11389      9.00000        -0.016265     -0.006473      0.602767
      0.00000      2.11389     11.11389        -0.008697     -0.001337     -0.556302
      2.11389      0.00000     11.11389        -0.012575     -0.000089     -0.556494
      0.00000      4.22777      9.00000        -0.012466     -0.003357      0.603875
      2.11389      6.34166      9.00000        -0.038379     -0.008181      0.605011
      0.00000      6.34166     11.11389        -0.014757     -0.000454     -0.551609
      2.11389      4.22777     11.11389        -0.027434     -0.006456     -0.552738
      0.00000      8.45554      9.00000        -0.019224     -0.001257      0.605712
      2.11389     10.56943      9.00000        -0.047165      0.000089      0.607716
      0.00000     10.56943     11.11389        -0.015008      0.000037     -0.547171
      2.11389      8.45554     11.11389        -0.040606      0.000535     -0.539667
      0.00000     12.68331      9.00000        -0.019159      0.001337      0.605629
      2.11389     14.79720      9.00000        -0.038119      0.008211      0.604972
      0.00000     14.79720     11.11389        -0.014667      0.000463     -0.551593
      2.11389     12.68331     11.11389        -0.040445     -0.000394     -0.539697
      0.00000     16.91108      9.00000        -0.012385      0.003326      0.603848
      2.11389     19.02497      9.00000        -0.016172      0.006305      0.602769
      0.00000     19.02497     11.11389        -0.008658      0.001238     -0.556282
      2.11389     16.91108     11.11389        -0.027200      0.006402     -0.552772
      4.22777      0.00000      9.00000        -0.014258     -0.000148      0.602659
      6.34166      2.11389      9.00000        -0.013270     -0.026836      0.600763
      4.22777      2.11389     11.11389        -0.018828     -0.016250     -0.554602
      6.34166      0.00000     11.11389        -0.009292     -0.000252     -0.554985
      4.22777      4.22777      9.00000        -0.035615     -0.026694      0.597332
      6.34166      6.34166      9.00000        -0.070140     -0.068864      0.552886
      4.22777      6.34166     11.11389        -0.092938     -0.012248     -0.542554
      6.34166      4.22777     11.11389        -0.031474     -0.082333     -0.554299
      4.22777      8.45554      9.00000        -0.089552     -0.009152      0.605964
      6.34166     10.56943      9.00000        -0.112778      0.000733      0.567378
      4.22777     10.56943     11.11389        -0.078898      0.000159     -0.499443
      6.34166      8.45554     11.11389        -0.466941      0.019791     -0.617253
      4.22777     12.68331      9.00000        -0.089053      0.009498      0.605859
      6.34166     14.79720      9.00000        -0.069771      0.068630      0.553741
      4.22777     14.79720     11.11389        -0.091936      0.012463     -0.542675
      6.34166     12.68331     11.11389        -0.461396     -0.018034     -0.616546
      4.22777     16.91108      9.00000        -0.035262      0.026460      0.597592
      6.34166     19.02497      9.00000        -0.013211      0.026381      0.600804
      4.22777     19.02497     11.11389        -0.018698      0.015934     -0.554560
      6.34166     16.91108     11.11389        -0.031206      0.081322     -0.554185
      8.45554      0.00000      9.00000        -0.000001     -0.000246      0.602045
     10.56943      2.11389      9.00000         0.013275     -0.026852      0.600766
      8.45554      2.11389     11.11389        -0.000006     -0.038602     -0.553759
     10.56943      0.00000     11.11389         0.009275     -0.000210     -0.554980
      8.45554      4.22777      9.00000        -0.000033     -0.077386      0.591944
     10.56943      6.34166      9.00000         0.070093     -0.068807      0.552802
      8.45554      6.34166     11.11389        -0.000167     -0.422150     -0.667790
     10.56943      4.22777     11.11389         0.031450     -0.082433     -0.554313
      8.45554      8.45554      9.00000         0.000074     -0.036109      0.252372
     10.56943     10.56943      9.00000         0.112734      0.000733      0.566823
      8.45554     10.56943     11.11389        -0.002258     -0.002850     -0.893452
     10.56943      8.45554     11.11389         0.468060      0.018998     -0.618964
      8.45554     12.68331      9.00000         0.000117      0.036254      0.255292
     10.56943     14.79720      9.00000         0.069687      0.068584      0.553629
      8.45554     14.79720     11.11389        -0.000279      0.417355     -0.663826
     10.56943     12.68331     11.11389         0.462959     -0.017131     -0.619188
[...]
     19.02497      6.34166     11.11389        -0.000018      0.000625      0.373183
     16.91108      6.34166      9.00000        -0.015870      0.003592     -0.424495
     19.02497      4.22777      9.00000         0.000010      0.002456     -0.424153
     16.91108      8.45554     11.11389        -0.016200      0.000193      0.368125
     19.02497     10.56943     11.11389         0.000002     -0.000035      0.370163
     16.91108     10.56943      9.00000        -0.018326     -0.000077     -0.425812
     19.02497      8.45554      9.00000        -0.000003      0.000932     -0.425145
     16.91108     12.68331     11.11389        -0.016159     -0.000342      0.368157
     19.02497     14.79720     11.11389        -0.000003     -0.000691      0.373205
     16.91108     14.79720      9.00000        -0.015784     -0.003615     -0.424499
     19.02497     12.68331      9.00000        -0.000019     -0.001019     -0.425154
     16.91108     16.91108     11.11389        -0.011953     -0.003141      0.374580
     19.02497     19.02497     11.11389         0.000021     -0.001134      0.377223
     16.91108     19.02497      9.00000        -0.009445     -0.002910     -0.423686
     19.02497     16.91108      9.00000        -0.000020     -0.002468     -0.424150
    total drift:                               -0.002302      0.001440     -0.573280

  FREE ENERGIE OF THE ION-ELECTRON SYSTEM (eV)
  free  energy   TOTEN  =     -1388.16072353 eV

  energy  without entropy=    -1388.16072353  energy(sigma->0) =    -1388.16072353