 vasp.6.3.0 20Jan22 (build Apr  1 2022 16:44:48) complex
 executed on        HPECrayEX_GCC date 2022.08.15  20:46:08

 INCAR:
   SYSTEM = MgO-rocksalt
   ISMEAR = 0
   SIGMA = 0.05
   EDIFF = 1E-6
   ALGO = ALL
   ISTART = 0
   IBRION = -1
   NSW = 0
   ISYM = 2
   DIPOL = 0.5 0.5 0.5
   IDIPOL = 3
   LDIPOL = .TRUE.
   GGA = RE
   ENCUT = 520
   PREC = Accurate
   LASPH = .TRUE.
   LREAL = Auto
   ISPIN = 1
   NELM = 200
   NELMIN = 8
   NCORE = 4
   KPAR = 2
   LWAVE = .FALSE.
   LCHARG = .FALSE.

 POTCAR:    PAW_PBE Ag 02Apr2005
 POTCAR:    PAW_PBE Mg_pv 13Apr2007
 POTCAR:    PAW_PBE O 08Apr2002
 POTCAR:    PAW_PBE Ag 02Apr2005
   VRHFIN =Ag : s1 d10

   TITEL  = PAW_PBE Ag 02Apr2005
   POMASS =  107.868; ZVAL   =   11.000    mass and valenz
   ENMAX  =  249.844; ENMIN  =  187.383 eV

   TITEL  = PAW_PBE Mg_pv 13Apr2007
   POMASS =   24.305; ZVAL   =    8.000    mass and valenz
   ENMAX  =  403.929; ENMIN  =  302.947 eV

   TITEL  = PAW_PBE O 08Apr2002
   POMASS =   16.000; ZVAL   =    6.000    mass and valenz
   ENMAX  =  400.000; ENMIN  =  300.000 eV

 Optimization of the real space projectors (new method)

 maximal supplied QI-value         = 15.12
 optimisation between [QCUT,QGAM] = [ 11.64, 23.28] = [ 37.95,151.78] Ry
 Optimized for a Real-space Cutoff    1.45 Angstroem

   l    n(q)    QCUT    max X(q) W(low)/X(q) W(high)/X(q)  e(spline)
   2      9    11.641    53.897    0.22E-03    0.42E-04    0.28E-06
   2      9    11.641    52.416    0.23E-03    0.44E-04    0.29E-06
   0     10    11.641   122.045    0.51E-04    0.25E-04    0.16E-06
   0     10    11.641    73.629    0.49E-04    0.24E-04    0.16E-06
   1     10    11.641    15.255    0.99E-04    0.55E-04    0.11E-06
   1     10    11.641     9.562    0.81E-04    0.47E-04    0.95E-07
 Optimization of the real space projectors (new method)

[...]

   l    n(q)    QCUT    max X(q) W(low)/X(q) W(high)/X(q)  e(spline)
   1      8    11.527     2.974    0.44E-04    0.56E-04    0.12E-06
   1      8    11.527     4.279    0.12E-03    0.12E-03    0.26E-06
   0      9    11.527    16.381    0.46E-04    0.64E-04    0.78E-07
   0      9    11.527     5.611    0.26E-04    0.43E-04    0.55E-07
   2      8    11.527     4.652    0.22E-03    0.72E-04    0.47E-07
 Optimization of the real space projectors (new method)

 maximal supplied QI-value         = 24.76
 optimisation between [QCUT,QGAM] = [ 11.64, 23.27] = [ 37.91,151.63] Ry
 Optimized for a Real-space Cutoff    1.14 Angstroem

   l    n(q)    QCUT    max X(q) W(low)/X(q) W(high)/X(q)  e(spline)
   0      8    11.635    20.381    0.10E-03    0.33E-03    0.24E-06
   0      8    11.635    15.268    0.11E-03    0.35E-03    0.26E-06
   1      7    11.635     5.964    0.24E-03    0.31E-03    0.30E-06
   1      7    11.635     5.382    0.22E-03    0.25E-03    0.26E-06
|               ----> ADVICE to this user running VASP <----                  |
|     You enforced a specific xc type in the INCAR file but a different       |
|     type was found in the POTCAR file.                                      |
|     I HOPE YOU KNOW WHAT YOU ARE DOING!                                     |

  PAW_PBE Ag 02Apr2005                  :
  PAW_PBE Mg_pv 13Apr2007               :
  PAW_PBE O 08Apr2002                   :

 POSCAR: Ag Mg  O
  positions in direct lattice
 exchange correlation table for  LEXCH =       40
   RHO(1)=    0.500       N(1)  =     2000
   RHO(2)=  100.500       N(2)  =     4000

 ion  position               nearest neighbor table
   1  0.450  0.450  0.726-   2 2.56
   2  0.450  0.450  0.610-   1 2.56  53 2.81  54 2.81
   3  0.000  0.000  0.407- 105 2.11 106 2.11 121 2.11 186 2.11 103 2.11
   4  0.100  0.100  0.407- 105 2.11 106 2.11 110 2.11 125 2.11 104 2.11
   5  0.000  0.100  0.503- 103 2.11 104 2.11 107 2.11 184 2.11 105 2.11
   6  0.100  0.000  0.503- 103 2.11 104 2.11 120 2.11 123 2.11 106 2.11
   7  0.000  0.200  0.407- 109 2.11 105 2.11 110 2.11 190 2.11 107 2.11
   8  0.100  0.300  0.407- 110 2.11 109 2.11 114 2.11 129 2.11 108 2.11
   9  0.000  0.300  0.503- 107 2.11 108 2.11 111 2.11 188 2.11 109 2.11
  10  0.100  0.200  0.503- 108 2.11 107 2.11 104 2.11 127 2.11 110 2.11
  11  0.000  0.400  0.407- 109 2.11 113 2.11 114 2.11 194 2.11 111 2.11
  12  0.100  0.500  0.407- 113 2.11 114 2.11 118 2.11 133 2.11 112 2.11
  13  0.000  0.500  0.503- 111 2.11 112 2.11 115 2.11 192 2.11 113 2.11
  14  0.100  0.400  0.503- 108 2.11 111 2.11 112 2.11 131 2.11 114 2.11
  15  0.000  0.600  0.407- 113 2.11 117 2.11 118 2.11 198 2.11 115 2.11
  16  0.100  0.700  0.407- 122 2.11 118 2.11 117 2.11 137 2.11 116 2.11
  17  0.000  0.700  0.503- 119 2.11 116 2.11 115 2.11 196 2.11 117 2.11
  18  0.100  0.600  0.503- 112 2.11 115 2.11 116 2.11 135 2.11 118 2.11
  19  0.000  0.800  0.407- 117 2.11 121 2.11 122 2.11 202 2.11 119 2.11
  20  0.100  0.900  0.407- 106 2.11 121 2.11 122 2.11 141 2.11 120 2.11
  21  0.000  0.900  0.503- 103 2.11 119 2.11 120 2.11 200 2.11 121 2.11
  22  0.100  0.800  0.503- 116 2.11 119 2.11 120 2.11 139 2.11 122 2.11
  23  0.200  0.000  0.407- 126 2.11 125 2.11 106 2.11 141 2.11 123 2.11
  24  0.300  0.100  0.407- 125 2.11 126 2.11 130 2.11 145 2.11 124 2.11
  25  0.200  0.100  0.503- 124 2.11 123 2.11 104 2.11 127 2.11 125 2.11
  26  0.300  0.000  0.503- 123 2.11 124 2.11 140 2.11 143 2.11 126 2.11
  27  0.200  0.200  0.407- 129 2.11 130 2.11 110 2.11 125 2.11 127 2.11
  28  0.300  0.300  0.407- 129 2.11 130 2.11 134 2.11 149 2.11 128 2.11
  29  0.200  0.300  0.503- 127 2.11 128 2.11 108 2.11 131 2.11 129 2.11
  30  0.300  0.200  0.503- 127 2.11 128 2.11 124 2.11 147 2.11 130 2.11
  31  0.200  0.400  0.407- 134 2.11 129 2.11 133 2.11 114 2.11 131 2.11
  32  0.300  0.500  0.407- 133 2.11 134 2.11 138 2.11 153 2.11 132 2.11
  33  0.200  0.500  0.503- 132 2.11 131 2.11 112 2.11 135 2.11 133 2.11
  34  0.300  0.400  0.503- 131 2.11 128 2.11 132 2.11 151 2.11 134 2.11
  35  0.200  0.600  0.407- 138 2.11 133 2.11 137 2.11 118 2.11 135 2.11
  36  0.300  0.700  0.407- 137 2.11 142 2.11 138 2.11 157 2.11 136 2.11
  37  0.200  0.700  0.503- 136 2.11 139 2.11 116 2.11 135 2.11 137 2.11
  38  0.300  0.600  0.503- 135 2.11 132 2.11 136 2.11 155 2.11 138 2.11
  39  0.200  0.800  0.407- 137 2.11 142 2.11 141 2.11 122 2.11 139 2.11
  40  0.300  0.900  0.407- 141 2.11 126 2.11 142 2.11 161 2.11 140 2.11
  41  0.200  0.900  0.503- 140 2.11 123 2.11 139 2.11 120 2.11 141 2.11
  42  0.300  0.800  0.503- 136 2.11 139 2.11 140 2.11 159 2.11 142 2.11
  43  0.400  0.000  0.407- 126 2.11 145 2.11 146 2.11 161 2.11 143 2.11
  44  0.500  0.100  0.407- 145 2.11 146 2.11 150 2.11 165 2.11 144 2.11
  45  0.400  0.100  0.503- 124 2.11 143 2.11 144 2.11 147 2.11 145 2.11
  46  0.500  0.000  0.503- 143 2.11 144 2.11 160 2.11 163 2.11 146 2.11
  47  0.400  0.200  0.407- 149 2.11 145 2.11 130 2.11 150 2.11 147 2.11
  48  0.500  0.300  0.407- 150 2.11 149 2.11 154 2.11 169 2.11 148 2.11
  49  0.400  0.300  0.503- 147 2.11 128 2.11 148 2.11 151 2.11 149 2.11
  50  0.500  0.200  0.503- 148 2.11 147 2.11 144 2.11 167 2.11 150 2.11
  51  0.400  0.400  0.407- 134 2.11 149 2.11 153 2.11 154 2.11 151 2.11
  52  0.500  0.500  0.407- 153 2.11 154 2.11 158 2.11 173 2.11 152 2.11
  53  0.400  0.500  0.503- 132 2.11 151 2.11 152 2.11 155 2.11 153 2.11   2 2.81
  54  0.500  0.400  0.503- 148 2.11 151 2.11 152 2.11 171 2.11 154 2.11   2 2.81
  55  0.400  0.600  0.407- 138 2.11 153 2.11 157 2.11 158 2.11 155 2.11
  56  0.500  0.700  0.407- 162 2.11 158 2.11 157 2.11 177 2.11 156 2.11
  57  0.400  0.700  0.503- 159 2.11 155 2.11 156 2.11 136 2.11 157 2.11
  58  0.500  0.600  0.503- 152 2.11 155 2.11 156 2.11 175 2.11 158 2.11
  59  0.400  0.800  0.407- 157 2.11 142 2.11 161 2.11 162 2.11 159 2.11
  60  0.500  0.900  0.407- 146 2.11 161 2.11 162 2.11 181 2.11 160 2.11
[...]
 188  0.900  0.300  0.503-  90 2.11  89 2.11   9 2.11  94 2.11  88 2.11
 189  0.800  0.300  0.407-  68 2.11  87 2.11  88 2.11  91 2.11  89 2.11
 190  0.900  0.200  0.407-  88 2.11  84 2.11  87 2.11   7 2.11  90 2.11
 191  0.800  0.400  0.503-  74 2.11  89 2.11  93 2.11  94 2.11  91 2.11
 192  0.900  0.500  0.503-  13 2.11  93 2.11  94 2.11  98 2.11  92 2.11
 193  0.800  0.500  0.407-  72 2.11  91 2.11  92 2.11  95 2.11  93 2.11
 194  0.900  0.400  0.407-  11 2.11  88 2.11  91 2.11  92 2.11  94 2.11
 195  0.800  0.600  0.503-  78 2.11  93 2.11  97 2.11  98 2.11  95 2.11
 196  0.900  0.700  0.503- 102 2.11  97 2.11  98 2.11  17 2.11  96 2.11
 197  0.800  0.700  0.407-  76 2.11  99 2.11  96 2.11  95 2.11  97 2.11
 198  0.900  0.600  0.407-  15 2.11  92 2.11  95 2.11  96 2.11  98 2.11
 199  0.800  0.800  0.503-  82 2.11  97 2.11 101 2.11 102 2.11  99 2.11
 200  0.900  0.900  0.503-  21 2.11  86 2.11 101 2.11 102 2.11 100 2.11
 201  0.800  0.900  0.407-  80 2.11  83 2.11  99 2.11 100 2.11 101 2.11
 202  0.900  0.800  0.407-  96 2.11  19 2.11  99 2.11 100 2.11 102 2.11

  LATTYP: Found a simple tetragonal cell.
 ALAT       =    21.1388521970
 C/A-ratio  =     1.0461251639

  Lattice vectors:

 A1 = (  21.1388521970,   0.0000000000,   0.0000000000)
 A2 = (   0.0000000000,  21.1388521970,   0.0000000000)
 A3 = (   0.0000000000,   0.0000000000,  22.1138852197)

Analysis of symmetry for initial positions (statically):
 Subroutine PRICEL returns:
 Original cell was already a primitive cell.

 Routine SETGRP: Setting up the symmetry group for a
 simple tetragonal supercell.

 Subroutine GETGRP returns: Found  4 space group operations
 (whereof  2 operations were pure point group operations)
 out of a pool of 16 trial point group operations.

The static configuration has the point symmetry C_1h.
 The point group associated with its full space group is C_2v.

Analysis of symmetry for dynamics (positions and initial velocities):
 Subroutine PRICEL returns:
 Original cell was already a primitive cell.

 Routine SETGRP: Setting up the symmetry group for a
 simple tetragonal supercell.

 Subroutine GETGRP returns: Found  4 space group operations
 (whereof  2 operations were pure point group operations)
 out of a pool of 16 trial point group operations.

The dynamic configuration has the point symmetry C_1h.
 The point group associated with its full space group is C_2v.

 Subroutine INISYM returns: Found  4 space group operations
 (whereof  2 operations are pure point group operations),
 and found     1 'primitive' translations

                                     Primitive cell

  volume of cell :    9881.6133

  direct lattice vectors                    reciprocal lattice vectors
    21.138852197  0.000000000  0.000000000     0.047306258  0.000000000  0.000000000
     0.000000000 21.138852197  0.000000000     0.000000000  0.047306258  0.000000000
     0.000000000  0.000000000 22.113885220     0.000000000  0.000000000  0.045220457

  length of vectors
    21.138852197 21.138852197 22.113885220     0.047306258  0.047306258  0.045220457

  position of ions in fractional coordinates (direct lattice)
     0.449999988  0.450000018  0.725800575
     0.449999988  0.450000018  0.610040178
     0.000000000  0.000000000  0.406984115
     0.100000000  0.100000000  0.406984115
     0.000000000  0.100000000  0.502574971
     0.100000000  0.000000000  0.502574971
[...]
     52     -42.9022      2.00000
     53     -42.9017      2.00000
     54     -42.9014      2.00000
     55     -42.9003      2.00000
     56     -42.9003      2.00000
     57     -42.8998      2.00000
     58     -42.8994      2.00000
     59     -42.8989      2.00000
     60     -42.8972      2.00000
[...]
    882       4.8382      0.00000
    883       4.8520      0.00000
    884       4.8683      0.00000
    885       4.8783      0.00000
    886       4.9486      0.00000
    887       5.0617      0.00000
    888       5.1467      0.00000
    889       5.2447      0.00000
    890       5.3438      0.00000
    891       5.4811      0.00000
    892       5.5615      0.00000
    893       5.6454      0.00000
    894       5.7110      0.00000
    895       5.7504      0.00000
    896       5.7837      0.00000

 soft charge-density along one line, spin component           1
         0         1         2         3         4         5         6         7         8         9
 total charge-density along one line

------------------------ aborting loop because EDIFF is reached ----------------------------------------

  FORCE on cell =-STRESS in cart. coord.  units (eV):
  Direction    XX          YY          ZZ          XY          YZ          ZX
  Alpha Z  1357.53553  1357.53553  1357.53553
  Ewald  475865.30748475865.30748************    -8.48416    -0.00001     0.00001
  Hartree504610.14835504610.14832************    -1.96281    -0.00000     0.00001
  E(xc)   -7792.07691 -7792.07690 -7840.70131     0.01029     0.00000    -0.00000
  Local  ************************************     9.11930     0.00001    -0.00001
  n-local -8726.87730 -8726.87729 -8851.75607    -0.51312     0.00000    -0.00000
  augment  3463.78778  3463.78777  3403.02975     0.70606    -0.00000    -0.00000
  Kinetic 22975.93639 22975.93638 23215.94366     0.36782    -0.00000    -0.00000
  Fock        0.00000     0.00000     0.00000     0.00000     0.00000     0.00000
  Total    -103.90115  -103.90115    40.93656    -0.75662     0.00000     0.00000
  in kB     -16.84624   -16.84624     6.63734    -0.12268     0.00000     0.00000

 VOLUME and BASIS-vectors are now :
  energy-cutoff  :      520.00
  volume of cell :     9881.61
      direct lattice vectors                 reciprocal lattice vectors
    21.138852197  0.000000000  0.000000000     0.047306258  0.000000000  0.000000000
     0.000000000 21.138852197  0.000000000     0.000000000  0.047306258  0.000000000
     0.000000000  0.000000000 22.113885220     0.000000000  0.000000000  0.045220457

  length of vectors
    21.138852197 21.138852197 22.113885220     0.047306258  0.047306258  0.045220457

 FORCES acting on ions:
    Electron-Ion                     Ewald-Force                    Non-Local-Force
   0.311E-04 -.137E-03 -.170E+04   0.119E-07 -.862E-08 0.169E+04   0.000E+00 0.000E+00 0.762E+01
   0.275E-04 -.133E-03 -.187E+04   0.417E-05 -.431E-05 0.188E+04   0.000E+00 0.000E+00 -.606E+01
   0.167E+01 0.167E+01 0.931E+03   -.168E+01 -.168E+01 -.923E+03   0.389E-02 0.389E-02 -.753E+01
   0.586E+01 0.586E+01 0.933E+03   -.588E+01 -.588E+01 -.925E+03   0.161E-01 0.161E-01 -.753E+01
   0.274E+01 0.562E+01 -.922E+03   -.275E+01 -.563E+01 0.914E+03   0.784E-02 0.519E-02 0.749E+01
   0.562E+01 0.274E+01 -.922E+03   -.563E+01 -.275E+01 0.914E+03   0.519E-02 0.784E-02 0.749E+01
   0.297E+01 0.586E+01 0.933E+03   -.299E+01 -.587E+01 -.925E+03   0.149E-01 0.857E-02 -.753E+01
   0.118E+02 0.706E+01 0.938E+03   -.119E+02 -.708E+01 -.930E+03   0.577E-01 0.112E-01 -.754E+01
   0.568E+01 0.643E+01 -.919E+03   -.570E+01 -.644E+01 0.911E+03   0.150E-01 0.295E-02 0.749E+01
   0.119E+02 0.107E+02 -.918E+03   -.120E+02 -.108E+02 0.911E+03   0.294E-01 0.102E-01 0.749E+01
   0.474E+01 0.198E+01 0.935E+03   -.476E+01 -.198E+01 -.928E+03   0.196E-01 0.736E-03 -.754E+01
   0.144E+02 -.287E+01 0.940E+03   -.144E+02 0.289E+01 -.932E+03   0.577E-01 -.126E-01 -.755E+01
   0.692E+01 -.257E+01 -.918E+03   -.693E+01 0.257E+01 0.910E+03   0.587E-02 -.343E-02 0.748E+01
   0.224E+02 0.420E+01 -.913E+03   -.225E+02 -.420E+01 0.905E+03   0.439E-01 -.488E-02 0.748E+01
   0.401E+01 -.499E+01 0.934E+03   -.402E+01 0.500E+01 -.926E+03   0.601E-02 -.771E-02 -.754E+01
   0.851E+01 -.792E+01 0.935E+03   -.853E+01 0.794E+01 -.927E+03   0.160E-01 -.148E-01 -.754E+01
   0.406E+01 -.742E+01 -.920E+03   -.406E+01 0.743E+01 0.913E+03   -.201E-02 -.463E-02 0.749E+01
   0.178E+02 -.997E+01 -.915E+03   -.178E+02 0.999E+01 0.908E+03   0.144E-01 -.991E-02 0.748E+01
   0.213E+01 -.451E+01 0.931E+03   -.213E+01 0.452E+01 -.924E+03   -.697E-04 -.548E-02 -.753E+01
   0.451E+01 -.213E+01 0.931E+03   -.452E+01 0.213E+01 -.924E+03   0.548E-02 0.697E-04 -.753E+01
   0.207E+01 -.207E+01 -.922E+03   -.207E+01 0.207E+01 0.915E+03   0.889E-04 -.889E-04 0.749E+01
   0.770E+01 -.770E+01 -.921E+03   -.770E+01 0.770E+01 0.913E+03   0.329E-02 -.329E-02 0.749E+01
   0.586E+01 0.297E+01 0.933E+03   -.587E+01 -.299E+01 -.925E+03   0.857E-02 0.149E-01 -.753E+01
   0.706E+01 0.118E+02 0.938E+03   -.708E+01 -.119E+02 -.930E+03   0.112E-01 0.577E-01 -.754E+01
   0.107E+02 0.119E+02 -.918E+03   -.108E+02 -.120E+02 0.911E+03   0.102E-01 0.294E-01 0.749E+01
   0.643E+01 0.568E+01 -.919E+03   -.644E+01 -.570E+01 0.911E+03   0.295E-02 0.150E-01 0.749E+01
   0.122E+02 0.122E+02 0.939E+03   -.123E+02 -.123E+02 -.931E+03   0.479E-01 0.479E-01 -.754E+01
   0.200E+02 0.200E+02 0.958E+03   -.201E+02 -.201E+02 -.950E+03   0.136E+00 0.136E+00 -.754E+01
   0.310E+02 0.196E+02 -.906E+03   -.311E+02 -.196E+02 0.898E+03   0.123E+00 0.795E-02 0.747E+01
   0.196E+02 0.310E+02 -.906E+03   -.196E+02 -.311E+02 0.898E+03   0.795E-02 0.123E+00 0.747E+01
   0.236E+02 0.518E+01 0.951E+03   -.239E+02 -.518E+01 -.943E+03   0.200E+00 -.228E-04 -.759E+01
   0.284E+02 -.953E+01 0.971E+03   -.287E+02 0.970E+01 -.964E+03   0.207E+00 -.121E+00 -.760E+01
   0.436E+02 -.919E+01 -.898E+03   -.437E+02 0.922E+01 0.891E+03   0.907E-01 -.248E-01 0.745E+01
   0.728E+02 0.249E+02 -.856E+03   -.739E+02 -.248E+02 0.849E+03   0.834E+00 -.514E-01 0.744E+01
   0.185E+02 -.119E+02 0.945E+03   -.185E+02 0.119E+02 -.938E+03   0.666E-01 -.469E-01 -.756E+01
   0.119E+02 -.185E+02 0.945E+03   -.119E+02 0.185E+02 -.938E+03   0.469E-01 -.666E-01 -.756E+01
   0.184E+02 -.184E+02 -.913E+03   -.184E+02 0.184E+02 0.906E+03   0.153E-01 -.153E-01 0.748E+01
   0.411E+02 -.411E+02 -.885E+03   -.412E+02 0.412E+02 0.878E+03   0.811E-01 -.811E-01 0.743E+01
   0.792E+01 -.851E+01 0.935E+03   -.794E+01 0.853E+01 -.927E+03   0.148E-01 -.160E-01 -.754E+01
   0.499E+01 -.401E+01 0.934E+03   -.500E+01 0.402E+01 -.926E+03   0.771E-02 -.601E-02 -.754E+01
   0.742E+01 -.406E+01 -.920E+03   -.743E+01 0.406E+01 0.913E+03   0.463E-02 0.201E-02 0.749E+01
   0.997E+01 -.178E+02 -.915E+03   -.999E+01 0.178E+02 0.908E+03   0.991E-02 -.144E-01 0.748E+01
   0.198E+01 0.474E+01 0.935E+03   -.198E+01 -.476E+01 -.928E+03   0.736E-03 0.196E-01 -.754E+01
   -.287E+01 0.144E+02 0.940E+03   0.289E+01 -.144E+02 -.932E+03   -.126E-01 0.577E-01 -.755E+01
   0.420E+01 0.224E+02 -.913E+03   -.420E+01 -.225E+02 0.905E+03   -.488E-02 0.439E-01 0.748E+01
   -.257E+01 0.692E+01 -.918E+03   0.257E+01 -.693E+01 0.910E+03   -.343E-02 0.587E-02 0.748E+01
   0.518E+01 0.236E+02 0.951E+03   -.518E+01 -.239E+02 -.943E+03   -.228E-04 0.200E+00 -.759E+01
   -.953E+01 0.284E+02 0.971E+03   0.970E+01 -.287E+02 -.964E+03   -.121E+00 0.207E+00 -.760E+01
   0.249E+02 0.728E+02 -.856E+03   -.248E+02 -.739E+02 0.849E+03   -.514E-01 0.834E+00 0.744E+01
   -.919E+01 0.436E+02 -.898E+03   0.922E+01 -.437E+02 0.891E+03   -.248E-01 0.907E-01 0.745E+01
   0.154E+02 0.154E+02 0.996E+03   -.154E+02 -.154E+02 -.989E+03   0.193E-01 0.193E-01 -.668E+01
   -.154E+02 -.154E+02 0.996E+03   0.154E+02 0.154E+02 -.989E+03   -.193E-01 -.193E-01 -.668E+01
   0.681E+02 -.681E+02 -.748E+03   -.692E+02 0.692E+02 0.741E+03   0.688E+00 -.688E+00 0.658E+01
   -.681E+02 0.681E+02 -.748E+03   0.692E+02 -.692E+02 0.741E+03   -.688E+00 0.688E+00 0.658E+01
   0.953E+01 -.284E+02 0.971E+03   -.970E+01 0.287E+02 -.964E+03   0.121E+00 -.207E+00 -.760E+01
   -.518E+01 -.236E+02 0.951E+03   0.518E+01 0.239E+02 -.943E+03   0.228E-04 -.200E+00 -.759E+01
   0.919E+01 -.436E+02 -.898E+03   -.922E+01 0.437E+02 0.891E+03   0.248E-01 -.907E-01 0.745E+01
   -.249E+02 -.728E+02 -.856E+03   0.248E+02 0.739E+02 0.849E+03   0.514E-01 -.834E+00 0.744E+01
   0.287E+01 -.144E+02 0.940E+03   -.289E+01 0.144E+02 -.932E+03   0.126E-01 -.577E-01 -.755E+01
   -.198E+01 -.474E+01 0.935E+03   0.198E+01 0.476E+01 -.928E+03   -.736E-03 -.196E-01 -.754E+01
[...]
   -.890E+01 0.529E+01 0.705E+03   0.892E+01 -.531E+01 -.709E+03   -.293E-01 0.228E-01 0.344E+01
   -.224E+01 0.440E+01 0.701E+03   0.224E+01 -.440E+01 -.705E+03   -.173E-02 0.998E-02 0.344E+01
   -.168E+02 0.314E+01 -.686E+03   0.169E+02 -.315E+01 0.690E+03   -.307E-01 0.151E-01 -.354E+01
   -.519E+01 -.193E+01 -.690E+03   0.519E+01 0.193E+01 0.694E+03   -.118E-01 0.425E-03 -.352E+01
   -.108E+02 -.217E+01 0.706E+03   0.108E+02 0.217E+01 -.710E+03   -.529E-01 0.889E-03 0.343E+01
   -.356E+01 0.148E+01 0.703E+03   0.357E+01 -.148E+01 -.707E+03   -.106E-01 0.606E-02 0.344E+01
   -.133E+02 -.748E+01 -.688E+03   0.133E+02 0.749E+01 0.692E+03   -.385E-01 -.876E-02 -.353E+01
   -.304E+01 -.556E+01 -.692E+03   0.304E+01 0.557E+01 0.696E+03   -.117E-01 -.783E-02 -.351E+01
   -.637E+01 -.593E+01 0.703E+03   0.639E+01 0.595E+01 -.707E+03   -.336E-01 -.236E-01 0.344E+01
   -.300E+01 -.375E+01 0.702E+03   0.302E+01 0.375E+01 -.706E+03   -.162E-01 -.812E-02 0.344E+01
   -.576E+01 -.576E+01 -.692E+03   0.578E+01 0.578E+01 0.696E+03   -.166E-01 -.166E-01 -.351E+01
   -.155E+01 -.155E+01 -.693E+03   0.155E+01 0.155E+01 0.698E+03   -.386E-02 -.386E-02 -.350E+01
   -.338E+01 -.159E+01 0.700E+03   0.339E+01 0.160E+01 -.704E+03   -.943E-02 -.879E-02 0.345E+01
   -.159E+01 -.338E+01 0.700E+03   0.160E+01 0.339E+01 -.704E+03   -.879E-02 -.943E-02 0.345E+01
   -.301E-01 0.150E-01 0.385E+01   0.122E-11 0.185E-11 0.239E-10   0.113E-15 0.168E-15 -.450E+01

 POSITION                                       TOTAL-FORCE (eV/Angst)
      9.51248      9.51248     16.05027        -0.000000      0.000000      0.282524
      9.51248      9.51248     13.49036        -0.000000      0.000000      0.073697
      0.00000      0.00000      9.00000        -0.001069     -0.001069      0.245446
      2.11389      2.11389      9.00000        -0.004454     -0.004454      0.245820
      0.00000      2.11389     11.11389        -0.002067     -0.001420     -0.234568
      2.11389      0.00000     11.11389        -0.001420     -0.002067     -0.234568
      0.00000      4.22777      9.00000        -0.003946     -0.002399      0.246206
      2.11389      6.34166      9.00000        -0.015137     -0.003269      0.248251
      0.00000      6.34166     11.11389        -0.003748     -0.000801     -0.232399
      2.11389      4.22777     11.11389        -0.007471     -0.002844     -0.231593
      0.00000      8.45554      9.00000        -0.005109     -0.000193      0.247258
      2.11389     10.56943      9.00000        -0.015149      0.003698      0.249680
      0.00000     10.56943     11.11389        -0.001271      0.000968     -0.231563
      2.11389      8.45554     11.11389        -0.009876      0.001506     -0.226615
      0.00000     12.68331      9.00000        -0.001604      0.002157      0.246878
      2.11389     14.79720      9.00000        -0.004269      0.004002      0.247202
      0.00000     14.79720     11.11389         0.000602      0.001230     -0.233522
      2.11389     12.68331     11.11389        -0.003027      0.002624     -0.228568
      0.00000     16.91108      9.00000         0.000008      0.001512      0.245789
      2.11389     19.02497      9.00000        -0.001512     -0.000008      0.245789
      0.00000     19.02497     11.11389        -0.000023      0.000023     -0.235156
      2.11389     16.91108     11.11389        -0.000784      0.000784     -0.233565
      4.22777      0.00000      9.00000        -0.002399     -0.003946      0.246206
      6.34166      2.11389      9.00000        -0.003269     -0.015137      0.248251
      4.22777      2.11389     11.11389        -0.002844     -0.007471     -0.231593
      6.34166      0.00000     11.11389        -0.000801     -0.003748     -0.232399
      4.22777      4.22777      9.00000        -0.013559     -0.013559      0.246445
      6.34166      6.34166      9.00000        -0.045003     -0.045003      0.238339
      4.22777      6.34166     11.11389        -0.029827     -0.002359     -0.219532
      6.34166      4.22777     11.11389        -0.002359     -0.029827     -0.219532
      4.22777      8.45554      9.00000        -0.050027      0.000118      0.257800
      6.34166     10.56943      9.00000        -0.058733      0.039620      0.251896
      4.22777     10.56943     11.11389        -0.021367      0.007207     -0.208215
      6.34166      8.45554     11.11389        -0.238356      0.023283     -0.160777
      4.22777     12.68331      9.00000        -0.018076      0.013078      0.251934
      6.34166     14.79720      9.00000        -0.013078      0.018076      0.251934
      4.22777     14.79720     11.11389        -0.003328      0.003328     -0.226502
      6.34166     12.68331     11.11389        -0.013746      0.013746     -0.187053
      4.22777     16.91108      9.00000        -0.004002      0.004269      0.247202
      6.34166     19.02497      9.00000        -0.002157      0.001604      0.246878
      4.22777     19.02497     11.11389        -0.001230     -0.000602     -0.233522
      6.34166     16.91108     11.11389        -0.002624      0.003027     -0.228568
      8.45554      0.00000      9.00000        -0.000193     -0.005109      0.247258
     10.56943      2.11389      9.00000         0.003698     -0.015149      0.249680
      8.45554      2.11389     11.11389         0.001506     -0.009876     -0.226615
     10.56943      0.00000     11.11389         0.000968     -0.001271     -0.231563
      8.45554      4.22777      9.00000         0.000118     -0.050027      0.257800
     10.56943      6.34166      9.00000         0.039620     -0.058733      0.251896
      8.45554      6.34166     11.11389         0.023283     -0.238356     -0.160777
     10.56943      4.22777     11.11389         0.007207     -0.021367     -0.208215
      8.45554      8.45554      9.00000        -0.003973     -0.003973      0.027292
     10.56943     10.56943      9.00000         0.003973      0.003973      0.027292
      8.45554     10.56943     11.11389        -0.433156      0.433156     -0.508776
     10.56943      8.45554     11.11389         0.433156     -0.433156     -0.508776
      8.45554     12.68331      9.00000        -0.039620      0.058733      0.251896
     10.56943     14.79720      9.00000        -0.000118      0.050027      0.257800
      8.45554     14.79720     11.11389        -0.007207      0.021367     -0.208215
     10.56943     12.68331     11.11389        -0.023283      0.238356     -0.160777
      8.45554     16.91108      9.00000        -0.003698      0.015149      0.249680
     10.56943     19.02497      9.00000         0.000193      0.005109      0.247258
[...]
     19.02497      6.34166     11.11389        -0.000629      0.001877      0.652364
     16.91108      6.34166      9.00000        -0.008076      0.006310     -0.669718
     19.02497      4.22777      9.00000        -0.000468      0.002754     -0.667362
     16.91108      8.45554     11.11389        -0.008600      0.004213      0.645678
     19.02497     10.56943     11.11389        -0.003269      0.000116      0.651344
     16.91108     10.56943      9.00000        -0.014693      0.000221     -0.670307
     19.02497      8.45554      9.00000        -0.002920      0.001684     -0.668368
     16.91108     12.68331     11.11389        -0.010692     -0.002463      0.648537
     19.02497     14.79720     11.11389        -0.003229     -0.002163      0.653771
     16.91108     14.79720      9.00000        -0.009251     -0.006515     -0.667660
     19.02497     12.68331      9.00000        -0.004480     -0.002258     -0.667813
     16.91108     16.91108     11.11389        -0.004549     -0.004549      0.653977
     19.02497     19.02497     11.11389        -0.001059     -0.001059      0.655557
     16.91108     19.02497      9.00000        -0.002591     -0.002419     -0.666773
     19.02497     16.91108      9.00000        -0.002419     -0.002591     -0.666773
    total drift:                               -0.030146      0.015004     -0.647729

  FREE ENERGIE OF THE ION-ELECTRON SYSTEM (eV)
  free  energy   TOTEN  =     -1088.56731441 eV

  energy  without entropy=    -1088.56731441  energy(sigma->0) =    -1088.56731441