 vasp.6.4.0 14Feb23 (build Jul 14 2023 13:46:40) complex

 executed on             LinuxIFC date 2023.08.22  17:49:59

 INCAR:
   SYSTEM = MgO-rocksalt
   ISMEAR = 0
   SIGMA = 0.05
   EDIFF = 1E-6
   ALGO = ALL
   ISTART = 0
   IBRION = -1
   NSW = 0
   ISYM = 2
   DIPOL = 0.5 0.5 0.5
   IDIPOL = 3
   LDIPOL = .TRUE.
   GGA = MK
   LUSE_VDW = .TRUE.
   PARAM1 = 0.1234
   PARAM2 = 0.711357
   ZAB_VDW = -1.8867
   AGGAC = 0.0
   ENCUT = 520
   PREC = Accurate
   LASPH = .TRUE.
   LREAL = Auto
   ISPIN = 1
   NELM = 200
   NELMIN = 8
   NCORE = 4
   KPAR = 2
   LWAVE = .FALSE.
   LCHARG = .FALSE.

 POTCAR:    PAW_PBE Au 04Oct2007
 POTCAR:    PAW_PBE Mg_pv 13Apr2007
 POTCAR:    PAW_PBE O 08Apr2002
|               ----> ADVICE to this user running VASP <----                  |
|     You have switched on vdW-DFT.                                           |
|     This routine was written and supplied by Jiri Klimes. We recommend      |
|     that you carefully read and cite the following publications:            |
|       J. Klimes, D.R. Bowler, A. Michelides                                 |
|          J. Phys.: Cond Matt. 22 022201 (2010)                              |
|       J. Klimes, D.R. Bowler, A. Michelides                                 |
|          Phys. Rev. B. 83, 195131 (2011)                                    |
|     and references therein.                                                 |

   TITEL  = PAW_PBE Au 04Oct2007
   POMASS =  196.966; ZVAL   =   11.000    mass and valenz
   ENMAX  =  229.943; ENMIN  =  172.457 eV

   TITEL  = PAW_PBE Mg_pv 13Apr2007
   POMASS =   24.305; ZVAL   =    8.000    mass and valenz
   ENMAX  =  403.929; ENMIN  =  302.947 eV

   TITEL  = PAW_PBE O 08Apr2002
   POMASS =   16.000; ZVAL   =    6.000    mass and valenz
   ENMAX  =  400.000; ENMIN  =  300.000 eV

 Optimization of the real space projectors (new method)

 maximal supplied QI-value         = 15.12
 optimisation between [QCUT,QGAM] = [ 11.64, 23.28] = [ 37.95,151.78] Ry
 Optimized for a Real-space Cutoff    1.49 Angstroem

   l    n(q)    QCUT    max X(q) W(low)/X(q) W(high)/X(q)  e(spline)
   2      9    11.641    60.898    0.24E-03    0.10E-03    0.19E-06
   2      9    11.641    58.894    0.25E-03    0.10E-03    0.19E-06
   0     10    11.641   109.617    0.73E-04    0.33E-04    0.11E-06
   0     10    11.641    75.026    0.71E-04    0.32E-04    0.11E-06
   1     10    11.641    16.344    0.27E-04    0.97E-04    0.16E-06
   1     10    11.641    10.160    0.23E-04    0.77E-04    0.13E-06
 Optimization of the real space projectors (new method)

[...]

   l    n(q)    QCUT    max X(q) W(low)/X(q) W(high)/X(q)  e(spline)
   1      8    11.527     2.974    0.44E-04    0.56E-04    0.12E-06
   1      8    11.527     4.279    0.12E-03    0.12E-03    0.26E-06
   0      9    11.527    16.381    0.46E-04    0.64E-04    0.78E-07
   0      9    11.527     5.611    0.26E-04    0.43E-04    0.55E-07
   2      8    11.527     4.652    0.22E-03    0.72E-04    0.47E-07
 Optimization of the real space projectors (new method)

 maximal supplied QI-value         = 24.76
 optimisation between [QCUT,QGAM] = [ 11.64, 23.27] = [ 37.91,151.63] Ry
 Optimized for a Real-space Cutoff    1.14 Angstroem

   l    n(q)    QCUT    max X(q) W(low)/X(q) W(high)/X(q)  e(spline)
   0      8    11.635    20.381    0.10E-03    0.33E-03    0.24E-06
   0      8    11.635    15.268    0.11E-03    0.35E-03    0.26E-06
   1      7    11.635     5.964    0.24E-03    0.31E-03    0.30E-06
   1      7    11.635     5.382    0.22E-03    0.25E-03    0.26E-06
|               ----> ADVICE to this user running VASP <----                  |
|     You enforced a specific xc type in the INCAR file but a different       |
|     type was found in the POTCAR file.                                      |
|     I HOPE YOU KNOW WHAT YOU ARE DOING!                                     |

  PAW_PBE Au 04Oct2007                  :
  PAW_PBE Mg_pv 13Apr2007               :
  PAW_PBE O 08Apr2002                   :

 POSCAR: Mg  O
  positions in direct lattice
  velocities in cartesian coordinates
 exchange correlation table for  LEXCH =       43
   RHO(1)=    0.500       N(1)  =     2000
   RHO(2)=  100.500       N(2)  =     4000

 ion  position               nearest neighbor table
   1  0.432  0.228  0.581- 265 2.49   2 2.72   5 2.73  11 2.73  68 2.93  67 3.00
   2  0.560  0.237  0.588-   3 2.63   1 2.72  12 2.77  11 2.82   6 2.86   5 2.94  68 3.07
   3  0.683  0.251  0.592-   2 2.63   4 2.65  12 2.77   6 2.81  13 2.86   7 2.91  88 3.01
   4  0.808  0.260  0.595-   3 2.65   7 2.70  13 2.75 107 3.00
   5  0.477  0.349  0.586-   8 2.68   1 2.73  14 2.74  11 2.80   6 2.85  72 2.89   2 2.94
   6  0.611  0.363  0.589-   3 2.81   9 2.82   5 2.85   8 2.85   2 2.86   7 2.92  15 2.94  14 2.97
                            12 3.02  87 3.06
   7  0.748  0.373  0.591-   9 2.65   4 2.70  15 2.79  13 2.85   3 2.91   6 2.92  92 3.00
   8  0.524  0.466  0.584-   5 2.68 270 2.70  14 2.75  10 2.75  16 2.83   6 2.85  72 2.98   9 3.28

   9  0.679  0.477  0.585-   7 2.65 290 2.66  10 2.72  15 2.76   6 2.82  16 2.88   8 3.28
  10  0.595  0.574  0.578- 293 2.36  16 2.67   9 2.72   8 2.75  91 2.88
  11  0.480  0.269  0.660-  17 2.68   1 2.73   5 2.80   2 2.82  12 2.82  14 2.92
  12  0.613  0.274  0.669-  17 2.74  18 2.75   2 2.77   3 2.77  11 2.82  13 2.83   6 3.02  14 3.27
                            15 3.30
  13  0.745  0.298  0.670-  18 2.65   4 2.75  15 2.81  12 2.83   7 2.85   3 2.86
  14  0.524  0.400  0.663-   5 2.74  19 2.74  17 2.75   8 2.75  16 2.86  11 2.92   6 2.97  12 3.27
                            15 3.34
  15  0.681  0.414  0.666-   9 2.76  19 2.76  18 2.77   7 2.79  16 2.80  13 2.81   6 2.94  12 3.30
                            14 3.34
  16  0.595  0.515  0.656-  10 2.67  19 2.68  15 2.80   8 2.83  14 2.86   9 2.88
  17  0.533  0.318  0.733-  11 2.68  20 2.68  12 2.74  14 2.75  18 2.98  19 3.02
  18  0.673  0.334  0.738-  13 2.65  20 2.66  12 2.75  15 2.77  19 2.91  17 2.98
  19  0.595  0.447  0.731-  16 2.68  20 2.71  14 2.74  15 2.76  18 2.91  17 3.02
  20  0.595  0.369  0.803-  18 2.66  17 2.68  19 2.71
  21  1.000  1.000  0.429- 321 2.09 221 2.11 304 2.11 223 2.11 239 2.11 224 2.12
  22  0.100  0.100  0.429- 322 2.09 222 2.11 223 2.11 224 2.11 228 2.11 243 2.12
  23  1.000  0.100  0.498- 223 2.07 302 2.11 225 2.11 221 2.12 222 2.12
  24  0.100  1.000  0.498- 224 2.07 221 2.11 222 2.11 238 2.11 241 2.12
  25  1.000  0.200  0.429- 325 2.09 225 2.11 223 2.11 308 2.11 227 2.11 228 2.12
  26  0.100  0.300  0.429- 326 2.09 226 2.11 232 2.11 228 2.11 227 2.11 247 2.12
  27  0.000  0.300  0.498- 227 2.07 306 2.11 225 2.12 229 2.12 226 2.12
  28  0.100  0.200  0.498- 228 2.07 225 2.11 226 2.11 222 2.11 245 2.12
  29  1.000  0.400  0.429- 329 2.09 229 2.11 227 2.11 231 2.11 232 2.11 312 2.12
  30  0.100  0.500  0.429- 330 2.09 230 2.11 236 2.11 232 2.11 231 2.12 251 2.12
  31  0.000  0.500  0.498- 231 2.07 229 2.11 310 2.11 230 2.12 233 2.12
  32  0.100  0.400  0.498- 232 2.07 229 2.11 226 2.11 230 2.11 249 2.12
  33  0.000  0.600  0.429- 333 2.09 233 2.11 231 2.11 235 2.11 236 2.11 316 2.12
  34  0.100  0.700  0.429- 334 2.09 234 2.11 240 2.11 236 2.11 235 2.11 255 2.12
  35  0.000  0.700  0.498- 235 2.07 233 2.11 237 2.11 234 2.11 314 2.12
  36  0.100  0.600  0.498- 236 2.07 230 2.11 233 2.11 234 2.11 253 2.12
  37  0.000  0.800  0.429- 337 2.09 237 2.11 239 2.11 235 2.11 240 2.11 320 2.12
  38  0.100  0.900  0.429- 338 2.09 238 2.11 239 2.11 240 2.11 224 2.11 259 2.12
  39  0.000  0.900  0.498- 239 2.07 221 2.11 318 2.11 237 2.11 238 2.12
  40  0.100  0.800  0.498- 240 2.07 234 2.11 238 2.11 237 2.11 257 2.12
  41  0.200  1.000  0.429- 341 2.09 241 2.11 224 2.11 259 2.11 243 2.12 244 2.12
  42  0.300  0.100  0.429- 342 2.09 243 2.11 263 2.11 244 2.11 248 2.11 242 2.12
  43  0.200  0.100  0.498- 243 2.07 222 2.11 241 2.11 245 2.12 242 2.12
  44  0.300  1.000  0.498- 244 2.07 241 2.11 258 2.11 261 2.11 242 2.12
  45  0.200  0.200  0.429- 345 2.09 245 2.11 228 2.11 247 2.11 243 2.11 248 2.13
  46  0.300  0.300  0.429- 346 2.09 267 2.11 247 2.11 246 2.11 252 2.11 248 2.11
  47  0.200  0.300  0.498- 247 2.07 226 2.11 249 2.11 245 2.12 246 2.12
  48  0.299  0.200  0.499- 248 2.09 245 2.09 242 2.11 246 2.11 265 2.13
  49  0.200  0.400  0.429- 349 2.09 249 2.10 232 2.11 251 2.11 252 2.12 247 2.12
  50  0.300  0.500  0.429- 350 2.09 250 2.10 251 2.11 256 2.11 252 2.11 271 2.12
  51  0.200  0.500  0.498- 251 2.07 230 2.11 249 2.11 250 2.11 253 2.11
  52  0.300  0.400  0.498- 252 2.08 269 2.11 249 2.11 250 2.11 246 2.11
  53  0.200  0.600  0.429- 353 2.09 253 2.11 236 2.11 255 2.11 251 2.11 256 2.12
  54  0.300  0.700  0.429- 354 2.09 254 2.11 255 2.11 260 2.11 256 2.11 275 2.12
  55  0.200  0.700  0.498- 255 2.07 234 2.11 253 2.11 257 2.11 254 2.12
  56  0.300  0.600  0.498- 256 2.07 253 2.11 273 2.11 250 2.11 254 2.11
  57  0.200  0.800  0.429- 357 2.09 257 2.11 240 2.11 255 2.11 259 2.11 260 2.12
  58  0.300  0.900  0.429- 358 2.09 258 2.11 259 2.11 260 2.11 279 2.11 244 2.12
  59  0.200  0.900  0.498- 259 2.07 238 2.11 257 2.11 241 2.12 258 2.12
  60  0.300  0.800  0.498- 260 2.07 257 2.11 258 2.11 254 2.11 277 2.12
  61  0.400  1.000  0.429- 361 2.09 264 2.11 261 2.11 244 2.11 279 2.11 263 2.13
  62  0.500  0.100  0.429- 362 2.09 262 2.10 268 2.11 283 2.11 264 2.11 263 2.12
  63  0.400  0.099  0.499- 263 2.09 261 2.09 262 2.11 242 2.11 265 2.14
  64  0.500  1.000  0.498- 264 2.07 262 2.11 281 2.11 278 2.12 261 2.12
  65  0.400  0.200  0.429- 365 2.08 268 2.09 248 2.10 263 2.10 267 2.10 265 2.25
  66  0.500  0.300  0.429- 266 2.05 366 2.08 287 2.11 268 2.12 267 2.12 272 2.13
  67  0.400  0.303  0.499- 269 2.08 267 2.10 246 2.11 266 2.12 265 2.17   1 3.00
  68  0.501  0.200  0.499- 285 2.08 268 2.09 262 2.11 266 2.13 265 2.15   1 2.93   2 3.07
  69  0.400  0.400  0.429- 369 2.09 269 2.09 252 2.11 272 2.11 271 2.12 267 2.12
  70  0.500  0.500  0.428- 370 2.08 272 2.10 271 2.11 270 2.11 276 2.11 291 2.12
  71  0.399  0.500  0.498- 271 2.08 269 2.10 250 2.10 273 2.12 270 2.12
  72  0.500  0.400  0.498- 272 2.08 266 2.11 289 2.12 269 2.13 270 2.14   5 2.89   8 2.98
  73  0.400  0.600  0.429- 373 2.09 256 2.11 271 2.11 273 2.11 275 2.11 276 2.13
  74  0.500  0.700  0.429- 374 2.09 275 2.11 280 2.11 274 2.11 295 2.11 276 2.12
  75  0.400  0.700  0.498- 275 2.07 254 2.11 277 2.11 273 2.12 274 2.12
[...]
 406  0.900  0.300  0.359- 106 2.09 208 2.11 207 2.11 127 2.11 212 2.11 206 2.11
 407  0.800  0.300  0.289- 186 2.11 205 2.11 206 2.11 209 2.11 207 2.11
 408  0.900  0.200  0.289- 206 2.11 202 2.11 205 2.11 125 2.11 208 2.11
 409  0.800  0.400  0.359- 109 2.09 192 2.11 207 2.11 211 2.11 212 2.11 209 2.11
 410  0.900  0.500  0.359- 110 2.09 131 2.11 211 2.11 212 2.11 216 2.11 210 2.11
 411  0.800  0.500  0.289- 190 2.11 209 2.11 210 2.11 213 2.11 211 2.11
 412  0.900  0.400  0.289- 129 2.11 206 2.11 209 2.11 210 2.11 212 2.11
 413  0.800  0.600  0.359- 113 2.09 196 2.11 211 2.11 215 2.11 216 2.11 213 2.11
 414  0.900  0.700  0.359- 114 2.09 220 2.11 215 2.11 216 2.11 135 2.11 214 2.11
 415  0.800  0.700  0.289- 194 2.11 217 2.11 214 2.11 213 2.11 215 2.11
[...]
     52     -42.7289      2.00000
     53     -42.7245      2.00000
     54     -42.7239      2.00000
     55     -42.7211      2.00000
     56     -42.7152      2.00000
     57     -42.7150      2.00000
     58     -42.7133      2.00000
     59     -42.7116      2.00000
     60     -42.7100      2.00000
[...]
   1810       6.5453      0.00000
   1811       6.5807      0.00000
   1812       6.6235      0.00000
   1813       6.6554      0.00000
   1814       6.6952      0.00000
   1815       6.7145      0.00000
   1816       6.7551      0.00000
   1817       6.7876      0.00000
   1818       6.8099      0.00000
   1819       6.8349      0.00000
   1820       6.8669      0.00000
   1821       6.8917      0.00000
   1822       6.9122      0.00000
   1823       6.9543      0.00000
   1824       6.9820      0.00000

 soft charge-density along one line, spin component           1
         0         1         2         3         4         5         6         7         8         9
 total charge-density along one line

------------------------ aborting loop because EDIFF is reached ----------------------------------------

  FORCE on cell =-STRESS in cart. coord.  units (eV):
  Direction    XX          YY          ZZ          XY          YZ          ZX
  Alpha Z  4657.84619  4657.84619  4657.84619
  Ewald  ************************************   137.51934   -44.40166   -68.63927
  Hartree************************************   132.29442   -35.17591   -56.55677
  E(xc)  -16344.96327-16344.97273-16344.78156    -0.02790    -0.04103    -0.02041
  Local  ************************************  -272.06370    80.59619   123.57234
  n-local-17713.43397-17711.45027-17812.49373     0.52542     0.28428     1.21683
  augment  7919.86106  7920.92011  7864.49281     0.44180    -0.40842     0.07080
  Kinetic 48740.03686 48742.33028 48969.91738     0.78680    -1.48444     0.68719
  Fock        0.00000     0.00000     0.00000     0.00000     0.00000     0.00000
  Total    -168.06343  -167.66717    46.47274    -0.52382    -0.63099     0.33072
  in kB     -20.08629   -20.03893     5.55424    -0.06261    -0.07541     0.03953

 VOLUME and BASIS-vectors are now :
  energy-cutoff  :      520.00
  volume of cell :    13405.53
      direct lattice vectors                 reciprocal lattice vectors
    21.138852197  0.000000000  0.000000000     0.047306258  0.000000000  0.000000000
     0.000000000 21.138852197  0.000000000     0.000000000  0.047306258  0.000000000
     0.000000000  0.000000000 30.000000000     0.000000000  0.000000000  0.033333333

  length of vectors
    21.138852197 21.138852197 30.000000000     0.047306258  0.047306258  0.033333333

 FORCES acting on ions:
    Electron-Ion                     Ewald-Force                    Non-Local-Force
   0.806E+03 0.621E+03 -.342E+04   -.803E+03 -.618E+03 0.343E+04   -.418E+01 -.311E+01 -.283E+01
   0.165E+03 0.930E+03 -.313E+04   -.163E+03 -.929E+03 0.313E+04   -.199E+01 -.895E+00 -.926E+00
   -.385E+03 0.866E+03 -.311E+04   0.383E+03 -.866E+03 0.311E+04   0.244E+01 0.439E+00 -.315E+00
   -.957E+03 0.511E+03 -.336E+04   0.953E+03 -.508E+03 0.336E+04   0.472E+01 -.304E+01 -.115E+01
   0.916E+03 -.851E+02 -.312E+04   -.915E+03 0.874E+02 0.313E+04   -.117E+01 -.234E+01 -.959E+00
   -.249E+02 -.938E+01 -.291E+04   0.250E+02 0.883E+01 0.291E+04   -.781E-01 0.608E+00 0.213E-01
   -.949E+03 -.245E+03 -.314E+04   0.947E+03 0.247E+03 0.314E+04   0.206E+01 -.159E+01 -.537E+00
   0.696E+03 -.637E+03 -.315E+04   -.696E+03 0.634E+03 0.315E+04   0.129E+00 0.304E+01 -.161E+01
   -.608E+03 -.728E+03 -.316E+04   0.609E+03 0.726E+03 0.316E+04   -.559E+00 0.288E+01 -.176E+01
   0.626E+02 -.100E+04 -.342E+04   -.625E+02 0.100E+04 0.342E+04   -.192E+00 0.464E+01 -.348E+01
   0.893E+03 0.641E+03 -.329E+04   -.892E+03 -.640E+03 0.329E+04   -.110E+01 -.818E+00 -.346E+00
   -.663E+02 0.875E+03 -.319E+04   0.663E+02 -.875E+03 0.319E+04   0.525E-01 0.524E-01 -.825E-01
   -.968E+03 0.454E+03 -.327E+04   0.966E+03 -.453E+03 0.327E+04   0.222E+01 -.108E+01 -.143E+01
   0.831E+03 -.393E+03 -.319E+04   -.831E+03 0.393E+03 0.319E+04   -.538E-01 -.152E+00 0.261E+00
   -.721E+03 -.530E+03 -.320E+04   0.721E+03 0.530E+03 0.320E+04   -.205E-01 -.117E+00 0.291E+00
   0.977E+02 -.109E+04 -.330E+04   -.976E+02 0.109E+04 0.330E+04   -.141E+00 0.764E+00 0.215E+00
   0.659E+03 0.391E+03 -.292E+04   -.660E+03 -.392E+03 0.292E+04   0.409E+00 0.734E+00 0.335E+01
   -.625E+03 0.265E+03 -.293E+04   0.625E+03 -.266E+03 0.293E+04   -.834E+00 0.491E+00 0.264E+01
   0.102E+03 -.783E+03 -.293E+04   -.102E+03 0.784E+03 0.293E+04   -.160E+00 -.710E+00 0.356E+01
   0.718E+02 -.462E+02 -.236E+04   -.712E+02 0.457E+02 0.236E+04   -.633E+00 0.535E+00 0.564E+01
   -.344E+02 0.429E+02 -.712E+03   0.343E+02 -.429E+02 0.713E+03   0.434E-01 -.594E-02 -.358E+00
   -.378E+01 0.477E+02 -.703E+03   0.364E+01 -.477E+02 0.703E+03   0.131E+00 0.152E-01 -.367E+00
   -.785E+02 0.871E+02 -.233E+04   0.783E+02 -.871E+02 0.232E+04   0.119E+00 -.172E-01 0.630E+01
   -.234E+01 0.515E+02 -.236E+04   0.224E+01 -.515E+02 0.236E+04   0.968E-01 0.351E-02 0.631E+01
   -.668E+02 0.484E+02 -.663E+03   0.668E+02 -.485E+02 0.664E+03   0.572E-01 0.149E-01 -.376E+00
   -.631E+01 0.141E+02 -.675E+03   0.624E+01 -.141E+02 0.675E+03   0.749E-01 -.653E-02 -.385E+00
   -.144E+03 0.232E+02 -.228E+04   0.144E+03 -.232E+02 0.227E+04   0.942E-01 0.120E-01 0.624E+01
   -.850E+01 0.554E+02 -.233E+04   0.834E+01 -.554E+02 0.232E+04   0.151E+00 -.138E-02 0.628E+01
   -.778E+02 -.206E+02 -.651E+03   0.778E+02 0.206E+02 0.651E+03   -.269E-01 0.124E-01 -.402E+00
   -.431E+01 -.391E+02 -.690E+03   0.431E+01 0.391E+02 0.690E+03   -.546E-03 -.198E-01 -.373E+00
   -.111E+03 -.727E+02 -.231E+04   0.111E+03 0.727E+02 0.230E+04   -.183E-01 0.347E-01 0.628E+01
   -.116E+02 -.259E+02 -.232E+04   0.115E+02 0.259E+02 0.231E+04   0.683E-01 -.570E-02 0.630E+01
   -.506E+02 -.542E+02 -.693E+03   0.507E+02 0.542E+02 0.693E+03   -.874E-01 -.348E-02 -.381E+00
   -.191E+01 -.359E+02 -.722E+03   0.190E+01 0.359E+02 0.722E+03   0.903E-02 -.297E-02 -.352E+00
   -.538E+02 -.593E+02 -.236E+04   0.538E+02 0.593E+02 0.235E+04   -.532E-01 0.992E-03 0.631E+01
   -.553E+01 -.630E+02 -.235E+04   0.551E+01 0.630E+02 0.234E+04   0.255E-01 0.729E-02 0.631E+01
   -.286E+02 -.164E+02 -.725E+03   0.287E+02 0.165E+02 0.725E+03   -.331E-01 -.217E-01 -.348E+00
   -.128E+01 0.133E+02 -.730E+03   0.124E+01 -.133E+02 0.730E+03   0.415E-01 0.137E-01 -.345E+00
   -.374E+02 0.214E+02 -.237E+04   0.373E+02 -.214E+02 0.236E+04   0.173E-01 -.395E-01 0.632E+01
   -.191E+01 -.180E+02 -.237E+04   0.188E+01 0.180E+02 0.237E+04   0.299E-01 0.420E-02 0.632E+01
   0.313E+02 0.406E+02 -.713E+03   -.314E+02 -.407E+02 0.713E+03   0.105E+00 0.768E-01 -.367E+00
   0.785E+02 0.747E+02 -.659E+03   -.785E+02 -.747E+02 0.660E+03   -.887E-02 0.192E-01 -.303E+00
   0.716E+02 0.806E+02 -.233E+04   -.718E+02 -.807E+02 0.232E+04   0.197E+00 0.119E+00 0.625E+01
   0.839E+02 0.880E+02 -.233E+04   -.841E+02 -.882E+02 0.233E+04   0.116E+00 0.138E+00 0.625E+01
   0.550E+02 0.453E+02 -.669E+03   -.554E+02 -.453E+02 0.670E+03   0.368E+00 -.794E-02 -.325E+00
   0.131E+03 0.266E+02 -.592E+03   -.131E+03 -.266E+02 0.593E+03   -.849E-01 -.188E-01 -.366E+00
   0.118E+03 0.191E+02 -.229E+04   -.119E+03 -.189E+02 0.229E+04   0.155E+00 -.109E+00 0.626E+01
   0.213E+03 0.113E+03 -.222E+04   -.214E+03 -.113E+03 0.221E+04   0.111E+01 0.213E-01 0.612E+01
   0.680E+02 -.182E+02 -.659E+03   -.680E+02 0.183E+02 0.660E+03   0.638E-01 -.720E-01 -.382E+00
   0.113E+03 -.626E+02 -.625E+03   -.113E+03 0.626E+02 0.626E+03   0.209E+00 -.288E-01 -.386E+00
   0.934E+02 -.657E+02 -.232E+04   -.935E+02 0.657E+02 0.231E+04   0.765E-01 -.684E-02 0.631E+01
   0.247E+03 -.564E+02 -.221E+04   -.248E+03 0.565E+02 0.220E+04   0.162E+00 -.830E-01 0.628E+01
   0.458E+02 -.517E+02 -.697E+03   -.459E+02 0.517E+02 0.697E+03   0.890E-01 -.947E-02 -.363E+00
   0.617E+02 -.560E+02 -.693E+03   -.618E+02 0.560E+02 0.694E+03   0.167E+00 -.242E-01 -.358E+00
   0.482E+02 -.558E+02 -.236E+04   -.483E+02 0.558E+02 0.235E+04   0.963E-01 0.370E-02 0.632E+01
   0.141E+03 -.112E+03 -.230E+04   -.141E+03 0.112E+03 0.229E+04   0.183E+00 0.542E-02 0.629E+01
   0.267E+02 -.158E+02 -.726E+03   -.267E+02 0.158E+02 0.726E+03   0.630E-01 0.130E-01 -.348E+00
   0.444E+02 0.175E+02 -.711E+03   -.444E+02 -.175E+02 0.712E+03   0.532E-01 0.623E-01 -.364E+00
   0.354E+02 0.213E+02 -.237E+04   -.354E+02 -.213E+02 0.236E+04   0.659E-01 0.287E-01 0.631E+01
   0.655E+02 -.322E+02 -.235E+04   -.656E+02 0.322E+02 0.235E+04   0.112E+00 -.258E-01 0.631E+01
[...]
   -.275E+02 0.916E+01 0.195E+04   0.275E+02 -.919E+01 -.195E+04   -.345E-01 0.360E-01 0.359E+01
   -.242E+02 0.172E+02 0.193E+04   0.242E+02 -.172E+02 -.193E+04   -.340E-02 0.129E-01 0.358E+01
   -.548E+02 -.132E+02 0.786E+03   0.549E+02 0.132E+02 -.786E+03   -.516E-01 0.845E-01 0.164E-01
   -.462E+02 -.281E+02 0.736E+03   0.462E+02 0.281E+02 -.736E+03   -.109E+00 0.133E-01 0.466E-01
   -.261E+02 -.195E+02 0.194E+04   0.261E+02 0.195E+02 -.195E+04   -.630E-01 0.273E-01 0.363E+01
   -.276E+02 -.583E+01 0.193E+04   0.276E+02 0.581E+01 -.194E+04   -.281E-01 0.267E-01 0.359E+01
   -.394E+02 -.436E+02 0.741E+03   0.396E+02 0.436E+02 -.742E+03   -.200E+00 -.418E-01 0.133E+00
   -.290E+02 -.268E+02 0.702E+03   0.290E+02 0.268E+02 -.702E+03   -.768E-01 -.374E-01 0.373E-01
   -.182E+02 -.199E+02 0.192E+04   0.182E+02 0.199E+02 -.192E+04   -.552E-01 -.378E-01 0.362E+01
   -.217E+02 -.200E+02 0.192E+04   0.217E+02 0.200E+02 -.192E+04   -.553E-01 -.707E-02 0.361E+01
   -.242E+02 -.148E+02 0.703E+03   0.242E+02 0.148E+02 -.703E+03   -.652E-01 -.760E-01 0.491E-01
   -.225E+02 0.840E+01 0.691E+03   0.225E+02 -.838E+01 -.691E+03   -.191E-01 -.279E-01 0.140E-01
   -.148E+02 0.573E+01 0.191E+04   0.149E+02 -.571E+01 -.191E+04   -.256E-01 -.304E-01 0.359E+01
   -.153E+02 -.681E+01 0.190E+04   0.154E+02 0.683E+01 -.191E+04   -.295E-01 -.257E-01 0.359E+01
   -.992E+00 -.303E+00 0.110E+03   0.615E-11 -.103E-11 -.185E-09   0.101E+01 0.319E+00 -.110E+03

 POSITION                                       TOTAL-FORCE (eV/Angst)
      9.13028      4.81144     17.42554        -0.117713     -0.085570     -0.018651
     11.83263      5.00826     17.64957        -0.046937     -0.057104     -0.061092
     14.44263      5.31367     17.76307         0.055798     -0.044910     -0.046197
     17.08928      5.50141     17.85302         0.164739     -0.081047     -0.029500
     10.07723      7.36827     17.56951        -0.062592     -0.040215     -0.063241
     12.90783      7.66304     17.68141         0.002937      0.011709      0.030288
     15.81940      7.88026     17.74175         0.070597     -0.018668     -0.044198
     11.08327      9.84805     17.51083         0.004071      0.090793     -0.053561
     14.35065     10.08345     17.55160        -0.010759      0.091481     -0.048653
     12.58638     12.14350     17.33039        -0.011851      0.143793     -0.026954
     10.15018      5.68973     19.80464        -0.060523     -0.038708      0.034761
     12.95982      5.79215     20.05764         0.003744      0.026051     -0.005585
     15.74068      6.29476     20.11465         0.085433     -0.039129      0.003307
     11.06922      8.45565     19.87891         0.020067     -0.017778      0.021756
     14.39339      8.76102     19.96954        -0.014787     -0.018473      0.018142
     12.58037     10.88107     19.67907        -0.003500      0.052341      0.041383
     11.27068      6.72696     22.00237        -0.021128      0.002966      0.086621
     14.22403      7.05681     22.15284         0.014113      0.000815      0.071581
     12.58384      9.44558     21.94149        -0.007864      0.022724      0.089560
     12.56773      7.79860     24.09216        -0.019495      0.018185      0.169713
     21.13870     21.13879     12.86175        -0.000442     -0.000125      0.029844
      2.11345      2.11383     12.86198        -0.002165      0.000258      0.031193
     21.13875      2.11357     14.92801         0.001990     -0.005866      0.185626
      2.11369     21.13866     14.92766        -0.001014     -0.002897      0.180464
     21.13857      4.22777     12.86218        -0.000681     -0.000599      0.032715
      2.11355      6.34171     12.86210        -0.002138     -0.000320      0.031563
      0.00093      6.34170     14.92974         0.022440     -0.002038      0.202579
      2.11311      4.22777     14.92855        -0.009908     -0.000718      0.190598
     21.13884      8.45549     12.86246         0.000743     -0.000131      0.032114
      2.11385     10.56949     12.86183        -0.000557      0.000918      0.029459
      0.00047     10.56948     14.92894         0.010754      0.004396      0.192618
      2.11372      8.45580     14.92795         0.000123      0.004417      0.184206
      0.00035     12.68327     12.86199         0.002520      0.000356      0.029935
      2.11390     14.79717     12.86169         0.000118      0.000347      0.029025
      0.00034     14.79727     14.92767         0.004470      0.002853      0.180691
      2.11390     12.68339     14.92765         0.001491      0.002760      0.180721
      0.00015     16.91110     12.86168         0.001195     -0.000067      0.029044
      2.11380     19.02485     12.86168         0.000353     -0.000433      0.029203
      0.00003     19.02494     14.92763         0.001135     -0.000880      0.179699
      2.11391     16.91099     14.92758         0.001397     -0.000765      0.179070
      4.22756     21.13862     12.86190         0.000416     -0.000312      0.029230
      6.34233      2.11452     12.86547         0.008978      0.009790      0.080199
      4.22651      2.11256     14.92930        -0.016965     -0.019725      0.195612
      6.34025     21.13731     14.92926        -0.021638     -0.022667      0.194869
      4.22730      4.22789     12.86335         0.006111      0.001319      0.046365
      6.34244      6.34151     12.86474         0.007400     -0.003656      0.066586
      4.22628      6.34341     14.92917        -0.021305      0.027034      0.196092
      6.31909      4.22970     14.96182        -0.057151      0.008856      0.095110
      4.22743      8.45581     12.86150        -0.003732      0.001145      0.025976
      6.34045     10.56966     12.86160        -0.012611      0.003621      0.025201
      4.22721     10.56980     14.92782        -0.009455      0.007439      0.183197
      6.33696      8.45824     14.92881        -0.075473      0.036044      0.197731
      4.22732     12.68337     12.86163        -0.003850      0.001506      0.028156
      6.34071     14.79733     12.86160        -0.007847      0.002373      0.027579
      4.22745     14.79725     14.92760        -0.002385      0.002035      0.180087
      6.33925     12.68379     14.92825        -0.037821      0.011587      0.188273
      4.22757     16.91095     12.86165        -0.000752     -0.000472      0.028786
      6.34151     19.02465     12.86187        -0.000335     -0.002036      0.030017
      4.22764     19.02469     14.92761        -0.000480     -0.003808      0.179954
      6.34101     16.91132     14.92761        -0.007639      0.004436      0.180416
[...]
     19.02497      6.34166     10.77222        -0.001711      0.010365     -0.109868
     16.91108      6.34166      8.65833        -0.009620      0.010036     -0.388311
     19.02497      4.22777      8.65833        -0.000980      0.003575     -0.390293
     16.91108      8.45554     10.77222        -0.013768      0.025976     -0.096747
     19.02497     10.56943     10.77222        -0.032999      0.003697     -0.090278
     16.91108     10.56943      8.65833        -0.017702      0.007545     -0.377001
     19.02497      8.45554      8.65833        -0.007858      0.007408     -0.387229
     16.91108     12.68331     10.77222        -0.062246     -0.012152     -0.061518
     19.02497     14.79720     10.77222        -0.023416     -0.011208     -0.104533
     16.91108     14.79720      8.65833        -0.015480     -0.010615     -0.379303
     19.02497     12.68331      8.65833        -0.015571     -0.002019     -0.382473
     16.91108     16.91108     10.77222        -0.019791     -0.023150     -0.102799
     19.02497     19.02497     10.77222        -0.005636     -0.008375     -0.113084
     16.91108     19.02497      8.65833        -0.007136     -0.008493     -0.388142
     19.02497     16.91108      8.65833        -0.008237     -0.007197     -0.388178
    total drift:                                0.013849      0.015338     -0.076588

  FREE ENERGIE OF THE ION-ELECTRON SYSTEM (eV)
  free  energy   TOTEN  =     -1659.03783942 eV

  energy  without entropy=    -1659.03783942  energy(sigma->0) =    -1659.03783942