 vasp.6.3.0 20Jan22 (build Apr  1 2022 16:44:48) complex
 executed on        HPECrayEX_GCC date 2023.01.09  16:17:10

 INCAR:
   SYSTEM = MgO-rocksalt
   ISMEAR = 0
   SIGMA = 0.05
   EDIFF = 1E-6
   ALGO = ALL
   ISTART = 0
   IBRION = -1
   NSW = 0
   ISYM = 2
   DIPOL = 0.5 0.5 0.5
   IDIPOL = 3
   LDIPOL = .TRUE.
   GGA = PS
   IVDW = 13
   VDW_S8 = 1.71885698
   VDW_A1 = 0.47901421
   VDW_A2 = 5.96771589
   ENCUT = 520
   PREC = Accurate
   LASPH = .TRUE.
   LREAL = Auto
   ISPIN = 1
   NELM = 200
   NELMIN = 8
   NCORE = 4
   KPAR = 2
   LWAVE = .FALSE.
   LCHARG = .FALSE.

 POTCAR:    PAW_PBE Cu 22Jun2005
 POTCAR:    PAW_PBE Mg_pv 13Apr2007
 POTCAR:    PAW_PBE O 08Apr2002
 POTCAR:    PAW_PBE Cu 22Jun2005
   VRHFIN =Cu: d10 p1

   TITEL  = PAW_PBE Cu 22Jun2005
   POMASS =   63.546; ZVAL   =   11.000    mass and valenz
   ENMAX  =  295.446; ENMIN  =  221.585 eV

   TITEL  = PAW_PBE Mg_pv 13Apr2007
   POMASS =   24.305; ZVAL   =    8.000    mass and valenz
   ENMAX  =  403.929; ENMIN  =  302.947 eV

   TITEL  = PAW_PBE O 08Apr2002
   POMASS =   16.000; ZVAL   =    6.000    mass and valenz
   ENMAX  =  400.000; ENMIN  =  300.000 eV

 Optimization of the real space projectors (new method)

 maximal supplied QI-value         = 16.25
 optimisation between [QCUT,QGAM] = [ 11.54, 23.24] = [ 37.28,151.24] Ry
 Optimized for a Real-space Cutoff    1.53 Angstroem

   l    n(q)    QCUT    max X(q) W(low)/X(q) W(high)/X(q)  e(spline)
   2     10    11.539     4.610    0.96E-04    0.13E-03    0.19E-06
   2     10    11.539     8.522    0.16E-03    0.21E-03    0.28E-06
   0     11    11.539    51.609    0.45E-04    0.31E-04    0.11E-06
   0     11    11.539    27.747    0.39E-04    0.29E-04    0.10E-06
   1     10    11.539    20.408    0.70E-05    0.38E-04    0.18E-06
   1     10    11.539    13.425    0.66E-05    0.34E-04    0.17E-06
 Optimization of the real space projectors (new method)

[...]

   l    n(q)    QCUT    max X(q) W(low)/X(q) W(high)/X(q)  e(spline)
   1      8    11.527     2.974    0.44E-04    0.56E-04    0.12E-06
   1      8    11.527     4.279    0.12E-03    0.12E-03    0.26E-06
   0      9    11.527    16.381    0.46E-04    0.64E-04    0.78E-07
   0      9    11.527     5.611    0.26E-04    0.43E-04    0.55E-07
   2      8    11.527     4.652    0.22E-03    0.72E-04    0.47E-07
 Optimization of the real space projectors (new method)

 maximal supplied QI-value         = 24.76
 optimisation between [QCUT,QGAM] = [ 11.64, 23.27] = [ 37.91,151.63] Ry
 Optimized for a Real-space Cutoff    1.14 Angstroem

   l    n(q)    QCUT    max X(q) W(low)/X(q) W(high)/X(q)  e(spline)
   0      8    11.635    20.381    0.10E-03    0.33E-03    0.24E-06
   0      8    11.635    15.268    0.11E-03    0.35E-03    0.26E-06
   1      7    11.635     5.964    0.24E-03    0.31E-03    0.30E-06
   1      7    11.635     5.382    0.22E-03    0.25E-03    0.26E-06
|               ----> ADVICE to this user running VASP <----                  |
|     You enforced a specific xc type in the INCAR file but a different       |
|     type was found in the POTCAR file.                                      |
|     I HOPE YOU KNOW WHAT YOU ARE DOING!                                     |

  PAW_PBE Cu 22Jun2005                  :
  PAW_PBE Mg_pv 13Apr2007               :
  PAW_PBE O 08Apr2002                   :

 POSCAR: Cu Mg  O
  positions in direct lattice
  velocities in cartesian coordinates
|           W    W    AA    RRRRR   N    N  II  N    N   GGGG   !!!           |
|           W    W   A  A   R    R  NN   N  II  NN   N  G    G  !!!           |
|           W    W  A    A  R    R  N N  N  II  N N  N  G       !!!           |
|           W WW W  AAAAAA  RRRRR   N  N N  II  N  N N  G  GGG   !            |
|           WW  WW  A    A  R   R   N   NN  II  N   NN  G    G                |
|           W    W  A    A  R    R  N    N  II  N    N   GGGG   !!!           |
|     Specifying the vdW parameters                                           |
|     VDW_S8 = 1.719                                                          |
|     VDW_A1 = 0.479                                                          |
|     VDW_A2 = 5.968                                                          |
|     in the INCAR file will overwrite the defaults for pbesol. Please        |
|     make sure that is what you intended.                                    |

 ion  position               nearest neighbor table
   1  0.400  0.417  0.591- 153 1.98   4 2.26   3 2.42   2 2.42  55 2.62
   2  0.490  0.488  0.600- 154 2.19   4 2.37   1 2.42
   3  0.310  0.488  0.600- 134 2.19   4 2.37   1 2.42
   4  0.400  0.492  0.664-   1 2.26   2 2.37   3 2.37
   5  0.000  0.000  0.407- 107 2.11 108 2.11 123 2.11 188 2.11 105 2.11
   6  0.100  0.100  0.407- 107 2.11 108 2.11 112 2.11 127 2.11 106 2.11
   7  0.000  0.100  0.503- 105 2.11 106 2.11 109 2.11 186 2.11 107 2.11
   8  0.100  0.000  0.503- 105 2.11 106 2.11 122 2.11 125 2.11 108 2.11
   9  0.000  0.200  0.407- 111 2.11 107 2.11 112 2.11 192 2.11 109 2.11
  10  0.100  0.300  0.407- 112 2.11 111 2.11 116 2.11 131 2.11 110 2.11
  11  0.000  0.300  0.503- 109 2.11 110 2.11 113 2.11 190 2.11 111 2.11
  12  0.100  0.200  0.503- 110 2.11 109 2.11 106 2.11 129 2.11 112 2.11
  13  0.000  0.400  0.407- 111 2.11 115 2.11 116 2.11 196 2.11 113 2.11
  14  0.100  0.500  0.407- 115 2.11 116 2.11 120 2.11 135 2.11 114 2.11
  15  0.000  0.500  0.503- 113 2.11 114 2.11 117 2.11 194 2.11 115 2.11
  16  0.100  0.400  0.503- 110 2.11 113 2.11 114 2.11 133 2.11 116 2.11
  17  0.000  0.600  0.407- 115 2.11 119 2.11 120 2.11 200 2.11 117 2.11
  18  0.100  0.700  0.407- 124 2.11 120 2.11 119 2.11 139 2.11 118 2.11
  19  0.000  0.700  0.503- 121 2.11 118 2.11 117 2.11 198 2.11 119 2.11
  20  0.100  0.600  0.503- 114 2.11 117 2.11 118 2.11 137 2.11 120 2.11
  21  0.000  0.800  0.407- 119 2.11 123 2.11 124 2.11 204 2.11 121 2.11
  22  0.100  0.900  0.407- 108 2.11 123 2.11 124 2.11 143 2.11 122 2.11
  23  0.000  0.900  0.503- 105 2.11 121 2.11 122 2.11 202 2.11 123 2.11
  24  0.100  0.800  0.503- 118 2.11 121 2.11 122 2.11 141 2.11 124 2.11
  25  0.200  0.000  0.407- 128 2.11 127 2.11 108 2.11 143 2.11 125 2.11
  26  0.300  0.100  0.407- 127 2.11 128 2.11 132 2.11 147 2.11 126 2.11
  27  0.200  0.100  0.503- 126 2.11 125 2.11 106 2.11 129 2.11 127 2.11
  28  0.300  0.000  0.503- 125 2.11 126 2.11 142 2.11 145 2.11 128 2.11
  29  0.200  0.200  0.407- 131 2.11 132 2.11 112 2.11 127 2.11 129 2.11
  30  0.300  0.300  0.407- 131 2.11 132 2.11 136 2.11 151 2.11 130 2.11
  31  0.200  0.300  0.503- 129 2.11 130 2.11 110 2.11 133 2.11 131 2.11
  32  0.300  0.200  0.503- 129 2.11 130 2.11 126 2.11 149 2.11 132 2.11
  33  0.200  0.400  0.407- 136 2.11 131 2.11 135 2.11 116 2.11 133 2.11
  34  0.300  0.500  0.407- 135 2.11 136 2.11 140 2.11 155 2.11 134 2.11
  35  0.200  0.500  0.503- 134 2.11 133 2.11 114 2.11 137 2.11 135 2.11
  36  0.300  0.400  0.503- 133 2.11 130 2.11 134 2.11 153 2.11 136 2.11
  37  0.200  0.600  0.407- 140 2.11 135 2.11 139 2.11 120 2.11 137 2.11
  38  0.300  0.700  0.407- 139 2.11 144 2.11 140 2.11 159 2.11 138 2.11
  39  0.200  0.700  0.503- 138 2.11 141 2.11 118 2.11 137 2.11 139 2.11
  40  0.300  0.600  0.503- 137 2.11 134 2.11 138 2.11 157 2.11 140 2.11
  41  0.200  0.800  0.407- 139 2.11 144 2.11 143 2.11 124 2.11 141 2.11
  42  0.300  0.900  0.407- 143 2.11 128 2.11 144 2.11 163 2.11 142 2.11
  43  0.200  0.900  0.503- 142 2.11 125 2.11 141 2.11 122 2.11 143 2.11
  44  0.300  0.800  0.503- 138 2.11 141 2.11 142 2.11 161 2.11 144 2.11
  45  0.400  0.000  0.407- 128 2.11 147 2.11 148 2.11 163 2.11 145 2.11
  46  0.500  0.100  0.407- 147 2.11 148 2.11 152 2.11 167 2.11 146 2.11
  47  0.400  0.100  0.503- 126 2.11 145 2.11 146 2.11 149 2.11 147 2.11
  48  0.500  0.000  0.503- 145 2.11 146 2.11 162 2.11 165 2.11 148 2.11
  49  0.400  0.200  0.407- 151 2.11 147 2.11 132 2.11 152 2.11 149 2.11
  50  0.500  0.300  0.407- 152 2.11 151 2.11 156 2.11 171 2.11 150 2.11
  51  0.400  0.300  0.503- 149 2.11 130 2.11 150 2.11 153 2.11 151 2.11
  52  0.500  0.200  0.503- 150 2.11 149 2.11 146 2.11 169 2.11 152 2.11
  53  0.400  0.400  0.407- 136 2.11 151 2.11 155 2.11 156 2.11 153 2.11
  54  0.500  0.500  0.407- 155 2.11 156 2.11 160 2.11 175 2.11 154 2.11
  55  0.400  0.500  0.503- 134 2.11 153 2.11 154 2.11 157 2.11 155 2.11   1 2.62
  56  0.500  0.400  0.503- 150 2.11 153 2.11 154 2.11 173 2.11 156 2.11
  57  0.400  0.600  0.407- 140 2.11 155 2.11 159 2.11 160 2.11 157 2.11
  58  0.500  0.700  0.407- 164 2.11 160 2.11 159 2.11 179 2.11 158 2.11
  59  0.400  0.700  0.503- 161 2.11 157 2.11 158 2.11 138 2.11 159 2.11
  60  0.500  0.600  0.503- 154 2.11 157 2.11 158 2.11 177 2.11 160 2.11
[...]
 190  0.900  0.300  0.503-  92 2.11  91 2.11  11 2.11  96 2.11  90 2.11
 191  0.800  0.300  0.407-  70 2.11  89 2.11  90 2.11  93 2.11  91 2.11
 192  0.900  0.200  0.407-  90 2.11  86 2.11  89 2.11   9 2.11  92 2.11
 193  0.800  0.400  0.503-  76 2.11  91 2.11  95 2.11  96 2.11  93 2.11
 194  0.900  0.500  0.503-  15 2.11  95 2.11  96 2.11 100 2.11  94 2.11
 195  0.800  0.500  0.407-  74 2.11  93 2.11  94 2.11  97 2.11  95 2.11
 196  0.900  0.400  0.407-  13 2.11  90 2.11  93 2.11  94 2.11  96 2.11
 197  0.800  0.600  0.503-  80 2.11  95 2.11  99 2.11 100 2.11  97 2.11
 198  0.900  0.700  0.503- 104 2.11  99 2.11 100 2.11  19 2.11  98 2.11
 199  0.800  0.700  0.407-  78 2.11 101 2.11  98 2.11  97 2.11  99 2.11
 200  0.900  0.600  0.407-  17 2.11  94 2.11  97 2.11  98 2.11 100 2.11
 201  0.800  0.800  0.503-  84 2.11  99 2.11 103 2.11 104 2.11 101 2.11
 202  0.900  0.900  0.503-  23 2.11  88 2.11 103 2.11 104 2.11 102 2.11
 203  0.800  0.900  0.407-  82 2.11  85 2.11 101 2.11 102 2.11 103 2.11
 204  0.900  0.800  0.407-  98 2.11  21 2.11 101 2.11 102 2.11 104 2.11

  LATTYP: Found a simple tetragonal cell.
 ALAT       =    21.1388521970
 C/A-ratio  =     1.0461251639

  Lattice vectors:

 A1 = (  21.1388521970,   0.0000000000,   0.0000000000)
 A2 = (   0.0000000000,  21.1388521970,   0.0000000000)
 A3 = (   0.0000000000,   0.0000000000,  22.1138852197)

Analysis of symmetry for initial positions (statically):
 Subroutine PRICEL returns:
 Original cell was already a primitive cell.

 Routine SETGRP: Setting up the symmetry group for a
 simple tetragonal supercell.

 Subroutine GETGRP returns: Found  2 space group operations
 (whereof  1 operations were pure point group operations)
 out of a pool of 16 trial point group operations.

The static configuration has the point symmetry C_1 .
 The point group associated with its full space group is C_1h.

Analysis of symmetry for dynamics (positions and initial velocities):
 Subroutine PRICEL returns:
 Original cell was already a primitive cell.

[...]

The dynamic configuration has the point symmetry C_1 .
 The point group associated with its full space group is C_1h.

Analysis of constrained symmetry for selective dynamics:
 Subroutine PRICEL returns:
 Original cell was already a primitive cell.

 Routine SETGRP: Setting up the symmetry group for a
 simple tetragonal supercell.

 Subroutine GETGRP returns: Found  2 space group operations
[...]
     54     -42.8969      2.00000
     55     -42.8947      2.00000
     56     -42.8902      2.00000
     57     -42.8902      2.00000
     58     -42.8874      2.00000
     59     -42.8863      2.00000
     60     -42.8862      2.00000
[...]
    946       6.2349      0.00000
    947       6.2448      0.00000
    948       6.3001      0.00000
    949       6.3600      0.00000
    950       6.3930      0.00000
    951       6.4089      0.00000
    952       6.4584      0.00000
    953       6.4910      0.00000
    954       6.5742      0.00000
    955       6.6460      0.00000
    956       6.6729      0.00000
    957       6.7084      0.00000
    958       6.7566      0.00000
    959       6.7796      0.00000
    960       6.8384      0.00000

 soft charge-density along one line, spin component           1
         0         1         2         3         4         5         6         7         8         9
 total charge-density along one line

------------------------ aborting loop because EDIFF is reached ----------------------------------------

  FORCE on cell =-STRESS in cart. coord.  units (eV):
  Direction    XX          YY          ZZ          XY          YZ          ZX
  Alpha Z  1394.80054  1394.80054  1394.80054
  Ewald  487008.22575485627.98407************     0.00456   493.91026     0.00668
  Hartree516508.08544515312.24478************     0.00412   374.15919     0.00124
  E(xc)   -7749.87985 -7750.12682 -7767.57497     0.00000     0.09432     0.00001
  Local  ************************************    -0.00926  -862.05108    -0.00687
  n-local -8889.35519 -8892.33048 -9011.49698     0.00064    -0.26620     0.00066
  augment  3589.53678  3589.74094  3528.53096     0.00015    -2.92206    -0.00023
  Kinetic 22995.71707 22994.65889 23255.94301     0.00055    -3.16934    -0.00028
  Fock        0.00000     0.00000     0.00000     0.00000     0.00000     0.00000
  vdW       -11.47479   -11.47088    -2.88241     0.00000    -0.00033     0.00000
  Total    -206.42690  -205.85106   -12.91986     0.00000    -0.24524     0.00000
  in kB     -33.46948   -33.37612    -2.09479     0.00000    -0.03976     0.00000

 VOLUME and BASIS-vectors are now :
  energy-cutoff  :      520.00
  volume of cell :     9881.61
      direct lattice vectors                 reciprocal lattice vectors
    21.138852197  0.000000000  0.000000000     0.047306258  0.000000000  0.000000000
     0.000000000 21.138852197  0.000000000     0.000000000  0.047306258  0.000000000
     0.000000000  0.000000000 22.113885220     0.000000000  0.000000000  0.045220457

  length of vectors
    21.138852197 21.138852197 22.113885220     0.047306258  0.047306258  0.045220457

 FORCES acting on ions:
    Electron-Ion                     Ewald-Force                    Non-Local-Force
   0.206E-01 0.600E+03 -.198E+04   -.580E-02 -.593E+03 0.198E+04   0.000E+00 -.663E+01 -.185E+01
   -.602E+03 -.172E+03 -.205E+04   0.595E+03 0.168E+03 0.205E+04   0.641E+01 0.427E+01 -.574E+01
   0.602E+03 -.172E+03 -.205E+04   -.595E+03 0.168E+03 0.205E+04   -.641E+01 0.427E+01 -.574E+01
   -.164E-01 -.265E+03 -.243E+04   0.277E-02 0.258E+03 0.242E+04   0.000E+00 0.643E+01 0.105E+02
   0.683E+01 0.257E+01 0.936E+03   -.683E+01 -.257E+01 -.928E+03   0.152E-01 0.619E-02 -.771E+01
   0.150E+02 0.152E+02 0.942E+03   -.151E+02 -.153E+02 -.933E+03   0.462E-01 0.317E-01 -.772E+01
   0.108E+02 0.133E+02 -.919E+03   -.109E+02 -.133E+02 0.911E+03   0.207E-01 0.153E-02 0.764E+01
   0.140E+02 0.454E+01 -.918E+03   -.140E+02 -.455E+01 0.910E+03   0.216E-01 0.120E-01 0.764E+01
   0.128E+02 0.160E+02 0.942E+03   -.129E+02 -.160E+02 -.934E+03   0.426E-01 0.106E-01 -.772E+01
   0.361E+02 0.255E+02 0.960E+03   -.363E+02 -.255E+02 -.951E+03   0.166E+00 0.359E-01 -.777E+01
   0.262E+02 0.207E+02 -.912E+03   -.262E+02 -.207E+02 0.904E+03   0.279E-01 -.994E-02 0.762E+01
   0.324E+02 0.330E+02 -.910E+03   -.324E+02 -.330E+02 0.902E+03   0.721E-01 -.153E-02 0.762E+01
   0.238E+02 0.841E+01 0.951E+03   -.239E+02 -.842E+01 -.943E+03   0.798E-01 0.219E-02 -.774E+01
   0.515E+02 -.622E+01 0.974E+03   -.519E+02 0.623E+01 -.965E+03   0.299E+00 -.795E-02 -.783E+01
   0.376E+02 -.452E+01 -.907E+03   -.376E+02 0.452E+01 0.899E+03   0.170E-01 0.183E-02 0.761E+01
   0.827E+02 0.251E+02 -.887E+03   -.827E+02 -.251E+02 0.879E+03   0.805E-01 -.230E-01 0.755E+01
   0.211E+02 -.134E+02 0.949E+03   -.211E+02 0.134E+02 -.941E+03   0.735E-01 -.836E-02 -.774E+01
   0.278E+02 -.260E+02 0.953E+03   -.279E+02 0.260E+02 -.945E+03   0.808E-01 -.531E-01 -.773E+01
   0.207E+02 -.217E+02 -.914E+03   -.207E+02 0.217E+02 0.906E+03   0.292E-01 0.521E-02 0.763E+01
   0.684E+02 -.363E+02 -.892E+03   -.685E+02 0.363E+02 0.885E+03   0.155E+00 0.284E-01 0.758E+01
   0.100E+02 -.135E+02 0.940E+03   -.100E+02 0.135E+02 -.932E+03   0.209E-01 -.106E-01 -.772E+01
   0.123E+02 -.856E+01 0.939E+03   -.123E+02 0.856E+01 -.931E+03   0.216E-01 -.671E-02 -.771E+01
   0.888E+01 -.777E+01 -.919E+03   -.888E+01 0.777E+01 0.911E+03   0.989E-02 0.129E-02 0.764E+01
   0.233E+02 -.261E+02 -.914E+03   -.233E+02 0.262E+02 0.906E+03   0.194E-01 -.156E-01 0.763E+01
   0.120E+02 0.515E+01 0.942E+03   -.121E+02 -.519E+01 -.933E+03   0.276E-01 0.312E-01 -.772E+01
   0.110E+02 0.289E+02 0.952E+03   -.111E+02 -.291E+02 -.943E+03   0.379E-01 0.136E+00 -.773E+01
   0.217E+02 0.305E+02 -.912E+03   -.217E+02 -.305E+02 0.904E+03   0.438E-01 0.514E-01 0.763E+01
   0.969E+01 0.905E+01 -.914E+03   -.969E+01 -.911E+01 0.906E+03   0.153E-01 0.423E-01 0.763E+01
   0.276E+02 0.372E+02 0.960E+03   -.277E+02 -.374E+02 -.952E+03   0.126E+00 0.125E+00 -.774E+01
   0.374E+02 0.673E+02 0.102E+04   -.378E+02 -.679E+02 -.101E+04   0.307E+00 0.458E+00 -.779E+01
   0.835E+02 0.800E+02 -.872E+03   -.838E+02 -.800E+02 0.864E+03   0.281E+00 -.105E-01 0.751E+01
   0.325E+02 0.871E+02 -.886E+03   -.326E+02 -.874E+02 0.878E+03   0.719E-01 0.233E+00 0.760E+01
   0.681E+02 0.278E+02 0.101E+04   -.688E+02 -.280E+02 -.100E+04   0.574E+00 0.114E+00 -.796E+01
   0.584E+02 -.240E+02 0.109E+04   -.591E+02 0.244E+02 -.108E+04   0.526E+00 -.277E+00 -.648E+01
   0.182E+03 -.295E+02 -.788E+03   -.184E+03 0.294E+02 0.781E+03   0.127E+01 0.104E+00 0.703E+01
   0.184E+03 0.161E+03 -.640E+03   -.187E+03 -.162E+03 0.634E+03   0.203E+01 0.823E+00 0.522E+01
   0.543E+02 -.416E+02 0.997E+03   -.546E+02 0.418E+02 -.989E+03   0.266E+00 -.195E+00 -.775E+01
   0.231E+02 -.585E+02 0.985E+03   -.231E+02 0.589E+02 -.977E+03   0.529E-01 -.317E+00 -.783E+01
   0.527E+02 -.687E+02 -.889E+03   -.527E+02 0.689E+02 0.881E+03   0.231E-01 -.128E+00 0.758E+01
   0.903E+02 -.176E+03 -.763E+03   -.903E+02 0.177E+03 0.755E+03   0.248E-01 -.125E+01 0.712E+01
   0.193E+02 -.283E+02 0.951E+03   -.193E+02 0.284E+02 -.943E+03   0.339E-01 -.728E-01 -.773E+01
   0.832E+01 -.149E+02 0.946E+03   -.832E+01 0.149E+02 -.938E+03   0.137E-01 -.143E-01 -.772E+01
   0.162E+02 -.161E+02 -.915E+03   -.162E+02 0.161E+02 0.907E+03   0.167E-01 0.233E-02 0.763E+01
   0.182E+02 -.563E+02 -.901E+03   -.182E+02 0.563E+02 0.893E+03   0.113E-01 -.345E-01 0.761E+01
   0.150E-01 0.732E+01 0.945E+03   -.217E-03 -.740E+01 -.937E+03   0.000E+00 0.597E-01 -.772E+01
   -.110E+02 0.289E+02 0.952E+03   0.111E+02 -.291E+02 -.943E+03   -.379E-01 0.136E+00 -.773E+01
   0.152E-01 0.471E+02 -.906E+03   -.391E-03 -.472E+02 0.898E+03   0.000E+00 0.133E+00 0.762E+01
   -.966E+01 0.905E+01 -.914E+03   0.969E+01 -.911E+01 0.906E+03   -.153E-01 0.423E-01 0.763E+01
   0.153E-01 0.590E+02 0.979E+03   -.499E-03 -.596E+02 -.970E+03   0.000E+00 0.447E+00 -.780E+01
   -.374E+02 0.673E+02 0.102E+04   0.378E+02 -.679E+02 -.101E+04   -.307E+00 0.458E+00 -.779E+01
   0.171E-01 0.207E+03 -.777E+03   -.193E-02 -.210E+03 0.769E+03   0.000E+00 0.213E+01 0.753E+01
   -.325E+02 0.871E+02 -.886E+03   0.326E+02 -.874E+02 0.878E+03   -.719E-01 0.233E+00 0.760E+01
   0.163E-01 0.519E+02 0.111E+04   -.142E-02 -.523E+02 -.110E+04   0.000E+00 0.271E+00 -.528E+01
   -.584E+02 -.240E+02 0.109E+04   0.591E+02 0.244E+02 -.108E+04   -.526E+00 -.277E+00 -.648E+01
   0.175E-01 -.151E+03 -.464E+03   -.165E-02 0.154E+03 0.460E+03   0.000E+00 -.195E+01 0.434E+01
   -.184E+03 0.161E+03 -.640E+03   0.187E+03 -.162E+03 0.634E+03   -.203E+01 0.823E+00 0.522E+01
   0.160E-01 -.757E+02 0.105E+04   -.116E-02 0.766E+02 -.105E+04   0.000E+00 -.654E+00 -.795E+01
   -.230E+02 -.585E+02 0.985E+03   0.231E+02 0.589E+02 -.977E+03   -.529E-01 -.317E+00 -.783E+01
   0.160E-01 -.124E+03 -.859E+03   -.126E-02 0.124E+03 0.851E+03   0.000E+00 -.157E+00 0.755E+01
   -.902E+02 -.176E+03 -.763E+03   0.902E+02 0.177E+03 0.755E+03   -.248E-01 -.125E+01 0.712E+01
[...]
   -.139E+02 0.118E+02 0.712E+03   0.140E+02 -.118E+02 -.716E+03   -.503E-01 0.115E-01 0.351E+01
   0.703E-01 0.101E+02 0.706E+03   0.250E-03 -.101E+02 -.710E+03   0.000E+00 0.752E-02 0.352E+01
   -.264E+02 0.872E+01 -.682E+03   0.264E+02 -.872E+01 0.686E+03   -.279E-01 -.762E-02 -.372E+01
   0.698E-01 -.249E+01 -.685E+03   0.726E-03 0.248E+01 0.690E+03   0.000E+00 0.150E-02 -.369E+01
   -.187E+02 -.257E+01 0.716E+03   0.188E+02 0.257E+01 -.720E+03   -.568E-01 -.288E-02 0.349E+01
   0.701E-01 0.499E+01 0.711E+03   0.461E-03 -.499E+01 -.715E+03   0.000E+00 0.985E-03 0.351E+01
   -.230E+02 -.135E+02 -.683E+03   0.231E+02 0.135E+02 0.688E+03   -.299E-01 0.732E-02 -.370E+01
   0.701E-01 -.129E+02 -.689E+03   0.440E-03 0.129E+02 0.693E+03   0.000E+00 0.206E-02 -.366E+01
   -.112E+02 -.126E+02 0.710E+03   0.113E+02 0.126E+02 -.714E+03   -.402E-01 -.210E-01 0.352E+01
   0.701E-01 -.803E+01 0.710E+03   0.431E-03 0.804E+01 -.714E+03   0.000E+00 -.614E-02 0.351E+01
   -.963E+01 -.128E+02 -.689E+03   0.971E+01 0.128E+02 0.694E+03   -.194E-01 -.690E-02 -.365E+01
   0.703E-01 -.497E+01 -.692E+03   0.195E-03 0.496E+01 0.696E+03   0.000E+00 0.893E-03 -.364E+01
   -.537E+01 -.469E+01 0.704E+03   0.545E+01 0.470E+01 -.708E+03   -.162E-01 -.247E-02 0.353E+01
   0.703E-01 -.867E+01 0.705E+03   0.219E-03 0.867E+01 -.709E+03   0.000E+00 -.765E-02 0.353E+01
   0.862E+01 -.864E+01 0.104E+02   0.261E-11 0.227E-12 0.227E-10   0.000E+00 0.863E+01 -.109E+02

 POSITION                                       TOTAL-FORCE (eV/Angst)
      8.45555      8.82382     13.06192         0.000000      0.244402     -0.159542
     10.35658     10.31213     13.27893        -0.225627     -0.064529     -0.177761
      6.55462     10.31214     13.27893         0.225627     -0.064529     -0.177761
      8.45565     10.40011     14.68777         0.000000     -0.124824     -0.333866
      0.00000      0.00000      9.00000        -0.004201     -0.001728      0.459008
      2.11389      2.11389      9.00000        -0.012710     -0.008669      0.460167
      0.00000      2.11389     11.11389        -0.005469     -0.000334     -0.429883
      2.11389      0.00000     11.11389        -0.005988     -0.003176     -0.430109
      0.00000      4.22777      9.00000        -0.011191     -0.002789      0.461906
      2.11389      6.34166      9.00000        -0.043044     -0.009386      0.473067
      0.00000      6.34166     11.11389        -0.005865      0.003365     -0.420501
      2.11389      4.22777     11.11389        -0.017971      0.001342     -0.418387
      0.00000      8.45554      9.00000        -0.020938     -0.000458      0.467784
      2.11389     10.56943      9.00000        -0.074391      0.001663      0.487484
      0.00000     10.56943     11.11389        -0.001432     -0.000843     -0.413883
      2.11389      8.45554     11.11389        -0.011160      0.010637     -0.372626
      0.00000     12.68331      9.00000        -0.018869      0.002155      0.466214
      2.11389     14.79720      9.00000        -0.022352      0.015028      0.463621
      0.00000     14.79720     11.11389        -0.007004     -0.001610     -0.424672
      2.11389     12.68331     11.11389        -0.033495     -0.011592     -0.389920
      0.00000     16.91108      9.00000        -0.005742      0.002915      0.460031
      2.11389     19.02497      9.00000        -0.006039      0.001669      0.459766
      0.00000     19.02497     11.11389        -0.002743     -0.000454     -0.431295
      2.11389     16.91108     11.11389        -0.005221      0.003336     -0.425449
      4.22777      0.00000      9.00000        -0.007798     -0.008355      0.459862
      6.34166      2.11389      9.00000        -0.011036     -0.035815      0.462985
      4.22777      2.11389     11.11389        -0.012152     -0.012453     -0.423102
      6.34166      0.00000     11.11389        -0.004359     -0.010849     -0.427095
      4.22777      4.22777      9.00000        -0.035296     -0.034357      0.464934
      6.34166      6.34166      9.00000        -0.098208     -0.131006      0.457331
      4.22777      6.34166     11.11389        -0.055823      0.021783     -0.335654
      6.34166      4.22777     11.11389        -0.020827     -0.055715     -0.393887
      4.22777      8.45554      9.00000        -0.151848     -0.037817      0.500980
      6.34166     10.56943      9.00000        -0.143635      0.088474      0.164429
      4.22777     10.56943     11.11389        -0.421229     -0.038843     -0.255288
      6.34166      8.45554     11.11389        -0.744669     -0.411696     -0.070546
      4.22777     12.68331      9.00000        -0.079480      0.060902      0.458346
      6.34166     14.79720      9.00000        -0.013488      0.078280      0.484938
      4.22777     14.79720     11.11389        -0.002755      0.027286     -0.391887
      6.34166     12.68331     11.11389         0.015037      0.400849     -0.249733
      4.22777     16.91108      9.00000        -0.009394      0.018785      0.464349
      6.34166     19.02497      9.00000        -0.003855      0.003582      0.461223
      4.22777     19.02497     11.11389        -0.004657     -0.001117     -0.427749
      6.34166     16.91108     11.11389        -0.002915      0.005353     -0.415509
      8.45554      0.00000      9.00000         0.000000     -0.015530      0.460508
     10.56943      2.11389      9.00000         0.011036     -0.035815      0.462985
      8.45554      2.11389     11.11389         0.000000     -0.031902     -0.418620
     10.56943      0.00000     11.11389         0.004359     -0.010849     -0.427095
      8.45554      4.22777      9.00000         0.000000     -0.110162      0.476833
     10.56943      6.34166      9.00000         0.098208     -0.131006      0.457331
      8.45554      6.34166     11.11389         0.000000     -0.682529     -0.426351
     10.56943      4.22777     11.11389         0.020827     -0.055715     -0.393887
      8.45554      8.45554      9.00000         0.000000     -0.093260     -0.053379
     10.56943     10.56943      9.00000         0.143635      0.088474      0.164429
      8.45554     10.56943     11.11389         0.000000      0.964811     -0.149059
     10.56943      8.45554     11.11389         0.744669     -0.411696     -0.070546
      8.45554     12.68331      9.00000         0.000000      0.184341      0.490036
     10.56943     14.79720      9.00000         0.013488      0.078280      0.484938
      8.45554     14.79720     11.11389         0.000000      0.024434     -0.363671
     10.56943     12.68331     11.11389        -0.015037      0.400849     -0.249733
[...]
     19.02497      6.34166     11.11389         0.000000     -0.001998      0.371191
     16.91108      6.34166      9.00000        -0.014076      0.003238     -0.412711
     19.02497      4.22777      9.00000         0.000000      0.002034     -0.408292
     16.91108      8.45554     11.11389        -0.008377     -0.001945      0.359593
     19.02497     10.56943     11.11389         0.000000      0.000447      0.367603
     16.91108     10.56943      9.00000        -0.016428     -0.000839     -0.417105
     19.02497      8.45554      9.00000         0.000000      0.000211     -0.412105
     16.91108     12.68331     11.11389        -0.008850      0.001924      0.363924
     19.02497     14.79720     11.11389         0.000000      0.000684      0.373951
     16.91108     14.79720      9.00000        -0.011195     -0.005743     -0.409855
     19.02497     12.68331      9.00000         0.000000     -0.001551     -0.410909
     16.91108     16.91108     11.11389        -0.005317     -0.001823      0.376021
     19.02497     19.02497     11.11389         0.000000      0.000295      0.378974
     16.91108     19.02497      9.00000        -0.004450     -0.000657     -0.406472
     19.02497     16.91108      9.00000         0.000000     -0.002040     -0.407080
    total drift:                                8.623041     -0.004864     -0.459459

  FREE ENERGIE OF THE ION-ELECTRON SYSTEM (eV)
  free  energy   TOTEN  =     -1208.07579841 eV

  energy  without entropy=    -1208.07579841  energy(sigma->0) =    -1208.07579841