 vasp.6.4.1 05Apr23 (build May 06 2023 19:47:20) complex

 executed on             LinuxIFC date 2023.05.12  13:02:58

 INCAR:
   SYSTEM = MgO-rocksalt
   ISMEAR = 0
   SIGMA = 0.05
   EDIFF = 1E-4
   ALGO = ALL
   ISTART = 0
   IBRION = -1
   NSW = 0
   ISYM = 3
   DIPOL = 0.5 0.5 0.5
   IDIPOL = 3
   LDIPOL = .TRUE.
   LHFCALC = .TRUE.
   HFSCREEN = 0.2
   GGA = PE
   IVDW = 13
   VDW_S8 = 1.19528249
   VDW_A1 = 0.38663183
   VDW_A2 = 5.19133469
   ENCUT = 520
   PREC = Normal
   LASPH = .TRUE.
   LREAL = Auto
   ISPIN = 1
   NELM = 200
   NELMIN = 8
   NCORE = 16
   KPAR = 1
   LWAVE = .FALSE.
   LCHARG = .FALSE.

 POTCAR:    PAW_PBE Au 04Oct2007
 POTCAR:    PAW_PBE Mg_pv 13Apr2007
 POTCAR:    PAW_PBE O 08Apr2002
 POTCAR:    PAW_PBE Au 04Oct2007
   VRHFIN =Au: s1d10

   TITEL  = PAW_PBE Au 04Oct2007
   POMASS =  196.966; ZVAL   =   11.000    mass and valenz
   ENMAX  =  229.943; ENMIN  =  172.457 eV

   TITEL  = PAW_PBE Mg_pv 13Apr2007
   POMASS =   24.305; ZVAL   =    8.000    mass and valenz
   ENMAX  =  403.929; ENMIN  =  302.947 eV

   TITEL  = PAW_PBE O 08Apr2002
   POMASS =   16.000; ZVAL   =    6.000    mass and valenz
   ENMAX  =  400.000; ENMIN  =  300.000 eV

 Optimization of the real space projectors (new method)

 maximal supplied QI-value         = 15.12
 optimisation between [QCUT,QGAM] = [ 11.64, 23.28] = [ 37.95,151.78] Ry
 Optimized for a Real-space Cutoff    1.36 Angstroem

   l    n(q)    QCUT    max X(q) W(low)/X(q) W(high)/X(q)  e(spline)
   2      9    11.641    60.898    0.44E-03    0.10E-02    0.32E-06
   2      9    11.641    58.894    0.45E-03    0.11E-02    0.32E-06
   0      9    11.641   109.617    0.19E-03    0.78E-04    0.11E-06
   0      9    11.641    75.026    0.19E-03    0.76E-04    0.10E-06
   1      9    11.641    16.344    0.43E-03    0.28E-03    0.32E-06
   1      9    11.641    10.160    0.36E-03    0.22E-03    0.26E-06
 Optimization of the real space projectors (new method)

[...]

   l    n(q)    QCUT    max X(q) W(low)/X(q) W(high)/X(q)  e(spline)
   1      8    11.527     2.974    0.16E-03    0.13E-03    0.98E-07
   1      8    11.527     4.279    0.42E-03    0.30E-03    0.22E-06
   0      8    11.527    16.381    0.13E-03    0.20E-03    0.72E-07
   0      8    11.527     5.611    0.88E-04    0.13E-03    0.50E-07
   2      7    11.527     4.652    0.25E-03    0.73E-04    0.51E-07
 Optimization of the real space projectors (new method)

 maximal supplied QI-value         = 24.76
 optimisation between [QCUT,QGAM] = [ 11.64, 23.27] = [ 37.91,151.63] Ry
 Optimized for a Real-space Cutoff    1.04 Angstroem

   l    n(q)    QCUT    max X(q) W(low)/X(q) W(high)/X(q)  e(spline)
   0      7    11.635    20.381    0.14E-03    0.49E-03    0.18E-06
   0      7    11.635    15.268    0.16E-03    0.52E-03    0.19E-06
   1      7    11.635     5.964    0.30E-03    0.44E-03    0.22E-06
   1      7    11.635     5.382    0.27E-03    0.34E-03    0.19E-06
  PAW_PBE Au 04Oct2007                  :
  PAW_PBE Mg_pv 13Apr2007               :
  PAW_PBE O 08Apr2002                   :

 POSCAR: Mg  O
  positions in direct lattice
  velocities in cartesian coordinates
|           W    W    AA    RRRRR   N    N  II  N    N   GGGG   !!!           |
|           W    W   A  A   R    R  NN   N  II  NN   N  G    G  !!!           |
|           W    W  A    A  R    R  N N  N  II  N N  N  G       !!!           |
|           W WW W  AAAAAA  RRRRR   N  N N  II  N  N N  G  GGG   !            |
|           WW  WW  A    A  R   R   N   NN  II  N   NN  G    G                |
|           W    W  A    A  R    R  N    N  II  N    N   GGGG   !!!           |
|     Specifying the vdW parameters                                           |
|     VDW_S8 = 1.195                                                          |
|     VDW_A1 = 0.387                                                          |
|     VDW_A2 = 5.191                                                          |
|     in the INCAR file will overwrite the defaults for hse06. Please         |
|     make sure that is what you intended.                                    |

 ion  position               nearest neighbor table
   1  0.431  0.227  0.583- 265 2.50   2 2.73   5 2.74  11 2.75  68 2.95  67 3.01
   2  0.559  0.237  0.590-   3 2.65   1 2.73  12 2.78  11 2.83   6 2.87   5 2.95  68 3.06
   3  0.683  0.252  0.593-   2 2.65   4 2.67  12 2.79   6 2.82  13 2.87   7 2.91  88 3.01
   4  0.809  0.260  0.596-   3 2.67   7 2.72  13 2.76 107 2.99
   5  0.476  0.348  0.587-   8 2.70   1 2.74  14 2.75  11 2.81   6 2.86  72 2.89   2 2.95
   6  0.610  0.363  0.590-   3 2.82   9 2.82   8 2.86   5 2.86   2 2.87  15 2.93   7 2.93  14 2.96
                            12 2.99  87 3.02
   7  0.748  0.373  0.593-   9 2.67   4 2.72  15 2.80  13 2.87   3 2.91   6 2.93  92 3.00
   8  0.524  0.467  0.585- 270 2.69   5 2.70  10 2.76  14 2.76  16 2.84   6 2.86  72 2.98   9 3.28

   9  0.678  0.478  0.587- 290 2.66   7 2.67  10 2.73  15 2.77   6 2.82  16 2.89   8 3.28
  10  0.595  0.576  0.580- 293 2.37  16 2.68   9 2.73   8 2.76  91 2.91
  11  0.480  0.269  0.662-  17 2.70   1 2.75   5 2.81  12 2.83   2 2.83  14 2.91
  12  0.613  0.277  0.669-  17 2.75  18 2.76   2 2.78   3 2.79  11 2.83  13 2.83   6 2.99  14 3.17
                            15 3.18
  13  0.745  0.297  0.672-  18 2.67   4 2.76  15 2.82  12 2.83   7 2.87   3 2.87
  14  0.525  0.399  0.664-   5 2.75  19 2.75  17 2.76   8 2.76  16 2.86  11 2.91   6 2.96  12 3.17
                            15 3.26
  15  0.679  0.413  0.667-   9 2.77  19 2.77  18 2.78   7 2.80  16 2.81  13 2.82   6 2.93  12 3.18
                            14 3.26
  16  0.595  0.515  0.658-  10 2.68  19 2.70  15 2.81   8 2.84  14 2.86   9 2.89
  17  0.533  0.318  0.736-  11 2.70  20 2.70  12 2.75  14 2.76  18 2.98  19 3.01
  18  0.673  0.333  0.741-  20 2.67  13 2.67  12 2.76  15 2.78  19 2.91  17 2.98
  19  0.595  0.446  0.734-  16 2.70  20 2.72  14 2.75  15 2.77  18 2.91  17 3.01
  20  0.595  0.368  0.806-  18 2.67  17 2.70  19 2.72
  21  0.000  1.000  0.430- 304 2.11 223 2.11 239 2.11 224 2.11 321 2.12 221 2.13
  22  0.100  0.100  0.430- 223 2.11 224 2.11 228 2.11 243 2.12 322 2.12 222 2.13
  23  0.000  0.100  0.500- 223 2.11 302 2.11 222 2.11 221 2.11 225 2.12
  24  0.100  1.000  0.500- 224 2.10 221 2.11 238 2.11 241 2.11 222 2.11
  25  1.000  0.200  0.430- 308 2.11 223 2.11 228 2.11 227 2.11 325 2.12 225 2.13
  26  0.100  0.300  0.430- 227 2.11 232 2.11 228 2.11 247 2.12 326 2.12 226 2.13
  27  0.000  0.300  0.500- 227 2.11 226 2.11 306 2.11 225 2.12 229 2.12
  28  0.100  0.200  0.500- 228 2.11 225 2.11 245 2.11 222 2.11 226 2.12
  29  1.000  0.400  0.430- 312 2.11 232 2.11 227 2.11 231 2.12 329 2.12 229 2.13
  30  0.100  0.500  0.430- 231 2.11 251 2.11 236 2.11 232 2.11 330 2.12 230 2.13
  31  0.000  0.500  0.500- 231 2.11 230 2.11 310 2.11 233 2.12 229 2.12
  32  0.100  0.400  0.500- 232 2.11 229 2.11 249 2.11 230 2.12 226 2.12
  33  0.000  0.600  0.430- 236 2.11 235 2.11 231 2.11 316 2.11 333 2.12 233 2.13
  34  0.100  0.700  0.430- 235 2.11 240 2.11 255 2.11 236 2.11 334 2.12 234 2.13
  35  0.000  0.700  0.500- 235 2.11 234 2.11 237 2.11 314 2.11 233 2.11
  36  0.100  0.600  0.500- 236 2.11 233 2.11 253 2.11 234 2.11 230 2.11
  37  0.000  0.800  0.430- 239 2.11 240 2.11 235 2.11 320 2.11 337 2.12 237 2.13
  38  0.100  0.900  0.430- 239 2.11 240 2.11 224 2.11 259 2.11 338 2.12 238 2.13
  39  0.000  0.900  0.500- 239 2.10 221 2.11 238 2.11 237 2.11 318 2.11
  40  0.100  0.800  0.500- 240 2.10 237 2.11 238 2.11 257 2.11 234 2.11
  41  0.200  1.000  0.430- 224 2.11 259 2.11 243 2.12 244 2.12 341 2.12 241 2.13
  42  0.300  0.100  0.430- 243 2.11 244 2.11 263 2.11 248 2.11 342 2.13 242 2.13
  43  0.200  0.100  0.500- 243 2.11 222 2.11 241 2.11 245 2.12 242 2.12
  44  0.300  1.000  0.500- 244 2.11 241 2.11 258 2.11 261 2.12 242 2.12
  45  0.200  0.200  0.430- 228 2.11 243 2.11 247 2.11 345 2.12 248 2.13 245 2.14
  46  0.300  0.300  0.430- 267 2.11 247 2.11 252 2.11 248 2.12 346 2.12 246 2.13
  47  0.200  0.300  0.500- 226 2.11 247 2.11 249 2.11 246 2.12 245 2.12
  48  0.298  0.200  0.500- 245 2.09 248 2.11 246 2.11 242 2.11 265 2.13
  49  0.200  0.400  0.430- 232 2.11 252 2.11 251 2.11 247 2.12 349 2.12 249 2.13
  50  0.300  0.500  0.430- 251 2.11 256 2.11 252 2.11 271 2.12 350 2.12 250 2.13
  51  0.200  0.500  0.500- 251 2.11 230 2.11 250 2.11 253 2.11 249 2.12
  52  0.299  0.400  0.500- 249 2.10 252 2.11 269 2.11 250 2.11 246 2.12
  53  0.200  0.600  0.430- 236 2.11 255 2.11 251 2.11 256 2.11 353 2.12 253 2.13
  54  0.300  0.700  0.430- 255 2.11 260 2.11 256 2.11 275 2.12 354 2.12 254 2.13
  55  0.200  0.700  0.500- 255 2.11 234 2.11 257 2.11 253 2.11 254 2.11
  56  0.299  0.600  0.500- 253 2.11 256 2.11 254 2.11 273 2.11 250 2.12
  57  0.200  0.800  0.430- 240 2.11 255 2.11 259 2.11 260 2.12 357 2.12 257 2.13
  58  0.300  0.900  0.430- 259 2.11 260 2.11 279 2.11 244 2.12 358 2.12 258 2.13
  59  0.200  0.900  0.500- 259 2.10 238 2.11 257 2.11 241 2.11 258 2.11
  60  0.300  0.800  0.500- 260 2.10 257 2.11 258 2.11 254 2.11 277 2.12
  61  0.400  1.000  0.430- 264 2.11 244 2.11 279 2.11 361 2.12 263 2.13 261 2.13
  62  0.500  0.100  0.430- 268 2.11 264 2.11 283 2.11 263 2.12 362 2.12 262 2.12
  63  0.400  0.098  0.500- 261 2.09 263 2.11 262 2.11 242 2.11 265 2.14
  64  0.500  1.000  0.500- 264 2.11 278 2.11 262 2.11 281 2.11 261 2.12
  65  0.400  0.200  0.429- 268 2.10 267 2.10 248 2.10 263 2.10 365 2.11
  66  0.500  0.300  0.429- 266 2.07 366 2.10 287 2.11 268 2.12 267 2.12 272 2.13
  67  0.399  0.302  0.500- 269 2.09 246 2.11 267 2.12 266 2.12 265 2.16   1 3.01
  68  0.501  0.199  0.500- 285 2.09 262 2.11 268 2.11 266 2.13 265 2.16   1 2.95   2 3.06
  69  0.400  0.400  0.430- 269 2.11 252 2.11 369 2.11 272 2.11 271 2.12 267 2.13
  70  0.500  0.500  0.429- 272 2.10 271 2.11 370 2.11 276 2.12 291 2.12 270 2.14
  71  0.399  0.500  0.500- 250 2.10 269 2.10 271 2.11 273 2.12 270 2.13
  72  0.500  0.399  0.500- 266 2.11 272 2.11 269 2.13 289 2.13 270 2.15   5 2.89   8 2.98
  73  0.400  0.600  0.430- 256 2.11 271 2.11 275 2.11 373 2.12 276 2.13 273 2.13
  74  0.500  0.700  0.430- 280 2.11 275 2.11 295 2.12 276 2.12 374 2.12 274 2.13
  75  0.399  0.701  0.500- 254 2.10 277 2.11 275 2.11 273 2.12 274 2.12
[...]
 406  0.900  0.300  0.359- 208 2.11 207 2.11 127 2.11 212 2.11 206 2.11 106 2.12
 407  0.800  0.300  0.289- 186 2.11 205 2.11 206 2.11 209 2.11 207 2.11
 408  0.900  0.200  0.289- 206 2.11 202 2.11 205 2.11 125 2.11 208 2.11
 409  0.800  0.400  0.359- 192 2.11 207 2.11 211 2.11 212 2.11 209 2.11 109 2.12
 410  0.900  0.500  0.359- 131 2.11 211 2.11 212 2.11 216 2.11 210 2.11 110 2.12
 411  0.800  0.500  0.289- 190 2.11 209 2.11 210 2.11 213 2.11 211 2.11
 412  0.900  0.400  0.289- 129 2.11 206 2.11 209 2.11 210 2.11 212 2.11
 413  0.800  0.600  0.359- 196 2.11 211 2.11 215 2.11 216 2.11 213 2.11 113 2.12
 414  0.900  0.700  0.359- 220 2.11 215 2.11 216 2.11 135 2.11 214 2.11 114 2.12
 415  0.800  0.700  0.289- 194 2.11 217 2.11 214 2.11 213 2.11 215 2.11
 416  0.900  0.600  0.289- 133 2.11 210 2.11 213 2.11 214 2.11 216 2.11
 417  0.800  0.800  0.359- 200 2.11 215 2.11 219 2.11 220 2.11 217 2.11 117 2.12
[...]
     22     -46.1133      2.00000
     23     -46.1132      2.00000
     24     -46.1130      2.00000
     25     -46.1119      2.00000
     26     -46.1098      2.00000
     27     -46.1097      2.00000
     28     -46.1089      2.00000
     29     -46.1089      2.00000
     30     -46.1084      2.00000
     31     -46.1079      2.00000
     32     -46.1073      2.00000
     33     -46.1067      2.00000
     34     -46.1059      2.00000
     35     -46.1037      2.00000
     36     -46.1025      2.00000
     37     -46.1016      2.00000
     38     -46.1013      2.00000
     39     -46.1012      2.00000
     40     -46.1010      2.00000
     41     -46.0998      2.00000
     42     -46.0986      2.00000
     43     -46.0972      2.00000
     44     -46.0956      2.00000
     45     -46.0955      2.00000
     46     -46.0950      2.00000
     47     -46.0943      2.00000
     48     -46.0937      2.00000
     49     -46.0924      2.00000
     50     -46.0913      2.00000
     51     -46.0901      2.00000
     52     -46.0888      2.00000
     53     -46.0673      2.00000
     54     -46.0658      2.00000
     55     -46.0598      2.00000
     56     -46.0569      2.00000
     57     -46.0559      2.00000
     58     -46.0526      2.00000
     59     -46.0513      2.00000
     60     -46.0490      2.00000
[...]
   1810       7.5154      0.00000
   1811       7.5614      0.00000
   1812       7.5926      0.00000
   1813       7.6227      0.00000
   1814       7.6403      0.00000
   1815       7.6770      0.00000
   1816       7.7109      0.00000
   1817       7.8105      0.00000
   1818       7.8363      0.00000
   1819       7.8551      0.00000
   1820       7.8612      0.00000
   1821       7.9130      0.00000
   1822       7.9320      0.00000
   1823       7.9748      0.00000
   1824       8.0082      0.00000

 soft charge-density along one line, spin component           1
         0         1         2         3         4         5         6         7         8         9
 total charge-density along one line

------------------------ aborting loop because EDIFF is reached ----------------------------------------

 VOLUME and BASIS-vectors are now :
  energy-cutoff  :      520.00
  volume of cell :    13405.53
      direct lattice vectors                 reciprocal lattice vectors
    21.138852197  0.000000000  0.000000000     0.047306258  0.000000000  0.000000000
     0.000000000 21.138852197  0.000000000     0.000000000  0.047306258  0.000000000
     0.000000000  0.000000000 30.000000000     0.000000000  0.000000000  0.033333333

  length of vectors
    21.138852197 21.138852197 30.000000000     0.047306258  0.047306258  0.033333333

 FORCES acting on ions:
    Electron-Ion                     Ewald-Force                    Non-Local-Force
   0.800E+03 0.618E+03 -.341E+04   -.795E+03 -.614E+03 0.342E+04   -.489E+01 -.381E+01 -.330E+01
   0.166E+03 0.926E+03 -.312E+04   -.164E+03 -.925E+03 0.312E+04   -.224E+01 -.137E+01 -.113E+01
   -.382E+03 0.860E+03 -.310E+04   0.379E+03 -.860E+03 0.310E+04   0.282E+01 0.192E+00 -.521E+00
   -.945E+03 0.504E+03 -.336E+04   0.939E+03 -.501E+03 0.336E+04   0.567E+01 -.366E+01 -.156E+01
   0.917E+03 -.860E+02 -.312E+04   -.916E+03 0.887E+02 0.312E+04   -.168E+01 -.259E+01 -.111E+01
   -.226E+02 -.142E+02 -.289E+04   0.228E+02 0.135E+02 0.289E+04   -.150E+00 0.846E+00 -.340E+00
   -.943E+03 -.250E+03 -.313E+04   0.941E+03 0.251E+03 0.313E+04   0.260E+01 -.161E+01 -.623E+00
   0.696E+03 -.636E+03 -.314E+04   -.696E+03 0.633E+03 0.314E+04   -.178E+00 0.369E+01 -.189E+01
   -.607E+03 -.729E+03 -.315E+04   0.607E+03 0.725E+03 0.315E+04   -.309E+00 0.365E+01 -.212E+01
   0.610E+02 -.998E+03 -.341E+04   -.607E+02 0.992E+03 0.341E+04   -.350E+00 0.563E+01 -.401E+01
   0.887E+03 0.641E+03 -.328E+04   -.886E+03 -.640E+03 0.328E+04   -.160E+01 -.112E+01 -.240E+00
   -.645E+02 0.854E+03 -.317E+04   0.644E+02 -.854E+03 0.317E+04   0.788E-01 0.480E-01 0.766E-01
   -.963E+03 0.455E+03 -.325E+04   0.960E+03 -.453E+03 0.325E+04   0.273E+01 -.124E+01 -.146E+01
   0.821E+03 -.388E+03 -.317E+04   -.821E+03 0.388E+03 0.317E+04   -.241E+00 -.482E-01 0.414E+00
   -.710E+03 -.522E+03 -.318E+04   0.710E+03 0.522E+03 0.318E+04   -.400E-01 0.101E+00 0.583E+00
   0.972E+02 -.109E+04 -.328E+04   -.970E+02 0.109E+04 0.328E+04   -.285E+00 0.123E+01 0.361E+00
   0.657E+03 0.394E+03 -.290E+04   -.657E+03 -.395E+03 0.289E+04   0.214E+00 0.627E+00 0.402E+01
   -.627E+03 0.270E+03 -.290E+04   0.628E+03 -.270E+03 0.290E+04   -.596E+00 0.395E+00 0.324E+01
   0.101E+03 -.780E+03 -.291E+04   -.101E+03 0.781E+03 0.290E+04   -.142E+00 -.451E+00 0.431E+01
   0.668E+02 -.417E+02 -.232E+04   -.661E+02 0.411E+02 0.231E+04   -.759E+00 0.622E+00 0.666E+01
   -.338E+02 0.423E+02 -.708E+03   0.337E+02 -.423E+02 0.708E+03   0.422E-01 -.117E-01 -.283E+00
   -.412E+01 0.466E+02 -.699E+03   0.399E+01 -.466E+02 0.700E+03   0.115E+00 0.145E-01 -.291E+00
   -.778E+02 0.859E+02 -.232E+04   0.777E+02 -.860E+02 0.231E+04   0.633E-01 0.490E-01 0.608E+01
   -.293E+01 0.510E+02 -.235E+04   0.282E+01 -.510E+02 0.235E+04   0.950E-01 0.309E-01 0.608E+01
   -.661E+02 0.472E+02 -.661E+03   0.660E+02 -.472E+02 0.661E+03   0.723E-01 0.381E-02 -.274E+00
   -.656E+01 0.132E+02 -.672E+03   0.647E+01 -.132E+02 0.672E+03   0.748E-01 -.493E-02 -.298E+00
   -.143E+03 0.220E+02 -.227E+04   0.143E+03 -.220E+02 0.226E+04   0.510E-02 0.119E-01 0.609E+01
   -.941E+01 0.544E+02 -.232E+04   0.929E+01 -.544E+02 0.231E+04   0.105E+00 0.265E-01 0.607E+01
   -.768E+02 -.210E+02 -.649E+03   0.768E+02 0.209E+02 0.650E+03   0.293E-01 0.241E-01 -.317E+00
   -.464E+01 -.386E+02 -.687E+03   0.462E+01 0.386E+02 0.687E+03   0.205E-01 -.130E-01 -.302E+00
   -.109E+03 -.725E+02 -.230E+04   0.109E+03 0.725E+02 0.229E+04   -.205E-01 0.113E-02 0.608E+01
   -.121E+02 -.261E+02 -.231E+04   0.120E+02 0.262E+02 0.230E+04   0.708E-01 -.316E-01 0.609E+01
   -.494E+02 -.531E+02 -.690E+03   0.494E+02 0.531E+02 0.690E+03   -.473E-01 0.181E-02 -.308E+00
   -.207E+01 -.346E+02 -.718E+03   0.205E+01 0.346E+02 0.718E+03   0.146E-01 -.509E-02 -.286E+00
   -.524E+02 -.578E+02 -.235E+04   0.524E+02 0.578E+02 0.234E+04   -.643E-01 -.348E-01 0.609E+01
   -.571E+01 -.621E+02 -.234E+04   0.568E+01 0.622E+02 0.233E+04   0.274E-01 -.135E-01 0.609E+01
   -.276E+02 -.153E+02 -.720E+03   0.276E+02 0.153E+02 0.721E+03   -.324E-01 -.253E-01 -.278E+00
   -.152E+01 0.134E+02 -.725E+03   0.147E+01 -.134E+02 0.725E+03   0.404E-01 0.969E-02 -.271E+00
   -.367E+02 0.219E+02 -.236E+04   0.367E+02 -.219E+02 0.235E+04   -.425E-02 -.292E-01 0.608E+01
   -.207E+01 -.171E+02 -.236E+04   0.204E+01 0.171E+02 0.236E+04   0.270E-01 -.859E-02 0.608E+01
   0.302E+02 0.399E+02 -.709E+03   -.303E+02 -.400E+02 0.709E+03   0.950E-01 0.596E-01 -.278E+00
   0.775E+02 0.741E+02 -.658E+03   -.775E+02 -.741E+02 0.659E+03   0.158E-01 0.306E-01 -.378E+00
   0.692E+02 0.789E+02 -.232E+04   -.695E+02 -.790E+02 0.232E+04   0.222E+00 0.162E+00 0.608E+01
   0.814E+02 0.863E+02 -.233E+04   -.816E+02 -.865E+02 0.232E+04   0.175E+00 0.167E+00 0.608E+01
   0.542E+02 0.441E+02 -.667E+03   -.546E+02 -.441E+02 0.667E+03   0.358E+00 0.116E-02 -.289E+00
   0.129E+03 0.244E+02 -.591E+03   -.129E+03 -.243E+02 0.592E+03   -.541E-01 -.404E-01 -.418E+00
   0.115E+03 0.189E+02 -.228E+04   -.116E+03 -.188E+02 0.228E+04   0.183E+00 -.133E+00 0.609E+01
   0.208E+03 0.112E+03 -.221E+04   -.210E+03 -.112E+03 0.220E+04   0.107E+01 0.452E-02 0.600E+01
   0.662E+02 -.187E+02 -.657E+03   -.663E+02 0.188E+02 0.657E+03   0.385E-01 -.601E-01 -.288E+00
   0.109E+03 -.623E+02 -.624E+03   -.109E+03 0.623E+02 0.625E+03   0.159E+00 -.309E-02 -.310E+00
   0.912E+02 -.650E+02 -.231E+04   -.913E+02 0.651E+02 0.230E+04   0.683E-01 -.414E-01 0.609E+01
   0.242E+03 -.557E+02 -.220E+04   -.242E+03 0.558E+02 0.220E+04   0.167E+00 -.104E+00 0.615E+01
   0.440E+02 -.505E+02 -.694E+03   -.441E+02 0.505E+02 0.694E+03   0.651E-01 -.778E-02 -.296E+00
   0.588E+02 -.539E+02 -.691E+03   -.589E+02 0.539E+02 0.691E+03   0.145E+00 -.232E-01 -.292E+00
   0.467E+02 -.543E+02 -.235E+04   -.468E+02 0.544E+02 0.234E+04   0.971E-01 -.209E-01 0.609E+01
   0.137E+03 -.110E+03 -.229E+04   -.137E+03 0.110E+03 0.229E+04   0.192E+00 -.309E-01 0.609E+01
   0.253E+02 -.148E+02 -.721E+03   -.254E+02 0.148E+02 0.721E+03   0.636E-01 0.807E-02 -.280E+00
   0.427E+02 0.179E+02 -.708E+03   -.428E+02 -.180E+02 0.708E+03   0.554E-01 0.366E-01 -.287E+00
   0.341E+02 0.213E+02 -.236E+04   -.342E+02 -.214E+02 0.235E+04   0.894E-01 0.377E-01 0.608E+01
   0.632E+02 -.306E+02 -.235E+04   -.634E+02 0.306E+02 0.234E+04   0.147E+00 -.568E-01 0.609E+01
[...]
   -.272E+02 0.871E+01 0.194E+04   0.273E+02 -.874E+01 -.195E+04   -.285E-01 0.286E-01 0.307E+01
   -.240E+02 0.168E+02 0.192E+04   0.240E+02 -.169E+02 -.192E+04   0.430E-02 0.460E-02 0.306E+01
   -.541E+02 -.140E+02 0.779E+03   0.541E+02 0.140E+02 -.778E+03   -.496E-02 0.561E-01 -.139E+00
   -.452E+02 -.280E+02 0.728E+03   0.452E+02 0.280E+02 -.728E+03   -.505E-01 0.195E-01 -.132E+00
   -.255E+02 -.196E+02 0.194E+04   0.256E+02 0.196E+02 -.194E+04   -.538E-01 0.268E-01 0.310E+01
   -.272E+02 -.605E+01 0.193E+04   0.272E+02 0.603E+01 -.193E+04   -.175E-01 0.238E-01 0.307E+01
   -.381E+02 -.431E+02 0.734E+03   0.382E+02 0.431E+02 -.734E+03   -.120E+00 -.529E-03 -.612E-01
   -.278E+02 -.259E+02 0.696E+03   0.278E+02 0.259E+02 -.695E+03   -.398E-01 -.103E-01 -.109E+00
   -.175E+02 -.194E+02 0.191E+04   0.175E+02 0.194E+02 -.191E+04   -.412E-01 -.229E-01 0.310E+01
   -.211E+02 -.197E+02 0.191E+04   0.211E+02 0.197E+02 -.192E+04   -.374E-01 0.305E-02 0.309E+01
   -.230E+02 -.138E+02 0.697E+03   0.230E+02 0.138E+02 -.697E+03   -.330E-01 -.413E-01 -.936E-01
   -.217E+02 0.867E+01 0.686E+03   0.217E+02 -.865E+01 -.686E+03   -.178E-02 -.241E-01 -.118E+00
   -.144E+02 0.603E+01 0.190E+04   0.144E+02 -.600E+01 -.191E+04   -.165E-01 -.287E-01 0.308E+01
   -.148E+02 -.642E+01 0.190E+04   0.148E+02 0.643E+01 -.190E+04   -.190E-01 -.180E-01 0.308E+01
   -.977E+00 -.971E+00 0.984E+02   -.568E-12 0.528E-11 -.909E-12   0.503E+00 0.171E+01 -.873E+02

 POSITION                                       TOTAL-FORCE (eV/Angst)
      9.10667      4.79263     17.48041         0.087066     -0.010220     -0.079749
     11.81905      5.00625     17.68907         0.027275      0.102372      0.027623
     14.44594      5.31817     17.79364        -0.064956      0.111006      0.050896
     17.10876      5.48755     17.88966        -0.000467     -0.002323     -0.014616
     10.05294      7.36352     17.61631         0.098399     -0.004235      0.055966
     12.89594      7.66983     17.69393        -0.013540      0.024841     -0.053266
     15.82200      7.87788     17.78178        -0.130607      0.010511      0.088248
     11.06878      9.86158     17.55976         0.046491     -0.071080     -0.027241
     14.33937     10.09445     17.60024        -0.027392     -0.002065     -0.056365
     12.57689     12.16871     17.39436        -0.065424     -0.016777     -0.149916
     10.13674      5.68285     19.86608         0.022355      0.075031     -0.031556
     12.95101      5.86320     20.08161         0.011352      0.095120     -0.018031
     15.75002      6.28136     20.16097        -0.087490      0.091357     -0.043670
     11.10263      8.43243     19.92362         0.042973     -0.024748     -0.057592
     14.34645      8.72408     20.00947        -0.101606      0.024592      0.061264
     12.56899     10.88515     19.74814        -0.061308     -0.094741     -0.033023
     11.26704      6.72409     22.08029         0.022679     -0.034289     -0.009520
     14.22880      7.04397     22.22443         0.033353     -0.023235     -0.007236
     12.57657      9.43471     22.02315         0.052461      0.050905     -0.001950
     12.57349      7.78308     24.18661        -0.048546      0.043714      0.045312
      0.00040     21.13811     12.89147        -0.001468     -0.001226     -0.018120
      2.11220      2.11270     12.89252        -0.000694     -0.000155     -0.019867
      0.00209      2.10887     14.99130        -0.000463     -0.001736     -0.232578
      2.11172     21.13554     14.98924         0.001006     -0.002636     -0.227139
     21.13885      4.22650     12.89308        -0.006407      0.002581     -0.021690
      2.11183      6.34106     12.89306        -0.004128      0.000789     -0.021788
      0.00509      6.33945     14.99451        -0.011945      0.004606     -0.239665
      2.11041      4.22469     14.99215         0.000433      0.000021     -0.231227
     21.13846      8.45487     12.89399        -0.007364     -0.001495     -0.018907
      2.11228     10.57022     12.89244        -0.002461     -0.000368     -0.018681
      0.00272     10.57175     14.99275        -0.004282     -0.002006     -0.231142
      2.11129      8.45736     14.99112        -0.001684      0.002013     -0.230163
      0.00066     12.68420     12.89254        -0.000503     -0.003471     -0.016647
      2.11282     14.79821     12.89142        -0.000728     -0.001969     -0.015899
      0.00273     14.80072     14.99000        -0.000364     -0.002525     -0.227117
      2.11207     12.68646     14.99011         0.000378     -0.001082     -0.227411
      0.00087     16.91193     12.89112         0.000596     -0.002273     -0.015057
      2.11314     19.02478     12.89080        -0.000517     -0.001587     -0.015418
      0.00208     19.02451     14.98887         0.000339     -0.002669     -0.226186
      2.11266     16.91224     14.98863        -0.000316     -0.001859     -0.224599
      4.22565     21.13811     12.89158         0.000496     -0.001777     -0.017757
      6.33900      2.11252     12.89929         0.007168      0.004264     -0.015505
      4.21967      2.10709     14.99310         0.003249     -0.003002     -0.230295
      6.33231     21.13246     14.99265         0.000598     -0.000261     -0.229971
      4.22332      4.22681     12.89448         0.000389     -0.000516     -0.021647
      6.33719      6.34189     12.89653         0.010994     -0.001238     -0.013249
      4.21821      6.34460     14.99271         0.006382      0.002576     -0.232140
      6.30729      4.22596     15.00936         0.013964     -0.000372     -0.252295
      4.22408      8.45616     12.89164         0.000958      0.001031     -0.021227
      6.33586     10.57077     12.89228         0.003676     -0.003127     -0.015057
      4.22079     10.57297     14.99078         0.003314      0.000170     -0.229897
      6.32502      8.45861     14.99266         0.022910      0.000852     -0.240271
      4.22447     12.68484     12.89197        -0.001461     -0.002068     -0.018053
      6.33716     14.79901     12.89199        -0.002529     -0.002795     -0.018636
      4.22255     14.80035     14.98942         0.000191     -0.001362     -0.225970
      6.33029     12.68829     14.99238         0.003628     -0.005128     -0.231962
      4.22531     16.91163     12.89090        -0.001137     -0.002172     -0.015630
      6.33877     19.02464     12.89169        -0.000839     -0.000861     -0.017552
      4.22285     19.02349     14.98871         0.000072     -0.002303     -0.224887
      6.33376     16.91435     14.98942        -0.000970     -0.001427     -0.226101
[...]
     19.02497      6.34166     10.77222         0.009251      0.004072      0.015316
     16.91108      6.34166      8.65833        -0.008895      0.008580     -0.401292
     19.02497      4.22777      8.65833         0.001953      0.000729     -0.403058
     16.91108      8.45554     10.77222        -0.000282      0.021008      0.014813
     19.02497     10.56943     10.77222        -0.018712      0.005935      0.034686
     16.91108     10.56943      8.65833        -0.017412      0.007889     -0.390695
     19.02497      8.45554      8.65833        -0.005278      0.006888     -0.400776
     16.91108     12.68331     10.77222        -0.045636     -0.001781      0.060501
     19.02497     14.79720     10.77222        -0.014805     -0.005305      0.025575
     16.91108     14.79720      8.65833        -0.013099     -0.008406     -0.391897
     19.02497     12.68331      8.65833        -0.011880      0.000112     -0.395518
     16.91108     16.91108     10.77222        -0.012331     -0.016601      0.028008
     19.02497     19.02497     10.77222        -0.000888     -0.009376      0.016184
     16.91108     19.02497      8.65833        -0.004907     -0.010223     -0.398780
     19.02497     16.91108      8.65833        -0.005738     -0.006742     -0.398364
    total drift:                               -0.225808      0.352264     -3.293202

  FREE ENERGIE OF THE ION-ELECTRON SYSTEM (eV)
  free  energy   TOTEN  =     -2893.88369686 eV

  energy  without entropy=    -2893.88369686  energy(sigma->0) =    -2893.88369686