 vasp.6.3.0 20Jan22 (build Apr  1 2022 16:44:48) complex
 executed on        HPECrayEX_GCC date 2022.11.18  12:32:50

 INCAR:
   SYSTEM = MgO-rocksalt
   ISMEAR = 0
   SIGMA = 0.05
   EDIFF = 1E-6
   ALGO = ALL
   ISTART = 0
   IBRION = -1
   NSW = 0
   ISYM = 2
   DIPOL = 0.5 0.5 0.5
   IDIPOL = 3
   LDIPOL = .TRUE.
   GGA = RE
   IVDW = 12
   VDW_A1 = 0.5238
   VDW_S8 = 2.3550
   VDW_A2 = 3.5016
   ENCUT = 520
   PREC = Accurate
   LASPH = .TRUE.
   LREAL = Auto
   ISPIN = 1
   NELM = 200
   NELMIN = 8
   NCORE = 4
   KPAR = 2
   LWAVE = .FALSE.
   LCHARG = .FALSE.

 POTCAR:    PAW_PBE Cu 22Jun2005
 POTCAR:    PAW_PBE Mg_pv 13Apr2007
 POTCAR:    PAW_PBE O 08Apr2002
 POTCAR:    PAW_PBE Cu 22Jun2005
   VRHFIN =Cu: d10 p1

   TITEL  = PAW_PBE Cu 22Jun2005
   POMASS =   63.546; ZVAL   =   11.000    mass and valenz
   ENMAX  =  295.446; ENMIN  =  221.585 eV

   TITEL  = PAW_PBE Mg_pv 13Apr2007
   POMASS =   24.305; ZVAL   =    8.000    mass and valenz
   ENMAX  =  403.929; ENMIN  =  302.947 eV

   TITEL  = PAW_PBE O 08Apr2002
   POMASS =   16.000; ZVAL   =    6.000    mass and valenz
   ENMAX  =  400.000; ENMIN  =  300.000 eV

 Optimization of the real space projectors (new method)

 maximal supplied QI-value         = 16.25
 optimisation between [QCUT,QGAM] = [ 11.54, 23.24] = [ 37.28,151.24] Ry
 Optimized for a Real-space Cutoff    1.53 Angstroem

   l    n(q)    QCUT    max X(q) W(low)/X(q) W(high)/X(q)  e(spline)
   2     10    11.539     4.610    0.96E-04    0.13E-03    0.19E-06
   2     10    11.539     8.522    0.16E-03    0.21E-03    0.28E-06
   0     11    11.539    51.609    0.45E-04    0.31E-04    0.11E-06
   0     11    11.539    27.747    0.39E-04    0.29E-04    0.10E-06
   1     10    11.539    20.408    0.70E-05    0.38E-04    0.18E-06
   1     10    11.539    13.425    0.66E-05    0.34E-04    0.17E-06
 Optimization of the real space projectors (new method)

[...]

   l    n(q)    QCUT    max X(q) W(low)/X(q) W(high)/X(q)  e(spline)
   1      8    11.527     2.974    0.44E-04    0.56E-04    0.12E-06
   1      8    11.527     4.279    0.12E-03    0.12E-03    0.26E-06
   0      9    11.527    16.381    0.46E-04    0.64E-04    0.78E-07
   0      9    11.527     5.611    0.26E-04    0.43E-04    0.55E-07
   2      8    11.527     4.652    0.22E-03    0.72E-04    0.47E-07
 Optimization of the real space projectors (new method)

 maximal supplied QI-value         = 24.76
 optimisation between [QCUT,QGAM] = [ 11.64, 23.27] = [ 37.91,151.63] Ry
 Optimized for a Real-space Cutoff    1.14 Angstroem

   l    n(q)    QCUT    max X(q) W(low)/X(q) W(high)/X(q)  e(spline)
   0      8    11.635    20.381    0.10E-03    0.33E-03    0.24E-06
   0      8    11.635    15.268    0.11E-03    0.35E-03    0.26E-06
   1      7    11.635     5.964    0.24E-03    0.31E-03    0.30E-06
   1      7    11.635     5.382    0.22E-03    0.25E-03    0.26E-06
|               ----> ADVICE to this user running VASP <----                  |
|     You enforced a specific xc type in the INCAR file but a different       |
|     type was found in the POTCAR file.                                      |
|     I HOPE YOU KNOW WHAT YOU ARE DOING!                                     |

  PAW_PBE Cu 22Jun2005                  :
  PAW_PBE Mg_pv 13Apr2007               :
  PAW_PBE O 08Apr2002                   :

 POSCAR: Cu Mg  O
  positions in direct lattice
 exchange correlation table for  LEXCH =       40
   RHO(1)=    0.500       N(1)  =     2000
   RHO(2)=  100.500       N(2)  =     4000

 ion  position               nearest neighbor table
   1  0.487  0.413  0.634-   2 2.23
   2  0.413  0.487  0.634-   1 2.23
   3  0.000  0.000  0.407- 105 2.11 106 2.11 121 2.11 186 2.11 103 2.11
   4  0.100  0.100  0.407- 105 2.11 106 2.11 110 2.11 125 2.11 104 2.11
   5  0.000  0.100  0.503- 103 2.11 104 2.11 107 2.11 184 2.11 105 2.11
   6  0.100  0.000  0.503- 103 2.11 104 2.11 120 2.11 123 2.11 106 2.11
   7  0.000  0.200  0.407- 109 2.11 105 2.11 110 2.11 190 2.11 107 2.11
   8  0.100  0.300  0.407- 110 2.11 109 2.11 114 2.11 129 2.11 108 2.11
   9  0.000  0.300  0.503- 107 2.11 108 2.11 111 2.11 188 2.11 109 2.11
  10  0.100  0.200  0.503- 108 2.11 107 2.11 104 2.11 127 2.11 110 2.11
  11  0.000  0.400  0.407- 109 2.11 113 2.11 114 2.11 194 2.11 111 2.11
  12  0.100  0.500  0.407- 113 2.11 114 2.11 118 2.11 133 2.11 112 2.11
  13  0.000  0.500  0.503- 111 2.11 112 2.11 115 2.11 192 2.11 113 2.11
  14  0.100  0.400  0.503- 108 2.11 111 2.11 112 2.11 131 2.11 114 2.11
  15  0.000  0.600  0.407- 113 2.11 117 2.11 118 2.11 198 2.11 115 2.11
  16  0.100  0.700  0.407- 122 2.11 118 2.11 117 2.11 137 2.11 116 2.11
  17  0.000  0.700  0.503- 119 2.11 116 2.11 115 2.11 196 2.11 117 2.11
  18  0.100  0.600  0.503- 112 2.11 115 2.11 116 2.11 135 2.11 118 2.11
  19  0.000  0.800  0.407- 117 2.11 121 2.11 122 2.11 202 2.11 119 2.11
  20  0.100  0.900  0.407- 106 2.11 121 2.11 122 2.11 141 2.11 120 2.11
  21  0.000  0.900  0.503- 103 2.11 119 2.11 120 2.11 200 2.11 121 2.11
  22  0.100  0.800  0.503- 116 2.11 119 2.11 120 2.11 139 2.11 122 2.11
  23  0.200  0.000  0.407- 126 2.11 125 2.11 106 2.11 141 2.11 123 2.11
  24  0.300  0.100  0.407- 125 2.11 126 2.11 130 2.11 145 2.11 124 2.11
  25  0.200  0.100  0.503- 124 2.11 123 2.11 104 2.11 127 2.11 125 2.11
  26  0.300  0.000  0.503- 123 2.11 124 2.11 140 2.11 143 2.11 126 2.11
  27  0.200  0.200  0.407- 129 2.11 130 2.11 110 2.11 125 2.11 127 2.11
  28  0.300  0.300  0.407- 129 2.11 130 2.11 134 2.11 149 2.11 128 2.11
  29  0.200  0.300  0.503- 127 2.11 128 2.11 108 2.11 131 2.11 129 2.11
  30  0.300  0.200  0.503- 127 2.11 128 2.11 124 2.11 147 2.11 130 2.11
  31  0.200  0.400  0.407- 134 2.11 129 2.11 133 2.11 114 2.11 131 2.11
  32  0.300  0.500  0.407- 133 2.11 134 2.11 138 2.11 153 2.11 132 2.11
  33  0.200  0.500  0.503- 132 2.11 131 2.11 112 2.11 135 2.11 133 2.11
  34  0.300  0.400  0.503- 131 2.11 128 2.11 132 2.11 151 2.11 134 2.11
  35  0.200  0.600  0.407- 138 2.11 133 2.11 137 2.11 118 2.11 135 2.11
  36  0.300  0.700  0.407- 137 2.11 142 2.11 138 2.11 157 2.11 136 2.11
  37  0.200  0.700  0.503- 136 2.11 139 2.11 116 2.11 135 2.11 137 2.11
  38  0.300  0.600  0.503- 135 2.11 132 2.11 136 2.11 155 2.11 138 2.11
  39  0.200  0.800  0.407- 137 2.11 142 2.11 141 2.11 122 2.11 139 2.11
  40  0.300  0.900  0.407- 141 2.11 126 2.11 142 2.11 161 2.11 140 2.11
  41  0.200  0.900  0.503- 140 2.11 123 2.11 139 2.11 120 2.11 141 2.11
  42  0.300  0.800  0.503- 136 2.11 139 2.11 140 2.11 159 2.11 142 2.11
  43  0.400  0.000  0.407- 126 2.11 145 2.11 146 2.11 161 2.11 143 2.11
  44  0.500  0.100  0.407- 145 2.11 146 2.11 150 2.11 165 2.11 144 2.11
  45  0.400  0.100  0.503- 124 2.11 143 2.11 144 2.11 147 2.11 145 2.11
  46  0.500  0.000  0.503- 143 2.11 144 2.11 160 2.11 163 2.11 146 2.11
  47  0.400  0.200  0.407- 149 2.11 145 2.11 130 2.11 150 2.11 147 2.11
  48  0.500  0.300  0.407- 150 2.11 149 2.11 154 2.11 169 2.11 148 2.11
  49  0.400  0.300  0.503- 147 2.11 128 2.11 148 2.11 151 2.11 149 2.11
  50  0.500  0.200  0.503- 148 2.11 147 2.11 144 2.11 167 2.11 150 2.11
  51  0.400  0.400  0.407- 134 2.11 149 2.11 153 2.11 154 2.11 151 2.11
  52  0.500  0.500  0.407- 153 2.11 154 2.11 158 2.11 173 2.11 152 2.11
  53  0.400  0.500  0.503- 132 2.11 151 2.11 152 2.11 155 2.11 153 2.11
  54  0.500  0.400  0.503- 148 2.11 151 2.11 152 2.11 171 2.11 154 2.11
  55  0.400  0.600  0.407- 138 2.11 153 2.11 157 2.11 158 2.11 155 2.11
  56  0.500  0.700  0.407- 162 2.11 158 2.11 157 2.11 177 2.11 156 2.11
  57  0.400  0.700  0.503- 159 2.11 155 2.11 156 2.11 136 2.11 157 2.11
  58  0.500  0.600  0.503- 152 2.11 155 2.11 156 2.11 175 2.11 158 2.11
  59  0.400  0.800  0.407- 157 2.11 142 2.11 161 2.11 162 2.11 159 2.11
  60  0.500  0.900  0.407- 146 2.11 161 2.11 162 2.11 181 2.11 160 2.11
[...]
 188  0.900  0.300  0.503-  90 2.11  89 2.11   9 2.11  94 2.11  88 2.11
 189  0.800  0.300  0.407-  68 2.11  87 2.11  88 2.11  91 2.11  89 2.11
 190  0.900  0.200  0.407-  88 2.11  84 2.11  87 2.11   7 2.11  90 2.11
 191  0.800  0.400  0.503-  74 2.11  89 2.11  93 2.11  94 2.11  91 2.11
 192  0.900  0.500  0.503-  13 2.11  93 2.11  94 2.11  98 2.11  92 2.11
 193  0.800  0.500  0.407-  72 2.11  91 2.11  92 2.11  95 2.11  93 2.11
 194  0.900  0.400  0.407-  11 2.11  88 2.11  91 2.11  92 2.11  94 2.11
 195  0.800  0.600  0.503-  78 2.11  93 2.11  97 2.11  98 2.11  95 2.11
 196  0.900  0.700  0.503- 102 2.11  97 2.11  98 2.11  17 2.11  96 2.11
 197  0.800  0.700  0.407-  76 2.11  99 2.11  96 2.11  95 2.11  97 2.11
 198  0.900  0.600  0.407-  15 2.11  92 2.11  95 2.11  96 2.11  98 2.11
 199  0.800  0.800  0.503-  82 2.11  97 2.11 101 2.11 102 2.11  99 2.11
 200  0.900  0.900  0.503-  21 2.11  86 2.11 101 2.11 102 2.11 100 2.11
 201  0.800  0.900  0.407-  80 2.11  83 2.11  99 2.11 100 2.11 101 2.11
 202  0.900  0.800  0.407-  96 2.11  19 2.11  99 2.11 100 2.11 102 2.11

  LATTYP: Found a simple tetragonal cell.
 ALAT       =    21.1388521970
 C/A-ratio  =     1.0461251639

  Lattice vectors:

 A1 = (  21.1388521970,   0.0000000000,   0.0000000000)
 A2 = (   0.0000000000,  21.1388521970,   0.0000000000)
 A3 = (   0.0000000000,   0.0000000000,  22.1138852197)

Analysis of symmetry for initial positions (statically):
 Subroutine PRICEL returns:
 Original cell was already a primitive cell.

 Routine SETGRP: Setting up the symmetry group for a
 simple tetragonal supercell.

 Subroutine GETGRP returns: Found  4 space group operations
 (whereof  2 operations were pure point group operations)
 out of a pool of 16 trial point group operations.

The static configuration has the point symmetry C_1h.
 The point group associated with its full space group is C_2v.

Analysis of symmetry for dynamics (positions and initial velocities):
 Subroutine PRICEL returns:
 Original cell was already a primitive cell.

 Routine SETGRP: Setting up the symmetry group for a
 simple tetragonal supercell.

 Subroutine GETGRP returns: Found  4 space group operations
 (whereof  2 operations were pure point group operations)
 out of a pool of 16 trial point group operations.

The dynamic configuration has the point symmetry C_1h.
 The point group associated with its full space group is C_2v.

 Subroutine INISYM returns: Found  4 space group operations
 (whereof  2 operations are pure point group operations),
 and found     1 'primitive' translations

                                     Primitive cell

  volume of cell :    9881.6133

  direct lattice vectors                    reciprocal lattice vectors
    21.138852197  0.000000000  0.000000000     0.047306258  0.000000000  0.000000000
     0.000000000 21.138852197  0.000000000     0.000000000  0.047306258  0.000000000
     0.000000000  0.000000000 22.113885220     0.000000000  0.000000000  0.045220457

  length of vectors
    21.138852197 21.138852197 22.113885220     0.047306258  0.047306258  0.045220457

  position of ions in fractional coordinates (direct lattice)
     0.487233885  0.412766122  0.633890230
     0.412766091  0.487233915  0.633890230
     0.000000000  0.000000000  0.406984115
     0.100000000  0.100000000  0.406984115
     0.000000000  0.100000000  0.502574971
[...]
|           WW  WW  A    A  R   R   N   NN  II  N   NN  G    G                |
|           W    W  A    A  R    R  N    N  II  N    N   GGGG   !!!           |
|     Specifying the vdW parameters                                           |
|     VDW_A1 = 0.524                                                          |
|     VDW_A2 = 3.502                                                          |
|     VDW_S8 = 2.355                                                          |
|     in the INCAR file will overwrite the defaults for revpbe. Please        |
|     make sure that is what you intended.                                    |

         DFTD3 V3.0 Rev 1
 IVDW         = 12
 DF revpbe
 parameters
 VDW_S6       =    1.0000
 VDW_S8       =    2.3550
 VDW_A1       =    0.5238
 VDW_A2       =    3.5016
 k1-k3        =   16.0000    1.3333   -4.0000
 VDW_RADIUS   =   50.2022 A
 VDW_CNRADIUS =   21.1671 A
 Edisp (eV)  -64.50280

 E6    (eV) :   -20.3917
 E8    (eV) :   -44.1111
 % E8        : 68.39

  FORCE on cell =-STRESS in cart. coord.  units (eV):
  Direction    XX          YY          ZZ          XY          YZ          ZX
  Alpha Z  1354.41543  1354.41543  1354.41543
  Ewald  478638.37410478638.37410************  -389.48255     0.00001    -0.00000
  Hartree507521.74450507521.74453************  -288.74691     0.00000    -0.00000
  E(xc)   -7803.88577 -7803.88577 -7853.89516    -0.35795    -0.00000    -0.00000
  Local  ************************************   670.72911    -0.00001     0.00000
  n-local -8758.44459 -8758.44460 -8878.11173     1.68566     0.00000    -0.00000
  augment  3464.71399  3464.71399  3407.83867     3.01624     0.00000     0.00000
  Kinetic 22880.07587 22880.07589 23127.16949     3.12166     0.00000    -0.00000
  Fock        0.00000     0.00000     0.00000     0.00000     0.00000     0.00000
  vdW       -66.28382   -66.28382   -21.30475    -0.00246    -0.00000     0.00000
  Total    -170.36809  -170.36809    18.94337    -0.03720     0.00000    -0.00000
  in kB     -27.62301   -27.62301     3.07143    -0.00603     0.00000    -0.00000

 VOLUME and BASIS-vectors are now :
  energy-cutoff  :      520.00
  volume of cell :     9881.61
      direct lattice vectors                 reciprocal lattice vectors
    21.138852197  0.000000000  0.000000000     0.047306258  0.000000000  0.000000000
     0.000000000 21.138852197  0.000000000     0.000000000  0.047306258  0.000000000
     0.000000000  0.000000000 22.113885220     0.000000000  0.000000000  0.045220457

  length of vectors
    21.138852197 21.138852197 22.113885220     0.047306258  0.047306258  0.045220457

 FORCES acting on ions:
    Electron-Ion                     Ewald-Force                    Non-Local-Force
   -.255E+03 0.255E+03 -.200E+04   0.246E+03 -.246E+03 0.200E+04   0.906E+01 -.906E+01 0.264E+00
   0.255E+03 -.255E+03 -.200E+04   -.246E+03 0.246E+03 0.200E+04   -.906E+01 0.906E+01 0.264E+00
   0.175E+01 0.175E+01 0.931E+03   -.174E+01 -.174E+01 -.923E+03   -.178E-02 -.178E-02 -.752E+01
   0.626E+01 0.626E+01 0.933E+03   -.626E+01 -.626E+01 -.925E+03   -.403E-02 -.403E-02 -.752E+01
   0.269E+01 0.599E+01 -.922E+03   -.268E+01 -.599E+01 0.914E+03   -.844E-02 -.480E-03 0.750E+01
   0.599E+01 0.269E+01 -.922E+03   -.599E+01 -.268E+01 0.914E+03   -.480E-03 -.844E-02 0.750E+01
   0.302E+01 0.636E+01 0.933E+03   -.300E+01 -.637E+01 -.926E+03   -.105E-01 0.227E-02 -.752E+01
   0.130E+02 0.799E+01 0.939E+03   -.130E+02 -.801E+01 -.931E+03   -.106E-01 0.103E-01 -.752E+01
   0.590E+01 0.710E+01 -.919E+03   -.588E+01 -.710E+01 0.911E+03   -.126E-01 0.423E-02 0.750E+01
   0.127E+02 0.117E+02 -.919E+03   -.127E+02 -.117E+02 0.911E+03   -.154E-01 0.496E-03 0.750E+01
   0.524E+01 0.229E+01 0.936E+03   -.524E+01 -.229E+01 -.929E+03   -.161E-02 0.459E-02 -.752E+01
   0.166E+02 -.279E+01 0.942E+03   -.166E+02 0.278E+01 -.934E+03   0.311E-01 0.106E-01 -.752E+01
   0.808E+01 -.261E+01 -.918E+03   -.810E+01 0.261E+01 0.910E+03   0.110E-01 0.331E-02 0.750E+01
   0.254E+02 0.555E+01 -.913E+03   -.254E+02 -.558E+01 0.905E+03   -.244E-02 0.179E-01 0.750E+01
   0.483E+01 -.543E+01 0.935E+03   -.485E+01 0.543E+01 -.927E+03   0.156E-01 -.905E-03 -.752E+01
   0.991E+01 -.892E+01 0.936E+03   -.993E+01 0.893E+01 -.928E+03   0.170E-01 -.848E-02 -.752E+01
   0.501E+01 -.814E+01 -.921E+03   -.503E+01 0.814E+01 0.913E+03   0.165E-01 -.337E-02 0.750E+01
   0.212E+02 -.111E+02 -.915E+03   -.213E+02 0.111E+02 0.907E+03   0.375E-01 0.191E-02 0.750E+01
   0.255E+01 -.497E+01 0.932E+03   -.256E+01 0.498E+01 -.924E+03   0.850E-02 -.419E-02 -.752E+01
   0.497E+01 -.255E+01 0.932E+03   -.498E+01 0.256E+01 -.924E+03   0.419E-02 -.850E-02 -.752E+01
   0.234E+01 -.234E+01 -.923E+03   -.234E+01 0.234E+01 0.915E+03   0.370E-02 -.370E-02 0.750E+01
   0.883E+01 -.883E+01 -.921E+03   -.884E+01 0.884E+01 0.913E+03   0.118E-01 -.118E-01 0.750E+01
   0.636E+01 0.302E+01 0.933E+03   -.637E+01 -.300E+01 -.926E+03   0.227E-02 -.105E-01 -.752E+01
   0.799E+01 0.130E+02 0.939E+03   -.801E+01 -.130E+02 -.931E+03   0.103E-01 -.106E-01 -.752E+01
   0.117E+02 0.127E+02 -.919E+03   -.117E+02 -.127E+02 0.911E+03   0.496E-03 -.154E-01 0.750E+01
   0.710E+01 0.590E+01 -.919E+03   -.710E+01 -.588E+01 0.911E+03   0.423E-02 -.126E-01 0.750E+01
   0.135E+02 0.135E+02 0.940E+03   -.135E+02 -.135E+02 -.933E+03   -.266E-02 -.266E-02 -.753E+01
   0.225E+02 0.225E+02 0.962E+03   -.225E+02 -.225E+02 -.954E+03   0.156E-01 0.156E-01 -.757E+01
   0.344E+02 0.225E+02 -.905E+03   -.343E+02 -.226E+02 0.898E+03   -.463E-01 0.208E-01 0.749E+01
   0.225E+02 0.344E+02 -.905E+03   -.226E+02 -.343E+02 0.898E+03   0.208E-01 -.463E-01 0.749E+01
   0.268E+02 0.674E+01 0.954E+03   -.268E+02 -.679E+01 -.946E+03   -.598E-02 0.403E-01 -.752E+01
   0.316E+02 -.914E+01 0.980E+03   -.316E+02 0.909E+01 -.972E+03   -.398E-01 0.373E-01 -.735E+01
   0.529E+02 -.840E+01 -.894E+03   -.531E+02 0.835E+01 0.886E+03   0.102E+00 0.389E-01 0.751E+01
   0.800E+02 0.335E+02 -.847E+03   -.798E+02 -.337E+02 0.840E+03   -.128E+00 0.168E+00 0.744E+01
   0.216E+02 -.133E+02 0.949E+03   -.217E+02 0.134E+02 -.942E+03   0.289E-01 -.966E-02 -.750E+01
   0.133E+02 -.216E+02 0.949E+03   -.134E+02 0.217E+02 -.942E+03   0.966E-02 -.289E-01 -.750E+01
   0.220E+02 -.220E+02 -.912E+03   -.220E+02 0.220E+02 0.904E+03   0.280E-01 -.280E-01 0.751E+01
   0.510E+02 -.510E+02 -.872E+03   -.511E+02 0.511E+02 0.864E+03   0.770E-01 -.770E-01 0.756E+01
   0.892E+01 -.991E+01 0.936E+03   -.893E+01 0.993E+01 -.928E+03   0.848E-02 -.170E-01 -.752E+01
   0.543E+01 -.483E+01 0.935E+03   -.543E+01 0.485E+01 -.927E+03   0.905E-03 -.156E-01 -.752E+01
   0.814E+01 -.501E+01 -.921E+03   -.814E+01 0.503E+01 0.913E+03   0.337E-02 -.165E-01 0.750E+01
   0.111E+02 -.212E+02 -.915E+03   -.111E+02 0.213E+02 0.907E+03   -.191E-02 -.375E-01 0.750E+01
   0.229E+01 0.524E+01 0.936E+03   -.229E+01 -.524E+01 -.929E+03   0.459E-02 -.161E-02 -.752E+01
   -.279E+01 0.166E+02 0.942E+03   0.278E+01 -.166E+02 -.934E+03   0.106E-01 0.311E-01 -.752E+01
   0.555E+01 0.254E+02 -.913E+03   -.558E+01 -.254E+02 0.905E+03   0.179E-01 -.244E-02 0.750E+01
   -.261E+01 0.808E+01 -.918E+03   0.261E+01 -.810E+01 0.910E+03   0.331E-02 0.110E-01 0.750E+01
   0.674E+01 0.268E+02 0.954E+03   -.679E+01 -.268E+02 -.946E+03   0.403E-01 -.598E-02 -.752E+01
   -.914E+01 0.316E+02 0.980E+03   0.909E+01 -.316E+02 -.972E+03   0.373E-01 -.398E-01 -.735E+01
   0.335E+02 0.800E+02 -.847E+03   -.337E+02 -.798E+02 0.840E+03   0.168E+00 -.128E+00 0.744E+01
   -.840E+01 0.529E+02 -.894E+03   0.835E+01 -.531E+02 0.886E+03   0.389E-01 0.102E+00 0.751E+01
   0.165E+02 0.165E+02 0.100E+04   -.165E+02 -.165E+02 -.996E+03   0.114E-01 0.114E-01 -.767E+01
   -.165E+02 -.165E+02 0.100E+04   0.165E+02 0.165E+02 -.996E+03   -.114E-01 -.114E-01 -.767E+01
   0.522E+02 -.522E+02 -.719E+03   -.518E+02 0.518E+02 0.713E+03   -.316E+00 0.316E+00 0.602E+01
   -.522E+02 0.522E+02 -.719E+03   0.518E+02 -.518E+02 0.713E+03   0.316E+00 -.316E+00 0.602E+01
   0.914E+01 -.316E+02 0.980E+03   -.909E+01 0.316E+02 -.972E+03   -.373E-01 0.398E-01 -.735E+01
   -.674E+01 -.268E+02 0.954E+03   0.679E+01 0.268E+02 -.946E+03   -.403E-01 0.598E-02 -.752E+01
   0.840E+01 -.529E+02 -.894E+03   -.835E+01 0.531E+02 0.886E+03   -.389E-01 -.102E+00 0.751E+01
   -.335E+02 -.800E+02 -.847E+03   0.337E+02 0.798E+02 0.840E+03   -.168E+00 0.128E+00 0.744E+01
   0.279E+01 -.166E+02 0.942E+03   -.278E+01 0.166E+02 -.934E+03   -.106E-01 -.311E-01 -.752E+01
   -.229E+01 -.524E+01 0.936E+03   0.229E+01 0.524E+01 -.929E+03   -.459E-02 0.161E-02 -.752E+01
[...]
   -.104E+02 0.582E+01 0.706E+03   0.104E+02 -.582E+01 -.710E+03   -.249E-01 0.370E-02 0.347E+01
   -.274E+01 0.482E+01 0.702E+03   0.275E+01 -.482E+01 -.706E+03   -.127E-01 0.474E-02 0.346E+01
   -.198E+02 0.294E+01 -.686E+03   0.198E+02 -.292E+01 0.690E+03   -.214E-01 -.190E-01 -.348E+01
   -.571E+01 -.227E+01 -.690E+03   0.571E+01 0.227E+01 0.694E+03   0.148E-02 -.674E-02 -.348E+01
   -.122E+02 -.274E+01 0.708E+03   0.122E+02 0.275E+01 -.712E+03   -.359E-02 -.215E-01 0.346E+01
   -.414E+01 0.153E+01 0.704E+03   0.414E+01 -.153E+01 -.708E+03   -.815E-02 -.323E-02 0.346E+01
   -.145E+02 -.851E+01 -.688E+03   0.145E+02 0.852E+01 0.692E+03   0.101E-01 -.108E-01 -.349E+01
   -.301E+01 -.601E+01 -.692E+03   0.300E+01 0.601E+01 0.696E+03   0.104E-01 -.177E-02 -.348E+01
   -.688E+01 -.649E+01 0.703E+03   0.687E+01 0.649E+01 -.707E+03   0.903E-02 0.527E-03 0.346E+01
   -.315E+01 -.414E+01 0.703E+03   0.315E+01 0.414E+01 -.707E+03   0.762E-02 -.501E-02 0.346E+01
   -.609E+01 -.609E+01 -.692E+03   0.609E+01 0.609E+01 0.696E+03   0.705E-02 0.705E-02 -.348E+01
   -.160E+01 -.160E+01 -.694E+03   0.160E+01 0.160E+01 0.698E+03   0.222E-02 0.222E-02 -.348E+01
   -.363E+01 -.160E+01 0.700E+03   0.363E+01 0.159E+01 -.705E+03   0.129E-03 0.649E-02 0.346E+01
   -.160E+01 -.363E+01 0.700E+03   0.159E+01 0.363E+01 -.705E+03   0.649E-02 0.129E-03 0.346E+01
   -.308E-01 0.152E-01 0.615E+01   0.144E-11 0.125E-11 0.114E-12   -.294E-14 -.116E-14 -.679E+01

 POSITION                                       TOTAL-FORCE (eV/Angst)
     10.29957      8.72540     14.01778         0.141871     -0.141871     -0.091587
      8.72540     10.29957     14.01778        -0.141871      0.141871     -0.091587
      0.00000      0.00000      9.00000         0.000501      0.000501      0.353020
      2.11389      2.11389      9.00000         0.001215      0.001215      0.353550
      0.00000      2.11389     11.11389         0.002315      0.000190     -0.351902
      2.11389      0.00000     11.11389         0.000190      0.002315     -0.351902
      0.00000      4.22777      9.00000         0.002799     -0.000563      0.353152
      2.11389      6.34166      9.00000         0.002865     -0.002644      0.353763
      0.00000      6.34166     11.11389         0.003463     -0.001105     -0.351411
      2.11389      4.22777     11.11389         0.004467      0.000268     -0.350639
      0.00000      8.45554      9.00000         0.000409     -0.001338      0.353065
      2.11389     10.56943      9.00000        -0.007414     -0.003181      0.353628
      0.00000     10.56943     11.11389        -0.002690     -0.001026     -0.351720
      2.11389      8.45554     11.11389         0.001945     -0.005040     -0.349988
      0.00000     12.68331      9.00000        -0.004009      0.000249      0.352804
      2.11389     14.79720      9.00000        -0.004538      0.002374      0.351848
      0.00000     14.79720     11.11389        -0.004372      0.000927     -0.352147
      2.11389     12.68331     11.11389        -0.009394     -0.000663     -0.352711
      0.00000     16.91108      9.00000        -0.002290      0.001144      0.352770
      2.11389     19.02497      9.00000        -0.001144      0.002290      0.352770
      0.00000     19.02497     11.11389        -0.000987      0.000987     -0.352147
      2.11389     16.91108     11.11389        -0.003168      0.003168     -0.352462
      4.22777      0.00000      9.00000        -0.000563      0.002799      0.353152
      6.34166      2.11389      9.00000        -0.002644      0.002865      0.353763
      4.22777      2.11389     11.11389         0.000268      0.004467     -0.350639
      6.34166      0.00000     11.11389        -0.001105      0.003463     -0.351411
      4.22777      4.22777      9.00000         0.001427      0.001427      0.355904
      6.34166      6.34166      9.00000        -0.000349     -0.000349      0.369560
      4.22777      6.34166     11.11389         0.016424     -0.002570     -0.343682
      6.34166      4.22777     11.11389        -0.002570      0.016424     -0.343682
      4.22777      8.45554      9.00000         0.001331     -0.012116      0.354768
      6.34166     10.56943      9.00000         0.018391     -0.013234      0.321656
      4.22777     10.56943     11.11389        -0.026366     -0.013548     -0.345835
      6.34166      8.45554     11.11389         0.075710     -0.031623     -0.270162
      4.22777     12.68331      9.00000        -0.007439      0.003091      0.348828
      6.34166     14.79720      9.00000        -0.003091      0.007439      0.348828
      4.22777     14.79720     11.11389        -0.006924      0.006924     -0.354474
      6.34166     12.68331     11.11389        -0.007354      0.007354     -0.358227
      4.22777     16.91108      9.00000        -0.002374      0.004538      0.351848
      6.34166     19.02497      9.00000        -0.000249      0.004009      0.352804
      4.22777     19.02497     11.11389        -0.000927      0.004372     -0.352147
      6.34166     16.91108     11.11389         0.000663      0.009394     -0.352711
      8.45554      0.00000      9.00000        -0.001338      0.000409      0.353065
     10.56943      2.11389      9.00000        -0.003181     -0.007414      0.353628
      8.45554      2.11389     11.11389        -0.005040      0.001945     -0.349988
     10.56943      0.00000     11.11389        -0.001026     -0.002690     -0.351720
      8.45554      4.22777      9.00000        -0.012116      0.001331      0.354768
     10.56943      6.34166      9.00000        -0.013234      0.018391      0.321656
      8.45554      6.34166     11.11389        -0.031623      0.075710     -0.270162
     10.56943      4.22777     11.11389        -0.013548     -0.026366     -0.345835
      8.45554      8.45554      9.00000         0.004686      0.004686      0.391053
     10.56943     10.56943      9.00000        -0.004686     -0.004686      0.391053
      8.45554     10.56943     11.11389         0.127258     -0.127258     -0.259918
     10.56943      8.45554     11.11389        -0.127258      0.127258     -0.259918
      8.45554     12.68331      9.00000         0.013234     -0.018391      0.321656
     10.56943     14.79720      9.00000         0.012116     -0.001331      0.354768
      8.45554     14.79720     11.11389         0.013548      0.026366     -0.345835
     10.56943     12.68331     11.11389         0.031623     -0.075710     -0.270162
      8.45554     16.91108      9.00000         0.003181      0.007414      0.353628
     10.56943     19.02497      9.00000         0.001338     -0.000409      0.353065
[...]
     19.02497      6.34166     11.11389        -0.003942      0.000347      0.587376
     16.91108      6.34166      9.00000        -0.007077      0.001108     -0.587093
     19.02497      4.22777      9.00000        -0.003526      0.001361     -0.588360
     16.91108      8.45554     11.11389        -0.006323     -0.005241      0.587464
     19.02497     10.56943     11.11389         0.000359     -0.001886      0.586783
     16.91108     10.56943      9.00000        -0.001230     -0.006005     -0.589443
     19.02497      8.45554      9.00000        -0.002321     -0.000871     -0.588449
     16.91108     12.68331     11.11389         0.002622     -0.003077      0.585375
     19.02497     14.79720     11.11389         0.002862     -0.000522      0.587002
     16.91108     14.79720      9.00000         0.002420      0.000077     -0.589559
     19.02497     12.68331      9.00000         0.002086     -0.001431     -0.588880
     16.91108     16.91108     11.11389         0.001909      0.001909      0.586700
     19.02497     19.02497     11.11389         0.000604      0.000604      0.587439
     16.91108     19.02497      9.00000         0.000017      0.001780     -0.588815
     19.02497     16.91108      9.00000         0.001780      0.000017     -0.588815
    total drift:                               -0.030812      0.015238     -0.638746

  FREE ENERGIE OF THE ION-ELECTRON SYSTEM (eV)
  free  energy   TOTEN  =     -1153.48142359 eV

  energy  without entropy=    -1153.48142359  energy(sigma->0) =    -1153.48142359